NAME: LDG160_3131_fog_160_0076
COMMENT: CVRP with travel times.  rootPos=3,custPos=1,demandType=3,avgRouteSizeIndex=1,weather=fog,lambda_cluster=1,lambda_random=4, T1=300,T2=700,beta=1, alpha(i,j) ~ U(0.8,1.2)
TYPE: CVRP
DIMENSION: 161
EDGE_WEIGHT_TYPE: EXPLICIT
EDGE_WEIGHT_FORMAT: FULL_MATRIX
CAPACITY: 24
NODE_COORD_SECTION
1 0 0
2 360 323
3 436 406
4 554 419
5 554 985
6 931 621
7 842 11
8 677 615
9 993 954
10 770 522
11 9 293
12 727 897
13 661 949
14 760 840
15 705 417
16 603 687
17 760 657
18 604 650
19 707 606
20 855 69
21 839 712
22 990 163
23 706 373
24 52 124
25 522 970
26 815 623
27 529 776
28 567 350
29 411 641
30 120 259
31 434 336
32 722 331
33 738 709
34 635 839
35 840 339
36 307 804
37 113 784
38 304 19
39 290 610
40 325 722
41 896 210
42 437 446
43 994 748
44 198 110
45 866 140
46 449 674
47 144 66
48 201 348
49 482 939
50 540 252
51 104 449
52 834 282
53 542 506
54 752 530
55 895 182
56 640 503
57 268 743
58 75 789
59 993 576
60 385 371
61 867 925
62 51 129
63 412 667
64 878 421
65 861 692
66 287 560
67 657 612
68 816 996
69 828 237
70 984 635
71 50 146
72 636 717
73 376 359
74 371 571
75 157 210
76 984 703
77 580 12
78 172 247
79 857 631
80 321 969
81 373 695
82 233 801
83 657 315
84 660 248
85 430 255
86 777 237
87 382 202
88 262 624
89 993 630
90 978 10
91 579 117
92 967 594
93 514 6
94 511 44
95 956 596
96 55 627
97 144 271
98 493 73
99 424 710
100 887 785
101 673 432
102 741 869
103 29 35
104 360 691
105 64 124
106 826 397
107 492 945
108 613 708
109 142 497
110 573 333
111 615 153
112 203 736
113 170 500
114 150 444
115 837 293
116 415 486
117 767 874
118 543 981
119 629 922
120 981 720
121 459 234
122 714 468
123 514 58
124 976 283
125 962 460
126 650 167
127 372 773
128 480 438
129 565 68
130 350 547
131 740 125
132 576 583
133 474 988
134 257 137
135 895 134
136 992 155
137 10 763
138 40 495
139 765 395
140 348 559
141 755 775
142 788 59
143 83 881
144 203 629
145 380 30
146 838 945
147 662 109
148 26 206
149 605 268
150 839 465
151 243 819
152 954 973
153 446 610
154 919 779
155 912 135
156 444 937
157 956 595
158 78 556
159 340 911
160 711 556
161 614 269
EDGE_WEIGHT_SECTION
0.00 483.36 606.41 757.76 1146.47 1100.48 904.80 955.27 1383.01 980.59 335.95 1169.43 1169.99 1151.19 834.07 943.76 1034.40 929.72 929.36 854.82 1069.74 1034.81 884.56 142.22 1125.66 1027.13 964.41 698.37 796.58 326.32 584.76 832.93 1025.98 1039.14 945.15 877.12 816.68 358.34 708.80 801.79 940.58 636.50 1262.29 264.34 922.82 832.02 178.58 435.91 1071.02 647.13 467.52 943.11 755.94 956.23 972.62 831.57 793.14 853.36 1172.52 543.82 1299.24 149.59 827.57 1039.81 1119.12 631.19 933.23 1255.30 922.55 1202.84 181.58 987.76 544.15 712.95 318.55 1226.36 631.19 325.34 1086.03 1028.55 781.82 838.75 809.00 776.38 585.45 875.47 514.96 715.88 1193.59 1012.75 637.83 1161.07 552.55 512.58 1150.89 672.25 350.06 557.77 847.15 1192.67 877.06 1166.84 62.21 804.85 168.45 984.03 1055.28 967.69 543.33 729.92 701.48 744.48 549.71 530.76 947.21 650.50 1192.56 1155.31 1123.46 1209.01 552.39 910.32 534.23 1059.27 1112.80 723.13 879.21 657.23 614.56 668.22 733.76 850.29 1121.12 360.68 936.56 1016.34 838.60 525.64 918.67 681.37 1111.37 839.54 939.10 664.42 446.14 1292.03 737.22 231.86 741.70 1037.70 865.33 1355.27 795.06 1209.91 956.37 1085.92 1161.28 605.14 980.66 947.32 763.34
483.36 0.00 161.82 276.37 692.02 688.11 647.55 471.91 922.64 497.23 443.08 727.10 686.63 667.83 422.94 461.00 560.61 446.36 503.22 591.62 586.38 663.63 437.57 374.41 727.47 543.77 531.12 294.29 358.70 294.91 137.64 392.07 581.39 601.14 461.79 532.46 537.72 454.06 318.32 434.22 524.24 153.14 778.93 390.17 613.06 391.14 445.06 218.00 663.75 198.44 351.47 534.68 287.25 472.87 567.23 348.21 489.18 574.40 716.19 60.46 817.72 370.63 392.22 556.45 635.76 263.62 449.87 843.76 491.42 726.82 382.87 505.00 60.79 301.32 284.37 743.00 408.63 310.33 602.67 665.97 414.25 527.49 361.44 330.68 128.60 493.27 181.19 350.63 710.23 718.81 328.94 702.68 371.83 368.67 692.09 466.08 327.39 355.18 443.69 732.30 407.89 698.05 500.92 406.69 348.18 536.91 679.49 494.14 304.64 261.69 383.78 468.30 271.57 295.55 526.73 167.14 716.54 710.46 640.10 725.65 164.90 428.00 347.02 646.84 639.03 349.97 504.77 173.87 404.18 271.24 473.17 366.93 712.15 291.83 601.00 666.41 618.66 397.70 435.31 268.20 664.25 548.95 679.38 378.61 366.26 824.42 430.32 444.77 293.01 554.34 536.51 910.68 313.96 726.55 588.48 717.92 681.70 395.90 631.64 463.96 313.81
606.41 161.82 0.00 152.18 587.45 621.27 600.27 387.06 801.98 412.18 517.88 620.59 633.18 606.83 297.67 365.22 464.29 350.04 397.22 556.11 551.37 581.26 278.15 518.03 629.32 516.85 472.75 144.65 303.30 404.42 102.71 337.07 419.57 490.30 442.75 450.56 544.72 501.80 292.29 380.36 517.11 79.85 688.50 470.92 559.82 332.77 537.10 292.80 575.23 265.90 403.56 473.77 149.53 383.87 474.12 259.21 372.46 560.05 627.19 101.36 711.69 525.40 303.70 452.62 560.00 253.37 371.12 713.37 448.37 627.87 502.34 409.22 131.64 234.07 399.18 676.72 470.18 347.39 543.41 600.53 348.81 471.49 255.28 272.07 237.93 423.26 308.42 340.38 606.69 661.85 384.83 592.66 415.96 428.85 577.96 495.28 383.69 433.10 382.35 635.98 302.63 598.06 633.92 354.93 510.00 419.02 590.97 398.36 333.84 177.25 360.23 442.27 300.77 394.62 473.83 131.98 586.15 605.89 586.65 635.22 237.92 335.97 407.20 592.27 536.48 361.68 453.01 77.41 460.07 189.34 436.61 270.61 649.06 414.63 543.96 575.15 608.41 426.90 367.13 206.86 511.82 520.29 639.57 368.36 445.00 685.62 383.04 554.28 236.05 465.34 466.99 748.86 255.59 637.16 532.98 630.04 588.35 425.10 570.30 341.16 214.41
757.76 276.37 152.18 0.00 635.92 474.53 527.75 265.82 700.90 279.65 646.36 535.97 635.26 553.15 200.24 305.38 338.87 286.79 296.21 474.13 441.69 554.19 167.11 626.00 596.63 392.43 481.92 102.20 347.77 518.22 173.00 226.03 403.79 518.07 331.71 524.54 644.79 526.06 389.32 430.11 422.18 151.86 585.09 510.83 451.92 365.64 596.59 421.28 553.66 204.44 491.04 340.30 155.47 265.86 447.05 141.20 485.54 655.25 509.18 229.84 634.52 633.37 317.42 341.58 486.20 330.07 225.38 683.92 398.17 518.56 601.75 349.38 215.58 290.33 532.54 559.63 431.65 496.41 425.40 638.71 386.99 576.45 212.83 251.78 200.60 328.78 271.09 407.86 497.38 598.28 372.84 494.89 477.89 440.67 480.19 584.63 482.18 406.87 325.59 510.56 150.45 512.25 723.64 374.88 624.55 288.74 569.40 338.52 415.23 93.71 296.66 522.28 448.30 478.56 321.65 195.54 556.70 635.81 588.73 539.14 241.99 183.79 419.02 514.41 425.44 304.50 468.79 110.28 448.08 297.28 353.07 276.55 629.64 452.13 492.05 548.08 682.62 525.58 256.09 306.93 468.37 458.85 672.44 442.57 438.26 638.62 362.75 668.08 172.48 334.25 574.93 717.60 288.46 551.77 482.90 582.88 490.58 568.20 613.74 276.27 194.12
1146.47 692.02 587.45 635.92 0.00 553.67 992.84 424.74 521.90 554.77 918.59 247.40 171.07 265.22 622.08 345.74 385.23 373.61 459.09 1012.38 462.71 897.64 669.39 1004.25 41.87 459.48 246.97 638.48 400.92 844.77 688.60 651.45 341.31 176.76 762.90 359.73 517.94 1048.31 486.67 391.26 886.05 621.13 581.46 953.68 925.29 386.95 994.54 743.69 95.87 719.60 716.34 767.40 561.43 542.23 872.53 494.72 411.76 554.62 635.36 631.56 346.27 1011.62 367.40 712.06 481.74 515.28 461.60 365.25 816.81 574.78 1040.99 301.74 661.84 484.52 880.83 564.51 981.08 886.04 487.05 303.71 407.79 417.83 747.97 794.94 771.20 772.38 841.69 534.15 591.87 1101.93 908.97 588.43 993.05 967.22 590.55 597.28 849.54 922.03 323.94 442.49 574.43 272.54 1110.83 411.92 1030.48 696.94 91.19 341.64 657.66 671.08 874.03 478.19 648.92 749.23 764.09 558.18 293.32 18.44 130.54 572.66 806.23 610.21 965.98 856.02 717.44 871.13 313.84 624.88 902.69 511.38 913.43 453.04 101.55 916.64 917.47 916.11 611.06 738.95 655.95 493.86 311.86 957.05 528.60 526.06 975.20 362.05 929.03 987.34 749.85 649.78 398.22 470.21 446.70 479.63 937.28 150.68 580.16 659.45 263.45 496.41 771.49
1100.48 688.11 621.27 474.53 553.67 0.00 663.00 255.42 398.57 266.16 1002.50 400.67 432.65 329.72 416.32 387.08 188.00 340.61 224.05 596.38 127.80 536.90 410.55 1011.19 595.35 144.34 458.18 550.87 548.12 938.15 647.53 416.46 220.05 376.91 349.89 692.48 888.19 934.96 642.43 655.36 463.05 591.01 167.94 985.36 562.50 532.89 1063.39 819.09 566.84 590.05 859.48 427.65 471.74 254.63 506.04 379.06 710.79 907.59 85.43 627.65 403.13 1018.56 542.67 307.99 154.38 658.42 295.86 408.50 455.22 102.36 1050.55 361.62 657.93 550.56 939.70 157.31 730.49 938.76 100.37 752.40 595.76 760.88 501.52 559.95 658.11 500.40 728.60 702.79 105.91 726.68 695.72 60.59 762.67 751.77 50.41 854.30 907.51 770.54 517.61 208.82 386.32 363.69 1038.27 600.13 1036.29 301.53 551.10 378.87 800.38 518.27 609.13 754.15 767.31 843.38 414.83 528.06 360.66 570.95 459.97 190.59 684.79 345.66 761.74 424.60 196.96 593.46 612.45 560.86 649.79 595.29 597.18 381.68 622.87 887.51 572.92 518.43 930.38 893.44 348.92 588.77 297.52 623.17 900.37 701.90 848.71 378.40 676.52 1008.18 555.11 265.44 734.30 340.09 530.73 167.61 570.28 621.65 60.80 850.57 708.75 280.11 541.72
904.80 647.55 600.27 527.75 992.84 663.00 0.00 621.99 975.87 546.22 967.77 903.46 980.55 861.17 428.70 755.93 665.55 692.75 614.45 66.62 711.94 219.12 382.13 825.80 1024.49 644.74 843.56 479.64 780.41 814.76 527.07 341.39 730.63 874.02 335.25 957.18 1066.90 596.11 805.07 903.62 251.86 643.39 777.88 733.79 152.41 786.70 726.22 745.74 1022.85 449.11 879.21 289.81 602.70 572.87 215.73 571.08 964.57 1072.83 637.30 617.55 935.43 822.02 799.74 438.94 662.56 799.97 654.20 956.61 229.92 666.53 834.26 752.00 631.77 775.65 785.08 719.49 393.41 830.19 645.32 1102.84 865.13 1014.24 402.12 350.66 543.85 220.46 553.92 865.43 684.91 160.86 343.51 627.29 402.23 421.34 612.59 997.44 778.72 376.15 853.34 785.53 477.09 868.42 871.71 857.20 799.57 388.41 1038.59 746.92 907.53 447.04 300.14 955.05 895.47 852.84 308.46 699.42 829.39 1011.28 938.49 740.23 521.74 484.04 420.10 356.17 522.12 300.29 920.12 604.09 324.15 735.94 187.68 628.89 1072.44 638.08 161.53 200.65 1155.01 979.22 442.20 753.46 795.05 107.34 1162.71 914.96 508.31 952.49 217.23 895.14 378.28 430.25 1013.59 1003.09 721.10 782.23 157.60 1017.69 622.98 960.22 1050.95 585.50 385.86
955.27 471.91 387.06 265.82 424.74 255.42 621.99 0.00 501.42 157.15 776.44 283.41 382.89 287.33 256.64 169.17 139.39 128.43 34.35 615.79 207.44 598.72 275.04 821.49 431.90 199.56 226.80 304.15 320.55 707.74 438.82 333.96 147.46 312.01 368.12 437.06 642.13 758.11 387.01 410.71 494.33 367.72 393.42 765.67 511.52 301.61 851.43 610.92 409.09 443.64 643.70 445.39 262.03 128.84 518.80 127.85 458.08 654.77 340.85 445.09 393.11 828.86 354.07 287.32 226.24 442.64 40.44 418.10 392.07 335.71 854.78 132.69 429.52 356.81 698.97 333.15 621.77 710.35 192.82 567.93 346.04 541.60 371.05 429.56 466.42 436.71 536.91 447.37 334.51 681.92 560.20 302.16 622.16 641.98 305.83 639.82 671.70 596.79 262.19 311.08 217.55 246.43 941.21 357.52 820.09 321.95 424.83 141.91 583.70 336.75 514.07 522.66 550.63 613.59 426.74 304.77 290.88 443.18 392.12 343.04 472.10 193.74 640.74 485.10 395.67 519.17 405.92 309.65 543.35 378.61 562.72 140.95 450.45 705.99 544.25 580.25 689.65 676.76 302.45 395.02 239.71 600.17 668.99 487.42 670.31 372.80 528.99 851.50 415.52 244.00 528.22 476.75 290.00 347.61 564.06 463.90 316.22 644.34 505.64 71.67 408.35
1383.01 922.64 801.98 700.90 521.90 398.57 975.87 501.42 0.00 539.98 1173.28 326.52 431.59 325.52 598.88 540.31 362.03 563.51 467.07 911.46 362.69 804.66 672.90 1254.21 542.64 433.09 538.26 751.90 698.75 1122.50 873.90 690.28 387.77 456.07 692.53 805.47 955.89 1177.81 808.75 723.06 752.00 791.43 317.10 1121.33 851.45 620.97 1204.43 998.38 541.61 772.77 1031.16 702.45 652.45 519.03 794.99 622.08 797.07 992.57 422.18 880.17 175.63 1261.58 695.37 578.49 313.31 830.10 475.52 242.09 756.56 384.84 1272.96 503.40 864.60 766.19 1113.73 258.59 990.95 1145.43 374.19 737.17 712.02 852.62 744.65 793.69 901.50 785.47 957.36 797.25 363.66 958.01 959.07 380.19 1033.72 993.75 365.49 1049.19 1086.46 975.20 702.31 190.34 647.00 303.26 1326.63 719.34 1246.98 598.07 557.35 515.04 971.16 760.13 855.96 884.48 938.09 1028.35 705.73 755.50 275.42 503.46 443.38 300.09 867.51 581.87 1015.40 734.30 516.56 883.30 740.52 765.83 1013.74 766.07 865.01 555.71 553.85 1022.99 838.08 823.13 1056.80 1064.22 632.75 783.59 372.81 914.78 974.64 900.15 1103.03 218.45 919.33 1272.36 762.05 557.45 843.96 58.48 698.15 231.55 818.27 596.42 359.86 1034.65 737.47 496.62 783.69
980.59 497.23 412.18 279.65 554.77 266.16 546.22 157.15 539.98 0.00 849.69 425.69 481.96 395.14 153.80 294.31 185.31 246.96 126.57 541.93 238.61 451.51 198.45 845.65 578.70 127.70 383.95 302.94 418.78 708.70 447.04 257.37 226.63 378.01 210.97 562.20 725.09 708.64 521.04 492.26 379.25 421.17 372.67 774.77 446.62 413.07 845.57 624.61 534.23 395.42 642.77 288.73 277.11 28.31 393.72 152.97 566.27 761.77 271.63 463.40 457.84 853.02 407.63 211.86 237.22 519.26 165.58 502.07 316.30 282.26 832.20 281.59 489.30 411.40 729.04 306.12 587.09 677.25 165.79 586.99 477.20 663.40 299.57 331.91 479.09 338.73 549.58 581.40 275.75 596.34 507.36 233.93 622.36 586.88 248.63 764.96 672.66 578.04 419.34 349.64 164.71 388.71 960.51 465.09 832.86 168.28 549.97 299.06 618.10 307.19 452.10 622.64 585.03 676.59 275.91 397.88 393.21 568.26 474.36 319.39 463.01 95.86 565.23 396.02 270.38 421.52 559.00 334.77 568.47 456.13 425.16 266.09 607.60 676.43 447.02 469.98 814.79 711.16 164.89 449.61 298.16 501.06 826.14 612.56 672.33 447.08 474.23 858.56 327.92 135.44 636.82 555.92 367.44 378.78 427.21 589.04 254.91 709.36 662.79 85.48 331.76
335.95 443.08 517.88 646.36 918.59 1002.50 967.77 776.44 1173.28 849.69 0.00 942.81 945.22 952.70 783.24 732.93 836.28 693.89 810.79 908.71 939.10 986.22 779.19 193.73 892.01 899.83 710.70 653.45 581.14 212.64 507.00 768.16 885.75 877.51 895.12 632.83 480.73 485.42 492.35 574.88 892.10 547.91 1072.58 341.56 946.16 597.16 305.66 225.08 828.29 582.54 320.09 879.56 621.26 835.03 935.09 729.87 578.50 517.41 1055.36 416.52 1052.51 188.73 569.06 918.41 974.76 430.48 745.38 1077.50 856.35 1049.23 154.37 776.93 446.80 451.94 201.78 1078.43 635.17 215.22 938.10 766.72 566.68 576.92 723.15 624.67 533.68 808.91 497.66 431.99 1028.05 1054.71 705.60 1043.24 636.71 596.74 1028.54 403.85 189.05 591.62 600.22 1007.97 749.91 905.83 285.95 588.46 189.06 902.85 844.03 766.07 330.43 621.99 670.68 591.14 319.48 337.67 892.16 484.96 950.28 900.15 954.56 1078.37 508.15 784.06 618.39 1015.03 1025.04 714.28 652.30 580.29 671.24 407.21 820.86 644.87 904.27 348.78 903.48 1004.69 565.53 220.08 844.53 424.73 962.27 872.89 622.39 466.87 486.70 1032.20 753.59 105.82 665.78 882.54 603.50 1150.61 590.33 1049.18 885.58 841.88 1037.76 299.58 749.07 812.89 673.48
1169.43 727.10 620.59 535.97 247.40 400.67 903.46 283.41 326.52 425.69 942.81 0.00 128.00 83.85 502.41 274.03 265.56 280.74 317.76 895.05 272.87 777.97 549.50 1056.11 216.69 329.67 278.81 587.56 461.02 902.76 635.93 602.16 215.47 130.29 622.05 507.05 629.37 1035.02 561.43 396.54 736.54 602.46 368.58 1004.56 790.78 388.68 1054.20 767.91 280.41 676.53 768.20 632.89 481.25 397.38 752.86 411.26 470.55 666.05 457.81 674.57 150.89 1054.23 461.83 545.27 300.49 567.14 323.85 186.82 675.48 433.81 1065.27 237.12 704.85 533.90 905.05 396.62 891.29 917.88 313.20 470.89 465.03 569.58 648.18 697.22 736.57 710.65 776.22 530.97 415.91 965.33 797.71 416.47 905.57 897.28 405.88 751.67 873.76 878.96 460.64 231.36 500.96 36.98 1107.22 453.06 1042.20 559.63 287.07 248.76 740.69 620.16 756.30 566.66 707.62 764.11 614.58 559.96 74.07 246.35 116.86 361.53 755.51 477.15 892.66 682.17 552.84 786.83 462.07 593.06 826.76 535.60 775.37 360.17 285.62 906.22 823.84 790.93 756.08 833.75 515.10 550.76 146.22 845.22 693.87 599.27 953.72 163.35 803.19 1028.48 676.53 473.21 549.29 274.83 417.47 272.57 805.27 335.22 395.49 768.37 440.10 355.08 682.81
1169.99 686.63 633.18 635.26 171.07 432.65 980.55 382.89 431.59 481.96 945.22 128.00 0.00 183.33 551.85 329.88 351.35 372.49 417.24 950.48 304.85 863.76 602.89 1053.56 212.94 415.76 234.52 658.70 452.28 922.54 654.72 658.79 307.43 142.88 692.93 418.70 605.96 1053.81 508.74 520.59 836.02 582.44 468.06 1008.13 890.60 374.50 1086.07 796.76 187.80 755.99 785.67 732.71 544.81 453.65 838.65 510.74 502.68 642.64 518.08 655.89 278.89 1057.26 443.68 644.75 354.23 586.35 423.33 221.51 774.96 493.90 1028.54 324.76 658.53 519.72 925.38 482.87 953.68 873.59 383.57 437.84 465.55 453.25 697.62 746.66 789.94 760.09 860.43 568.83 488.80 1003.01 905.65 492.91 985.86 968.26 483.06 747.66 898.94 958.42 415.87 354.94 600.44 136.46 1119.81 488.58 1034.81 640.48 203.54 296.74 715.95 687.95 850.15 547.52 682.88 793.09 714.06 519.49 180.91 178.72 46.53 441.37 789.93 576.33 959.21 752.54 629.28 836.27 443.17 608.24 872.98 564.45 829.42 451.92 241.06 952.39 879.00 878.41 651.66 809.01 614.58 557.93 245.70 935.20 635.12 620.12 971.89 262.83 895.15 1024.02 725.97 580.05 426.67 373.11 430.06 384.73 859.19 242.61 493.45 732.33 395.93 454.56 736.20
1151.19 667.83 606.83 553.15 265.22 329.72 861.17 287.33 325.52 395.14 952.70 83.85 183.33 0.00 432.47 266.83 227.85 330.01 291.94 812.58 225.18 740.26 506.49 1034.76 300.54 288.25 242.93 585.49 460.69 895.56 682.72 536.28 218.14 214.14 538.20 525.13 661.44 997.72 539.52 480.39 706.46 563.64 322.92 989.33 759.19 382.91 1039.91 774.68 275.87 592.68 804.58 601.30 457.30 384.85 710.28 415.18 554.40 698.12 385.62 667.37 149.89 1038.46 452.09 461.42 216.64 609.52 327.77 178.78 643.53 372.24 1036.95 222.83 697.65 528.13 914.94 350.97 854.16 882.00 229.35 462.05 460.64 566.32 578.24 627.28 738.35 640.71 777.27 540.86 371.04 890.73 782.05 338.69 823.00 840.30 353.39 758.36 880.14 795.11 376.79 241.67 482.26 46.87 1152.72 462.95 1016.01 486.26 291.61 258.65 746.73 593.72 730.77 628.09 713.66 774.00 584.50 500.69 51.56 283.66 193.53 333.85 687.42 427.98 839.06 598.32 475.06 716.89 484.60 554.04 776.04 545.49 691.52 409.44 325.95 899.02 741.41 753.84 787.91 820.24 431.25 552.28 156.11 797.30 685.12 605.96 927.90 173.24 784.40 1038.37 606.59 450.70 578.22 273.83 458.64 214.41 721.60 330.68 359.67 740.74 448.80 348.00 628.23
834.07 422.94 297.67 200.24 622.08 416.32 428.70 256.64 598.88 153.80 783.24 502.41 551.85 432.47 0.00 353.09 236.85 289.91 241.03 453.11 339.67 358.37 74.02 691.85 602.52 281.50 483.44 153.02 390.08 654.19 313.68 106.94 301.93 445.32 198.63 595.61 712.83 600.77 485.09 513.29 363.12 324.77 526.47 628.83 367.43 422.90 712.59 558.16 595.55 251.70 657.58 256.12 210.06 182.11 353.96 147.09 571.10 749.51 410.91 389.95 582.36 699.22 402.98 212.82 389.05 456.52 226.90 595.73 260.86 399.98 717.63 381.08 415.82 413.18 632.46 452.09 433.29 622.93 319.59 714.43 472.55 670.13 145.77 194.81 333.15 208.24 403.64 522.11 421.16 557.42 380.04 380.01 486.36 450.88 391.85 704.60 672.28 453.61 443.15 408.54 49.79 465.43 818.36 460.44 682.94 182.19 611.29 360.88 597.58 161.25 298.30 625.58 564.51 657.22 244.93 355.10 468.51 605.78 541.67 473.19 320.97 76.25 429.23 383.68 324.10 284.42 530.70 277.47 414.86 392.49 332.05 210.48 671.45 530.49 372.96 376.84 759.18 690.64 91.68 374.97 366.35 432.41 839.63 552.20 518.53 569.92 351.93 787.55 174.12 203.86 651.36 631.22 359.53 449.75 392.77 637.43 381.46 688.84 700.03 184.97 195.76
943.76 461.00 365.22 305.38 345.74 387.08 755.93 169.17 540.31 294.31 732.93 274.03 329.88 266.83 353.09 0.00 220.00 63.18 183.57 750.44 284.21 711.46 373.80 801.54 335.58 294.25 176.54 407.58 221.32 628.73 454.22 432.72 185.57 212.77 504.75 410.80 533.32 796.98 342.78 300.49 625.30 341.52 422.69 730.53 646.17 199.86 814.29 507.85 275.38 463.65 537.75 525.00 215.69 289.86 636.76 248.97 355.92 552.72 443.93 400.54 383.73 794.17 187.80 456.49 315.11 384.18 128.73 408.72 561.24 454.62 813.40 44.00 430.82 304.92 670.38 462.15 710.06 685.76 321.82 447.81 257.37 454.95 449.24 469.07 471.52 535.47 534.40 400.66 436.13 837.33 648.49 397.00 737.10 711.27 382.30 575.11 629.22 666.08 225.28 359.22 305.84 237.05 894.79 245.26 809.18 410.29 291.12 33.14 547.38 399.09 602.04 410.40 516.92 597.74 506.35 330.32 281.50 364.18 283.35 423.48 498.69 321.55 689.94 642.68 533.37 558.68 339.17 329.07 664.47 349.65 658.45 142.61 351.36 632.19 688.01 729.93 621.37 637.76 421.01 333.20 252.44 688.46 618.73 454.16 709.18 363.42 626.19 778.59 477.86 393.22 453.24 481.83 233.13 400.43 668.20 330.19 392.69 585.07 369.41 232.69 499.50
1034.40 560.61 464.29 338.87 385.23 188.00 665.55 139.39 362.03 185.31 836.28 265.56 351.35 227.85 236.85 220.00 0.00 201.48 105.04 636.41 102.82 512.41 310.87 892.18 422.13 74.25 360.74 389.87 373.28 760.47 511.87 343.79 65.08 208.47 377.67 510.11 719.98 828.80 496.33 496.49 515.86 456.42 291.76 838.72 540.06 377.92 912.39 663.65 411.87 488.55 696.43 382.17 314.76 157.00 487.30 260.05 555.82 736.64 258.09 518.14 357.20 899.55 387.70 340.97 152.20 495.37 113.49 358.88 442.06 244.71 931.54 196.02 502.57 429.86 751.70 242.15 670.14 783.40 101.82 583.96 457.27 614.65 382.62 431.66 539.47 445.09 609.96 549.03 243.51 724.41 616.89 211.16 671.69 631.72 222.57 712.87 724.43 676.91 401.58 171.69 286.64 228.58 1012.28 445.16 901.80 311.71 396.13 225.74 636.43 398.10 535.15 610.30 603.36 666.32 393.90 393.47 231.66 382.95 304.82 242.09 557.82 272.31 653.37 470.79 332.21 521.27 457.48 428.14 651.71 431.34 530.99 193.68 463.29 752.51 558.72 530.88 742.38 729.49 270.72 448.86 129.50 594.50 772.05 560.47 741.00 341.27 588.78 910.33 410.97 264.55 603.38 394.37 342.73 212.90 555.28 466.68 212.18 722.94 541.64 155.36 432.61
929.72 446.36 350.04 286.79 373.61 340.61 692.75 128.43 563.51 246.96 693.89 280.74 372.49 330.01 289.91 63.18 201.48 0.00 120.39 708.30 304.30 648.28 310.62 787.69 331.74 275.73 198.30 362.10 207.51 646.22 439.04 369.54 240.95 231.28 457.93 439.88 563.55 805.51 380.14 330.72 584.56 321.72 485.74 729.32 604.03 247.42 798.14 518.99 338.56 400.47 551.77 496.03 200.51 231.23 590.56 185.79 400.35 570.87 426.04 446.67 431.63 783.91 240.92 406.46 285.12 350.71 87.99 463.74 520.50 421.75 796.15 107.18 468.42 308.23 637.45 419.19 661.95 679.30 278.86 510.99 268.38 494.84 386.06 465.14 487.39 472.29 557.88 386.85 420.55 786.70 589.84 388.20 673.92 648.09 391.02 613.17 610.18 602.90 288.46 373.17 265.10 292.07 898.03 289.69 761.46 369.55 354.30 80.29 491.77 380.50 561.62 454.83 458.70 552.07 486.73 279.22 336.52 370.92 325.96 432.46 495.21 280.81 646.85 601.94 501.58 552.00 339.00 313.89 601.29 286.68 621.96 79.43 400.67 695.37 635.56 666.75 628.13 584.83 380.59 270.02 293.06 647.72 640.49 461.51 725.05 418.44 612.56 796.08 455.18 330.04 483.47 536.85 228.48 414.38 655.37 347.52 401.41 521.89 432.59 176.45 443.93
929.36 503.22 397.22 296.21 459.09 224.05 614.45 34.35 467.07 126.57 810.79 317.76 417.24 291.94 241.03 183.57 105.04 120.39 0.00 632.30 207.86 578.08 259.43 787.14 452.13 170.31 261.15 331.32 327.90 721.13 437.23 318.35 149.82 313.51 337.54 471.41 676.48 723.76 421.36 445.06 505.82 399.54 365.35 800.02 545.87 319.62 885.78 639.38 443.44 409.29 644.54 415.30 247.69 110.84 520.09 155.01 492.43 689.12 309.48 459.56 369.88 794.51 361.31 286.07 223.58 443.48 74.79 432.32 426.42 301.36 826.50 167.04 463.87 391.16 733.32 298.80 648.51 744.61 158.47 585.52 380.39 536.83 336.70 413.95 496.81 421.10 567.30 481.72 300.16 666.31 549.09 267.81 606.55 646.52 274.46 674.17 706.05 611.72 296.54 276.73 206.44 280.78 913.65 391.87 813.37 294.85 459.18 176.26 612.16 363.92 514.34 530.10 579.09 647.94 402.48 339.12 316.40 477.53 409.86 312.07 499.27 173.83 626.21 483.85 381.19 503.56 440.27 336.81 570.51 407.07 543.92 175.30 484.80 733.16 573.59 596.55 724.00 705.22 283.65 390.41 234.54 589.06 703.34 521.77 635.96 407.15 494.64 870.99 403.99 209.65 510.25 479.11 324.35 317.94 553.78 467.91 284.85 626.52 539.99 56.06 392.74
854.82 591.62 556.11 474.13 1012.38 596.38 66.62 615.79 911.46 541.93 908.71 895.05 950.48 812.58 453.11 750.44 636.41 708.30 632.30 0.00 669.06 185.00 397.68 784.97 995.32 625.30 833.85 413.02 713.79 817.99 460.45 360.93 701.49 844.88 331.86 890.56 1000.28 531.30 808.08 837.00 192.10 576.77 711.26 693.38 104.27 731.66 711.06 716.84 1016.91 393.18 850.31 262.16 593.40 557.59 149.11 579.01 897.95 1036.96 607.60 550.93 892.55 781.19 747.31 420.63 619.68 744.43 649.73 957.38 247.09 618.29 793.43 743.16 565.15 709.03 770.23 652.87 356.09 786.99 617.87 1050.23 798.51 995.10 382.52 284.04 496.95 277.38 546.57 831.44 618.29 185.64 296.61 560.67 335.61 375.58 545.97 974.44 809.20 406.63 797.50 742.65 481.71 858.41 825.95 795.97 758.74 405.58 1027.96 719.00 860.52 380.42 271.24 931.60 828.85 823.94 280.81 632.80 853.30 1019.36 903.95 680.47 487.92 458.47 393.30 324.92 488.04 244.26 853.50 537.47 341.26 714.83 121.06 663.59 1064.25 639.66 94.91 203.47 1099.47 918.66 381.33 732.35 765.91 104.59 1099.63 859.42 485.31 885.87 194.23 874.56 363.34 454.16 983.83 936.47 654.48 716.49 114.72 1037.23 556.36 893.60 984.33 601.05 341.70
1069.74 586.38 551.37 441.69 462.71 127.80 711.94 207.44 362.69 238.61 939.10 272.87 304.85 225.18 339.67 284.21 102.82 304.30 207.86 669.06 0.00 615.23 413.58 942.59 489.56 110.91 377.83 492.69 476.10 836.42 553.30 394.81 138.73 303.28 400.61 603.56 790.87 931.62 594.45 558.04 562.36 553.69 192.55 895.48 596.41 442.33 961.66 717.36 485.52 556.62 799.25 438.52 401.84 259.82 561.33 335.29 623.24 826.27 213.23 525.92 283.52 949.96 461.35 348.77 49.38 598.19 216.31 360.08 494.12 189.05 969.25 280.30 556.20 532.68 854.52 180.77 772.96 837.03 78.72 669.80 489.55 708.10 479.87 534.48 642.29 515.74 712.78 634.50 210.23 698.16 682.08 188.06 760.70 734.54 178.21 815.69 808.25 759.05 469.63 172.35 339.43 235.89 1069.10 512.58 934.56 335.63 469.78 251.07 739.25 496.62 637.97 677.72 706.18 769.14 457.17 496.29 232.86 464.73 332.17 139.27 651.36 334.47 756.19 447.69 324.43 592.15 531.13 515.22 750.79 534.16 575.53 296.50 526.70 855.33 574.15 603.21 845.20 832.31 354.88 517.09 169.72 650.85 820.02 663.29 843.82 302.41 655.40 986.28 513.79 300.35 696.83 377.05 445.55 140.17 554.34 540.33 188.60 825.76 627.43 210.21 533.69
1034.81 663.63 581.26 554.19 897.64 536.90 219.12 598.72 804.66 451.51 986.22 777.97 863.76 740.26 358.37 711.46 512.41 648.28 578.08 185.00 615.23 0.00 387.08 947.07 934.54 562.94 787.59 510.37 748.45 903.98 625.52 350.96 577.49 720.88 289.89 953.98 1071.20 716.30 814.64 871.66 139.39 654.28 643.19 819.41 163.13 773.34 896.06 837.92 924.28 510.42 943.55 229.95 568.43 479.82 107.14 505.46 929.47 1082.40 488.67 662.84 815.26 943.29 761.35 317.91 568.38 814.89 585.27 862.55 206.65 490.45 955.53 687.72 637.28 765.11 852.31 597.91 496.25 904.10 541.94 1038.50 830.92 1023.81 399.74 361.55 593.81 230.03 644.23 872.70 511.63 226.72 473.74 476.31 520.61 560.58 491.01 1051.65 903.88 558.61 801.52 614.32 408.16 740.99 1010.95 818.81 920.84 365.14 908.54 719.25 915.10 509.13 394.01 964.62 882.03 900.26 248.60 705.36 735.33 895.36 817.23 627.76 536.90 434.62 560.38 172.97 339.94 371.48 889.07 631.96 526.26 750.86 306.06 568.85 975.70 721.07 120.45 18.47 1095.11 1008.16 386.17 733.34 641.91 262.05 1160.33 899.25 670.31 783.90 379.23 978.13 430.36 394.33 1006.30 863.14 717.90 655.53 100.64 979.09 497.29 960.13 1054.05 536.99 419.21
884.56 437.57 278.15 167.11 669.39 410.55 382.13 275.04 672.90 198.45 779.19 549.50 602.89 506.49 74.02 373.80 310.87 310.62 259.43 397.68 413.58 387.08 0.00 743.15 642.36 309.29 461.43 187.00 432.81 639.56 338.62 58.92 371.49 519.34 164.60 668.69 754.85 538.32 530.26 556.02 322.93 307.95 525.84 652.78 293.41 473.25 716.81 570.95 640.72 239.13 658.15 195.62 274.75 190.74 279.94 188.95 615.65 779.84 383.36 379.51 629.31 739.37 447.53 174.47 411.08 486.16 272.07 665.29 231.06 436.98 751.61 369.87 382.69 457.44 605.01 471.56 389.08 625.54 364.24 732.83 517.10 714.68 106.60 154.52 318.52 161.67 389.01 485.62 432.87 509.40 339.75 349.96 423.91 388.43 364.66 740.92 649.29 379.59 492.70 482.56 94.96 521.47 838.80 504.99 716.92 140.87 656.46 390.91 582.34 185.20 268.74 664.49 578.92 645.67 210.30 362.65 538.07 650.95 556.36 509.87 333.87 102.59 366.78 349.65 258.33 244.13 575.87 277.39 414.99 437.66 334.81 284.50 706.49 554.44 324.94 380.97 828.57 692.69 88.98 420.14 417.01 397.06 839.55 588.52 474.92 628.67 301.94 769.84 144.56 241.76 693.69 667.65 433.55 476.86 344.75 658.14 370.94 703.25 740.27 203.37 133.31
142.22 374.41 518.03 626.00 1004.25 1011.19 825.80 821.49 1254.21 845.65 193.73 1056.11 1053.56 1034.76 691.85 801.54 892.18 787.69 787.14 784.97 942.59 947.07 743.15 0.00 983.44 899.98 822.19 556.15 654.36 184.10 507.15 690.71 936.96 940.02 836.20 735.02 674.46 329.14 566.58 659.57 880.73 527.55 1135.14 184.48 852.97 715.95 149.38 293.69 928.80 504.91 384.31 839.89 629.10 822.18 887.79 697.52 651.04 711.14 1030.30 416.67 1157.02 7.37 685.35 899.36 991.97 488.97 821.32 1113.08 798.26 1076.13 39.36 845.54 435.20 570.73 176.33 1085.94 569.22 183.12 945.61 886.33 639.60 696.53 666.78 634.16 462.52 757.53 418.14 573.66 1069.62 970.61 597.20 1054.95 520.67 494.84 1048.30 567.19 212.59 449.65 704.93 1063.87 735.62 1024.62 126.51 662.63 26.23 874.04 913.06 825.47 460.12 588.75 559.26 602.26 476.77 396.72 833.56 534.07 1069.07 1013.09 1007.03 1081.86 410.17 768.10 493.60 917.05 1001.48 609.48 736.99 515.72 570.40 526.00 663.91 733.86 978.90 250.22 860.51 934.80 728.87 383.42 783.53 539.15 982.29 769.69 796.88 522.32 416.94 1150.99 642.17 106.49 599.48 895.71 723.11 1266.25 652.84 1075.47 870.65 943.82 1037.91 462.92 838.44 820.17 621.12
1125.66 727.47 629.32 596.63 41.87 595.35 1024.49 431.90 542.64 578.70 892.01 216.69 212.94 300.54 602.52 335.58 422.13 331.74 452.13 995.32 489.56 934.54 642.36 983.44 0.00 496.38 205.10 631.74 368.77 812.62 665.98 693.32 382.99 218.44 756.52 327.58 476.07 1016.16 454.52 387.43 872.19 605.34 585.27 945.04 917.17 345.08 973.73 710.72 63.72 687.45 695.53 783.66 532.25 560.74 846.21 455.43 395.42 512.75 636.83 673.43 367.01 989.35 335.25 674.78 517.18 494.47 419.73 345.05 823.97 587.65 999.12 333.59 674.69 452.37 854.25 595.30 948.93 844.17 523.95 267.55 375.64 385.68 717.80 769.54 797.23 804.03 867.72 514.88 566.47 1069.33 876.23 630.30 960.90 935.07 621.34 555.41 822.96 889.88 291.79 448.05 552.73 253.67 1078.68 387.12 1004.35 676.93 70.38 302.44 640.12 658.53 860.63 445.57 607.05 717.26 795.94 560.33 290.76 39.18 172.41 578.22 782.19 582.90 933.83 818.42 754.34 838.98 310.01 599.80 870.93 484.80 917.89 411.17 68.93 884.49 917.63 947.24 578.91 732.24 668.22 467.28 342.65 933.74 486.73 524.14 988.05 380.04 919.33 962.48 737.30 661.56 366.07 490.95 421.62 489.26 914.19 118.53 610.95 652.74 254.83 503.57 758.94
1027.13 543.77 516.85 392.43 459.48 144.34 644.74 199.56 433.09 127.70 899.83 329.67 415.76 288.25 281.50 294.25 74.25 275.73 170.31 625.30 110.91 562.94 309.29 899.98 496.38 0.00 382.03 417.34 447.53 793.81 548.13 303.35 139.33 282.72 338.67 584.36 794.23 827.79 570.58 570.74 503.60 519.17 258.18 852.87 558.18 437.48 919.05 674.75 486.12 445.71 770.47 400.29 367.32 156.01 521.42 280.67 630.07 810.89 190.39 483.31 394.43 907.35 461.95 274.60 130.33 569.62 187.74 433.13 444.00 201.79 926.64 270.27 513.59 504.11 825.95 199.23 669.55 794.42 58.90 658.21 528.53 688.90 399.87 446.84 590.51 424.28 630.30 623.28 199.86 692.37 584.63 158.91 713.38 677.90 148.32 787.12 765.64 648.14 461.75 242.75 241.98 292.69 1026.49 519.41 891.95 295.98 470.38 299.99 710.68 418.61 549.88 684.55 677.61 740.57 381.64 467.72 305.91 457.20 379.07 204.90 540.45 223.56 656.25 427.87 257.96 536.45 531.73 462.47 659.87 505.59 504.24 267.93 537.54 787.85 543.05 579.43 816.63 803.74 243.97 523.11 183.45 610.02 824.22 634.72 764.39 391.88 570.50 943.67 444.42 228.92 677.63 468.62 416.98 251.08 523.24 540.93 137.93 796.83 615.89 175.69 422.78
964.41 531.12 472.75 481.92 246.97 458.18 843.56 226.80 538.26 383.95 710.70 278.81 234.52 242.93 483.44 176.54 360.74 198.30 261.15 833.85 377.83 787.59 461.43 822.19 205.10 382.03 0.00 486.03 217.76 688.02 514.97 520.35 304.06 196.96 573.15 282.20 492.07 867.79 364.14 291.38 721.13 402.32 501.94 777.87 738.32 139.98 851.55 562.24 240.77 521.47 579.51 639.04 391.72 355.64 741.20 354.65 364.72 522.90 514.08 502.87 362.63 828.38 209.16 469.68 427.21 381.66 267.24 421.71 618.87 500.70 794.02 164.72 519.04 285.20 690.86 497.03 782.95 639.07 357.81 357.24 231.03 386.74 568.03 610.50 625.33 623.10 695.82 356.19 499.50 908.72 671.13 467.15 794.92 769.09 481.85 583.91 668.09 723.90 222.29 460.57 444.35 287.51 909.79 254.06 828.71 536.41 233.83 143.40 510.01 453.43 656.38 419.20 476.94 578.02 620.39 363.98 294.49 244.28 281.05 477.23 616.21 420.54 767.85 667.46 592.48 664.22 241.67 395.34 746.37 329.93 712.79 277.73 274.03 717.87 771.05 806.06 600.46 577.31 506.58 323.41 260.38 818.57 442.19 459.09 832.40 405.45 722.47 816.52 532.20 470.80 375.47 486.57 217.16 428.72 790.86 295.58 488.13 497.81 278.84 298.47 553.84
698.37 294.29 144.65 102.20 638.48 550.87 479.64 304.15 751.90 302.94 653.45 587.56 658.70 585.49 153.02 407.58 389.87 362.10 331.32 413.02 492.69 510.37 187.00 556.15 631.74 417.34 486.03 0.00 344.52 525.54 160.66 203.02 451.61 588.80 305.73 538.71 658.96 478.25 419.07 467.73 405.98 190.60 627.53 500.18 447.43 379.81 572.12 428.37 613.09 143.33 548.21 349.63 191.93 300.97 430.45 176.31 517.11 686.83 544.29 236.93 693.37 552.37 378.04 360.09 521.31 368.81 284.23 722.25 303.72 553.00 564.61 436.84 265.36 345.23 483.36 590.83 370.54 470.65 450.50 680.96 429.24 612.85 110.63 186.81 204.50 307.98 274.99 421.09 548.41 537.17 311.73 527.28 408.53 371.68 541.98 631.27 519.26 345.76 385.02 561.56 188.64 550.58 682.66 426.70 529.92 327.87 628.83 418.21 478.49 32.60 235.55 518.58 445.42 504.20 359.19 219.78 595.03 620.04 660.02 574.25 167.95 229.27 358.62 482.50 445.33 243.39 501.65 124.45 386.97 311.45 291.96 296.58 689.07 401.84 455.90 491.90 721.36 571.55 238.95 321.10 519.37 397.74 686.61 481.31 437.31 676.95 301.64 649.09 111.37 356.88 589.10 776.45 302.63 602.77 447.72 667.90 534.48 569.75 661.63 337.99 133.01
796.58 358.70 303.30 347.77 400.92 548.12 780.41 320.55 698.75 418.78 581.14 461.02 452.28 460.69 390.08 221.32 373.28 207.51 327.90 713.79 476.10 748.45 432.81 654.36 368.77 447.53 217.76 344.52 0.00 470.26 297.21 491.73 356.14 330.73 588.71 242.63 356.04 696.30 188.50 123.21 668.60 254.51 607.31 621.87 726.22 77.78 668.68 406.24 305.05 460.40 376.09 617.64 230.56 390.47 711.59 312.32 192.84 363.36 631.37 359.01 576.16 646.99 33.52 543.08 492.63 175.03 280.11 601.15 648.24 584.26 681.25 265.32 373.47 129.20 543.38 558.64 706.52 527.29 475.10 336.44 84.72 291.87 455.15 507.90 432.43 585.33 502.92 179.34 605.44 873.15 579.33 584.44 663.32 623.35 595.85 406.40 506.30 627.60 125.99 544.97 386.71 429.48 736.32 82.18 664.86 552.95 320.79 254.46 350.18 368.58 571.53 247.32 317.11 411.49 635.01 191.56 473.93 407.10 422.81 600.14 432.42 439.79 601.70 740.86 642.43 549.02 180.26 237.49 654.57 173.93 592.73 179.60 381.03 582.76 746.62 766.92 453.39 443.24 481.76 166.06 426.73 698.51 473.74 254.00 670.09 555.85 623.09 620.12 447.35 518.45 275.96 674.26 59.31 546.84 726.81 359.86 585.46 416.74 335.03 333.30 454.46
326.32 294.91 404.42 518.22 844.77 938.15 814.76 707.74 1122.50 708.70 212.64 902.76 922.54 895.56 654.19 628.73 760.47 646.22 721.13 817.99 836.42 903.98 639.56 184.10 812.62 793.81 688.02 525.54 470.26 0.00 400.98 658.49 814.30 800.99 756.70 635.42 553.70 329.70 426.27 570.47 764.59 446.49 994.50 223.57 839.82 548.04 198.42 157.41 748.90 464.55 200.21 721.35 473.44 722.24 807.58 603.22 570.63 590.38 936.58 310.50 1012.46 176.73 503.78 805.95 829.90 401.27 667.30 1020.54 733.27 974.19 210.99 672.73 302.64 418.93 83.79 993.04 574.76 57.03 852.71 753.70 501.98 604.02 586.74 563.91 321.04 715.10 342.81 462.10 958.58 926.91 521.38 916.57 506.63 466.66 901.87 404.94 36.04 438.61 520.83 932.16 630.17 865.78 266.06 525.01 194.60 777.00 764.64 661.87 276.02 492.94 599.55 509.75 301.49 228.96 740.00 415.49 910.23 851.80 888.45 959.13 377.95 678.04 467.12 884.83 880.88 615.44 623.09 457.17 556.14 374.20 732.98 566.79 824.88 214.38 835.80 906.76 571.29 300.22 722.72 391.72 881.17 812.13 685.86 441.91 368.71 992.15 647.66 149.86 509.07 729.53 607.56 1110.56 529.57 973.37 824.82 803.71 912.26 379.72 752.29 665.07 506.25
584.76 137.64 102.71 173.00 688.60 647.53 527.07 438.82 873.90 447.04 507.00 635.93 654.72 682.72 313.68 454.22 511.87 439.04 437.23 460.45 553.30 625.52 338.62 507.15 665.98 548.13 514.97 160.66 297.21 400.98 0.00 328.54 522.28 511.84 466.39 509.08 539.83 399.09 348.34 420.42 486.13 174.36 745.85 450.76 564.72 374.99 526.22 281.92 602.26 163.19 410.97 477.72 238.53 438.86 529.12 314.20 437.50 576.51 672.13 90.48 782.53 508.27 330.73 466.00 602.68 337.86 398.38 803.51 425.11 691.56 479.84 498.22 104.70 322.80 421.66 727.02 415.25 385.53 595.70 633.65 381.93 536.53 232.02 283.85 135.22 429.37 205.71 408.70 670.38 646.09 282.12 667.89 366.11 326.14 653.19 549.86 371.30 330.39 408.00 683.56 306.15 635.85 550.64 379.39 485.82 399.27 618.00 487.36 400.07 193.26 348.53 481.61 368.40 367.68 484.71 234.69 680.30 683.94 608.19 692.57 135.21 351.18 304.49 534.56 588.80 314.72 477.47 158.60 357.36 278.07 437.92 359.61 678.24 372.72 555.36 613.29 663.90 458.21 399.61 295.59 526.61 452.08 681.49 423.85 372.88 762.22 395.07 550.84 257.76 489.95 535.37 851.57 314.82 693.47 544.76 657.07 663.58 433.15 632.24 430.16 279.40
832.93 392.07 337.07 226.03 651.45 416.46 341.39 333.96 690.28 257.37 768.16 602.16 658.79 536.28 106.94 432.72 343.79 369.54 318.35 360.93 394.81 350.96 58.92 690.71 693.32 303.35 520.35 203.02 491.73 658.49 328.54 0.00 408.87 552.26 211.98 682.93 805.45 560.97 550.22 572.62 278.13 366.87 522.97 659.58 294.04 518.37 716.58 600.72 699.64 259.52 717.07 149.18 262.89 249.66 271.99 242.31 628.05 817.98 440.29 415.48 660.39 686.93 459.93 226.17 387.52 545.08 330.99 655.31 190.32 458.98 699.17 428.79 418.63 516.36 595.95 456.42 411.73 613.79 316.09 781.22 529.50 727.08 96.52 143.49 337.45 120.93 380.20 544.54 457.78 450.48 328.72 393.36 429.57 389.60 408.06 793.22 670.21 433.38 526.64 499.94 153.88 572.37 817.22 517.39 664.48 189.39 714.49 405.53 641.26 203.81 283.32 682.53 637.84 681.61 156.17 408.17 528.09 669.89 615.28 469.69 280.54 161.51 389.43 340.57 317.25 233.10 611.30 312.84 403.96 496.58 275.89 313.00 753.00 561.24 266.02 369.43 861.70 751.61 105.03 479.06 473.29 356.32 857.11 640.82 497.57 669.52 297.53 767.99 166.22 290.28 725.37 726.57 449.46 534.98 285.83 676.30 414.34 761.69 779.81 262.29 155.96
1025.98 581.39 419.57 403.79 341.31 220.05 730.63 147.46 387.77 226.63 885.75 215.47 307.43 218.14 301.93 185.57 65.08 240.95 149.82 701.49 138.73 577.49 371.49 936.96 382.99 139.33 304.06 451.61 356.14 814.30 522.28 408.87 0.00 164.55 437.60 493.28 668.14 873.58 477.60 435.31 552.17 499.42 325.60 890.49 605.14 312.84 956.67 693.42 346.79 553.63 696.52 447.25 379.84 222.08 552.38 275.31 490.74 687.54 305.48 520.93 292.12 944.33 322.62 400.53 140.43 519.00 178.41 293.80 507.14 271.74 921.91 141.57 551.21 439.74 816.78 307.23 727.02 766.96 166.90 540.04 392.19 589.77 447.70 496.74 604.39 510.17 674.88 498.11 250.56 789.49 681.97 264.85 736.77 696.80 263.46 709.93 789.51 721.14 341.66 236.77 347.67 178.49 1053.49 380.08 929.57 376.79 331.05 160.66 626.80 463.18 600.23 545.22 593.73 703.94 458.98 452.23 166.58 359.75 260.90 278.00 619.56 268.90 677.19 535.87 397.29 586.35 392.40 450.16 646.32 484.47 596.07 258.76 402.82 817.59 613.89 595.96 756.19 719.86 335.80 471.76 92.25 659.58 728.13 588.98 785.78 304.86 587.72 955.50 476.05 329.63 586.55 329.29 360.65 260.59 620.36 401.60 253.07 718.06 488.70 204.84 479.97
1039.14 601.14 490.30 518.07 176.76 376.91 874.02 312.01 456.07 378.01 877.51 130.29 142.88 214.14 445.32 212.77 208.47 231.28 313.51 844.88 303.28 720.88 519.34 940.02 218.44 282.72 196.96 588.80 330.73 800.99 511.84 552.26 164.55 0.00 586.14 432.66 568.93 910.93 440.78 409.20 716.72 496.95 415.45 922.64 748.53 336.94 998.96 702.61 240.81 631.75 675.32 590.64 423.48 365.47 695.77 417.07 479.34 605.61 459.44 589.04 281.18 947.39 364.25 549.44 304.98 474.26 304.57 317.11 650.53 436.29 979.38 181.88 616.54 433.10 839.75 430.99 878.61 836.03 310.29 375.49 415.45 512.32 591.09 640.13 647.06 653.56 717.55 501.14 415.11 932.88 793.96 419.63 877.95 837.98 427.32 659.61 808.46 834.18 334.34 265.73 481.68 167.27 976.93 412.91 949.32 520.18 225.07 179.63 647.99 606.57 743.62 492.91 614.92 710.72 602.37 434.00 204.36 195.20 96.35 395.90 647.05 433.45 816.33 679.26 540.68 729.74 331.78 465.36 810.87 470.30 739.46 310.71 254.82 844.96 767.19 739.35 695.64 741.05 479.19 452.78 256.80 802.97 563.58 552.16 884.72 293.64 752.27 936.07 619.44 473.02 485.74 405.12 287.18 306.94 763.75 292.96 417.62 694.77 333.17 363.83 641.08
945.15 461.79 442.75 331.71 762.90 349.89 335.25 368.12 692.53 210.97 895.12 622.05 692.93 538.20 198.63 504.75 377.67 457.93 337.54 331.86 400.61 289.89 164.60 836.20 756.52 338.67 573.15 305.73 588.71 756.70 466.39 211.98 437.60 586.14 0.00 765.83 829.62 667.76 639.09 669.67 186.90 472.55 486.98 717.05 235.65 569.63 802.81 670.04 744.67 350.36 731.23 77.76 405.38 239.28 182.75 301.09 725.10 866.30 367.32 522.25 666.84 832.42 556.98 123.16 422.55 610.52 376.02 713.04 105.33 343.13 844.66 483.96 522.58 567.18 731.12 433.94 474.23 772.12 351.37 797.96 626.55 824.13 267.60 319.12 445.03 150.51 515.52 650.22 364.31 399.03 391.28 362.87 527.28 499.57 352.28 872.98 789.18 456.26 630.31 535.22 203.79 585.07 946.01 614.44 809.97 94.46 760.41 474.34 746.94 273.13 339.24 779.58 718.51 667.99 64.94 509.10 589.76 759.78 682.49 475.44 445.10 216.77 477.92 185.05 237.65 289.02 664.95 430.18 449.65 546.49 292.39 409.11 818.57 642.37 254.17 283.78 956.33 831.24 106.95 528.97 507.17 290.09 971.28 725.51 604.36 658.05 340.79 853.56 284.39 195.35 805.36 689.98 558.16 510.92 250.73 799.48 341.89 817.59 834.28 296.45 262.75
877.12 532.46 450.56 524.54 359.73 692.48 957.18 437.06 805.47 562.20 632.83 507.05 418.70 525.13 595.61 410.80 510.11 439.88 471.41 890.56 603.56 953.98 668.69 735.02 327.58 584.36 282.20 538.71 242.63 635.42 509.08 682.93 493.28 432.66 765.83 0.00 209.87 799.08 255.10 119.42 858.08 419.93 784.14 756.84 935.21 270.82 777.75 493.53 263.86 672.27 454.40 804.66 420.04 565.90 901.07 494.00 83.98 240.70 760.28 485.89 644.83 729.97 223.00 724.38 633.71 270.83 396.62 640.21 829.13 754.82 735.14 445.04 478.51 302.65 617.06 752.26 812.11 617.62 611.93 228.21 187.91 104.54 649.34 684.67 618.92 762.10 658.97 200.84 743.84 1075.88 791.20 713.35 777.52 805.75 717.01 365.10 599.38 798.93 244.61 681.80 573.73 536.85 861.53 182.44 752.42 678.18 268.65 425.60 404.74 571.31 774.26 180.09 371.67 433.98 803.58 365.32 559.35 358.96 390.19 742.83 607.18 589.44 813.57 910.57 832.44 739.18 100.88 414.26 866.44 261.22 769.50 385.13 314.21 722.05 939.73 972.45 318.26 459.49 687.29 278.74 542.58 875.28 286.41 212.70 771.17 663.22 822.24 738.65 650.08 681.06 93.27 746.99 236.08 700.02 924.22 209.05 706.62 423.11 149.81 508.73 664.97
816.68 537.72 544.72 644.79 517.94 888.19 1066.90 642.13 955.89 725.09 480.73 629.37 605.96 661.44 712.83 533.32 719.98 563.55 676.48 1000.28 790.87 1071.20 754.85 674.46 476.07 794.23 492.07 658.96 356.04 553.70 539.83 805.45 668.14 568.93 829.62 209.87 0.00 816.28 304.44 232.83 980.60 502.94 945.05 738.25 1040.48 384.23 752.12 518.92 473.73 703.02 385.45 893.97 542.56 746.51 1012.37 668.36 206.24 36.68 923.39 477.26 780.26 669.46 345.52 897.06 808.57 356.24 606.49 816.19 934.95 914.64 635.10 566.36 507.54 376.07 622.26 914.68 885.03 586.78 821.80 342.51 301.32 172.01 769.59 795.67 616.90 889.05 687.39 269.23 918.70 1143.66 817.24 886.83 871.68 856.97 901.53 180.72 517.66 847.11 379.94 808.05 663.04 666.35 766.68 301.09 669.79 836.04 478.52 566.46 350.12 639.09 842.04 162.59 375.23 430.90 894.56 459.48 703.44 515.25 600.06 930.14 651.93 741.81 835.32 1014.67 989.66 849.88 310.25 534.51 892.48 355.38 898.45 535.64 480.51 730.70 1043.11 1089.67 126.71 333.57 778.53 337.86 688.48 991.91 141.66 249.36 820.90 792.72 908.13 586.55 717.86 825.05 179.29 904.20 415.35 849.26 1037.63 418.92 907.81 297.09 276.19 689.34 739.50
358.34 454.06 501.80 526.06 1048.31 934.96 596.11 758.11 1177.81 708.64 485.42 1035.02 1053.81 997.72 600.77 796.98 828.80 805.51 723.76 531.30 931.62 716.30 538.32 329.14 1016.16 827.79 867.79 478.25 696.30 329.70 399.09 560.97 873.58 910.93 667.76 799.08 816.28 0.00 645.48 741.30 663.66 531.35 967.77 164.51 635.57 727.81 179.76 448.26 952.44 405.04 481.60 633.69 637.62 680.33 670.99 654.56 798.13 831.17 921.68 431.44 1093.64 325.76 699.71 712.79 900.67 601.89 751.44 1156.08 614.34 934.28 331.05 840.98 401.16 582.59 304.29 996.96 334.53 272.67 865.76 949.05 697.33 842.09 504.32 462.67 325.46 578.86 298.82 688.90 927.77 706.41 360.91 888.28 195.69 235.66 890.06 635.56 341.79 266.71 724.37 992.26 633.28 1004.54 329.84 720.36 319.97 669.11 960.11 830.12 477.37 492.51 431.31 786.58 510.44 513.34 615.04 557.55 1040.16 1030.80 1007.28 1019.36 310.30 640.91 257.31 744.68 796.65 390.96 801.55 542.92 308.57 537.86 469.55 756.26 1028.42 262.85 626.21 734.77 826.94 581.61 627.30 555.38 925.70 545.70 957.94 669.41 87.80 1118.26 378.88 415.53 426.65 770.00 815.51 1197.37 704.37 1015.18 646.02 957.55 900.45 630.34 918.82 737.50 405.01
708.80 318.32 292.29 389.32 486.67 642.43 805.07 387.01 808.75 521.04 492.35 561.43 508.74 539.52 485.09 342.78 496.33 380.14 421.36 808.08 594.45 814.64 530.26 566.58 454.52 570.58 364.14 419.07 188.50 426.27 348.34 550.22 477.60 440.78 639.09 255.10 304.44 645.48 0.00 164.89 742.89 237.46 730.36 605.91 757.72 229.38 624.69 339.93 390.80 511.53 276.93 639.58 294.45 492.73 762.39 440.73 171.12 267.76 727.86 257.86 689.41 573.95 154.98 634.23 613.25 77.61 403.16 660.55 654.00 692.04 594.66 386.78 288.14 113.24 473.42 720.16 658.51 459.35 579.83 398.97 174.61 209.17 529.70 530.19 397.50 584.61 467.99 60.36 713.22 932.92 597.84 689.17 623.92 623.28 692.84 263.78 390.23 627.71 162.73 668.02 435.30 554.35 678.08 151.58 592.81 603.26 406.18 353.59 207.21 441.62 592.51 149.98 174.14 284.35 620.93 206.20 533.33 493.70 462.21 730.05 432.53 514.07 615.92 799.26 749.96 619.80 242.31 294.62 673.08 107.62 687.02 302.65 466.78 599.63 777.63 833.11 351.43 300.27 550.79 110.12 548.19 778.41 378.47 111.38 601.50 680.72 675.33 565.87 507.12 616.18 235.75 799.13 153.60 709.23 787.48 445.61 703.23 257.33 353.08 458.68 506.70
801.79 434.22 380.36 430.11 391.26 655.36 903.62 410.71 723.06 492.26 574.88 396.54 520.59 480.39 513.29 300.49 496.49 330.72 445.06 837.00 558.04 871.66 556.02 659.57 387.43 570.74 291.38 467.73 123.21 570.47 420.42 572.62 435.31 409.20 669.67 119.42 232.83 741.30 164.89 0.00 747.77 300.51 712.22 675.90 824.92 151.40 733.58 435.75 332.79 583.61 371.66 694.79 309.73 513.68 790.76 435.53 74.01 269.51 690.56 422.75 547.43 666.94 112.69 666.29 575.74 170.60 403.32 583.36 738.97 707.05 677.19 333.53 420.73 183.23 572.89 681.85 754.33 580.59 598.31 255.83 68.49 173.04 578.36 593.24 521.21 693.55 554.50 142.89 685.87 973.93 702.54 654.00 719.74 686.33 668.70 355.13 541.60 731.52 148.52 575.22 465.88 433.52 786.08 68.26 685.80 626.57 317.05 333.63 345.75 478.18 655.56 170.12 312.68 376.03 713.44 307.54 470.61 372.82 492.87 697.31 549.40 530.22 707.98 829.84 762.64 672.23 77.42 360.70 777.78 203.44 715.94 302.81 334.33 661.93 824.61 889.94 359.54 438.81 581.37 220.96 455.65 805.09 354.91 202.73 713.39 559.89 713.50 643.68 556.95 627.70 152.75 671.37 182.52 616.43 804.80 324.92 674.98 380.29 246.75 456.51 577.67
940.58 524.24 517.11 422.18 886.05 463.05 251.86 494.33 752.00 379.25 892.10 736.54 836.02 706.46 363.12 625.30 515.86 584.56 505.82 192.10 562.36 139.39 322.93 880.73 872.19 503.60 721.13 405.98 668.60 764.59 486.13 278.13 552.17 716.72 186.90 858.08 980.60 663.66 742.89 747.77 0.00 560.16 541.65 745.80 99.45 684.00 809.44 733.53 865.22 416.30 839.16 140.61 521.05 407.56 42.99 416.76 803.20 1000.00 464.57 563.17 775.51 876.95 635.08 272.44 529.75 726.19 496.57 821.71 102.26 480.90 889.19 584.31 532.89 682.85 796.79 519.54 451.85 801.46 483.64 956.37 704.65 898.86 295.35 267.43 510.30 171.65 515.68 785.77 464.18 280.10 401.64 423.23 467.97 428.00 412.64 937.45 799.49 473.19 713.91 618.54 319.46 699.56 878.37 692.54 854.50 226.73 880.96 624.21 828.88 388.43 367.00 857.68 795.81 795.87 121.96 565.97 718.75 875.45 813.07 488.37 491.42 354.96 449.65 150.09 357.46 334.28 786.45 530.43 437.02 662.16 216.82 558.59 920.93 696.72 109.87 142.17 1068.65 900.24 275.21 644.64 644.42 248.37 1055.94 835.10 578.75 788.12 287.67 910.58 346.73 327.62 872.28 780.69 697.67 588.71 110.97 920.03 402.25 820.74 954.96 464.73 325.09
636.50 153.14 79.85 151.86 621.13 591.01 643.39 367.72 791.43 421.17 547.91 602.46 582.44 563.64 324.77 341.52 456.42 321.72 399.54 576.77 553.69 654.28 307.95 527.55 605.34 519.17 402.32 190.60 254.51 446.49 174.36 366.87 499.42 496.95 472.55 419.93 502.94 531.35 237.46 300.51 560.16 0.00 690.45 505.55 582.85 281.09 571.73 327.43 541.62 333.93 379.27 492.16 199.78 392.86 553.97 268.20 374.52 503.39 616.31 135.99 713.53 523.77 288.03 482.42 581.60 178.21 363.25 739.57 494.32 627.22 536.01 385.52 157.58 199.11 437.51 641.44 475.11 427.24 535.36 549.83 298.11 446.63 301.23 292.73 227.28 469.62 297.77 265.22 606.04 722.77 427.62 588.09 425.79 385.82 602.79 440.67 418.32 431.01 313.55 628.11 301.13 578.57 654.06 275.08 501.32 440.60 557.36 374.66 353.36 223.20 355.05 387.44 320.29 391.27 473.51 62.95 612.35 630.27 535.91 666.14 260.85 335.65 407.47 657.60 566.28 382.34 373.16 86.40 487.80 167.05 482.56 262.74 617.60 444.97 540.17 655.00 530.76 446.42 396.93 165.08 585.92 540.95 615.93 290.71 464.94 704.94 437.96 596.35 301.97 409.26 441.47 823.35 209.77 646.15 553.64 596.43 609.07 432.18 528.52 343.48 294.26
1262.29 778.93 688.50 585.09 581.46 167.94 777.88 393.42 317.10 372.67 1072.58 368.58 468.06 322.92 526.47 422.69 291.76 485.74 365.35 711.26 192.55 643.19 525.84 1135.14 585.27 258.18 501.94 627.53 607.31 994.50 745.85 522.97 325.60 415.45 486.98 784.14 945.05 967.77 730.36 712.22 541.65 690.45 0.00 1077.60 641.10 622.55 1137.03 897.68 598.79 703.89 930.46 507.14 538.97 392.31 584.64 451.22 754.62 970.67 181.26 718.47 235.19 1142.51 610.49 374.99 207.71 729.40 405.25 338.01 567.03 161.63 1161.13 378.69 748.75 668.90 976.34 91.75 838.22 1027.58 206.88 750.90 666.99 853.65 608.03 658.07 773.40 593.47 843.89 783.06 182.81 821.75 806.34 175.88 925.42 885.45 165.29 960.81 958.46 867.83 647.97 149.72 500.16 331.60 1206.21 643.96 1126.44 431.23 614.53 418.59 870.46 624.78 703.23 809.10 837.39 900.35 525.70 627.50 339.83 563.02 478.26 53.28 795.48 463.32 883.61 538.41 303.25 720.31 707.65 633.02 817.73 665.37 703.69 427.71 597.01 994.02 651.52 624.72 976.41 963.52 464.21 682.89 276.85 719.47 944.13 808.41 1000.76 278.01 786.14 1144.36 670.40 359.54 852.49 345.39 576.76 108.51 652.62 653.60 154.90 961.72 748.62 402.76 659.15
264.34 390.17 470.92 510.83 953.68 985.36 733.79 765.67 1121.33 774.77 341.56 1004.56 1008.13 989.33 628.83 730.53 838.72 729.32 800.02 693.38 895.48 819.41 652.78 184.48 945.04 852.87 777.87 500.18 621.87 223.57 450.76 659.58 890.49 922.64 717.05 756.84 738.25 164.51 605.91 675.90 745.80 505.55 1077.60 0.00 781.26 637.89 85.76 302.31 881.32 426.51 400.50 718.10 620.45 776.20 781.95 652.03 725.21 774.93 994.32 369.56 1088.15 191.85 609.79 804.56 907.20 553.04 725.23 1076.53 658.21 1028.37 215.25 774.53 366.19 492.67 139.78 1025.81 436.41 191.57 885.48 859.13 607.41 781.38 580.20 575.38 349.87 651.69 279.38 640.05 1008.21 817.97 443.05 947.39 357.77 317.80 962.09 581.32 220.59 360.27 691.26 1010.41 612.72 967.58 235.84 630.44 180.56 785.72 897.06 763.67 450.82 467.58 453.42 710.04 483.89 426.47 727.72 488.64 1012.03 964.54 961.60 1034.75 386.71 678.91 339.45 851.01 911.11 503.64 669.14 520.72 419.78 509.23 603.60 649.89 936.19 98.34 738.58 828.96 771.58 500.51 720.51 526.75 959.86 670.18 805.75 607.69 252.31 1093.95 516.56 251.72 521.08 796.52 754.80 1179.81 635.46 1035.65 718.77 929.87 968.37 580.01 838.47 763.10 535.08
922.82 613.06 559.82 451.92 925.29 562.50 152.41 511.52 851.45 446.62 946.16 790.78 890.60 759.19 367.43 646.17 540.06 604.03 545.87 104.27 596.41 163.13 293.41 852.97 917.17 558.18 738.32 447.43 726.22 839.82 564.72 294.04 605.14 748.53 235.65 935.21 1040.48 635.57 757.72 824.92 99.45 582.85 641.10 781.26 0.00 701.28 815.33 784.84 914.11 414.62 886.44 157.89 556.93 474.93 96.90 474.74 867.32 1025.48 532.61 605.92 819.90 849.19 730.63 327.25 547.03 761.06 545.46 898.94 194.86 526.13 861.43 638.89 580.17 740.83 795.38 618.99 370.83 847.17 529.84 1001.36 779.69 966.35 336.80 321.49 530.62 173.11 577.63 779.03 547.31 227.14 367.43 522.68 439.88 479.85 512.09 1003.70 846.77 483.87 768.49 670.00 377.44 754.14 930.22 756.66 826.74 310.87 923.69 614.73 842.26 445.82 339.24 907.70 809.19 843.15 176.54 620.32 771.72 923.01 844.88 587.82 509.36 389.16 461.30 249.54 412.04 293.71 854.74 562.20 409.26 720.14 189.06 577.91 961.97 682.92 42.68 181.60 1109.15 930.59 329.79 702.62 669.56 208.86 1097.39 869.10 589.58 839.58 298.50 939.98 367.05 403.67 965.19 880.14 699.13 664.26 62.49 936.25 501.70 920.19 1015.58 496.78 345.41
832.02 391.14 332.77 365.64 386.95 532.89 786.70 301.61 620.97 413.07 597.16 388.68 374.50 382.91 422.90 199.86 377.92 247.42 319.62 731.66 442.33 773.34 473.25 715.95 345.08 437.48 139.98 379.81 77.78 548.04 374.99 518.37 312.84 336.94 569.63 270.82 384.23 727.81 229.38 151.40 684.00 281.09 622.55 637.89 701.28 0.00 720.09 422.26 310.38 521.10 442.74 543.39 255.48 384.76 666.20 284.30 224.74 420.91 618.15 362.89 498.38 708.58 74.40 541.90 453.27 241.68 312.93 523.37 587.57 584.58 727.81 243.86 379.06 145.22 559.40 618.42 740.84 597.23 478.09 342.77 91.05 317.51 490.44 525.77 499.70 603.20 561.56 216.21 563.40 898.20 657.11 571.22 696.17 665.86 556.52 443.93 528.11 683.16 82.31 535.95 381.60 351.70 769.81 114.08 709.50 475.17 326.12 209.87 395.04 412.41 615.36 279.22 361.97 438.04 562.04 224.00 396.15 384.26 369.60 581.60 487.98 378.82 679.48 734.78 626.67 580.28 192.94 255.36 699.80 189.95 610.60 212.42 386.36 623.64 734.34 767.23 490.19 488.10 488.64 183.43 400.36 679.36 499.38 319.11 692.42 478.07 663.34 689.50 491.18 490.43 304.15 596.48 77.18 568.70 734.18 326.78 565.91 453.61 321.77 327.59 512.82
178.58 445.06 537.10 596.59 994.54 1063.39 726.22 851.43 1204.43 845.57 305.66 1054.20 1086.07 1039.91 712.59 814.29 912.39 798.14 885.78 711.06 961.66 896.06 716.81 149.38 973.73 919.05 851.55 572.12 668.68 198.42 526.22 716.58 956.67 998.96 802.81 777.75 752.12 179.76 624.69 733.58 809.44 571.73 1137.03 85.76 815.33 720.09 0.00 323.22 919.09 477.68 398.63 803.86 671.86 817.26 850.75 737.79 746.12 788.80 1051.32 435.74 1163.90 146.00 691.99 861.56 992.96 573.95 810.99 1097.44 743.97 1071.21 151.29 817.08 451.95 574.87 160.69 1109.57 463.23 212.48 969.24 927.16 675.44 794.23 637.20 626.55 406.87 737.45 336.38 660.52 1064.70 864.96 459.43 1004.39 375.45 381.44 1019.09 602.23 234.46 426.63 719.25 1014.09 698.48 1017.22 150.08 698.47 140.21 848.87 903.35 847.43 471.73 551.34 539.18 708.17 499.91 427.38 785.77 574.40 1061.67 1003.38 1047.36 1083.75 443.71 762.67 403.09 915.41 975.14 561.69 754.90 604.83 483.42 530.14 649.31 718.71 975.12 182.10 805.97 914.53 769.71 498.64 785.90 547.66 1041.89 725.46 851.67 640.33 267.56 1143.59 558.64 235.77 572.25 881.48 767.65 1262.00 713.26 1055.30 802.53 973.90 1025.37 578.14 911.10 839.24 584.77
435.91 218.00 292.80 421.28 743.69 819.09 745.74 610.92 998.38 624.61 225.08 767.91 796.76 774.68 558.16 507.85 663.65 518.99 639.38 716.84 717.36 837.92 570.95 293.69 710.72 674.75 562.24 428.37 406.24 157.41 281.92 600.72 693.42 702.61 670.04 493.53 518.92 448.26 339.93 435.75 733.53 327.43 897.68 302.31 784.84 422.26 323.22 0.00 653.39 416.44 133.47 691.16 442.33 652.11 733.14 542.33 467.94 533.81 865.14 191.44 877.61 286.32 394.16 745.42 766.74 296.34 570.48 902.60 631.27 876.54 305.55 551.85 221.72 277.04 162.53 873.98 580.59 186.10 733.65 615.71 391.78 479.07 513.94 520.00 319.02 624.25 361.71 363.79 874.61 866.50 519.36 833.66 524.97 485.00 823.07 338.20 121.37 521.63 425.32 835.34 571.73 730.93 409.22 414.81 308.77 681.19 669.13 540.99 209.28 396.91 445.60 443.01 183.08 161.43 709.81 336.41 775.38 725.25 791.20 856.63 366.11 558.98 506.65 816.48 799.96 495.82 496.00 360.53 575.05 232.31 595.78 469.97 729.37 259.70 746.85 819.45 504.55 233.48 649.84 249.83 760.29 662.36 528.45 342.05 447.45 857.30 528.51 285.27 440.70 736.69 452.49 975.71 415.43 857.53 766.66 700.03 812.68 293.18 605.06 594.94 462.34
1071.02 663.75 575.23 553.66 95.87 566.84 1022.85 409.09 541.61 534.23 828.29 280.41 187.80 275.87 595.55 275.38 411.87 338.56 443.44 1016.91 485.52 924.28 640.72 928.80 63.72 486.12 240.77 613.09 305.05 748.90 602.26 699.64 346.79 240.81 744.67 263.86 473.73 952.44 390.80 332.79 865.22 541.62 598.79 881.32 914.11 310.38 919.09 653.39 0.00 623.73 640.89 765.45 468.57 537.73 888.26 519.15 347.59 504.56 652.27 629.51 425.76 925.63 271.53 696.41 487.22 439.83 368.65 398.62 801.16 618.53 958.94 284.45 610.97 388.65 790.53 602.53 885.21 805.93 505.22 250.04 311.92 321.96 705.39 744.45 737.48 802.39 807.97 451.16 597.35 1041.09 813.10 611.64 897.18 871.35 610.25 590.11 759.24 826.16 228.07 487.72 545.76 317.03 1014.96 323.40 940.63 650.21 15.74 308.52 598.01 645.69 809.07 416.23 564.94 675.15 746.80 496.61 327.43 102.90 191.56 609.72 718.47 561.47 870.11 874.19 744.08 775.26 255.37 542.54 877.43 421.08 897.78 405.52 75.98 820.77 953.34 942.75 515.19 677.60 661.25 403.56 406.37 928.38 503.83 476.31 924.33 443.40 855.61 898.76 718.30 653.09 302.35 483.13 364.36 490.28 943.58 54.81 599.86 598.10 216.63 480.56 739.94
647.13 198.44 265.90 204.44 719.60 590.05 449.11 443.64 772.77 395.42 582.54 676.53 755.99 592.68 251.70 463.65 488.55 400.47 409.29 393.18 556.62 510.42 239.13 504.91 687.45 445.71 521.47 143.33 460.40 464.55 163.19 259.52 553.63 631.75 350.36 672.27 703.02 405.04 511.53 583.61 416.30 333.93 703.89 426.51 414.62 521.10 477.68 416.44 623.73 0.00 549.91 336.24 335.26 394.19 417.79 316.97 600.69 739.70 610.85 253.67 742.57 501.13 493.92 413.60 576.04 462.06 407.82 771.46 355.11 647.50 513.37 486.19 259.23 439.34 380.76 644.94 261.48 432.55 504.61 796.84 545.12 699.72 163.00 148.87 151.65 325.06 184.59 549.07 641.63 520.37 189.37 589.09 273.45 247.62 594.03 664.52 492.42 202.43 528.35 660.24 230.71 639.55 627.76 542.58 478.68 380.00 639.47 480.76 503.08 110.73 185.34 644.80 470.01 493.99 354.89 361.07 644.24 726.63 726.43 650.61 94.74 309.48 246.38 504.54 497.46 151.53 614.72 265.74 253.70 440.70 274.73 439.91 699.71 365.63 402.56 518.82 808.01 596.14 308.22 458.22 618.05 367.11 764.44 567.96 389.31 765.92 231.88 552.80 94.57 403.80 698.56 831.25 443.92 683.75 409.78 678.54 583.64 594.34 784.05 381.09 116.21
467.52 351.47 403.56 491.04 716.34 859.48 879.21 643.70 1031.16 642.77 320.09 768.20 785.67 804.58 657.58 537.75 696.43 551.77 644.54 850.31 799.25 943.55 658.15 384.31 695.53 770.47 579.51 548.21 376.09 200.21 410.97 717.07 696.52 675.32 731.23 454.40 385.45 481.60 276.93 371.66 839.16 379.27 930.46 400.50 886.44 442.74 398.63 133.47 640.89 549.91 0.00 796.79 550.13 614.46 863.63 586.86 370.42 400.34 857.78 324.91 910.39 376.94 397.44 827.46 832.64 201.06 603.26 935.38 736.90 868.41 363.88 581.75 306.27 308.92 260.72 934.73 714.06 208.93 798.25 593.61 351.69 403.81 642.99 629.18 452.49 757.72 494.71 288.07 861.90 996.31 590.78 876.70 658.44 618.47 886.42 204.73 208.44 611.01 435.54 868.12 607.79 763.71 466.27 374.72 394.81 760.73 625.15 570.89 75.81 530.38 579.07 309.54 102.79 63.24 796.17 367.70 808.16 725.18 739.14 938.52 483.67 674.83 619.02 899.41 884.51 629.29 440.05 442.99 666.02 265.09 729.25 502.75 686.18 393.17 880.32 925.08 371.08 100.01 706.87 282.61 784.81 795.83 502.00 241.70 545.64 890.08 661.98 288.94 574.17 759.99 430.39 1008.49 428.99 909.33 890.09 663.20 896.81 179.51 568.02 671.63 595.81
943.11 534.68 473.77 340.30 767.40 427.65 289.81 445.39 702.45 288.73 879.56 632.89 732.71 601.30 256.12 525.00 382.17 496.03 415.30 262.16 438.52 229.95 195.62 839.89 783.66 400.29 639.04 349.63 617.64 721.35 477.72 149.18 447.25 590.64 77.76 804.66 893.97 633.69 639.58 694.79 140.61 492.16 507.14 718.10 157.89 543.39 803.86 691.16 765.45 336.24 796.79 0.00 412.07 317.04 122.81 328.23 752.24 907.34 374.72 507.14 662.01 836.11 584.12 169.36 389.14 637.66 408.04 741.05 59.89 420.89 848.35 481.00 490.52 594.32 717.00 489.26 426.77 758.32 371.95 875.72 634.44 848.75 245.70 254.89 450.21 93.51 472.54 681.24 442.07 359.92 344.99 386.04 470.50 430.53 392.53 900.12 757.12 452.83 610.60 512.11 230.93 596.25 880.90 641.58 813.66 152.98 778.30 520.90 755.53 337.42 291.78 789.56 745.65 745.75 18.65 535.84 613.83 765.12 686.99 525.55 429.72 251.65 408.88 191.39 254.15 242.73 711.84 450.58 404.21 573.63 276.58 462.18 817.62 653.58 190.95 223.84 991.01 865.88 171.90 556.11 511.67 212.33 1006.29 750.96 583.83 681.69 295.35 807.27 262.18 245.78 832.50 760.93 598.64 553.32 190.79 820.26 402.92 853.73 865.16 374.21 283.82
755.94 287.25 149.53 155.47 561.43 471.74 602.70 262.03 652.45 277.11 621.26 481.25 544.81 457.30 210.06 215.69 314.76 200.51 247.69 593.40 401.84 568.43 274.75 629.10 532.25 367.32 391.72 191.93 230.56 473.44 238.53 262.89 379.84 423.48 405.38 420.04 542.56 637.62 294.45 309.73 521.05 199.78 538.97 620.45 556.93 255.48 671.86 442.33 468.57 335.26 550.13 412.07 0.00 248.80 528.27 146.28 365.16 561.96 490.06 250.89 599.42 636.47 197.04 394.19 451.22 360.96 221.59 624.41 453.21 500.75 641.37 259.69 267.91 255.54 548.71 527.19 562.47 496.92 406.16 518.33 266.61 464.19 287.14 309.36 356.07 383.82 426.56 315.69 496.24 713.37 494.59 443.13 565.49 563.61 428.43 558.23 509.48 537.69 263.75 486.45 201.59 452.74 739.50 254.50 635.43 327.46 484.31 248.83 483.37 224.53 427.48 419.64 450.30 493.13 419.06 192.83 497.19 571.43 498.28 485.69 346.00 273.75 543.02 565.55 516.99 398.97 348.41 113.38 561.78 296.93 483.89 121.08 544.55 564.16 528.91 586.90 630.61 576.43 301.74 287.98 408.36 495.36 646.06 405.83 581.27 579.11 452.61 623.30 303.30 352.41 462.48 697.52 186.57 523.92 548.72 523.38 438.82 551.78 516.92 191.63 324.94
956.23 472.87 383.87 265.86 542.23 254.63 572.87 128.84 519.03 28.31 835.03 397.38 453.65 384.85 182.11 289.86 157.00 231.23 110.84 557.59 259.82 479.82 190.74 822.18 560.74 156.01 355.64 300.97 390.47 722.24 438.86 249.66 222.08 365.47 239.28 565.90 746.51 680.33 492.73 513.68 407.56 392.86 392.31 776.20 474.93 384.76 817.26 652.11 537.73 394.19 614.46 317.04 248.80 0.00 409.25 124.66 561.80 753.83 243.32 460.67 480.72 829.55 423.99 240.17 220.34 490.95 169.28 515.88 344.61 253.95 855.74 253.28 460.99 383.09 757.24 325.76 579.82 705.56 185.43 586.63 474.88 647.67 297.34 345.26 466.46 352.41 536.95 553.09 247.44 624.65 506.13 262.24 607.66 579.17 276.94 751.23 700.97 570.33 391.03 328.69 163.48 360.40 938.02 472.52 821.05 196.59 553.13 270.75 589.79 333.57 446.83 637.66 556.72 648.28 304.09 369.57 388.66 539.95 461.82 339.03 468.92 124.17 557.52 424.33 298.69 434.87 534.76 306.46 540.16 427.82 436.53 260.06 579.29 702.81 475.33 498.29 808.76 682.85 193.20 421.30 269.85 501.04 797.83 604.11 665.66 437.93 492.68 848.31 322.65 163.75 621.09 551.37 339.13 369.90 455.52 578.75 283.22 681.05 634.48 57.17 324.05
972.62 567.23 474.12 447.05 872.53 506.04 215.73 518.80 794.99 393.72 935.09 752.86 838.65 710.28 353.96 636.76 487.30 590.56 520.09 149.11 561.33 107.14 279.94 887.79 846.21 521.42 741.20 430.45 711.59 807.58 529.12 271.99 552.38 695.77 182.75 901.07 1012.37 670.99 762.39 790.76 42.99 553.97 584.64 781.95 96.90 666.20 850.75 733.14 888.26 417.79 863.63 122.81 528.27 409.25 0.00 451.04 846.19 1004.79 497.53 572.48 784.82 880.42 678.07 271.52 511.95 727.49 530.85 846.18 126.73 523.89 911.23 603.81 557.36 657.97 798.55 562.53 447.22 821.51 494.76 980.71 747.64 925.74 319.82 310.42 511.25 196.12 558.67 765.56 507.17 237.11 393.55 466.22 475.30 470.99 455.63 944.51 823.96 493.13 733.41 634.92 353.74 715.88 921.36 735.53 876.54 269.72 883.43 643.71 807.96 401.99 328.53 900.67 774.89 820.34 141.46 606.10 718.96 870.25 792.12 531.36 512.53 374.46 480.19 192.83 357.72 291.29 829.44 530.54 459.06 663.46 238.86 562.25 915.14 688.41 71.42 101.03 1032.16 901.02 279.03 678.92 616.80 229.39 1080.41 792.11 621.74 804.50 330.66 930.08 323.22 347.94 899.16 823.68 708.72 631.70 67.98 938.08 445.24 863.73 987.97 466.42 337.58
831.57 348.21 259.21 141.20 494.72 379.06 571.08 127.85 622.08 152.97 729.87 411.26 510.74 415.18 147.09 248.97 260.05 185.79 155.01 579.01 335.29 505.46 188.95 697.52 455.43 280.67 354.65 176.31 312.32 603.22 314.20 242.31 275.31 417.07 301.09 494.00 668.36 654.56 440.73 435.53 416.76 268.20 451.22 652.03 474.74 284.30 737.79 542.33 519.15 316.97 586.86 328.23 146.28 124.66 451.04 0.00 505.16 675.68 367.98 350.89 520.96 704.89 343.32 270.29 345.00 413.04 168.05 545.95 388.12 378.61 731.08 260.54 336.33 381.07 632.58 424.53 496.20 600.21 284.20 594.04 375.35 590.29 286.94 332.00 341.80 350.62 412.29 461.97 372.10 613.90 439.38 386.90 528.38 514.13 388.77 675.50 602.93 468.94 366.61 431.74 97.30 374.28 813.36 394.50 696.39 270.30 525.81 266.08 542.89 208.91 405.20 559.64 509.82 523.62 346.88 244.91 418.73 494.61 483.71 397.94 344.26 127.47 512.89 461.26 375.32 418.96 477.24 181.80 415.50 349.01 468.27 153.15 524.36 578.15 508.33 523.93 701.85 635.95 212.79 366.53 350.65 478.31 743.96 528.03 579.46 500.65 477.95 723.65 287.68 206.13 587.27 604.60 302.20 472.95 497.12 533.31 399.16 634.15 606.07 181.83 309.32
793.14 489.18 372.46 485.54 411.76 710.79 964.57 458.08 797.07 566.27 578.50 470.55 502.68 554.40 571.10 355.92 555.82 400.35 492.43 897.95 623.24 929.47 615.65 651.04 395.42 630.07 364.72 517.11 192.84 570.63 437.50 628.05 490.74 479.34 725.10 83.98 206.24 798.13 171.12 74.01 803.20 374.52 754.62 725.21 867.32 224.74 746.12 467.94 347.59 600.69 370.42 752.24 365.16 561.80 846.19 505.16 0.00 242.92 764.57 428.98 621.44 658.41 168.12 735.92 631.17 233.52 472.95 657.37 782.50 762.48 680.81 375.93 428.39 248.43 585.43 751.48 828.34 533.64 650.90 261.09 133.69 99.03 627.74 644.53 567.65 748.98 628.51 146.51 741.30 1034.31 719.62 728.01 788.42 760.34 738.22 281.12 553.14 744.60 195.89 649.23 521.31 507.53 777.55 110.66 677.27 686.57 345.75 389.06 320.76 549.71 729.57 96.11 287.69 351.89 770.89 341.89 544.62 393.32 474.17 726.89 572.71 554.88 741.99 885.27 802.73 734.14 147.56 430.33 794.86 277.45 785.57 372.44 392.26 638.07 894.07 945.37 297.46 375.51 636.80 281.24 502.83 860.52 280.90 128.72 720.29 633.90 755.50 659.36 608.51 701.71 97.87 745.38 252.15 671.17 878.81 292.78 743.81 339.13 233.79 504.63 586.87
853.36 574.40 560.05 655.25 554.62 907.59 1072.83 654.77 992.57 761.77 517.41 666.05 642.64 698.12 749.51 552.72 736.64 570.87 689.12 1036.96 826.27 1082.40 779.84 711.14 512.75 810.89 522.90 686.83 363.36 590.38 576.51 817.98 687.54 605.61 866.30 240.70 36.68 831.17 267.76 269.51 1000.00 503.39 970.67 774.93 1025.48 420.91 788.80 533.81 504.56 739.70 400.34 907.34 561.96 753.83 1004.79 675.68 242.92 0.00 960.07 513.94 816.94 706.14 364.92 901.99 827.97 327.67 637.32 852.87 921.76 947.62 671.78 596.72 542.07 381.00 637.15 922.00 921.71 609.27 814.21 379.19 338.00 208.69 797.46 796.12 653.58 852.37 724.07 294.22 938.10 1180.34 853.92 923.51 891.68 884.83 935.02 195.61 554.34 882.52 416.62 844.73 699.72 703.03 803.36 337.77 706.47 871.02 509.35 585.86 365.01 675.77 858.44 185.66 357.80 424.70 888.69 473.96 740.12 551.93 630.89 963.50 688.61 778.49 872.00 1051.35 1005.79 885.73 341.58 562.38 911.29 375.38 935.13 542.96 517.19 722.03 1043.56 1100.87 90.03 339.91 815.21 374.54 725.16 1028.59 159.58 212.68 855.43 829.40 941.35 623.23 754.54 850.04 215.97 940.88 421.36 885.94 1055.24 449.75 940.61 260.41 312.87 696.66 774.46
1172.52 716.19 627.19 509.18 635.36 85.43 637.30 340.85 422.18 271.63 1055.36 457.81 518.08 385.62 410.91 443.93 258.09 426.04 309.48 607.60 213.23 488.67 383.36 1030.30 636.83 190.39 514.08 544.29 631.37 936.58 672.13 440.29 305.48 459.44 367.32 760.28 923.39 921.68 727.86 690.56 464.57 616.31 181.26 994.32 532.61 618.15 1051.32 865.14 652.27 610.85 857.78 374.72 490.06 243.32 497.53 367.98 764.57 960.07 0.00 673.70 416.45 1022.93 628.10 271.53 220.22 712.18 371.58 489.67 411.36 91.54 1057.29 447.05 703.98 626.41 968.22 168.53 740.07 948.88 156.27 825.47 681.19 846.31 461.33 537.88 644.45 454.00 714.94 762.87 70.36 678.45 682.41 46.93 803.62 763.65 61.63 910.20 900.54 762.95 603.04 275.65 390.85 428.19 1123.70 685.56 1036.75 272.86 636.53 452.21 833.11 568.48 605.08 839.58 800.04 891.60 356.07 612.89 383.74 641.04 545.40 183.95 652.81 357.15 742.00 386.96 148.73 580.15 668.06 549.78 735.22 648.15 565.59 451.77 657.57 895.98 541.86 470.20 997.85 926.17 335.26 664.62 330.62 574.94 956.27 757.80 854.17 445.23 646.82 1086.44 527.92 207.05 819.73 425.52 582.45 248.78 522.05 685.26 62.32 924.37 792.61 300.49 516.67
543.82 60.46 101.36 229.84 631.56 627.65 617.55 445.09 880.17 463.40 416.52 674.57 655.89 667.37 389.95 400.54 518.14 446.67 459.56 550.93 525.92 662.84 379.51 416.67 673.43 483.31 502.87 236.93 359.01 310.50 90.48 415.48 520.93 589.04 522.25 485.89 477.26 431.44 257.86 422.75 563.17 135.99 718.47 369.56 605.92 362.89 435.74 191.44 629.51 253.67 324.91 507.14 250.89 460.67 572.48 350.89 428.98 513.94 673.70 0.00 784.27 424.04 357.98 553.98 575.30 290.66 404.65 809.26 460.91 685.10 443.33 444.54 30.28 240.86 344.83 682.54 407.77 311.11 542.21 607.32 355.60 467.03 322.50 328.56 139.64 432.81 210.13 318.22 683.17 675.06 339.98 642.22 406.94 379.71 631.63 478.99 282.33 369.85 413.18 689.83 380.29 637.59 543.18 378.63 408.64 489.75 645.25 433.68 309.59 265.84 373.44 407.84 312.09 293.26 525.79 167.45 682.04 650.00 640.41 665.19 174.67 367.54 358.06 625.04 608.52 381.28 476.71 169.09 415.22 226.63 504.48 367.24 681.64 352.29 600.45 649.09 603.97 419.94 462.91 237.69 613.18 542.56 618.92 369.24 343.64 763.96 439.53 460.36 249.26 545.25 493.61 850.22 314.27 666.09 589.47 678.06 621.24 431.95 601.13 403.50 270.90
1299.24 817.72 711.69 634.52 346.27 403.13 935.43 393.11 175.63 457.84 1052.51 150.89 278.89 149.89 582.36 383.73 357.20 431.63 369.88 892.55 283.52 815.26 629.31 1157.02 367.01 394.43 362.63 693.37 576.16 1012.46 782.53 660.39 292.12 281.18 666.84 644.83 780.26 1093.64 689.41 547.43 775.51 713.53 235.19 1088.15 819.90 498.38 1163.90 877.61 425.76 742.57 910.39 662.01 599.42 480.72 784.82 520.96 621.44 816.94 416.45 784.27 0.00 1163.93 571.53 572.26 272.87 709.33 409.14 105.59 721.90 382.22 1156.65 346.82 798.22 643.60 1014.75 255.97 990.47 1001.70 344.30 580.59 585.79 696.04 706.58 777.17 835.12 755.52 905.61 640.67 361.04 946.96 918.97 377.57 972.89 988.92 362.87 892.61 983.46 945.00 526.68 200.94 576.32 146.68 1258.11 562.76 1164.85 595.45 427.86 358.46 850.39 725.97 866.56 717.55 817.32 873.81 680.66 650.58 191.13 327.83 267.75 288.47 837.31 543.71 969.31 713.27 513.94 856.74 564.89 702.76 925.93 645.30 818.96 509.65 410.94 1015.92 797.64 833.73 906.97 925.89 581.14 662.82 255.92 874.34 804.82 743.57 1005.84 42.82 864.52 1138.18 756.48 533.31 697.81 123.94 558.45 242.15 777.83 457.76 373.26 860.44 590.99 425.94 762.62
149.59 370.63 525.40 633.37 1011.62 1018.56 822.02 828.86 1261.58 853.02 188.73 1054.23 1057.26 1038.46 699.22 794.17 899.55 783.91 794.51 781.19 949.96 943.29 739.37 7.37 989.35 907.35 828.38 552.37 646.99 176.73 508.27 686.93 944.33 947.39 832.42 729.97 669.46 325.76 573.95 666.94 876.95 523.77 1142.51 191.85 849.19 708.58 146.00 286.32 925.63 501.13 376.94 836.11 636.47 829.55 880.42 704.89 658.41 706.14 1022.93 424.04 1163.93 0.00 680.48 895.58 999.34 496.34 820.50 1109.30 805.63 1083.50 34.36 838.17 431.42 563.36 172.55 1093.31 565.44 189.31 952.98 878.96 646.97 689.16 663.00 630.38 463.30 750.16 425.51 568.66 1076.99 966.83 593.42 1060.82 516.89 491.06 1055.67 574.56 212.77 445.87 697.56 1071.24 731.84 1017.25 133.88 670.00 22.45 876.32 920.43 818.10 452.75 584.97 551.89 594.89 469.40 391.72 826.19 537.77 1061.70 1007.20 1010.73 1089.23 406.39 775.47 489.82 913.27 997.70 602.11 744.36 523.09 566.62 518.63 660.13 730.57 971.53 246.44 853.14 927.43 736.24 390.79 790.90 531.78 989.66 765.91 804.25 529.69 413.56 1143.62 634.80 113.86 595.70 903.08 715.74 1262.03 660.21 1082.84 866.87 939.02 1045.28 470.29 831.07 827.54 617.34
827.57 392.22 303.70 317.42 367.40 542.67 799.74 354.07 695.37 407.63 569.06 461.83 443.68 452.09 402.98 187.80 387.70 240.92 361.31 747.31 461.35 761.35 447.53 685.35 335.25 461.95 209.16 378.04 33.52 503.78 330.73 459.93 322.62 364.25 556.98 223.00 345.52 699.71 154.98 112.69 635.08 288.03 610.49 609.79 730.63 74.40 691.99 394.16 271.53 493.92 397.44 584.12 197.04 423.99 678.07 343.32 168.12 364.92 628.10 357.98 571.53 680.48 0.00 576.60 463.05 196.38 313.63 586.29 644.01 594.36 699.71 231.80 362.74 117.12 531.30 592.16 712.74 560.81 489.52 321.29 69.57 267.15 484.18 506.40 465.95 580.86 536.44 212.86 573.18 906.67 612.85 584.80 678.15 656.87 570.10 387.31 500.01 661.12 93.42 547.02 353.19 424.85 769.84 57.46 681.40 524.50 287.27 220.94 359.58 402.10 600.22 222.60 329.12 409.94 602.77 225.08 469.30 374.43 412.33 600.62 465.94 431.96 635.22 717.15 675.95 582.54 151.37 271.01 688.09 161.85 626.25 213.12 347.51 549.24 725.95 777.25 433.57 455.25 468.68 155.33 393.21 692.40 449.02 266.36 671.80 551.22 649.65 632.88 480.87 536.99 265.44 651.91 92.83 561.55 745.76 326.34 575.69 412.31 319.88 366.82 487.98
1039.81 556.45 452.62 341.58 712.06 307.99 438.94 287.32 578.49 211.86 918.41 545.27 644.75 461.42 212.82 456.49 340.97 406.46 286.07 420.63 348.77 317.91 174.47 899.36 674.78 274.60 469.68 360.09 543.08 805.95 466.00 226.17 400.53 549.44 123.16 724.38 897.06 712.79 634.23 666.29 272.44 482.42 374.99 804.56 327.25 541.90 861.56 745.42 696.41 413.60 827.46 169.36 394.19 240.17 271.52 270.29 735.92 901.99 271.53 553.98 572.26 895.58 576.60 0.00 299.39 626.40 327.76 602.78 225.22 280.56 907.82 420.01 557.16 520.99 779.48 319.90 551.74 786.70 298.05 798.85 627.80 758.40 281.07 328.99 492.99 218.48 525.18 632.24 288.88 508.63 477.05 247.40 598.38 562.90 260.60 887.54 769.91 554.06 549.51 422.36 236.63 508.29 1009.86 625.26 873.13 66.73 703.51 429.23 756.81 359.67 416.75 742.90 734.39 773.49 150.71 515.20 475.56 713.96 644.72 361.40 506.71 213.65 541.25 197.78 122.80 374.79 693.24 451.86 552.29 562.37 381.41 363.48 699.23 706.22 342.94 336.38 912.18 860.52 121.14 559.20 458.05 381.69 911.87 735.14 648.04 591.94 431.30 920.48 319.03 76.42 784.98 636.97 512.53 428.40 339.50 751.22 268.38 858.72 748.52 289.19 307.78
1119.12 635.76 560.00 486.20 481.74 154.38 662.56 226.24 313.31 237.22 974.76 300.49 354.23 216.64 389.05 315.11 152.20 285.12 223.58 619.68 49.38 568.38 411.08 991.97 517.18 130.33 427.21 521.31 492.63 829.90 602.68 387.52 140.43 304.98 422.55 633.71 808.57 900.67 613.25 575.74 529.75 581.60 207.71 907.20 547.03 453.27 992.96 766.74 487.22 576.04 832.64 389.14 451.22 220.34 511.95 345.00 631.17 827.97 220.22 575.30 272.87 999.34 463.05 299.39 0.00 631.58 265.69 376.78 449.03 171.85 1018.63 271.11 605.58 553.82 894.48 189.19 770.07 886.41 71.43 678.69 532.62 730.20 472.58 531.01 655.00 482.65 725.49 638.54 193.03 674.09 687.12 173.29 810.08 777.12 158.59 825.36 857.63 778.47 482.09 122.97 372.31 263.51 1095.96 520.51 983.94 328.34 471.48 300.45 767.23 489.33 635.08 685.65 734.16 809.10 407.79 531.01 249.56 500.18 381.55 154.43 668.06 333.08 773.76 440.40 309.66 584.86 532.83 495.20 760.50 567.55 551.70 336.46 542.59 858.57 524.77 586.85 885.16 860.29 374.30 555.14 219.10 601.47 868.56 672.96 859.54 292.55 606.02 979.76 538.49 260.44 726.98 371.79 485.51 164.18 504.96 534.37 163.11 807.01 629.13 259.59 543.48
631.19 263.62 253.37 330.07 515.28 658.42 799.97 442.64 830.10 519.26 430.48 567.14 586.35 609.52 456.52 384.18 495.37 350.71 443.48 744.43 598.19 814.89 486.16 488.97 494.47 569.62 381.66 368.81 175.03 401.27 337.86 545.08 519.00 474.26 610.52 270.83 356.24 601.89 77.61 170.60 726.19 178.21 729.40 553.04 761.06 241.68 573.95 296.34 439.83 462.06 201.06 637.66 360.96 490.95 727.49 413.04 233.52 327.67 712.18 290.66 709.33 496.34 196.38 626.40 631.58 0.00 402.20 734.32 672.53 732.40 528.33 428.18 281.32 107.86 413.26 733.67 614.92 409.99 597.19 402.35 150.63 286.78 479.44 470.94 392.22 647.83 444.81 87.01 711.22 868.58 592.56 700.06 580.33 564.03 685.36 262.46 402.19 594.22 234.48 667.06 406.73 562.65 615.48 173.66 515.20 559.67 424.09 417.32 175.15 364.01 533.26 227.59 142.08 236.46 651.72 168.13 607.10 524.12 539.82 737.46 399.04 485.50 585.68 738.86 730.47 560.55 248.02 251.03 649.55 64.03 623.37 301.69 495.86 552.62 718.38 828.52 355.04 268.21 522.22 81.55 583.75 719.16 445.49 114.99 573.98 689.02 616.17 490.00 442.78 558.93 272.89 807.43 227.93 708.27 731.85 473.09 695.75 253.97 400.94 474.18 464.42
933.23 449.87 371.12 225.38 461.60 295.86 654.20 40.44 475.52 165.58 745.38 323.85 423.33 327.77 226.90 128.73 113.49 87.99 74.79 649.73 216.31 585.27 272.07 821.32 419.73 187.74 267.24 284.23 280.11 667.30 398.38 330.99 178.41 304.57 376.02 396.62 606.49 751.44 403.16 403.32 496.57 363.25 405.25 725.23 545.46 312.93 810.99 570.48 368.65 407.82 603.26 408.04 221.59 169.28 530.85 168.05 472.95 637.32 371.58 404.65 409.14 820.50 313.63 327.76 265.69 402.20 0.00 458.54 432.51 358.20 824.86 172.73 389.08 316.37 658.53 355.64 581.33 669.91 215.31 576.54 356.37 501.16 357.62 411.81 425.98 433.74 496.47 455.86 357.00 722.36 519.76 324.65 662.60 645.01 336.06 599.38 631.26 610.25 292.18 285.18 177.11 286.87 910.11 362.29 798.05 281.56 384.39 133.98 543.26 316.83 473.63 527.43 510.19 573.15 415.89 300.30 331.32 458.91 384.19 355.58 452.18 192.82 623.36 513.95 435.96 498.77 426.99 334.97 583.55 338.17 552.87 100.51 444.63 677.51 584.69 603.74 649.21 636.32 292.60 354.58 242.99 559.73 683.03 446.98 663.64 413.24 556.54 817.16 395.60 284.44 489.89 492.22 249.56 326.39 576.93 423.46 325.67 609.45 498.14 112.11 405.38
1255.30 843.76 713.37 683.92 365.25 408.50 956.61 418.10 242.09 502.07 1077.50 186.82 221.51 178.78 595.73 408.72 358.88 463.74 432.32 957.38 360.08 862.55 665.29 1113.08 345.05 433.13 421.71 722.25 601.15 1020.54 803.51 655.31 293.80 317.11 713.04 640.21 816.19 1156.08 660.55 583.36 821.71 739.57 338.01 1076.53 898.94 523.37 1097.44 902.60 398.62 771.46 935.38 741.05 624.41 515.88 846.18 545.95 657.37 852.87 489.67 809.26 105.59 1109.30 586.29 602.78 376.78 734.32 458.54 0.00 784.64 449.15 1121.54 371.81 839.54 668.59 936.75 361.56 999.62 988.54 408.13 587.27 610.78 674.76 741.50 790.54 880.24 776.24 943.12 665.66 464.22 1046.93 960.83 448.33 1001.78 990.60 437.74 900.46 1008.45 973.89 555.57 262.07 635.65 171.67 1221.02 587.75 1086.85 626.15 382.88 383.45 867.76 754.85 864.63 724.25 834.69 898.80 749.27 676.62 127.22 383.69 268.04 333.34 866.20 562.70 970.99 777.10 563.75 880.15 598.13 727.75 940.12 670.29 868.63 540.03 347.61 1040.91 862.47 844.08 873.17 960.82 610.03 687.81 280.91 953.38 787.38 768.56 1068.28 92.49 881.52 1108.79 769.85 526.36 648.18 218.40 583.44 240.89 879.66 452.77 427.35 903.06 551.93 488.38 773.77
922.55 491.42 448.37 398.17 816.81 455.22 229.92 392.07 756.56 316.30 856.35 675.48 774.96 643.53 260.86 561.24 442.06 520.50 426.42 247.09 494.12 206.65 231.06 798.26 823.97 444.00 618.87 303.72 648.24 733.27 425.11 190.32 507.14 650.53 105.33 829.13 934.95 614.34 654.00 738.97 102.26 494.32 567.03 658.21 194.86 587.57 743.97 631.27 801.16 355.11 736.90 59.89 453.21 344.61 126.73 388.12 782.50 921.76 411.36 460.91 721.90 805.63 644.01 225.22 449.03 672.53 432.51 784.64 0.00 448.46 837.62 524.76 430.63 648.95 735.87 497.97 402.65 711.46 415.40 903.29 678.62 863.17 193.09 253.63 458.79 69.39 493.91 714.36 469.64 336.64 359.55 438.72 457.20 446.30 424.02 906.95 697.23 432.26 654.26 572.00 290.82 638.50 894.05 671.84 824.49 158.49 816.90 533.98 745.51 336.32 267.66 803.98 712.44 693.61 78.54 523.50 658.52 825.01 746.88 539.47 449.85 262.80 446.19 192.80 314.04 257.29 769.92 428.17 344.32 615.17 216.69 471.34 842.52 674.95 152.18 188.18 968.90 836.91 212.28 616.00 571.56 258.73 953.68 765.38 526.54 729.64 235.46 867.16 270.76 259.38 880.37 795.31 595.41 574.95 171.99 855.97 424.75 832.30 897.71 401.78 278.24
1202.84 726.82 627.87 518.56 574.78 102.36 666.53 335.71 384.84 282.26 1049.23 433.81 493.90 372.24 399.98 454.62 244.71 421.75 301.36 618.29 189.05 490.45 436.98 1076.13 587.65 201.79 500.70 553.00 584.26 974.19 691.56 458.98 271.74 436.29 343.13 754.82 914.64 934.28 692.04 707.05 480.90 627.22 161.63 1028.37 526.13 584.58 1071.21 876.54 618.53 647.50 868.41 420.89 500.75 253.95 523.89 378.61 762.48 947.62 91.54 685.10 382.22 1083.50 594.36 280.56 171.85 732.40 358.20 449.15 448.46 0.00 1109.69 413.31 714.94 637.04 996.41 126.25 761.97 959.51 142.89 811.78 663.93 761.93 543.58 581.82 684.54 446.07 755.03 752.40 21.18 717.17 703.62 87.02 849.42 811.91 72.32 896.82 943.72 791.58 597.90 202.45 417.43 419.11 1140.63 651.82 1075.00 347.29 602.79 432.40 843.74 560.79 626.98 816.96 810.67 902.23 408.07 564.27 392.56 593.22 521.22 152.06 720.95 378.12 790.26 446.51 209.83 601.36 664.14 560.41 752.15 668.37 629.03 438.39 656.58 930.03 568.81 508.92 960.34 936.80 375.35 675.25 335.91 633.22 942.89 744.42 859.65 372.03 683.92 1102.26 574.10 283.29 735.35 419.30 587.44 208.26 583.15 673.34 78.65 927.88 760.44 311.12 570.29
181.58 382.87 502.34 601.75 1040.99 1050.55 834.26 854.78 1272.96 832.20 154.37 1065.27 1028.54 1036.95 717.63 813.40 931.54 796.15 826.50 793.43 969.25 955.53 751.61 39.36 999.12 926.64 794.02 564.61 681.25 210.99 479.84 699.17 921.91 979.38 844.66 735.14 635.10 331.05 594.66 677.19 889.19 536.01 1161.13 215.25 861.43 727.81 151.29 305.55 958.94 513.37 363.88 848.35 641.37 855.74 911.23 731.08 680.81 671.78 1057.29 443.33 1156.65 34.36 699.71 907.82 1018.63 528.33 824.86 1121.54 837.62 1109.69 0.00 857.40 435.78 582.59 184.79 1125.30 577.68 154.95 984.97 905.59 678.96 723.52 675.24 642.62 475.54 784.52 426.02 534.30 1093.10 979.07 605.66 1066.13 526.42 486.45 1069.80 558.22 224.07 458.11 730.87 1082.62 728.09 1028.29 131.58 659.90 34.69 874.92 952.42 828.91 439.69 597.21 586.25 629.25 466.67 357.36 855.34 550.01 1072.74 1030.80 1022.97 1107.85 418.63 785.54 502.06 925.51 1009.94 636.47 754.61 555.08 578.86 537.86 672.37 742.81 990.43 258.68 875.17 961.79 719.90 374.45 803.56 555.38 1006.45 778.15 776.76 561.68 418.85 1154.66 669.16 84.48 607.94 911.89 742.37 1251.20 692.20 1092.30 879.11 944.19 1064.57 453.95 865.43 833.00 629.58
987.76 505.00 409.22 349.38 301.74 361.62 752.00 132.69 503.40 281.59 776.93 237.12 324.76 222.83 381.08 44.00 196.02 107.18 167.04 743.16 280.30 687.72 369.87 845.54 333.59 270.27 164.72 436.84 265.32 672.73 498.22 428.79 141.57 181.88 483.96 445.04 566.36 840.98 386.78 333.53 584.31 385.52 378.69 774.53 638.89 243.86 817.08 551.85 284.45 486.19 581.75 481.00 259.69 253.28 603.81 260.54 375.93 596.72 447.05 444.54 346.82 838.17 231.80 420.01 271.11 428.18 172.73 371.81 524.76 413.31 857.40 0.00 474.82 337.87 714.38 438.17 747.67 729.76 297.84 435.24 288.30 474.96 476.47 507.00 515.52 531.54 578.40 421.74 392.13 806.36 675.56 406.42 746.60 733.81 405.03 595.12 673.22 688.62 269.28 319.36 346.49 200.14 938.79 265.27 853.18 446.39 300.19 39.90 567.39 443.09 638.61 430.41 548.98 630.69 462.35 350.90 244.59 320.18 278.23 419.57 542.69 326.43 719.10 617.79 528.23 596.61 344.16 373.07 676.04 382.60 637.28 186.61 336.62 676.19 671.95 704.84 641.38 675.11 377.01 376.08 233.82 693.33 606.91 498.16 753.18 326.51 653.18 822.59 514.43 376.69 473.80 444.92 239.89 360.57 671.79 339.26 394.64 629.07 413.02 196.11 503.18
544.15 60.79 131.64 215.58 661.84 657.93 631.77 429.52 864.60 489.30 446.80 704.85 658.53 697.65 415.82 430.82 502.57 468.42 463.87 565.15 556.20 637.28 382.69 435.20 674.69 513.59 519.04 265.36 373.47 302.64 104.70 418.63 551.21 616.54 522.58 478.51 507.54 401.16 288.14 420.73 532.89 157.58 748.75 366.19 580.17 379.06 451.95 221.72 610.97 259.23 306.27 490.52 267.91 460.99 557.36 336.33 428.39 542.07 703.98 30.28 798.22 431.42 362.74 557.16 605.58 281.32 389.08 839.54 430.63 714.94 435.78 474.82 0.00 245.62 316.96 712.82 438.05 280.83 572.49 612.08 360.36 497.31 336.72 322.91 169.92 463.09 240.41 312.54 708.43 705.34 370.26 672.50 432.62 409.99 661.91 476.32 266.60 400.13 382.90 674.26 366.03 667.87 521.03 360.55 408.97 503.97 626.71 463.96 314.88 296.12 403.72 438.12 281.81 262.98 509.17 197.73 712.32 680.28 670.69 695.47 204.95 397.82 388.34 623.43 578.24 388.65 458.63 154.53 445.50 217.29 511.85 388.99 651.36 352.62 582.81 618.81 621.10 406.28 471.67 207.41 608.65 556.78 635.33 396.31 313.36 794.24 464.64 452.50 279.54 542.46 483.80 880.50 332.71 696.37 583.82 665.78 651.52 401.67 570.85 430.63 296.01
712.95 301.32 234.07 290.33 484.52 550.56 775.65 356.81 766.19 411.40 451.94 533.90 519.72 528.13 413.18 304.92 429.86 308.23 391.16 709.03 532.68 765.11 457.44 570.73 452.37 504.11 285.20 345.23 129.20 418.93 322.80 516.36 439.74 433.10 567.18 302.65 376.07 582.59 113.24 183.23 682.85 199.11 668.90 492.67 740.83 145.22 574.87 277.04 388.65 439.34 308.92 594.32 255.54 383.09 657.97 381.07 248.43 381.00 626.41 240.86 643.60 563.36 117.12 520.99 553.82 107.86 316.37 668.59 648.95 637.04 582.59 337.87 245.62 0.00 414.18 672.01 595.62 452.01 531.68 366.46 114.74 322.41 455.86 451.09 355.66 619.11 426.15 173.60 630.53 833.18 556.00 611.15 561.03 584.93 600.97 370.32 382.89 585.87 198.59 601.55 363.39 496.92 670.74 137.77 564.28 536.39 404.39 338.06 249.82 328.61 483.10 263.22 216.75 292.82 611.98 136.16 541.37 491.55 514.82 671.95 390.69 442.16 574.08 718.77 643.79 533.32 235.85 220.78 631.24 44.73 587.97 241.19 464.63 536.74 729.39 759.00 462.90 342.88 478.88 38.21 510.33 693.75 491.71 222.85 554.68 623.29 566.01 557.76 407.38 546.84 314.60 741.70 145.92 642.76 712.00 437.20 611.36 341.08 365.05 428.48 429.02
318.55 284.37 399.18 532.54 880.83 939.70 785.08 698.97 1113.73 729.04 201.78 905.05 925.38 914.94 632.46 670.38 751.70 637.45 733.32 770.23 854.52 852.31 605.01 176.33 854.25 825.95 690.86 483.36 543.38 83.79 421.66 595.95 816.78 839.75 731.12 617.06 622.26 304.29 473.42 572.89 796.79 437.51 976.34 139.78 795.38 559.40 160.69 162.53 790.53 380.76 260.72 717.00 548.71 757.24 798.55 632.58 585.43 637.15 968.22 344.83 1014.75 172.55 531.30 779.48 894.48 413.26 658.53 936.75 735.87 996.41 184.79 714.38 316.96 414.18 0.00 964.56 542.28 51.79 853.52 766.47 514.75 641.60 543.76 529.36 366.37 680.55 295.88 500.27 994.60 901.13 535.57 954.97 474.60 438.22 969.67 441.54 111.66 408.93 562.46 923.39 611.47 868.07 284.27 537.78 150.10 745.88 806.27 703.52 311.04 491.49 537.01 570.26 344.11 286.69 735.65 451.51 912.52 862.39 924.47 923.06 315.41 685.28 452.88 822.29 863.34 532.29 633.14 458.24 488.76 369.45 655.49 558.02 866.51 147.00 783.32 870.78 631.80 360.73 688.98 386.97 881.20 745.87 690.98 493.13 284.92 994.44 576.00 172.04 475.33 784.56 615.02 1112.85 552.57 964.60 767.43 826.11 963.88 440.23 750.41 735.58 471.70
1226.36 743.00 676.72 559.63 564.51 157.31 719.49 333.15 258.59 306.12 1078.43 396.62 482.87 350.97 452.09 462.15 242.15 419.19 298.80 652.87 180.77 597.91 471.56 1085.94 595.30 199.23 497.03 590.83 558.64 993.04 727.02 456.42 307.23 430.99 433.94 752.26 914.68 996.96 720.16 681.85 519.54 641.44 91.75 1025.81 618.99 618.42 1109.57 873.98 602.53 644.94 934.73 489.26 527.19 325.76 562.53 424.53 751.48 922.00 168.53 682.54 255.97 1093.31 592.16 319.90 189.19 733.67 355.64 361.56 497.97 126.25 1125.30 438.17 712.82 672.01 964.56 0.00 800.61 983.37 140.33 795.80 632.30 835.63 541.48 599.91 719.12 538.38 789.61 737.98 105.07 773.45 756.02 121.60 885.99 846.02 106.90 894.26 964.87 830.22 595.34 165.26 437.79 361.89 1195.58 640.82 1091.18 339.48 618.27 431.84 878.58 558.23 665.62 805.96 845.51 908.47 470.61 612.74 337.80 582.95 475.81 41.50 736.96 375.84 838.34 475.71 257.97 653.76 699.63 606.33 807.10 673.49 637.14 435.83 599.80 927.47 588.99 579.44 981.91 971.64 409.93 689.21 252.65 684.18 937.71 741.86 920.79 298.79 733.43 1136.60 616.12 321.93 809.05 317.07 584.88 136.56 608.80 657.34 117.29 925.32 730.17 354.86 604.87
631.19 408.63 470.18 431.65 981.08 730.49 393.41 621.77 990.95 587.09 635.17 891.29 953.68 854.16 433.29 710.06 670.14 661.95 648.51 356.09 772.96 496.25 389.08 569.22 948.93 669.55 782.95 370.54 706.52 574.76 415.25 411.73 727.02 878.61 474.23 812.11 885.03 334.53 658.51 754.33 451.85 475.11 838.22 436.41 370.83 740.84 463.23 580.59 885.21 261.48 714.06 426.77 562.47 579.82 447.22 496.20 828.34 921.71 740.07 407.77 990.47 565.44 712.74 551.74 770.07 614.92 581.33 999.62 402.65 761.97 577.68 747.67 438.05 595.62 542.28 800.61 0.00 550.35 698.64 962.08 710.36 855.12 336.84 274.82 280.03 333.26 313.92 701.17 745.25 504.47 135.11 704.30 138.84 118.61 693.71 818.35 538.72 136.15 743.90 800.61 442.89 868.20 568.98 733.39 542.99 496.56 900.95 715.31 656.91 337.94 134.99 808.49 623.84 687.59 409.29 538.06 872.40 964.95 945.44 800.46 331.33 491.67 140.26 538.93 644.79 185.21 814.58 494.99 80.70 550.89 235.03 643.47 961.19 398.08 375.80 510.53 928.64 749.97 472.82 568.41 799.64 321.10 1025.92 729.91 257.36 970.19 176.18 594.09 259.17 533.02 828.54 1029.89 673.17 841.82 395.61 940.02 683.32 748.17 931.85 592.45 255.77
325.34 310.33 347.39 496.41 886.04 938.76 830.19 710.35 1145.43 677.25 215.22 917.88 873.59 882.00 622.93 685.76 783.40 679.30 744.61 786.99 837.03 904.10 625.54 183.12 844.17 794.42 639.07 470.65 527.29 57.03 385.53 613.79 766.96 836.03 772.12 617.62 586.78 272.67 459.35 580.59 801.46 427.24 1027.58 191.57 847.17 597.23 212.48 186.10 805.93 432.55 208.93 758.32 496.92 705.56 821.51 600.21 533.64 609.27 948.88 311.11 1001.70 189.31 560.81 786.70 886.41 409.99 669.91 988.54 711.46 959.51 154.95 729.76 280.83 452.01 51.79 983.37 550.35 0.00 843.04 767.10 559.01 612.74 581.28 581.15 356.27 701.83 285.78 486.52 953.00 888.61 490.38 911.18 468.36 431.74 925.35 413.66 69.12 454.04 577.86 955.09 573.14 905.90 286.53 582.04 189.64 719.97 821.67 718.90 284.74 503.25 561.11 518.47 311.72 272.17 769.96 434.00 933.54 883.35 906.96 974.85 367.20 651.91 410.09 874.08 859.07 584.08 648.98 424.80 522.04 407.28 682.33 599.87 865.32 194.13 820.73 899.64 580.01 308.94 688.63 423.79 859.21 777.87 710.93 450.63 336.71 1032.27 616.66 206.89 527.12 756.94 631.51 1096.25 580.82 937.35 814.56 826.42 932.16 388.44 767.43 688.55 523.49
1086.03 602.67 543.41 425.40 487.05 100.37 645.32 192.82 374.19 165.79 938.10 313.20 383.57 229.35 319.59 321.82 101.82 278.86 158.47 617.87 78.72 541.94 364.24 945.61 523.95 58.90 357.81 450.50 475.10 852.71 595.70 316.09 166.90 310.29 351.37 611.93 821.80 865.76 579.83 598.31 483.64 535.36 206.88 885.48 529.84 478.09 969.24 733.65 505.22 504.61 798.25 371.95 406.16 185.43 494.76 284.20 650.90 814.21 156.27 542.21 344.30 952.98 489.52 298.05 71.43 597.19 215.31 408.13 415.40 142.89 984.97 297.84 572.49 531.68 853.52 140.33 698.64 843.04 0.00 685.78 538.86 695.30 401.15 459.58 583.57 437.02 654.06 640.19 141.69 731.87 615.69 109.34 745.66 705.69 124.04 753.93 824.54 707.04 455.01 183.85 300.88 276.22 1072.12 546.98 950.85 256.91 497.95 327.56 738.25 417.90 563.65 688.57 705.18 768.14 390.60 472.41 280.91 484.77 406.64 153.60 596.63 261.65 702.33 368.97 245.71 513.43 559.30 466.00 690.93 533.16 496.81 295.50 555.30 787.14 562.90 524.49 841.58 831.31 302.87 548.88 231.32 584.28 800.00 601.53 794.43 353.43 596.49 1002.57 478.82 221.63 668.72 432.67 444.55 218.89 562.74 560.03 130.32 784.99 636.65 214.53 472.05
1028.55 665.97 600.53 638.71 303.71 752.40 1102.84 567.93 737.17 586.99 766.72 470.89 437.84 462.05 714.43 447.81 583.96 510.99 585.52 1050.23 669.80 1038.50 732.83 886.33 267.55 658.21 357.24 680.96 336.44 753.70 633.65 781.22 540.04 375.49 797.96 228.21 342.51 949.05 398.97 255.83 956.37 549.83 750.90 859.13 1001.36 342.77 927.16 615.71 250.04 796.84 593.61 875.72 518.33 586.63 980.71 594.04 261.09 379.19 825.47 607.32 580.59 878.96 321.29 798.85 678.69 402.35 576.54 587.27 903.29 811.78 905.59 435.24 612.08 366.46 766.47 795.80 962.08 767.10 685.78 0.00 251.72 189.80 776.41 778.69 685.54 894.50 756.03 371.29 790.60 1139.71 885.88 784.13 927.49 925.61 773.54 451.88 734.74 933.80 335.57 641.22 674.48 433.91 1012.84 274.75 901.41 755.27 234.30 475.14 576.70 695.07 849.56 284.07 543.63 604.43 862.90 502.62 478.36 285.27 410.12 771.39 742.45 682.85 903.96 962.22 857.37 864.16 247.73 573.93 961.12 411.19 929.17 516.04 239.66 870.53 1034.01 1056.97 388.21 607.39 751.88 404.67 543.15 1013.69 289.27 389.81 921.14 545.82 932.47 850.17 757.07 722.43 163.22 678.69 395.75 672.69 1014.20 200.07 763.15 564.41 78.40 529.46 778.71
781.82 414.25 348.81 386.99 407.79 595.76 865.13 346.04 712.02 477.20 566.68 465.03 465.55 460.64 472.55 257.37 457.27 268.38 380.39 798.51 489.55 830.92 517.10 639.60 375.64 528.53 231.03 429.24 84.72 501.98 381.93 529.50 392.19 415.45 626.55 187.91 301.32 697.33 174.61 68.49 704.65 298.11 666.99 607.41 779.69 91.05 675.44 391.78 311.92 545.12 351.69 634.44 266.61 474.88 747.64 375.35 133.69 338.00 681.19 355.60 585.79 646.97 69.57 627.80 532.62 150.63 356.37 610.78 678.62 663.93 678.96 288.30 360.36 114.74 514.75 632.30 710.36 559.01 538.86 251.72 0.00 226.46 539.87 565.83 470.40 650.43 540.89 179.50 642.75 920.19 664.05 648.20 675.77 683.93 639.67 352.88 497.63 700.61 83.85 607.66 422.76 439.11 766.11 23.03 664.85 562.51 316.71 290.51 325.15 443.35 597.84 188.17 292.71 387.09 653.09 250.90 483.56 414.82 460.65 628.82 505.43 469.87 686.42 786.72 717.72 612.44 121.11 322.21 739.29 159.47 677.45 264.32 387.90 618.81 795.52 846.82 399.14 418.84 538.25 152.95 433.12 761.97 408.33 262.41 669.42 565.48 680.75 598.45 505.35 581.48 221.24 683.89 144.03 568.28 811.53 322.46 645.26 404.60 250.31 417.71 526.99
838.75 527.49 471.49 576.45 417.83 760.88 1014.24 541.60 852.62 663.40 576.92 569.58 453.25 566.32 670.13 454.95 614.65 494.84 536.83 995.10 708.10 1023.81 714.68 696.53 385.68 688.90 386.74 612.85 291.87 604.02 536.53 727.08 589.77 512.32 824.13 104.54 172.01 842.09 209.17 173.04 898.86 446.63 853.65 781.38 966.35 317.51 794.23 479.07 321.96 699.72 403.81 848.75 464.19 647.67 925.74 590.29 99.03 208.69 846.31 467.03 696.04 689.16 267.15 758.40 730.20 286.78 501.16 674.76 863.17 761.93 723.52 474.96 497.31 322.41 641.60 835.63 855.12 612.74 695.30 189.80 226.46 0.00 723.48 737.03 606.67 793.78 675.22 234.65 783.11 1083.53 807.01 804.64 820.53 832.45 811.29 299.57 598.10 832.74 282.52 748.26 620.34 549.36 823.04 209.69 711.61 782.72 337.70 488.09 403.48 638.64 781.91 94.27 382.24 429.74 830.10 408.33 593.81 400.25 480.12 825.92 641.70 653.91 825.09 956.18 853.52 789.75 205.42 491.23 882.25 304.23 874.04 471.47 379.28 732.62 986.80 1026.77 244.19 441.32 735.83 299.57 601.86 959.55 181.87 223.27 810.67 675.73 848.00 682.74 657.73 681.98 26.58 794.14 340.62 770.20 977.84 274.12 811.16 374.61 179.15 592.89 679.37
809.00 361.44 255.28 212.83 747.97 501.52 402.12 371.05 744.65 299.57 723.15 648.18 697.62 578.24 145.77 449.24 382.62 386.06 336.70 382.52 479.87 399.74 106.60 666.78 717.80 399.87 568.03 110.63 455.15 586.74 232.02 96.52 447.70 591.09 267.60 649.34 769.59 504.32 529.70 578.36 295.35 301.23 608.03 580.20 336.80 490.44 637.20 513.94 705.39 163.00 642.99 245.70 287.14 297.34 319.82 286.94 627.74 797.46 461.33 322.50 706.58 663.00 484.18 281.07 472.58 479.44 357.62 741.50 193.09 543.58 675.24 476.47 336.72 455.86 543.76 541.48 336.84 581.28 401.15 776.41 539.87 723.48 0.00 98.48 265.70 197.35 300.82 531.72 531.69 503.47 265.83 456.56 368.47 354.43 471.26 741.90 603.32 365.43 495.65 554.31 195.56 611.20 765.51 537.33 640.55 247.47 689.65 466.35 589.12 143.23 201.85 629.21 556.05 599.70 252.69 330.41 614.28 730.67 662.96 554.75 257.74 209.19 332.78 385.89 364.93 188.09 595.73 235.08 341.07 422.08 262.27 306.63 761.42 481.86 345.27 381.27 775.81 682.18 179.41 431.73 512.12 294.78 760.59 591.94 422.08 715.69 255.60 715.80 77.67 307.40 699.73 774.25 413.26 583.46 359.39 733.58 477.54 665.17 765.06 309.97 99.31
776.38 330.68 272.07 251.78 794.94 559.95 350.66 429.56 793.69 331.91 624.67 697.22 746.66 627.28 194.81 469.07 431.66 465.14 413.95 284.04 534.48 361.55 154.52 634.16 769.54 446.84 610.50 186.81 507.90 563.91 283.85 143.49 496.74 640.13 319.12 684.67 795.67 462.67 530.19 593.24 267.43 292.73 658.07 575.38 321.49 525.77 626.55 520.00 744.45 148.87 629.18 254.89 309.36 345.26 310.42 332.00 644.53 796.12 537.88 328.56 777.17 630.38 506.40 328.99 531.01 470.94 411.81 790.54 253.63 581.82 642.62 507.00 322.91 451.09 529.36 599.91 274.82 581.15 459.58 778.69 565.83 737.03 98.48 0.00 242.87 184.24 311.29 557.95 565.10 430.04 185.23 504.48 324.31 284.34 513.56 733.40 589.51 304.43 571.83 603.35 234.70 660.24 734.71 563.86 607.93 295.39 760.19 467.10 605.91 158.07 139.83 661.86 572.84 585.89 267.49 355.68 663.32 790.69 710.88 613.18 223.99 257.11 278.51 391.77 412.85 89.61 647.61 270.41 260.47 457.41 212.81 405.11 820.43 492.33 278.81 380.02 823.49 698.97 219.86 457.81 561.16 248.22 832.57 583.44 399.27 764.73 157.12 701.40 79.30 396.28 734.20 822.17 448.59 631.38 260.91 799.26 503.17 697.17 700.29 357.89 57.66
585.45 128.60 237.93 200.60 771.20 658.11 543.85 466.42 901.50 479.09 533.68 736.57 789.94 738.35 333.15 471.52 539.47 487.39 496.81 496.95 642.29 593.81 318.52 462.52 797.23 590.51 625.33 204.50 432.43 321.04 135.22 337.45 604.39 647.06 445.03 618.92 616.90 325.46 397.50 521.21 510.30 227.28 773.40 349.87 530.62 499.70 406.87 319.02 737.48 151.65 452.49 450.21 356.07 466.46 511.25 341.80 567.65 653.58 644.45 139.64 835.12 463.30 465.95 492.99 655.00 392.22 425.98 880.24 458.79 684.54 475.54 515.52 169.92 355.66 366.37 719.12 280.03 356.27 583.57 685.54 470.40 606.67 265.70 242.87 0.00 394.06 70.49 421.14 680.43 605.87 200.34 597.52 280.04 240.07 612.22 594.68 357.08 248.26 526.19 711.16 351.05 708.57 548.49 493.43 440.85 459.39 753.22 504.66 432.86 171.90 278.51 547.48 400.17 424.15 468.86 290.23 753.02 789.64 743.41 737.17 56.91 383.23 218.42 563.79 576.85 294.40 591.51 244.34 275.58 357.70 417.60 477.15 813.46 251.53 514.76 612.28 743.61 526.30 401.68 375.22 661.83 491.09 758.56 507.21 237.66 834.94 326.62 470.90 188.03 534.85 629.21 918.20 422.52 752.37 503.78 757.68 618.50 524.50 720.71 476.87 185.21
875.47 493.27 423.26 328.78 772.38 500.40 220.46 436.71 785.47 338.73 808.91 710.65 760.09 640.71 208.24 535.47 445.09 472.29 421.10 277.38 515.74 230.03 161.67 757.53 804.03 424.28 623.10 307.98 585.33 715.10 429.37 120.93 510.17 653.56 150.51 762.10 889.05 578.86 584.61 693.55 171.65 469.62 593.47 651.69 173.11 603.20 737.45 624.25 802.39 325.06 757.72 93.51 383.82 352.41 196.12 350.62 748.98 852.37 454.00 432.81 755.52 750.16 580.86 218.48 482.65 647.83 433.74 776.24 69.39 446.07 784.52 531.54 463.09 619.11 680.55 538.38 333.26 701.83 437.02 894.50 650.43 793.78 197.35 184.24 394.06 0.00 464.55 644.97 467.25 363.10 290.16 465.88 433.89 398.45 479.08 848.39 715.14 362.87 641.10 595.13 256.63 673.67 848.82 638.32 772.61 227.88 818.13 526.46 742.40 309.26 198.27 734.59 724.03 726.07 97.93 524.32 649.02 790.82 718.03 571.15 401.47 263.58 376.80 262.19 333.43 187.90 725.04 432.43 353.00 599.33 276.51 408.43 868.16 624.80 215.79 248.50 936.04 850.16 225.96 581.81 574.59 235.39 957.94 695.99 537.76 764.71 246.68 852.59 230.49 294.90 820.36 829.32 526.02 636.34 202.87 797.23 486.86 841.94 884.53 365.04 208.85
514.96 181.19 308.42 271.09 841.69 728.60 553.92 536.91 957.36 549.58 497.66 776.22 860.43 777.27 403.64 534.40 609.96 557.88 567.30 546.57 712.78 644.23 389.01 418.14 867.72 630.30 695.82 274.99 502.92 342.81 205.71 380.20 674.88 717.55 515.52 658.97 687.39 298.82 467.99 554.50 515.68 297.77 843.89 279.38 577.63 561.56 336.38 361.71 807.97 184.59 494.71 472.54 426.56 536.95 558.67 412.29 628.51 724.07 714.94 210.13 905.61 425.51 536.44 525.18 725.49 444.81 496.47 943.12 493.91 755.03 426.02 578.40 240.41 426.15 295.88 789.61 313.92 285.78 654.06 756.03 540.89 675.22 300.82 311.29 70.49 464.55 0.00 491.63 750.92 676.36 270.83 668.01 235.69 222.96 682.71 625.08 317.50 177.77 596.68 781.65 415.30 771.45 484.68 563.92 405.03 527.58 823.71 567.54 463.64 242.39 275.33 617.97 430.57 476.74 491.19 348.33 815.90 860.13 813.90 807.66 107.33 453.72 221.72 614.21 647.34 325.55 623.03 314.83 298.52 419.74 425.51 537.19 883.95 181.04 534.95 650.87 780.65 508.66 472.17 437.26 732.32 492.09 829.05 559.80 270.47 897.82 358.24 438.10 258.52 588.39 648.64 988.69 493.01 822.86 554.76 808.10 688.99 554.90 791.20 547.36 255.70
715.88 350.63 340.38 407.86 534.15 702.79 865.43 447.37 797.25 581.40 431.99 530.97 568.83 540.86 522.11 400.66 549.03 386.85 481.72 831.44 634.50 872.70 485.62 573.66 514.88 623.28 356.19 421.09 179.34 462.10 408.70 544.54 498.11 501.14 650.22 200.84 269.23 688.90 60.36 142.89 785.77 265.22 783.06 640.05 779.03 216.21 660.52 363.79 451.16 549.07 288.07 681.24 315.69 553.09 765.56 461.97 146.51 294.22 762.87 318.22 640.67 568.66 212.86 632.24 638.54 87.01 455.86 665.66 714.36 752.40 534.30 421.74 312.54 173.60 500.27 737.98 701.17 486.52 640.19 371.29 179.50 234.65 531.72 557.95 421.14 644.97 491.63 0.00 748.67 955.59 621.48 749.53 667.34 643.28 744.12 255.30 449.90 598.09 223.09 709.51 472.32 493.99 665.88 156.47 568.99 626.49 459.94 383.43 246.15 451.02 620.27 178.87 213.08 233.14 681.29 250.82 538.44 515.71 522.57 773.77 478.05 551.09 639.56 825.87 727.36 647.56 220.31 338.04 696.72 151.04 710.38 355.35 477.22 612.25 805.39 866.59 342.95 316.90 574.60 147.14 566.56 806.17 407.36 102.90 625.90 620.36 703.18 537.81 529.79 555.82 208.07 738.77 213.96 726.18 818.86 409.89 751.18 237.40 350.65 496.42 551.43
1193.59 710.23 606.69 497.38 591.87 105.91 684.91 334.51 363.66 275.75 1028.05 415.91 488.80 371.04 421.16 436.13 243.51 420.55 300.16 618.29 210.23 511.63 432.87 1069.62 566.47 199.86 499.50 548.41 605.44 958.58 670.38 457.78 250.56 415.11 364.31 743.84 918.70 927.77 713.22 685.87 464.18 606.04 182.81 1008.21 547.31 563.40 1064.70 874.61 597.35 641.63 861.90 442.07 496.24 247.44 507.17 372.10 741.30 938.10 70.36 683.17 361.04 1076.99 573.18 288.88 193.03 711.22 357.00 464.22 469.64 21.18 1093.10 392.13 708.43 630.53 994.60 105.07 745.25 953.00 141.69 790.60 642.75 783.11 531.69 565.10 680.43 467.25 750.92 748.67 0.00 738.35 713.37 82.91 832.70 812.29 72.32 895.62 922.54 774.86 592.22 223.63 410.92 417.91 1144.18 630.64 1058.41 343.22 581.61 411.22 837.23 559.59 610.26 795.78 804.16 895.72 426.43 543.09 383.35 605.65 511.46 130.88 716.36 371.61 790.64 446.51 219.09 622.54 642.96 553.90 755.70 647.19 625.11 437.19 635.40 928.83 571.08 530.10 981.52 930.29 371.24 664.71 330.23 645.30 941.69 743.22 880.83 393.21 693.17 1095.75 570.09 266.57 756.53 422.14 586.24 229.44 575.15 652.16 61.93 926.68 739.26 304.61 566.18
1012.75 718.81 661.85 598.28 1101.93 726.68 160.86 681.92 958.01 596.34 1054.71 965.33 1003.01 890.73 557.42 837.33 724.41 786.70 666.31 185.64 698.16 226.72 509.40 970.61 1069.33 692.37 908.72 537.17 873.15 926.91 646.09 450.48 789.49 932.88 399.03 1075.88 1143.66 706.41 932.92 973.93 280.10 722.77 821.75 817.97 227.14 898.20 864.96 866.50 1041.09 520.37 996.31 359.92 713.37 624.65 237.11 613.90 1034.31 1180.34 678.45 675.06 946.96 966.83 906.67 508.63 674.09 868.58 722.36 1046.93 336.64 717.17 979.07 806.36 705.34 833.18 901.13 773.45 504.47 888.61 731.87 1139.71 920.19 1083.53 503.47 430.04 605.87 363.10 676.36 955.59 738.35 0.00 405.53 666.09 521.25 500.17 680.79 1131.04 925.04 522.47 922.19 797.06 568.95 928.35 950.54 943.22 944.38 493.49 1025.35 823.83 984.65 504.57 452.93 1008.36 962.62 968.32 378.57 756.95 921.57 1107.36 1029.23 768.47 615.11 599.44 478.52 363.77 529.72 419.35 1038.82 661.62 480.77 838.98 306.70 763.48 1097.12 784.40 184.46 208.25 1222.70 1088.75 505.98 856.50 853.91 236.17 1223.78 983.57 653.47 966.64 378.09 999.15 425.80 522.43 1110.11 899.53 839.80 806.04 169.13 1095.90 682.35 1079.24 1130.33 610.25 447.44
637.83 328.94 384.83 372.84 908.97 695.72 343.51 560.20 959.07 507.36 705.60 797.71 905.65 782.05 380.04 648.49 616.89 589.84 549.09 296.61 682.08 473.74 339.75 597.20 876.23 584.63 671.13 311.73 579.33 521.38 282.12 328.72 681.97 793.96 391.28 791.20 817.24 360.91 597.84 702.54 401.64 427.62 806.34 443.05 367.43 657.11 459.43 519.36 813.10 189.37 590.78 344.99 494.59 506.13 393.55 439.38 719.62 853.92 682.41 339.98 918.97 593.42 612.85 477.05 687.12 592.56 519.76 960.83 359.55 703.62 605.66 675.56 370.26 556.00 535.57 756.02 135.11 490.38 615.69 885.88 664.05 807.01 265.83 185.23 200.34 290.16 270.83 621.48 713.37 405.53 0.00 672.42 165.22 125.25 661.83 795.02 550.12 147.55 690.12 768.73 342.65 806.63 575.62 661.51 570.97 460.67 828.84 652.33 630.41 279.13 103.11 747.82 600.51 624.49 326.34 490.57 833.61 898.64 890.31 768.58 238.48 421.42 103.60 455.98 561.84 102.26 759.59 436.18 75.24 558.04 225.46 572.46 889.08 388.57 353.29 478.65 940.04 690.79 404.21 575.56 746.39 296.15 953.81 705.97 278.55 933.00 126.28 624.23 206.94 501.14 817.49 977.66 596.94 795.69 373.10 867.91 651.44 715.27 885.52 493.03 228.58
1161.07 702.68 592.66 494.89 588.43 60.59 627.29 302.16 380.19 233.93 1043.24 416.47 492.91 338.69 380.01 397.00 211.16 388.20 267.81 560.67 188.06 476.31 349.96 1054.95 630.30 158.91 467.15 527.28 584.44 916.57 667.89 393.36 264.85 419.63 362.87 713.35 886.83 888.28 689.17 654.00 423.23 588.09 175.88 947.39 522.68 571.22 1004.39 833.66 611.64 589.09 876.70 386.04 443.13 262.24 466.22 386.90 728.01 923.51 46.93 642.22 377.57 1060.82 584.80 247.40 173.29 700.06 324.65 448.33 438.72 87.02 1066.13 406.42 672.50 611.15 954.97 121.60 704.30 911.18 109.34 784.13 648.20 804.64 456.56 504.48 597.52 465.88 668.01 749.53 82.91 666.09 672.42 0.00 773.87 738.39 14.70 863.27 906.59 729.55 564.35 248.65 398.64 385.56 1098.86 642.26 1038.37 311.73 595.90 425.51 841.12 527.24 569.31 797.91 808.05 877.48 371.87 581.75 342.40 594.11 511.56 159.91 654.43 324.70 716.74 374.60 136.37 585.23 626.72 556.51 710.38 636.03 548.60 404.84 664.64 849.05 529.50 457.84 950.92 934.18 288.33 649.36 289.28 562.58 909.34 710.87 824.88 407.14 651.90 1066.43 494.52 225.62 778.06 400.68 553.89 207.44 509.69 638.33 20.98 894.33 745.99 319.41 483.27
552.55 371.83 415.96 477.89 993.05 762.67 402.23 622.16 1033.72 622.36 636.71 905.57 985.86 823.00 486.36 737.10 671.69 673.92 606.55 335.61 760.70 520.61 423.91 520.67 960.90 713.38 794.92 408.53 663.32 506.63 366.11 429.57 736.77 877.95 527.28 777.52 871.68 195.69 623.92 719.74 467.97 425.79 925.42 357.77 439.88 696.17 375.45 524.97 897.18 273.45 658.44 470.50 565.49 607.66 475.30 528.38 788.42 891.68 803.62 406.94 972.89 516.89 678.15 598.38 810.08 580.33 662.60 1001.78 457.20 849.42 526.42 746.60 432.62 561.03 474.60 885.99 138.84 468.36 745.66 927.49 675.77 820.53 368.47 324.31 280.04 433.89 235.69 667.34 832.70 521.25 165.22 773.87 0.00 39.97 781.16 811.46 473.59 71.02 709.31 843.38 504.16 868.59 490.34 698.80 494.44 564.78 912.92 740.82 657.62 384.18 235.62 773.90 643.40 667.38 474.60 488.74 874.56 997.13 961.70 899.26 266.20 526.50 61.62 604.24 682.24 250.52 779.99 493.37 112.88 516.30 273.86 661.08 973.16 332.95 430.52 539.08 863.51 744.35 501.67 533.82 801.19 350.01 1002.39 695.32 189.68 994.96 233.38 538.95 312.24 632.40 793.95 1065.15 635.56 884.59 450.33 951.99 770.77 694.75 897.26 550.49 290.60
512.58 368.67 428.85 440.67 967.22 751.77 421.34 641.98 993.75 586.88 596.74 897.28 968.26 840.30 450.88 711.27 631.72 648.09 646.52 375.58 734.54 560.58 388.43 494.84 935.07 677.90 769.09 371.68 623.35 466.66 326.14 389.60 696.80 837.98 499.57 805.75 856.97 235.66 623.28 686.33 428.00 385.82 885.45 317.80 479.85 665.86 381.44 485.00 871.35 247.62 618.47 430.53 563.61 579.17 470.99 514.13 760.34 884.83 763.65 379.71 988.92 491.06 656.87 562.90 777.12 564.03 645.01 990.60 446.30 811.91 486.45 733.81 409.99 584.93 438.22 846.02 118.61 431.74 705.69 925.61 683.93 832.45 354.43 284.34 240.07 398.45 222.96 643.28 812.29 500.17 125.25 738.39 39.97 0.00 753.09 771.49 447.76 45.19 699.37 803.41 467.90 860.30 450.37 660.90 468.61 529.30 887.09 700.85 672.93 347.67 202.03 773.26 640.24 646.43 434.63 448.77 863.38 974.25 921.73 859.29 240.37 491.02 21.65 564.27 646.76 210.55 758.98 472.22 101.98 552.87 293.89 648.56 947.33 307.12 461.58 570.17 837.68 718.48 461.70 550.90 761.22 360.07 998.63 672.15 153.30 972.99 251.53 498.98 276.76 600.06 827.29 1025.18 595.59 844.62 481.39 926.16 750.36 654.78 914.34 590.46 255.12
1150.89 692.09 577.96 480.19 590.55 50.41 612.59 305.83 365.49 248.63 1028.54 405.88 483.06 353.39 391.85 382.30 222.57 391.02 274.46 545.97 178.21 491.01 364.66 1048.30 621.34 148.32 481.85 541.98 595.85 901.87 653.19 408.06 263.46 427.32 352.28 717.01 901.53 890.06 692.84 668.70 412.64 602.79 165.29 962.09 512.09 556.52 1019.09 823.07 610.25 594.03 886.42 392.53 428.43 276.94 455.63 388.77 738.22 935.02 61.63 631.63 362.87 1055.67 570.10 260.60 158.59 685.36 336.06 437.74 424.02 72.32 1069.80 405.03 661.91 600.97 969.67 106.90 693.71 925.35 124.04 773.54 639.67 811.29 471.26 513.56 612.22 479.08 682.71 744.12 72.32 680.79 661.83 14.70 781.16 753.09 0.00 877.97 903.64 723.32 568.02 238.06 390.30 376.26 1088.68 627.56 1040.27 301.14 594.51 415.44 826.42 541.94 558.72 792.70 793.35 888.89 386.57 578.47 331.81 605.52 500.97 148.40 669.13 339.40 731.44 374.19 151.07 593.58 616.13 541.81 700.20 621.33 563.30 416.25 666.28 863.75 522.51 472.54 964.95 919.48 303.03 638.85 278.69 577.28 924.04 725.57 839.58 405.69 641.63 1051.73 509.22 215.03 784.71 390.50 565.30 196.85 523.61 623.63 10.39 900.98 751.71 324.01 497.97
672.25 466.08 495.28 584.63 597.28 854.30 997.44 639.82 1049.19 764.96 403.85 751.67 747.66 758.36 704.60 575.11 712.87 613.17 674.17 974.44 815.69 1051.65 740.92 567.19 555.41 787.12 583.91 631.27 406.40 404.94 549.86 793.22 709.93 659.61 872.98 365.10 180.72 635.56 263.78 355.13 937.45 440.67 960.81 581.32 1003.70 443.93 602.23 338.20 590.11 664.52 204.73 900.12 558.23 751.23 944.51 675.50 281.12 195.61 910.20 478.99 892.61 574.56 387.31 887.54 825.36 262.46 599.38 900.46 906.95 896.82 558.22 595.12 476.32 370.32 441.54 894.26 818.35 413.66 753.93 451.88 352.88 299.57 741.90 733.40 594.68 848.39 625.08 255.30 895.62 1131.04 795.02 863.27 811.46 771.49 877.97 0.00 413.17 793.79 425.18 884.56 669.19 745.93 629.06 329.85 581.47 822.13 578.16 608.25 169.40 626.47 783.80 205.30 194.51 263.83 884.71 430.59 790.38 594.59 722.88 907.53 630.98 747.96 749.84 991.13 982.66 797.53 405.12 513.49 851.01 326.49 885.83 549.98 577.80 549.98 980.84 1045.54 191.38 183.77 784.68 344.01 739.94 950.08 322.38 152.40 723.36 872.30 780.21 486.41 705.24 811.12 326.15 990.71 417.38 908.28 994.31 538.35 884.25 116.71 373.48 711.49 709.69
350.06 327.39 383.69 482.18 849.54 907.51 778.72 671.70 1086.46 672.66 189.05 873.76 898.94 880.14 672.28 629.22 724.43 610.18 706.05 809.20 808.25 903.88 649.29 212.59 822.96 765.64 668.09 519.26 506.30 36.04 371.30 670.21 789.51 808.46 789.18 599.38 517.66 341.79 390.23 541.60 799.49 418.32 958.46 220.59 846.77 528.11 234.46 121.37 759.24 492.42 208.44 757.12 509.48 700.97 823.96 602.93 553.14 554.34 900.54 282.33 983.46 212.77 500.01 769.91 857.63 402.19 631.26 1008.45 697.23 943.72 224.07 673.22 266.60 382.89 111.66 964.87 538.72 69.12 824.54 734.74 497.63 598.10 603.32 589.51 357.08 715.14 317.50 449.90 922.54 925.04 550.12 906.59 473.59 447.76 903.64 413.17 0.00 402.57 531.17 896.12 632.63 836.78 287.85 520.66 230.64 770.57 774.98 662.36 260.76 518.28 566.97 517.98 265.45 221.28 775.77 379.45 881.23 831.10 852.41 947.52 413.99 649.87 446.52 890.03 844.84 617.19 601.85 421.13 523.32 338.16 697.38 530.75 835.22 250.42 849.41 885.41 579.52 308.45 738.27 355.68 853.93 783.73 649.82 424.42 395.86 963.15 649.88 185.90 531.59 693.49 571.52 1081.56 521.28 937.33 850.42 808.43 893.25 385.57 719.12 685.83 542.29
557.77 355.18 433.10 406.87 922.03 770.54 376.15 596.79 975.20 578.04 591.62 878.96 958.42 795.11 453.61 666.08 676.91 602.90 611.72 406.63 759.05 558.61 379.59 449.65 889.88 648.14 723.90 345.76 627.60 438.61 330.39 433.38 721.14 834.18 456.26 798.93 847.11 266.71 627.71 731.52 473.19 431.01 867.83 360.27 483.87 683.16 426.63 521.63 826.16 202.43 611.01 452.83 537.69 570.33 493.13 468.94 744.60 882.52 762.95 369.85 945.00 445.87 661.12 554.06 778.47 594.22 610.25 973.89 432.26 791.58 458.11 688.62 400.13 585.87 408.93 830.22 136.15 454.04 707.04 933.80 700.61 832.74 365.43 304.43 248.26 362.87 177.77 598.09 774.86 522.47 147.55 729.55 71.02 45.19 723.32 793.79 402.57 0.00 707.82 830.22 433.14 841.98 495.56 706.09 423.42 520.46 841.90 683.19 641.41 313.16 164.60 776.96 608.34 615.61 438.90 493.96 846.67 929.06 928.86 830.07 195.18 482.18 43.95 568.54 637.92 214.82 800.80 427.80 120.75 541.14 294.81 622.09 902.14 261.93 465.85 540.14 792.49 686.43 468.57 558.66 796.60 381.36 966.03 700.99 198.49 968.35 247.51 518.99 288.78 562.63 806.16 1033.68 605.98 856.45 485.66 880.97 712.93 677.08 922.10 582.96 277.42
847.15 443.69 382.35 325.59 323.94 517.61 853.34 262.19 702.31 419.34 600.22 460.64 415.87 376.79 443.15 225.28 401.58 288.46 296.54 797.50 469.63 801.52 492.70 704.93 291.79 461.75 222.29 385.02 125.99 520.83 408.00 526.64 341.66 334.34 630.31 244.61 379.94 724.37 162.73 148.52 713.91 313.55 647.97 691.26 768.49 82.31 719.25 425.32 228.07 528.35 435.54 610.60 263.75 391.03 733.41 366.61 195.89 416.62 603.04 413.18 526.68 697.56 93.42 549.51 482.09 234.48 292.18 555.57 654.26 597.90 730.87 269.28 382.90 198.59 562.46 595.34 743.90 577.86 455.01 335.57 83.85 282.52 495.65 571.83 526.19 641.10 596.68 223.09 592.22 922.19 690.12 564.35 709.31 699.37 568.02 425.18 531.17 707.82 0.00 573.27 446.61 423.66 786.89 95.33 712.56 557.48 243.81 258.42 369.94 417.62 620.57 260.47 336.87 447.08 591.95 289.84 428.35 330.97 419.63 605.23 512.64 455.93 712.49 747.29 657.86 628.41 143.73 321.20 765.36 193.01 676.44 232.67 304.05 642.66 792.66 819.99 471.44 463.00 534.83 175.49 414.66 759.11 464.39 274.11 696.26 550.03 686.66 670.69 496.39 506.19 266.03 650.62 143.02 583.00 801.39 282.88 578.41 420.06 288.15 333.86 518.03
1192.67 732.30 635.98 510.56 442.49 208.82 785.53 311.08 190.34 349.64 1007.97 231.36 354.94 241.67 408.54 359.22 171.69 373.17 276.73 742.65 172.35 614.32 482.56 1063.87 448.05 242.75 460.57 561.56 544.97 932.16 683.56 499.94 236.77 265.73 535.22 681.80 808.05 992.26 668.02 575.22 618.54 628.11 149.72 1010.41 670.00 535.95 1014.09 835.34 487.72 660.24 868.12 512.11 486.45 328.69 634.92 431.74 649.23 844.73 275.65 689.83 200.94 1071.24 547.02 422.36 122.97 667.06 285.18 262.07 572.00 202.45 1082.62 319.36 674.26 601.55 923.39 165.26 800.61 955.09 183.85 641.22 607.66 748.26 554.31 603.35 711.16 595.13 781.65 709.51 223.63 797.06 768.73 248.65 843.38 803.41 238.06 884.56 896.12 830.22 573.27 0.00 458.33 218.48 1164.17 584.63 1073.49 440.76 490.80 326.08 808.12 569.79 665.62 745.34 775.05 838.01 530.76 565.16 190.11 460.93 348.22 130.17 729.51 391.53 825.06 552.82 385.02 692.96 597.51 599.83 823.40 603.03 674.67 365.37 516.98 924.20 647.74 632.79 914.07 901.18 442.41 620.55 209.55 724.44 829.31 732.16 912.69 169.58 728.99 1082.02 571.71 367.11 727.97 248.82 514.42 41.21 627.93 542.53 227.67 894.63 598.90 327.05 593.35
877.06 407.89 302.63 150.45 574.43 386.32 477.09 217.55 647.00 164.71 749.91 500.96 600.44 482.26 49.79 305.84 286.64 265.10 206.44 481.71 339.43 408.16 94.96 735.62 552.73 241.98 444.35 188.64 386.71 630.17 306.15 153.88 347.67 481.68 203.79 573.73 663.04 633.28 435.30 465.88 319.46 301.13 500.16 612.72 377.44 381.60 698.48 571.73 545.76 230.71 607.79 230.93 201.59 163.48 353.74 97.30 521.31 699.72 390.85 380.29 576.32 731.84 353.19 236.63 372.31 406.73 177.11 635.65 290.82 417.43 728.09 346.49 366.03 363.39 611.47 437.79 442.89 573.14 300.88 674.48 422.76 620.34 195.56 234.70 351.05 256.63 415.30 472.32 410.92 568.95 342.65 398.64 504.16 467.90 390.30 669.19 632.63 433.14 446.61 458.33 0.00 463.98 848.56 410.65 709.39 173.00 561.50 311.09 547.79 204.43 307.90 575.79 514.72 620.92 249.58 305.31 508.43 555.99 561.30 446.88 325.45 78.77 446.25 363.96 326.62 321.66 480.91 260.73 417.89 342.70 375.76 239.13 621.66 573.67 419.63 426.63 761.77 640.85 115.49 325.18 411.85 382.62 802.21 521.72 568.32 590.35 390.81 780.03 223.91 183.80 601.57 669.33 388.16 453.04 399.82 600.57 379.91 639.05 650.24 150.38 228.27
1166.84 698.05 598.06 512.25 272.54 363.69 868.42 246.43 303.26 388.71 905.83 36.98 136.46 46.87 465.43 237.05 228.58 292.07 280.78 858.41 235.89 740.99 521.47 1024.62 253.67 292.69 287.51 550.58 429.48 865.78 635.85 572.37 178.49 167.27 585.07 536.85 666.35 1004.54 554.35 433.52 699.56 578.57 331.60 967.58 754.14 351.70 1017.22 730.93 317.03 639.55 763.71 596.25 452.74 360.40 715.88 374.28 507.53 703.03 428.19 637.59 146.68 1017.25 424.85 508.29 263.51 562.65 286.87 171.67 638.50 419.11 1028.29 200.14 667.87 496.92 868.07 361.89 868.20 905.90 276.22 433.91 439.11 549.36 611.20 660.24 708.57 673.67 771.45 493.99 417.91 928.35 806.63 385.56 868.59 860.30 376.26 745.93 836.78 841.98 423.66 218.48 463.98 0.00 1121.51 416.08 1018.17 533.13 301.29 211.78 703.71 583.18 760.50 581.22 670.64 727.13 577.60 547.56 44.45 283.33 146.66 340.75 718.53 440.17 855.68 645.19 521.93 749.85 499.05 556.08 789.78 498.62 738.39 368.36 322.60 869.24 787.20 759.46 788.12 796.77 478.12 516.14 109.24 808.58 723.18 596.89 916.74 126.37 766.21 991.50 639.55 443.59 563.13 244.78 411.77 259.69 768.29 371.84 365.87 731.39 446.09 318.10 654.78
62.21 500.92 633.92 723.64 1110.83 1038.27 871.71 941.21 1326.63 960.51 285.95 1107.22 1119.81 1152.72 818.36 894.79 1012.28 898.03 913.65 825.95 1069.10 1010.95 838.80 126.51 1078.68 1026.49 909.79 682.66 736.32 266.06 550.64 817.22 1053.49 976.93 946.01 861.53 766.68 329.84 678.08 786.08 878.37 654.06 1206.21 235.84 930.22 769.81 150.08 409.22 1014.96 627.76 466.27 880.90 739.50 938.02 921.36 813.36 777.55 803.36 1123.70 543.18 1258.11 133.88 769.84 1009.86 1095.96 615.48 910.11 1221.02 894.05 1140.63 131.58 938.79 521.03 670.74 284.27 1195.58 568.98 286.53 1072.12 1012.84 766.11 823.04 765.51 734.71 548.49 848.82 484.68 665.88 1144.18 950.54 575.62 1098.86 490.34 450.37 1088.68 629.06 287.85 495.56 786.89 1164.17 848.56 1121.51 0.00 764.89 152.74 949.91 1030.70 927.93 484.11 672.88 652.40 728.77 517.18 488.94 885.00 660.58 1165.96 1117.86 1073.28 1207.33 536.68 884.21 472.02 1014.64 1050.59 660.92 862.97 642.23 552.35 626.01 744.26 818.60 1090.94 303.64 911.95 1020.54 820.44 492.11 910.04 643.53 1077.25 810.44 905.57 648.83 417.64 1247.88 701.90 189.47 722.33 981.34 849.62 1366.29 779.35 1201.98 924.07 1069.77 1099.07 571.61 964.95 931.13 705.49
804.85 406.69 354.93 374.88 411.92 600.13 857.20 357.52 719.34 465.09 588.46 453.06 488.58 462.95 460.44 245.26 445.16 289.69 391.87 795.97 512.58 818.81 504.99 662.63 387.12 519.41 254.06 426.70 82.18 525.01 379.39 517.39 380.08 412.91 614.44 182.44 301.09 720.36 151.58 68.26 692.54 275.08 643.96 630.44 756.66 114.08 698.47 414.81 323.40 542.58 374.72 641.58 254.50 472.52 735.53 394.50 110.66 337.77 685.56 378.63 562.76 670.00 57.46 625.26 520.51 173.66 362.29 587.75 671.84 651.82 659.90 265.27 360.55 137.77 537.78 640.82 733.39 582.04 546.98 274.75 23.03 209.69 537.33 563.86 493.43 638.32 563.92 156.47 630.64 943.22 661.51 642.26 698.80 660.90 627.56 329.85 520.66 706.09 95.33 584.63 410.65 416.08 764.89 0.00 687.88 581.96 337.71 278.40 302.12 450.76 620.87 165.14 315.74 389.61 660.23 239.55 460.53 393.48 469.79 651.85 514.60 489.42 682.55 774.61 724.61 631.20 98.08 319.67 729.61 182.50 674.91 261.78 365.13 606.70 783.41 834.71 376.11 412.47 526.14 175.98 410.09 749.86 391.56 239.38 673.91 542.45 703.78 575.42 528.38 594.45 208.53 660.86 141.49 578.43 803.22 345.49 633.15 393.87 267.41 415.35 536.64
168.45 348.18 510.00 624.55 1030.48 1036.29 799.57 820.09 1246.98 832.86 189.06 1042.20 1034.81 1016.01 682.94 809.18 901.80 761.46 813.37 758.74 934.56 920.84 716.92 26.23 1004.35 891.95 828.71 529.92 664.86 194.60 485.82 664.48 929.57 949.32 809.97 752.42 669.79 319.97 592.81 685.80 854.50 501.32 1126.44 180.56 826.74 709.50 140.21 308.77 940.63 478.68 394.81 813.66 635.43 821.05 876.54 696.39 677.27 706.47 1036.75 408.64 1164.85 22.45 681.40 873.13 983.94 515.20 798.05 1086.85 824.49 1075.00 34.69 853.18 408.97 564.28 150.10 1091.18 542.99 189.64 950.85 901.41 664.85 711.61 640.55 607.93 440.85 772.61 405.03 568.99 1058.41 944.38 570.97 1038.37 494.44 468.61 1040.27 581.47 230.64 423.42 712.56 1073.49 709.39 1018.17 152.74 687.88 0.00 853.87 939.29 840.55 459.52 562.52 574.34 617.34 491.85 392.05 820.65 515.32 1062.62 1012.49 988.28 1073.16 383.94 754.55 467.37 890.82 975.25 624.56 763.22 522.05 544.17 519.55 637.68 708.12 993.98 223.99 840.48 939.31 743.15 397.70 768.87 537.07 1008.52 743.46 811.16 548.55 407.77 1144.54 657.25 119.17 573.25 882.48 738.19 1258.86 662.14 1074.73 844.42 961.47 1029.88 477.20 853.52 812.14 594.89
984.03 536.91 419.02 288.74 696.94 301.53 388.41 321.95 598.07 168.28 902.85 559.63 640.48 486.26 182.19 410.29 311.71 369.55 294.85 405.58 335.63 365.14 140.87 874.04 676.93 295.98 536.41 327.87 552.95 777.00 399.27 189.39 376.79 520.18 94.46 678.18 836.04 669.11 603.26 626.57 226.73 440.60 431.23 785.72 310.87 475.17 848.87 681.19 650.21 380.00 760.73 152.98 327.46 196.59 269.72 270.30 686.57 871.02 272.86 489.75 595.45 876.32 524.50 66.73 328.34 559.67 281.56 626.15 158.49 347.29 874.92 446.39 503.97 536.39 745.88 339.48 496.56 719.97 256.91 755.27 562.51 782.72 247.47 295.39 459.39 227.88 527.58 626.49 343.22 493.49 460.67 311.73 564.78 529.30 301.14 822.13 770.57 520.46 557.48 440.76 173.00 533.13 949.91 581.96 853.87 0.00 665.95 415.54 700.73 326.07 361.57 747.10 667.66 708.58 134.33 478.31 500.03 694.66 616.53 380.98 469.93 214.93 507.65 264.51 189.53 358.41 653.91 399.02 502.81 495.64 375.18 382.07 726.19 695.31 310.67 346.67 914.71 793.79 114.94 498.18 441.21 365.31 961.18 674.66 581.31 571.15 393.95 853.75 285.43 100.89 771.45 638.93 514.03 416.46 330.48 705.02 290.75 791.99 779.70 250.28 274.18
1055.28 679.49 590.97 569.40 91.19 551.10 1038.59 424.83 557.35 549.97 844.03 287.07 203.54 291.61 611.29 291.12 396.13 354.30 459.18 1027.96 469.78 908.54 656.46 913.06 70.38 470.38 233.83 628.83 320.79 764.64 618.00 714.49 331.05 225.07 760.41 268.65 478.52 960.11 406.18 317.05 880.96 557.36 614.53 897.06 923.69 326.12 903.35 669.13 15.74 639.47 625.15 778.30 484.31 553.13 883.43 525.81 345.75 509.35 636.53 645.25 427.86 920.43 287.27 703.51 471.48 424.09 384.39 382.88 816.90 602.79 952.42 300.19 626.71 404.39 806.27 618.27 900.95 821.67 497.95 234.30 316.71 337.70 689.65 760.19 753.22 818.13 823.71 459.94 581.61 1025.35 828.84 595.90 912.92 887.09 594.51 578.16 774.98 841.90 243.81 490.80 561.50 301.29 1030.70 337.71 939.29 665.95 0.00 308.96 599.24 661.43 824.81 431.97 566.17 660.55 762.54 512.35 343.17 100.03 175.82 601.25 734.21 577.21 885.85 866.92 728.34 791.00 239.63 558.28 893.17 436.82 913.52 421.26 71.77 836.51 944.94 927.01 530.93 661.86 666.85 419.30 398.98 944.12 511.54 474.47 940.07 427.66 850.65 913.13 734.04 660.68 318.09 498.87 380.10 506.02 951.41 70.55 584.12 582.36 204.68 496.30 755.68
967.69 494.14 398.36 338.52 341.64 378.87 746.92 141.91 515.04 299.06 766.07 248.76 296.74 258.65 360.88 33.14 225.74 80.29 176.26 719.00 251.07 719.25 390.91 825.47 302.44 299.99 143.40 418.21 254.46 661.87 487.36 405.53 160.66 179.63 474.34 425.60 566.46 830.12 353.59 333.63 624.21 374.66 418.59 763.67 614.73 209.87 847.43 540.99 308.52 480.76 570.89 520.90 248.83 270.75 643.71 266.08 389.06 585.86 452.21 433.68 358.46 818.10 220.94 429.23 300.45 417.32 133.98 383.45 533.98 432.40 828.91 39.90 463.96 338.06 703.52 431.84 715.31 718.90 327.56 475.14 290.51 488.09 466.35 467.10 504.66 526.46 567.54 383.43 411.22 823.83 652.33 425.51 740.82 700.85 415.44 608.25 662.36 683.19 258.42 326.08 311.09 211.78 927.93 278.40 840.55 415.54 308.96 0.00 542.15 432.23 606.93 443.54 509.08 616.57 502.25 346.81 256.23 341.62 250.21 390.34 531.83 326.80 679.20 627.01 535.80 556.71 372.31 362.21 681.58 366.97 677.18 159.72 371.37 665.33 657.41 722.16 654.51 635.21 416.91 350.31 225.19 693.71 585.59 464.97 742.32 338.15 624.22 811.73 511.00 364.26 486.38 456.56 199.99 367.29 677.22 363.33 413.73 602.18 402.55 213.58 524.22
543.33 304.64 333.84 415.23 657.66 800.38 907.53 583.70 971.16 618.10 330.43 740.69 715.95 746.73 597.58 547.38 636.43 491.77 612.16 860.52 739.25 915.10 582.34 460.12 640.12 710.68 510.01 478.49 350.18 276.02 400.07 641.26 626.80 647.99 746.94 404.74 350.12 477.37 207.21 345.75 828.88 353.36 870.46 450.82 842.26 395.04 471.73 209.28 598.01 503.08 75.81 755.53 483.37 589.79 807.96 542.89 320.76 365.01 833.11 309.59 850.39 452.75 359.58 756.81 767.23 175.15 543.26 867.76 745.51 843.74 439.69 567.39 314.88 249.82 311.04 878.58 656.91 284.74 738.25 576.70 325.15 403.48 589.12 605.91 432.86 742.40 463.64 246.15 837.23 984.65 630.41 841.12 657.62 672.93 826.42 169.40 260.76 641.41 369.94 808.12 547.79 703.71 484.11 302.12 459.52 700.73 599.24 542.15 0.00 508.94 647.13 309.21 33.07 94.43 736.88 297.98 740.54 676.10 669.42 878.52 469.54 599.02 651.28 829.69 840.67 628.13 400.20 392.09 701.32 205.09 751.33 442.75 667.25 458.04 877.80 908.99 360.78 110.35 663.28 222.61 712.21 843.71 491.78 192.04 565.17 830.08 711.19 364.75 558.85 731.59 418.63 948.49 360.81 849.33 866.82 596.26 836.81 152.97 498.30 615.24 548.25
729.92 261.69 177.25 93.71 671.08 518.27 447.04 336.75 760.13 307.19 621.99 620.16 687.95 593.72 161.25 399.09 398.10 380.50 363.92 380.42 496.62 509.13 185.20 588.75 658.53 418.61 453.43 32.60 368.58 492.94 193.26 203.81 463.18 606.57 273.13 571.31 639.09 492.51 441.62 478.18 388.43 223.20 624.78 467.58 445.82 412.41 551.34 396.91 645.69 110.73 530.38 337.42 224.53 333.57 401.99 208.91 549.71 675.77 568.48 265.84 725.97 584.97 402.10 359.67 489.33 364.01 316.83 754.85 336.32 560.79 597.21 443.09 296.12 328.61 491.49 558.23 337.94 503.25 417.90 695.07 443.35 638.64 143.23 158.07 171.90 309.26 242.39 451.02 559.59 504.57 279.13 527.24 384.18 347.67 541.94 626.47 518.28 313.16 417.62 569.79 204.43 583.18 672.88 450.76 562.52 326.07 661.43 432.23 508.94 0.00 202.95 551.18 478.02 534.18 338.07 252.38 627.63 652.64 682.44 571.50 200.55 211.33 326.02 458.18 443.53 210.79 534.25 157.05 354.37 334.41 259.36 329.18 721.67 369.24 429.96 503.02 719.05 604.15 252.93 351.93 527.60 365.14 719.21 479.00 404.71 709.55 269.04 626.30 78.77 365.11 612.06 792.47 335.23 585.60 418.98 676.59 542.71 602.35 693.66 346.22 100.41
701.48 383.78 360.23 296.66 874.03 609.13 300.14 514.07 855.96 452.10 670.68 756.30 850.15 730.77 298.30 602.04 535.15 561.62 514.34 271.24 637.97 394.01 268.74 559.26 860.63 549.88 656.38 235.55 571.53 599.55 348.53 283.32 600.23 743.62 339.24 774.26 842.04 431.31 592.51 655.56 367.00 355.05 703.23 453.42 339.24 615.36 539.18 445.60 809.07 185.34 579.07 291.78 427.48 446.83 328.53 405.20 729.57 858.44 605.08 373.44 866.56 551.89 600.22 416.75 635.08 533.26 473.63 864.63 267.66 626.98 586.25 638.61 403.72 483.10 537.01 665.62 134.99 561.11 563.65 849.56 597.84 781.91 201.85 139.83 278.51 198.27 275.33 620.27 610.26 452.93 103.11 569.31 235.62 202.03 558.72 783.80 566.97 164.60 620.57 665.62 307.90 760.50 652.40 620.87 574.34 361.57 824.81 606.93 647.13 202.95 0.00 706.74 628.68 552.70 274.30 418.00 737.41 855.59 825.10 665.47 221.60 371.33 180.38 403.94 509.80 50.22 718.95 360.00 178.35 522.10 150.18 508.48 885.05 426.53 301.25 375.54 885.81 679.08 337.83 520.13 664.65 216.76 922.16 645.76 355.33 835.20 82.91 665.75 124.18 398.03 796.52 894.90 538.18 706.83 321.06 863.88 548.33 716.99 840.12 458.28 145.82
744.48 468.30 442.27 522.28 478.19 754.15 955.05 522.66 884.48 622.64 591.14 566.66 547.52 628.09 625.58 410.40 610.30 454.83 530.10 931.60 677.72 964.62 664.49 602.26 445.57 684.55 419.20 518.58 247.32 509.75 481.61 682.53 545.22 492.91 779.58 180.09 162.59 786.58 149.98 170.12 857.68 387.44 809.10 710.04 907.70 279.22 708.17 443.01 416.23 644.80 309.54 789.56 419.64 637.66 900.67 559.64 96.11 185.66 839.58 407.84 717.55 594.89 222.60 742.90 685.65 227.59 527.43 724.25 803.98 816.96 629.25 430.41 438.12 263.22 570.26 805.96 808.49 518.47 688.57 284.07 188.17 94.27 629.21 661.86 547.48 734.59 617.97 178.87 795.78 1008.36 747.82 797.91 773.90 773.26 792.70 205.30 517.98 776.96 260.47 745.34 575.79 581.22 728.77 165.14 617.34 747.10 431.97 443.54 309.21 551.18 706.74 0.00 287.97 335.47 770.91 356.18 625.67 459.75 570.28 816.99 582.51 650.99 765.90 939.75 865.70 714.58 199.82 412.00 823.06 257.60 810.54 426.92 376.64 638.35 927.61 983.09 214.34 371.06 691.28 260.10 575.23 910.08 228.49 129.00 751.48 707.59 772.83 598.48 582.56 734.69 120.85 826.00 303.58 743.57 922.77 368.39 798.29 291.56 273.42 580.49 604.20
549.71 271.57 300.77 448.30 648.92 767.31 895.47 550.63 938.09 585.03 319.48 707.62 682.88 713.66 564.51 516.92 603.36 458.70 579.09 828.85 706.18 882.03 578.92 476.77 607.05 677.61 476.94 445.42 317.11 301.49 368.40 637.84 593.73 614.92 718.51 371.67 375.23 510.44 174.14 312.68 795.81 320.29 837.39 483.89 809.19 361.97 499.91 183.08 564.94 470.01 102.79 745.65 450.30 556.72 774.89 509.82 287.69 357.80 800.04 312.09 817.32 469.40 329.12 734.39 734.16 142.08 510.19 834.69 712.44 810.67 466.67 548.98 281.81 216.75 344.11 845.51 623.84 311.72 705.18 543.63 292.71 382.24 556.05 572.84 400.17 724.03 430.57 213.08 804.16 962.62 600.51 808.05 643.40 640.24 793.35 194.51 265.45 608.34 336.87 775.05 514.72 670.64 517.18 315.74 491.85 667.66 566.17 509.08 33.07 478.02 628.68 287.97 0.00 110.21 764.30 264.91 707.47 646.23 636.35 845.45 436.47 593.49 618.59 796.62 837.25 621.54 390.10 359.02 675.75 172.02 737.38 409.68 637.94 442.78 844.73 875.92 358.54 126.13 630.21 189.54 685.98 820.48 516.46 158.97 595.17 797.01 683.81 391.73 536.82 698.52 385.56 915.42 327.74 816.26 833.75 563.19 803.74 124.33 465.23 582.17 515.18
530.76 295.55 394.62 478.56 749.23 843.38 852.84 613.59 1028.35 676.59 337.67 764.11 793.09 774.00 657.22 597.74 666.32 552.07 647.94 823.94 769.14 900.26 645.67 396.72 717.26 740.57 578.02 504.20 411.49 228.96 367.68 681.61 703.94 710.72 667.99 433.98 430.90 513.34 284.35 376.03 795.87 391.27 900.35 426.47 843.15 438.04 427.38 161.43 675.15 493.99 63.24 745.75 493.13 648.28 820.34 523.62 351.89 424.70 891.60 293.26 873.81 391.72 409.94 773.49 809.10 236.46 573.15 898.80 693.61 902.23 357.36 630.69 262.98 292.82 286.69 908.47 687.59 272.17 768.14 604.43 387.09 429.74 599.70 585.89 424.15 726.07 476.74 233.14 895.72 968.32 624.49 877.48 667.38 646.43 888.89 263.83 221.28 615.61 447.08 838.01 620.92 727.13 488.94 389.61 392.05 708.58 660.55 616.57 94.43 534.18 552.70 335.47 110.21 0.00 732.93 362.63 771.58 730.79 746.56 908.41 420.43 619.46 642.57 853.04 841.22 602.92 453.45 379.75 606.89 282.23 702.88 472.64 710.36 421.13 845.79 881.79 392.06 163.25 652.35 296.43 795.82 769.46 563.96 223.17 571.61 853.50 635.61 322.83 542.52 729.75 441.21 971.91 437.95 879.22 846.80 643.03 878.50 164.29 537.42 675.53 558.99
947.21 526.73 473.83 321.65 764.09 414.83 308.46 426.74 705.73 275.91 892.16 614.58 714.06 584.50 244.93 506.35 393.90 486.73 402.48 280.81 457.17 248.60 210.30 833.56 795.94 381.64 620.39 359.19 635.01 740.00 484.71 156.17 458.98 602.37 64.94 803.58 894.56 615.04 620.93 713.44 121.96 473.51 525.70 727.72 176.54 562.04 785.77 709.81 746.80 354.89 796.17 18.65 419.06 304.09 141.46 346.88 770.89 888.69 356.07 525.79 680.66 826.19 602.77 150.71 407.79 651.72 415.89 749.27 78.54 408.07 855.34 462.35 509.17 611.98 735.65 470.61 409.29 769.96 390.60 862.90 653.09 830.10 252.69 267.49 468.86 97.93 491.19 681.29 426.43 378.57 326.34 371.87 474.60 434.63 386.57 884.71 775.77 438.90 591.95 530.76 249.58 577.60 885.00 660.23 820.65 134.33 762.54 502.25 736.88 338.07 274.30 770.91 764.30 732.93 0.00 517.19 622.05 776.85 698.72 512.11 436.71 233.00 412.98 210.04 235.50 224.08 702.70 431.93 401.58 592.28 292.96 455.41 798.97 666.97 209.60 242.49 972.36 847.23 153.25 574.76 523.40 230.98 994.09 732.31 587.93 679.02 307.14 788.62 280.83 227.13 851.15 754.92 604.46 550.79 209.44 801.61 392.85 872.38 872.03 361.26 302.47
650.50 167.14 131.98 195.54 558.18 528.06 699.42 304.77 755.50 397.88 484.96 559.96 519.49 500.69 355.10 330.32 393.47 279.22 339.12 632.80 496.29 705.36 362.65 534.07 560.33 467.72 363.98 219.78 191.56 415.49 234.69 408.17 452.23 434.00 509.10 365.32 459.48 557.55 206.20 307.54 565.97 62.95 627.50 488.64 620.32 224.00 574.40 336.41 496.61 361.07 367.70 535.84 192.83 369.57 606.10 244.91 341.89 473.96 612.89 167.45 650.58 537.77 225.08 515.20 531.01 168.13 300.30 676.62 523.50 564.27 550.01 350.90 197.73 136.16 451.51 612.74 538.06 434.00 472.41 502.62 250.90 408.33 330.41 355.68 290.23 524.32 348.33 250.82 543.09 756.95 490.57 581.75 488.74 448.77 578.47 430.59 379.45 493.96 289.84 565.16 305.31 547.56 660.58 239.55 515.32 478.31 512.35 346.81 297.98 252.38 418.00 356.18 264.91 362.63 517.19 0.00 549.40 567.32 472.96 626.01 323.80 332.34 470.42 669.27 580.19 445.29 337.63 95.33 550.75 104.10 511.74 199.79 572.59 458.97 603.12 707.13 523.17 391.04 420.80 121.62 522.97 603.90 584.67 283.12 511.09 673.93 500.91 565.35 331.15 451.04 381.75 774.52 146.82 606.37 616.59 550.78 588.86 389.24 485.06 376.44 346.39
1192.56 716.54 586.15 556.70 293.32 360.66 829.39 290.88 275.42 393.21 950.28 74.07 180.91 51.56 468.51 281.50 231.66 336.52 316.40 853.30 232.86 735.33 538.07 1069.07 290.76 305.91 294.49 595.03 473.93 910.23 680.30 528.09 166.58 204.36 589.76 559.35 703.44 1040.16 533.33 470.61 718.75 612.35 339.83 1012.03 771.72 396.15 1061.67 775.38 327.43 644.24 808.16 613.83 497.19 388.66 718.96 418.73 544.62 740.12 383.74 682.04 191.13 1061.70 469.30 475.56 249.56 607.10 331.32 127.22 658.52 392.56 1072.74 244.59 712.32 541.37 912.52 337.80 872.40 933.54 280.91 478.36 483.56 593.81 614.28 663.32 753.02 649.02 815.90 538.44 383.35 921.57 833.61 342.40 874.56 863.38 331.81 790.38 881.23 846.67 428.35 190.11 508.43 44.45 1165.96 460.53 1062.62 500.03 343.17 256.23 740.54 627.63 737.41 625.67 707.47 771.58 622.05 549.40 0.00 274.88 169.16 296.30 738.98 435.48 843.77 649.88 478.77 752.93 536.14 600.53 812.90 543.07 743.08 412.81 357.99 913.69 772.25 716.86 830.15 833.60 482.81 560.59 153.69 826.16 699.22 641.34 952.36 170.82 754.30 1035.95 642.63 399.14 607.58 289.23 456.22 231.32 752.44 382.24 321.42 775.84 462.05 362.55 646.55
1155.31 710.46 605.89 635.81 18.44 570.95 1011.28 443.18 503.46 568.26 900.15 246.35 178.72 283.66 605.78 364.18 382.95 370.92 477.53 1019.36 464.73 895.36 650.95 1013.09 39.18 457.20 244.28 620.04 407.10 851.80 683.94 669.89 359.75 195.20 759.78 358.96 515.25 1030.80 493.70 372.82 875.45 630.27 563.02 964.54 923.01 384.26 1003.38 725.25 102.90 726.63 725.18 765.12 571.43 539.95 870.25 494.61 393.32 551.93 641.04 650.00 327.83 1007.20 374.43 713.96 500.18 524.12 458.91 383.69 825.01 593.22 1030.80 320.18 680.28 491.55 862.39 582.95 964.95 883.35 484.77 285.27 414.82 400.25 730.67 790.69 789.64 790.82 860.13 515.71 605.65 1107.36 898.64 594.11 997.13 974.25 605.52 594.59 831.10 929.06 330.97 460.93 555.99 283.33 1117.86 393.48 1012.49 694.66 100.03 341.62 676.10 652.64 855.59 459.75 646.23 730.79 776.85 567.32 274.88 0.00 145.47 571.18 787.99 622.08 973.01 853.74 715.16 863.43 295.40 638.98 884.25 492.94 912.00 450.35 83.11 923.67 935.91 913.83 618.09 720.51 653.67 475.42 330.30 938.61 522.88 507.62 993.64 343.61 921.68 968.90 731.41 647.50 397.45 451.77 460.80 498.07 938.23 149.91 595.13 641.01 281.89 514.85 753.05
1123.46 640.10 586.65 588.73 130.54 459.97 938.49 392.12 443.38 474.36 954.56 116.86 46.53 193.53 541.67 283.35 304.82 325.96 409.86 903.95 332.17 817.23 556.36 1007.03 172.41 379.07 281.05 660.02 422.81 888.45 608.19 615.28 260.90 96.35 682.49 390.19 600.06 1007.28 462.21 492.87 813.07 535.91 478.26 961.60 844.88 369.60 1047.36 791.20 191.56 726.43 739.14 686.99 498.28 461.82 792.12 483.71 474.17 630.89 545.40 640.41 267.75 1010.73 412.33 644.72 381.55 539.82 384.19 268.04 746.88 521.22 1022.97 278.23 670.69 514.82 924.47 475.81 945.44 906.96 406.64 410.12 460.65 480.12 662.96 710.88 743.41 718.03 813.90 522.57 511.46 1029.23 890.31 511.56 961.70 921.73 500.97 722.88 852.41 928.86 419.63 348.22 561.30 146.66 1073.28 469.79 988.28 616.53 175.82 250.21 669.42 682.44 825.10 570.28 636.35 746.56 698.72 472.96 169.16 145.47 0.00 465.46 743.40 529.80 912.68 775.61 637.03 800.49 415.45 561.71 899.21 559.55 782.89 405.39 194.53 915.54 863.54 835.70 698.19 762.48 575.54 549.13 223.16 888.67 634.30 573.59 981.07 273.03 848.62 1028.08 700.92 568.30 473.20 391.44 383.53 389.43 860.10 246.37 490.58 719.54 349.40 460.18 689.67
1209.01 725.65 635.22 539.14 572.66 190.59 740.23 343.04 300.09 319.39 1078.37 361.53 441.37 333.85 473.19 423.48 242.09 432.46 312.07 680.47 139.27 627.76 509.87 1081.86 578.22 204.90 477.23 574.25 600.14 959.13 692.57 469.69 278.00 395.90 475.44 742.83 930.14 1019.36 730.05 697.31 488.37 666.14 53.28 1034.75 587.82 581.60 1083.75 856.63 609.72 650.61 938.52 525.55 485.69 339.03 531.36 397.94 726.89 963.50 183.95 665.19 288.47 1089.23 600.62 361.40 154.43 737.46 355.58 333.34 539.47 152.06 1107.85 419.57 695.47 671.95 923.06 41.50 800.46 974.85 153.60 771.39 628.82 825.92 554.75 613.18 737.17 571.15 807.66 773.77 130.88 768.47 768.58 159.91 899.26 859.29 148.40 907.53 947.52 830.07 605.23 130.17 446.88 340.75 1207.33 651.85 1073.16 380.98 601.25 390.34 878.52 571.50 665.47 816.99 845.45 908.41 512.11 626.01 296.30 571.18 465.46 0.00 742.20 415.25 845.85 517.21 296.28 667.03 670.40 579.74 813.44 673.43 650.41 435.77 558.30 940.74 598.24 617.75 984.47 971.58 448.24 656.36 287.78 722.49 919.42 755.13 948.03 299.75 748.38 1095.10 632.42 343.46 822.32 292.32 584.82 119.44 599.34 663.46 138.93 938.59 711.95 349.48 625.65
552.39 164.90 237.92 241.99 806.23 684.79 521.74 472.10 867.51 463.01 508.15 755.51 789.93 687.42 320.97 498.69 557.82 495.21 499.27 487.92 651.36 536.90 333.87 410.17 782.19 540.45 616.21 167.95 432.42 377.95 135.21 280.54 619.56 647.05 445.10 607.18 651.93 310.30 432.53 549.40 491.42 260.85 795.48 386.71 509.36 487.98 443.71 366.11 718.47 94.74 483.67 429.72 346.00 468.92 512.53 344.26 572.71 688.61 652.81 174.67 837.31 406.39 465.94 506.71 668.06 399.04 452.18 866.20 449.85 720.95 418.63 542.69 204.95 390.69 315.41 736.96 331.33 367.20 596.63 742.45 505.43 641.70 257.74 223.99 56.91 401.47 107.33 478.05 716.36 615.11 238.48 654.43 266.20 240.37 669.13 630.98 413.99 195.18 512.64 729.51 325.45 718.53 536.68 514.60 383.94 469.93 734.21 531.83 469.54 200.55 221.60 582.51 436.47 420.43 436.71 323.80 738.98 787.99 743.40 742.20 0.00 395.36 239.13 506.88 592.20 246.27 609.65 232.62 313.72 345.96 369.47 445.96 794.45 288.37 486.14 555.37 754.08 562.60 385.57 363.48 661.82 438.36 793.59 514.03 294.57 844.90 304.51 487.45 189.31 498.54 623.61 925.99 410.80 769.63 466.33 700.77 675.41 560.80 726.92 475.83 210.95
910.32 428.00 335.97 183.79 610.21 345.66 484.04 193.74 581.87 95.86 784.06 477.15 576.33 427.98 76.25 321.55 272.31 280.81 173.83 458.47 334.47 434.62 102.59 768.10 582.90 223.56 420.54 229.27 439.79 678.04 351.18 161.51 268.90 433.45 216.77 589.44 741.81 640.91 514.07 530.22 354.96 335.65 463.32 678.91 389.16 378.82 762.67 558.98 561.47 309.48 674.83 251.65 273.75 124.17 374.46 127.47 554.88 778.49 357.15 367.54 543.71 775.47 431.96 213.65 333.08 485.50 192.82 562.70 262.80 378.12 785.54 326.43 397.82 442.16 685.28 375.84 491.67 651.91 261.65 682.85 469.87 653.91 209.19 257.11 383.23 263.58 453.72 551.09 371.61 599.44 421.42 324.70 526.50 491.02 339.40 747.96 649.87 482.18 455.93 391.53 78.77 440.17 884.21 489.42 754.55 214.93 577.21 326.80 599.02 211.33 371.33 650.99 593.49 619.46 233.00 332.34 435.48 622.08 529.80 415.25 395.36 0.00 469.37 394.66 247.85 343.79 559.68 294.07 484.44 421.47 370.09 261.36 637.45 580.57 414.98 450.98 810.06 709.37 109.82 403.95 361.15 460.98 791.22 600.49 577.51 542.94 404.53 795.89 247.15 199.73 652.75 598.19 410.41 374.27 434.79 616.28 345.68 717.82 690.96 155.57 235.90
534.23 347.02 407.20 419.02 965.98 761.74 420.10 640.74 1015.40 565.23 618.39 892.66 959.21 839.06 429.23 689.94 653.37 646.85 626.21 393.30 756.19 560.38 366.78 493.60 933.83 656.25 767.85 358.62 601.70 467.12 304.49 389.43 677.19 816.33 477.92 813.57 835.32 257.31 615.92 707.98 449.65 407.47 883.61 339.45 461.30 679.48 403.09 506.65 870.11 246.38 619.02 408.88 543.02 557.52 480.19 512.89 741.99 872.00 742.00 358.06 969.31 489.82 635.22 541.25 773.76 585.68 623.36 970.99 446.19 790.26 502.06 719.10 388.34 574.08 452.88 838.34 140.26 410.09 702.33 903.96 686.42 825.09 332.78 278.51 218.42 376.80 221.72 639.56 790.64 478.52 103.60 716.74 61.62 21.65 731.44 749.84 446.52 43.95 712.49 825.06 446.25 855.68 472.02 682.55 467.37 507.65 885.85 679.20 651.28 326.02 180.38 765.90 618.59 642.57 412.98 470.42 843.77 973.01 912.68 845.85 239.13 469.37 0.00 542.62 625.11 188.90 780.63 462.76 111.95 574.52 272.24 639.41 946.09 305.88 439.93 555.92 836.44 712.63 455.76 572.55 769.44 378.02 976.98 693.80 174.95 982.05 229.88 520.63 255.11 578.41 839.86 1006.48 602.58 843.64 459.74 924.92 728.71 633.13 935.99 570.15 233.47
1059.27 646.84 592.27 514.41 856.02 424.60 356.17 485.10 734.30 396.02 1015.03 682.17 752.54 598.32 383.68 642.68 470.79 601.94 483.85 324.92 447.69 172.97 349.65 917.05 818.42 427.87 667.46 482.50 740.86 884.83 534.56 340.57 535.87 679.26 185.05 910.57 1014.67 744.68 799.26 829.84 150.09 657.60 538.41 851.01 249.54 734.78 915.41 816.48 874.19 504.54 899.41 191.39 565.55 424.33 192.83 461.26 885.27 1051.35 386.96 625.04 713.27 913.27 717.15 197.78 440.40 738.86 513.95 777.10 192.80 446.51 925.51 617.79 623.43 718.77 822.29 475.71 538.93 874.08 368.97 962.22 786.72 956.18 385.89 391.77 563.79 262.19 614.21 825.87 446.51 363.77 455.98 374.60 604.24 564.27 374.19 991.13 890.03 568.54 747.29 552.82 363.96 645.19 1014.64 774.61 890.82 264.51 866.92 627.01 829.69 458.18 403.94 939.75 796.62 853.04 210.04 669.27 649.88 853.74 775.61 517.21 506.88 394.66 542.62 0.00 238.23 353.72 844.87 606.95 531.22 706.66 366.91 561.26 887.35 795.25 230.01 155.52 1093.90 922.75 292.00 689.14 600.29 300.33 1109.65 853.85 712.51 722.40 421.43 994.33 409.97 274.20 965.53 764.69 710.31 541.72 237.20 929.00 384.58 920.28 946.30 432.76 431.61
1112.80 639.03 536.48 425.44 717.44 196.96 522.12 395.67 516.56 270.38 1025.04 552.84 629.28 475.06 324.10 533.37 332.21 501.58 381.19 488.04 324.43 339.94 258.33 1001.48 754.34 257.96 592.48 445.33 642.43 880.88 588.80 317.25 397.29 540.68 237.65 832.44 989.66 796.65 749.96 762.64 357.46 566.28 303.25 911.11 412.04 626.67 975.14 799.96 744.08 497.46 884.51 254.15 516.99 298.69 357.72 375.32 802.73 1005.79 148.73 608.52 513.94 997.70 675.95 122.80 309.66 730.47 435.96 563.75 314.04 209.83 1009.94 528.23 578.24 643.79 863.34 257.97 644.79 859.07 245.71 857.37 717.72 853.52 364.93 412.85 576.85 333.43 647.34 727.36 219.09 529.72 561.84 136.37 682.24 646.76 151.07 982.66 844.84 637.92 657.86 385.02 326.62 521.93 1050.59 724.61 975.25 189.53 728.34 535.80 840.67 443.53 509.80 865.70 837.25 841.22 235.50 580.19 478.77 715.16 637.03 296.28 592.20 247.85 625.11 238.23 0.00 459.58 763.09 535.72 637.08 669.32 419.20 462.83 795.50 812.77 393.13 321.47 1011.53 920.60 243.94 651.80 425.65 426.21 1034.67 830.26 733.25 543.51 529.64 1024.12 402.89 171.54 880.10 537.05 596.36 343.81 373.32 774.70 157.35 961.58 871.32 355.86 391.64
723.13 349.97 361.68 304.50 871.13 593.46 300.29 519.17 883.30 421.52 714.28 786.83 836.27 716.89 284.42 558.68 521.27 552.00 503.56 244.26 592.15 371.48 244.13 609.48 838.98 536.45 664.22 243.39 549.02 615.44 314.72 233.10 586.35 729.74 289.02 739.18 849.88 390.96 619.80 672.23 334.28 382.34 720.31 503.64 293.71 580.28 561.69 495.82 775.26 151.53 629.29 242.73 398.97 434.87 291.29 418.96 734.14 885.73 580.15 381.28 856.74 602.11 582.54 374.79 584.86 560.55 498.77 880.15 257.29 601.36 636.47 596.61 388.65 533.32 532.29 653.76 185.21 584.08 513.43 864.16 612.44 789.75 188.09 89.61 294.40 187.90 325.55 647.56 622.54 419.35 102.26 585.23 250.52 210.55 593.58 797.53 617.19 214.82 628.41 692.96 321.66 749.85 660.92 631.20 624.56 358.41 791.00 556.71 628.13 210.79 50.22 714.58 621.54 602.92 224.08 445.29 752.93 863.43 800.49 667.03 246.27 343.79 188.90 353.72 459.58 0.00 702.12 360.02 177.50 545.20 123.20 494.72 851.24 476.75 251.03 389.95 913.10 729.30 301.95 547.42 650.77 215.58 915.97 673.05 363.85 854.34 83.06 704.33 132.02 448.25 816.33 902.74 503.10 718.06 270.84 830.07 592.78 745.87 789.90 447.50 147.27
879.21 504.77 453.01 468.79 313.84 612.45 920.12 405.92 740.52 559.00 652.30 462.07 443.17 484.60 530.70 339.17 457.48 339.00 440.27 853.50 531.13 889.07 575.87 736.99 310.01 531.73 241.67 501.65 180.26 623.09 477.47 611.30 392.40 331.78 664.95 100.88 310.25 801.55 242.31 77.42 786.45 373.16 707.65 669.14 854.74 192.94 754.90 496.00 255.37 614.72 440.05 711.84 348.41 534.76 829.44 477.24 147.56 341.58 668.06 476.71 564.89 744.36 151.37 693.24 532.83 248.02 426.99 598.13 769.92 664.14 754.61 344.16 458.63 235.85 633.14 699.63 814.58 648.98 559.30 247.73 121.11 205.42 595.73 647.61 591.51 725.04 623.03 220.31 642.96 1038.82 759.59 626.72 779.99 758.98 616.13 405.12 601.85 800.80 143.73 597.51 480.91 499.05 862.97 98.08 763.22 653.91 239.63 372.31 400.20 534.25 718.95 199.82 390.10 453.45 702.70 337.63 536.14 295.40 415.45 670.40 609.65 559.68 780.63 844.87 763.09 702.12 0.00 377.20 827.69 263.69 732.44 348.07 267.05 700.61 877.32 907.54 414.16 510.55 596.40 274.06 484.65 838.22 365.09 276.28 771.99 583.61 785.18 673.50 613.02 649.92 194.15 688.83 199.02 599.14 880.73 309.93 605.74 438.58 169.33 477.59 634.66
657.23 173.87 77.41 110.28 624.88 560.86 604.09 309.65 765.83 334.77 580.29 593.06 608.24 554.04 277.47 329.07 428.14 313.89 336.81 537.47 515.22 631.96 277.39 515.72 599.80 462.47 395.34 124.45 237.49 457.17 158.60 312.84 450.16 465.36 430.18 414.26 534.51 542.92 294.62 360.70 530.43 86.40 633.02 520.72 562.20 255.36 604.83 360.53 542.54 265.74 442.99 450.58 113.38 306.46 530.54 181.80 430.33 562.38 549.78 169.09 702.76 523.09 271.01 451.86 495.20 251.03 334.97 727.75 428.17 560.41 555.08 373.07 154.53 220.78 458.24 606.33 494.99 424.80 466.00 573.93 322.21 491.23 235.08 270.41 244.34 432.43 314.83 338.04 553.90 661.62 436.18 556.51 493.37 472.22 541.81 513.49 421.13 427.80 321.20 599.83 260.73 556.08 642.23 319.67 522.05 399.02 558.28 362.21 392.09 157.05 360.00 412.00 359.02 379.75 431.93 95.33 600.53 638.98 561.71 579.74 232.62 294.07 462.76 606.95 535.72 360.02 377.20 0.00 511.42 187.00 416.41 234.46 571.65 465.70 549.22 616.35 606.07 485.15 363.40 196.65 521.74 518.63 562.16 366.02 467.89 660.28 426.09 607.03 235.82 387.93 464.65 779.45 178.18 559.75 531.32 582.14 552.20 483.35 537.18 305.01 257.46
614.56 404.18 460.07 448.08 902.69 649.79 324.15 543.35 1013.74 568.47 671.24 826.76 872.98 776.04 414.86 664.47 651.71 601.29 570.51 341.26 750.79 526.26 414.99 570.40 870.93 659.87 746.37 386.97 654.57 556.14 357.36 403.96 646.32 810.87 449.65 866.44 892.48 308.57 673.08 777.78 437.02 487.80 817.73 419.78 409.26 699.80 483.42 575.05 877.43 253.70 666.02 404.21 561.78 540.16 459.06 415.50 794.86 911.29 735.22 415.22 925.93 566.62 688.09 552.29 760.50 649.55 583.55 940.12 344.32 752.15 578.86 676.04 445.50 631.24 488.76 807.10 80.70 522.04 690.93 961.12 739.29 882.25 341.07 260.47 275.58 353.00 298.52 696.72 755.70 480.77 75.24 710.38 112.88 101.98 700.20 851.01 523.32 120.75 765.36 823.40 417.89 789.78 552.35 729.61 544.17 502.81 893.17 681.58 701.32 354.37 178.35 823.06 675.75 606.89 401.58 550.75 812.90 884.25 899.21 813.44 313.72 484.44 111.95 531.22 637.08 177.50 827.69 511.42 0.00 629.18 220.20 568.65 939.86 341.76 422.74 524.80 913.24 766.03 479.45 646.70 738.57 321.41 1018.14 698.61 255.28 916.15 174.27 598.82 282.18 568.16 892.73 975.61 672.18 817.40 442.55 932.24 710.59 745.08 894.82 568.27 285.88
668.22 271.24 189.34 297.28 511.38 595.29 735.94 378.61 766.07 456.13 407.21 535.60 564.45 545.49 392.49 349.65 431.34 286.68 407.07 714.83 534.16 750.86 437.66 526.00 484.80 505.59 329.93 311.45 173.93 374.20 278.07 496.58 484.47 470.30 546.49 261.22 355.38 537.86 107.62 203.44 662.16 167.05 665.37 509.23 720.14 189.95 530.14 232.31 421.08 440.70 265.09 573.63 296.93 427.82 663.46 349.01 277.45 375.38 648.15 226.63 645.30 518.63 161.85 562.37 567.55 64.03 338.17 670.29 615.17 668.37 537.86 382.60 217.29 44.73 369.45 673.49 550.89 407.28 533.16 411.19 159.47 304.23 422.08 457.41 357.70 599.33 419.74 151.04 647.19 838.98 558.04 636.03 516.30 552.87 621.33 326.49 338.16 541.14 193.01 603.03 342.70 498.62 626.01 182.50 519.55 495.64 436.82 366.97 205.09 334.41 522.10 257.60 172.02 282.23 592.28 104.10 543.07 492.94 559.55 673.43 345.96 421.47 574.52 706.66 669.32 545.20 263.69 187.00 629.18 0.00 593.77 237.66 497.06 492.01 707.22 764.49 419.07 298.15 458.19 17.52 555.06 699.55 486.09 179.02 509.95 624.99 572.38 513.03 413.18 526.50 277.65 743.40 183.12 644.24 718.32 470.27 631.72 296.35 380.96 410.15 403.75
733.76 473.17 436.61 353.07 913.43 597.18 187.68 562.72 865.01 425.16 820.86 775.37 829.42 691.52 332.05 658.45 530.99 621.96 543.92 121.06 575.53 306.06 334.81 663.91 917.89 504.24 712.79 291.96 592.73 732.98 437.92 275.89 596.07 739.46 292.39 769.50 898.45 469.55 687.02 715.94 216.82 482.56 703.69 603.60 189.06 610.60 649.31 595.78 897.78 274.73 729.25 276.58 483.89 436.53 238.86 468.27 785.57 935.13 565.59 504.48 818.96 660.13 626.25 381.41 551.70 623.37 552.87 868.63 216.69 629.03 672.37 637.28 511.85 587.97 655.49 637.14 235.03 682.33 496.81 929.17 677.45 874.04 262.27 212.81 417.60 276.51 425.51 710.38 625.11 306.70 225.46 548.60 273.86 293.89 563.30 885.83 697.38 294.81 676.44 674.67 375.76 738.39 744.26 674.91 637.68 375.18 913.52 677.18 751.33 259.36 150.18 810.54 737.38 702.88 292.96 511.74 743.08 912.00 782.89 650.41 369.47 370.09 272.24 366.91 419.20 123.20 732.44 416.41 220.20 593.77 0.00 542.53 956.02 518.60 202.80 324.53 978.41 829.26 260.27 611.29 660.49 105.78 978.57 738.36 401.52 776.14 110.44 756.85 255.22 358.54 862.77 923.49 533.42 710.52 222.61 935.95 563.18 861.71 892.42 493.70 269.64
850.29 366.93 270.61 276.55 453.04 381.68 628.89 140.95 555.71 266.09 644.87 360.17 451.92 409.44 210.48 142.61 193.68 79.43 175.30 663.59 296.50 568.85 284.50 733.86 411.17 267.93 277.73 296.58 179.60 566.79 359.61 313.00 258.76 310.71 409.11 385.13 535.64 756.26 302.65 302.81 558.59 262.74 427.71 649.89 577.91 212.42 718.71 469.97 405.52 439.91 502.75 462.18 121.08 260.06 562.25 153.15 372.44 542.96 451.77 367.24 509.65 730.57 213.12 363.48 336.46 301.69 100.51 540.03 471.34 438.39 742.81 186.61 388.99 241.19 558.02 435.83 643.47 599.87 295.50 516.04 264.32 471.47 306.63 405.11 477.15 408.43 537.19 355.35 437.19 763.48 572.46 404.84 661.08 648.56 416.25 549.98 530.75 622.09 232.67 365.37 239.13 368.36 818.60 261.78 708.12 382.07 421.26 159.72 442.75 329.18 508.48 426.92 409.68 472.64 455.41 199.79 412.81 450.35 405.39 435.77 445.96 261.36 639.41 561.26 462.83 494.72 348.07 234.46 568.65 237.66 542.53 0.00 480.10 654.40 579.02 587.32 548.70 535.81 302.16 255.18 323.18 601.41 653.34 397.58 692.68 494.73 562.23 716.65 384.30 359.28 455.56 588.05 149.05 406.58 598.83 426.95 405.86 534.01 508.05 202.89 405.94
1121.12 712.15 649.06 629.64 101.55 622.87 1072.44 450.45 553.85 607.60 904.27 285.62 241.06 325.95 671.45 351.36 463.29 400.67 484.80 1064.25 526.70 975.70 706.49 978.90 68.93 537.54 274.03 689.07 381.03 824.88 678.24 753.00 402.82 254.82 818.57 314.21 480.51 1028.42 466.78 334.33 920.93 617.60 597.01 936.19 961.97 386.36 975.12 729.37 75.98 699.71 686.18 817.62 544.55 579.29 915.14 524.36 392.26 517.19 657.57 681.64 410.94 971.53 347.51 699.23 542.59 495.86 444.63 347.61 842.52 656.58 990.43 336.62 651.36 464.63 866.51 599.80 961.19 865.32 555.30 239.66 387.90 379.28 761.42 820.43 813.46 868.16 883.95 477.22 635.40 1097.12 889.08 664.64 973.16 947.33 666.28 577.80 835.22 902.14 304.05 516.98 621.66 322.60 1090.94 365.13 993.98 726.19 71.77 371.37 667.25 721.67 885.05 376.64 637.94 710.36 798.97 572.59 357.99 83.11 194.53 558.30 794.45 637.45 946.09 887.35 795.50 851.24 267.05 571.65 939.86 497.06 956.02 480.10 0.00 896.75 986.56 994.17 577.69 733.31 713.63 479.54 411.58 1002.67 439.77 505.64 964.72 426.72 922.42 940.55 794.28 694.45 352.70 495.37 440.34 488.50 983.12 105.16 655.89 654.13 204.32 522.12 815.92
360.68 291.83 414.63 452.13 916.64 887.51 638.08 705.99 1022.99 676.43 348.78 906.22 952.39 899.02 530.49 632.19 752.51 695.37 733.16 639.66 855.33 721.07 554.44 250.22 884.49 787.85 717.87 401.84 582.76 214.38 372.72 561.24 817.59 844.96 642.37 722.05 730.70 262.85 599.63 661.93 696.72 444.97 994.02 98.34 682.92 623.64 182.10 259.70 820.77 365.63 393.17 653.58 564.16 702.81 688.41 578.15 638.07 722.03 895.98 352.29 1015.92 246.44 549.24 706.22 858.57 552.62 677.51 1040.91 674.95 930.03 258.68 676.19 352.62 536.74 147.00 927.47 398.08 194.13 787.14 870.53 618.81 732.62 481.86 492.33 251.53 624.80 181.04 612.25 928.83 784.40 388.57 849.05 332.95 307.12 863.75 549.98 250.42 261.93 642.66 924.20 573.67 869.24 303.64 606.70 223.99 695.31 836.51 665.33 458.04 369.24 426.53 638.35 442.78 421.13 666.97 458.97 913.69 923.67 915.54 940.74 288.37 580.57 305.88 795.25 812.77 476.75 700.61 465.70 341.76 492.01 518.60 654.40 896.75 0.00 640.24 739.54 741.36 493.18 622.17 509.53 861.52 624.38 788.15 509.35 244.43 995.61 509.44 257.06 439.56 734.35 712.19 1081.47 605.79 954.84 620.43 875.58 870.03 552.88 864.76 715.46 436.74
936.56 601.00 543.96 492.05 917.47 572.92 161.53 544.25 838.08 447.02 903.48 823.84 879.00 741.41 372.96 688.01 558.72 635.56 573.59 94.91 574.15 120.45 324.94 860.51 917.63 543.05 771.05 455.90 746.62 835.80 555.36 266.02 613.89 767.19 254.17 939.73 1043.11 626.21 777.63 824.61 109.87 540.17 651.52 738.58 42.68 734.34 805.97 746.85 953.34 402.56 880.32 190.95 528.91 475.33 71.42 508.33 894.07 1043.56 541.86 600.45 797.64 853.14 725.95 342.94 524.77 718.38 584.69 862.47 152.18 568.81 875.17 671.95 582.81 729.39 783.32 588.99 375.80 820.73 562.90 1034.01 795.52 986.80 345.27 278.81 514.76 215.79 534.95 805.39 571.08 184.46 353.29 529.50 430.52 461.58 522.51 980.84 849.41 465.85 792.66 647.74 419.63 787.20 911.95 783.41 840.48 310.67 944.94 657.41 877.80 429.96 301.25 927.61 844.73 845.79 209.60 603.12 772.25 935.91 863.54 598.24 486.14 414.98 439.93 230.01 393.13 251.03 877.32 549.22 422.74 707.22 202.80 579.02 986.56 640.24 0.00 138.92 1070.93 970.86 350.45 705.25 688.22 166.94 1105.86 830.88 565.22 817.32 274.14 897.30 351.19 373.11 970.58 858.46 715.48 621.58 19.81 942.32 512.12 930.61 979.10 528.31 329.55
1016.34 666.41 575.15 548.08 916.11 518.43 200.65 580.25 823.13 469.98 1004.69 790.93 878.41 753.84 376.84 729.93 530.88 666.75 596.55 203.47 603.21 18.47 380.97 934.80 947.24 579.43 806.06 491.90 766.92 906.76 613.29 369.43 595.96 739.35 283.78 972.45 1089.67 734.77 833.11 889.94 142.17 655.00 624.72 828.96 181.60 767.23 914.53 819.45 942.75 518.82 925.08 223.84 586.90 498.29 101.03 523.93 945.37 1100.87 470.20 649.09 833.73 927.43 777.25 336.38 586.85 828.52 603.74 844.08 188.18 508.92 961.79 704.84 618.81 759.00 870.78 579.44 510.53 899.64 524.49 1056.97 846.82 1026.77 381.27 380.02 612.28 248.50 650.87 866.59 530.10 208.25 478.65 457.84 539.08 570.17 472.54 1045.54 885.41 540.14 819.99 632.79 426.63 759.46 1020.54 834.71 939.31 346.67 927.01 722.16 908.99 503.02 375.54 983.09 875.92 881.79 242.49 707.13 716.86 913.83 835.70 617.75 555.37 450.98 555.92 155.52 321.47 389.95 907.54 616.35 524.80 764.49 324.53 587.32 994.17 739.54 138.92 0.00 1113.58 1002.05 380.06 751.81 660.38 275.88 1141.86 893.14 688.78 802.37 397.70 996.60 424.25 412.80 1000.19 858.52 736.37 665.28 119.11 997.56 478.82 962.91 1072.52 555.46 437.68
838.60 618.66 608.41 682.62 611.06 930.38 1155.01 689.65 1056.80 814.79 565.53 756.08 651.66 787.91 759.18 621.37 742.38 628.13 724.00 1099.47 845.20 1095.11 828.57 728.87 578.91 816.63 600.46 721.36 453.39 571.29 663.90 861.70 756.19 695.64 956.33 318.26 126.71 826.94 351.43 359.54 1068.65 530.76 976.41 771.58 1109.15 490.19 769.71 504.55 515.19 808.01 371.08 991.01 630.61 808.76 1032.16 701.85 297.46 90.03 997.85 603.97 906.97 736.24 433.57 912.18 885.16 355.04 649.21 873.17 968.90 960.34 719.90 641.38 621.10 462.90 631.80 981.91 928.64 580.01 841.58 388.21 399.14 244.19 775.81 823.49 743.61 936.04 780.65 342.95 981.52 1222.70 940.04 950.92 863.51 837.68 964.95 191.38 579.52 792.49 471.44 914.07 761.77 788.12 820.44 376.11 743.15 914.71 530.93 654.51 360.78 719.05 885.81 214.34 358.54 392.06 972.36 523.17 830.15 618.09 698.19 984.47 754.08 810.06 836.44 1093.90 1011.53 913.10 414.16 606.07 913.24 419.07 978.41 548.70 577.69 741.36 1070.93 1113.58 0.00 345.45 850.32 436.59 786.20 1070.59 173.54 240.05 914.74 879.98 968.72 648.09 796.90 898.77 224.99 998.32 505.03 954.54 1084.40 472.53 954.56 308.09 377.56 751.59 818.54
525.64 397.70 426.90 525.58 738.95 893.44 979.22 676.76 1064.22 711.16 220.08 833.75 809.01 820.24 690.64 637.76 729.49 584.83 705.22 918.66 832.31 1008.16 692.69 383.42 732.24 803.74 577.31 571.55 443.24 300.22 458.21 751.61 719.86 741.05 831.24 459.49 333.57 581.61 300.27 438.81 900.24 446.42 963.52 500.51 930.59 488.10 498.64 233.48 677.60 596.14 100.01 865.88 576.43 682.85 901.02 635.95 375.51 339.91 926.17 419.94 925.89 390.79 455.25 860.52 860.29 268.21 636.32 960.82 836.91 936.80 374.45 675.11 406.28 342.88 360.73 971.64 749.97 308.94 831.31 607.39 418.84 441.32 682.18 698.97 526.30 850.16 508.66 316.90 930.29 1088.75 690.79 934.18 744.35 718.48 919.48 183.77 308.45 686.43 463.00 901.18 640.85 796.77 492.11 412.47 397.70 793.79 661.86 635.21 110.35 604.15 679.08 371.06 126.13 163.25 847.23 391.04 833.60 720.51 762.48 971.58 562.60 709.37 712.63 922.75 920.60 729.30 510.55 485.15 766.03 298.15 829.26 535.81 733.31 493.18 970.86 1002.05 345.45 0.00 756.34 315.67 812.11 895.84 413.46 246.79 645.65 923.14 761.99 302.64 662.95 824.65 467.90 1041.55 453.87 942.39 959.88 668.29 929.87 79.50 528.99 708.30 641.31
918.67 435.31 367.13 256.09 655.95 348.92 442.20 302.45 632.75 164.89 844.53 515.10 614.58 431.25 91.68 421.01 270.72 380.59 283.65 381.33 354.88 386.17 88.98 783.53 668.22 243.97 506.58 238.95 481.76 722.72 399.61 105.03 335.80 479.19 106.95 687.29 778.53 627.30 550.79 581.37 275.21 396.93 464.21 720.51 329.79 488.64 785.90 649.84 661.25 308.22 706.87 171.90 301.74 193.20 279.03 212.79 636.80 815.21 335.26 462.91 581.14 790.90 468.68 121.14 374.30 522.22 292.60 610.03 212.28 375.35 803.56 377.01 471.67 478.88 688.98 409.93 472.82 688.63 302.87 751.88 538.25 735.83 179.41 219.86 401.68 225.96 472.17 574.60 371.24 505.98 404.21 288.33 501.67 461.70 303.03 784.68 738.27 468.57 534.83 442.41 115.49 478.12 910.04 526.14 768.87 114.94 666.85 416.91 663.28 252.93 337.83 691.28 630.21 652.35 153.25 420.80 482.81 653.67 575.54 448.24 385.57 109.82 455.76 292.00 243.94 301.95 596.40 363.40 479.45 458.19 260.27 302.16 713.63 622.17 350.45 380.06 850.32 756.34 0.00 440.67 400.22 366.05 901.04 637.21 558.06 604.49 370.71 811.24 213.65 197.56 717.06 665.09 451.21 483.62 347.01 716.06 309.31 754.54 765.73 250.37 222.29
681.37 268.20 206.86 306.93 493.86 588.77 753.46 395.02 783.59 449.61 424.73 550.76 557.93 552.28 374.97 333.20 448.86 270.02 390.41 732.35 517.09 733.34 420.14 539.15 467.28 523.11 323.41 321.10 166.06 391.72 295.59 479.06 471.76 452.78 528.97 278.74 337.86 555.38 110.12 220.96 644.64 165.08 682.89 526.75 702.62 183.43 547.66 249.83 403.56 458.22 282.61 556.11 287.98 421.30 678.92 366.53 281.24 374.54 664.62 237.69 662.82 531.78 155.33 559.20 555.14 81.55 354.58 687.81 616.00 675.25 555.38 376.08 207.41 38.21 386.97 689.21 568.41 423.79 548.88 404.67 152.95 299.57 431.73 457.81 375.22 581.81 437.26 147.14 664.71 856.50 575.56 649.36 533.82 550.90 638.85 344.01 355.68 558.66 175.49 620.55 325.18 516.14 643.53 175.98 537.07 498.18 419.30 350.31 222.61 351.93 520.13 260.10 189.54 296.43 574.76 121.62 560.59 475.42 549.13 656.36 363.48 403.95 572.55 689.14 651.80 547.42 274.06 196.65 646.70 17.52 611.29 255.18 479.54 509.53 705.25 751.81 436.59 315.67 440.67 0.00 548.54 706.03 479.52 196.54 520.77 642.51 589.90 530.55 430.70 508.98 276.39 757.95 165.60 657.26 718.72 458.37 649.24 313.87 363.44 427.67 421.27
1111.37 664.25 511.82 468.37 311.86 297.52 795.05 239.71 372.81 298.16 962.27 146.22 245.70 156.11 366.35 252.44 129.50 293.06 234.54 765.91 169.72 641.91 417.01 982.29 342.65 183.45 260.38 519.37 426.73 881.17 526.61 473.29 92.25 256.80 507.17 542.58 688.48 925.70 548.19 455.65 644.42 585.92 276.85 959.86 669.56 400.36 1041.89 760.29 406.37 618.05 784.81 511.67 408.36 269.85 616.80 350.65 502.83 725.16 330.62 613.18 255.92 989.66 393.21 458.05 219.10 583.75 242.99 280.91 571.56 335.91 1006.45 233.82 608.65 510.33 881.20 252.65 799.64 859.21 231.32 543.15 433.12 601.86 512.12 561.16 661.83 574.59 732.32 566.56 330.23 853.91 746.39 289.28 801.19 761.22 278.69 739.94 853.93 796.60 414.66 209.55 411.85 109.24 1077.25 410.09 1008.52 441.21 398.98 225.19 712.21 527.60 664.65 575.23 685.98 795.82 523.40 522.97 153.69 330.30 223.16 287.78 661.82 361.15 769.44 600.29 425.65 650.77 484.65 521.74 738.57 555.06 660.49 323.18 411.58 861.52 688.22 660.38 786.20 812.11 400.22 548.54 0.00 724.00 702.57 631.55 870.50 235.61 679.97 985.51 540.47 394.05 600.70 330.94 425.18 168.34 684.78 445.95 268.30 758.19 477.52 261.47 550.32
839.54 548.95 520.29 458.85 957.05 623.17 107.34 600.17 914.78 501.06 872.89 845.22 935.20 797.30 432.41 688.46 594.50 647.72 589.06 104.59 650.85 262.05 397.06 769.69 933.74 610.02 818.57 397.74 698.51 812.13 452.08 356.32 659.58 802.97 290.09 875.28 991.91 545.70 778.41 805.09 248.37 540.95 719.47 670.18 208.86 679.36 725.46 662.36 928.38 367.11 795.83 212.33 495.36 501.04 229.39 478.31 860.52 1028.59 574.94 542.56 874.34 765.91 692.40 381.69 601.47 719.16 559.73 953.38 258.73 633.22 778.15 693.33 556.78 693.75 745.87 684.18 321.10 777.87 584.28 1013.69 761.97 959.55 294.78 248.22 491.09 235.39 492.09 806.17 645.30 236.17 296.15 562.58 350.01 360.07 577.28 950.08 783.73 381.36 759.11 724.44 382.62 808.58 810.44 749.86 743.46 365.31 944.12 693.71 843.71 365.14 216.76 910.08 820.48 769.46 230.98 603.90 826.16 938.61 888.67 722.49 438.36 460.98 378.02 300.33 426.21 215.58 838.22 518.63 321.41 699.55 105.78 601.41 1002.67 624.38 166.94 275.88 1070.59 895.84 366.05 706.03 724.00 0.00 1055.37 831.66 460.95 881.92 169.87 859.05 327.52 458.11 957.84 963.26 639.20 765.65 161.41 983.19 583.56 885.23 948.51 533.00 305.88
939.10 679.38 639.57 672.44 528.60 900.37 1162.71 668.99 974.64 826.14 622.39 693.87 635.12 685.12 839.63 618.73 772.05 640.49 703.34 1099.63 820.02 1160.33 839.55 796.88 486.73 824.22 442.19 686.61 473.74 685.86 681.49 857.11 728.13 563.58 971.28 286.41 141.66 957.94 378.47 354.91 1055.94 615.93 944.13 805.75 1097.39 499.38 851.67 528.45 503.83 764.44 502.00 1006.29 646.06 797.83 1080.41 743.96 280.90 159.58 956.27 618.92 804.82 804.25 449.02 911.87 868.56 445.49 683.03 787.38 953.68 942.89 776.76 606.91 635.33 491.71 690.98 937.71 1025.92 710.93 800.00 289.27 408.33 181.87 760.59 832.57 758.56 957.94 829.05 407.36 941.69 1223.78 953.81 909.34 1002.39 998.63 924.04 322.38 649.82 966.03 464.39 829.31 802.21 723.18 905.57 391.56 811.16 961.18 511.54 585.59 491.78 719.21 922.16 228.49 516.46 563.96 994.09 584.67 699.22 522.88 634.30 919.42 793.59 791.22 976.98 1109.65 1034.67 915.97 365.09 562.16 1018.14 486.09 978.57 653.34 439.77 788.15 1105.86 1141.86 173.54 413.46 901.04 479.52 702.57 1055.37 0.00 357.49 948.69 835.09 988.25 716.10 797.98 863.85 208.45 928.76 522.49 870.52 1093.48 455.99 930.32 419.99 361.02 740.66 819.62
664.42 378.61 368.36 442.57 526.06 701.90 914.96 487.42 900.15 612.56 466.87 599.27 620.12 605.96 552.20 454.16 560.47 461.51 521.77 859.42 663.29 899.25 588.52 522.32 524.14 634.72 459.09 481.31 254.00 441.91 423.85 640.82 588.98 552.16 725.51 212.70 249.36 669.41 111.38 202.73 835.10 290.71 808.41 607.69 869.10 319.11 640.33 342.05 476.31 567.96 241.70 750.96 405.83 604.11 792.11 528.03 128.72 212.68 757.80 369.24 743.57 529.69 266.36 735.14 672.96 114.99 446.98 768.56 765.38 744.42 561.68 498.16 396.31 222.85 493.13 741.86 729.91 450.63 601.53 389.81 262.41 223.27 591.94 583.44 507.21 695.99 559.80 102.90 743.22 983.57 705.97 710.87 695.32 672.15 725.57 152.40 424.42 700.99 274.11 732.16 521.72 596.89 648.83 239.38 548.55 674.66 474.47 464.97 192.04 479.00 645.76 129.00 158.97 223.17 732.31 283.12 641.34 507.62 573.59 755.13 514.03 600.49 693.80 853.85 830.26 673.05 276.28 366.02 698.61 179.02 738.36 397.58 505.64 509.35 830.88 893.14 240.05 246.79 637.21 196.54 631.55 831.66 357.49 0.00 688.97 723.26 728.67 530.64 557.77 658.72 226.59 841.67 264.98 773.37 844.35 421.50 731.85 210.41 362.51 559.09 579.41
446.14 366.26 445.00 438.26 975.20 848.71 508.31 670.31 1103.03 672.33 486.70 953.72 971.89 927.90 518.53 709.18 741.00 725.05 635.96 485.31 843.82 670.31 474.92 416.94 988.05 764.39 832.40 437.31 670.09 368.71 372.88 497.57 785.78 884.72 604.36 771.17 820.90 87.80 601.50 713.39 578.75 464.94 1000.76 252.31 589.58 692.42 267.56 447.45 924.33 389.31 545.64 583.83 581.27 665.66 621.74 579.46 720.29 855.43 854.17 343.64 1005.84 413.56 671.80 648.04 859.54 573.98 663.64 1068.28 526.54 859.65 418.85 753.18 313.36 554.68 284.92 920.79 257.36 336.71 794.43 921.14 669.42 810.67 422.08 399.27 237.66 537.76 270.47 625.90 880.83 653.47 278.55 824.88 189.68 153.30 839.58 723.36 395.86 198.49 696.26 912.69 568.32 916.74 417.64 673.91 407.77 581.31 940.07 742.32 565.17 404.71 355.33 751.48 595.17 571.61 587.93 511.09 952.36 993.64 981.07 948.03 294.57 577.51 174.95 712.51 733.25 363.85 771.99 467.89 255.28 509.95 401.52 692.68 964.72 244.43 565.22 688.78 914.74 645.65 558.06 520.77 870.50 460.95 948.69 688.97 0.00 1043.11 291.08 415.58 344.41 682.20 787.60 1115.07 646.07 938.03 585.03 961.09 845.86 715.03 884.21 678.29 341.61
1292.03 824.42 685.62 638.62 362.05 378.40 952.49 372.80 218.45 447.08 1032.20 163.35 262.83 173.24 569.92 363.42 341.27 418.44 407.15 885.87 302.41 783.90 628.67 1150.99 380.04 391.88 405.45 676.95 555.85 992.15 762.22 669.52 304.86 293.64 658.05 663.22 792.72 1118.26 680.72 559.89 788.12 704.94 278.01 1093.95 839.58 478.07 1143.59 857.30 443.40 765.92 890.08 681.69 579.11 437.93 804.50 500.65 633.90 829.40 445.23 763.96 42.82 1143.62 551.22 591.94 292.55 689.02 413.24 92.49 729.64 372.03 1154.66 326.51 794.24 623.29 994.44 298.79 970.19 1032.27 353.43 545.82 565.48 675.73 715.69 764.73 834.94 764.71 897.82 620.36 393.21 966.64 933.00 407.14 994.96 972.99 405.69 872.30 963.15 968.35 550.03 169.58 590.35 126.37 1247.88 542.45 1144.54 571.15 427.66 338.15 830.08 709.55 835.20 707.59 797.01 853.50 679.02 673.93 170.82 343.61 273.03 299.75 844.90 542.94 982.05 722.40 543.51 854.34 583.61 660.28 916.15 624.99 776.14 494.73 426.72 995.61 817.32 802.37 879.98 923.14 604.49 642.51 235.61 881.92 835.09 723.26 1043.11 0.00 886.58 1117.87 741.29 536.69 654.99 166.76 538.14 210.79 797.51 493.52 397.25 857.76 572.46 444.47 761.98
737.22 430.32 383.04 362.75 929.03 676.52 217.23 528.99 919.33 474.23 753.59 803.19 895.15 784.40 351.93 626.19 588.78 612.56 494.64 194.23 655.40 379.23 301.94 642.17 919.33 570.50 722.47 301.64 623.09 647.66 395.07 297.53 587.72 752.27 340.79 822.24 908.13 378.88 675.33 713.50 287.67 437.96 786.14 516.56 298.50 663.34 558.64 528.51 855.61 231.88 661.98 295.35 452.61 492.68 330.66 477.95 755.50 941.35 646.82 439.53 864.52 634.80 649.65 431.30 606.02 616.17 556.54 881.52 235.46 683.92 669.16 653.18 464.64 566.01 576.00 733.43 176.18 616.66 596.49 932.47 680.75 848.00 255.60 157.12 326.62 246.68 358.24 703.18 693.17 378.09 126.28 651.90 233.38 251.53 641.63 780.21 649.88 247.51 686.66 728.99 390.81 766.21 701.90 703.78 657.25 393.95 850.65 624.22 711.19 269.04 82.91 772.83 683.81 635.61 307.14 500.91 754.30 921.68 848.62 748.38 304.51 404.53 229.88 421.43 529.64 83.06 785.18 426.09 174.27 572.38 110.44 562.23 922.42 509.44 274.14 397.70 968.72 761.99 370.71 589.90 679.97 169.87 988.25 728.67 291.08 886.58 0.00 706.66 190.27 468.98 850.03 917.01 586.16 770.20 293.95 910.42 631.24 759.01 857.41 505.31 168.63
231.86 444.77 554.28 668.08 987.34 1008.18 895.14 851.50 1272.36 858.56 105.82 1028.48 1024.02 1038.37 787.55 778.59 910.33 796.08 870.99 874.56 986.28 978.13 769.84 106.49 962.48 943.67 816.52 649.09 620.12 149.86 550.84 767.99 955.50 936.07 853.56 738.65 586.55 415.53 565.87 643.68 910.58 596.35 1144.36 251.72 939.98 689.50 235.77 285.27 898.76 552.80 288.94 807.27 623.30 848.31 930.08 723.65 659.36 623.23 1086.44 460.36 1138.18 113.86 632.88 920.48 979.76 490.00 817.16 1108.79 867.16 1102.26 84.48 822.59 452.50 557.76 172.04 1136.60 594.09 206.89 1002.57 850.17 598.45 682.74 715.80 701.40 470.90 852.59 438.10 537.81 1095.75 999.15 624.23 1066.43 538.95 498.98 1051.73 486.41 185.90 518.99 670.69 1082.02 780.03 991.50 189.47 575.42 119.17 853.75 913.13 811.73 364.75 626.30 665.75 598.48 391.73 322.83 788.62 565.35 1035.95 968.90 1028.08 1095.10 487.45 795.89 520.63 994.33 1024.12 704.33 673.50 607.03 598.82 513.03 756.85 716.65 940.55 257.06 897.30 996.60 648.09 302.64 811.24 530.55 985.51 859.05 716.10 530.64 415.58 1117.87 706.66 0.00 647.37 879.39 709.32 1236.28 648.89 1123.23 877.49 920.91 1062.12 382.14 831.63 814.93 643.74
741.70 293.01 236.05 172.48 749.85 555.11 378.28 415.52 762.05 327.92 665.78 676.53 725.97 606.59 174.12 477.86 410.97 455.18 403.99 363.34 513.79 430.36 144.56 599.48 737.30 444.42 532.20 111.37 447.35 509.07 257.76 166.22 476.05 619.44 284.39 650.08 717.86 426.65 507.12 556.95 346.73 301.97 670.40 521.08 367.05 491.18 572.25 440.70 718.30 94.57 574.17 262.18 303.30 322.65 323.22 287.68 608.51 754.54 527.92 249.26 756.48 595.70 480.87 319.03 538.49 442.78 395.60 769.85 270.76 574.10 607.94 514.43 279.54 407.38 475.33 616.12 259.17 527.12 478.82 757.07 505.35 657.73 77.67 79.30 188.03 230.49 258.52 529.79 570.09 425.80 206.94 494.52 312.24 276.76 509.22 705.24 531.59 288.78 496.39 571.71 223.91 639.55 722.33 528.38 573.25 285.43 734.04 511.00 558.85 78.77 124.18 582.56 536.82 542.52 280.83 331.15 642.63 731.41 700.92 632.42 189.31 247.15 255.11 409.97 402.89 132.02 613.02 235.82 282.18 413.18 255.22 384.30 794.28 439.56 351.19 424.25 796.90 662.95 213.65 430.70 540.47 327.52 797.98 557.77 344.41 741.29 190.27 647.37 0.00 377.98 684.31 770.72 414.00 593.62 340.21 755.36 515.50 661.15 755.66 347.93 21.64
1037.70 554.34 465.34 334.25 649.78 265.44 430.25 244.00 557.45 135.44 882.54 473.21 580.05 450.70 203.86 393.22 264.55 330.04 209.65 454.16 300.35 394.33 241.76 895.71 661.56 228.92 470.80 356.88 518.45 729.53 489.95 290.28 329.63 473.02 195.35 681.06 825.05 770.00 616.18 627.70 327.62 409.26 359.54 796.52 403.67 490.43 881.48 736.69 653.09 403.80 759.99 245.78 352.41 163.75 347.94 206.13 701.71 850.04 207.05 545.25 533.31 903.08 536.99 76.42 260.44 558.93 284.44 526.36 259.38 283.29 911.89 376.69 542.46 546.84 784.56 321.93 533.02 756.94 221.63 722.43 581.48 681.98 307.40 396.28 534.85 294.90 588.39 555.82 266.57 522.43 501.14 225.62 632.40 600.06 215.03 811.12 693.49 562.63 506.19 367.11 183.80 443.59 981.34 594.45 882.48 100.89 660.68 364.26 731.59 365.11 398.03 734.69 698.52 729.75 227.13 451.04 399.14 647.50 568.30 343.46 498.54 199.73 578.41 274.20 171.54 448.25 649.92 387.93 568.16 526.50 358.54 359.28 694.45 734.35 373.11 412.80 898.77 824.65 197.56 508.98 394.05 458.11 863.85 658.72 682.20 536.69 468.98 879.39 377.98 0.00 708.56 588.86 502.88 351.98 353.30 677.56 204.64 793.22 749.64 212.77 375.07
865.33 536.51 466.99 574.93 398.22 734.30 1013.59 528.22 843.96 636.82 603.50 549.29 426.67 578.22 651.36 453.24 603.38 483.47 510.25 983.83 696.83 1006.30 693.69 723.11 366.07 677.63 375.47 589.10 275.96 607.56 535.37 725.37 586.55 485.74 805.36 93.27 179.29 815.51 235.75 152.75 872.28 441.47 852.49 754.80 965.19 304.15 767.65 452.49 302.35 698.56 430.39 832.50 462.48 621.09 899.16 587.27 97.87 215.97 819.73 493.61 697.81 715.74 265.44 784.98 726.98 272.89 489.89 648.18 880.37 735.35 742.37 473.80 483.80 314.60 615.02 809.05 828.54 631.51 668.72 163.22 221.24 26.58 699.73 734.20 629.21 820.36 648.64 208.07 756.53 1110.11 817.49 778.06 793.95 827.29 784.71 326.15 571.52 806.16 266.03 727.97 601.57 563.13 849.62 208.53 738.19 771.45 318.09 486.38 418.63 612.06 796.52 120.85 385.56 441.21 851.15 381.75 607.58 397.45 473.20 822.32 623.61 652.75 839.86 965.53 880.10 816.33 194.15 464.65 892.73 277.65 862.77 455.56 352.70 712.19 970.58 1000.19 224.99 467.90 717.06 276.39 600.70 957.84 208.45 226.59 787.60 654.99 850.03 709.32 684.31 708.56 0.00 785.48 329.35 769.04 957.55 247.54 795.10 401.19 152.57 566.31 681.40
1355.27 910.68 748.86 717.60 470.21 340.09 1003.09 476.75 58.48 555.92 1150.61 274.83 373.11 273.83 631.22 481.83 394.37 536.85 479.11 936.47 377.05 863.14 667.65 1266.25 490.95 468.62 486.57 776.45 674.26 1110.56 851.57 726.57 329.29 405.12 689.98 746.99 904.20 1197.37 799.13 671.37 780.69 823.35 345.39 1179.81 880.14 596.48 1262.00 975.71 483.13 831.25 1008.49 760.93 697.52 551.37 823.68 604.60 745.38 940.88 425.52 850.22 123.94 1262.03 651.91 636.97 371.79 807.43 492.22 218.40 795.31 419.30 1251.20 444.92 880.50 741.70 1112.85 317.07 1029.89 1096.25 432.67 678.69 683.89 794.14 774.25 822.17 918.20 829.32 988.69 738.77 422.14 899.53 977.66 400.68 1065.15 1025.18 390.50 990.71 1081.56 1033.68 650.62 248.82 669.33 244.78 1366.29 660.86 1258.86 638.93 498.87 456.56 948.49 792.47 894.90 826.00 915.42 971.91 754.92 774.52 289.23 451.77 391.44 292.32 925.99 598.19 1006.48 764.69 537.05 902.74 688.83 779.45 975.61 743.40 923.49 588.05 495.37 1081.47 858.46 858.52 998.32 1041.55 665.09 757.95 330.94 963.26 928.76 841.67 1115.07 166.76 917.01 1236.28 770.72 588.86 785.48 0.00 656.55 236.88 876.75 537.94 400.89 976.17 690.87 534.13 792.36
795.06 313.96 255.59 288.46 446.70 530.73 721.10 290.00 698.15 367.44 590.33 417.47 430.06 458.64 359.53 233.13 342.73 228.48 324.35 654.48 445.55 717.90 433.55 652.84 421.62 416.98 217.16 302.63 59.31 529.57 314.82 449.46 360.65 287.18 558.16 236.08 415.35 704.37 153.60 182.52 697.67 209.77 576.76 635.46 699.13 77.18 713.26 415.43 364.36 443.92 428.99 598.64 186.57 339.13 708.72 302.20 252.15 421.36 582.45 314.27 558.45 660.21 92.83 512.53 485.51 227.93 249.56 583.44 595.41 587.44 692.20 239.89 332.71 145.92 552.57 584.88 673.17 580.82 444.55 395.75 144.03 340.62 413.26 448.59 422.52 526.02 493.01 213.96 586.24 839.80 596.94 553.89 635.56 595.59 565.30 417.38 521.28 605.98 143.02 514.42 388.16 411.77 779.35 141.49 662.14 514.03 380.10 199.99 360.81 335.23 538.18 303.58 327.74 437.95 604.46 146.82 456.22 460.80 383.53 584.82 410.80 410.41 602.58 710.31 596.36 503.10 199.02 178.18 672.18 183.12 533.42 149.05 440.34 605.79 715.48 736.37 505.03 453.87 451.21 165.60 425.18 639.20 522.49 264.98 646.07 538.14 586.16 648.89 414.00 502.88 329.35 656.55 0.00 555.63 709.50 403.96 554.91 410.93 359.00 351.94 435.64
1209.91 726.55 637.16 551.77 479.63 167.61 782.23 347.61 231.55 378.78 1049.18 272.57 384.73 214.41 449.75 400.43 212.90 414.38 317.94 716.49 140.17 655.53 476.86 1075.47 489.26 251.08 428.72 602.77 546.84 973.37 693.47 534.98 260.59 306.94 510.92 700.02 849.26 1015.18 709.23 616.43 588.71 646.15 108.51 1035.65 664.26 568.70 1055.30 857.53 490.28 683.75 909.33 553.32 523.92 369.90 631.70 472.95 671.17 885.94 248.78 666.09 242.15 1082.84 561.55 428.40 164.18 708.27 326.39 240.89 574.95 208.26 1092.30 360.57 696.37 642.76 964.60 136.56 841.82 937.35 218.89 672.69 568.28 770.20 583.46 631.38 752.37 636.34 822.86 726.18 229.44 806.04 795.69 207.44 884.59 844.62 196.85 908.28 937.33 856.45 583.00 41.21 453.04 259.69 1201.98 578.43 1074.73 416.46 506.02 367.29 849.33 585.60 706.83 743.57 816.26 879.22 550.79 606.37 231.32 498.07 389.43 119.44 769.63 374.27 843.64 541.72 343.81 718.06 599.14 559.75 817.40 644.24 710.52 406.58 488.50 954.84 621.58 665.28 954.54 942.39 483.62 657.26 168.34 765.65 870.52 773.37 938.03 210.79 770.20 1123.23 593.62 351.98 769.04 236.88 555.63 0.00 641.39 545.09 186.46 926.53 640.11 350.38 610.17
956.37 588.48 532.98 482.90 937.28 570.28 157.60 564.06 818.27 427.21 885.58 805.27 859.19 721.60 392.77 668.20 555.28 655.37 553.78 114.72 554.34 100.64 344.75 870.65 914.19 523.24 790.86 447.72 726.81 824.82 544.76 285.83 620.36 763.75 250.73 924.22 1037.63 646.02 787.48 804.80 110.97 553.64 652.62 718.77 62.49 734.18 802.53 766.66 943.58 409.78 890.09 190.79 548.72 455.52 67.98 497.12 878.81 1055.24 522.05 589.47 777.83 866.87 745.76 339.50 504.96 731.85 576.93 879.66 171.99 583.15 879.11 671.79 583.82 712.00 767.43 608.80 395.61 814.56 562.74 1014.20 811.53 977.84 359.39 260.91 503.78 202.87 554.76 818.86 575.15 169.13 373.10 509.69 450.33 481.39 523.61 994.31 850.42 485.66 801.39 627.93 399.82 768.29 924.07 803.22 844.42 330.48 951.41 677.22 866.82 418.98 321.06 922.77 833.75 846.80 209.44 616.59 752.44 938.23 860.10 599.34 466.33 434.79 459.74 237.20 373.32 270.84 880.73 531.32 442.55 718.32 222.61 598.83 983.12 620.43 19.81 119.11 1084.40 959.88 347.01 718.72 684.78 161.41 1093.48 844.35 585.03 797.51 293.95 877.49 340.21 353.30 957.55 876.75 709.50 641.39 0.00 934.50 513.22 931.71 961.20 512.69 318.57
1085.92 717.92 630.04 582.88 150.68 621.65 1017.69 463.90 596.42 589.04 841.88 335.22 242.61 330.68 637.43 330.19 466.68 347.52 467.91 1037.23 540.33 979.09 658.14 943.82 118.53 540.93 295.58 667.90 359.86 803.71 657.07 676.30 401.60 292.96 799.48 209.05 418.92 957.55 445.61 324.92 920.03 596.43 653.60 929.87 936.25 326.78 973.90 700.03 54.81 678.54 663.20 820.26 523.38 578.75 938.08 533.31 292.78 449.75 685.26 678.06 457.76 939.02 326.34 751.22 534.37 473.09 423.46 452.77 855.97 673.34 944.19 339.26 665.78 437.20 826.11 657.34 940.02 826.42 560.03 200.07 322.46 274.12 733.58 799.26 757.68 797.23 808.10 409.89 652.16 1095.90 867.91 638.33 951.99 926.16 623.63 538.35 808.43 880.97 282.88 542.53 600.57 371.84 1069.77 345.49 961.47 705.02 70.55 363.33 596.26 676.59 863.88 368.39 563.19 643.03 801.61 550.78 382.24 149.91 246.37 663.46 700.77 616.28 924.92 929.00 774.70 830.07 309.93 582.14 932.24 470.27 935.95 426.95 105.16 875.58 942.32 997.56 472.53 668.29 716.06 458.37 445.95 983.19 455.99 421.50 961.09 493.52 910.42 920.91 755.36 677.56 247.54 537.94 403.96 545.09 934.50 0.00 634.02 631.91 164.87 523.97 777.00
1161.28 681.70 588.35 490.58 580.16 60.80 622.98 316.22 359.86 254.91 1037.76 395.49 493.45 359.67 381.46 392.69 212.18 401.41 284.85 556.36 188.60 497.29 370.94 1037.91 610.95 137.93 488.13 534.48 585.46 912.26 663.58 414.34 253.07 417.62 341.89 706.62 907.81 900.45 703.23 674.98 402.25 609.07 154.90 968.37 501.70 565.91 1025.37 812.68 599.86 583.64 896.81 402.92 438.82 283.22 445.24 399.16 743.81 940.61 62.32 621.24 373.26 1045.28 575.69 268.38 163.11 695.75 325.67 427.35 424.75 78.65 1064.57 394.64 651.52 611.36 963.88 117.29 683.32 932.16 130.32 763.15 645.26 811.16 477.54 503.17 618.50 486.86 688.99 751.18 61.93 682.35 651.44 20.98 770.77 750.36 10.39 884.25 893.25 712.93 578.41 227.67 379.91 365.87 1099.07 633.15 1029.88 290.75 584.12 413.73 836.81 542.71 548.33 798.29 803.74 878.50 392.85 588.86 321.42 595.13 490.58 138.93 675.41 345.68 728.71 384.58 157.35 592.78 605.74 552.20 710.59 631.72 563.18 405.86 655.89 870.03 512.12 478.82 954.56 929.87 309.31 649.24 268.30 583.56 930.32 731.85 845.86 397.25 631.24 1062.12 515.50 204.64 795.10 400.89 554.91 186.46 513.22 634.02 0.00 911.37 741.77 313.62 504.25
605.14 395.90 425.10 568.20 659.45 850.57 960.22 644.34 1034.65 709.36 299.58 768.37 732.33 740.74 688.84 585.07 722.94 521.89 626.52 893.60 825.76 960.13 703.25 462.92 652.74 796.83 497.81 569.75 416.74 379.72 433.15 761.69 718.06 694.77 817.59 423.11 297.09 630.34 257.33 380.29 820.74 432.18 961.72 580.01 920.19 453.61 578.14 293.18 598.10 594.34 179.51 853.73 551.78 681.05 863.73 634.15 339.13 260.41 924.37 431.95 860.44 470.29 412.31 858.72 807.01 253.97 609.45 903.06 832.30 927.88 453.95 629.07 401.67 341.08 440.23 925.32 748.17 388.44 784.99 564.41 404.60 374.61 665.17 697.17 524.50 841.94 554.90 237.40 926.68 1079.24 715.27 894.33 694.75 654.78 900.98 116.71 385.57 677.08 420.06 894.63 639.05 731.39 571.61 393.87 477.20 791.99 582.36 602.18 152.97 602.35 716.99 291.56 124.33 164.29 872.38 389.24 775.84 641.01 719.54 938.59 560.80 717.82 633.13 920.28 961.58 745.87 438.58 483.35 745.08 296.35 861.71 534.01 654.13 552.88 930.61 962.91 308.09 79.50 754.54 313.87 758.19 885.23 419.99 210.41 715.03 857.76 759.01 382.14 661.15 793.22 401.19 976.17 410.93 926.53 931.71 631.91 911.37 0.00 490.19 682.58 639.51
980.66 631.64 570.30 613.74 263.45 708.75 1050.95 505.64 737.47 662.79 749.07 440.10 395.93 448.80 700.03 369.41 541.64 432.59 539.99 984.33 627.43 1054.05 740.27 838.44 254.83 615.89 278.84 661.63 335.03 752.29 632.24 779.81 488.70 333.17 834.28 149.81 276.19 918.82 353.08 246.75 954.96 528.52 748.62 838.47 1015.58 321.77 911.10 605.06 216.63 784.05 568.02 865.16 516.92 634.48 987.97 606.07 233.79 312.87 792.61 601.13 590.99 831.07 319.88 748.52 629.13 400.94 498.14 551.93 897.71 760.44 865.43 413.02 570.85 365.05 750.41 730.17 931.85 767.43 636.65 78.40 250.31 179.15 765.06 700.29 720.71 884.53 791.20 350.65 739.26 1130.33 885.52 745.99 897.26 914.34 751.71 373.48 719.12 922.10 288.15 598.90 650.24 446.09 964.95 267.41 853.52 779.70 204.68 402.55 498.30 693.66 840.12 273.42 465.23 537.42 872.03 485.06 462.05 281.89 349.40 711.95 726.92 690.96 935.99 946.30 871.32 789.90 169.33 537.18 894.82 380.96 892.42 508.05 204.32 864.76 979.10 1072.52 377.56 528.99 765.73 363.44 477.52 948.51 361.02 362.51 884.21 572.46 857.41 831.63 755.66 749.64 152.57 690.87 359.00 640.11 961.20 164.87 741.77 490.19 0.00 577.31 757.95
947.32 463.96 341.16 276.27 496.41 280.11 585.50 71.67 496.62 85.48 812.89 355.08 454.56 348.00 184.97 232.69 155.36 176.45 56.06 601.05 210.21 536.99 203.37 820.17 503.57 175.69 298.47 337.99 333.30 665.07 430.16 262.29 204.84 363.83 296.45 508.73 689.34 737.50 458.68 456.51 464.73 343.48 402.76 763.10 496.78 327.59 839.24 594.94 480.56 381.09 671.63 374.21 191.63 57.17 466.42 181.83 504.63 696.66 300.49 403.50 425.94 827.54 366.82 289.19 259.59 474.18 112.11 488.38 401.78 311.12 833.00 196.11 430.63 428.48 735.58 354.86 592.45 688.55 214.53 529.46 417.71 592.89 309.97 357.89 476.87 365.04 547.36 496.42 304.61 610.25 493.03 319.41 550.49 590.46 324.01 711.49 685.83 582.96 333.86 327.05 150.38 318.10 931.13 415.35 812.14 250.28 496.30 213.58 615.24 346.22 458.28 580.49 582.17 675.53 361.26 376.44 362.55 514.85 460.18 349.48 475.83 155.57 570.15 432.76 355.86 447.50 477.59 305.01 568.27 410.15 493.70 202.89 522.12 715.46 528.31 555.46 751.59 708.30 250.37 427.67 261.47 533.00 740.66 559.09 678.29 444.47 505.31 814.93 347.93 212.77 566.31 534.13 351.94 350.38 512.69 523.97 313.62 682.58 577.31 0.00 336.68
763.34 313.81 214.41 194.12 771.49 541.72 385.86 408.35 783.69 331.76 673.48 682.81 736.20 628.23 195.76 499.50 432.61 443.93 392.74 341.70 533.69 419.21 133.31 621.12 758.94 422.78 553.84 133.01 454.46 506.25 279.40 155.96 479.97 641.08 262.75 664.97 739.50 405.01 506.70 577.67 325.09 294.26 659.15 535.08 345.41 512.82 584.77 462.34 739.94 116.21 595.81 283.82 324.94 324.05 337.58 309.32 586.87 774.46 516.67 270.90 762.62 617.34 487.98 307.78 543.48 464.42 405.38 773.77 278.24 570.29 629.58 503.18 296.01 429.02 471.70 604.87 255.77 523.49 472.05 778.71 526.99 679.37 99.31 57.66 185.21 208.85 255.70 551.43 566.18 447.44 228.58 483.27 290.60 255.12 497.97 709.69 542.29 277.42 518.03 593.35 228.27 654.78 705.49 536.64 594.89 274.18 755.68 524.22 548.25 100.41 145.82 604.20 515.18 558.99 302.47 346.39 646.55 753.05 689.67 625.65 210.95 235.90 233.47 431.61 391.64 147.27 634.66 257.46 285.88 403.75 269.64 405.94 815.92 436.74 329.55 437.68 818.54 641.31 222.29 421.27 550.32 305.88 819.62 579.41 341.61 761.98 168.63 643.74 21.64 375.07 681.40 792.36 435.64 610.17 318.57 777.00 504.25 639.51 757.95 336.68 0.00
DEMAND_SECTION
1 0
2 7
3 7
4 7
5 9
6 9
7 5
8 10
9 8
10 8
11 5
12 6
13 7
14 10
15 8
16 5
17 8
18 8
19 9
20 7
21 5
22 6
23 10
24 9
25 8
26 5
27 7
28 9
29 10
30 7
31 7
32 5
33 5
34 10
35 7
36 6
37 5
38 6
39 5
40 9
41 9
42 10
43 10
44 7
45 7
46 8
47 9
48 10
49 6
50 9
51 10
52 5
53 7
54 10
55 7
56 7
57 6
58 10
59 9
60 9
61 7
62 9
63 5
64 10
65 8
66 9
67 7
68 10
69 8
70 6
71 6
72 10
73 9
74 5
75 7
76 7
77 6
78 10
79 5
80 10
81 7
82 10
83 7
84 5
85 9
86 10
87 8
88 10
89 6
90 6
91 7
92 5
93 5
94 7
95 10
96 10
97 5
98 6
99 7
100 7
101 10
102 6
103 10
104 6
105 9
106 8
107 7
108 6
109 10
110 9
111 9
112 6
113 8
114 6
115 6
116 9
117 10
118 6
119 7
120 6
121 7
122 6
123 7
124 5
125 7
126 6
127 8
128 10
129 9
130 7
131 6
132 10
133 6
134 9
135 9
136 7
137 8
138 7
139 8
140 9
141 10
142 7
143 6
144 6
145 6
146 7
147 8
148 7
149 8
150 8
151 10
152 9
153 7
154 10
155 9
156 8
157 5
158 7
159 5
160 7
161 10
DEPOT_SECTION
1
-1
EOF
