NAME: LDG105_3326_rain_105_0028
COMMENT: CVRP with travel times.  rootPos=3,custPos=3,demandType=2,avgRouteSizeIndex=6,weather=rain,lambda_cluster=1,lambda_random=4, T1=300,T2=700,beta=1, alpha(i,j) ~ U(0.8,1.2)
TYPE: CVRP
DIMENSION: 106
EDGE_WEIGHT_TYPE: EXPLICIT
EDGE_WEIGHT_FORMAT: FULL_MATRIX
CAPACITY: 198
NODE_COORD_SECTION
1 0 0
2 295 205
3 249 324
4 35 686
5 221 403
6 634 425
7 145 854
8 332 317
9 158 425
10 38 376
11 320 334
12 675 405
13 281 254
14 463 102
15 391 289
16 346 226
17 530 488
18 70 904
19 195 281
20 267 773
21 444 685
22 342 456
23 276 237
24 127 961
25 386 267
26 120 410
27 506 579
28 869 917
29 645 137
30 802 45
31 306 217
32 710 854
33 127 418
34 320 270
35 306 64
36 693 645
37 140 372
38 562 335
39 356 548
40 949 308
41 711 85
42 267 820
43 55 423
44 175 331
45 180 502
46 200 188
47 279 322
48 486 781
49 478 759
50 247 568
51 7 336
52 81 525
53 58 369
54 262 490
55 515 420
56 125 309
57 172 182
58 108 341
59 423 41
60 295 267
61 317 507
62 927 0
63 135 341
64 775 882
65 338 871
66 274 243
67 810 929
68 280 433
69 581 808
70 103 885
71 176 471
72 254 272
73 510 179
74 212 481
75 906 114
76 234 390
77 346 249
78 139 591
79 896 916
80 871 200
81 293 276
82 193 184
83 898 489
84 263 835
85 295 254
86 614 271
87 293 225
88 239 757
89 135 436
90 131 244
91 130 222
92 200 303
93 414 157
94 219 393
95 322 379
96 660 655
97 294 358
98 358 499
99 874 459
100 386 186
101 222 143
102 139 304
103 100 378
104 243 248
105 276 177
106 300 607
EDGE_WEIGHT_SECTION
0.00 436.87 473.49 703.90 586.71 830.98 987.00 512.78 580.60 534.01 534.14 886.73 456.46 513.32 560.31 505.54 734.02 1014.76 462.47 918.29 883.67 644.96 456.46 1043.60 557.09 551.48 839.52 1284.47 762.24 1049.34 465.52 1153.63 558.14 483.33 502.24 1036.17 512.91 758.64 665.67 1137.11 897.71 991.67 571.78 518.84 613.41 318.50 483.54 974.14 952.37 692.86 514.79 522.40 489.57 659.39 737.76 493.27 331.17 499.63 613.51 458.90 586.31 1097.78 503.20 1292.50 992.80 440.34 1311.08 642.23 1067.22 959.65 601.90 413.83 611.71 628.22 1036.00 573.27 489.46 657.21 1335.45 1033.73 449.36 340.79 1124.10 968.33 473.52 762.17 457.54 876.00 565.20 361.53 399.49 461.91 555.39 582.88 551.73 1016.51 521.32 655.24 1075.86 585.89 372.42 454.41 489.66 425.36 384.36 707.83
436.87 0.00 150.46 566.95 214.63 438.67 724.29 144.54 304.25 327.56 177.75 478.22 76.97 212.90 139.63 68.67 453.39 725.60 158.10 619.35 564.31 289.44 43.62 843.46 120.22 284.05 471.28 948.87 461.82 681.10 28.65 777.48 265.32 103.60 231.10 679.16 268.90 351.16 359.87 762.53 462.54 634.76 353.56 205.42 361.70 161.32 141.74 691.56 672.84 393.92 365.15 419.87 283.12 308.61 351.13 254.33 169.64 267.24 276.48 76.34 343.82 779.16 225.71 910.19 734.00 60.85 879.39 285.63 724.15 747.40 301.24 114.89 256.29 322.48 702.30 193.26 85.32 448.99 999.85 605.35 81.12 146.23 759.10 660.02 58.09 356.21 48.65 603.82 308.51 189.55 181.30 173.13 130.16 214.57 201.78 648.27 174.76 344.37 730.79 159.75 159.94 226.21 293.76 91.69 52.51 425.25
473.49 150.46 0.00 481.20 113.22 413.61 622.18 106.59 206.66 253.60 78.34 470.82 124.80 361.61 189.78 184.21 402.24 718.72 92.52 517.24 450.63 229.87 106.84 769.79 210.21 213.35 433.33 941.08 507.58 707.94 154.12 723.75 233.03 112.80 325.21 641.37 185.37 389.86 308.09 796.63 584.27 577.02 287.72 126.35 245.10 191.27 48.69 541.10 562.49 291.81 270.28 299.70 265.03 185.90 344.97 149.69 202.00 193.82 392.69 104.73 228.73 843.12 163.57 819.01 635.22 119.85 881.20 204.46 646.50 677.04 199.83 59.66 333.86 193.48 785.45 106.26 162.89 353.71 992.06 679.56 107.96 168.98 694.22 588.32 122.98 467.60 133.59 478.56 225.88 171.67 180.96 62.63 273.25 130.81 121.85 599.63 96.02 270.88 723.39 249.06 236.50 131.34 231.62 93.99 201.51 274.79
703.90 566.95 481.20 0.00 374.03 756.64 283.10 523.29 383.94 392.28 491.06 795.42 548.05 754.02 588.66 605.42 575.11 331.96 484.51 339.93 460.88 476.42 536.29 385.04 610.03 317.32 606.40 942.93 924.28 1110.24 569.19 725.60 337.00 552.54 747.52 722.78 409.20 699.69 435.73 1119.56 994.99 409.70 349.62 444.03 284.78 570.99 466.66 551.35 571.23 314.75 378.79 181.50 370.56 389.64 656.99 410.78 603.93 413.52 746.93 525.28 406.56 1216.52 382.81 846.62 491.43 542.04 883.05 432.43 551.29 276.85 309.70 515.11 751.18 296.94 1189.28 376.93 602.63 155.82 993.91 1118.87 510.26 570.91 978.25 434.96 508.86 782.79 564.85 294.03 349.60 524.48 546.83 473.35 654.32 352.38 482.18 714.30 463.80 475.49 955.60 651.36 620.80 431.60 379.14 534.43 619.46 285.04
586.71 214.63 113.22 374.03 0.00 476.47 548.79 192.56 93.44 207.02 158.42 480.63 199.07 401.70 252.50 252.14 394.92 605.50 153.78 443.94 426.15 164.70 183.97 672.01 257.71 127.10 406.78 876.21 592.29 776.10 216.87 692.72 144.04 202.05 416.79 575.46 165.60 445.97 237.77 797.98 659.44 466.62 201.47 113.31 147.07 276.86 113.38 533.61 495.40 218.51 280.08 213.59 205.93 118.81 303.71 162.68 282.00 160.41 447.36 174.79 174.21 927.83 137.42 836.64 580.70 189.72 850.17 110.85 639.01 563.82 86.61 172.88 397.90 120.18 854.50 23.65 252.14 240.49 927.19 748.61 176.12 282.20 701.27 491.88 156.54 408.76 212.53 422.85 112.66 246.84 252.79 137.80 301.04 21.65 128.90 533.72 109.15 219.63 723.25 305.02 310.29 177.74 135.71 207.21 267.14 268.07
830.98 438.67 413.61 756.64 476.47 0.00 811.19 374.96 551.99 635.17 335.27 57.21 456.75 462.40 371.59 403.20 192.03 837.92 497.03 683.50 410.08 427.74 447.05 842.20 318.45 570.25 253.26 742.48 491.05 500.80 432.68 532.52 589.93 415.86 530.28 310.57 560.78 210.79 420.92 383.02 355.58 639.15 644.62 522.89 471.86 544.43 389.48 510.98 472.77 482.19 651.85 669.84 631.21 468.77 268.37 551.77 519.59 590.80 556.31 437.87 470.55 608.70 559.97 655.23 629.95 452.17 689.97 438.07 506.13 867.89 521.18 455.58 364.01 523.48 526.14 452.82 416.78 600.82 793.46 420.25 438.38 552.61 367.43 636.69 419.62 277.43 454.40 647.13 586.41 576.18 553.65 467.14 409.99 477.37 347.57 352.31 384.54 411.88 309.78 357.18 580.08 512.91 608.03 437.57 491.18 548.38
987.00 724.29 622.18 283.10 548.79 811.19 0.00 619.60 493.47 572.57 622.82 774.67 674.54 823.33 684.44 739.79 664.78 117.25 643.67 209.59 483.01 478.44 680.67 147.61 721.09 547.09 557.93 824.93 1020.59 1207.03 715.67 696.95 527.41 681.73 887.66 669.53 564.07 716.12 484.66 1067.89 1061.37 179.58 601.73 586.32 480.32 738.42 638.60 422.74 384.53 330.37 645.63 464.60 571.48 485.29 752.36 617.20 749.15 573.30 925.56 654.47 452.07 1263.13 569.31 724.03 300.44 669.59 803.07 537.89 528.14 62.14 484.27 609.40 876.77 428.70 1163.34 551.69 723.52 394.65 866.74 1057.45 669.49 716.13 911.88 204.84 672.72 813.60 683.33 164.06 527.89 706.90 714.14 630.57 829.08 527.14 575.91 630.58 629.05 510.69 882.49 780.02 786.24 618.10 501.26 643.73 756.51 367.83
512.78 144.54 106.59 523.29 192.56 374.96 619.60 0.00 227.12 345.56 47.13 432.17 108.25 322.78 97.87 124.68 340.64 736.85 171.34 505.01 460.98 159.89 116.95 767.21 110.48 293.74 326.74 891.09 400.99 663.40 149.34 691.37 277.72 89.06 272.05 569.93 272.64 283.27 293.46 757.98 523.61 589.94 365.96 231.20 292.87 194.28 97.79 589.85 551.64 289.23 376.87 387.61 301.12 242.31 238.38 236.63 232.05 293.69 359.75 77.24 229.75 736.53 247.28 831.11 621.69 106.67 848.82 179.61 579.61 681.74 268.81 122.31 274.89 241.25 708.05 173.37 103.92 405.33 942.07 602.16 63.42 216.57 661.84 579.00 95.49 367.87 141.69 474.27 261.54 276.65 240.79 169.22 213.43 170.91 89.47 528.19 86.50 214.82 666.10 197.70 248.20 237.93 309.99 135.13 197.05 351.27
580.60 304.25 206.66 383.94 93.44 551.99 493.47 227.12 0.00 158.52 216.72 574.07 267.41 491.32 324.99 301.27 438.99 582.57 187.74 375.31 438.98 258.14 268.52 635.65 329.83 66.62 440.34 940.13 628.11 834.67 305.69 786.16 50.60 255.17 425.80 613.12 72.16 510.39 295.49 888.90 679.49 445.08 138.84 106.54 109.54 274.61 162.51 529.45 538.84 189.11 222.97 202.44 139.01 162.25 397.15 134.32 307.55 132.84 533.39 227.91 216.63 963.65 86.43 811.17 537.48 251.29 870.65 204.29 634.85 527.46 81.68 217.73 476.23 90.78 903.35 117.09 305.26 228.20 965.31 797.46 234.69 274.53 778.08 470.34 246.16 502.20 291.66 329.41 34.42 219.07 257.03 157.85 387.07 115.09 205.71 577.16 202.59 232.19 765.67 375.79 324.42 135.22 109.96 247.69 348.23 263.14
534.01 327.56 253.60 392.28 207.02 635.17 572.57 345.56 158.52 0.00 331.94 687.65 298.79 538.71 411.18 374.44 538.76 617.99 216.95 533.83 529.51 365.88 283.94 675.80 400.75 127.60 566.58 1030.66 727.32 923.20 331.22 863.19 107.92 334.20 441.28 735.60 134.12 512.10 404.76 968.45 752.35 596.40 79.06 186.69 254.30 283.86 302.29 655.69 657.66 347.63 73.06 210.78 44.44 281.07 485.04 161.12 278.83 127.52 569.79 325.21 367.14 1041.21 139.36 969.69 656.74 287.62 961.18 281.32 761.09 567.61 207.92 286.61 547.41 249.30 965.31 230.67 376.44 301.16 1081.64 859.42 323.22 261.57 908.29 621.66 311.37 609.58 334.22 487.93 146.85 215.14 237.81 230.71 457.72 210.16 335.92 693.86 294.80 390.71 868.09 459.85 311.46 122.26 71.31 310.83 378.62 389.38
534.14 177.75 78.34 491.06 158.42 335.27 622.82 47.13 216.72 331.94 0.00 392.48 121.48 340.74 145.00 147.65 323.90 716.80 161.76 517.88 477.79 199.88 134.13 770.43 136.94 283.34 373.87 874.35 448.12 708.78 173.35 714.35 267.32 105.07 319.18 573.47 225.51 330.40 271.18 718.29 570.74 557.13 355.56 187.62 245.74 238.74 54.21 567.57 529.36 292.45 348.62 340.48 295.94 205.08 285.51 218.93 266.81 271.11 400.70 106.22 218.30 783.66 224.70 875.61 623.75 116.90 871.80 132.48 626.65 684.96 237.41 120.31 290.20 194.12 755.18 136.14 119.23 374.19 925.33 649.29 108.80 233.79 694.01 531.87 124.47 394.33 141.01 514.26 251.14 240.91 218.38 131.87 260.56 160.69 121.64 575.32 49.27 192.54 645.05 215.66 275.89 209.68 272.76 146.06 163.08 339.82
886.73 478.22 470.82 795.42 480.63 57.21 774.67 432.17 574.07 687.65 392.48 0.00 510.31 405.19 428.80 433.45 220.31 784.66 554.24 630.24 356.82 471.46 496.85 870.48 375.66 601.93 257.04 737.59 458.44 443.59 449.57 543.80 582.25 454.81 552.69 321.85 611.22 268.00 456.62 325.81 342.82 642.93 670.49 573.19 529.07 575.68 446.69 528.38 490.17 539.40 709.06 694.22 654.58 497.05 211.16 608.98 576.80 641.04 505.71 482.07 509.89 551.49 617.18 635.80 602.59 509.38 701.25 495.28 509.91 836.81 567.24 472.90 306.80 580.69 583.35 456.98 404.72 650.95 788.57 477.46 495.59 586.38 310.22 640.47 476.83 220.22 481.91 610.61 593.29 633.39 610.34 524.35 398.87 481.53 404.78 363.59 441.75 466.06 252.57 414.39 600.07 570.12 616.34 494.78 530.73 532.66
456.46 76.97 124.80 548.05 199.07 456.75 674.54 108.25 267.41 298.79 121.48 510.31 0.00 287.55 146.93 102.94 414.25 648.63 124.40 569.60 528.56 244.71 33.35 776.05 142.08 265.03 434.99 964.70 460.19 644.81 60.74 758.95 282.02 69.95 276.65 602.19 226.96 358.46 370.37 752.26 520.56 601.11 332.75 186.18 302.73 137.96 108.09 665.90 636.46 344.17 320.42 382.29 272.85 294.90 321.55 218.04 175.73 227.39 315.00 42.69 302.44 779.88 180.98 912.34 689.27 16.12 916.40 247.55 687.86 703.74 285.68 65.14 277.87 251.11 729.08 197.82 106.90 406.10 1015.68 639.62 44.83 145.82 725.45 626.37 42.53 399.47 49.37 559.09 252.08 199.89 202.58 139.59 206.60 199.01 157.05 609.42 139.09 299.64 712.68 185.93 190.62 181.48 249.03 49.75 113.06 399.59
513.32 212.90 361.61 754.02 401.70 462.40 823.33 322.78 491.32 538.71 340.74 405.19 287.55 0.00 258.90 216.16 488.99 911.44 371.00 676.76 694.39 479.81 254.77 970.94 212.30 471.12 591.36 1039.44 248.92 545.88 241.55 869.56 478.22 271.60 183.72 727.04 463.83 371.08 531.20 623.79 384.39 769.03 545.49 418.32 548.77 313.25 328.81 807.94 769.73 574.73 565.36 606.94 494.27 517.64 478.15 439.39 348.51 480.14 102.23 263.41 481.32 584.46 436.29 1032.08 864.37 271.43 1027.01 452.15 797.21 885.47 488.31 308.48 98.39 521.88 522.68 406.16 221.51 636.06 1023.15 553.27 266.18 335.54 715.41 781.03 245.16 296.69 261.55 722.66 514.36 395.65 394.20 381.92 177.89 401.64 361.65 768.78 361.83 464.47 657.76 125.08 259.33 436.79 504.34 302.84 265.41 602.84
560.31 139.63 189.78 588.66 252.50 371.59 684.44 97.87 324.99 411.18 145.00 428.80 146.93 258.90 0.00 87.71 319.18 770.51 223.84 579.50 503.38 236.36 144.70 823.59 53.14 335.27 424.61 869.63 407.94 634.78 110.98 656.15 354.95 76.98 255.76 647.26 333.90 211.53 272.30 727.13 425.74 620.04 409.64 273.32 390.74 250.12 169.64 638.13 599.92 354.07 406.19 466.09 384.20 299.16 318.99 292.47 262.85 349.53 326.33 104.24 283.99 743.48 303.12 776.39 690.48 150.45 813.60 255.14 677.48 715.40 331.49 149.31 255.13 339.12 696.72 230.22 91.58 433.80 920.61 590.83 119.26 255.74 679.67 645.30 117.27 309.01 126.84 550.74 359.41 280.37 272.34 218.01 180.01 236.28 187.34 605.52 143.35 291.29 681.37 133.82 261.48 315.33 339.87 169.90 192.14 405.51
505.54 68.67 184.21 605.42 252.14 403.20 739.79 124.68 301.27 374.44 147.65 433.45 102.94 216.16 87.71 0.00 396.80 751.57 204.41 629.69 525.56 284.57 104.05 871.10 85.90 329.70 442.50 947.25 465.08 646.15 76.30 743.16 333.99 71.41 233.47 679.54 271.05 299.24 360.01 721.13 513.45 614.47 398.00 243.30 393.39 199.69 138.76 682.80 644.59 409.42 387.27 452.99 343.55 321.60 294.54 286.90 207.77 298.09 280.36 98.67 338.89 783.56 251.68 841.52 738.98 86.82 900.61 271.10 695.37 794.85 338.75 130.39 199.70 341.77 642.57 228.49 28.73 468.70 998.23 536.68 113.69 214.90 726.91 639.73 116.92 318.63 71.76 590.51 334.41 258.22 227.02 212.44 134.04 253.04 209.40 637.80 181.75 307.77 686.02 91.08 184.25 252.18 310.24 140.53 121.18 459.00
734.02 453.39 402.24 575.11 394.92 192.03 664.78 340.64 438.99 538.76 323.90 220.31 414.25 488.99 319.18 396.80 0.00 730.97 485.66 515.83 367.35 270.66 415.36 650.17 368.11 472.21 127.03 550.45 460.43 639.37 430.16 550.03 489.59 360.86 572.04 328.08 404.64 304.52 326.61 546.12 547.61 512.92 531.75 459.29 421.06 519.97 378.11 318.95 280.74 334.41 559.86 515.80 505.28 276.74 102.26 499.31 557.74 483.09 550.10 381.12 322.15 641.41 452.06 589.26 503.72 398.13 619.93 284.07 379.90 675.86 393.01 426.19 390.60 369.44 718.17 382.32 368.07 493.34 601.43 612.28 396.14 529.58 530.53 510.46 399.37 306.49 444.73 520.90 467.13 482.25 520.21 455.77 403.78 403.53 339.18 286.34 373.17 253.22 472.88 453.00 573.89 500.85 467.45 446.78 486.98 413.39
1014.76 725.60 718.72 331.96 605.50 837.92 117.25 736.85 582.57 617.99 716.80 784.66 648.63 911.44 770.51 751.57 730.97 0.00 702.64 234.68 427.84 594.96 681.98 127.42 787.57 569.85 674.45 910.69 1108.82 1228.25 709.37 787.69 589.53 718.58 925.28 723.00 611.51 832.64 572.53 1110.47 1127.48 296.83 625.84 680.08 577.42 786.59 718.88 507.98 469.77 447.62 691.05 513.46 621.63 602.54 833.23 667.35 802.25 659.20 963.63 691.32 538.82 1336.15 619.46 840.55 344.67 664.75 859.51 584.32 613.38 55.11 532.32 713.77 926.50 545.95 1280.59 629.15 755.53 457.20 859.71 1174.70 693.46 794.45 936.97 322.09 691.16 887.92 698.00 280.58 548.15 754.45 779.77 672.75 855.23 627.15 674.82 681.26 714.44 600.88 994.62 834.56 839.25 668.25 551.41 698.38 761.69 484.35
462.47 158.10 92.52 484.51 153.78 497.03 643.67 171.34 187.74 216.95 161.76 554.24 124.40 371.00 223.84 204.41 485.66 702.64 0.00 538.73 535.94 285.09 157.75 755.72 239.02 207.81 498.08 979.64 537.10 734.60 150.59 812.54 192.63 146.86 286.33 696.23 131.69 435.37 348.25 856.90 551.53 614.80 254.72 93.61 228.94 143.97 141.21 631.71 616.17 313.30 249.13 325.07 172.51 239.58 398.46 116.95 181.74 138.32 395.00 119.60 294.60 840.39 123.76 911.53 678.71 140.52 967.61 230.67 737.11 647.53 240.39 152.18 346.65 273.26 839.00 144.04 175.68 357.90 1030.62 741.09 134.62 166.26 786.74 620.32 137.85 474.73 173.77 517.15 195.05 105.31 99.01 29.89 248.68 132.13 214.37 654.49 161.43 340.02 754.25 272.11 156.51 138.34 191.81 119.02 208.34 365.40
918.29 619.35 517.24 339.93 443.94 683.50 209.59 505.01 375.31 533.83 517.88 630.24 569.60 676.76 579.50 629.69 515.83 234.68 538.73 0.00 273.42 360.28 575.73 357.20 552.89 441.93 439.77 701.95 890.98 1073.83 610.73 553.01 425.91 565.00 746.23 520.09 447.47 597.96 337.85 918.45 943.21 92.27 514.15 481.85 375.38 633.48 537.82 273.30 235.09 225.43 592.18 399.50 497.09 377.18 618.09 509.63 644.21 508.15 778.99 549.53 358.23 1157.24 461.74 605.87 187.61 564.65 684.91 444.05 378.70 271.73 379.33 504.46 752.73 323.76 1107.65 452.98 608.93 276.49 752.93 1035.29 564.55 611.19 702.29 104.27 567.78 695.44 578.39 45.90 404.31 594.38 632.34 525.63 679.76 457.35 470.97 526.84 510.89 386.65 759.94 640.11 681.30 510.53 479.85 538.79 651.57 249.67
883.67 564.31 450.63 460.88 426.15 410.08 483.01 460.98 438.98 529.51 477.79 356.82 528.56 694.39 503.38 525.56 367.35 427.84 535.94 273.42 0.00 364.65 529.24 551.80 554.46 478.69 302.13 501.15 735.85 800.41 545.28 451.06 471.73 460.71 733.03 295.16 495.70 410.32 231.08 682.63 699.64 365.69 496.04 536.22 359.05 633.85 444.80 190.86 152.65 271.07 602.57 515.76 533.09 307.34 469.61 551.14 652.63 553.45 789.26 487.97 297.36 908.31 525.41 510.71 245.77 512.44 431.67 383.18 276.75 482.95 357.30 509.41 596.00 369.40 920.01 447.92 496.83 417.41 552.13 830.33 502.99 619.61 531.88 344.78 506.22 507.80 552.42 319.32 465.24 597.67 612.25 513.26 642.94 444.56 371.51 253.42 443.88 309.72 572.27 590.13 666.48 521.74 493.91 543.74 609.38 175.84
644.96 289.44 229.87 476.42 164.70 427.74 478.44 159.89 258.14 365.88 199.88 471.46 244.71 479.81 236.36 284.57 270.66 594.96 285.09 360.28 364.65 0.00 245.82 626.05 270.37 291.80 304.37 806.82 560.88 728.59 293.10 657.81 291.90 248.95 431.94 435.86 238.34 281.27 133.57 769.70 662.10 430.05 353.38 257.26 232.27 350.43 202.84 429.96 391.75 202.66 393.56 328.08 338.65 116.51 291.54 306.63 377.63 311.76 519.64 237.13 69.86 896.42 285.76 701.47 476.35 228.59 737.34 84.56 535.36 540.58 232.78 231.13 421.01 189.06 790.96 141.05 263.81 361.17 788.05 718.60 223.31 344.61 668.17 455.31 255.38 378.75 275.19 314.38 277.36 364.24 368.57 255.20 373.32 165.60 118.16 398.55 150.61 54.93 618.90 354.73 404.35 321.69 300.41 265.46 325.53 191.38
456.46 43.62 106.84 536.29 183.97 447.05 680.67 116.95 268.52 283.94 134.13 496.85 33.35 254.77 144.70 104.05 415.36 681.98 157.75 575.73 529.24 245.82 0.00 809.40 128.60 253.39 439.62 965.81 458.77 653.51 47.28 760.06 270.68 68.53 259.40 635.54 225.28 356.23 371.48 718.91 506.16 599.69 321.71 193.23 331.04 137.96 106.67 647.94 637.57 350.30 321.53 383.40 239.50 292.38 320.13 216.57 148.69 228.50 285.85 41.27 315.68 794.26 182.09 921.09 690.38 17.23 917.51 242.01 692.49 703.78 270.58 71.27 281.74 284.46 730.19 196.40 110.77 418.33 1016.79 640.73 53.53 115.67 724.03 624.95 27.43 385.99 63.75 560.20 285.43 198.21 208.71 129.51 173.78 183.91 158.16 620.32 144.10 300.75 721.38 175.91 165.81 182.59 250.14 48.07 96.13 381.63
1043.60 843.46 769.79 385.04 672.01 842.20 147.61 767.21 635.65 675.80 770.43 870.48 776.05 970.94 823.59 871.10 650.17 127.42 755.72 357.20 551.80 626.05 809.40 0.00 868.70 648.19 639.80 876.46 1110.60 1289.54 836.79 714.80 644.42 824.69 928.05 758.30 664.59 863.73 632.27 1156.66 1197.78 281.63 678.92 733.16 627.93 860.72 732.34 435.09 473.30 477.98 748.86 566.54 674.71 632.90 752.43 720.43 855.33 712.28 1073.17 797.74 599.68 1291.58 672.54 835.82 369.44 792.17 872.25 676.39 540.49 108.19 585.40 757.01 953.82 576.31 1310.95 685.63 871.13 510.28 912.79 1205.06 804.52 860.64 1013.77 256.37 815.99 941.00 825.42 311.67 601.23 807.53 832.85 725.83 956.90 674.75 723.52 732.63 772.50 587.74 1030.10 927.63 904.65 721.33 604.49 791.34 790.95 495.81
557.09 120.22 210.21 610.03 257.71 318.45 721.09 110.48 329.83 400.75 136.94 375.66 142.08 212.30 53.14 85.90 368.11 787.57 239.02 552.89 554.46 270.37 128.60 868.70 0.00 327.13 437.22 874.59 461.08 642.29 114.23 657.26 346.81 97.41 211.83 629.02 327.98 264.67 325.44 701.47 478.88 640.47 401.50 224.15 370.30 245.85 167.32 643.78 634.14 399.71 417.43 462.95 368.10 342.02 265.85 307.65 271.96 334.96 273.19 119.42 269.02 796.62 288.55 819.78 675.51 134.35 814.71 269.42 690.09 768.54 344.32 164.49 202.46 331.06 703.13 257.05 98.33 486.94 925.57 597.24 134.44 244.27 685.88 657.16 101.17 257.39 135.95 584.75 364.25 300.80 291.21 220.69 126.87 257.65 182.95 638.67 186.21 297.32 628.23 87.22 264.73 278.49 352.82 176.67 172.73 390.54
551.48 284.05 213.35 317.32 127.10 570.25 547.09 293.74 66.62 127.60 283.34 601.93 265.03 471.12 335.27 329.70 472.21 569.85 207.81 441.93 478.69 291.80 253.39 648.19 327.13 0.00 483.44 979.84 653.15 855.95 281.43 808.89 19.68 258.29 451.86 652.12 91.88 531.20 309.36 901.44 706.63 487.28 74.37 148.45 131.20 272.23 229.13 569.16 572.06 253.25 200.66 135.82 108.09 195.47 430.81 131.94 305.17 116.98 539.24 244.21 282.82 988.69 84.05 877.79 604.10 248.91 910.36 227.02 674.56 540.00 127.98 236.56 479.35 157.40 923.07 150.75 308.38 212.92 1030.82 817.18 255.97 272.15 826.18 512.54 225.96 535.86 281.95 396.03 46.96 225.72 234.91 184.99 414.21 148.75 253.81 610.38 236.25 298.81 831.86 374.44 322.04 132.84 61.82 269.09 328.36 302.85
839.52 471.28 433.33 606.40 406.78 253.26 557.93 326.74 440.34 566.58 373.87 257.04 434.99 591.36 424.61 442.50 127.03 674.45 498.08 439.77 302.13 304.37 439.62 639.80 437.22 483.44 0.00 644.51 488.93 700.63 455.66 427.18 473.09 371.09 598.79 320.64 497.06 426.64 199.58 582.85 599.86 385.89 497.40 507.36 386.58 521.02 406.55 271.34 233.13 291.65 611.89 527.03 534.45 287.97 224.38 554.48 558.79 554.81 665.41 398.35 278.94 768.44 526.77 548.20 376.69 433.41 584.63 364.76 252.87 620.07 358.66 443.42 517.63 380.67 728.85 429.50 421.18 450.58 695.49 622.96 390.16 543.31 522.78 383.43 416.60 428.61 462.80 393.87 461.98 574.48 567.53 495.96 519.09 415.70 412.90 280.45 386.80 249.44 509.61 466.28 574.94 515.62 495.27 461.87 523.79 350.27
1284.47 948.87 941.08 942.93 876.21 742.48 824.93 891.09 940.13 1030.66 874.35 737.59 964.70 1039.44 869.63 947.25 550.45 910.69 979.64 701.95 501.15 806.82 965.81 876.46 874.59 979.84 644.51 0.00 920.61 1087.96 977.52 217.33 972.88 911.31 1086.42 439.28 952.98 814.13 732.23 777.26 925.54 645.35 997.19 974.42 860.20 1070.42 928.56 497.04 466.86 772.22 1103.72 987.16 1034.24 808.49 652.71 1036.81 1103.63 1025.47 1100.55 931.57 798.51 1022.21 1000.40 148.52 682.55 948.58 69.48 799.20 391.64 855.58 858.45 957.13 941.05 868.91 881.22 899.86 918.52 918.56 50.98 775.33 946.59 1070.61 542.67 620.09 949.82 856.94 995.18 708.49 966.39 1032.70 1068.08 949.75 954.23 897.86 819.23 408.27 891.60 784.10 485.02 961.81 1108.81 1022.89 995.06 991.46 1001.38 676.99
762.24 461.82 507.58 924.28 592.29 491.05 1020.59 400.99 628.11 727.32 448.12 458.44 460.19 248.92 407.94 465.08 460.43 1108.82 537.10 890.98 735.85 560.88 458.77 1110.60 461.08 653.15 488.93 920.61 0.00 296.96 490.47 895.43 649.38 444.76 432.64 673.48 656.49 325.53 553.13 374.87 135.47 874.82 727.52 563.28 693.86 562.17 482.90 760.27 722.06 690.22 719.45 782.53 698.27 608.13 442.45 605.73 597.43 646.14 304.31 417.50 573.03 335.54 616.38 930.17 865.62 468.49 851.13 580.60 741.80 1071.03 669.80 462.57 300.87 642.24 433.88 572.63 470.43 774.75 894.90 327.99 432.52 574.44 483.31 872.36 435.75 238.22 481.95 875.26 606.19 512.18 550.14 556.93 426.81 571.90 490.46 631.74 487.49 615.81 533.44 374.00 508.25 605.06 681.73 483.16 514.33 694.55
1049.34 681.10 707.94 1110.24 776.10 500.80 1207.03 663.40 834.67 923.20 708.78 443.59 644.81 545.88 634.78 646.15 639.37 1228.25 734.60 1073.83 800.41 728.59 653.51 1289.54 642.29 855.95 700.63 1087.96 296.96 0.00 693.58 975.72 875.63 642.26 729.60 753.77 824.34 549.93 765.72 394.64 249.27 1086.52 890.71 801.45 872.81 730.84 672.16 958.32 920.11 883.41 916.95 967.55 892.78 728.49 537.11 773.19 768.61 830.25 601.27 615.00 791.54 209.88 783.84 1045.72 1046.18 660.93 1124.76 807.58 953.50 1269.17 844.76 660.07 540.75 821.19 206.74 761.89 651.50 992.28 1120.92 312.63 599.98 753.13 660.59 1084.06 633.25 452.45 679.45 1042.97 869.09 809.14 797.51 754.43 607.88 757.86 743.69 795.51 724.39 783.52 602.94 555.07 680.96 811.40 851.89 671.69 733.61 913.06
465.52 28.65 154.12 569.19 216.87 432.68 715.67 149.34 305.69 331.22 173.35 449.57 60.74 241.55 110.98 76.30 430.16 709.37 150.59 610.73 545.28 293.10 47.28 836.79 114.23 281.43 455.66 977.52 490.47 693.58 0.00 767.13 293.97 84.57 215.91 662.93 272.56 322.51 383.28 766.19 459.82 627.63 355.80 229.41 363.47 154.32 143.98 694.76 656.55 385.30 363.15 417.25 286.78 279.96 329.30 263.85 164.32 238.59 292.18 78.58 352.05 762.85 229.37 887.37 737.66 64.51 908.04 270.80 708.53 751.06 303.48 106.27 234.46 311.85 718.87 221.91 63.49 451.23 1028.50 612.98 93.60 162.95 740.07 652.89 60.33 371.62 32.34 603.67 312.82 218.20 187.60 176.79 145.86 216.81 205.44 650.96 177.00 348.03 702.14 159.92 150.50 229.87 297.42 95.35 81.16 428.91
1153.63 777.48 723.75 725.60 692.72 532.52 696.95 691.37 786.16 863.19 714.35 543.80 758.95 869.56 656.15 743.16 550.03 787.69 812.54 553.01 451.06 657.81 760.06 714.80 657.26 808.89 427.18 217.33 895.43 975.72 767.13 0.00 789.21 733.13 869.09 221.95 735.65 669.55 626.76 686.52 886.62 553.92 850.69 757.09 726.84 864.67 726.50 279.71 317.92 641.25 890.87 769.83 836.29 671.06 608.61 830.32 886.30 809.07 930.45 731.43 655.22 1052.82 783.07 162.52 465.22 742.83 157.45 581.87 174.31 754.78 727.48 739.80 850.60 739.58 883.58 707.15 747.73 723.60 268.31 825.38 745.61 853.28 477.42 559.95 749.68 764.02 782.99 532.89 799.01 891.69 877.24 782.65 784.13 701.33 601.90 263.69 674.27 602.88 535.07 744.48 916.64 821.52 798.46 774.13 829.99 546.02
558.14 265.32 233.03 337.00 144.04 589.93 527.41 277.72 50.60 107.92 267.32 582.25 282.02 478.22 354.95 333.99 489.59 589.53 192.63 425.91 471.73 291.90 270.68 644.42 346.81 19.68 473.09 972.88 649.38 875.63 293.97 789.21 0.00 277.97 458.06 663.72 93.93 539.08 297.74 894.47 726.31 492.74 88.24 157.14 146.38 285.65 213.11 562.20 589.44 239.71 180.98 155.50 88.41 212.85 435.67 151.62 298.39 110.65 541.80 261.95 267.23 984.92 103.73 861.77 588.08 268.59 903.40 207.34 667.60 536.23 114.43 216.88 499.03 141.38 925.12 155.61 328.06 193.24 1015.91 819.23 275.65 291.83 828.68 518.00 245.64 552.80 290.81 380.01 43.19 245.40 251.49 204.67 395.48 165.69 256.31 627.76 219.54 282.79 816.27 394.12 339.57 152.52 68.48 251.21 317.83 295.89
483.33 103.60 112.80 552.54 202.05 415.86 681.73 89.06 255.17 334.20 105.07 454.81 69.95 271.60 76.98 71.41 360.86 718.58 146.86 565.00 460.71 248.95 68.53 824.69 97.41 258.29 371.09 911.31 444.76 642.26 84.57 733.13 277.97 0.00 292.02 608.13 266.16 288.51 346.84 780.62 502.72 543.06 332.66 196.34 343.18 173.14 92.66 642.43 604.22 351.36 329.21 394.11 308.03 250.19 258.60 215.49 210.91 272.55 331.81 27.26 267.48 780.30 226.14 853.37 670.21 78.25 890.58 199.69 623.96 723.44 282.72 72.33 221.06 299.19 713.98 182.39 50.09 397.29 962.29 608.09 42.28 178.76 655.50 568.32 45.51 354.80 91.71 519.10 289.59 203.39 209.77 141.03 185.49 200.16 137.99 566.39 144.89 297.61 707.38 146.52 227.06 243.57 262.89 92.92 156.11 387.59
502.24 231.10 325.21 747.52 416.79 530.28 887.66 272.05 425.80 441.28 319.18 552.69 276.65 183.72 255.76 233.47 572.04 925.28 286.33 746.23 733.03 431.94 259.40 928.05 211.83 451.86 598.79 1086.42 432.64 729.60 215.91 869.09 458.06 292.02 0.00 840.85 415.23 437.46 528.06 807.51 568.11 835.08 480.99 379.94 515.27 183.74 351.50 855.61 823.69 557.29 457.96 569.12 442.00 495.87 469.78 344.28 219.00 358.92 175.60 294.49 480.85 768.18 367.81 1031.61 887.34 276.63 1026.54 433.85 847.89 907.91 503.40 285.80 245.89 493.46 664.87 419.69 262.20 608.65 1137.40 736.03 309.51 206.03 859.08 833.57 276.24 401.97 248.25 746.32 414.87 266.14 272.27 316.22 175.92 395.14 361.52 800.24 358.55 486.87 805.26 175.76 129.82 319.02 435.86 272.33 193.23 600.00
1036.17 679.16 641.37 722.78 575.46 310.57 669.53 569.93 613.12 735.60 573.47 321.85 602.19 727.04 647.26 679.54 328.08 723.00 696.23 520.09 295.16 435.86 635.54 758.30 629.02 652.12 320.64 439.28 673.48 753.77 662.93 221.95 663.72 608.13 840.85 0.00 674.20 447.60 459.57 544.49 664.67 492.74 711.66 685.53 600.97 739.75 592.68 323.21 285.00 509.34 808.66 658.78 734.51 456.65 386.66 715.90 777.52 714.42 827.56 623.91 449.86 850.31 668.01 344.66 446.14 618.31 379.40 520.42 273.32 731.67 572.92 662.39 628.65 549.35 661.63 576.91 652.47 668.27 483.63 603.43 608.89 748.01 255.47 518.00 634.63 542.07 651.56 565.99 647.04 781.70 790.99 672.66 709.14 593.87 554.02 41.74 586.47 380.93 313.12 667.75 792.81 695.73 664.29 651.94 715.25 437.74
512.91 268.90 185.37 409.20 165.60 560.78 564.07 272.64 72.16 134.12 225.51 611.22 226.96 463.83 333.90 271.05 404.64 611.51 131.69 447.47 495.70 238.34 225.28 664.59 327.98 91.88 497.06 952.98 656.49 824.34 272.56 735.65 93.93 266.16 415.23 674.20 0.00 494.57 318.96 840.91 646.77 512.91 134.97 103.83 181.70 235.60 176.83 586.17 594.87 261.27 155.22 227.70 100.64 218.28 434.30 94.67 268.54 78.45 511.13 238.99 239.60 935.63 47.42 883.33 609.64 212.28 893.10 153.78 691.57 556.40 138.40 193.92 413.29 162.94 831.19 154.24 242.32 257.14 1003.96 725.30 224.36 235.52 794.55 538.17 245.46 574.36 245.98 401.57 63.36 168.22 206.18 125.13 380.37 178.79 244.28 633.19 190.90 293.27 788.64 338.75 285.41 96.21 62.81 177.21 309.22 319.86
758.64 351.16 389.86 699.69 445.97 210.79 716.12 283.27 510.39 512.10 330.40 268.00 358.46 371.08 211.53 299.24 304.52 832.64 435.37 597.96 410.32 281.27 356.23 863.73 264.67 531.20 426.64 814.13 325.53 549.93 322.51 669.55 539.08 288.51 437.46 447.60 494.57 0.00 414.84 515.60 427.82 667.73 571.07 406.35 513.54 445.43 381.06 513.41 475.20 483.93 585.16 609.35 540.82 397.78 202.26 495.04 466.13 493.56 407.86 315.77 351.13 661.07 447.15 668.17 656.09 361.98 744.65 365.83 618.81 778.26 514.05 356.33 272.69 470.33 509.69 422.32 303.11 543.87 841.42 437.33 330.79 467.27 468.14 692.99 328.80 97.48 338.37 552.06 544.81 488.71 483.87 428.41 261.54 446.87 318.57 405.86 354.88 336.20 520.57 314.35 403.57 470.78 470.60 338.57 374.28 472.65
665.67 359.87 308.09 435.73 237.77 420.92 484.66 293.46 295.49 404.76 271.18 456.62 370.37 531.20 272.30 360.01 326.61 572.53 348.25 337.85 231.08 133.57 371.48 632.27 325.44 309.36 199.58 732.23 553.13 765.72 383.28 626.76 297.74 346.84 528.06 459.57 318.96 414.84 0.00 782.43 688.60 424.78 383.73 307.78 187.00 443.33 270.39 367.72 329.51 154.29 450.95 337.58 360.32 144.67 333.54 357.15 454.06 392.38 598.63 335.79 79.36 888.67 366.38 741.79 443.63 354.25 662.75 165.18 452.45 546.80 247.46 307.56 444.72 204.71 896.13 229.92 363.88 300.08 783.21 790.24 342.57 421.04 647.70 427.31 354.04 512.32 381.49 354.46 262.40 428.58 437.87 319.54 452.31 216.12 213.32 462.43 259.89 78.64 590.05 406.12 484.40 372.21 337.94 341.89 412.38 150.69
1137.11 762.53 796.63 1119.56 797.98 383.02 1067.89 757.98 888.90 968.45 718.29 325.81 752.26 623.79 727.13 721.13 546.12 1110.47 856.90 918.45 682.63 769.70 718.91 1156.66 701.47 901.44 582.85 777.26 374.87 394.64 766.19 686.52 894.47 780.62 807.51 544.49 840.91 515.60 782.43 0.00 470.70 950.65 955.95 862.35 834.84 856.87 758.95 721.57 683.36 865.21 996.13 1011.57 941.55 776.32 536.97 934.79 867.60 914.33 633.48 760.18 772.03 429.17 888.33 708.96 907.08 736.14 788.00 687.13 692.27 1130.03 861.09 790.18 632.61 869.02 290.34 782.79 730.53 963.74 726.28 184.45 772.44 834.58 289.02 925.39 746.34 524.30 782.66 936.42 854.48 887.05 925.01 848.42 724.68 806.59 730.59 586.23 767.56 767.30 346.67 740.20 883.12 895.93 903.72 766.98 815.04 858.47
897.71 462.54 584.27 994.99 659.44 355.58 1061.37 523.61 679.49 752.35 570.74 342.82 520.56 384.39 425.74 513.45 547.61 1127.48 551.53 943.21 699.64 662.10 506.16 1197.78 478.88 706.63 599.86 925.54 135.47 249.27 459.82 886.62 726.31 502.72 568.11 664.67 646.77 427.82 688.60 470.70 0.00 985.75 764.27 585.36 780.47 614.14 595.38 866.56 828.35 779.81 740.88 814.42 724.04 724.90 513.54 608.70 624.14 668.99 439.78 529.98 694.97 459.15 622.58 978.62 945.41 523.39 986.60 680.88 852.73 1123.51 746.05 566.09 436.34 764.86 392.14 635.79 517.32 859.54 915.88 286.25 543.66 608.77 618.78 983.29 520.15 330.34 492.16 897.31 710.13 630.68 639.97 521.64 556.39 642.61 613.08 706.41 569.09 717.03 576.56 509.47 610.32 630.09 690.63 554.23 515.05 753.10
991.67 634.76 577.02 409.70 466.62 639.15 179.58 589.94 445.08 596.40 557.13 642.93 601.11 769.03 620.04 614.47 512.92 296.83 614.80 92.27 365.69 430.05 599.69 281.63 640.47 487.28 385.89 645.35 874.82 1086.52 627.63 553.92 492.74 543.06 835.08 492.74 512.91 667.73 424.78 950.65 985.75 0.00 561.65 535.91 464.23 675.09 560.49 305.50 267.29 317.70 621.11 469.27 566.86 446.95 610.27 579.40 685.82 577.92 871.26 558.42 431.40 1154.33 531.51 564.62 138.33 609.41 643.66 514.61 379.61 241.72 471.60 596.73 764.12 416.03 1114.74 470.76 593.15 346.26 692.55 1008.85 573.44 652.80 748.21 25.26 576.67 765.21 622.87 115.67 449.55 655.85 681.17 584.91 728.55 488.27 548.21 451.00 557.63 478.92 769.85 689.58 729.01 580.30 525.09 624.08 687.27 319.44
571.78 353.56 287.72 349.62 201.47 644.62 601.73 365.96 138.84 79.06 355.56 670.49 332.75 545.49 409.64 398.00 531.75 625.84 254.72 514.15 496.04 353.38 321.71 678.92 401.50 74.37 497.40 997.19 727.52 890.71 355.80 850.69 88.24 332.66 480.99 711.66 134.97 571.07 383.73 955.95 764.27 561.65 0.00 178.91 199.20 341.30 301.35 586.51 624.72 292.64 152.12 168.12 82.21 255.01 505.18 187.45 314.32 122.07 607.56 312.68 320.16 1053.13 153.12 914.70 653.15 317.98 927.71 268.82 691.91 570.73 138.74 267.61 548.26 194.31 966.16 225.12 377.29 281.48 1048.17 860.27 327.70 340.63 900.55 586.91 300.33 610.23 341.54 468.25 121.33 250.99 257.22 242.63 483.72 223.12 328.18 669.92 307.78 343.57 866.83 448.81 351.17 201.32 100.47 301.94 373.17 320.20
518.84 205.42 126.35 444.03 113.31 522.89 586.32 231.20 106.54 186.69 187.62 573.19 186.18 418.32 273.32 243.30 459.29 680.08 93.61 481.85 536.22 257.26 193.23 733.16 224.15 148.45 507.36 974.42 563.28 801.45 229.41 757.09 157.14 196.34 379.94 685.53 103.83 406.35 307.78 862.35 585.36 535.91 178.91 0.00 216.08 203.95 133.41 584.82 546.61 269.04 203.37 262.53 193.89 228.88 396.27 102.97 220.97 110.81 479.08 189.94 261.04 874.22 64.40 917.71 634.45 181.56 914.54 175.22 690.22 624.97 188.22 186.01 417.40 197.32 872.83 116.21 246.43 326.08 1025.40 779.98 201.47 203.74 793.83 561.17 200.48 481.54 217.85 435.95 140.96 157.31 151.51 63.72 335.58 91.66 221.46 643.79 185.64 312.19 788.08 311.37 250.12 64.43 128.67 153.56 257.93 364.27
613.41 361.70 245.10 284.78 147.07 471.86 480.32 292.87 109.54 254.30 245.74 529.07 302.73 548.77 390.74 393.39 421.06 577.42 228.94 375.38 359.05 232.27 331.04 627.93 370.30 131.20 386.58 860.20 693.86 872.81 363.47 726.84 146.38 343.18 515.27 600.97 181.70 513.54 187.00 834.84 780.47 464.23 199.20 216.08 0.00 361.34 260.45 449.52 487.73 149.95 311.56 197.98 234.79 144.32 422.77 243.86 372.07 242.38 591.18 315.92 177.47 1029.40 195.97 772.01 515.36 318.85 790.72 147.71 552.53 531.05 60.46 304.76 535.94 51.62 998.00 170.72 364.97 128.96 911.18 892.11 323.19 339.05 783.50 438.97 303.61 555.83 352.10 359.55 123.01 300.83 312.55 258.83 448.11 168.72 211.13 559.23 248.60 246.40 726.51 429.62 385.45 214.47 193.02 289.11 408.82 183.21
318.50 161.32 191.27 570.99 276.86 544.43 738.42 194.28 274.61 283.86 238.74 575.68 137.96 313.25 250.12 199.69 519.97 786.59 143.97 633.48 633.85 350.43 137.96 860.72 245.85 272.23 521.02 1070.42 562.17 730.84 154.32 864.67 285.65 173.14 183.74 739.75 235.60 445.43 443.33 856.87 614.14 675.09 341.30 203.95 361.34 0.00 203.04 732.37 725.76 408.05 300.54 389.49 292.90 377.17 424.74 193.48 37.77 223.00 359.34 145.88 408.12 894.02 188.18 1000.93 762.90 121.84 1022.12 338.46 773.89 752.53 356.29 135.77 341.93 309.72 834.80 257.56 170.96 478.89 1121.40 736.37 130.86 22.29 815.01 649.83 155.02 443.67 163.51 604.02 298.96 154.55 116.59 143.41 277.93 264.38 262.77 698.01 227.68 405.36 757.36 267.39 53.92 161.60 256.23 106.86 120.78 466.06
483.54 141.74 48.69 466.66 113.38 389.48 638.60 97.79 162.51 302.29 54.21 446.69 108.09 328.81 169.64 138.76 378.11 718.88 141.21 537.82 444.80 202.84 106.67 732.34 167.32 229.13 406.55 928.56 482.90 672.16 143.98 726.50 213.11 92.66 351.50 592.68 176.83 381.06 270.39 758.95 595.38 560.49 301.35 133.41 260.45 203.04 0.00 588.52 550.31 314.43 318.97 326.97 277.47 208.04 336.17 198.38 216.21 222.98 370.88 65.40 232.76 818.44 197.81 853.86 639.25 116.39 876.47 182.35 629.61 667.17 199.99 69.71 313.72 216.10 781.33 89.73 142.75 348.70 979.54 675.44 72.18 183.19 696.97 585.75 83.65 424.71 129.85 491.92 196.93 201.31 207.15 111.32 224.56 114.28 124.60 550.94 52.23 246.75 699.26 213.28 221.68 180.03 239.64 104.04 194.25 323.48
974.14 691.56 541.10 551.35 533.61 510.98 422.74 589.85 529.45 655.69 567.57 528.38 665.90 807.94 638.13 682.80 318.95 507.98 631.71 273.30 190.86 429.96 647.94 435.09 643.78 569.16 271.34 497.04 760.27 958.32 694.76 279.71 562.20 642.43 855.61 323.21 586.17 513.41 367.72 721.57 866.56 305.50 586.51 584.82 449.52 732.37 588.52 0.00 38.21 361.54 705.87 578.70 623.56 414.80 421.21 598.45 743.10 596.97 847.43 645.83 387.83 960.36 550.56 400.73 185.51 658.55 437.16 473.65 105.40 475.07 447.77 600.76 709.55 459.87 971.20 538.39 667.77 443.89 548.02 894.30 649.06 710.08 578.68 280.24 652.96 610.89 662.86 319.20 555.71 688.14 707.90 603.73 722.73 552.02 548.12 361.05 536.29 375.03 635.71 731.00 777.60 599.35 584.38 635.09 696.81 266.31
952.37 672.84 562.49 571.23 495.40 472.77 384.53 551.64 538.84 657.66 529.36 490.17 636.46 769.73 599.92 644.59 280.74 469.77 616.17 235.09 152.65 391.75 637.57 473.30 634.14 572.06 233.13 466.86 722.06 920.11 656.55 317.92 589.44 604.22 823.69 285.00 594.87 475.20 329.51 683.36 828.35 267.29 624.72 546.61 487.73 725.76 550.31 38.21 0.00 359.64 667.66 600.41 656.57 376.59 383.00 636.66 746.46 635.18 809.22 608.50 366.06 922.15 588.77 438.94 223.72 620.34 475.37 451.88 143.61 446.67 485.98 605.57 671.34 454.05 932.99 516.62 648.59 482.10 517.84 856.09 615.06 719.05 540.47 242.03 614.75 572.68 666.94 280.99 565.93 703.92 698.12 610.33 684.52 513.81 509.91 326.74 498.08 336.82 598.12 699.41 761.41 611.04 586.35 618.90 658.60 304.52
692.86 393.92 291.81 314.75 218.51 482.19 330.37 289.23 189.11 347.63 292.45 539.40 344.17 574.73 354.07 409.42 334.41 447.62 313.30 225.43 271.07 202.66 350.30 477.98 399.71 253.25 291.65 772.22 690.22 883.41 385.30 641.25 239.71 351.36 557.29 509.34 261.27 483.93 154.29 865.21 779.81 317.70 292.64 269.04 149.95 408.05 314.43 361.54 359.64 0.00 394.84 244.69 328.12 154.92 421.99 309.66 418.78 318.25 636.15 324.10 132.80 932.76 275.54 762.27 365.41 339.22 702.74 218.62 466.94 392.51 153.90 279.03 546.40 98.33 993.62 227.55 393.15 158.93 823.20 891.39 339.12 385.76 739.49 329.70 342.35 581.41 352.96 271.33 206.29 394.27 412.31 300.20 502.46 231.92 245.54 467.60 302.57 180.32 681.84 449.65 455.87 324.33 281.83 313.36 426.14 95.23
514.79 365.15 270.28 378.79 280.08 651.85 645.63 376.87 222.97 73.06 348.62 709.06 320.42 565.36 406.19 387.27 559.86 691.05 249.13 592.18 602.57 393.56 321.53 748.86 417.43 200.66 611.89 1103.72 719.45 916.95 363.15 890.87 180.98 329.21 457.96 808.66 155.22 585.16 450.95 996.13 740.88 621.11 152.12 203.37 311.56 300.54 318.97 705.87 667.66 394.84 0.00 197.29 95.09 354.13 558.10 177.80 311.27 157.64 607.38 301.95 394.82 1029.74 187.73 1034.14 708.92 304.30 1034.24 309.00 792.81 640.67 270.88 256.88 550.27 313.75 982.67 292.69 379.30 327.80 1132.13 876.78 316.97 278.25 942.42 595.85 320.20 674.82 330.81 546.28 188.55 231.82 269.78 219.24 484.09 283.22 392.13 766.92 346.12 448.49 884.77 458.07 328.14 138.94 144.37 291.21 345.38 452.34
522.40 419.87 299.70 181.50 213.59 669.84 464.60 387.61 202.44 210.78 340.48 694.22 382.29 606.94 466.09 452.99 515.80 513.46 325.07 399.50 515.76 328.08 383.40 566.54 462.95 135.82 527.03 987.16 782.53 967.55 417.25 769.83 155.50 394.11 569.12 658.78 227.70 609.35 337.58 1011.57 814.42 469.27 168.12 262.53 197.98 389.49 326.97 578.70 600.41 244.69 197.29 0.00 189.06 239.06 509.53 229.28 422.43 247.72 660.95 378.68 258.22 1112.75 201.31 866.75 559.37 366.17 927.28 324.44 595.52 458.35 201.93 333.61 590.94 146.36 1007.78 237.24 444.20 134.81 1038.14 937.37 385.17 389.41 864.91 478.00 361.78 622.35 407.54 353.60 176.34 342.98 365.33 302.25 514.63 235.24 342.49 653.97 322.74 327.15 807.26 510.26 439.30 250.10 197.64 367.94 463.11 339.92
489.57 283.12 265.03 370.56 205.93 631.21 571.48 301.12 139.01 44.44 295.94 654.58 272.85 494.27 384.20 343.55 505.28 621.63 172.51 497.09 533.09 338.65 239.50 674.71 368.10 108.09 534.45 1034.24 698.27 892.78 286.78 836.29 88.41 308.03 442.00 734.51 100.64 540.82 360.32 941.55 724.04 566.86 82.21 193.89 234.79 292.90 277.47 623.56 656.57 328.12 95.09 189.06 0.00 279.98 477.66 119.59 275.33 83.08 525.35 280.77 340.24 1012.90 129.49 950.18 655.65 256.73 964.76 254.42 728.96 566.52 175.79 265.02 513.93 229.79 931.83 197.60 342.96 281.65 1057.57 825.94 292.80 270.61 875.22 592.12 266.93 614.69 303.25 451.19 131.60 213.45 193.37 202.40 413.28 197.96 302.85 692.77 284.47 371.20 862.15 415.41 312.18 158.45 70.22 277.85 334.18 357.25
659.39 308.61 185.90 389.64 118.81 468.77 485.29 242.31 162.25 281.07 205.08 497.05 294.90 517.64 299.16 321.60 276.74 602.54 239.58 377.18 307.34 116.51 292.38 632.90 342.02 195.47 287.97 808.49 608.13 728.49 279.96 671.06 212.85 250.19 495.87 456.65 218.28 397.78 144.67 776.32 724.90 446.95 255.01 228.88 144.32 377.17 208.04 414.80 376.59 154.92 354.13 239.06 279.98 0.00 335.37 278.25 382.29 279.22 532.66 273.44 91.16 918.15 248.68 717.83 497.65 305.66 739.01 89.19 520.20 547.43 116.27 245.56 471.25 92.70 907.47 142.46 300.28 270.15 845.77 824.25 280.22 354.88 697.85 472.21 272.48 495.26 312.30 331.28 190.39 344.89 338.59 248.53 419.85 137.22 179.69 414.91 155.81 112.65 640.20 396.71 396.09 293.31 209.76 276.63 317.39 212.68
737.76 351.13 344.97 656.99 303.71 268.37 752.36 238.38 397.15 485.04 285.51 211.16 321.55 478.15 318.99 294.54 102.26 833.23 398.46 618.09 469.61 291.54 320.13 752.43 265.85 430.81 224.38 652.71 442.45 537.11 329.30 608.61 435.67 258.60 469.78 386.66 434.30 202.26 333.54 536.97 513.54 610.27 505.18 396.27 422.77 424.74 336.17 421.21 383.00 421.99 558.10 509.53 477.66 335.37 0.00 445.64 462.51 464.12 539.04 278.86 309.13 743.67 441.13 691.52 601.07 329.85 722.19 340.24 477.25 778.12 390.32 323.93 402.53 409.28 649.97 280.06 265.81 539.03 703.69 544.08 293.88 435.80 460.25 607.81 297.11 204.23 343.31 605.92 416.37 461.99 461.37 394.21 392.72 304.61 249.74 388.60 306.72 254.90 452.28 353.07 478.66 423.95 439.42 344.52 398.84 430.65
493.27 254.33 149.69 410.78 162.68 551.77 617.20 236.63 134.32 161.12 218.93 608.98 218.04 439.39 292.47 286.90 499.31 667.35 116.95 509.63 551.14 306.63 216.57 720.43 307.65 131.94 554.48 1036.81 605.73 773.19 263.85 830.32 151.62 215.49 344.28 715.90 94.67 495.04 357.15 934.79 608.70 579.40 187.45 102.97 243.86 193.48 198.38 598.45 636.66 309.66 177.80 229.28 119.59 278.25 445.64 0.00 201.24 84.32 502.42 188.23 316.14 897.56 47.89 938.16 671.80 204.22 982.81 248.45 703.85 612.24 216.00 209.35 436.55 225.10 896.17 165.58 265.58 342.02 1058.81 819.97 173.21 178.17 824.42 604.66 206.48 561.96 241.19 463.73 158.03 131.74 136.05 87.06 365.63 141.03 252.05 693.16 203.06 361.56 784.69 314.31 215.67 38.86 115.94 176.90 293.47 375.30
331.17 169.64 202.00 603.93 282.00 519.59 749.15 232.05 307.55 278.83 266.81 576.80 175.73 348.51 262.85 207.77 557.74 802.25 181.74 644.21 652.63 377.63 148.69 855.33 271.96 305.17 558.79 1103.63 597.43 768.61 164.32 886.30 298.39 210.91 219.00 777.52 268.54 466.13 454.06 867.60 624.14 685.82 314.32 220.97 372.07 37.77 216.21 743.10 746.46 418.78 311.27 422.43 275.33 382.29 462.51 201.24 0.00 192.25 394.60 183.65 421.96 866.52 221.12 1021.01 773.63 159.61 1043.75 358.03 811.66 747.14 368.61 146.50 379.70 320.45 850.34 271.40 208.73 449.95 1110.62 744.45 168.63 33.02 852.78 660.56 176.12 481.44 136.01 636.96 298.43 131.07 93.11 157.25 299.80 260.35 284.40 735.78 248.38 432.56 795.13 298.85 89.18 172.33 250.84 127.56 158.55 476.79
499.63 267.24 193.82 413.52 160.41 590.80 573.30 293.69 132.84 127.52 271.11 641.04 227.39 480.14 349.53 298.09 483.09 659.20 138.32 508.15 553.45 311.76 228.50 712.28 334.96 116.98 554.81 1025.47 646.14 830.25 238.59 809.07 110.65 272.55 358.92 714.42 78.45 493.56 392.38 914.33 668.99 577.92 122.07 110.81 242.38 223.00 222.98 596.97 635.18 318.25 157.64 247.72 83.08 279.22 464.12 84.32 192.25 0.00 514.35 245.29 313.02 957.85 46.41 940.31 670.32 211.27 966.52 227.20 702.37 604.09 196.15 253.48 473.05 219.92 909.64 184.06 302.08 257.70 974.49 803.75 230.27 218.67 836.72 603.18 244.45 569.17 257.87 462.25 141.81 138.10 140.84 147.35 384.45 182.06 289.31 694.13 244.89 365.03 779.07 371.37 229.10 79.36 107.79 237.19 251.10 377.61
613.51 276.48 392.69 746.93 447.36 556.31 925.56 359.75 533.39 569.79 400.70 505.71 315.00 102.23 326.33 280.36 550.10 963.63 395.00 778.99 789.26 519.64 285.85 1073.17 273.19 539.24 665.41 1100.55 304.31 601.27 292.18 930.45 541.80 331.81 175.60 827.56 511.13 407.86 598.63 633.48 439.78 871.26 607.56 479.08 591.18 359.34 370.88 847.43 809.22 636.15 607.38 660.95 525.35 532.66 539.04 502.42 394.60 514.35 0.00 327.12 529.29 623.02 467.94 1076.03 935.78 303.08 1087.90 443.47 871.26 987.70 533.97 357.12 198.91 552.93 595.82 423.71 295.56 591.11 1125.38 632.30 339.38 381.63 787.62 883.26 313.28 372.37 287.21 821.70 560.02 434.38 396.42 415.36 146.32 448.26 435.70 813.72 423.11 564.99 758.28 199.13 305.42 468.44 535.99 333.92 302.16 650.81
458.90 76.34 104.73 525.28 174.79 437.87 654.47 77.24 227.91 325.21 106.22 482.07 42.69 263.41 104.24 98.67 381.12 691.32 119.60 549.53 487.97 237.13 41.27 797.74 119.42 244.21 398.35 931.57 417.50 615.00 78.58 731.43 261.95 27.26 294.49 623.91 238.99 315.77 335.79 760.18 529.98 558.42 312.68 189.94 315.92 145.88 65.40 645.83 608.50 324.10 301.95 378.68 280.77 273.44 278.86 188.23 183.65 245.29 327.12 0.00 283.99 753.04 198.88 880.63 661.75 50.99 888.88 220.03 651.22 696.18 255.46 45.07 248.32 281.50 741.24 155.13 77.35 407.32 982.55 635.35 15.02 156.94 682.76 583.68 18.25 376.81 64.45 546.36 262.33 215.80 182.51 139.43 206.50 172.90 129.53 582.17 117.63 271.68 682.87 156.12 199.80 216.31 266.93 65.66 128.85 379.52
586.31 343.82 228.73 406.56 174.21 470.55 452.07 229.75 216.63 367.14 218.30 509.89 302.44 481.32 283.99 338.89 322.15 538.82 294.60 358.23 297.36 69.86 315.68 599.68 269.02 282.82 278.94 798.51 573.03 791.54 352.05 655.22 267.23 267.48 480.85 449.86 239.60 351.13 79.36 772.03 694.97 431.40 320.16 261.04 177.47 408.12 232.76 387.83 366.06 132.80 394.82 258.22 340.24 91.16 309.13 316.14 421.96 313.02 529.29 283.99 0.00 908.57 287.02 752.00 406.49 298.45 729.03 85.82 480.91 508.99 181.42 288.02 435.01 125.85 860.82 150.56 317.57 291.73 802.05 780.53 293.17 397.71 606.69 417.30 297.20 448.61 324.28 325.29 251.05 373.75 383.04 264.71 395.89 175.11 176.32 468.41 180.53 68.93 549.04 356.24 443.86 325.47 300.92 301.35 381.38 121.52
1097.78 779.16 843.12 1216.52 927.83 608.70 1263.13 736.53 963.65 1041.21 783.66 551.49 779.88 584.46 743.48 783.56 641.41 1336.15 840.39 1157.24 908.31 896.42 794.26 1291.58 796.62 988.69 768.44 1022.21 335.54 209.88 762.85 1052.82 984.92 780.30 768.18 850.31 935.63 661.07 888.67 429.17 459.15 1154.33 1053.13 874.22 1029.40 894.02 818.44 960.36 922.15 932.76 1029.74 1112.75 1012.90 918.15 743.67 897.56 866.52 957.85 623.02 753.04 908.57 0.00 911.44 979.97 1145.13 777.11 1059.01 916.14 1021.31 1317.27 1005.34 798.11 630.20 977.78 243.93 908.17 801.17 1091.69 1073.19 246.88 768.06 899.54 594.84 1151.87 771.29 573.76 730.51 1162.10 941.73 847.72 885.68 810.50 681.68 907.44 826.00 856.04 823.03 894.63 537.19 709.54 843.79 918.95 979.49 799.28 803.69 1027.99
503.20 225.71 163.57 382.81 137.42 559.97 569.31 247.28 86.43 139.36 224.70 617.18 180.98 436.29 303.12 251.68 452.06 619.46 123.76 461.74 525.41 285.76 182.09 672.54 288.55 84.05 526.77 1000.40 616.38 783.84 229.37 783.07 103.73 226.14 367.81 668.01 47.42 447.15 366.38 888.33 622.58 531.51 153.12 64.40 195.97 188.18 197.81 550.56 588.77 275.54 187.73 201.31 129.49 248.68 441.13 47.89 221.12 46.41 467.94 198.88 287.02 911.44 0.00 897.60 623.91 164.86 940.52 201.20 655.96 564.35 168.11 223.23 447.20 177.21 877.82 161.07 276.23 296.97 1020.90 772.72 183.86 188.10 838.69 556.77 198.04 544.63 211.46 415.84 110.78 141.67 179.63 100.94 355.87 156.06 266.32 650.10 222.60 318.62 794.62 324.96 237.99 48.79 68.05 190.78 261.80 349.57
1292.50 910.19 819.01 846.62 836.64 655.23 724.03 831.11 811.17 969.69 875.61 635.80 912.34 1032.08 776.39 841.52 589.26 840.55 911.53 605.87 510.71 701.47 921.09 835.82 819.78 877.79 548.20 148.52 930.17 1045.72 887.37 162.52 861.77 853.37 1031.61 344.66 883.33 668.17 741.79 708.96 978.62 564.62 914.70 917.71 772.01 1000.93 853.86 400.73 438.94 762.27 1034.14 866.75 950.18 717.83 691.52 938.16 1021.01 940.31 1076.03 880.63 752.00 979.97 897.60 0.00 586.24 905.35 79.04 744.39 295.33 786.17 775.96 878.67 937.90 720.39 838.98 842.52 867.97 790.56 190.86 733.09 870.07 987.99 500.43 589.88 893.66 765.65 903.23 559.97 845.59 990.68 999.97 881.64 929.71 855.05 764.42 302.92 836.79 683.07 442.78 907.00 1025.77 946.39 912.57 913.00 962.70 667.04
992.80 734.00 635.22 491.43 580.70 629.95 300.44 621.69 537.48 656.74 623.75 602.59 689.27 864.37 690.48 738.98 503.72 344.67 678.71 187.61 245.77 476.35 690.38 369.44 675.51 604.10 376.69 682.55 865.62 1046.18 737.66 465.22 588.08 670.21 887.34 446.14 609.64 656.09 443.63 907.08 945.41 138.33 653.15 634.45 515.36 762.90 639.25 185.51 223.72 365.41 708.92 559.37 655.65 497.65 601.07 671.80 773.63 670.32 935.78 661.75 406.49 1145.13 623.91 586.24 0.00 673.15 622.67 492.31 290.91 289.56 519.31 644.44 797.29 463.74 1105.54 557.05 720.30 424.56 733.53 999.65 675.93 740.61 701.61 113.07 680.00 753.57 718.37 208.07 571.70 756.55 777.72 665.61 802.38 581.60 532.22 404.40 587.02 431.21 723.25 762.73 816.82 672.70 585.43 678.77 770.09 376.86
440.34 60.85 119.85 542.04 189.72 452.17 669.59 106.67 251.29 287.62 116.90 509.38 16.12 271.43 150.45 86.82 398.13 664.75 140.52 564.65 512.44 228.59 17.23 792.17 134.35 248.91 433.41 948.58 468.49 660.93 64.51 742.83 268.59 78.25 276.63 618.31 212.28 361.98 354.25 736.14 523.39 609.41 317.98 181.56 318.85 121.84 116.39 658.55 620.34 339.22 304.30 366.17 256.73 305.66 329.85 204.22 159.61 211.27 303.08 50.99 298.45 777.11 164.86 905.35 673.15 0.00 900.28 231.43 686.28 719.86 276.33 60.19 286.52 267.23 712.96 206.12 115.55 422.22 999.56 623.50 60.95 131.45 713.30 634.67 33.18 391.74 46.60 542.97 268.20 210.79 197.63 146.74 191.01 189.66 140.93 625.54 149.85 283.52 728.80 177.90 175.76 165.36 232.91 60.65 96.94 394.64
1311.08 879.39 881.20 883.05 850.17 689.97 803.07 848.82 870.65 961.18 871.80 701.25 916.40 1027.01 813.60 900.61 619.93 859.51 967.61 684.91 431.67 737.34 917.51 872.25 814.71 910.36 584.63 69.48 851.13 1124.76 908.04 157.45 903.40 890.58 1026.54 379.40 893.10 744.65 662.75 788.00 986.60 643.66 927.71 914.54 790.72 1022.12 876.47 437.16 475.37 702.74 1034.24 927.28 964.76 739.01 722.19 982.81 1043.75 966.52 1087.90 888.88 729.03 1059.01 940.52 79.04 622.67 900.28 0.00 739.32 331.76 865.21 788.97 897.25 1008.05 799.43 918.02 864.60 905.18 849.08 120.46 812.13 903.06 1010.73 579.47 668.92 907.13 842.13 928.04 639.01 896.91 1029.34 1034.69 940.10 941.58 858.78 759.35 338.79 831.72 741.39 521.82 901.93 1039.33 953.41 925.58 931.58 931.90 607.51
642.23 285.63 204.46 432.43 110.85 438.07 537.89 179.61 204.29 281.32 132.48 495.28 247.55 452.15 255.14 271.10 284.07 584.32 230.67 444.05 383.18 84.56 242.01 676.39 269.42 227.02 364.76 799.20 580.60 807.58 270.80 581.87 207.34 199.69 433.85 520.42 153.78 365.83 165.18 687.13 680.88 514.61 268.82 175.22 147.71 338.46 182.35 473.65 451.88 218.62 309.00 324.44 254.42 89.19 340.24 248.45 358.03 227.20 443.47 220.03 85.82 916.14 201.20 744.39 492.31 231.43 739.32 0.00 566.73 594.81 173.96 228.40 420.75 181.89 875.52 134.50 249.78 276.61 850.18 781.77 207.60 341.88 662.87 503.12 238.28 463.31 238.46 398.94 217.14 309.82 319.11 200.78 379.88 119.46 90.50 483.11 130.12 139.49 634.86 327.07 379.71 239.65 216.59 245.30 295.56 207.34
1067.22 724.15 646.50 551.29 639.01 506.13 528.14 579.61 634.85 761.09 626.65 509.91 687.86 797.21 677.48 695.37 379.90 613.38 737.11 378.70 276.75 535.36 692.49 540.49 690.09 674.56 252.87 391.64 741.80 953.50 708.53 174.31 667.60 623.96 847.89 273.32 691.57 618.81 452.45 692.27 852.73 379.61 691.91 690.22 552.53 773.89 629.61 105.40 143.61 466.94 792.81 595.52 728.96 520.20 477.25 703.85 811.66 702.37 871.26 651.22 480.91 1021.31 655.96 295.33 290.91 686.28 331.76 566.73 0.00 580.47 553.17 684.87 770.50 565.27 926.51 631.47 674.05 549.29 442.62 820.62 643.03 796.18 528.79 385.64 669.47 681.48 715.67 424.60 661.11 793.54 813.30 708.92 724.94 656.02 648.26 290.28 577.38 480.43 530.31 672.13 827.81 704.75 689.78 698.20 776.66 371.71
959.65 747.40 677.04 276.85 563.82 867.89 62.14 681.74 527.46 567.61 684.96 836.81 703.74 885.47 715.40 794.85 675.86 55.11 647.53 271.73 482.95 540.58 703.78 108.19 768.54 540.00 620.07 855.58 1071.03 1269.17 751.06 754.78 536.23 723.44 907.91 731.67 556.40 778.26 546.80 1130.03 1123.51 241.72 570.73 624.97 531.05 752.53 667.17 475.07 446.67 392.51 640.67 458.35 566.52 547.43 778.12 612.24 747.14 604.09 987.70 696.18 508.99 1317.27 564.35 786.17 289.56 719.86 865.21 594.81 580.47 0.00 477.21 671.54 938.91 490.84 1225.48 577.44 773.53 402.09 804.60 1119.59 711.20 752.45 974.02 266.98 714.43 832.81 745.47 226.20 493.04 699.34 724.66 617.64 854.83 585.47 638.05 692.72 664.31 572.83 944.63 842.16 802.34 613.14 496.30 705.87 799.91 429.97
601.90 301.24 199.83 309.70 86.61 521.18 484.27 268.81 81.68 207.92 237.41 567.24 285.68 488.31 331.49 338.75 393.01 532.32 240.39 379.33 357.30 232.78 270.58 585.40 344.32 127.98 358.66 858.45 669.80 844.76 303.48 727.48 114.43 282.72 503.40 572.92 138.40 514.05 247.46 861.09 746.05 471.60 138.74 188.22 60.46 356.29 199.99 447.77 485.98 153.90 270.88 201.93 175.79 116.27 390.32 216.00 368.61 196.15 533.97 255.46 181.42 1005.34 168.11 775.96 519.31 276.33 788.97 173.96 553.17 477.21 0.00 259.49 481.45 55.57 941.11 110.26 331.89 153.88 909.43 835.22 262.73 339.07 787.88 483.60 243.15 495.37 299.14 384.47 107.94 240.37 278.33 224.41 387.65 108.26 215.51 531.18 188.14 204.83 730.46 391.63 376.69 212.65 136.61 293.06 353.75 181.46
413.83 114.89 59.66 515.11 172.88 455.58 609.40 122.31 217.73 286.61 120.31 472.90 65.14 308.48 149.31 130.39 426.19 713.77 152.18 504.46 509.41 231.13 71.27 757.01 164.49 236.56 443.42 957.13 462.57 660.07 106.27 739.80 216.88 72.33 285.80 662.39 193.92 356.33 307.56 790.18 566.09 596.73 267.61 186.01 304.76 135.77 69.71 600.76 605.57 279.03 256.88 333.61 265.02 245.56 323.93 209.35 146.50 253.48 357.12 45.07 288.02 798.11 223.23 878.67 644.44 60.19 897.25 228.40 684.87 671.54 259.49 0.00 293.39 253.14 725.79 159.44 122.42 410.12 1008.11 619.90 60.09 113.48 710.27 608.73 63.32 421.88 73.93 538.22 248.72 175.40 137.44 122.29 245.05 183.99 137.90 620.65 107.49 286.06 725.47 201.19 176.84 176.89 243.76 34.33 147.11 334.45
611.71 256.29 333.86 751.18 397.90 364.01 876.77 274.89 476.23 547.41 290.20 306.80 277.87 98.39 255.13 199.70 390.60 926.50 346.65 752.73 596.00 421.01 281.74 953.82 202.46 479.35 517.63 941.05 300.87 540.75 234.46 850.60 499.03 221.06 245.89 628.65 413.29 272.69 444.72 632.61 436.34 764.12 548.26 417.40 535.94 341.93 313.72 709.55 671.34 546.40 550.27 590.94 513.93 471.25 402.53 436.55 379.70 473.05 198.91 248.32 435.01 630.20 447.20 937.90 797.29 286.52 1008.05 420.75 770.50 938.91 481.45 293.39 0.00 484.32 562.04 374.25 170.97 618.35 992.03 538.15 263.34 364.22 617.02 789.38 266.57 198.30 266.80 735.39 476.65 424.45 422.06 362.09 136.56 398.80 359.05 670.39 339.47 366.08 559.37 156.13 357.72 430.47 476.10 313.98 304.00 556.53
628.22 322.48 193.48 296.94 120.18 523.48 428.70 241.25 90.78 249.30 194.12 580.69 251.11 521.88 339.12 341.77 369.44 545.95 273.26 323.76 369.40 189.06 284.46 576.31 331.06 157.40 380.67 868.91 642.24 821.19 311.85 739.58 141.38 299.19 493.46 549.35 162.94 470.33 204.71 869.02 764.86 416.03 194.31 197.32 51.62 309.72 216.10 459.87 454.05 98.33 313.75 146.36 229.79 92.70 409.28 225.10 320.45 219.92 552.93 281.50 125.85 977.78 177.21 720.39 463.74 267.23 799.43 181.89 565.27 490.84 55.57 253.14 484.32 0.00 949.30 129.22 313.35 180.07 911.25 843.41 288.28 287.43 732.54 428.03 276.72 528.94 300.48 369.66 125.20 295.94 333.90 243.37 406.61 141.83 234.47 507.61 204.24 194.78 674.89 409.78 363.64 226.00 192.18 237.49 357.20 193.56
1036.00 702.30 785.45 1189.28 854.50 526.14 1163.34 708.05 903.35 965.31 755.18 583.35 729.08 522.68 696.72 642.57 718.17 1280.59 839.00 1107.65 920.01 790.96 730.19 1310.95 703.13 923.07 728.85 881.22 433.88 206.74 718.87 883.58 925.12 713.98 664.87 661.63 831.19 509.69 896.13 290.34 392.14 1114.74 966.16 872.83 998.00 834.80 781.33 971.20 932.99 993.62 982.67 1007.78 931.83 907.47 649.97 896.17 850.34 909.64 595.82 741.24 860.82 243.93 877.82 838.98 1105.54 712.96 918.02 875.52 926.51 1225.48 941.11 725.79 562.04 949.30 0.00 871.06 671.30 1053.56 932.20 105.89 756.26 839.27 453.85 1112.28 746.14 445.74 714.33 1061.75 894.55 891.85 863.23 809.11 660.22 867.39 796.34 703.37 794.55 817.49 396.20 647.76 782.01 857.51 894.00 760.12 754.81 982.34
573.27 193.26 106.26 376.93 23.65 452.82 551.69 173.37 117.09 230.67 136.14 456.98 197.82 406.16 230.22 228.49 382.32 629.15 144.04 452.98 447.92 141.05 196.40 685.63 257.05 150.75 429.50 899.86 572.63 761.89 221.91 707.15 155.61 182.39 419.69 576.91 154.24 422.32 229.92 782.79 635.79 470.76 225.12 116.21 170.72 257.56 89.73 538.39 516.62 227.55 292.69 237.24 197.60 142.46 280.06 165.58 271.40 184.06 423.71 155.13 150.56 908.17 161.07 842.52 557.05 206.12 864.60 134.50 631.47 577.44 110.26 159.44 374.25 129.22 871.06 0.00 232.48 258.97 929.10 765.17 161.91 272.92 677.62 496.02 173.38 432.41 215.21 446.50 136.31 223.19 232.48 114.15 277.39 24.55 105.25 539.60 86.87 195.98 699.60 294.07 300.55 180.64 159.36 193.77 245.77 272.08
489.46 85.32 162.89 602.63 252.14 416.78 723.52 103.92 305.26 376.44 119.23 404.72 106.90 221.51 91.58 28.73 368.07 755.53 175.68 608.93 496.83 263.81 110.77 871.13 98.33 308.38 421.18 918.52 470.43 651.50 63.49 747.73 328.06 50.09 262.20 652.47 242.32 303.11 363.88 730.53 517.32 593.15 377.29 246.43 364.97 170.96 142.75 667.77 648.59 393.15 379.30 444.20 342.96 300.28 265.81 265.58 208.73 302.08 295.56 77.35 317.57 801.17 276.23 867.97 720.30 115.55 905.18 249.78 674.05 773.53 331.89 122.42 170.97 313.35 671.30 232.48 0.00 447.38 969.50 565.41 92.37 193.25 705.59 618.41 95.60 344.08 95.83 569.19 305.68 253.48 251.09 191.12 149.24 250.25 188.08 616.48 168.50 311.77 657.29 96.43 212.98 259.50 305.13 143.01 133.03 437.68
657.21 448.99 353.71 155.82 240.49 600.82 394.65 405.33 228.20 301.16 374.19 650.95 406.10 636.06 433.80 468.70 493.34 457.20 357.90 276.49 417.41 361.17 418.33 510.28 486.94 212.92 450.58 918.56 774.75 992.28 451.23 723.60 193.24 397.29 608.65 668.27 257.14 543.87 300.08 963.74 859.54 346.26 281.48 326.08 128.96 478.89 348.70 443.89 482.10 158.93 327.80 134.81 281.65 270.15 539.03 342.02 449.95 257.70 591.11 407.32 291.73 1091.69 296.97 790.56 424.56 422.22 849.08 276.61 549.29 402.09 153.88 410.12 618.35 180.07 1053.56 258.97 447.38 0.00 969.54 981.20 392.30 459.20 898.42 357.92 390.90 641.35 446.89 230.59 193.78 394.25 398.54 355.39 536.36 234.42 340.09 626.53 342.02 339.25 840.77 533.40 486.80 319.89 258.62 417.56 501.50 241.57
1335.45 999.85 992.06 993.91 927.19 793.46 866.74 942.07 965.31 1081.64 925.33 788.57 1015.68 1023.15 920.61 998.23 601.43 859.71 1030.62 752.93 552.13 788.05 1016.79 912.79 925.57 1030.82 695.49 50.98 894.90 1120.92 1028.50 268.31 1015.91 962.29 1137.40 483.63 1003.96 841.42 783.21 726.28 915.88 692.55 1048.17 1025.40 911.18 1121.40 979.54 548.02 517.84 823.20 1132.13 1038.14 1057.57 845.77 703.69 1058.81 1110.62 974.49 1125.38 982.55 802.05 1073.19 1020.90 190.86 733.53 999.56 120.46 850.18 442.62 804.60 909.43 1008.11 992.03 911.25 932.20 929.10 969.50 969.54 0.00 826.31 997.57 1121.59 593.65 671.07 1000.80 907.92 1046.16 750.83 999.73 1083.68 1115.33 1000.73 1005.21 948.84 870.21 441.89 938.66 733.12 536.00 1012.79 1159.79 1053.85 1046.04 1042.44 1052.36 727.97
1033.73 605.35 679.56 1118.87 748.61 420.25 1057.45 602.16 797.46 859.42 649.29 477.46 639.62 553.27 590.83 536.68 612.28 1174.70 741.09 1035.29 830.33 718.60 640.73 1205.06 597.24 817.18 622.96 775.33 327.99 312.63 612.98 825.38 819.23 608.09 736.03 603.43 725.30 437.33 790.24 184.45 286.25 1008.85 860.27 779.98 892.11 736.37 675.44 894.30 856.09 891.39 876.78 937.37 825.94 824.25 544.08 819.97 744.45 803.75 632.30 635.35 780.53 246.88 772.72 733.09 999.65 623.50 812.13 781.77 820.62 1119.59 835.22 619.90 538.15 843.41 105.89 765.17 565.41 981.20 826.31 0.00 650.37 733.38 347.96 1006.39 653.60 339.85 608.44 989.39 788.66 794.90 757.34 742.19 565.90 770.26 691.63 609.16 688.66 711.60 290.31 560.27 720.93 788.86 788.11 654.23 657.86 902.05
449.36 81.12 107.96 510.26 176.12 438.38 669.49 63.42 234.69 323.22 108.80 495.59 44.83 266.18 119.26 113.69 396.14 693.46 134.62 564.55 502.99 223.31 53.53 804.52 134.44 255.97 390.16 946.59 432.52 599.98 93.60 745.61 275.65 42.28 309.51 608.89 224.36 330.79 342.57 772.44 543.66 573.44 327.70 201.47 323.19 130.86 72.18 649.06 615.06 339.12 316.97 385.17 292.80 280.22 293.88 173.21 168.63 230.27 339.38 15.02 293.17 768.06 183.86 870.07 675.93 60.95 903.06 207.60 643.03 711.20 262.73 60.09 263.34 288.28 756.26 161.91 92.37 392.30 997.57 650.37 0.00 153.15 697.78 598.70 33.27 388.75 79.47 537.69 269.11 221.85 197.53 154.45 193.91 157.88 143.71 567.15 124.41 278.24 667.85 141.10 184.78 211.42 251.91 71.71 133.63 382.75
340.79 146.23 168.98 570.91 282.20 552.61 716.13 216.57 274.53 261.57 233.79 586.38 145.82 335.54 255.74 214.90 529.58 794.45 166.26 611.19 619.61 344.61 115.67 860.64 244.27 272.15 543.31 1070.61 574.44 753.13 162.95 853.28 291.83 178.76 206.03 748.01 235.52 467.27 421.04 834.58 608.77 652.80 340.63 203.74 339.05 22.29 183.19 710.08 719.05 385.76 278.25 389.41 270.61 354.88 435.80 178.17 33.02 218.67 381.63 156.94 397.71 899.54 188.10 987.99 740.61 131.45 1010.73 341.88 796.18 752.45 339.07 113.48 364.22 287.43 839.27 272.92 193.25 459.20 1121.59 733.38 153.15 0.00 823.75 627.54 143.10 465.96 169.03 603.94 281.74 136.53 98.57 165.70 276.39 286.67 251.38 720.30 220.97 399.54 779.65 289.68 76.21 139.31 256.15 129.15 143.07 443.77
1124.10 759.10 694.22 978.25 701.27 367.43 911.88 661.84 778.08 908.29 694.01 310.22 725.45 715.41 679.67 726.91 530.53 936.97 786.74 702.29 531.88 668.17 724.03 1013.77 685.88 826.18 522.78 542.67 483.31 660.59 740.07 477.42 828.68 655.50 859.08 255.47 794.55 468.14 647.70 289.02 618.78 748.21 900.55 793.83 783.50 815.01 696.97 578.68 540.47 739.49 942.42 864.91 875.22 697.85 460.25 824.42 852.78 836.72 787.62 682.76 606.69 594.84 838.69 500.43 701.61 713.30 579.47 662.87 528.79 974.02 787.88 710.27 617.02 732.54 453.85 677.62 705.59 898.42 593.65 347.96 697.78 823.75 0.00 773.47 701.01 497.55 747.21 748.19 812.50 858.89 847.71 756.85 709.09 702.17 572.37 297.21 644.74 636.40 57.65 683.32 868.93 803.48 836.98 744.60 810.24 693.21
968.33 660.02 588.32 434.96 491.88 636.69 204.84 579.00 470.34 621.66 531.87 640.47 626.37 781.03 645.30 639.73 510.46 322.09 620.32 104.27 344.78 455.31 624.95 256.37 657.16 512.54 383.43 620.09 872.36 1084.06 652.89 559.95 518.00 568.32 833.57 518.00 538.17 692.99 427.31 925.39 983.29 25.26 586.91 561.17 438.97 649.83 585.75 280.24 242.03 329.70 595.85 478.00 592.12 472.21 607.81 604.66 660.56 603.18 883.26 583.68 417.30 1151.87 556.77 589.88 113.07 634.67 668.92 503.12 385.64 266.98 483.60 608.73 789.38 428.03 1112.28 496.02 618.41 357.92 671.07 1006.39 598.70 627.54 773.47 0.00 601.93 790.47 648.13 140.93 474.81 681.11 706.43 609.16 753.81 488.19 573.47 476.26 581.14 486.23 795.11 714.84 703.75 605.56 550.35 643.06 694.95 344.70
473.52 58.09 122.98 508.86 156.54 419.62 672.72 95.49 246.16 311.37 124.47 476.83 42.53 245.16 117.27 116.92 399.37 691.16 137.85 567.78 506.22 255.38 27.43 815.99 101.17 225.96 416.60 949.82 435.75 633.25 60.33 749.68 245.64 45.51 276.24 634.63 245.46 328.80 354.04 746.34 520.15 576.67 300.33 200.48 303.61 155.02 83.65 652.96 614.75 342.35 320.20 361.78 266.93 272.48 297.11 206.48 176.12 244.45 313.28 18.25 297.20 771.29 198.04 893.66 680.00 33.18 907.13 238.28 669.47 714.43 243.15 63.32 266.57 276.72 746.14 173.38 95.60 390.90 1000.80 653.60 33.27 143.10 701.01 601.93 0.00 358.56 55.99 564.61 269.20 225.64 200.76 136.76 188.25 156.48 147.78 592.89 116.67 289.93 701.12 148.48 193.24 198.06 266.09 75.50 110.60 397.77
762.17 356.21 467.60 782.79 408.76 277.43 813.60 367.87 502.20 609.58 394.33 220.22 399.47 296.69 309.01 318.63 306.49 887.92 474.73 695.44 507.80 378.75 385.99 941.00 257.39 535.86 428.61 856.94 238.22 452.45 371.62 764.02 552.80 354.80 401.97 542.07 574.36 97.48 512.32 524.30 330.34 765.21 610.23 481.54 555.83 443.67 424.71 610.89 572.68 581.41 674.82 622.35 614.69 495.26 204.23 561.96 481.44 569.17 372.37 376.81 448.61 573.76 544.63 765.65 753.57 391.74 842.13 463.31 681.48 832.81 495.37 421.88 198.30 528.94 445.74 432.41 344.08 641.35 907.92 339.85 388.75 465.96 497.55 790.47 358.56 0.00 390.39 649.54 521.42 545.76 537.51 478.08 226.05 430.41 374.53 503.34 443.60 433.68 439.90 247.65 454.37 535.88 544.47 429.32 397.08 570.13
457.54 48.65 133.59 564.85 212.53 454.40 683.33 141.69 291.66 334.22 141.01 481.91 49.37 261.55 126.84 71.76 444.73 698.00 173.77 578.39 552.42 275.19 63.75 825.42 135.95 281.95 462.80 995.18 481.95 679.45 32.34 782.99 290.81 91.71 248.25 651.56 245.98 338.37 381.49 782.66 492.16 622.87 341.54 217.85 352.10 163.51 129.85 662.86 666.94 352.96 330.81 407.54 303.25 312.30 343.31 241.19 136.01 257.87 287.21 64.45 324.28 730.51 211.46 903.23 718.37 46.60 928.04 238.46 715.67 745.47 299.14 73.93 266.80 300.48 714.33 215.21 95.83 446.89 1046.16 608.44 79.47 169.03 747.21 648.13 55.99 390.39 0.00 589.57 301.45 193.22 155.26 154.13 178.20 212.47 187.53 646.62 172.66 330.12 700.70 162.84 141.25 211.96 279.51 68.77 73.18 408.38
876.00 603.82 478.56 294.03 422.85 647.13 164.06 474.27 329.41 487.93 514.26 610.61 559.09 722.66 550.74 590.51 520.90 280.58 517.15 45.90 319.32 314.38 560.20 311.67 584.75 396.03 393.87 708.49 875.26 1042.97 603.67 532.89 380.01 519.10 746.32 565.99 401.57 552.06 354.46 936.42 897.31 115.67 468.25 435.95 359.55 604.02 491.92 319.20 280.99 271.33 546.28 353.60 451.19 331.28 605.92 463.73 636.96 462.25 821.70 546.36 325.29 1162.10 415.84 559.97 208.07 542.97 639.01 398.94 424.60 226.20 384.47 538.22 735.39 369.66 1061.75 446.50 569.19 230.59 750.83 989.39 537.69 603.94 748.19 140.93 564.61 649.54 589.57 0.00 363.83 548.48 586.44 487.26 687.70 444.50 432.54 566.67 464.99 369.31 805.84 661.27 653.83 464.63 439.37 572.55 639.91 203.77
565.20 308.51 225.88 349.60 112.66 586.41 527.89 261.54 34.42 146.85 251.14 593.29 252.08 514.36 359.41 334.41 467.13 548.15 195.05 404.31 465.24 277.36 285.43 601.23 364.25 46.96 461.98 966.39 606.19 869.09 312.82 799.01 43.19 289.59 414.87 647.04 63.36 544.81 262.40 854.48 710.13 449.55 121.33 140.96 123.01 298.96 196.93 555.71 565.93 206.29 188.55 176.34 131.60 190.39 416.37 158.03 298.43 141.81 560.02 262.33 251.05 941.73 110.78 845.59 571.70 268.20 896.91 217.14 661.11 493.04 107.94 248.72 476.65 125.20 894.55 136.31 305.68 193.78 999.73 788.66 269.11 281.74 812.50 474.81 269.20 521.42 301.45 363.83 0.00 206.30 231.62 188.49 413.70 134.31 240.13 605.30 221.81 266.61 800.09 402.11 333.08 143.88 75.54 240.57 361.02 289.40
361.53 189.55 171.67 524.48 246.84 576.18 706.90 276.65 219.07 215.14 240.91 633.39 199.89 395.65 280.37 258.22 482.25 754.45 105.31 594.38 597.67 364.24 198.21 807.53 300.80 225.72 574.48 1032.70 512.18 809.14 218.20 891.69 245.40 203.39 266.14 781.70 168.22 488.71 428.58 887.05 630.68 655.85 250.99 157.31 300.83 154.55 201.31 688.14 703.92 394.27 231.82 342.98 213.45 344.89 461.99 131.74 131.07 138.10 434.38 215.80 373.75 847.72 141.67 990.68 756.55 210.79 1029.34 309.82 793.54 699.34 240.37 175.40 424.45 295.94 891.85 223.19 253.48 394.25 1083.68 794.90 221.85 136.53 858.89 681.11 225.64 545.76 193.22 548.48 206.30 0.00 37.96 109.04 319.71 230.01 293.52 752.25 240.58 419.17 833.40 331.81 136.32 92.88 205.64 150.14 207.21 421.83
399.49 181.30 180.96 546.83 252.79 553.65 714.14 240.79 257.03 237.81 218.38 610.34 202.58 394.20 272.34 227.02 520.21 779.77 99.01 632.34 612.25 368.57 208.71 832.85 291.21 234.91 567.53 1068.08 550.14 797.51 187.60 877.24 251.49 209.77 272.27 790.99 206.18 483.87 437.87 925.01 639.97 681.17 257.22 151.51 312.55 116.59 207.15 707.90 698.12 412.31 269.78 365.33 193.37 338.59 461.37 136.05 93.11 140.84 396.42 182.51 383.04 885.68 179.63 999.97 777.72 197.63 1034.69 319.11 813.30 724.66 278.33 137.44 422.06 333.90 863.23 232.48 251.09 398.54 1115.33 757.34 197.53 98.57 847.71 706.43 200.76 537.51 155.26 586.44 231.62 37.96 0.00 118.33 311.46 231.14 275.34 753.50 244.93 410.92 842.69 318.10 142.45 130.84 243.60 171.77 169.25 455.75
461.91 173.13 62.63 473.35 137.80 467.14 630.57 169.22 157.85 230.71 131.87 524.35 139.59 381.92 218.01 212.44 455.77 672.75 29.89 525.63 513.26 255.20 129.51 725.83 220.69 184.99 495.96 949.75 556.93 754.43 176.79 782.65 204.67 141.03 316.22 672.66 125.13 428.41 319.54 848.42 521.64 584.91 242.63 63.72 258.83 143.41 111.32 603.73 610.33 300.20 219.24 302.25 202.40 248.53 394.21 87.06 157.25 147.35 415.36 139.43 264.71 810.50 100.94 881.64 665.61 146.74 940.10 200.78 708.92 617.64 224.41 122.29 362.09 243.37 809.11 114.15 191.12 355.39 1000.73 742.19 154.45 165.70 756.85 609.16 136.76 478.08 154.13 487.26 188.49 109.04 118.33 0.00 278.57 120.97 184.48 653.75 131.54 310.13 724.36 271.51 186.40 108.45 168.99 89.84 225.64 337.42
555.39 130.16 273.25 654.32 301.04 409.99 829.08 213.43 387.07 457.72 260.56 398.87 206.60 177.89 180.01 134.04 403.78 855.23 248.68 679.76 642.94 373.32 173.78 956.90 126.87 414.21 519.09 954.23 426.81 607.88 145.86 784.13 395.48 185.49 175.92 709.14 380.37 261.54 452.31 724.68 556.39 728.55 483.72 335.58 448.11 277.93 224.56 722.73 684.52 502.46 484.09 514.63 413.28 419.85 392.72 365.63 299.80 384.45 146.32 206.50 395.89 681.68 355.87 929.71 802.38 191.01 941.58 379.88 724.94 854.83 387.65 245.05 136.56 406.61 660.22 277.39 149.24 536.36 1005.21 565.90 193.91 276.39 709.09 753.81 188.25 226.05 178.20 687.70 413.70 319.71 311.46 278.57 0.00 301.94 289.38 667.40 276.79 424.19 651.44 52.81 228.32 345.15 423.92 221.85 171.03 517.41
582.88 214.57 130.81 352.38 21.65 477.37 527.14 170.91 115.09 210.16 160.69 481.53 199.01 401.64 236.28 253.04 403.53 627.15 132.13 457.35 444.56 165.60 183.91 674.75 257.65 148.75 415.70 897.86 571.90 757.86 216.81 701.33 165.69 200.16 395.14 593.87 178.79 446.87 216.12 806.59 642.61 488.27 223.12 91.66 168.72 264.38 114.28 552.02 513.81 231.92 283.22 235.24 197.96 137.22 304.61 141.03 260.35 182.06 448.26 172.90 175.11 907.44 156.06 855.05 581.60 189.66 858.78 119.46 656.02 585.47 108.26 183.99 398.80 141.83 867.39 24.55 250.25 234.42 948.84 770.26 157.88 286.67 702.17 488.19 156.48 430.41 212.47 444.50 134.31 230.01 231.14 120.97 301.94 0.00 129.80 552.13 111.42 220.53 724.15 298.98 288.64 156.09 157.36 210.81 267.08 289.72
551.73 201.78 121.85 482.18 128.90 347.57 575.91 89.47 205.71 335.92 121.64 404.78 157.05 361.65 187.34 209.40 339.18 674.82 214.37 470.97 371.51 118.16 158.16 723.52 182.95 253.81 412.90 819.23 490.46 743.69 205.44 601.90 256.31 137.99 361.52 554.02 244.28 318.57 213.32 730.59 613.08 548.21 328.18 221.46 211.13 262.77 124.60 548.12 509.91 245.54 392.13 342.49 302.85 179.69 249.74 252.05 284.40 289.31 435.70 129.53 176.32 826.00 266.32 764.42 532.22 140.93 759.35 90.50 648.26 638.05 215.51 137.90 359.05 234.47 796.34 105.25 188.08 340.09 870.21 691.63 143.71 251.38 572.37 573.47 147.78 374.53 187.53 432.54 240.13 293.52 275.34 184.48 289.38 129.80 0.00 516.71 72.37 173.09 630.02 236.57 314.74 253.19 264.61 172.23 237.87 297.84
1016.51 648.27 599.63 714.30 533.72 352.31 630.58 528.19 577.16 693.86 575.32 363.59 609.42 768.78 605.52 637.80 286.34 681.26 654.49 526.84 253.42 398.55 620.32 732.63 638.67 610.38 280.45 408.27 631.74 795.51 650.96 263.69 627.76 566.39 800.24 41.74 633.19 405.86 462.43 586.23 706.41 451.00 669.92 643.79 559.23 698.01 550.94 361.05 326.74 467.60 766.92 653.97 692.77 414.91 388.60 693.16 735.78 694.13 813.72 582.17 468.41 856.04 650.10 302.92 404.40 625.54 338.79 483.11 290.28 692.72 531.18 620.65 670.39 507.61 703.37 539.60 616.48 626.53 441.89 609.16 567.15 720.30 297.21 476.26 592.89 503.34 646.62 566.67 605.30 752.25 753.50 653.75 667.40 552.13 516.71 0.00 549.16 422.67 318.85 689.57 751.93 698.89 622.55 638.86 700.78 429.26
521.32 174.76 96.02 463.80 109.15 384.54 629.05 86.50 202.59 294.80 49.27 441.75 139.09 361.83 143.35 181.75 373.17 714.44 161.43 510.89 443.88 150.61 144.10 772.50 186.21 236.25 386.80 891.60 487.49 724.39 177.00 674.27 219.54 144.89 358.55 586.47 190.90 354.88 259.89 767.56 569.09 557.63 307.78 185.64 248.60 227.68 52.23 536.29 498.08 302.57 346.12 322.74 284.47 155.81 306.72 203.06 248.38 244.89 423.11 117.63 180.53 823.03 222.60 836.79 587.02 149.85 831.72 130.12 577.38 664.31 188.14 107.49 339.47 204.24 794.55 86.87 168.50 342.02 938.66 688.66 124.41 220.97 644.74 581.14 116.67 443.60 172.66 464.99 221.81 240.58 244.93 131.54 276.79 111.42 72.37 549.16 0.00 205.54 694.32 264.93 263.33 220.22 223.49 120.82 212.35 299.31
655.24 344.37 270.88 475.49 219.63 411.88 510.69 214.82 232.19 390.71 192.54 466.06 299.64 464.47 291.29 307.77 253.22 600.88 340.02 386.65 309.72 54.93 300.75 587.74 297.32 298.81 249.44 784.10 615.81 783.52 348.03 602.88 282.79 297.61 486.87 380.93 293.27 336.20 78.64 767.30 717.03 478.92 343.57 312.19 246.40 405.36 246.75 375.03 336.82 180.32 448.49 327.15 371.20 112.65 254.90 361.56 432.56 365.03 564.99 271.68 68.93 894.63 318.62 683.07 431.21 283.52 741.39 139.49 480.43 572.83 204.83 286.06 366.08 194.78 817.49 195.98 311.77 339.25 733.12 711.60 278.24 399.54 636.40 486.23 289.93 433.68 330.12 369.31 266.61 419.17 410.92 310.13 424.19 220.53 173.09 422.67 205.54 0.00 617.97 384.54 459.28 367.41 322.41 320.39 355.62 190.45
1075.86 730.79 723.39 955.60 723.25 309.78 882.49 666.10 765.67 868.09 645.05 252.57 712.68 657.76 681.37 686.02 472.88 994.62 754.25 759.94 572.27 618.90 721.38 1030.10 628.23 831.86 509.61 485.02 533.44 602.94 702.14 535.07 816.27 707.38 805.26 313.12 788.64 520.57 590.05 346.67 576.56 769.85 866.83 788.08 726.51 757.36 699.26 635.71 598.12 681.84 884.77 807.26 862.15 640.20 452.28 784.69 795.13 779.07 758.28 682.87 549.04 537.19 794.62 442.78 723.25 728.80 521.82 634.86 530.31 944.63 730.46 725.47 559.37 674.89 396.20 699.60 657.29 840.77 536.00 290.31 667.85 779.65 57.65 795.11 701.12 439.90 700.70 805.84 800.09 833.40 842.69 724.36 651.44 724.15 630.02 318.85 694.32 617.97 0.00 666.96 811.28 745.83 849.96 739.56 773.88 670.56
585.89 159.75 249.06 651.36 305.02 357.18 780.02 197.70 375.79 459.85 215.66 414.39 185.93 125.08 133.82 91.08 453.00 834.56 272.11 640.11 590.13 354.73 175.91 927.63 87.22 374.44 466.28 961.81 374.00 555.07 159.92 744.48 394.12 146.52 175.76 667.75 338.75 314.35 406.12 740.20 509.47 689.58 448.81 311.37 429.62 267.39 213.28 731.00 699.41 449.65 458.07 510.26 415.41 396.71 353.07 314.31 298.85 371.37 199.13 156.12 356.24 709.54 324.96 907.00 762.73 177.90 901.93 327.07 672.13 842.16 391.63 201.19 156.13 409.78 647.76 294.07 96.43 533.40 1012.79 560.27 141.10 289.68 683.32 714.84 148.48 247.65 162.84 661.27 402.11 331.81 318.10 271.51 52.81 298.98 236.57 689.57 264.93 384.54 666.96 0.00 230.17 343.26 393.01 181.67 212.26 477.76
372.42 159.94 236.50 620.80 310.29 580.08 786.24 248.20 324.42 311.46 275.89 600.07 190.62 259.33 261.48 184.25 573.89 839.25 156.51 681.30 666.48 404.35 165.81 904.65 264.73 322.04 574.94 1108.81 508.25 680.96 150.50 916.64 339.57 227.06 129.82 792.81 285.41 403.57 484.40 883.12 610.32 729.01 351.17 250.12 385.45 53.92 221.68 777.60 761.41 455.87 328.14 439.30 312.18 396.09 478.66 215.67 89.18 229.10 305.42 199.80 443.86 843.79 237.99 1025.77 816.82 175.76 1039.33 379.71 827.81 802.34 376.69 176.84 357.72 363.64 782.01 300.55 212.98 486.80 1159.79 720.93 184.78 76.21 868.93 703.75 193.24 454.37 141.25 653.83 333.08 136.32 142.45 186.40 228.32 288.64 314.74 751.93 263.33 459.28 811.28 230.17 0.00 189.20 306.04 142.51 113.70 511.29
454.41 226.21 131.34 431.60 177.74 512.91 618.10 237.93 135.22 122.26 209.68 570.12 181.48 436.79 315.33 252.18 500.85 668.25 138.34 510.53 521.74 321.69 182.59 721.33 278.49 132.84 515.62 1022.89 605.06 811.40 229.87 821.52 152.52 243.57 319.02 695.73 96.21 470.78 372.21 895.93 630.09 580.30 201.32 64.43 214.47 161.60 180.03 599.35 611.04 324.33 138.94 250.10 158.45 293.31 423.95 38.86 172.33 79.36 468.44 216.31 325.47 918.95 48.79 946.39 672.70 165.36 953.41 239.65 704.75 613.14 212.65 176.89 430.47 226.00 857.51 180.64 259.50 319.89 1053.85 788.86 211.42 139.31 803.48 605.56 198.06 535.88 211.96 464.63 143.88 92.88 130.84 108.45 345.15 156.09 253.19 698.89 220.22 367.41 745.83 343.26 189.20 0.00 116.84 188.57 262.30 345.90
489.66 293.76 231.62 379.14 135.71 608.03 501.26 309.99 109.96 71.31 272.76 616.34 249.03 504.34 339.87 310.24 467.45 551.41 191.81 479.85 493.91 300.41 250.14 604.49 352.82 61.82 495.27 995.06 681.73 851.89 297.42 798.46 68.48 262.89 435.86 664.29 62.81 470.60 337.94 903.72 690.63 525.09 100.47 128.67 193.02 256.23 239.64 584.38 586.35 281.83 144.37 197.64 70.22 209.76 439.42 115.94 250.84 107.79 535.99 266.93 300.92 979.49 68.05 912.57 585.43 232.91 925.58 216.59 689.78 496.30 136.61 243.76 476.10 192.18 894.00 159.36 305.13 258.62 1046.04 788.11 251.91 256.15 836.98 550.35 266.09 544.47 279.51 439.37 75.54 205.64 243.60 168.99 423.92 157.36 264.61 622.55 223.49 322.41 849.96 393.01 306.04 116.84 0.00 240.02 329.85 318.07
425.36 91.69 93.99 534.43 207.21 437.57 643.73 135.13 247.69 310.83 146.06 494.78 49.75 302.84 169.90 140.53 446.78 698.38 119.02 538.79 543.74 265.46 48.07 791.34 176.67 269.09 461.87 991.46 483.16 671.69 95.35 774.13 251.21 92.92 272.33 651.94 177.21 338.57 341.89 766.98 554.23 624.08 301.94 153.56 289.11 106.86 104.04 635.09 618.90 313.36 291.21 367.94 277.85 276.63 344.52 176.90 127.56 237.19 333.92 65.66 301.35 799.28 190.78 913.00 678.77 60.65 931.58 245.30 698.20 705.87 293.06 34.33 313.98 237.49 760.12 193.77 143.01 417.56 1042.44 654.23 71.71 129.15 744.60 643.06 75.50 429.32 68.77 572.55 240.57 150.14 171.77 89.84 221.85 210.81 172.23 638.86 120.82 320.39 739.56 181.67 142.51 188.57 240.02 0.00 141.95 368.78
384.36 52.51 201.51 619.46 267.14 491.18 756.51 197.05 348.23 378.62 163.08 530.73 113.06 265.41 192.14 121.18 486.98 761.69 208.34 651.57 609.38 325.53 96.13 790.95 172.73 328.36 523.79 1001.38 514.33 733.61 81.16 829.99 317.83 156.11 193.23 715.25 309.22 374.28 412.38 815.04 515.05 687.27 373.17 257.93 408.82 120.78 194.25 696.81 658.60 426.14 345.38 463.11 334.18 317.39 398.84 293.47 158.55 251.10 302.16 128.85 381.38 803.69 261.80 962.70 770.09 96.94 931.90 295.56 776.66 799.91 353.75 147.11 304.00 357.20 754.81 245.77 133.03 501.50 1052.36 657.86 133.63 143.07 810.24 694.95 110.60 397.08 73.18 639.91 361.02 207.21 169.25 225.64 171.03 267.08 237.87 700.78 212.35 355.62 773.88 212.26 113.70 262.30 329.85 141.95 0.00 476.30
707.83 425.25 274.79 285.04 268.07 548.38 367.83 351.27 263.14 389.38 339.82 532.66 399.59 602.84 405.51 459.00 413.39 484.35 365.40 249.67 175.84 191.38 381.63 495.81 390.54 302.85 350.27 676.99 694.55 913.06 428.91 546.02 295.89 387.59 600.00 437.74 319.86 472.65 150.69 858.47 753.10 319.44 320.20 364.27 183.21 466.06 323.48 266.31 304.52 95.23 452.34 339.92 357.25 212.68 430.65 375.30 476.79 377.61 650.81 379.52 121.52 1027.99 349.57 667.04 376.86 394.64 607.51 207.34 371.71 429.97 181.46 334.45 556.53 193.56 982.34 272.08 437.68 241.57 727.97 902.05 382.75 443.77 693.21 344.70 397.77 570.13 408.38 203.77 289.40 421.83 455.75 337.42 517.41 289.72 297.84 429.26 299.31 190.45 670.56 477.76 511.29 345.90 318.07 368.78 476.30 0.00
DEMAND_SECTION
1 0
2 4
3 5
4 8
5 9
6 1
7 7
8 1
9 2
10 5
11 10
12 10
13 4
14 3
15 2
16 2
17 10
18 4
19 8
20 7
21 5
22 4
23 9
24 5
25 10
26 7
27 2
28 7
29 4
30 7
31 5
32 2
33 7
34 10
35 5
36 5
37 9
38 1
39 1
40 6
41 7
42 9
43 10
44 6
45 5
46 8
47 6
48 2
49 2
50 5
51 10
52 10
53 6
54 4
55 9
56 4
57 6
58 5
59 5
60 3
61 7
62 10
63 6
64 7
65 1
66 4
67 7
68 2
69 3
70 6
71 1
72 4
73 6
74 2
75 9
76 8
77 9
78 7
79 5
80 10
81 1
82 2
83 1
84 2
85 3
86 4
87 6
88 5
89 5
90 8
91 1
92 4
93 1
94 8
95 9
96 2
97 6
98 6
99 8
100 4
101 7
102 4
103 8
104 6
105 8
106 1
DEPOT_SECTION
1
-1
EOF
