NAME: LDG150_1176_none_150_0150
COMMENT: CVRP with travel times.  rootPos=1,custPos=1,demandType=7,avgRouteSizeIndex=6,weather=none,lambda_cluster=1,lambda_random=4, T1=300,T2=700,beta=1, alpha(i,j) ~ U(0.8,1.2)
TYPE: CVRP
DIMENSION: 151
EDGE_WEIGHT_TYPE: EXPLICIT
EDGE_WEIGHT_FORMAT: FULL_MATRIX
CAPACITY: 264
NODE_COORD_SECTION
1 81 715
2 455 943
3 862 641
4 110 115
5 991 876
6 230 682
7 415 568
8 818 759
9 917 685
10 917 497
11 373 208
12 615 544
13 742 312
14 389 512
15 689 81
16 668 633
17 152 153
18 784 228
19 303 515
20 403 529
21 956 987
22 640 832
23 236 583
24 17 652
25 44 337
26 910 655
27 257 976
28 685 836
29 83 615
30 231 229
31 715 361
32 163 757
33 169 208
34 916 468
35 85 633
36 772 39
37 889 149
38 974 90
39 297 248
40 614 457
41 199 30
42 501 845
43 621 766
44 685 660
45 616 73
46 597 709
47 117 35
48 702 174
49 697 901
50 779 858
51 170 903
52 313 170
53 860 548
54 717 11
55 343 490
56 367 711
57 905 731
58 109 591
59 633 56
60 547 832
61 646 580
62 650 659
63 436 797
64 132 468
65 212 681
66 949 925
67 389 151
68 237 406
69 536 435
70 812 28
71 668 447
72 963 118
73 254 861
74 705 959
75 478 927
76 464 792
77 830 931
78 455 448
79 69 316
80 260 198
81 910 130
82 418 586
83 832 161
84 314 808
85 711 238
86 372 395
87 499 781
88 642 15
89 796 871
90 733 555
91 220 473
92 442 544
93 118 723
94 93 869
95 764 608
96 920 462
97 140 225
98 40 25
99 596 568
100 730 889
101 250 973
102 975 837
103 871 702
104 723 437
105 975 565
106 489 595
107 577 744
108 546 209
109 166 70
110 219 786
111 735 245
112 5 142
113 152 665
114 850 783
115 13 844
116 857 963
117 25 373
118 759 605
119 960 551
120 310 610
121 8 122
122 424 941
123 742 985
124 322 3
125 742 763
126 818 933
127 281 824
128 538 798
129 846 18
130 823 595
131 995 366
132 227 362
133 225 376
134 775 168
135 467 871
136 625 405
137 548 371
138 308 131
139 502 499
140 311 88
141 225 565
142 79 605
143 668 828
144 704 0
145 405 372
146 373 68
147 793 617
148 19 931
149 206 397
150 448 797
151 308 224
EDGE_WEIGHT_SECTION
0.00 431.27 726.12 582.65 870.58 185.42 388.43 677.07 806.50 831.48 524.19 601.82 713.51 391.75 812.85 527.99 557.42 791.85 311.54 376.62 885.24 567.12 236.74 93.24 377.48 757.15 310.75 590.94 105.12 500.20 654.55 107.33 470.91 794.61 81.34 928.79 930.32 923.31 521.68 603.09 654.97 442.71 518.95 566.66 796.67 517.59 655.20 771.78 624.62 693.66 238.48 550.15 733.12 902.25 367.84 338.97 758.41 132.58 824.71 478.16 605.66 530.08 379.14 311.04 162.24 828.74 594.22 348.99 540.80 962.85 655.80 954.82 269.06 676.47 450.53 415.85 717.95 498.27 413.34 477.61 950.18 394.00 870.32 255.31 744.56 421.39 389.87 844.09 688.18 614.62 320.56 419.46 51.67 214.43 623.59 809.67 488.66 667.36 578.19 633.07 321.27 826.20 794.59 662.01 841.22 467.64 481.19 706.32 609.32 202.81 774.52 538.67 139.72 702.46 166.56 735.31 319.97 637.83 823.24 281.46 560.09 448.55 659.80 695.51 668.09 742.21 282.62 449.19 951.90 717.18 933.29 386.44 361.96 855.01 411.64 630.54 563.13 586.02 475.74 613.87 192.72 109.75 591.22 917.84 470.92 632.43 667.55 257.64 327.87 384.40 518.11
431.27 0.00 546.47 812.87 526.00 335.32 390.40 385.97 518.43 651.17 698.80 439.88 662.41 402.63 823.28 380.81 752.28 746.80 415.00 420.67 529.46 232.81 440.40 524.51 674.29 525.75 195.89 279.24 470.60 693.53 613.12 399.31 720.33 638.68 447.33 884.77 872.27 922.53 669.12 482.62 834.77 158.50 286.32 392.07 903.52 285.92 854.09 793.07 234.13 311.03 291.97 743.81 572.62 887.18 458.02 212.27 467.31 451.83 885.53 157.73 432.66 350.43 143.57 520.42 362.61 487.60 743.52 531.23 504.54 876.59 514.19 936.58 271.79 272.84 45.53 180.28 400.62 466.30 694.84 725.14 899.08 365.53 812.27 222.49 712.05 543.74 177.64 882.47 350.56 505.05 521.47 422.46 454.97 321.73 476.52 639.89 736.62 917.42 406.39 273.82 206.41 481.62 481.18 533.26 639.92 354.48 268.96 738.15 792.91 329.28 700.60 846.43 432.38 419.71 422.24 394.17 685.45 479.53 629.10 331.47 873.09 32.82 328.97 885.46 364.30 396.07 260.16 199.44 924.11 483.71 773.79 584.47 559.99 790.93 97.97 558.87 563.28 790.51 448.25 822.53 422.55 489.39 270.77 912.22 559.07 863.05 459.15 438.38 573.96 161.85 678.76
726.12 546.47 0.00 834.67 275.12 559.30 449.45 206.43 87.41 226.65 626.20 281.77 358.16 471.89 608.94 227.41 777.10 458.63 564.18 491.93 373.56 316.84 632.15 752.81 817.29 64.00 674.96 301.50 694.58 717.87 320.80 692.31 790.79 190.59 693.14 558.00 526.08 570.26 656.13 298.79 821.42 411.99 310.00 209.78 626.28 266.85 884.35 499.19 329.39 253.81 701.13 691.35 106.62 628.24 510.79 465.88 130.59 660.33 609.79 410.50 224.72 196.04 453.50 735.77 593.21 332.68 651.76 630.59 396.98 621.31 322.09 592.54 616.21 371.07 507.35 416.79 289.72 445.00 801.12 700.13 543.20 456.67 512.72 546.15 436.31 526.58 374.47 566.82 214.28 169.41 636.44 449.09 696.77 761.09 124.85 188.48 763.61 943.31 248.28 289.70 666.23 230.74 68.47 256.02 162.12 387.23 325.37 543.28 823.17 627.85 437.76 929.40 662.98 149.17 816.48 327.93 800.57 110.61 171.84 545.01 933.53 527.87 370.94 828.39 196.39 290.06 604.13 365.48 595.68 69.17 346.95 682.16 660.48 521.26 448.50 375.04 401.02 707.62 367.69 756.05 636.09 701.30 292.59 641.77 477.05 746.81 120.14 843.43 657.78 440.78 626.30
582.65 812.87 834.67 0.00 1043.28 534.62 535.83 887.34 907.44 836.71 293.70 619.88 650.19 473.66 564.77 709.16 60.59 686.56 397.87 482.10 1105.61 826.03 470.22 489.41 264.05 877.49 814.79 844.24 500.47 206.34 670.12 616.82 131.47 828.56 524.25 672.38 742.61 814.58 257.28 621.11 152.25 799.83 778.65 719.43 532.59 748.60 108.61 606.53 936.06 923.37 747.14 256.45 842.24 627.17 454.56 600.60 931.49 457.42 526.52 794.07 655.35 677.79 733.35 398.66 567.48 1045.66 309.45 298.59 577.62 713.46 665.41 790.19 723.25 921.93 802.62 722.87 986.84 500.82 240.24 225.24 756.82 532.55 682.61 657.96 589.24 420.97 733.59 573.09 933.15 753.12 372.96 524.94 617.51 736.41 741.32 843.62 155.95 108.64 586.39 931.59 825.31 1021.08 903.14 673.57 937.81 613.06 717.59 479.85 136.15 672.74 619.20 159.57 564.94 934.44 687.17 1023.24 303.07 727.08 905.66 498.35 132.91 836.43 980.48 270.59 824.83 962.58 700.43 749.05 736.80 806.43 929.19 293.01 274.50 660.71 805.24 627.22 518.88 221.97 554.60 232.29 487.14 492.63 853.50 613.17 404.44 286.68 787.63 789.74 308.59 740.04 211.39
870.58 526.00 275.12 1043.28 0.00 738.76 641.51 225.38 215.34 387.33 842.11 491.32 563.75 677.48 814.53 431.96 982.69 664.22 763.33 657.39 123.65 372.24 786.72 907.14 991.64 264.69 688.96 316.96 864.02 923.46 587.25 800.57 1001.71 418.12 862.57 833.12 740.66 732.60 867.00 530.90 1027.01 480.42 430.17 393.29 843.42 431.43 1102.78 704.78 298.65 214.97 748.07 896.94 381.74 850.11 732.87 642.47 201.33 872.96 815.38 430.47 430.31 434.93 524.56 903.03 708.34 95.97 911.08 816.25 592.04 846.42 527.68 761.60 674.67 286.94 511.32 493.40 159.51 650.59 1004.64 905.72 757.78 630.49 734.07 648.39 641.90 732.17 487.59 841.94 234.95 375.00 803.70 654.68 818.91 837.31 330.44 403.06 998.91 1151.92 496.45 258.96 678.44 44.38 206.65 485.04 350.16 617.97 489.11 748.87 1041.60 755.18 665.29 1134.99 778.11 168.12 931.44 189.40 934.13 316.20 372.53 717.92 1148.73 558.82 270.91 1053.54 320.36 176.91 658.93 465.88 831.04 328.49 534.99 878.83 854.35 738.14 497.44 583.81 616.93 936.64 593.57 971.90 809.00 871.28 347.27 875.15 682.64 992.11 376.75 879.37 861.30 527.08 831.89
185.42 335.32 559.30 534.62 738.76 0.00 237.79 574.88 646.71 689.51 489.76 417.98 624.48 241.11 742.27 426.65 488.04 713.99 251.77 255.10 766.84 464.93 189.54 226.91 407.64 623.30 281.22 482.18 135.28 446.61 574.12 133.01 431.77 672.75 133.84 811.09 798.62 886.35 444.80 471.61 595.20 322.32 406.32 444.62 726.09 332.17 613.62 716.04 504.60 559.92 264.77 499.18 547.70 804.36 201.32 159.86 656.22 178.33 699.98 344.42 440.53 402.98 282.07 306.17 33.91 720.24 559.79 236.03 403.59 857.18 478.01 862.93 255.48 556.45 380.85 245.36 599.55 331.75 426.41 429.94 818.96 208.58 738.62 188.04 623.04 350.81 287.68 736.34 567.79 526.98 263.54 282.25 144.48 201.79 516.87 676.28 450.76 643.26 420.33 530.88 291.74 697.87 627.77 533.68 670.29 298.49 367.41 609.31 575.75 138.12 653.00 568.69 103.68 574.13 262.25 664.64 350.13 531.11 705.48 130.82 593.69 368.14 582.82 628.76 497.45 623.81 205.26 333.26 849.24 610.46 817.96 298.61 274.13 711.93 326.75 502.21 441.61 538.35 354.69 566.20 158.29 154.07 464.28 793.11 353.00 631.21 566.21 326.14 286.29 267.99 434.13
388.43 390.40 449.45 535.83 641.51 237.79 0.00 416.13 522.20 478.18 424.04 234.67 413.17 67.35 576.84 298.59 475.24 476.20 159.64 53.73 676.42 385.45 208.92 417.74 425.30 472.85 435.36 351.68 326.11 342.98 336.33 293.86 445.78 441.31 349.89 602.95 598.88 675.71 329.44 233.82 570.37 289.01 298.27 337.26 578.46 243.41 573.43 500.76 421.77 484.23 423.77 411.23 405.83 576.12 119.65 184.43 497.47 318.43 575.57 323.73 262.77 295.75 246.83 287.35 271.70 597.19 410.05 262.74 165.80 659.47 267.37 663.19 308.51 473.62 366.58 231.05 509.13 154.17 389.44 375.67 637.26 30.82 538.88 312.46 405.97 212.72 273.37 596.82 496.26 345.31 231.90 44.46 349.52 439.58 368.70 456.37 415.96 622.64 217.66 444.93 445.65 597.13 517.92 368.91 528.42 106.52 298.32 371.52 555.17 342.93 435.93 559.80 290.63 473.39 458.40 581.81 431.80 376.88 547.13 106.97 586.46 396.43 516.61 547.09 391.71 533.39 310.15 285.67 648.86 408.25 615.07 284.24 266.51 474.14 313.42 288.78 224.54 457.93 116.90 498.61 198.05 345.72 381.99 601.16 213.48 481.18 394.35 559.17 246.10 228.55 369.36
677.07 385.97 206.43 887.34 225.38 574.88 416.13 0.00 132.46 275.73 693.50 312.87 442.77 483.48 648.63 206.58 842.88 513.77 575.77 469.86 281.65 211.99 586.33 738.12 796.46 163.76 577.18 179.51 700.14 759.11 433.54 636.01 786.61 312.60 695.34 630.58 625.26 686.51 738.87 366.09 906.03 330.72 284.02 167.91 665.67 260.26 924.93 538.88 225.30 165.94 626.12 767.14 219.36 679.78 535.78 461.79 81.34 697.21 649.85 261.95 288.56 209.55 355.54 693.23 572.62 282.94 719.47 590.87 435.80 693.89 406.70 641.61 545.07 277.15 340.44 329.52 228.23 483.01 784.47 763.87 669.91 446.95 601.96 438.11 476.37 576.31 287.20 660.91 153.25 254.02 648.03 460.59 682.07 674.47 180.98 327.66 805.60 995.98 300.95 185.61 568.27 181.00 143.46 352.33 277.93 417.85 306.33 627.89 863.75 544.90 446.41 923.53 642.39 57.26 767.56 263.81 826.47 195.22 271.60 522.44 950.19 418.79 287.66 896.10 94.98 224.10 496.09 244.23 711.46 206.94 451.83 653.45 628.97 536.74 353.61 442.34 468.32 785.08 402.48 828.11 613.52 706.71 174.03 704.82 537.84 839.00 194.25 735.39 641.13 343.00 710.91
806.50 518.43 87.41 907.44 215.34 646.71 522.20 132.46 0.00 203.98 679.00 354.54 438.60 532.56 618.32 278.51 864.51 521.61 624.85 552.60 338.99 302.94 692.82 825.58 868.39 49.35 709.64 311.97 781.99 803.94 386.70 741.38 857.61 240.16 770.16 638.42 578.73 554.05 743.54 351.59 888.17 428.72 362.09 297.19 656.71 354.26 937.15 546.72 354.20 242.75 758.58 752.64 172.52 687.62 583.56 507.07 70.82 747.74 628.67 394.41 312.13 283.45 488.00 796.44 668.48 306.84 739.17 718.00 439.96 700.21 323.67 612.36 676.88 345.55 472.90 461.98 250.48 511.75 863.36 787.54 606.73 532.80 518.73 570.57 455.19 611.70 419.66 654.23 232.22 236.16 697.11 509.76 757.44 806.93 185.52 252.01 836.38 941.21 321.05 318.07 700.73 216.84 54.57 341.19 159.33 460.00 384.06 616.75 875.97 669.04 454.25 1011.71 738.25 134.07 835.14 331.18 855.38 198.02 157.19 598.05 1006.30 551.25 332.93 856.12 227.44 274.74 628.55 376.69 653.08 156.58 344.16 749.05 731.72 544.58 477.13 427.84 453.82 792.79 439.83 774.48 689.13 788.71 306.49 712.66 564.46 834.22 187.93 867.85 720.02 475.46 713.71
831.48 651.17 226.65 836.71 387.33 689.51 478.18 275.73 203.98 0.00 628.82 300.05 332.62 545.53 486.26 303.49 804.84 344.92 637.82 531.91 501.48 429.05 687.10 838.07 854.87 176.79 799.36 442.73 795.69 733.33 304.11 772.04 808.16 36.87 819.47 468.21 389.53 487.48 644.77 347.39 741.82 578.79 432.27 323.12 503.30 405.67 848.65 376.51 472.99 387.02 813.62 685.88 141.81 517.41 596.05 604.70 242.80 796.61 487.48 509.72 335.32 334.86 576.11 736.17 687.35 421.13 614.15 669.20 437.10 497.31 289.12 429.95 728.22 504.28 605.64 575.76 430.26 473.00 844.02 670.08 406.65 509.00 390.47 680.35 314.00 520.12 541.93 498.54 354.82 219.22 636.84 490.26 797.92 830.01 238.19 51.93 793.11 884.82 333.54 433.30 788.84 342.95 180.68 187.58 101.10 452.43 464.09 509.55 787.47 729.60 284.04 949.58 747.44 323.38 928.63 468.47 852.18 223.95 68.95 585.15 949.08 642.73 511.48 752.59 355.74 430.60 695.50 504.04 449.79 181.53 227.14 691.07 666.59 374.24 587.32 336.16 403.64 639.18 452.95 670.95 676.23 776.08 449.53 510.80 541.42 669.42 208.30 937.28 700.68 575.10 654.04
524.19 698.80 626.20 293.70 842.11 489.76 424.04 693.50 679.00 628.82 0.00 403.31 406.33 368.81 393.68 520.07 238.55 451.51 352.18 400.67 931.60 682.78 375.49 532.03 423.31 629.65 703.16 694.72 461.35 171.69 454.45 556.54 239.93 635.30 485.13 478.56 546.51 624.67 126.00 327.41 242.72 681.27 633.66 530.34 355.86 559.51 349.55 414.89 747.86 734.28 685.71 73.64 611.57 419.83 337.46 486.53 712.07 451.85 383.90 631.43 464.32 488.70 619.28 371.91 455.85 885.82 70.03 273.83 283.92 526.98 391.79 610.82 603.36 799.71 731.47 618.75 812.83 297.69 395.51 120.10 591.16 418.52 486.51 602.92 406.61 223.44 586.35 402.65 737.97 467.74 346.21 403.03 554.19 652.74 540.15 632.25 254.77 385.72 426.55 753.96 713.68 831.58 669.31 447.53 723.63 400.91 567.01 258.55 288.37 580.59 388.13 390.85 470.29 711.12 690.59 849.23 396.62 525.91 687.74 422.55 399.10 722.36 842.70 242.66 621.20 788.57 625.73 605.95 482.57 571.63 707.89 233.16 247.75 421.29 701.12 333.52 225.18 120.34 307.14 161.02 331.47 480.96 664.41 394.79 272.97 189.56 574.53 748.08 281.84 635.19 87.75
601.82 439.88 281.77 619.88 491.32 417.98 234.67 312.87 354.54 300.05 403.31 0.00 273.71 264.91 519.58 142.99 624.47 359.96 346.99 233.05 549.05 289.72 388.24 538.02 622.19 325.53 519.56 330.91 549.36 516.38 254.12 517.11 537.96 336.92 531.38 506.70 481.63 563.53 456.25 90.81 646.03 352.67 262.58 166.53 512.88 188.43 676.37 440.98 367.88 345.08 543.43 476.95 294.75 555.07 296.00 345.56 311.61 516.61 525.34 300.97 61.01 124.89 296.31 487.65 451.89 487.11 462.26 411.71 155.87 570.01 155.19 545.94 428.17 419.73 419.26 275.71 410.10 247.83 586.33 510.36 510.38 209.40 421.63 387.82 351.86 346.07 302.93 571.91 334.66 162.85 425.21 190.21 562.46 607.60 189.36 351.98 548.82 722.28 33.49 379.19 509.04 476.09 333.44 142.62 366.84 152.38 254.22 404.61 615.19 494.61 375.25 715.52 469.95 352.35 628.58 448.31 585.27 175.12 369.00 330.22 711.61 463.53 462.72 638.89 217.89 410.44 445.80 282.79 564.31 254.47 438.44 474.29 449.81 437.79 358.08 167.06 178.13 523.65 152.90 564.33 421.30 550.71 300.60 530.03 311.57 581.79 235.67 685.10 442.99 295.56 491.06
713.51 662.41 358.16 650.19 563.75 624.48 413.17 442.77 438.60 332.62 406.33 273.71 0.00 414.73 260.09 372.95 598.50 100.47 491.33 411.55 673.71 505.50 517.81 707.36 661.96 389.25 760.35 503.55 673.83 517.22 76.84 696.58 599.60 295.75 650.05 292.28 245.47 320.41 470.38 182.90 579.72 587.17 432.78 346.72 279.67 433.61 599.58 168.26 582.54 524.12 745.57 435.25 284.53 313.59 447.02 539.64 421.16 641.17 251.63 531.13 290.97 362.80 554.54 566.97 595.89 614.79 349.64 486.77 247.37 308.01 148.22 304.00 701.88 600.46 630.57 529.71 579.72 344.51 626.10 507.79 236.67 415.90 199.01 605.57 78.15 362.59 537.26 298.20 504.28 295.28 547.13 368.71 706.46 825.24 261.79 280.69 589.92 682.01 291.72 548.81 749.83 578.65 426.63 149.38 317.30 380.93 445.94 318.34 587.09 691.40 108.11 685.52 619.89 454.91 807.08 615.42 646.17 247.55 281.41 520.14 712.18 673.00 583.80 516.74 387.51 573.84 663.55 517.33 339.77 322.52 355.58 473.15 448.67 174.39 567.55 127.59 232.23 428.22 299.47 435.10 520.79 682.14 486.76 325.35 359.45 469.17 308.10 888.12 482.76 553.79 489.28
391.75 402.63 471.89 473.66 677.48 241.11 67.35 483.48 532.56 545.53 368.81 264.91 414.73 0.00 536.83 344.89 413.07 479.17 92.29 31.86 655.37 424.44 160.26 415.53 388.62 483.21 428.36 419.03 329.43 365.25 352.70 297.18 378.43 508.66 321.95 587.85 592.71 682.87 346.41 231.83 512.96 352.33 328.51 355.16 520.65 310.76 549.45 492.80 485.92 543.99 417.24 343.88 473.18 606.36 55.39 190.36 564.82 309.36 548.42 360.79 307.83 313.52 284.66 263.88 260.99 648.55 388.18 195.39 182.17 640.00 296.21 657.02 335.19 529.51 412.67 298.40 536.60 114.57 376.59 372.14 631.09 98.17 532.71 318.39 399.80 145.37 277.59 578.24 526.50 390.16 164.55 74.70 352.84 442.90 347.04 523.72 369.04 582.30 238.87 457.93 417.84 663.90 527.37 397.75 595.77 163.16 337.49 410.44 490.91 352.33 429.76 493.72 262.34 540.16 461.72 573.00 379.79 361.28 591.05 110.29 520.38 426.19 559.98 482.83 444.03 512.34 313.47 341.38 608.13 440.63 631.44 216.89 199.16 520.09 354.59 308.08 218.37 390.58 151.97 431.26 201.37 349.04 447.59 631.40 194.90 492.44 397.28 553.22 233.25 266.38 305.10
812.85 823.28 608.94 564.77 814.53 742.27 576.84 648.63 618.32 486.26 393.68 519.58 260.09 536.83 0.00 525.61 504.18 159.62 520.20 560.91 895.67 701.81 590.10 786.57 701.47 610.38 947.08 725.30 775.51 492.94 299.49 776.54 517.95 449.39 765.76 115.94 276.00 305.49 444.39 442.99 477.10 664.78 605.88 564.28 93.98 627.79 545.65 109.75 763.29 774.90 935.82 409.26 513.67 89.40 540.95 699.63 672.63 737.34 72.33 733.85 521.37 556.98 769.01 622.71 738.40 826.76 323.65 540.54 444.71 179.25 378.62 286.60 866.05 809.30 777.75 741.74 830.50 422.67 665.61 424.91 238.59 546.02 216.00 780.29 204.54 391.46 711.33 118.90 755.06 522.13 599.66 537.99 790.78 897.53 512.57 452.61 560.52 579.39 522.12 783.03 941.58 811.29 666.94 376.96 577.39 610.48 679.20 274.88 484.47 795.20 202.22 630.69 692.18 705.69 941.08 850.71 701.43 498.33 541.50 641.15 651.32 839.87 834.58 359.99 638.29 824.62 822.24 697.28 199.47 558.25 398.92 562.41 537.93 150.78 734.42 387.68 385.97 380.91 516.71 332.48 620.13 778.31 724.96 114.44 440.99 343.28 518.43 1004.18 572.02 750.73 463.29
527.99 380.81 227.41 709.16 431.96 426.65 298.59 206.58 278.51 303.49 520.07 142.99 372.95 344.89 525.61 0.00 703.51 365.99 408.68 333.42 461.18 226.94 428.47 621.23 589.88 229.16 495.87 211.16 538.68 605.66 317.33 506.43 680.95 266.62 560.49 558.75 510.99 585.93 535.99 212.53 762.79 287.30 168.81 38.67 606.04 102.18 776.37 466.50 302.86 276.95 536.46 593.71 257.28 599.45 385.28 301.21 287.92 531.00 578.00 245.83 81.98 31.37 272.62 537.95 437.47 380.83 512.89 487.85 271.70 610.79 224.73 588.84 481.47 354.71 346.85 281.62 344.32 333.73 625.74 626.19 555.64 267.77 464.53 376.86 451.10 409.19 252.02 531.43 268.88 124.24 501.88 299.42 548.04 609.63 152.08 281.68 638.10 817.80 122.77 278.05 485.35 387.58 295.88 257.90 313.23 212.92 160.70 472.17 736.91 446.22 433.35 762.02 507.24 263.84 651.81 382.53 645.81 137.84 295.25 319.54 788.68 389.28 380.10 689.52 152.11 341.72 431.25 200.81 605.29 200.08 420.39 550.43 525.95 443.82 283.83 288.78 306.53 640.41 242.18 681.09 410.62 558.29 207.08 590.87 359.66 632.42 139.56 674.14 532.27 290.90 552.71
557.42 752.28 777.10 60.59 982.69 488.04 475.24 842.88 864.51 804.84 238.55 624.47 598.50 413.07 504.18 703.51 0.00 625.97 337.28 421.51 1045.02 765.44 409.63 520.42 223.12 816.90 764.16 783.65 467.28 145.75 609.53 596.07 86.51 767.97 491.06 614.38 707.95 753.99 196.69 564.61 150.27 749.15 718.16 713.78 475.39 713.61 169.20 545.94 875.57 894.33 751.76 195.86 803.99 566.58 396.40 540.01 893.13 457.57 465.93 733.48 622.44 672.14 672.76 338.07 520.90 1025.01 248.86 252.01 519.14 656.26 620.45 729.60 676.67 875.35 742.03 672.19 926.25 440.23 248.98 164.65 696.23 471.96 661.56 597.37 528.65 360.38 687.01 512.50 872.56 702.02 312.37 464.35 584.32 689.83 680.73 783.03 101.49 169.23 613.42 871.00 774.68 960.49 845.57 664.63 880.10 552.81 657.00 427.12 109.88 614.73 558.61 152.30 511.71 873.85 702.11 962.65 280.63 666.49 873.79 451.77 175.60 775.84 933.90 250.44 806.45 901.99 654.95 688.46 698.63 745.84 875.02 238.39 213.91 600.12 753.70 572.07 463.73 213.03 494.01 171.70 426.55 447.67 803.40 552.58 343.85 226.09 727.04 793.38 248.00 679.45 150.80
791.85 746.80 458.63 686.56 664.22 713.99 476.20 513.77 521.61 344.92 451.51 359.96 100.47 479.17 159.62 365.99 625.97 0.00 571.46 465.26 747.49 592.93 618.28 806.66 726.44 477.22 860.82 577.15 736.86 554.90 139.87 770.06 631.44 308.05 713.08 192.76 145.00 219.94 500.15 283.37 598.89 609.46 533.25 404.66 253.60 468.17 663.89 100.51 668.85 621.15 836.04 467.09 354.05 245.84 534.56 602.67 521.63 741.64 231.95 599.09 381.55 397.36 638.61 667.44 696.36 667.14 381.48 587.24 310.40 244.80 238.80 222.85 784.28 700.93 712.84 621.29 676.75 414.05 690.58 507.76 189.65 507.02 98.54 706.04 97.32 463.06 612.17 236.54 601.31 363.24 640.94 431.74 800.76 915.78 362.26 292.99 621.76 701.18 379.07 644.04 850.30 651.67 520.47 217.34 417.77 476.17 526.69 265.64 606.26 759.36 67.36 717.36 702.16 555.38 870.11 691.09 746.64 348.02 381.88 583.17 744.02 755.27 684.27 519.61 484.54 674.31 760.30 566.80 239.30 398.63 380.57 573.62 549.14 77.83 649.82 228.06 278.75 502.70 382.40 454.27 621.26 756.47 573.07 224.88 416.53 501.01 408.57 977.47 583.23 641.14 505.38
311.54 415.00 564.18 397.87 763.33 251.77 159.64 575.77 624.85 637.82 352.18 346.99 491.33 92.29 520.20 408.68 337.28 571.46 0.00 113.94 737.45 486.60 91.66 339.14 330.54 575.50 426.88 446.37 260.19 342.68 444.99 278.10 336.66 600.95 245.56 636.14 656.42 756.17 254.12 324.12 487.55 418.10 410.59 447.35 504.02 391.47 506.48 517.73 548.94 578.92 437.38 350.62 565.47 609.60 59.12 202.73 657.11 217.14 532.06 396.20 372.86 405.81 335.48 182.55 247.29 691.88 374.86 140.92 274.46 651.31 385.84 720.73 345.85 598.45 404.75 341.14 603.82 189.55 334.52 334.83 701.07 140.91 596.42 260.09 481.88 128.74 356.19 558.24 603.30 448.57 106.47 156.78 284.97 399.09 439.33 616.01 355.65 506.51 321.63 539.62 437.40 749.51 619.66 461.28 688.06 230.82 397.81 421.85 447.16 296.76 511.84 473.58 193.74 632.45 440.52 655.08 321.81 453.57 676.91 120.95 461.97 438.56 641.67 486.56 501.80 594.42 318.07 351.18 698.83 532.92 723.73 203.50 179.02 552.79 416.42 363.74 300.45 397.32 244.26 425.02 135.68 258.11 476.68 625.19 174.90 480.89 489.57 505.74 191.18 353.76 300.01
376.62 420.67 491.93 482.10 657.39 255.10 53.73 469.86 552.60 531.91 400.67 233.05 411.55 31.86 560.91 333.42 421.51 465.26 113.94 0.00 623.51 392.58 155.19 414.94 420.48 503.25 460.22 405.41 328.21 333.39 334.71 311.17 410.29 495.04 321.36 555.99 560.85 667.79 368.06 232.20 528.94 342.74 296.65 352.53 540.43 297.14 580.53 460.94 454.06 526.86 449.10 359.86 459.56 574.50 87.25 208.40 544.66 304.29 541.42 328.93 294.06 310.89 282.00 290.92 289.01 616.69 356.32 227.25 164.18 619.30 296.58 625.16 349.18 497.65 420.31 284.78 504.74 138.24 408.45 401.42 599.23 84.55 500.85 336.43 367.94 177.23 278.80 587.99 494.64 369.24 196.41 42.84 335.50 456.89 367.08 510.10 400.90 590.74 258.14 473.80 449.70 650.86 547.41 375.67 582.15 131.30 305.68 425.25 522.77 360.29 397.90 525.58 236.90 527.12 475.71 541.14 411.65 381.32 562.97 124.28 552.24 444.23 548.90 514.69 412.17 480.48 327.46 339.40 639.99 460.67 613.45 248.75 231.02 488.23 367.15 294.85 186.51 405.76 138.73 447.24 199.21 330.07 415.73 599.54 207.55 475.85 417.32 548.90 265.11 282.28 331.34
885.24 529.46 373.56 1105.61 123.65 766.84 676.42 281.65 338.99 501.48 931.60 549.05 673.71 655.37 895.67 461.18 1045.02 747.49 737.45 623.51 0.00 380.02 778.70 923.39 1043.99 350.30 705.37 324.74 892.10 956.90 618.30 784.68 979.60 538.35 885.57 909.51 811.54 856.25 943.80 604.19 1089.39 459.86 412.38 449.56 878.04 476.17 1161.11 814.74 295.33 242.44 730.27 983.37 447.18 960.07 710.76 669.96 308.39 852.40 906.08 448.72 515.73 443.24 540.81 914.43 764.61 80.35 925.97 850.76 691.94 933.02 577.08 854.19 682.45 266.26 493.57 521.48 167.29 694.54 1031.96 1015.68 856.19 671.09 751.54 662.32 733.22 794.49 495.37 940.38 214.39 484.22 819.92 666.19 840.34 823.18 417.51 526.71 1024.19 1214.25 534.64 291.92 706.67 168.03 330.30 583.45 464.47 639.89 485.70 849.97 1099.93 769.11 728.06 1149.09 834.38 224.39 923.69 154.37 1035.16 426.16 432.53 730.61 1149.14 553.64 237.03 1102.60 331.16 143.03 699.44 473.66 894.22 442.73 634.39 872.26 854.53 816.76 529.50 680.44 706.42 1029.27 654.05 1064.18 821.69 893.37 355.05 972.37 771.53 1045.50 402.09 887.15 888.62 533.23 941.85
567.12 232.81 316.84 826.03 372.24 464.93 385.45 211.99 302.94 429.05 682.78 289.72 505.50 424.44 701.81 226.94 765.44 592.93 486.60 392.58 380.02 0.00 475.74 624.78 730.15 303.28 428.70 55.28 585.95 706.21 472.13 517.14 755.67 445.03 576.26 780.91 687.99 801.21 660.47 380.13 848.77 196.38 95.93 191.11 782.48 142.04 885.53 646.53 118.01 171.56 490.05 679.69 385.11 791.21 427.48 351.84 293.33 578.27 757.13 127.31 264.71 198.97 242.20 585.22 458.00 300.79 685.00 566.57 413.53 794.68 399.73 742.90 405.06 140.81 261.46 219.57 212.73 443.52 715.62 688.47 720.63 370.90 644.83 330.11 583.65 527.72 177.25 758.37 203.51 301.68 556.69 349.74 553.80 548.10 243.71 460.09 742.84 934.67 256.23 129.34 439.22 342.15 248.37 415.06 417.45 293.55 147.47 646.73 824.35 436.90 602.83 886.68 527.77 241.50 648.61 278.05 726.44 257.95 411.12 366.81 913.34 265.63 199.36 848.71 133.95 236.99 369.72 136.23 787.51 337.30 572.83 629.15 604.67 670.76 213.23 456.38 467.85 726.39 375.64 767.07 457.89 605.56 37.96 816.25 518.76 790.77 293.95 624.46 572.98 223.92 614.64
236.74 440.40 632.15 470.22 786.72 189.54 208.92 586.33 692.82 687.10 375.49 388.24 517.81 160.26 590.10 428.47 409.63 618.28 91.66 155.19 778.70 475.74 0.00 266.69 340.83 643.47 389.86 511.84 192.15 333.96 489.90 186.44 376.08 650.23 179.42 706.04 716.04 822.98 345.78 387.39 516.79 388.91 428.21 467.14 573.92 411.82 488.96 609.39 559.05 623.44 345.72 408.29 609.42 679.50 150.78 228.13 667.67 149.10 601.96 407.94 441.42 459.84 348.66 171.66 155.63 757.35 445.52 211.89 319.37 742.49 451.77 780.35 333.83 610.90 413.13 311.95 627.21 274.83 304.97 335.75 754.42 232.57 656.04 227.43 523.13 198.64 299.13 631.51 626.20 524.43 155.80 198.03 200.68 307.43 507.30 654.39 331.49 538.17 399.13 542.33 400.38 767.33 672.55 530.86 732.01 286.49 390.45 476.71 483.48 205.10 553.09 475.33 102.08 643.59 350.98 696.33 314.69 521.54 718.16 108.93 501.99 454.30 644.38 529.46 567.36 635.67 285.41 362.92 768.39 600.89 768.64 220.20 195.72 643.42 383.76 433.64 341.70 444.16 293.92 447.82 44.02 190.07 507.09 695.09 248.17 522.86 557.54 414.08 161.63 347.26 355.72
93.24 524.51 752.81 489.41 907.14 226.91 417.74 738.12 825.58 838.07 532.03 538.02 707.36 415.53 786.57 621.23 520.42 806.66 339.14 414.94 923.39 624.78 266.69 0.00 355.66 806.71 358.27 638.46 91.63 444.75 666.79 154.85 457.91 859.05 93.58 902.51 917.32 1016.55 473.54 622.80 627.58 486.81 561.81 637.57 770.39 559.08 598.02 821.71 628.06 712.97 257.73 520.05 765.79 875.97 384.90 356.67 819.46 134.68 798.43 497.47 573.49 595.93 382.58 297.64 217.51 878.59 594.28 322.68 567.45 938.96 648.03 981.63 338.63 679.91 492.09 419.29 773.48 495.06 391.52 489.85 944.03 420.44 857.32 348.55 763.85 395.11 461.61 827.98 732.28 671.41 293.75 457.78 144.91 297.60 670.54 856.23 442.28 598.05 504.53 667.75 368.79 881.20 821.28 680.64 888.38 499.05 544.78 688.22 594.27 250.33 793.81 504.67 178.04 757.46 197.76 785.16 298.15 684.78 907.01 310.77 531.33 508.09 722.90 689.07 704.01 791.06 332.24 493.89 964.14 764.13 945.53 309.59 306.51 867.25 487.38 579.77 582.42 566.75 495.45 607.43 222.67 96.75 617.33 891.56 444.64 618.94 720.78 305.12 272.42 400.86 455.00
377.48 674.29 817.29 264.05 991.64 407.64 425.30 796.46 868.39 854.87 423.31 622.19 661.96 388.62 701.47 589.88 223.12 726.44 330.54 420.48 1043.99 730.15 340.83 355.66 0.00 819.04 644.21 776.91 272.36 252.15 651.75 440.79 198.33 856.50 296.14 770.97 809.85 931.87 340.71 547.63 352.55 676.43 662.26 628.55 631.18 588.11 342.73 625.93 806.42 825.53 595.16 367.26 821.98 741.40 353.28 462.02 877.80 281.39 659.22 694.40 635.33 621.25 594.77 210.28 428.36 970.71 433.91 229.46 509.97 812.05 612.01 874.16 546.27 852.80 671.21 599.47 915.12 442.94 35.86 306.90 854.50 456.12 749.85 514.69 632.66 359.76 636.61 673.38 855.43 693.79 224.07 463.32 389.40 502.25 735.66 871.56 193.63 300.83 588.70 813.13 636.78 975.16 885.76 673.33 903.11 490.40 641.85 556.77 324.50 498.84 662.62 172.14 363.67 851.42 525.93 961.62 57.51 727.72 885.13 416.29 198.80 697.85 901.26 425.60 741.99 900.96 496.05 649.38 813.50 789.96 930.49 237.77 213.29 728.49 671.02 559.57 451.23 320.56 474.63 368.99 325.21 291.97 768.11 749.87 365.06 444.03 729.44 575.49 179.20 612.46 335.56
757.15 525.75 64.00 877.49 264.69 623.30 472.85 163.76 49.35 176.79 629.65 325.53 389.25 483.21 610.38 229.16 816.90 477.22 575.50 503.25 350.30 303.28 643.47 806.71 819.04 0.00 678.07 332.81 758.58 757.67 337.35 719.82 822.87 190.81 757.14 619.97 532.16 603.40 701.21 302.24 838.82 475.99 374.00 249.58 607.36 330.85 887.80 500.63 367.73 255.27 742.79 703.29 123.17 645.96 538.60 529.88 82.42 724.33 579.32 425.71 264.52 260.04 501.78 747.09 619.13 322.70 699.68 670.39 400.43 651.25 311.66 585.03 627.53 372.53 490.80 480.79 299.83 462.40 814.01 739.93 557.38 496.47 517.42 584.11 405.84 562.35 438.47 625.89 244.74 186.81 647.76 460.41 708.09 787.83 136.17 202.66 817.51 948.62 302.18 341.33 667.55 232.17 69.90 291.84 114.17 441.13 362.07 578.85 826.62 675.38 435.80 969.20 688.90 146.59 830.03 342.78 840.37 150.41 107.84 548.70 987.43 533.23 381.10 844.43 238.54 319.34 642.09 407.99 603.73 133.17 299.00 699.70 682.37 526.13 427.78 378.49 404.47 743.44 421.59 762.79 639.78 765.30 330.92 671.00 516.85 799.12 138.58 839.01 670.67 504.78 666.10
310.75 195.89 674.96 814.79 688.96 281.22 435.36 577.18 709.64 799.36 703.16 519.56 760.35 428.36 947.08 495.87 764.16 860.82 426.88 460.22 705.37 428.70 389.86 358.27 644.21 678.07 0.00 440.34 376.12 681.76 727.44 203.42 711.94 762.49 361.42 993.34 961.57 1037.91 630.90 577.45 875.37 319.93 400.32 519.30 885.38 428.44 861.87 876.25 430.02 506.92 169.58 728.31 737.66 966.86 452.91 271.74 658.52 362.82 879.77 330.79 555.03 485.91 223.25 541.28 247.31 683.05 751.64 516.20 564.01 999.44 629.57 1045.95 126.85 439.11 241.42 259.96 581.36 542.93 617.31 710.11 997.02 425.35 937.09 166.79 804.18 555.62 300.49 926.34 546.45 620.11 489.39 479.82 259.08 203.11 597.76 777.55 704.40 911.08 486.07 469.71 10.52 677.51 677.07 662.18 731.63 436.18 385.45 806.88 832.00 218.27 834.14 793.79 317.08 615.11 303.62 589.62 590.97 612.00 740.33 351.75 820.45 190.35 480.16 880.35 521.83 562.34 157.12 332.95 1036.49 669.39 901.02 578.78 554.30 909.50 250.29 653.70 622.75 775.01 529.95 811.69 371.69 367.19 429.87 972.90 601.78 857.67 632.21 242.49 534.54 234.18 676.79
590.94 279.24 301.50 844.24 316.96 482.18 351.68 179.51 311.97 442.73 694.72 330.91 503.55 419.03 725.30 211.16 783.65 577.15 446.37 405.41 324.74 55.28 511.84 638.46 776.91 332.81 440.34 0.00 607.44 694.66 464.48 483.61 783.03 443.08 599.12 743.75 686.04 777.76 681.12 387.18 873.05 197.68 119.42 211.97 731.14 193.57 925.11 624.41 102.57 132.55 482.40 734.97 383.16 769.74 471.33 383.91 260.85 601.90 703.10 150.17 293.14 206.02 260.23 597.92 480.86 245.51 717.69 587.29 454.72 783.12 400.00 735.25 449.76 152.08 258.74 236.82 157.45 443.03 741.12 711.75 685.89 367.09 637.18 342.80 529.62 542.98 212.71 742.59 156.93 294.03 552.84 373.23 539.27 575.31 241.76 458.14 767.64 952.88 297.42 93.25 449.66 303.14 265.90 413.11 409.67 315.15 172.15 673.44 879.63 449.59 559.58 911.48 550.63 186.22 648.15 242.37 748.04 256.00 373.78 422.09 908.34 312.06 195.30 894.31 119.59 181.71 400.78 148.92 779.86 335.35 593.69 635.92 618.19 649.91 209.89 463.43 489.41 781.67 408.92 812.67 513.17 627.05 30.31 794.78 517.30 826.77 292.00 621.12 597.78 246.78 669.92
105.12 470.60 694.58 500.47 864.02 135.28 326.11 700.14 781.99 795.69 461.35 549.36 673.83 329.43 775.51 538.68 467.28 736.86 260.19 328.21 892.10 585.95 192.15 91.63 272.36 758.58 376.12 607.44 0.00 410.06 596.99 172.70 380.77 767.42 23.78 884.20 840.18 956.80 438.85 554.70 565.44 447.58 541.60 577.35 759.33 467.45 565.06 777.92 629.86 685.18 343.60 466.76 682.98 854.55 319.31 286.87 781.48 43.05 787.37 469.68 551.63 538.26 394.40 206.01 161.08 833.51 531.38 287.99 488.48 911.50 593.48 904.49 298.46 681.71 512.04 370.62 724.81 444.00 308.22 420.05 884.83 343.86 780.18 323.32 696.15 384.05 412.94 786.53 681.06 662.26 232.42 370.57 117.04 255.04 644.04 764.60 399.13 562.24 515.87 656.14 374.68 825.04 763.05 608.11 805.57 419.23 490.18 668.86 519.79 226.48 726.11 433.55 91.31 701.30 271.68 789.90 214.85 658.28 833.93 219.14 460.21 438.29 710.49 620.09 632.73 749.07 330.10 458.52 894.34 713.44 875.73 296.30 271.82 797.45 452.99 566.08 514.72 513.46 427.35 543.46 155.38 19.61 589.54 856.14 433.58 527.31 678.24 362.76 237.73 376.12 431.82
500.20 693.53 717.87 206.34 923.46 446.61 342.98 759.11 803.94 733.33 171.69 516.38 517.22 365.25 492.94 605.66 145.75 554.90 342.68 333.39 956.90 706.21 333.96 444.75 252.15 757.67 681.76 694.66 410.06 0.00 501.40 520.40 108.29 708.74 433.84 572.77 602.29 680.45 88.56 482.78 262.73 631.99 630.04 615.93 430.51 586.39 247.14 496.44 764.75 818.66 679.68 131.19 715.58 502.53 341.28 516.23 827.99 420.60 458.55 655.53 551.85 574.29 589.81 262.40 459.56 940.17 207.14 210.58 422.52 599.74 547.16 645.10 621.93 816.60 698.38 562.85 838.13 358.40 240.49 68.03 637.00 362.62 542.29 514.97 538.39 290.40 605.17 434.51 828.03 619.87 270.94 376.23 527.10 641.39 621.50 723.80 111.22 292.26 482.89 787.91 692.28 901.26 786.34 584.36 820.40 449.50 597.77 331.76 222.77 539.06 508.43 285.85 436.04 814.62 642.51 874.53 304.13 607.26 784.51 410.34 281.94 726.35 859.59 280.35 721.33 813.87 572.95 628.65 647.26 686.61 780.14 180.74 172.48 477.07 645.22 505.21 396.87 153.47 453.33 201.90 350.88 390.45 724.97 521.56 262.02 263.89 667.81 717.71 172.33 571.53 91.57
654.55 613.12 320.80 670.12 587.25 574.12 336.33 433.54 386.70 304.11 454.45 254.12 76.84 352.70 299.49 317.33 609.53 139.87 444.99 334.71 618.30 472.13 489.90 666.79 651.75 337.35 727.44 464.48 596.99 501.40 0.00 630.19 576.23 285.85 573.21 329.27 280.50 359.81 412.84 163.31 583.51 537.88 430.92 327.60 322.59 356.77 676.42 240.38 529.95 531.54 756.43 452.41 214.18 385.71 404.61 462.80 418.58 639.00 320.26 498.28 241.68 285.96 504.19 543.92 606.75 537.95 410.76 476.56 170.53 384.67 98.93 362.72 644.41 581.80 601.44 483.59 579.50 274.18 615.89 519.96 313.51 367.15 238.41 585.98 146.78 373.45 472.30 366.83 535.08 251.61 501.07 291.87 670.21 775.91 287.88 270.79 561.18 726.51 241.37 542.63 716.92 542.87 380.60 116.53 336.77 336.30 415.29 241.50 629.16 624.77 176.74 733.02 571.61 436.97 730.24 590.28 635.96 283.10 358.25 443.30 749.35 643.87 619.35 554.55 423.06 574.26 643.96 455.40 375.18 258.76 278.74 456.93 438.46 200.46 538.42 138.45 229.27 499.11 242.53 503.73 525.55 616.60 434.17 364.75 358.51 461.77 319.28 837.60 472.55 503.44 458.73
107.33 399.31 692.31 616.82 800.57 133.01 293.86 636.01 741.38 772.04 556.54 517.11 696.58 297.18 776.54 506.43 596.07 770.06 278.10 311.17 784.68 517.14 186.44 154.85 440.79 719.82 203.42 483.61 172.70 520.40 630.19 0.00 524.93 735.17 188.67 867.16 872.02 969.57 497.72 527.68 674.23 417.31 483.18 545.10 760.36 465.18 675.40 765.23 550.01 605.33 180.29 556.11 680.71 865.94 306.29 234.31 717.35 159.40 766.76 389.83 519.38 504.15 326.10 337.86 100.69 723.74 618.46 369.04 459.66 928.93 561.23 936.33 183.78 601.86 410.04 362.81 641.06 411.75 472.32 522.19 910.40 324.68 812.02 202.27 679.11 385.08 373.95 813.33 640.54 624.27 342.24 338.32 55.66 152.93 583.65 732.35 515.48 719.06 483.62 576.86 213.94 764.65 730.53 600.46 803.30 387.10 463.17 663.15 628.58 95.48 709.07 590.37 154.26 640.91 164.54 630.31 387.55 597.89 801.68 186.89 617.03 393.77 644.85 715.90 603.20 665.32 177.39 391.78 905.31 677.24 896.81 405.63 382.16 768.00 358.60 568.99 497.68 602.81 410.76 634.26 225.07 163.77 509.69 859.89 434.61 691.78 633.89 265.31 348.07 331.36 494.70
470.91 720.33 790.79 131.47 1001.71 431.77 445.78 786.61 857.61 808.16 239.93 537.96 599.60 378.43 517.95 680.95 86.51 631.44 336.66 410.29 979.60 755.67 376.08 457.91 198.33 822.87 711.94 783.03 380.77 108.29 576.23 524.93 0.00 786.99 404.55 629.51 699.74 771.99 163.39 520.63 189.63 690.34 706.94 692.96 489.72 680.06 205.16 567.67 864.35 860.78 693.40 222.74 783.89 580.35 340.23 508.06 849.57 400.67 517.76 712.44 598.97 651.32 634.92 289.23 464.63 1001.13 249.96 195.74 477.14 670.59 533.94 743.37 613.76 819.08 741.41 613.38 915.03 427.48 162.47 150.20 715.25 470.91 639.74 583.10 542.42 332.49 624.10 516.68 848.68 660.96 284.48 453.13 497.81 630.83 699.75 802.05 44.59 240.11 559.92 836.36 722.46 967.61 843.46 630.70 815.99 481.59 657.92 402.54 143.98 569.89 572.38 177.56 454.33 843.87 637.47 951.43 211.24 685.51 851.88 388.86 173.65 743.89 877.63 267.11 755.85 890.77 592.04 687.84 717.42 721.62 851.88 161.54 186.02 585.36 695.75 526.74 418.40 179.10 513.25 185.47 359.77 361.16 793.63 566.35 334.11 260.51 738.54 728.55 214.45 616.64 169.82
794.61 638.68 190.59 828.56 418.12 672.75 441.31 312.60 240.16 36.87 635.30 336.92 295.75 508.66 449.39 266.62 767.97 308.05 600.95 495.04 538.35 445.03 650.23 859.05 856.50 190.81 762.49 443.08 767.42 708.74 285.85 735.17 786.99 0.00 791.20 431.34 352.66 461.65 663.06 322.66 778.69 544.31 395.40 286.25 466.43 368.80 843.70 339.64 494.80 423.89 803.08 650.43 125.05 480.54 560.96 567.83 273.23 759.74 450.61 512.19 301.19 297.99 539.24 728.66 684.28 458.00 577.28 658.11 406.26 460.44 258.28 437.04 692.68 502.63 609.42 547.38 467.13 448.11 830.75 687.57 369.78 472.13 353.60 643.48 277.13 509.03 505.06 461.67 391.69 242.42 673.21 458.16 773.24 799.63 201.32 15.06 784.19 880.99 367.33 455.11 751.97 373.74 217.55 224.45 135.34 479.54 427.22 472.68 786.07 712.84 247.17 913.16 731.94 337.40 896.53 505.34 850.92 187.08 105.82 548.28 939.82 605.86 523.33 715.72 327.04 467.47 697.87 467.17 412.92 171.24 190.27 679.98 655.50 337.37 550.45 373.03 424.89 676.05 450.01 634.08 639.36 787.03 414.20 505.58 543.42 632.55 231.76 934.49 687.41 557.52 617.17
81.34 447.33 693.14 524.25 862.57 133.84 349.89 695.34 770.16 819.47 485.13 531.38 650.05 321.95 765.76 560.49 491.06 713.08 245.56 321.36 885.57 576.26 179.42 93.58 296.14 757.14 361.42 599.12 23.78 433.84 573.21 188.67 404.55 791.20 0.00 877.35 853.71 933.02 449.03 553.56 586.57 438.29 518.48 574.57 749.58 466.01 588.84 763.29 609.13 664.45 319.82 468.81 681.54 830.77 304.68 263.09 776.68 66.83 777.62 448.95 566.85 532.93 370.62 229.79 154.23 836.21 554.42 311.77 482.35 896.87 611.85 928.27 292.62 660.98 488.26 379.20 733.39 435.11 332.00 396.27 886.72 342.42 803.96 315.92 689.30 374.30 418.65 762.75 683.76 653.05 239.22 364.20 133.01 267.31 637.19 788.38 422.91 586.02 497.89 648.82 350.90 818.19 759.31 631.89 804.13 412.38 501.25 656.13 540.92 211.56 719.26 457.33 84.46 694.45 247.90 769.17 238.63 634.75 839.32 242.92 483.99 414.51 703.97 614.17 631.29 742.54 306.32 451.11 870.56 689.66 851.95 320.08 295.60 773.67 440.55 589.86 507.87 504.68 439.72 532.53 179.16 43.39 568.81 849.80 420.46 551.09 687.43 338.98 261.51 352.34 455.60
928.79 884.77 558.00 672.38 833.12 811.09 602.95 630.58 638.42 468.21 478.56 506.70 292.28 587.85 115.94 558.75 614.38 192.76 636.14 555.99 909.51 780.91 706.04 902.51 770.97 619.97 993.34 743.75 884.20 572.77 329.27 867.16 629.51 431.34 877.35 0.00 217.97 189.55 518.92 415.89 593.04 726.27 720.43 597.42 176.49 646.28 661.59 208.15 829.84 780.61 952.85 462.03 543.45 70.24 633.74 746.57 667.75 853.28 148.45 740.83 558.74 590.12 778.47 738.65 807.94 829.16 439.31 656.48 454.30 63.31 428.20 205.70 903.71 881.69 839.24 741.76 816.52 503.31 735.11 504.74 183.80 626.66 157.97 838.56 214.13 507.40 748.54 138.26 741.08 556.00 706.06 575.64 891.49 1012.88 554.07 446.40 640.35 687.98 540.19 801.93 982.82 788.74 626.47 410.10 561.22 594.64 715.21 307.12 600.41 908.54 184.17 746.63 792.89 687.84 1014.01 854.73 781.26 539.83 537.16 680.27 727.44 901.36 876.08 447.28 677.30 816.86 877.11 737.87 99.26 528.96 504.56 645.19 653.87 128.81 795.91 339.64 395.56 450.41 511.52 448.42 736.07 886.06 763.44 83.77 521.60 423.62 528.93 1100.17 687.96 777.07 503.45
930.32 872.27 526.08 742.61 740.66 798.62 598.88 625.26 578.73 389.53 546.51 481.63 245.47 592.71 276.00 510.99 707.95 145.00 656.42 560.85 811.54 687.99 716.04 917.32 809.85 532.16 961.57 686.04 840.18 602.29 280.50 872.02 699.74 352.66 853.71 217.97 0.00 122.87 574.46 428.37 691.06 754.46 669.35 529.21 308.12 613.17 759.48 183.92 701.44 706.61 931.63 546.67 477.71 270.24 597.30 725.35 614.58 861.54 280.08 720.76 522.18 542.36 738.32 805.42 802.90 731.19 476.48 665.09 433.08 178.81 379.43 84.38 906.96 753.29 845.16 701.61 762.21 509.85 773.99 619.21 44.65 629.70 60.00 851.04 192.91 556.09 727.32 295.47 686.77 484.91 726.51 554.42 896.35 1000.41 444.28 337.60 685.45 749.21 515.12 731.30 951.05 696.28 570.21 339.01 460.21 544.18 670.18 349.05 701.85 881.03 212.36 812.36 797.75 637.40 992.79 757.10 848.31 430.04 424.32 685.13 836.81 865.84 766.29 574.64 570.00 756.33 888.31 688.72 131.29 493.78 421.80 696.04 694.14 125.22 783.98 373.06 374.34 520.64 505.08 549.86 760.06 820.57 666.87 245.20 506.56 481.86 490.59 1089.76 715.35 736.92 588.79
923.31 922.53 570.26 814.58 732.60 886.35 675.71 686.51 554.05 487.48 624.67 563.53 320.41 682.87 305.49 585.93 753.99 219.94 756.17 667.79 856.25 801.21 822.98 1016.55 931.87 603.40 1037.91 777.76 956.80 680.45 359.81 969.57 771.99 461.65 933.02 189.55 122.87 0.00 652.62 472.72 731.14 829.40 716.57 624.60 357.04 688.11 799.69 305.94 824.31 796.80 1038.57 624.83 544.23 259.79 698.73 822.61 618.58 961.58 338.00 819.03 551.09 617.30 814.66 874.18 904.33 790.16 554.64 787.96 530.34 176.17 408.34 58.31 984.22 876.16 920.39 794.06 797.70 568.30 896.01 694.29 91.87 691.65 182.62 895.39 299.85 668.25 806.11 327.81 784.54 561.02 821.33 651.68 974.98 1088.14 567.15 446.59 763.61 833.43 551.84 784.96 1027.39 688.22 608.62 437.28 571.39 667.05 746.63 471.07 738.51 955.42 287.30 884.73 904.69 688.12 1089.87 850.64 947.52 552.91 535.50 782.68 908.63 955.35 877.26 636.83 670.78 816.59 953.37 786.74 171.58 501.09 537.19 774.50 750.02 203.38 857.37 448.00 481.28 634.95 600.07 586.52 841.20 943.19 763.25 259.59 619.06 604.73 561.61 1180.95 784.11 813.91 637.30
521.68 669.12 656.13 257.28 867.00 444.80 329.44 738.87 743.54 644.77 126.00 456.25 470.38 346.41 444.39 535.99 196.69 500.15 254.12 368.06 943.80 660.47 345.78 473.54 340.71 701.21 630.90 681.12 438.85 88.56 412.84 497.72 163.39 663.06 449.03 518.92 574.46 652.62 0.00 421.79 266.49 618.45 623.86 570.96 406.57 572.85 316.78 408.33 742.06 774.90 678.01 97.41 627.02 465.78 295.60 456.85 767.86 440.11 434.61 650.32 502.09 529.32 576.27 291.19 453.34 916.82 120.74 208.77 389.01 565.37 486.17 638.77 599.97 793.91 658.87 560.49 838.57 297.41 306.11 107.12 591.32 360.26 514.46 514.21 462.75 249.04 586.07 436.33 777.56 531.31 269.13 370.05 512.33 646.59 565.04 678.12 148.34 329.97 489.74 774.37 620.38 855.58 724.60 495.80 745.87 435.96 552.09 243.20 255.60 550.88 432.79 340.95 419.14 758.16 564.59 891.21 341.25 550.80 713.72 375.07 336.51 692.68 836.90 266.43 674.14 848.54 572.19 605.30 606.04 630.15 691.58 191.30 170.67 449.24 642.86 447.15 338.81 144.11 392.34 184.79 328.96 419.24 698.43 440.74 201.03 226.77 611.35 671.95 201.12 557.99 45.89
603.09 482.62 298.79 621.11 530.90 471.61 233.82 366.09 351.59 347.39 327.41 90.81 182.90 231.83 442.99 212.53 564.61 283.37 324.12 232.20 604.19 380.13 387.39 622.80 547.63 302.24 577.45 387.18 554.70 482.78 163.31 527.68 520.63 322.66 553.56 415.89 428.37 472.72 421.79 0.00 570.03 437.09 326.12 222.80 456.15 251.97 585.56 351.16 452.65 426.74 634.24 401.05 285.93 464.26 287.22 390.46 384.66 530.75 434.53 391.78 142.85 181.16 387.12 458.50 492.82 568.52 397.44 417.81 98.19 479.20 64.38 486.90 518.98 504.50 447.67 366.52 485.42 168.78 511.77 447.51 419.57 264.64 381.91 422.67 261.05 268.73 393.74 481.10 425.47 204.07 396.38 189.36 567.70 659.03 228.94 337.72 538.29 646.38 124.30 462.18 566.93 529.53 367.26 165.92 408.52 198.03 310.49 313.80 524.38 529.46 291.01 682.13 469.10 422.06 627.73 521.82 571.59 214.70 410.08 340.79 694.28 490.10 547.49 570.07 308.70 461.16 480.65 350.60 515.15 279.09 442.05 397.46 402.52 357.29 384.65 76.25 102.23 447.75 127.35 488.43 410.37 562.27 356.87 439.22 220.76 516.97 273.90 719.95 368.43 386.37 413.81
654.97 834.77 821.42 152.25 1027.01 595.20 570.37 906.03 888.17 741.82 242.72 646.03 579.72 512.96 477.10 762.79 150.27 598.89 487.55 528.94 1089.39 848.77 516.79 627.58 352.55 838.82 875.37 873.05 565.44 262.73 583.51 674.23 189.63 778.69 586.57 593.04 691.06 731.14 266.49 570.03 0.00 792.10 799.15 759.52 468.96 744.33 106.83 507.14 880.19 949.70 773.05 169.08 797.69 539.50 476.98 622.50 921.24 522.39 470.92 802.55 681.77 731.42 755.25 445.23 628.06 1062.62 254.69 359.17 526.64 577.77 626.31 702.52 778.48 932.04 863.80 753.60 985.61 430.02 316.69 194.70 715.69 553.37 631.06 744.22 501.57 390.96 718.68 517.49 910.17 652.01 419.53 545.34 669.53 746.90 725.05 793.75 197.64 143.00 644.36 919.88 883.72 988.74 877.74 644.65 842.92 618.72 740.33 342.01 45.65 721.89 531.53 271.69 611.07 865.00 766.93 1023.82 390.55 710.81 810.77 558.93 250.76 858.33 975.03 172.09 814.42 985.95 762.11 757.53 625.29 755.90 791.35 345.55 321.07 566.76 835.97 576.24 467.90 193.05 524.95 144.62 533.71 550.79 842.74 525.50 427.18 219.66 758.80 874.29 355.16 773.53 234.13
442.71 158.50 411.99 799.83 480.42 322.32 289.01 330.72 428.72 578.79 681.27 352.67 587.17 352.33 664.78 287.30 749.15 609.46 418.10 342.74 459.86 196.38 388.91 486.81 676.43 475.99 319.93 197.68 447.58 631.99 537.88 417.31 690.34 544.31 438.29 726.27 754.46 829.40 618.45 437.09 792.10 0.00 159.30 297.57 758.76 185.12 818.02 634.57 195.32 284.57 373.44 623.02 495.75 754.18 369.30 220.07 412.06 462.44 737.11 69.07 346.37 255.93 104.23 510.79 320.03 397.92 665.40 501.24 397.35 789.58 438.95 821.96 312.59 247.17 112.97 76.96 320.91 400.54 662.55 649.32 784.00 277.19 697.65 215.04 572.06 497.70 119.28 756.60 245.47 411.54 458.88 333.47 391.04 433.82 371.47 539.64 689.07 893.12 319.18 235.01 309.41 455.16 416.40 450.82 547.18 329.14 157.88 660.53 756.84 321.83 542.10 810.84 389.80 343.62 515.00 355.36 654.98 357.23 511.29 301.48 837.50 175.09 281.00 792.04 266.62 321.25 262.86 86.49 807.15 431.01 679.29 541.05 539.34 632.43 69.64 479.08 456.09 669.72 405.91 710.40 392.56 467.19 167.37 779.22 483.17 770.19 370.49 480.87 519.21 85.95 619.01
518.95 286.32 310.00 778.65 430.17 406.32 298.27 284.02 362.09 432.27 633.66 262.58 432.78 328.51 605.88 168.81 718.16 533.25 410.59 296.65 412.38 95.93 428.21 561.81 662.26 374.00 400.32 119.42 541.60 630.04 430.92 483.18 706.94 395.40 518.48 720.43 669.35 716.57 623.86 326.12 799.15 159.30 0.00 152.29 699.86 74.15 850.41 566.90 157.41 237.52 468.63 644.57 370.90 695.28 379.55 303.67 346.05 544.38 678.21 128.59 206.50 144.96 179.23 540.40 400.22 350.44 598.27 523.90 375.15 736.47 340.81 692.03 388.08 203.42 259.99 171.40 273.43 369.13 647.73 623.78 624.70 324.71 623.70 285.28 510.93 456.87 129.08 700.24 197.99 293.05 493.06 253.81 510.79 516.24 245.57 380.34 697.55 887.29 236.36 177.15 391.96 385.79 307.52 376.90 420.76 265.12 73.32 611.96 789.23 392.07 536.26 822.23 469.99 262.05 609.44 311.64 698.01 251.46 456.65 364.32 831.14 307.75 252.25 774.90 206.55 273.77 337.86 91.40 764.61 303.12 534.01 545.40 527.67 607.17 202.30 396.38 415.15 691.27 349.70 731.95 455.40 560.39 119.08 720.32 422.83 717.80 269.81 582.56 539.76 166.14 579.52
566.66 392.07 209.78 719.43 393.29 444.62 337.26 167.91 297.19 323.12 530.34 166.53 346.72 355.16 564.28 38.67 713.78 404.66 447.35 352.53 449.56 191.11 467.14 637.57 628.55 249.58 519.30 211.97 577.35 615.93 327.60 545.10 692.96 286.25 574.57 597.42 529.21 624.60 570.96 222.80 759.52 297.57 152.29 0.00 626.39 112.45 768.76 487.75 279.07 287.22 546.73 603.98 218.61 633.08 395.55 311.48 249.25 569.67 598.35 247.40 120.65 41.64 297.84 576.62 476.14 419.50 551.56 526.52 267.89 648.06 263.40 613.59 487.87 330.92 357.12 261.13 364.01 329.50 664.41 622.38 573.86 306.44 503.20 390.49 424.87 419.46 218.81 570.10 288.57 157.97 519.71 309.69 586.71 626.85 113.41 301.31 648.37 828.07 133.04 239.38 510.57 348.91 278.25 268.01 341.20 249.94 170.97 509.06 747.18 473.45 454.83 800.69 545.91 225.17 662.08 395.71 682.83 99.17 332.03 358.21 818.29 399.55 341.43 728.19 179.22 364.35 448.47 211.08 627.94 175.27 381.72 572.05 554.32 482.49 294.10 276.15 325.03 627.72 234.57 676.15 449.29 596.96 217.35 629.54 369.93 671.09 159.72 687.77 542.54 285.12 562.98
796.67 903.52 626.28 532.59 843.42 726.09 578.46 665.67 656.71 503.30 355.86 512.88 279.67 520.65 93.98 606.04 475.39 253.60 504.02 540.43 878.04 782.48 573.92 770.39 631.18 607.36 885.38 731.14 759.33 430.51 322.59 760.36 489.72 466.43 749.58 176.49 308.12 357.04 406.57 456.15 468.96 758.76 699.86 626.39 0.00 679.36 537.51 173.99 833.71 785.14 893.74 357.32 536.77 119.46 524.77 704.93 689.78 721.16 28.04 752.01 564.27 608.55 774.98 619.11 694.11 860.54 285.83 524.36 412.66 180.87 421.52 380.58 778.48 880.13 871.73 778.25 840.74 461.89 595.32 362.48 332.57 585.24 260.64 764.11 201.52 375.28 735.93 74.61 765.30 516.16 583.48 534.00 774.60 881.35 541.46 481.49 498.09 571.25 546.37 809.83 895.90 839.53 677.26 370.26 596.97 578.43 695.75 240.82 476.33 779.02 219.26 596.08 676.00 722.93 924.90 844.01 639.00 527.22 561.08 624.97 607.03 900.09 863.47 326.87 648.53 841.08 728.26 725.26 227.70 557.11 492.90 524.78 521.75 244.76 828.40 385.24 353.92 310.62 484.66 324.34 603.95 752.29 747.78 121.17 420.85 249.30 587.77 986.34 555.84 787.03 422.37
517.59 285.92 266.85 748.60 431.43 332.17 243.41 260.26 354.26 405.67 559.51 188.43 433.61 310.76 627.79 102.18 713.61 468.17 391.47 297.14 476.17 142.04 411.82 559.08 588.11 330.85 428.44 193.57 467.45 586.39 356.77 465.18 680.06 368.80 466.01 646.28 613.17 688.11 572.85 251.97 744.33 185.12 74.15 112.45 679.36 0.00 792.94 554.58 231.56 301.89 434.28 622.17 331.06 695.48 363.06 270.38 341.60 510.50 665.55 143.65 161.25 70.81 209.94 521.30 366.08 413.44 590.98 502.65 319.51 677.23 304.00 691.02 399.47 277.57 267.22 186.53 342.76 314.56 573.58 549.63 657.82 250.56 566.71 292.51 492.07 414.51 160.25 633.61 267.32 226.42 475.31 268.47 476.65 527.19 222.43 383.86 635.47 842.15 162.21 225.02 422.67 387.05 335.32 328.80 415.41 260.49 68.93 538.23 776.35 397.06 462.11 760.25 435.85 263.31 558.90 380.97 645.62 208.19 397.43 302.89 786.91 314.98 324.55 765.84 165.28 333.14 350.49 98.63 707.47 287.54 494.17 524.18 499.70 546.00 209.53 322.23 354.20 658.04 281.62 684.20 393.97 486.24 180.00 685.20 399.10 683.52 241.74 589.79 465.61 194.26 575.13
655.20 854.09 884.35 108.61 1102.78 613.62 573.43 924.93 937.15 848.65 349.55 676.37 599.58 549.45 545.65 776.37 169.20 663.89 506.48 580.53 1161.11 885.53 488.96 598.02 342.73 887.80 861.87 925.11 565.06 247.14 676.42 675.40 205.16 843.70 588.84 661.59 759.48 799.69 316.78 585.56 106.83 818.02 850.41 768.76 537.51 792.94 0.00 613.97 986.64 966.56 834.68 275.91 827.74 608.05 495.03 641.82 970.22 537.92 545.12 857.20 707.63 745.00 757.72 417.40 614.56 1099.17 352.89 377.59 606.19 684.60 649.94 771.07 794.01 960.19 899.62 787.37 1022.16 536.85 317.36 299.27 784.24 604.25 699.48 716.39 566.57 444.07 785.32 591.69 946.72 758.84 448.75 617.89 682.10 762.43 800.82 858.76 213.17 102.87 653.60 981.01 872.39 1080.58 952.82 696.54 916.88 627.96 777.09 448.84 61.18 694.06 596.53 170.59 591.04 971.83 782.46 1060.37 389.29 786.58 880.99 577.35 143.93 877.65 1018.74 246.29 829.95 1022.50 774.37 848.48 661.83 856.26 898.18 356.14 350.29 673.59 848.80 549.69 563.87 244.94 534.19 213.17 505.88 545.45 920.71 594.05 463.94 288.21 795.74 828.07 327.33 760.59 270.89
771.78 793.07 499.19 606.53 704.78 716.04 500.76 538.88 546.72 376.51 414.89 440.98 168.26 492.80 109.75 466.50 545.94 100.51 517.73 460.94 814.74 646.53 609.39 821.71 625.93 500.63 876.25 624.41 777.92 496.44 240.38 765.23 567.67 339.64 763.29 208.15 183.92 305.94 408.33 351.16 507.14 634.57 566.90 487.75 173.99 554.58 613.97 0.00 723.57 665.15 833.51 421.95 452.79 145.33 541.31 627.23 583.05 734.87 152.61 649.13 459.23 497.87 697.28 660.76 746.91 746.19 344.86 574.70 334.96 245.23 316.48 248.23 769.35 741.49 747.54 671.47 720.75 411.73 590.07 478.70 228.57 531.58 123.92 755.26 94.79 458.24 629.20 199.18 645.31 412.38 589.71 456.30 796.44 897.51 402.82 354.70 556.67 650.14 459.98 689.84 886.77 713.38 557.19 317.64 474.98 500.73 614.20 165.13 552.79 789.20 92.47 680.74 697.84 595.94 894.67 756.45 664.39 388.58 445.46 585.22 707.40 809.66 724.83 451.44 528.54 714.87 719.13 618.53 197.71 467.93 414.31 512.12 536.60 102.56 704.21 295.85 276.22 423.01 406.96 442.23 653.41 775.84 627.79 170.37 414.00 423.29 425.83 991.64 570.69 695.51 404.87
624.62 234.13 329.39 936.06 298.65 504.60 421.77 225.30 354.20 472.99 747.86 367.88 582.54 485.92 763.29 302.86 875.57 668.85 548.94 454.06 295.33 118.01 559.05 628.06 806.42 367.73 430.02 102.57 629.86 764.75 529.95 550.01 864.35 494.80 609.13 829.84 701.44 824.31 742.06 452.65 880.19 195.32 157.41 279.07 833.71 231.56 986.64 723.57 0.00 115.49 526.10 764.45 412.47 852.69 536.96 378.23 304.31 636.20 805.67 160.18 360.37 271.49 245.48 654.20 490.87 253.47 755.68 675.19 520.19 852.71 465.47 785.82 454.33 51.85 279.16 259.24 177.38 450.17 770.56 768.03 746.09 452.59 702.65 369.31 632.19 542.57 259.92 834.29 124.95 359.50 650.47 411.22 586.36 555.86 330.85 479.74 837.73 1023.19 362.89 39.69 440.54 286.08 332.73 471.07 439.93 411.56 230.73 738.91 925.84 476.10 662.15 943.58 560.64 221.14 656.37 160.04 825.82 334.99 404.04 478.26 970.24 266.95 94.84 901.45 195.03 172.26 404.11 205.20 832.73 323.56 624.76 702.81 685.08 730.41 264.96 528.90 546.01 811.15 482.30 819.81 569.34 649.47 95.78 877.73 541.03 850.50 300.91 666.59 667.87 256.79 732.65
693.66 311.03 253.81 923.37 214.97 559.92 484.23 165.94 242.75 387.02 734.28 345.08 524.12 543.99 774.90 276.95 894.33 621.15 578.92 526.86 242.44 171.56 623.44 712.97 825.53 255.27 506.92 132.55 685.18 818.66 531.54 605.33 860.78 423.89 664.45 780.61 706.61 796.80 774.90 426.74 949.70 284.57 237.52 287.22 785.14 301.89 966.56 665.15 115.49 0.00 585.69 807.92 331.47 810.48 599.04 463.14 192.68 677.54 775.75 215.50 358.93 245.58 330.39 709.52 546.19 191.98 765.75 696.59 494.28 832.13 478.88 752.95 539.24 117.26 338.42 314.56 89.59 519.68 789.67 823.35 751.26 481.01 710.17 441.20 602.27 619.63 324.31 808.38 39.53 333.69 658.96 484.02 641.99 632.76 290.81 431.39 816.19 1022.87 336.98 86.06 517.44 170.59 247.31 431.16 353.96 447.70 304.70 706.13 905.38 547.99 612.35 960.03 615.96 108.68 733.27 153.18 858.47 276.57 318.07 538.37 933.76 343.85 175.81 942.38 136.61 99.41 489.02 260.52 836.81 322.98 538.79 704.90 680.42 698.51 313.18 468.58 523.21 854.62 456.39 889.32 612.56 704.79 133.60 831.55 573.87 883.34 286.17 724.41 646.33 312.11 766.92
238.48 291.97 701.13 747.14 748.07 264.77 423.77 626.12 758.58 813.62 685.71 543.43 745.57 417.24 935.82 536.46 751.76 836.04 437.38 449.10 730.27 490.05 345.72 257.73 595.16 742.79 169.58 482.40 343.60 679.68 756.43 180.29 693.40 803.08 319.82 952.85 931.63 1038.57 678.01 634.24 773.05 373.44 468.63 546.73 893.74 434.28 834.68 833.51 526.10 585.69 0.00 731.63 702.46 978.84 436.46 296.87 707.46 339.69 896.93 396.29 594.57 505.09 305.41 502.98 230.86 727.91 755.74 499.75 589.14 992.22 682.95 995.94 115.26 564.81 337.50 297.23 630.42 531.81 623.36 681.47 970.01 450.48 871.63 222.22 738.72 544.36 339.55 943.50 617.64 594.40 455.62 468.23 235.95 92.91 606.62 818.14 677.21 855.78 539.45 565.79 159.06 703.69 720.94 682.64 813.79 530.29 430.87 781.96 794.16 140.62 768.68 762.40 275.79 668.62 193.42 658.42 555.88 620.86 825.83 340.16 789.06 259.15 620.94 784.90 551.34 654.68 165.48 385.13 1014.31 698.29 928.45 562.33 537.85 859.01 358.21 617.98 557.29 778.33 540.67 793.54 354.24 332.24 452.09 980.95 588.14 761.43 656.86 158.13 507.35 323.69 666.58
550.15 743.81 691.35 256.45 896.94 499.18 411.23 767.14 752.64 685.88 73.64 476.95 435.25 343.88 409.26 593.71 195.86 467.09 350.62 359.86 983.37 679.69 408.29 520.05 367.26 703.29 728.31 734.97 466.76 131.19 452.41 556.11 222.74 650.43 468.81 462.03 546.67 624.83 97.41 401.05 169.08 623.02 644.57 603.98 357.32 622.17 275.91 421.95 764.45 807.92 731.63 0.00 666.59 420.63 307.90 534.24 785.71 488.12 385.36 680.39 537.96 562.34 600.24 349.21 513.50 954.43 85.61 263.15 357.56 525.34 465.43 610.98 644.83 816.30 735.99 600.24 864.60 321.83 331.40 72.54 591.32 431.82 486.67 610.71 444.33 221.88 610.49 352.61 801.98 541.38 323.51 402.70 500.45 663.21 594.98 635.37 198.58 312.08 500.19 801.81 717.79 874.74 742.95 498.30 751.30 456.05 571.25 304.58 214.73 591.01 461.77 348.16 510.37 784.76 662.00 901.00 344.02 580.74 716.66 432.02 351.54 760.83 859.29 169.02 694.84 840.34 635.20 635.37 556.21 645.27 731.15 210.46 225.05 421.45 682.61 407.16 298.82 46.70 380.78 87.38 405.11 447.15 717.65 429.79 258.10 148.56 641.29 769.36 259.14 610.26 65.05
733.12 572.62 106.62 842.24 381.74 547.70 405.83 219.36 172.52 141.81 611.57 294.75 284.53 473.18 513.67 257.28 803.99 354.05 565.47 459.56 447.18 385.11 609.42 765.79 821.98 123.17 737.66 383.16 682.98 715.58 214.18 680.71 783.89 125.05 681.54 543.45 477.71 544.23 627.02 285.93 797.69 495.75 370.90 218.61 536.77 331.06 827.74 452.79 412.47 331.47 702.46 666.59 0.00 523.74 516.72 530.09 205.59 711.95 534.44 426.68 263.13 260.25 514.41 693.18 581.61 439.30 624.94 611.30 384.12 585.49 270.21 485.92 632.76 448.73 527.09 477.70 389.08 437.61 786.12 728.68 494.83 436.65 447.68 609.10 360.96 462.22 437.42 581.01 320.90 192.80 617.93 450.29 692.18 749.49 141.40 140.11 739.30 915.61 261.26 372.78 727.14 337.36 175.09 168.67 122.59 369.66 367.30 455.68 804.03 685.82 372.22 891.68 651.38 222.79 809.95 425.48 802.55 154.60 157.78 500.49 918.34 605.44 457.30 747.15 294.56 364.82 628.25 425.31 537.97 88.91 307.42 633.17 608.69 414.64 512.71 278.05 386.39 620.27 380.67 668.70 591.57 701.77 376.47 548.78 506.69 675.95 125.26 860.59 642.78 503.73 670.29
902.25 887.18 628.24 627.17 850.11 804.36 576.12 679.78 687.62 517.41 419.83 555.07 313.59 606.36 89.40 599.45 566.58 245.84 609.60 574.50 960.07 791.21 679.50 875.97 741.40 645.96 966.86 769.74 854.55 502.53 385.71 865.94 580.35 480.54 830.77 70.24 270.24 259.79 465.78 464.26 539.50 754.18 695.28 633.08 119.46 695.48 608.05 145.33 852.69 810.48 978.84 420.63 523.74 0.00 603.04 760.55 728.38 826.74 114.59 790.03 604.56 630.82 743.61 672.55 780.44 887.09 370.39 628.41 480.29 107.15 461.81 273.88 884.63 886.82 850.45 706.90 866.08 512.07 714.78 434.50 254.04 606.94 228.21 867.44 240.12 480.86 749.22 68.02 790.64 557.71 689.06 531.66 880.18 986.93 548.15 495.60 570.11 629.25 588.56 835.17 956.34 854.28 696.71 462.97 615.88 596.01 704.00 310.46 546.87 884.60 233.37 693.09 781.58 737.04 970.03 901.78 711.02 533.91 586.36 683.09 693.58 894.72 870.16 413.42 673.87 860.20 847.72 763.86 154.67 599.20 434.32 578.62 593.21 186.53 789.27 388.01 421.55 430.08 552.29 394.88 709.53 845.42 773.12 25.04 451.36 368.76 571.16 1072.67 627.30 742.21 433.21
367.84 458.02 510.79 454.56 732.87 201.32 119.65 535.78 583.56 596.05 337.46 296.00 447.02 55.39 540.95 385.28 396.40 534.56 59.12 87.25 710.76 427.48 150.78 384.90 353.28 538.60 452.91 471.33 319.31 341.28 404.61 306.29 340.23 560.96 304.68 633.74 597.30 698.73 295.60 287.22 476.98 369.30 379.55 395.55 524.77 363.06 495.03 541.31 536.96 599.04 436.46 307.90 516.72 603.04 0.00 245.75 607.61 276.26 552.81 391.40 331.47 353.91 322.85 228.54 205.60 703.94 389.35 155.97 234.08 655.86 326.72 661.61 358.03 568.29 435.89 292.34 591.99 130.43 337.33 323.54 641.95 150.47 537.30 319.21 446.52 149.49 332.98 535.02 577.54 389.45 129.21 125.74 316.17 403.11 402.43 563.48 363.85 563.20 262.51 513.32 463.43 716.78 579.26 415.85 639.31 214.20 338.69 426.30 435.52 339.44 476.48 488.63 252.86 593.04 462.86 628.39 344.55 416.67 645.87 163.80 513.88 480.16 615.37 427.44 499.42 567.73 366.98 380.24 663.52 493.34 683.35 218.55 194.07 566.81 374.71 319.43 265.09 354.60 185.65 395.28 194.80 317.23 465.44 622.07 151.68 441.27 452.67 497.83 193.99 304.57 249.71
338.97 212.27 465.88 600.60 642.47 159.86 184.43 461.79 507.07 604.70 486.53 345.56 539.64 190.36 699.63 301.21 540.01 602.67 202.73 208.40 669.96 351.84 228.13 356.67 462.02 529.88 271.74 383.91 286.87 516.23 462.80 234.31 508.06 567.83 263.09 746.57 725.35 822.61 456.85 390.46 622.50 220.07 303.67 311.48 704.93 270.38 641.82 627.23 378.23 463.14 296.87 534.24 530.09 760.55 245.75 0.00 543.13 329.92 705.92 247.64 381.03 269.84 132.75 308.15 193.77 617.99 556.56 318.96 292.27 785.94 440.25 789.66 181.61 430.08 257.80 149.07 502.67 276.96 482.57 512.87 763.73 153.61 665.35 128.03 532.44 331.47 174.59 752.49 465.54 389.96 309.20 228.89 289.97 361.04 409.17 582.89 533.69 705.15 312.07 417.79 261.22 633.73 496.22 488.18 614.44 243.52 246.00 555.95 580.64 161.97 562.40 634.16 238.95 513.05 398.85 538.27 501.72 400.89 596.46 119.20 660.82 235.83 467.00 673.19 416.88 526.93 186.01 236.97 798.49 480.24 693.20 381.54 357.06 652.73 231.44 432.48 351.01 580.94 275.25 610.26 210.28 306.48 353.60 785.59 373.34 665.61 440.77 425.31 369.22 151.03 495.46
758.41 467.31 130.59 931.49 201.33 656.22 497.47 81.34 70.82 242.80 712.07 311.61 421.16 564.82 672.63 287.92 893.13 521.63 657.11 544.66 308.39 293.33 667.67 819.46 877.80 82.42 658.52 260.85 781.48 827.99 418.58 717.35 849.57 273.23 776.68 667.75 614.58 618.58 767.86 384.66 921.24 412.06 346.05 249.25 689.78 341.60 970.22 583.05 304.31 192.68 707.46 785.71 205.59 728.38 607.61 543.13 0.00 778.55 661.74 343.29 334.55 290.89 436.88 774.57 624.22 273.47 766.55 672.21 447.51 729.17 394.08 560.27 626.41 309.94 421.78 410.86 257.59 544.82 865.81 802.00 627.60 521.01 589.55 519.45 488.26 642.61 368.54 697.41 182.15 269.23 719.58 501.82 734.79 755.81 218.59 285.08 860.43 1012.03 345.10 266.95 649.61 171.53 62.12 370.81 196.59 463.99 382.96 624.30 909.04 626.24 518.22 1004.87 693.99 84.00 842.69 260.36 896.88 226.64 190.26 603.78 1023.22 500.13 306.52 926.85 176.32 256.75 577.43 325.57 686.15 183.96 381.42 734.79 710.31 595.55 434.95 460.91 486.89 822.41 464.51 845.21 694.86 787.16 255.37 746.51 593.08 861.60 178.31 816.73 722.47 424.34 742.33
132.58 451.83 660.33 457.42 872.96 178.33 318.43 697.21 747.74 796.61 451.85 516.61 641.17 309.36 737.34 531.00 457.57 741.64 217.14 304.29 852.40 578.27 149.10 134.68 281.39 724.33 362.82 601.90 43.05 420.60 639.00 159.40 400.67 759.74 66.83 853.28 861.54 961.58 440.11 530.75 522.39 462.44 544.38 569.67 721.16 510.50 537.92 734.87 636.20 677.54 339.69 488.12 711.95 826.74 276.26 329.92 778.55 0.00 749.20 498.00 533.32 562.37 390.72 178.46 169.93 790.46 521.88 255.93 468.47 868.45 585.80 925.85 319.82 688.05 497.36 413.67 713.45 406.69 317.25 449.84 877.84 349.25 801.54 349.48 672.23 345.88 446.70 775.38 638.01 649.42 223.28 347.13 160.09 298.09 652.89 756.92 356.08 566.06 508.19 675.89 373.34 833.89 728.80 629.47 822.28 411.67 496.64 625.81 476.74 242.69 702.19 453.53 107.52 710.15 244.54 751.66 257.90 647.43 826.25 211.46 480.19 419.01 731.04 634.10 640.69 713.79 336.79 452.98 915.97 726.68 910.75 293.92 269.44 769.93 462.77 529.92 490.80 534.52 403.40 552.46 120.38 40.97 616.23 842.33 392.04 570.36 670.56 351.90 259.09 404.01 429.44
824.71 885.53 609.79 526.52 815.38 699.98 575.57 649.85 628.67 487.48 383.90 525.34 251.63 548.42 72.33 578.00 465.93 231.95 532.06 541.42 906.08 757.13 601.96 798.43 659.22 579.32 879.77 703.10 787.37 458.55 320.26 766.76 517.76 450.61 777.62 148.45 280.08 338.00 434.61 434.53 470.92 737.11 678.21 598.35 28.04 665.55 545.12 152.61 805.67 775.75 896.93 385.36 534.44 114.59 552.81 705.92 661.74 749.20 0.00 742.24 542.60 606.22 775.97 645.38 666.07 857.16 313.87 552.40 413.65 208.91 399.85 354.15 806.52 852.09 850.08 750.21 831.35 433.85 623.36 390.52 310.92 557.20 276.53 792.15 173.48 403.32 707.89 46.57 755.91 516.16 611.52 531.11 776.64 901.77 513.42 455.27 526.13 570.03 543.35 796.35 869.25 811.49 649.22 398.30 568.93 552.96 682.55 248.66 502.20 805.79 203.44 605.65 704.04 706.54 931.30 867.05 667.04 499.18 533.04 653.01 578.99 874.62 835.43 298.83 639.14 825.47 756.30 697.22 247.71 574.15 471.25 496.74 521.22 223.11 806.75 379.22 354.91 338.66 459.19 350.21 631.99 773.43 733.41 93.13 429.91 275.17 559.73 958.30 555.31 774.20 442.57
478.16 157.73 410.50 794.07 430.47 344.42 323.73 261.95 394.41 509.72 631.43 300.97 531.13 360.79 733.85 245.83 733.48 599.09 396.20 328.93 448.72 127.31 407.94 497.47 694.40 425.71 330.79 150.17 469.68 655.53 498.28 389.83 712.44 512.19 448.95 740.83 720.76 819.03 650.32 391.78 802.55 69.07 128.59 247.40 752.01 143.65 857.20 649.13 160.18 215.50 396.29 680.39 426.68 790.03 391.40 247.64 343.29 498.00 742.24 0.00 304.90 214.46 114.89 494.02 330.69 395.68 661.05 523.34 449.73 804.14 437.76 785.07 323.74 212.03 134.15 99.06 305.09 397.47 658.54 607.85 753.29 292.91 660.76 225.70 568.76 496.57 108.81 752.39 255.03 370.07 502.67 368.19 426.49 450.02 330.65 508.93 699.73 902.71 294.26 199.87 327.62 386.09 370.60 381.75 485.15 283.96 116.41 667.63 825.91 332.49 556.66 783.40 400.46 319.21 537.10 320.22 665.64 325.11 514.05 323.58 810.06 190.55 255.02 793.25 219.11 305.69 273.52 45.02 803.44 361.94 629.12 551.71 559.95 636.40 114.24 465.88 458.24 716.26 377.73 744.11 414.66 489.29 119.86 815.07 462.48 771.95 301.42 522.98 529.87 96.61 622.61
605.66 432.66 224.72 655.35 430.31 440.53 262.77 288.56 312.13 335.32 464.32 61.01 290.97 307.83 521.37 81.98 622.44 381.55 372.86 294.06 515.73 264.71 441.42 573.49 635.33 264.52 555.03 293.14 551.63 551.85 241.68 519.38 598.97 301.19 566.85 558.74 522.18 551.09 502.09 142.85 681.77 346.37 206.50 120.65 564.27 161.25 707.63 459.23 360.37 358.93 594.57 537.96 263.13 604.56 331.47 381.03 334.55 533.32 542.60 304.90 0.00 113.35 331.78 516.55 474.44 462.81 497.73 405.87 191.55 529.97 142.75 589.91 489.18 405.52 400.14 297.34 426.30 251.75 599.47 546.04 527.64 231.95 465.60 423.29 369.12 351.70 255.02 589.17 350.86 116.10 460.68 251.22 575.04 642.32 128.35 316.25 568.76 763.99 68.96 360.03 544.51 415.08 272.43 203.63 366.59 188.01 230.18 436.98 666.89 528.20 399.08 738.53 515.93 291.34 683.92 441.89 620.90 114.11 352.67 332.49 754.21 465.48 450.36 674.36 234.09 423.70 481.27 259.88 577.49 193.46 377.43 468.45 443.97 442.14 365.81 219.10 239.14 584.66 173.44 621.39 412.94 571.24 264.59 582.07 348.13 617.26 174.66 720.57 456.13 321.33 541.18
530.08 350.43 196.04 677.79 434.93 402.98 295.75 209.55 283.45 334.86 488.70 124.89 362.80 313.52 556.98 31.37 672.14 397.36 405.81 310.89 443.24 198.97 459.84 595.93 621.25 260.04 485.91 206.02 538.26 574.29 285.96 504.15 651.32 297.99 532.93 590.12 542.36 617.30 529.32 181.16 731.42 255.93 144.96 41.64 608.55 70.81 745.00 497.87 271.49 245.58 505.09 562.34 260.25 630.82 353.91 269.84 290.89 562.37 606.22 214.46 113.35 0.00 280.75 565.49 436.89 412.20 520.17 489.49 248.70 606.42 233.30 620.21 451.45 323.34 315.48 250.25 327.06 305.74 644.24 595.17 587.01 264.93 495.90 363.32 432.74 377.82 220.65 562.80 263.81 155.61 478.07 268.05 547.46 598.00 155.05 313.05 606.73 786.43 91.40 281.02 475.39 390.55 264.51 257.99 344.60 208.30 129.33 467.42 705.54 431.81 419.97 782.69 506.66 266.81 620.44 377.46 641.19 140.81 326.62 350.91 776.65 357.91 366.33 696.80 147.04 339.59 421.30 169.44 636.66 216.90 423.36 530.41 512.68 475.19 252.46 257.41 283.39 609.04 210.81 649.72 441.99 557.05 175.71 620.38 328.29 637.76 170.93 660.60 500.90 265.07 521.34
379.14 143.57 453.50 733.35 524.56 282.07 246.83 355.54 488.00 576.11 619.28 296.31 554.54 284.66 769.01 272.62 672.76 638.61 335.48 282.00 540.81 242.20 348.66 382.58 594.77 501.78 223.25 260.23 394.40 589.81 504.19 326.10 634.92 539.24 370.62 778.47 738.32 814.66 576.27 387.12 755.25 104.23 179.23 297.84 774.98 209.94 757.72 697.28 245.48 330.39 305.41 600.24 514.41 743.61 322.85 132.75 436.88 390.72 775.97 114.89 331.78 280.75 0.00 440.90 252.36 498.95 625.15 451.71 362.32 777.98 406.32 822.70 208.85 297.33 164.57 36.71 390.90 351.72 573.73 609.02 782.97 228.37 717.94 123.83 602.49 430.03 79.03 752.90 349.70 396.86 441.95 278.89 362.93 337.01 374.51 554.30 593.60 806.93 262.82 285.17 212.73 500.98 485.49 438.93 508.38 224.91 162.20 608.58 713.39 230.62 627.58 744.09 322.13 391.86 437.52 405.52 587.31 388.75 524.43 251.95 770.75 176.39 340.32 750.29 321.43 408.48 158.63 111.31 825.50 446.14 679.56 473.38 464.48 704.65 104.80 438.83 421.06 646.94 318.68 687.62 343.03 414.01 234.75 768.65 415.50 724.97 412.18 421.11 430.39 18.28 535.19
311.04 520.42 735.77 398.66 903.03 306.17 287.35 693.23 796.44 736.17 371.91 487.65 566.97 263.88 622.71 537.95 338.07 667.44 182.55 290.92 914.43 585.22 171.66 297.64 210.28 747.09 541.28 597.92 206.01 262.40 543.92 337.86 289.23 728.66 229.79 738.65 805.42 874.18 291.19 458.50 445.23 510.79 540.40 576.62 619.11 521.30 417.40 660.76 654.20 709.52 502.98 349.21 693.18 672.55 228.54 308.15 774.57 178.46 645.38 494.02 516.55 565.49 440.90 0.00 296.95 843.43 411.93 140.33 418.78 779.70 522.88 822.06 443.31 706.05 565.95 433.83 755.37 352.36 174.42 298.01 782.31 318.17 765.15 399.09 634.74 266.00 453.65 664.49 738.39 617.99 99.33 297.44 283.51 446.27 610.92 743.72 259.93 466.61 491.05 691.17 551.80 858.65 782.03 548.59 815.77 385.90 520.39 525.87 411.92 362.36 664.70 382.42 227.19 734.91 423.00 814.24 194.59 625.16 801.14 218.41 409.08 543.98 749.04 468.90 667.90 771.40 421.59 449.00 822.18 695.60 822.66 148.64 124.16 732.14 516.20 501.00 453.31 389.24 393.33 387.26 172.57 218.89 613.88 697.59 315.53 462.30 655.10 472.27 90.07 459.18 284.16
162.24 362.61 593.21 567.48 708.34 33.91 271.70 572.62 668.48 687.35 455.85 451.89 595.89 260.99 738.40 437.47 520.90 696.36 247.29 289.01 764.61 458.00 155.63 217.51 428.36 619.13 247.31 480.86 161.08 459.56 606.75 100.69 464.63 684.28 154.23 807.94 802.90 904.33 453.34 492.82 628.06 320.03 400.22 476.14 694.11 366.08 614.56 746.91 490.87 546.19 230.86 513.50 581.61 780.44 205.60 193.77 624.22 169.93 666.07 330.69 474.44 436.89 252.36 296.95 0.00 717.95 525.88 268.89 437.50 861.46 511.92 867.21 277.42 542.72 355.86 269.39 613.50 336.03 392.50 462.80 832.56 242.49 742.90 196.28 652.12 353.05 285.42 712.64 565.50 556.00 242.08 316.16 110.57 235.70 482.96 699.34 457.09 663.77 441.74 528.62 257.83 663.96 657.87 499.77 704.20 332.40 376.74 631.90 601.10 139.72 682.08 557.92 69.77 540.22 265.23 650.91 375.93 497.20 726.97 164.73 584.58 395.43 585.71 633.04 531.36 624.28 227.20 332.85 869.12 576.55 822.37 331.47 306.99 745.84 292.84 468.30 470.69 560.20 388.60 577.43 124.38 162.94 450.55 759.20 357.28 645.41 533.20 292.23 287.23 234.08 455.31
828.74 487.60 332.68 1045.66 95.97 720.24 597.19 282.94 306.84 421.13 885.82 487.11 614.79 648.55 826.76 380.83 1025.01 667.14 691.88 616.69 80.35 300.79 757.35 878.59 970.71 322.70 683.05 245.51 833.51 940.17 537.95 723.74 1001.13 458.00 836.21 829.16 731.19 790.16 916.82 568.52 1062.62 397.92 350.44 419.50 860.54 413.44 1099.17 746.19 253.47 191.98 727.91 954.43 439.30 887.09 703.94 617.99 273.47 790.46 857.16 395.68 462.81 412.20 498.95 843.43 717.95 0.00 888.04 832.80 616.57 852.67 575.12 773.84 672.15 254.27 481.58 474.88 156.99 632.60 981.65 957.26 775.84 612.60 671.19 588.31 683.68 732.55 458.22 868.22 152.45 428.53 798.35 604.25 779.40 781.61 371.98 460.62 974.60 1154.30 459.27 249.76 693.57 101.94 264.21 543.33 388.07 560.66 417.66 779.45 1037.99 695.10 653.72 1095.45 787.72 225.68 882.12 93.43 993.55 382.29 352.18 667.60 1068.79 492.70 230.21 1064.67 269.22 136.21 646.29 394.43 813.87 382.26 572.90 860.34 847.71 736.41 455.40 644.77 665.24 994.93 578.68 1002.24 758.68 831.43 275.82 892.02 728.98 999.72 321.74 866.63 838.31 483.87 897.98
594.22 743.52 651.76 309.45 911.08 559.79 410.05 719.47 739.17 614.15 70.03 462.26 349.64 388.18 323.65 512.89 248.86 381.48 374.86 356.32 925.97 685.00 445.52 594.28 433.91 699.68 751.64 717.69 531.38 207.14 410.76 618.46 249.96 577.28 554.42 439.31 476.48 554.64 120.74 397.44 254.69 665.40 598.27 551.56 285.83 590.98 352.89 344.86 755.68 765.75 755.74 85.61 624.94 370.39 389.35 556.56 766.55 521.88 313.87 661.05 497.73 520.17 625.15 411.93 525.88 888.04 0.00 329.51 353.95 466.70 461.82 540.79 673.39 801.69 711.00 588.44 845.10 336.17 398.05 158.15 521.13 440.87 416.48 634.95 427.79 279.55 565.88 360.44 769.66 537.77 389.87 399.16 586.06 722.77 594.78 562.22 240.28 397.69 428.77 775.42 741.12 866.70 704.43 499.02 666.94 470.94 637.04 270.37 300.34 650.62 437.33 335.88 539.88 776.73 685.33 882.75 429.63 595.94 631.05 480.60 362.54 776.26 850.52 176.63 652.89 836.80 683.78 629.67 513.53 582.59 689.50 285.05 291.41 351.26 670.81 403.55 295.21 130.51 377.17 172.99 401.50 532.76 695.88 395.43 239.79 119.53 643.11 792.69 321.86 623.75 139.64
348.99 531.23 630.59 298.59 816.25 236.03 262.74 590.87 718.00 669.20 273.83 411.71 486.77 195.39 540.54 487.85 252.01 587.24 140.92 227.25 850.76 566.57 211.89 322.68 229.46 670.39 516.20 587.29 287.99 210.58 476.56 369.04 195.74 658.11 311.77 656.48 665.09 787.96 208.77 417.81 359.17 501.24 523.90 526.52 524.36 502.65 377.59 574.70 675.19 696.59 499.75 263.15 611.30 628.41 155.97 318.96 672.21 255.93 552.40 523.34 405.87 489.49 451.71 140.33 268.89 832.80 329.51 0.00 352.68 692.93 445.32 749.47 424.66 623.34 545.67 424.28 731.99 249.03 193.60 193.91 696.25 281.83 650.73 387.36 517.82 149.08 435.00 560.39 721.89 521.97 96.42 270.09 379.46 437.82 534.22 673.17 214.73 407.23 418.48 653.32 526.72 771.87 678.30 481.62 733.89 358.55 494.66 442.19 339.72 374.15 547.78 332.66 313.97 648.13 498.28 768.39 235.60 519.98 734.17 199.76 359.32 554.79 681.89 411.81 629.60 707.73 402.94 492.10 740.01 599.33 755.30 62.58 38.10 638.11 506.65 384.08 336.39 302.32 341.62 330.17 214.08 268.38 604.53 645.53 198.61 395.18 542.80 561.12 50.26 445.61 198.10
540.80 504.54 396.98 577.62 592.04 403.59 165.80 435.80 439.96 437.10 283.92 155.87 247.37 182.17 444.71 271.70 519.14 310.40 274.46 164.18 691.94 413.53 319.37 567.45 509.97 400.43 564.01 454.72 488.48 422.52 170.53 459.66 477.14 406.26 482.35 454.30 433.08 530.34 389.01 98.19 526.64 397.35 375.15 267.89 412.66 319.51 606.19 334.96 520.19 494.28 589.14 357.56 384.12 480.29 234.08 292.27 447.51 468.47 413.65 449.73 191.55 248.70 362.32 418.78 437.50 616.57 353.95 352.68 0.00 493.67 147.98 497.39 473.88 554.34 510.32 396.85 565.97 103.65 510.73 354.49 471.46 196.62 373.08 420.30 240.17 203.60 368.44 460.22 490.53 235.62 330.54 121.34 499.68 605.38 308.09 421.32 468.05 602.89 157.30 507.27 553.49 547.66 385.39 249.52 506.71 165.77 357.57 295.41 572.29 454.24 270.13 633.06 401.08 482.89 559.71 604.18 506.46 293.85 498.72 272.77 633.49 487.43 593.63 526.58 373.76 559.35 475.95 418.14 515.76 339.51 449.27 369.59 345.11 360.46 466.99 140.21 58.74 404.26 72.00 444.94 355.02 494.25 424.41 503.18 187.98 473.48 342.41 667.07 367.39 380.60 371.67
962.85 876.59 621.31 713.46 846.42 857.18 659.47 693.89 700.21 497.31 526.98 570.01 308.01 640.00 179.25 610.79 656.26 244.80 651.31 619.30 933.02 794.68 742.49 938.96 812.05 651.25 999.44 783.12 911.50 599.74 384.67 928.93 670.59 460.44 896.87 63.31 178.81 176.17 565.37 479.20 577.77 789.58 736.47 648.06 180.87 677.23 684.60 245.23 852.71 832.13 992.22 525.34 585.49 107.15 655.86 785.94 729.17 868.45 208.91 804.14 529.97 606.42 777.98 779.70 861.46 852.67 466.70 692.93 493.67 0.00 456.23 217.34 959.35 882.13 844.07 741.27 879.83 525.43 776.19 541.65 203.03 648.78 181.48 870.63 253.50 543.85 698.95 175.17 804.39 596.18 752.05 615.01 911.99 1049.92 569.80 475.50 677.26 720.77 598.93 824.80 990.71 802.04 677.99 455.09 584.73 657.95 735.75 370.43 623.42 947.59 247.48 776.95 844.57 751.15 1053.38 904.08 818.17 555.56 566.26 743.58 787.90 909.41 891.81 507.74 695.52 859.54 909.13 762.74 47.52 574.03 541.47 637.84 662.32 192.12 823.64 402.95 434.93 491.49 565.67 502.03 772.52 909.42 782.13 132.19 558.51 430.17 551.80 1150.35 696.41 765.26 540.36
655.80 514.19 322.09 665.41 527.68 478.01 267.37 406.70 323.67 289.12 391.79 155.19 148.22 296.21 378.62 224.73 620.45 238.80 385.84 296.58 577.08 399.73 451.77 648.03 612.01 311.66 629.57 400.00 593.48 547.16 98.93 561.23 533.94 258.28 611.85 428.20 379.43 408.34 486.17 64.38 626.31 438.95 340.81 263.40 421.52 304.00 649.94 316.48 465.47 478.88 682.95 465.43 270.21 461.81 326.72 440.25 394.08 585.80 399.85 437.76 142.75 233.30 406.32 522.88 511.92 575.12 461.82 445.32 147.98 456.23 0.00 447.16 575.88 517.32 512.05 385.72 543.65 196.29 576.15 502.47 384.89 298.19 322.85 487.05 226.37 296.24 397.77 446.42 468.21 152.68 449.32 253.74 616.89 679.80 225.72 273.34 578.53 710.76 143.50 478.66 619.05 540.51 378.24 101.54 389.04 262.41 362.63 340.43 588.76 550.64 256.33 711.50 533.48 418.84 692.11 552.55 599.10 211.48 353.15 374.34 707.59 547.01 547.73 634.45 351.44 525.54 545.03 402.63 454.83 256.57 377.67 461.84 437.75 299.39 449.03 114.99 166.61 512.13 191.73 552.81 465.42 613.09 369.69 463.68 285.14 560.70 253.38 784.33 432.81 405.57 478.19
954.82 936.58 592.54 790.19 761.60 862.93 663.19 641.61 612.36 429.95 610.82 545.94 304.00 657.02 286.60 588.84 729.60 222.85 720.73 625.16 854.19 742.90 780.35 981.63 874.16 585.03 1045.95 735.25 904.49 645.10 362.72 936.33 743.37 437.04 928.27 205.70 84.38 58.31 638.77 486.90 702.52 821.96 692.03 613.59 380.58 691.02 771.07 248.23 785.82 752.95 995.94 610.98 485.92 273.88 661.61 789.66 560.27 925.85 354.15 785.07 589.91 620.21 822.70 822.06 867.21 773.84 540.79 749.47 497.39 217.34 447.16 0.00 971.27 837.67 919.22 785.99 739.39 574.16 838.30 678.87 67.33 694.01 124.31 909.57 257.22 625.96 791.63 341.90 742.42 549.22 790.82 618.73 960.66 1064.72 528.66 421.98 749.76 804.81 579.43 815.68 1035.43 731.80 610.63 403.32 513.08 628.56 749.54 413.36 709.89 897.11 279.86 856.11 862.06 644.27 1057.10 820.63 912.62 514.42 477.19 749.44 880.01 950.22 818.95 639.54 654.38 763.65 952.62 773.10 215.67 559.40 506.18 749.96 725.48 189.53 868.36 413.12 438.65 584.95 569.39 557.90 824.37 884.88 704.94 289.47 576.43 566.24 574.97 1154.07 759.57 821.30 612.76
269.06 271.79 616.21 723.25 674.67 255.48 308.51 545.07 676.88 728.22 603.36 428.17 701.88 335.19 866.05 481.47 676.67 784.28 345.85 349.18 682.45 405.06 333.83 338.63 546.27 627.53 126.85 449.76 298.46 621.93 644.41 183.78 613.76 692.68 292.62 903.71 906.96 984.22 599.97 518.98 778.48 312.59 388.08 487.87 778.48 399.47 794.01 769.35 454.33 539.24 115.26 644.83 632.76 884.63 358.03 181.61 626.41 319.82 806.52 323.74 489.18 451.45 208.85 443.31 277.42 672.15 673.39 424.66 473.88 959.35 575.88 971.27 0.00 453.57 226.26 245.56 515.16 449.76 510.41 618.57 938.55 335.22 846.96 106.96 714.05 474.59 269.06 853.09 558.06 564.40 394.89 352.97 239.44 179.43 491.36 707.74 603.06 810.08 461.29 478.62 137.37 664.77 653.43 570.79 712.95 415.03 360.38 680.03 732.83 138.47 743.16 718.41 273.64 600.71 279.94 600.08 513.31 505.60 710.57 224.90 745.07 253.36 512.12 785.47 519.74 539.42 50.22 300.84 943.32 584.95 866.61 487.24 462.76 782.65 242.95 595.23 532.62 691.53 425.41 715.96 315.98 278.85 422.53 899.65 498.76 776.86 541.60 273.39 474.92 227.13 579.78
676.47 272.84 371.07 921.93 286.94 556.45 473.62 277.15 345.55 504.28 799.71 419.73 600.46 529.51 809.30 354.71 875.35 700.93 598.45 497.65 266.26 140.81 610.90 679.91 852.80 372.53 439.11 152.08 681.71 816.60 581.80 601.86 819.08 502.63 660.98 881.69 753.29 876.16 793.91 504.50 932.04 247.17 203.42 330.92 880.13 277.57 960.19 741.49 51.85 117.26 564.81 816.30 448.73 886.82 568.29 430.08 309.94 688.05 852.09 212.03 405.52 323.34 297.33 706.05 542.72 254.27 801.69 623.34 554.34 882.13 517.32 837.67 453.57 0.00 227.31 311.09 142.25 502.02 816.94 817.25 797.94 464.23 754.50 421.16 678.61 594.42 311.77 885.85 156.79 411.35 694.06 457.23 638.21 594.57 338.67 487.57 838.07 1030.57 397.04 91.54 449.63 287.85 364.57 510.02 471.22 434.36 249.87 785.58 963.06 527.95 708.57 956.00 612.49 225.94 695.08 160.84 858.94 352.91 435.33 505.78 982.66 305.66 58.55 953.30 246.88 123.23 455.96 257.05 884.58 375.41 656.05 685.92 661.44 774.85 290.33 580.75 591.70 863.00 516.45 871.66 596.86 701.32 147.63 911.86 592.88 902.35 352.76 681.60 673.60 308.64 755.45
450.53 45.53 507.35 802.62 511.32 380.85 366.58 340.44 472.90 605.64 731.47 419.26 630.57 412.67 777.75 346.85 742.03 712.84 404.75 420.31 493.57 261.46 413.13 492.09 671.21 490.80 241.42 258.74 512.04 698.38 601.44 410.04 741.41 609.42 488.26 839.24 845.16 920.39 658.87 447.67 863.80 112.97 259.99 357.12 871.73 267.22 899.62 747.54 279.16 338.42 337.50 735.99 527.09 850.45 435.89 257.80 421.78 497.36 850.08 134.15 400.14 315.48 164.57 565.95 355.86 481.58 711.00 545.67 510.32 844.07 512.05 919.22 226.26 227.31 0.00 143.55 369.56 433.78 707.07 731.42 867.24 335.76 794.91 219.35 679.53 533.49 145.12 869.57 358.44 471.09 511.22 411.04 419.24 367.26 462.34 594.36 744.62 911.26 385.77 252.36 251.94 509.01 483.90 515.90 604.97 374.17 236.44 729.65 838.44 321.19 655.07 843.35 425.63 397.70 467.77 388.15 686.70 448.68 597.39 368.07 866.72 78.35 285.86 863.33 327.68 350.54 264.86 168.59 891.59 438.18 738.84 594.30 583.77 745.40 63.02 523.92 539.72 782.69 441.56 803.42 420.05 505.11 228.43 875.49 530.16 830.53 435.57 474.25 574.76 146.29 685.60
415.85 180.28 416.79 722.87 493.40 245.36 231.05 329.52 461.98 575.76 618.75 275.71 529.71 298.40 741.74 281.62 672.19 621.29 341.14 284.78 521.48 219.57 311.95 419.29 599.47 480.79 259.96 236.82 370.62 562.85 483.59 362.81 613.38 547.38 379.20 741.76 701.61 794.06 560.49 366.52 753.60 76.96 171.40 261.13 778.25 186.53 787.37 671.47 259.24 314.56 297.23 600.24 477.70 706.90 292.34 149.07 410.86 413.67 750.21 99.06 297.34 250.25 36.71 433.83 269.39 474.88 588.44 424.28 396.85 741.27 385.72 785.99 245.56 311.09 143.55 0.00 354.19 323.58 608.25 606.72 746.26 200.23 697.34 160.54 576.73 423.53 42.32 763.19 322.43 405.86 421.55 275.51 379.96 373.72 359.54 551.74 630.31 831.51 242.22 285.52 249.44 485.15 459.12 418.33 545.09 261.62 133.64 602.57 727.86 267.33 590.87 756.94 339.16 386.78 438.04 419.28 585.47 360.30 541.46 224.52 783.60 187.82 339.87 719.78 288.78 378.45 195.34 87.90 788.79 433.16 642.85 486.86 462.38 681.20 82.37 402.12 445.64 646.94 338.76 687.62 315.60 390.23 218.92 731.94 419.96 707.97 400.48 455.36 467.10 35.31 542.05
717.95 400.62 289.72 986.84 159.51 599.55 509.13 228.23 250.48 430.26 812.83 410.10 579.72 536.60 830.50 344.32 926.25 676.75 603.82 504.74 167.29 212.73 627.21 773.48 915.12 299.83 581.36 157.45 724.81 838.13 579.50 641.06 915.03 467.13 733.39 816.52 762.21 797.70 838.57 485.42 985.61 320.91 273.43 364.01 840.74 342.76 1022.16 720.75 177.38 89.59 630.42 864.60 389.08 866.08 591.99 502.67 257.59 713.45 831.35 305.09 426.30 327.06 390.90 755.37 613.50 156.99 845.10 731.99 565.97 879.83 543.65 739.39 515.16 142.25 369.56 354.19 0.00 555.59 879.26 869.20 806.72 524.54 764.29 499.76 657.87 655.54 328.08 856.54 75.44 390.97 701.15 527.24 696.72 694.59 336.31 476.92 905.64 1095.48 418.46 140.38 587.90 203.89 283.22 497.13 409.81 472.60 329.60 682.68 960.98 606.55 674.64 1030.32 683.27 173.59 792.23 84.92 905.49 332.17 407.66 563.32 1023.35 433.44 118.26 1006.87 192.21 24.26 549.53 306.37 847.25 320.74 594.64 753.49 735.76 754.11 367.34 558.17 587.65 910.50 537.87 925.23 654.40 744.42 187.76 891.12 651.97 961.44 332.00 719.86 735.92 389.50 827.37
498.27 466.30 445.00 500.82 650.59 331.75 154.17 483.01 511.75 473.00 297.69 247.83 344.51 114.57 422.67 333.73 440.23 414.05 189.55 138.24 694.54 443.52 274.83 495.06 442.94 462.40 542.93 443.03 444.00 358.40 274.18 411.75 427.48 448.11 435.11 503.31 509.85 568.30 297.41 168.78 430.02 400.54 369.13 329.50 461.89 314.56 536.85 411.73 450.17 519.68 531.81 321.83 437.61 512.07 130.43 276.96 544.82 406.69 433.85 397.47 251.75 305.74 351.72 352.36 336.03 632.60 336.17 249.03 103.65 525.43 196.29 574.16 449.76 502.02 433.78 323.58 555.59 0.00 407.08 363.26 548.23 123.35 449.85 404.99 316.94 99.95 288.66 479.72 480.15 275.59 253.03 115.32 446.60 533.54 348.63 433.05 418.09 573.02 214.34 489.86 532.41 644.12 489.04 285.42 559.33 188.70 378.16 295.87 475.67 435.46 346.90 529.41 375.14 540.27 553.69 593.80 402.81 334.39 537.97 224.86 556.07 483.00 545.01 451.28 388.03 555.93 420.92 352.45 572.95 379.48 552.92 265.94 241.46 437.23 405.95 243.85 135.51 368.53 94.93 369.64 315.94 447.66 412.72 526.98 96.38 405.85 382.38 628.26 263.74 354.97 289.43
413.34 694.84 801.12 240.24 1004.64 426.41 389.44 784.47 863.36 844.02 395.51 586.33 626.10 376.59 665.61 625.74 248.98 690.58 334.52 408.45 1031.96 715.62 304.97 391.52 35.86 814.01 617.31 741.12 308.22 240.49 615.89 472.32 162.47 830.75 332.00 735.11 773.99 896.01 306.11 511.77 316.69 662.55 647.73 664.41 595.32 573.58 317.36 590.07 770.56 789.67 623.36 331.40 786.12 714.78 337.33 482.57 865.81 317.25 623.36 658.54 599.47 644.24 573.73 174.42 392.50 981.65 398.05 193.60 510.73 776.19 576.15 838.30 510.41 816.94 707.07 608.25 879.26 407.08 0.00 281.34 818.64 420.26 713.99 518.17 668.52 323.90 604.10 647.82 829.20 682.67 259.93 433.90 425.26 538.11 718.85 840.13 157.77 336.69 552.84 798.60 627.83 960.26 869.59 656.44 903.17 495.96 642.51 542.58 288.64 510.07 682.54 208.00 399.53 836.89 553.04 930.60 93.37 713.58 907.51 392.83 234.66 687.53 865.40 411.58 738.86 888.93 460.19 613.52 777.64 768.74 894.63 201.91 177.43 692.63 664.81 558.90 487.09 284.70 438.77 333.13 321.89 327.83 753.58 714.01 373.43 408.17 708.37 611.35 143.34 576.60 307.76
477.61 725.14 700.13 225.24 905.72 429.94 375.67 763.87 787.54 670.08 120.10 510.36 507.79 372.14 424.91 626.19 164.65 507.76 334.83 401.42 1015.68 688.47 335.75 489.85 306.90 739.93 710.11 711.75 420.05 68.03 519.96 522.19 150.20 687.57 396.27 504.74 619.21 694.29 107.12 447.51 194.70 649.32 623.78 622.38 362.48 549.63 299.27 478.70 768.03 823.35 681.47 72.54 728.68 434.50 323.54 512.87 802.00 449.84 390.52 607.85 546.04 595.17 609.02 298.01 462.80 957.26 158.15 193.91 354.49 541.65 502.47 678.87 618.57 817.25 731.42 606.72 869.20 363.26 281.34 0.00 619.26 406.49 559.21 563.18 470.36 294.42 626.62 366.48 816.95 587.84 290.33 420.13 529.28 631.73 603.76 702.63 135.61 333.88 511.79 774.65 720.63 883.52 739.88 560.01 771.18 482.19 580.03 350.15 238.09 540.85 440.40 305.66 437.83 796.88 644.17 928.07 276.52 589.52 739.03 393.67 279.00 748.70 862.87 217.90 714.91 881.90 596.85 562.83 589.17 668.87 762.24 212.44 232.01 493.99 673.73 453.62 345.28 108.41 426.49 136.26 379.77 439.66 726.43 453.53 266.88 210.92 650.07 735.25 228.82 604.22 73.83
950.18 899.08 543.20 756.82 757.78 818.96 637.26 669.91 606.73 406.65 591.16 510.38 236.67 631.09 238.59 555.64 696.23 189.65 701.07 599.23 856.19 720.63 754.42 944.03 854.50 557.38 997.02 685.89 884.83 637.00 313.51 910.40 715.25 369.78 886.72 183.80 44.65 91.87 591.32 419.57 715.69 784.00 624.70 573.86 332.57 657.82 784.24 228.57 746.09 751.26 970.01 591.32 494.83 254.04 641.95 763.73 627.60 877.84 310.92 753.29 527.64 587.01 782.97 782.31 832.56 775.84 521.13 696.25 471.46 203.03 384.89 67.33 938.55 797.94 867.24 746.26 806.72 548.23 818.64 619.26 0.00 652.57 104.65 842.24 231.29 599.26 753.78 306.79 731.42 529.56 756.61 592.80 934.73 1020.75 488.93 354.72 712.45 793.86 528.39 775.95 986.50 713.40 582.05 383.66 503.93 588.83 682.61 393.70 723.06 925.68 255.05 848.53 836.13 682.05 1031.17 801.75 855.65 474.69 468.04 723.51 871.83 909.67 810.94 598.58 614.65 800.98 900.22 716.10 155.51 510.25 445.32 682.63 658.15 169.87 804.22 364.26 412.72 565.29 536.14 571.07 757.46 865.22 711.52 267.57 550.50 526.51 535.24 1124.79 692.24 781.57 545.43
394.00 365.53 456.67 532.55 630.49 208.58 30.82 446.95 532.80 509.00 418.52 209.40 415.90 98.17 546.02 267.77 471.96 507.02 140.91 84.55 671.09 370.90 232.57 420.44 456.12 496.47 425.35 367.09 343.86 362.62 367.15 324.68 470.91 472.13 342.42 626.66 629.70 691.65 360.26 264.64 553.37 277.19 324.71 306.44 585.24 250.56 604.25 531.58 452.59 481.01 450.48 431.82 436.65 606.94 150.47 153.61 521.01 349.25 557.20 292.91 231.95 264.93 228.37 318.17 242.49 612.60 440.87 281.83 196.62 648.78 298.19 694.01 335.22 464.23 335.76 200.23 524.54 123.35 420.26 406.49 652.57 0.00 569.70 281.64 436.79 223.30 242.55 603.07 477.66 348.05 247.38 75.28 353.06 410.37 360.30 487.19 446.78 641.19 211.75 441.62 414.83 625.04 504.38 352.02 559.24 89.91 281.71 402.34 576.48 312.11 466.75 590.62 312.26 501.30 470.83 588.72 462.62 346.06 563.02 137.79 602.88 388.05 522.78 574.63 360.89 528.06 322.40 288.13 679.68 425.41 609.38 315.06 297.33 504.96 282.60 319.60 255.36 478.52 147.72 492.99 228.87 341.31 397.40 631.98 219.73 512.00 406.61 534.72 276.92 235.54 366.77
870.32 812.27 512.72 682.61 734.07 738.62 538.88 601.96 518.73 390.47 486.51 421.63 199.01 532.71 216.00 464.53 661.56 98.54 596.42 500.85 751.54 644.83 656.04 857.32 749.85 517.42 937.09 637.18 780.18 542.29 238.41 812.02 639.74 353.60 803.96 157.97 60.00 182.62 514.46 381.91 631.06 697.65 623.70 503.20 260.64 566.71 699.48 123.92 702.65 710.17 871.63 486.67 447.68 228.21 537.30 665.35 589.55 801.54 276.53 660.76 465.60 495.90 717.94 765.15 742.90 671.19 416.48 650.73 373.08 181.48 322.85 124.31 846.96 754.50 794.91 697.34 764.29 449.85 713.99 559.21 104.65 569.70 0.00 793.38 132.91 501.65 667.32 235.47 699.85 424.91 666.51 494.42 836.35 940.41 450.36 338.54 625.45 736.77 455.12 727.42 926.57 697.22 565.39 279.01 403.25 538.85 625.23 289.05 641.85 821.03 155.55 752.36 737.75 643.48 932.79 752.76 788.31 446.56 413.77 625.13 779.02 845.09 782.81 571.50 583.08 741.74 828.31 656.65 142.68 443.55 477.39 636.04 647.68 65.22 748.36 326.60 314.34 460.64 445.08 489.86 700.06 760.57 606.87 241.74 452.12 499.43 500.60 1029.76 675.08 717.19 528.79
255.31 222.49 546.15 657.96 648.39 188.04 312.46 438.11 570.57 680.35 602.92 387.82 605.57 318.39 780.29 376.86 597.37 706.04 260.09 336.43 662.32 330.11 227.43 348.55 514.69 584.11 166.79 342.80 323.32 514.97 585.98 202.27 583.10 643.48 315.92 838.56 851.04 895.39 514.21 422.67 744.22 215.04 285.28 390.49 764.11 292.51 716.39 755.26 369.31 441.20 222.22 610.71 609.10 867.44 319.21 128.03 519.45 349.48 792.15 225.70 423.29 363.32 123.83 399.09 196.28 588.31 634.95 387.36 420.30 870.63 487.05 909.57 106.96 421.16 219.35 160.54 499.76 404.99 518.17 563.18 842.24 281.64 793.38 0.00 660.47 388.83 171.68 818.33 460.51 463.57 366.56 342.06 243.96 236.36 488.21 658.54 558.92 765.60 354.33 394.81 177.31 611.79 571.51 530.44 632.21 348.74 263.00 681.94 707.25 106.79 690.43 686.83 241.96 495.37 336.87 529.35 538.17 473.97 635.24 220.64 713.49 226.87 464.15 746.65 412.78 519.29 57.98 193.88 877.86 539.14 772.21 447.63 423.15 779.96 156.33 498.92 479.04 657.41 403.28 675.25 271.45 335.13 335.91 861.89 434.99 740.98 516.42 297.28 389.06 129.09 560.10
744.56 712.05 436.31 589.24 641.90 623.04 405.97 476.37 455.19 314.00 406.61 351.86 78.15 399.80 204.54 451.10 528.65 97.32 481.88 367.94 733.22 583.65 523.13 763.85 632.66 405.84 804.18 529.62 696.15 538.39 146.78 679.11 542.42 277.13 689.30 214.13 192.91 299.85 462.75 261.05 501.57 572.06 510.93 424.87 201.52 492.07 566.57 94.79 632.19 602.27 738.72 444.33 360.96 240.12 446.52 532.44 488.26 672.23 173.48 568.76 369.12 432.74 602.49 634.74 652.12 683.68 427.79 517.82 240.17 253.50 226.37 257.22 714.05 678.61 679.53 576.73 657.87 316.94 668.52 470.36 231.29 436.79 132.91 660.47 0.00 368.74 534.41 220.05 582.43 342.68 564.35 361.51 703.44 824.83 339.94 292.19 587.01 603.86 369.87 622.87 793.66 638.01 475.74 227.53 395.45 405.94 523.26 247.41 508.94 694.41 29.96 655.16 604.84 533.06 799.88 693.57 690.17 325.70 359.56 492.22 679.06 727.60 661.95 438.59 465.66 651.99 695.40 523.74 275.59 400.67 346.37 539.69 515.21 120.29 634.64 205.74 181.43 405.38 312.17 356.95 567.15 698.01 559.93 265.16 319.21 431.99 386.25 896.85 549.30 600.72 494.36
421.39 543.74 526.58 420.97 732.17 350.81 212.72 576.31 611.70 520.12 223.44 346.07 362.59 145.37 391.46 409.19 360.38 463.06 128.74 177.23 794.49 527.72 198.64 395.11 359.76 562.35 555.62 542.98 384.05 290.40 373.45 385.08 332.49 509.03 374.30 507.40 556.09 668.25 249.04 268.73 390.96 497.70 456.87 419.46 375.28 414.51 444.07 458.24 542.57 619.63 544.36 221.88 462.22 480.86 149.49 331.47 642.61 345.88 403.32 496.57 351.70 377.82 430.03 266.00 353.05 732.55 279.55 149.08 203.60 543.85 296.24 625.96 474.59 594.42 533.49 423.53 655.54 99.95 323.90 294.42 599.26 223.30 501.65 388.83 368.74 0.00 388.61 432.87 580.10 375.54 208.20 203.06 399.32 506.07 430.21 524.09 323.10 529.61 314.29 582.26 563.21 737.77 588.99 332.54 584.81 234.17 425.97 293.11 436.61 403.74 398.70 429.46 300.72 623.33 549.62 693.75 343.97 415.97 585.09 249.69 456.12 538.95 637.41 383.43 487.98 655.88 446.81 451.55 590.93 479.43 627.79 170.95 146.47 489.03 498.12 235.00 187.31 268.58 194.88 301.79 228.67 386.85 512.67 496.45 49.53 359.00 476.52 612.72 180.56 411.75 242.58
389.87 177.64 374.47 733.59 487.59 287.68 273.37 287.20 419.66 541.93 586.35 302.93 537.26 277.59 711.33 252.02 687.01 612.17 356.19 278.80 495.37 177.25 299.13 461.61 636.61 438.47 300.49 212.71 412.94 605.17 472.30 373.95 624.10 505.06 418.65 748.54 727.32 806.11 586.07 393.74 718.68 119.28 129.08 218.81 735.93 160.25 785.32 629.20 259.92 324.31 339.55 610.49 437.42 749.22 332.98 174.59 368.54 446.70 707.89 108.81 255.02 220.65 79.03 453.65 285.42 458.22 565.88 435.00 368.44 698.95 397.77 791.63 269.06 311.77 145.12 42.32 328.08 288.66 604.10 626.62 753.78 242.55 667.32 171.68 534.41 388.61 0.00 727.30 327.07 371.12 442.14 317.76 395.99 408.04 317.22 509.42 630.62 837.30 269.44 243.20 291.76 468.20 420.81 445.55 511.51 229.30 91.32 584.53 755.23 278.47 564.37 767.66 355.19 344.46 480.36 399.53 613.82 317.98 546.31 235.24 794.32 210.46 345.25 739.94 282.69 352.34 229.66 63.79 746.47 394.08 600.53 494.48 473.10 654.70 124.69 444.44 424.17 657.19 296.44 658.30 326.32 432.55 207.96 774.26 385.04 685.41 367.46 468.96 460.76 66.31 578.09
844.09 882.47 566.82 573.09 841.94 736.34 596.82 660.91 654.23 498.54 402.65 571.91 298.20 578.24 118.90 531.43 512.50 236.54 558.24 587.99 940.38 758.37 631.51 827.98 673.38 625.89 926.34 742.59 786.53 434.51 366.83 813.33 516.68 461.67 762.75 138.26 295.47 327.81 436.33 481.10 517.49 756.60 700.24 570.10 74.61 633.61 591.69 199.18 834.29 808.38 943.50 352.61 581.01 68.02 535.02 752.49 697.41 775.38 46.57 752.39 589.17 562.80 752.90 664.49 712.64 868.22 360.44 560.39 460.22 175.17 446.42 341.90 853.09 885.85 869.57 763.19 856.54 479.72 647.82 366.48 306.79 603.07 235.47 818.33 220.05 432.87 727.30 0.00 781.10 562.73 641.07 552.36 823.21 938.13 559.99 476.73 502.09 616.60 589.92 809.48 915.82 797.56 635.29 444.87 597.01 527.99 635.98 248.25 548.77 836.61 214.50 652.22 733.59 715.99 977.87 894.75 643.00 545.75 567.49 657.20 625.56 849.65 882.00 345.40 683.54 856.88 802.87 707.37 222.69 618.63 502.34 543.31 567.79 251.03 815.26 425.79 401.48 385.23 505.76 396.78 661.54 799.76 738.51 87.05 383.34 321.74 606.30 1004.87 595.30 771.18 417.66
688.18 350.56 214.28 933.15 234.95 567.79 496.26 153.25 232.22 354.82 737.97 334.66 504.28 526.50 755.06 268.88 872.56 601.31 603.30 494.64 214.39 203.51 626.20 732.28 855.43 244.74 546.45 156.93 681.06 828.03 535.08 640.54 848.68 391.69 683.76 741.08 686.77 784.54 777.56 425.47 910.17 245.47 197.99 288.57 765.30 267.32 946.72 645.31 124.95 39.53 617.64 801.98 320.90 790.64 577.54 465.54 182.15 638.01 755.91 255.03 350.86 263.81 349.70 738.39 565.50 152.45 769.66 721.89 490.53 804.39 468.21 742.42 558.06 156.79 358.44 322.43 75.44 480.15 829.20 816.95 731.42 477.66 699.85 460.51 582.43 580.10 327.07 781.10 0.00 315.53 691.05 451.80 636.51 672.29 261.98 402.76 855.72 1021.82 355.21 114.70 554.88 210.12 207.78 425.57 358.91 455.46 271.31 689.40 885.54 567.30 599.66 999.56 635.27 98.15 760.47 113.65 882.96 256.73 352.58 546.95 973.29 383.38 156.66 931.43 116.77 75.78 508.33 289.39 804.61 283.45 543.74 743.39 719.95 678.67 315.11 501.72 512.79 848.68 471.67 849.79 638.03 678.98 165.55 815.68 576.53 886.00 312.22 726.34 685.86 331.42 769.58
614.62 505.05 169.41 753.12 375.00 526.98 345.31 254.02 236.16 219.22 467.74 162.85 295.28 390.16 522.13 124.24 702.02 363.24 448.57 369.24 484.22 301.68 524.43 671.41 693.79 186.81 620.11 294.03 662.26 619.87 251.61 624.27 660.96 242.42 653.05 556.00 484.91 561.02 531.31 204.07 652.01 411.54 293.05 157.97 516.16 226.42 758.84 412.38 359.50 333.69 594.40 541.38 192.80 557.71 389.45 389.96 269.23 649.42 516.16 370.07 116.10 155.61 396.86 617.99 556.00 428.53 537.77 521.97 235.62 596.18 152.68 549.22 564.40 411.35 471.09 405.86 390.97 275.59 682.67 587.84 529.56 348.05 424.91 463.57 342.68 375.54 371.12 562.73 315.53 0.00 518.66 326.40 644.96 687.31 73.04 243.22 644.30 786.71 166.88 360.06 609.59 388.00 225.73 145.90 284.54 259.58 284.94 415.42 697.66 551.93 372.64 805.00 587.50 266.16 764.77 426.67 678.40 58.80 263.10 443.78 831.66 513.52 395.05 710.40 198.76 385.09 521.55 325.05 567.59 103.89 405.73 541.53 517.05 441.07 408.07 225.27 242.56 588.08 286.29 628.76 529.04 680.67 263.72 582.75 358.17 657.30 106.79 718.06 539.33 386.74 551.22
320.56 521.47 636.44 372.96 803.70 263.54 231.90 648.03 697.11 636.84 346.21 425.21 547.13 164.55 599.66 501.88 312.37 640.94 106.47 196.41 819.92 556.69 155.80 293.75 224.07 647.76 489.39 552.84 232.42 270.94 501.07 342.24 284.48 673.21 239.22 706.06 726.51 821.33 269.13 396.38 419.53 458.88 493.06 519.71 583.48 475.31 448.75 589.71 650.47 658.96 455.62 323.51 617.93 689.06 129.21 309.20 719.58 223.28 611.52 502.67 460.68 478.07 441.95 99.33 242.08 798.35 389.87 96.42 330.54 752.05 449.32 790.82 394.89 694.06 511.22 421.55 701.15 253.03 259.93 290.33 756.61 247.38 666.51 366.56 564.35 208.20 442.14 641.07 691.05 518.66 0.00 239.25 331.25 459.60 511.59 686.08 275.09 481.60 391.72 622.48 499.91 759.32 691.92 449.26 737.70 288.96 467.90 501.31 422.25 360.90 594.31 393.02 237.95 635.58 467.82 737.55 215.34 525.83 701.81 221.66 419.68 545.03 724.53 490.42 608.27 676.89 344.67 457.65 772.68 605.18 771.86 122.94 98.46 659.26 503.92 433.57 382.92 363.54 314.86 410.89 138.33 212.81 583.15 672.57 257.73 455.54 561.83 534.31 126.11 430.93 258.46
419.46 422.46 449.09 524.94 654.68 282.25 44.46 460.59 509.76 490.26 403.03 190.21 368.71 74.70 537.99 299.42 464.35 431.74 156.78 42.84 666.19 349.74 198.03 457.78 463.32 460.41 479.82 373.23 370.57 376.23 291.87 338.32 453.13 458.16 364.20 575.64 554.42 651.68 370.05 189.36 545.34 333.47 253.81 309.69 534.00 268.47 617.89 456.30 411.22 484.02 468.23 402.70 450.29 531.66 125.74 228.89 501.82 347.13 531.11 368.19 251.22 268.05 278.89 297.44 316.16 604.25 399.16 270.09 121.34 615.01 253.74 618.73 352.97 457.23 411.04 275.51 527.24 115.32 433.90 420.13 592.80 75.28 494.42 342.06 361.51 203.06 317.76 552.36 451.80 326.40 239.25 0.00 378.34 484.04 324.24 473.22 443.74 633.58 215.30 430.96 490.11 639.60 504.57 332.83 556.02 88.46 262.84 385.79 561.26 387.39 391.47 568.42 279.74 515.86 438.37 565.45 454.49 338.48 520.13 151.43 595.08 410.12 506.06 553.18 408.10 523.32 354.61 330.13 637.10 417.83 570.61 291.59 273.86 481.80 357.88 261.55 180.08 448.60 95.89 484.96 242.05 372.91 372.89 556.70 169.02 478.49 374.48 545.73 290.56 273.01 362.07
51.67 454.97 696.77 617.51 818.91 144.48 349.52 682.07 757.44 797.92 554.19 562.46 706.46 352.84 790.78 548.04 584.32 800.76 284.97 335.50 840.34 553.80 200.68 144.91 389.40 708.09 259.08 539.27 117.04 527.10 670.21 55.66 497.81 773.24 133.01 891.49 896.35 974.98 512.33 567.70 669.53 391.04 510.79 586.71 774.60 476.65 682.10 796.44 586.36 641.99 235.95 500.45 692.18 880.18 316.17 289.97 734.79 160.09 776.64 426.49 575.04 547.46 362.93 283.51 110.57 779.40 586.06 379.46 499.68 911.99 616.89 960.66 239.44 638.21 419.24 379.96 696.72 446.60 425.26 529.28 934.73 353.06 836.35 243.96 703.44 399.32 395.99 823.21 636.51 644.96 331.25 378.34 0.00 162.76 571.92 788.01 512.03 679.28 539.28 626.05 269.60 774.53 752.25 610.34 814.77 426.52 487.31 654.65 636.83 151.14 733.40 550.59 98.60 650.79 190.84 685.97 331.89 586.16 815.93 242.55 574.57 449.43 672.04 669.47 641.93 712.29 230.95 437.84 959.51 665.51 932.94 394.42 388.86 823.66 400.29 578.87 522.01 547.15 453.86 587.83 234.95 136.65 546.35 869.77 448.85 644.35 622.16 297.62 354.77 344.65 466.44
214.43 321.73 761.09 736.41 837.31 201.79 439.58 674.47 806.93 830.01 652.74 607.60 825.24 442.90 897.53 609.63 689.83 915.78 399.09 456.89 823.18 548.10 307.43 297.60 502.25 787.83 203.11 575.31 255.04 641.39 775.91 152.93 630.83 799.63 267.31 1012.88 1000.41 1088.14 646.59 659.03 746.90 433.82 516.24 626.85 881.35 527.19 762.43 897.51 555.86 632.76 92.91 663.21 749.49 986.93 403.11 361.04 755.81 298.09 901.77 450.02 642.32 598.00 337.01 446.27 235.70 781.61 722.77 437.82 605.38 1049.92 679.80 1064.72 179.43 594.57 367.26 373.72 694.59 533.54 538.11 631.73 1020.75 410.37 940.41 236.36 824.83 506.07 408.04 938.13 672.29 687.31 459.60 484.04 162.76 0.00 651.66 814.69 638.92 803.08 590.69 595.55 192.59 792.93 795.45 735.47 841.11 500.28 499.21 784.14 701.25 202.45 854.79 674.39 227.65 714.56 100.51 688.18 469.89 665.90 838.73 332.61 701.05 288.91 650.70 812.02 620.39 716.73 178.38 430.24 1051.03 745.25 989.90 500.40 475.92 913.72 387.23 704.00 643.40 709.91 556.48 730.38 321.27 274.65 545.00 974.35 554.79 782.35 701.90 134.86 469.06 353.41 629.20
623.59 476.52 124.85 741.32 330.44 516.87 368.70 180.98 185.52 238.19 540.15 189.36 261.79 347.04 512.57 152.08 680.73 362.26 439.33 367.08 417.51 243.71 507.30 670.54 735.66 136.17 597.76 241.76 644.04 621.50 287.88 583.65 699.75 201.32 637.19 554.07 444.28 567.15 565.04 228.94 725.05 371.47 245.57 113.41 541.46 222.43 800.82 402.82 330.85 290.81 606.62 594.98 141.40 548.15 402.43 409.17 218.59 652.89 513.42 330.65 128.35 155.05 374.51 610.92 482.96 371.98 594.78 534.22 308.09 569.80 225.72 528.66 491.36 338.67 462.34 359.54 336.31 348.63 718.85 603.76 488.93 360.30 450.36 488.21 339.94 430.21 317.22 559.99 261.98 73.04 511.59 324.24 571.92 651.66 0.00 216.38 681.34 849.96 166.01 315.50 587.24 316.86 180.33 171.35 250.34 304.96 225.90 446.91 739.64 569.80 369.90 833.03 552.73 193.12 748.19 372.71 704.20 14.24 244.01 457.33 851.26 485.68 350.49 728.77 154.20 312.05 533.14 294.33 550.28 93.59 391.59 563.93 546.20 436.18 405.23 298.31 314.97 622.95 285.42 647.13 541.29 645.90 235.07 573.19 380.68 690.15 50.24 764.75 575.51 383.53 529.93
809.67 639.89 188.48 843.62 403.06 676.28 456.37 327.66 252.01 51.93 632.25 351.98 280.69 523.72 452.61 281.68 783.03 292.99 616.01 510.10 526.71 460.09 654.39 856.23 871.56 202.66 777.55 458.14 764.60 723.80 270.79 732.35 802.05 15.06 788.38 446.40 337.60 446.59 678.12 337.72 793.75 539.64 380.34 301.31 481.49 383.86 858.76 354.70 479.74 431.39 818.14 635.37 140.11 495.60 563.48 582.89 285.08 756.92 455.27 508.93 316.25 313.05 554.30 743.72 699.34 460.62 562.22 673.17 421.32 475.50 273.34 421.98 707.74 487.57 594.36 551.74 476.92 433.05 840.13 702.63 354.72 487.19 338.54 658.54 292.19 524.09 509.42 476.73 402.76 243.22 686.08 473.22 788.01 814.69 216.38 0.00 799.25 896.05 382.39 440.05 767.03 358.68 232.61 239.51 149.21 494.60 442.28 487.74 801.13 727.90 262.23 898.10 747.00 337.65 896.89 516.41 835.86 202.14 113.32 545.46 924.76 620.92 538.39 730.78 342.10 471.68 712.93 471.74 427.98 156.18 205.33 695.04 670.56 352.43 565.51 363.05 439.95 682.07 440.10 649.14 636.54 784.21 429.26 517.87 529.43 647.61 216.70 949.55 696.79 546.48 632.23
488.66 736.62 763.61 155.95 998.91 450.76 415.96 805.60 836.38 793.11 254.77 548.82 589.92 369.04 560.52 638.10 101.49 621.76 355.65 400.90 1024.19 742.84 331.49 442.28 193.63 817.51 704.40 767.64 399.13 111.22 561.18 515.48 44.59 784.19 422.91 640.35 685.45 763.61 148.34 538.29 197.64 689.07 697.55 648.37 498.09 635.47 213.17 556.67 837.73 816.19 677.21 198.58 739.30 570.11 363.85 533.69 860.43 356.08 526.13 699.73 568.76 606.73 593.60 259.93 457.09 974.60 240.28 214.73 468.05 677.26 578.53 749.76 603.06 838.07 744.62 630.31 905.64 418.09 157.77 135.61 712.45 446.78 625.45 558.92 587.01 323.10 630.62 502.09 855.72 644.30 275.09 443.74 512.03 638.92 681.34 799.25 0.00 261.09 515.33 826.97 714.92 976.71 832.08 644.14 860.58 493.76 648.53 391.54 151.99 536.59 576.01 214.83 413.43 860.10 600.62 942.04 192.91 682.71 862.06 414.49 188.17 769.44 896.62 311.70 753.77 881.38 616.90 694.41 724.78 722.32 839.92 152.15 176.63 560.23 691.33 558.10 462.99 223.69 513.02 230.06 348.41 387.98 780.80 589.08 349.37 266.50 731.58 707.98 169.86 603.12 167.02
667.36 917.42 943.31 108.64 1151.92 643.26 622.64 995.98 941.21 884.82 385.72 722.28 682.01 582.30 579.39 817.80 169.23 701.18 506.51 590.74 1214.25 934.67 538.17 598.05 300.83 948.62 911.08 952.88 562.24 292.26 726.51 719.06 240.11 880.99 586.02 687.98 749.21 833.43 329.97 646.38 143.00 893.12 887.29 828.07 571.25 842.15 102.87 650.14 1023.19 1022.87 855.78 312.08 915.61 629.25 563.20 705.15 1012.03 566.06 570.03 902.71 763.99 786.43 806.93 466.61 663.77 1154.30 397.69 407.23 602.89 720.77 710.76 804.81 810.08 1030.57 911.26 831.51 1095.48 573.02 336.69 333.88 793.86 641.19 736.77 765.60 603.86 529.61 837.30 616.60 1021.82 786.71 481.60 633.58 679.28 803.08 849.96 896.05 261.09 0.00 695.03 1040.23 921.60 1129.72 988.28 746.94 985.92 720.76 826.23 485.01 136.28 743.27 633.82 128.69 640.25 1008.00 795.81 1131.88 347.39 835.72 953.77 606.99 142.14 940.98 1089.12 271.20 905.05 1071.22 759.86 857.69 736.93 890.60 934.35 401.65 383.14 709.76 898.01 652.49 544.15 295.34 626.99 246.91 555.09 581.85 962.14 604.21 513.08 321.95 893.50 865.37 376.54 809.80 320.03
578.19 406.39 248.28 586.39 496.45 420.33 217.66 300.95 321.05 333.54 426.55 33.49 291.72 238.87 522.12 122.77 613.42 379.07 321.63 258.14 534.64 256.23 399.13 504.53 588.70 302.18 486.07 297.42 515.87 482.89 241.37 483.62 559.92 367.33 497.89 540.19 515.12 551.84 489.74 124.30 644.36 319.18 236.36 133.04 546.37 162.21 653.60 459.98 362.89 336.98 539.45 500.19 261.26 588.56 262.51 312.07 345.10 508.19 543.35 294.26 68.96 91.40 262.82 491.05 441.74 459.27 428.77 418.48 157.30 598.93 143.50 579.43 461.29 397.04 385.77 242.22 418.46 214.34 552.84 511.79 528.39 211.75 455.12 354.33 369.87 314.29 269.44 589.92 355.21 166.88 391.72 215.30 539.28 590.69 166.01 382.39 515.33 695.03 0.00 372.42 475.55 479.02 316.75 176.11 383.85 138.95 220.73 390.50 648.68 461.12 399.83 691.29 466.87 358.21 648.16 453.98 571.84 180.25 402.49 296.73 685.25 430.04 455.59 605.40 238.44 430.99 412.31 260.84 597.80 259.60 446.39 455.76 438.03 441.83 324.59 200.55 211.62 546.89 119.41 583.98 387.81 535.48 267.11 563.52 310.72 548.30 216.25 651.61 409.50 262.07 503.77
633.07 273.82 289.70 931.59 258.96 530.88 444.93 185.61 318.07 433.30 753.96 379.19 548.81 457.93 783.03 278.05 871.00 644.04 539.62 473.80 291.92 129.34 542.33 667.75 813.13 341.33 469.71 93.25 656.14 787.91 542.63 576.86 836.36 455.11 648.82 801.93 731.30 784.96 774.37 462.18 919.88 235.01 177.15 239.38 809.83 225.02 981.01 689.84 39.69 86.06 565.79 801.81 372.78 835.17 513.32 417.79 266.95 675.89 796.35 199.87 360.03 281.02 285.17 691.17 528.62 249.76 775.42 653.32 507.27 824.80 478.66 815.68 478.62 91.54 252.36 285.52 140.38 489.86 798.60 774.65 775.95 441.62 727.42 394.81 622.87 582.26 243.20 809.48 114.70 360.06 622.48 430.96 626.05 595.55 315.50 440.05 826.97 1040.23 372.42 0.00 478.25 256.65 322.48 470.10 400.24 396.58 250.47 733.93 930.07 501.60 632.02 951.65 598.39 194.74 696.06 156.33 829.47 301.26 364.35 478.44 978.31 306.64 102.05 915.61 161.30 164.64 443.80 242.17 810.38 283.87 585.07 674.82 657.09 721.87 238.48 515.53 557.32 788.73 446.82 837.16 569.52 675.75 123.56 860.21 580.72 890.19 273.00 649.71 690.63 296.48 743.98
321.27 206.41 666.23 825.31 678.44 291.74 445.65 568.27 700.73 788.84 713.68 509.04 749.83 417.84 941.58 485.35 774.68 850.30 437.40 449.70 706.67 439.22 400.38 368.79 636.78 667.55 10.52 449.66 374.68 692.28 716.92 213.94 722.46 751.97 350.90 982.82 951.05 1027.39 620.38 566.93 883.72 309.41 391.96 510.57 895.90 422.67 872.39 886.77 440.54 517.44 159.06 717.79 727.14 956.34 463.43 261.22 649.61 373.34 869.25 327.62 544.51 475.39 212.73 551.80 257.83 693.57 741.12 526.72 553.49 990.71 619.05 1035.43 137.37 449.63 251.94 249.44 587.90 532.41 627.83 720.63 986.50 414.83 926.57 177.31 793.66 563.21 291.76 915.82 554.88 609.59 499.91 490.11 269.60 192.59 587.24 767.03 714.92 921.60 475.55 478.25 0.00 688.03 687.59 651.66 721.11 437.64 374.93 817.17 841.86 207.75 823.62 804.31 327.60 604.59 293.10 600.14 589.53 601.48 737.16 362.27 830.97 200.87 469.64 886.81 518.60 563.64 167.64 324.04 1025.97 658.87 892.29 589.30 564.82 913.95 239.77 643.18 612.23 764.49 531.41 805.17 382.21 377.71 419.35 962.38 612.30 847.15 624.91 248.83 545.06 231.01 666.27
826.20 481.62 230.74 1021.08 44.38 697.87 597.13 181.00 216.84 342.95 831.58 476.09 578.65 663.90 811.29 387.58 960.49 651.67 749.51 650.86 168.03 342.15 767.33 881.20 975.16 232.17 677.51 303.14 825.04 901.26 542.87 764.65 967.61 373.74 818.19 788.74 696.28 688.22 855.58 529.53 988.74 455.16 385.79 348.91 839.53 387.05 1080.58 713.38 286.08 170.59 703.69 874.74 337.36 854.28 716.78 633.73 171.53 833.89 811.49 386.09 415.08 390.55 500.98 858.65 663.96 101.94 866.70 771.87 547.66 802.04 540.51 731.80 664.77 287.85 509.01 485.15 203.89 644.12 960.26 883.52 713.40 625.04 697.22 611.79 638.01 737.77 468.20 797.56 210.12 388.00 759.32 639.60 774.53 792.93 316.86 358.68 976.71 1129.72 479.02 256.65 688.03 0.00 162.27 470.96 305.78 573.59 455.98 724.45 1019.40 718.58 620.91 1104.53 733.73 123.74 893.44 189.65 974.66 331.10 340.01 689.94 1104.35 514.44 261.72 1043.33 275.98 221.29 614.55 425.23 786.66 284.11 490.61 834.45 809.97 695.96 483.77 591.13 606.40 921.44 549.19 962.12 781.02 826.90 304.19 853.75 688.24 961.75 338.16 861.82 816.92 482.70 809.69
794.59 481.18 68.47 903.14 206.65 627.77 517.92 143.46 54.57 180.68 669.31 333.44 426.63 527.37 666.94 295.88 845.57 520.47 619.66 547.41 330.30 248.37 672.55 821.28 885.76 69.90 677.07 265.90 763.05 786.34 380.60 730.53 843.46 217.55 759.31 626.47 570.21 608.62 724.60 367.26 877.74 416.40 307.52 278.25 677.26 335.32 952.82 557.19 332.73 247.31 720.94 742.95 175.09 696.71 579.26 496.22 62.12 728.80 649.22 370.60 272.43 264.51 485.49 782.03 657.87 264.21 704.43 678.30 385.39 677.99 378.24 610.63 653.43 364.57 483.90 459.12 283.22 489.04 869.59 739.88 582.05 504.38 565.39 571.51 475.74 588.99 420.81 635.29 207.78 225.73 691.92 504.57 752.25 795.45 180.33 232.61 832.08 988.28 316.75 322.48 687.59 162.27 0.00 308.69 184.07 455.70 329.49 562.18 891.64 658.19 464.72 997.87 727.64 146.12 780.57 321.06 869.04 179.08 177.74 563.62 1002.00 506.54 364.44 881.06 175.06 283.56 618.09 384.60 630.47 121.84 368.90 737.63 713.15 533.69 448.43 428.86 444.13 760.29 436.16 808.72 654.70 769.77 268.85 691.48 545.52 799.48 182.36 859.66 726.25 467.21 694.77
662.01 533.26 256.02 673.57 485.04 533.68 368.91 352.33 341.19 187.58 447.53 142.62 149.38 397.75 376.96 257.90 664.63 217.34 461.28 375.67 583.45 415.06 530.86 680.64 673.33 291.84 662.18 413.11 608.11 584.36 116.53 600.46 630.70 224.45 631.89 410.10 339.01 437.28 495.80 165.92 644.65 450.82 376.90 268.01 370.26 328.80 696.54 317.64 471.07 431.16 682.64 498.30 168.67 462.97 415.85 488.18 370.81 629.47 398.30 381.75 203.63 257.99 438.93 548.59 499.77 543.33 499.02 481.62 249.52 455.09 101.54 403.32 570.79 510.02 515.90 418.33 497.13 285.42 656.44 560.01 383.66 352.02 279.01 530.44 227.53 332.54 445.55 444.87 425.57 145.90 449.26 332.83 610.34 735.47 171.35 239.51 644.14 746.94 176.11 470.10 651.66 470.96 308.69 0.00 288.44 295.00 387.32 358.03 635.36 542.02 232.63 762.00 559.86 364.47 765.00 473.75 664.60 168.84 252.55 472.84 782.80 566.08 505.09 578.48 308.80 483.40 588.42 425.41 421.69 186.85 322.60 503.49 479.01 295.17 495.99 148.58 222.35 451.60 274.54 500.03 557.56 588.50 406.42 442.22 360.13 575.07 221.59 792.00 513.10 438.18 535.28
841.22 639.92 162.12 937.81 350.16 670.29 528.42 277.93 159.33 101.10 723.63 366.84 317.30 595.77 577.39 313.23 880.10 417.77 688.06 582.15 464.47 417.45 732.01 888.38 903.11 114.17 731.63 409.67 805.57 820.40 336.77 803.30 815.99 135.34 804.13 561.22 460.21 571.39 745.87 408.52 842.92 547.18 420.76 341.20 596.97 415.41 916.88 474.98 439.93 353.96 813.79 751.30 122.59 615.88 639.31 614.44 196.59 822.28 568.93 485.15 366.59 344.60 508.38 815.77 704.20 388.07 666.94 733.89 506.71 584.73 389.04 513.08 712.95 471.22 604.97 545.09 409.81 559.33 903.17 771.18 503.93 559.24 403.25 632.21 395.45 584.81 511.51 597.01 358.91 284.54 737.70 556.02 814.77 841.11 250.34 149.21 860.58 985.92 383.85 400.24 721.11 305.78 184.07 288.44 0.00 492.25 420.19 578.27 888.57 739.00 382.51 993.55 773.97 260.76 932.54 456.95 889.03 252.48 35.89 623.08 989.64 647.40 492.26 834.04 339.81 433.51 662.73 470.47 544.74 195.10 184.83 755.76 731.28 468.47 541.95 400.64 504.74 740.04 464.40 752.40 701.90 824.36 439.06 611.90 618.92 767.89 207.55 929.49 765.37 521.12 737.04
467.64 354.48 387.23 613.06 617.97 298.49 106.52 417.85 460.00 452.43 400.91 152.38 380.93 163.16 610.48 212.92 552.81 476.17 230.82 131.30 639.89 293.55 286.49 499.05 490.40 441.13 436.18 315.15 419.23 449.50 336.30 387.10 481.59 479.54 412.38 594.64 544.18 667.05 435.96 198.03 618.72 329.14 265.12 249.94 578.43 260.49 627.96 500.73 411.56 447.70 530.29 456.05 369.66 596.01 214.20 243.52 463.99 411.67 552.96 283.96 188.01 208.30 224.91 385.90 332.40 560.66 470.94 358.55 165.77 657.95 262.41 628.56 415.03 434.36 374.17 261.62 472.60 188.70 495.96 482.19 588.83 89.91 538.85 348.74 405.94 234.17 229.30 527.99 455.46 259.58 288.96 88.46 426.52 500.28 304.96 494.60 493.76 720.76 138.95 396.58 437.64 573.59 455.70 295.00 492.25 0.00 191.80 383.67 625.57 402.02 420.22 651.59 327.92 449.85 526.83 552.91 432.89 302.12 474.45 200.21 655.24 321.66 492.91 617.60 355.34 496.86 383.54 263.19 675.47 363.47 565.44 380.05 362.32 510.55 311.15 265.65 224.51 502.75 93.77 535.96 291.29 421.09 331.51 615.04 257.48 566.95 352.48 624.63 352.62 243.19 422.87
481.19 268.96 325.37 717.59 489.11 367.41 298.32 306.33 384.06 464.09 567.01 254.22 445.94 337.49 679.20 160.70 657.00 526.69 397.81 305.68 485.70 147.47 390.45 544.78 641.85 362.07 385.45 172.15 490.18 597.77 415.29 463.17 657.92 427.22 501.25 715.21 670.18 746.63 552.09 310.49 740.33 157.88 73.32 170.97 695.75 68.93 777.09 614.20 230.73 304.70 430.87 571.25 367.30 704.00 338.69 246.00 382.96 496.64 682.55 116.41 230.18 129.33 162.20 520.39 376.74 417.66 637.04 494.66 357.57 735.75 362.63 749.54 360.38 249.87 236.44 133.64 329.60 378.16 642.51 580.03 682.61 281.71 625.23 263.00 523.26 425.97 91.32 635.98 271.31 284.94 467.90 262.84 487.31 499.21 225.90 442.28 648.53 826.23 220.73 250.47 374.93 455.98 329.49 387.32 420.19 191.80 0.00 575.47 715.91 369.79 531.04 766.46 446.51 332.24 571.68 384.96 624.69 240.14 455.33 326.56 793.12 287.74 308.42 740.27 232.50 347.09 320.83 71.39 765.99 319.49 552.69 496.38 471.90 604.52 182.29 386.74 341.83 617.95 285.57 658.63 417.64 509.79 185.43 723.03 431.86 703.28 276.14 560.28 505.99 157.63 506.20
706.32 738.15 543.28 479.85 748.87 609.31 371.52 627.89 616.75 509.55 258.55 404.61 318.34 410.44 274.88 472.17 427.12 265.64 421.85 425.25 849.97 646.73 476.71 688.22 556.77 578.85 806.88 673.44 668.86 331.76 241.50 663.15 402.54 472.68 656.13 307.12 349.05 471.07 243.20 313.80 342.01 660.53 611.96 509.06 240.82 538.23 448.84 165.13 738.91 706.13 781.96 304.58 455.68 310.46 426.30 555.95 624.30 625.81 248.66 667.63 436.98 467.42 608.58 525.87 631.90 779.45 270.37 442.19 295.41 370.43 340.43 413.36 680.03 785.58 729.65 602.57 682.68 295.87 542.58 350.15 393.70 402.34 289.05 681.94 247.41 293.11 584.53 248.25 689.40 415.42 501.31 385.79 654.65 784.14 446.91 487.74 391.54 485.01 390.50 733.93 817.17 724.45 562.18 358.03 578.27 383.67 575.47 0.00 387.66 641.34 225.51 579.42 578.79 640.03 807.79 767.60 499.26 432.67 578.50 478.49 576.19 705.33 768.92 365.05 572.63 706.94 681.67 636.86 362.84 500.26 449.34 421.73 413.87 267.69 684.94 237.55 254.04 257.88 289.90 283.41 520.73 653.92 643.13 335.30 342.64 326.04 493.22 877.00 435.80 600.07 276.32
609.32 792.91 823.17 136.15 1041.60 575.75 555.17 863.75 875.97 787.47 288.37 615.19 587.09 490.91 484.47 736.91 109.88 606.26 447.16 522.77 1099.93 824.35 483.48 594.27 324.50 826.62 832.00 879.63 519.79 222.77 629.16 628.58 143.98 786.07 540.92 600.41 701.85 738.51 255.60 524.38 45.65 756.84 789.23 747.18 476.33 776.35 61.18 552.79 925.84 905.38 794.16 214.73 804.03 546.87 435.52 580.64 909.04 476.74 502.20 825.91 666.89 705.54 713.39 411.92 601.10 1037.99 300.34 339.72 572.29 623.42 588.76 709.89 732.83 963.06 838.44 727.86 960.98 475.67 288.64 238.09 723.06 576.48 641.85 707.25 508.94 436.61 755.23 548.77 885.54 697.66 422.25 561.26 636.83 701.25 739.64 801.13 151.99 136.28 648.68 930.07 841.86 1019.40 891.64 635.36 888.57 625.57 715.91 387.66 0.00 688.58 538.90 231.77 565.42 910.65 721.28 999.19 344.90 725.40 856.42 532.84 205.11 816.47 1020.68 217.74 768.77 961.32 736.02 787.30 600.65 801.55 837.00 304.14 323.79 612.41 810.23 600.63 513.55 183.76 570.60 151.99 500.40 505.14 862.31 532.87 402.76 227.03 785.95 828.64 321.85 731.67 209.71
202.81 329.28 627.85 672.74 755.18 138.12 342.93 544.90 669.04 729.60 580.59 494.61 691.40 352.33 795.20 446.22 614.73 759.36 296.76 360.29 769.11 436.90 205.10 250.33 498.84 675.38 218.27 449.59 226.48 539.06 624.77 95.48 569.89 712.84 211.56 908.54 881.03 955.42 550.88 529.46 721.89 321.83 392.07 473.45 779.02 397.06 694.06 789.20 476.10 547.99 140.62 591.01 685.82 884.60 339.44 161.97 626.24 242.69 805.79 332.49 528.20 431.81 230.62 362.36 139.72 695.10 650.62 374.15 454.24 947.59 550.64 897.11 138.47 527.95 321.19 267.33 606.55 435.46 510.07 540.85 925.68 312.11 821.03 106.79 694.41 403.74 278.47 836.61 567.30 551.93 360.90 387.39 151.14 202.45 569.80 727.90 536.59 743.27 461.12 501.60 207.75 718.58 658.19 542.02 739.00 402.02 369.79 641.34 688.58 0.00 724.37 660.03 135.17 602.16 260.02 636.14 441.33 555.56 741.47 268.94 686.69 333.66 570.94 734.56 519.57 626.08 110.09 300.67 960.46 634.91 855.17 422.81 400.82 814.70 263.12 594.45 512.98 637.71 437.22 652.92 249.12 228.34 442.70 898.92 453.27 723.04 585.78 298.75 366.73 235.88 525.96
774.52 700.60 437.76 619.20 665.29 653.00 435.93 446.41 454.25 284.04 388.13 375.25 108.11 429.76 202.22 433.35 558.61 67.36 511.84 397.90 728.06 602.83 553.09 793.81 662.62 435.80 834.14 559.58 726.11 508.43 176.74 709.07 572.38 247.17 719.26 184.17 212.36 287.30 432.79 291.01 531.53 542.10 536.26 454.83 219.26 462.11 596.53 92.47 662.15 612.35 768.68 461.77 372.22 233.37 476.48 562.40 518.22 702.19 203.44 556.66 399.08 419.97 627.58 664.70 682.08 653.72 437.33 547.78 270.13 247.48 256.33 279.86 743.16 708.57 655.07 590.87 674.64 346.90 682.54 440.40 255.05 466.75 155.55 690.43 29.96 398.70 564.37 214.50 599.66 372.64 594.31 391.47 733.40 854.79 369.90 262.23 576.01 633.82 399.83 632.02 823.62 620.91 464.72 232.63 382.51 420.22 531.04 225.51 538.90 724.37 0.00 685.12 634.80 503.67 829.84 706.38 716.92 355.66 352.99 522.18 709.02 717.19 691.91 468.55 495.62 670.51 692.94 553.70 265.05 404.13 321.84 569.65 545.17 90.33 611.74 235.70 211.39 435.34 342.13 386.91 584.54 727.97 589.89 258.41 349.17 461.95 410.26 926.81 579.26 626.18 475.88
538.67 846.43 929.40 159.57 1134.99 568.69 559.80 923.53 1011.71 949.58 390.85 715.52 685.52 493.72 630.69 762.02 152.30 717.36 473.58 525.58 1149.09 886.68 475.33 504.67 172.14 969.20 793.79 911.48 433.55 285.85 733.02 590.37 177.56 913.16 457.33 746.63 812.36 884.73 340.95 682.13 271.69 810.84 822.23 800.69 596.08 760.25 170.59 680.74 943.58 960.03 762.40 348.16 891.68 693.09 488.63 634.16 1004.87 453.53 605.65 783.40 738.53 782.69 744.09 382.42 557.92 1095.45 335.88 332.66 633.06 776.95 711.50 856.11 718.41 956.00 843.35 756.94 1030.32 529.41 208.00 305.66 848.53 590.62 752.36 686.83 655.16 429.46 767.66 652.22 999.56 805.00 393.02 568.42 550.59 674.39 833.03 898.10 214.83 128.69 691.29 951.65 804.31 1104.53 997.87 762.00 993.55 651.59 766.46 579.42 231.77 660.03 685.12 0.00 524.86 980.79 698.07 1066.72 218.70 818.79 966.93 532.42 26.66 869.99 1014.55 316.55 914.13 1006.06 668.19 821.33 819.32 885.87 1001.53 319.04 294.56 687.14 835.17 651.83 595.96 346.64 571.88 298.21 492.25 453.16 903.26 679.09 478.99 346.78 875.46 736.68 313.70 746.96 303.10
139.72 432.38 662.98 564.94 778.11 103.68 290.63 642.39 738.25 747.44 470.29 469.95 619.89 262.34 692.18 507.24 511.71 702.16 193.74 236.90 834.38 527.77 102.08 178.04 363.67 688.90 317.08 550.63 91.31 436.04 571.61 154.26 454.33 731.94 84.46 792.89 797.75 904.69 419.14 469.10 611.07 389.80 469.99 545.91 676.00 435.85 591.04 697.84 560.64 615.96 275.79 510.37 651.38 781.58 252.86 238.95 693.99 107.52 704.04 400.46 515.93 506.66 322.13 227.19 69.77 787.72 539.88 313.97 401.08 844.57 533.48 862.06 273.64 612.49 425.63 339.16 683.27 375.14 399.53 437.83 836.13 312.26 737.75 241.96 604.84 300.72 355.19 733.59 635.27 587.50 237.95 279.74 98.60 227.65 552.73 747.00 413.43 640.25 466.87 598.39 327.60 733.73 727.64 559.86 773.97 327.92 446.51 578.79 565.42 135.17 634.80 524.86 0.00 609.99 265.16 720.68 306.16 566.97 796.74 211.01 551.52 411.02 655.48 631.54 601.13 694.05 245.26 402.62 870.47 646.32 850.35 322.28 297.80 725.13 362.61 527.14 423.41 546.24 355.26 549.90 138.82 93.17 520.32 797.17 350.25 618.62 602.97 312.00 263.71 303.85 457.80
702.46 419.71 149.17 934.44 168.12 574.13 473.39 57.26 134.07 323.38 711.12 352.35 454.91 540.16 705.69 263.84 873.85 555.38 632.45 527.12 224.39 241.50 643.59 757.46 851.42 146.59 615.11 186.22 701.30 814.62 436.97 640.91 843.87 337.40 694.45 687.84 637.40 688.12 758.16 422.06 865.00 343.62 262.05 225.17 722.93 263.31 971.83 595.94 221.14 108.68 668.62 784.76 222.79 737.04 593.04 513.05 84.00 710.15 706.54 319.21 291.34 266.81 391.86 734.91 540.22 225.68 776.73 648.13 482.89 751.15 418.84 644.27 600.71 225.94 397.70 386.78 173.59 540.27 836.89 796.88 682.05 501.30 643.48 495.37 533.06 623.33 344.46 715.99 98.15 266.16 635.58 515.86 650.79 714.56 193.12 337.65 860.10 1008.00 358.21 194.74 604.59 123.74 146.12 364.47 260.76 449.85 332.24 640.03 910.65 602.16 503.67 980.79 609.99 0.00 805.45 211.80 850.92 207.36 254.43 566.20 1007.45 425.65 234.51 921.89 152.24 172.75 550.49 301.49 743.40 218.34 445.59 710.71 686.23 594.00 396.11 491.43 485.94 816.07 459.74 840.25 657.28 703.16 216.53 762.08 573.80 883.27 214.42 791.81 698.39 400.26 723.05
166.56 422.24 816.48 687.17 931.44 262.25 458.40 767.56 835.14 928.63 690.59 628.58 807.08 461.72 941.08 651.81 702.11 870.11 440.52 475.71 923.69 648.61 350.98 197.76 525.93 830.03 303.62 648.15 271.68 642.51 730.24 164.54 637.47 896.53 247.90 1014.01 992.79 1089.87 564.59 627.73 766.93 515.00 609.44 662.08 924.90 558.90 782.46 894.67 656.37 733.27 193.42 662.00 809.95 970.03 462.86 398.85 842.69 244.54 931.30 537.10 683.92 620.44 437.52 423.00 265.23 882.12 685.33 498.28 559.71 1053.38 692.11 1057.10 279.94 695.08 467.77 438.04 792.23 553.69 553.04 644.17 1031.17 470.83 932.79 336.87 799.88 549.62 480.36 977.87 760.47 764.77 467.82 438.37 190.84 100.51 748.19 896.89 600.62 795.81 648.16 696.06 293.10 893.44 780.57 765.00 932.54 526.83 571.68 807.79 721.28 260.02 829.84 698.07 265.16 805.45 0.00 788.69 486.53 761.25 937.87 351.43 724.73 389.42 751.21 831.02 720.90 816.49 278.89 525.94 1069.85 837.34 972.72 507.35 504.27 920.17 487.74 699.92 618.45 708.70 534.26 749.38 359.28 276.31 645.51 995.07 599.15 791.36 791.37 107.36 470.18 453.92 610.48
735.31 394.17 327.93 1023.24 189.40 664.64 581.81 263.81 331.18 468.47 849.23 448.31 615.42 573.00 850.71 382.53 962.65 691.09 655.08 541.14 154.37 278.05 696.33 785.16 961.62 342.78 589.62 242.37 789.90 874.53 590.28 630.31 951.43 505.34 769.17 854.73 757.10 850.64 891.21 521.82 1023.82 355.36 311.64 395.71 844.01 380.97 1060.37 756.45 160.04 153.18 658.42 901.00 425.48 901.78 628.39 538.27 260.36 751.66 867.05 320.22 441.89 377.46 405.52 814.24 650.91 93.43 882.75 768.39 604.18 904.08 552.55 820.63 600.08 160.84 388.15 419.28 84.92 593.80 930.60 928.07 801.75 588.72 752.76 529.35 693.57 693.75 399.53 894.75 113.65 426.67 737.55 565.45 685.97 688.18 372.71 516.41 942.04 1131.88 453.98 156.33 600.14 189.65 321.06 473.75 456.95 552.91 384.96 767.60 999.19 636.14 706.38 1066.72 720.68 211.80 788.69 0.00 952.79 367.87 445.61 634.77 1086.94 399.27 154.66 1045.08 230.42 60.66 564.15 365.24 888.39 376.16 641.78 789.89 772.16 768.92 394.81 565.93 624.05 925.35 573.39 963.44 725.85 792.63 255.82 915.97 690.18 999.65 352.28 804.78 799.51 416.83 872.48
319.97 685.45 800.57 303.07 934.13 350.13 431.80 826.47 855.38 852.18 396.62 585.27 646.17 379.79 701.43 645.81 280.63 746.64 321.81 411.65 1035.16 726.44 314.69 298.15 57.51 840.37 590.97 748.04 214.85 304.13 635.96 387.55 211.24 850.92 238.63 781.26 848.31 947.52 341.25 571.59 390.55 654.98 698.01 682.83 639.00 645.62 389.29 664.39 825.82 858.47 555.88 344.02 802.55 711.02 344.55 501.72 896.88 257.90 667.04 665.64 620.90 641.19 587.31 194.59 375.93 993.55 429.63 235.60 506.46 818.17 599.10 912.62 513.31 858.94 686.70 585.47 905.49 402.81 93.37 276.52 855.65 462.62 788.31 538.17 690.17 343.97 613.82 643.00 882.96 678.40 215.34 454.49 331.89 469.89 704.20 835.86 192.91 347.39 571.84 829.47 589.53 974.66 869.04 664.60 889.03 432.89 624.69 499.26 344.90 441.33 716.92 218.70 306.16 850.92 486.53 952.79 0.00 689.96 853.14 413.00 245.36 653.14 909.16 478.35 788.23 892.13 544.95 643.59 862.10 769.31 914.70 221.98 197.50 753.14 657.24 578.97 508.74 378.07 497.74 396.71 353.67 234.46 764.40 730.05 393.50 459.41 750.51 517.98 212.14 569.03 350.35
637.83 479.53 110.61 727.08 316.20 531.11 376.88 195.22 198.02 223.95 525.91 175.12 247.55 361.28 498.33 137.84 666.49 348.02 453.57 381.32 426.16 257.95 521.54 684.78 727.72 150.41 612.00 256.00 658.28 607.26 283.10 597.89 685.51 187.08 634.75 539.83 430.04 552.91 550.80 214.70 710.81 357.23 251.46 99.17 527.22 208.19 786.58 388.58 334.99 276.57 620.86 580.74 154.60 533.91 416.67 400.89 226.64 647.43 499.18 325.11 114.11 140.81 388.75 625.16 497.20 382.29 595.94 519.98 293.85 555.56 211.48 514.42 505.60 352.91 448.68 360.30 332.17 334.39 713.58 589.52 474.69 346.06 446.56 473.97 325.70 415.97 317.98 545.75 256.73 58.80 525.83 338.48 586.16 665.90 14.24 202.14 682.71 835.72 180.25 301.26 601.48 331.10 179.08 168.84 252.48 302.12 240.14 432.67 725.40 555.56 355.66 818.79 566.97 207.36 761.25 367.87 689.96 0.00 238.56 446.60 842.09 471.44 336.25 737.34 139.96 326.29 531.95 280.09 561.33 79.35 377.35 578.17 558.08 421.94 390.99 284.07 300.73 620.44 287.55 655.70 527.05 660.14 239.21 558.95 366.44 675.91 60.55 771.25 570.24 378.86 515.69
823.24 629.10 171.84 905.66 372.53 705.48 547.13 271.60 157.19 68.95 687.74 369.00 281.41 591.05 541.50 295.25 873.79 381.88 676.91 562.97 432.53 411.12 718.16 907.01 885.13 107.84 740.33 373.78 833.93 784.51 358.25 801.68 851.88 105.82 839.32 537.16 424.32 535.50 713.72 410.08 810.77 511.29 456.65 332.03 561.08 397.43 880.99 445.46 404.04 318.07 825.83 716.66 157.78 586.36 645.87 596.46 190.26 826.25 533.04 514.05 352.67 326.62 524.43 801.14 726.97 352.18 631.05 734.17 498.72 566.26 353.15 477.19 710.57 435.33 597.39 541.46 407.66 537.97 907.51 739.03 468.04 563.02 413.77 635.24 359.56 585.09 546.31 567.49 352.58 263.10 701.81 520.13 815.93 838.73 244.01 113.32 862.06 953.77 402.49 364.35 737.16 340.01 177.74 252.55 35.89 474.45 455.33 578.50 856.42 741.47 352.99 966.93 796.74 254.43 937.87 445.61 853.14 238.56 0.00 614.79 993.59 635.40 466.40 798.15 303.92 417.48 660.35 496.06 518.74 159.21 220.72 754.56 730.08 443.19 535.62 401.13 472.59 704.15 500.29 716.51 705.87 841.05 403.17 579.75 585.95 738.37 219.73 932.52 764.17 506.15 722.99
281.46 331.47 545.01 498.35 717.92 130.82 106.97 522.44 598.05 585.15 422.55 330.22 520.14 110.29 641.15 319.54 451.77 583.17 120.95 124.28 730.61 366.81 108.93 310.77 416.29 548.70 351.75 422.09 219.14 410.34 443.30 186.89 388.86 548.28 242.92 680.27 685.13 782.68 375.07 340.79 558.93 301.48 364.32 358.21 624.97 302.89 577.35 585.22 478.26 538.37 340.16 432.02 500.49 683.09 163.80 119.20 603.78 211.46 653.01 323.58 332.49 350.91 251.95 218.41 164.73 667.60 480.60 199.76 272.77 743.58 374.34 749.44 224.90 505.78 368.07 224.52 563.32 224.86 392.83 393.67 723.51 137.79 625.13 220.64 492.22 249.69 235.24 657.20 546.95 443.78 221.66 151.43 242.55 332.61 457.33 545.46 414.49 606.99 296.73 478.44 362.27 689.94 563.62 472.84 623.08 200.21 326.56 478.49 532.84 268.94 522.18 532.42 211.01 566.20 351.43 634.77 413.00 446.60 614.79 0.00 559.08 355.03 564.33 572.70 468.17 587.58 203.18 299.03 718.42 515.22 709.92 262.34 237.86 581.11 306.89 395.75 310.79 476.11 223.87 491.06 91.08 238.75 404.77 708.13 273.86 566.10 459.10 452.20 250.02 259.83 397.86
560.09 873.09 933.53 132.91 1148.73 593.69 586.46 950.19 1006.30 949.08 399.10 711.61 712.18 520.38 651.32 788.68 175.60 744.02 461.97 552.24 1149.14 913.34 501.99 531.33 198.80 987.43 820.45 908.34 460.21 281.94 749.35 617.03 173.65 939.82 483.99 727.44 836.81 908.63 336.51 694.28 250.76 837.50 831.14 818.29 607.03 786.91 143.93 707.40 970.24 933.76 789.06 351.54 918.34 693.58 513.88 660.82 1023.22 480.19 578.99 810.06 754.21 776.65 770.75 409.08 584.58 1068.79 362.54 359.32 633.49 787.90 707.59 880.01 745.07 982.66 866.72 783.60 1023.35 556.07 234.66 279.00 871.83 602.88 779.02 713.49 679.06 456.12 794.32 625.56 973.29 831.66 419.68 595.08 574.57 701.05 851.26 924.76 188.17 142.14 685.25 978.31 830.97 1104.35 1002.00 782.80 989.64 655.24 793.12 576.19 205.11 686.69 709.02 26.66 551.52 1007.45 724.73 1086.94 245.36 842.09 993.59 559.08 0.00 896.65 1041.21 343.21 923.69 1032.72 694.85 813.15 805.76 895.27 1025.43 335.19 321.22 713.80 861.83 678.49 592.05 352.75 598.54 322.11 491.21 479.82 929.92 672.12 505.65 373.44 901.50 763.34 340.36 773.62 326.40
448.55 32.82 527.87 836.43 558.82 368.14 396.43 418.79 551.25 642.73 722.36 463.53 673.00 426.19 839.87 389.28 775.84 755.27 438.56 444.23 553.64 265.63 454.30 508.09 697.85 533.23 190.35 312.06 438.29 726.35 643.87 393.77 743.89 605.86 414.51 901.36 865.84 955.35 692.68 490.10 858.33 175.09 307.75 399.55 900.09 314.98 877.65 809.66 266.95 343.85 259.15 760.83 605.44 894.72 480.16 235.83 500.13 419.01 874.62 190.55 465.48 357.91 176.39 543.98 395.43 492.70 776.26 554.79 487.43 909.41 547.01 950.22 253.36 305.66 78.35 187.82 433.44 483.00 687.53 748.70 909.67 388.05 845.09 226.87 727.60 538.95 210.46 849.65 383.38 513.52 545.03 410.12 449.43 288.91 485.68 620.92 769.44 940.98 430.04 306.64 200.87 514.44 506.54 566.08 647.40 321.66 287.74 705.33 816.47 333.66 717.19 869.99 411.02 425.65 389.42 399.27 653.14 471.44 635.40 355.03 896.65 0.00 361.79 907.60 331.48 428.89 227.34 216.35 956.93 516.53 781.27 617.29 592.81 807.52 105.45 566.35 546.17 807.53 415.43 840.74 446.11 457.90 285.03 919.76 579.14 877.61 491.97 417.28 605.05 193.66 711.58
659.80 328.97 370.94 980.48 270.91 582.82 516.61 287.66 332.93 511.48 842.70 462.72 583.80 559.98 834.58 380.10 933.90 684.27 641.67 548.90 237.03 199.36 644.38 722.90 901.26 381.10 480.16 195.30 710.49 859.59 619.35 644.85 877.63 523.33 703.97 876.08 766.29 877.26 836.90 547.49 975.03 281.00 252.25 341.43 863.47 324.55 1018.74 724.83 94.84 175.81 620.94 859.29 457.30 870.16 615.37 467.00 306.52 731.04 835.43 255.02 450.36 366.33 340.32 749.04 585.71 230.21 850.52 681.89 593.63 891.81 547.73 818.95 512.12 58.55 285.86 339.87 118.26 545.01 865.40 862.87 810.94 522.78 782.81 464.15 661.95 637.41 345.25 882.00 156.66 395.05 724.53 506.06 672.04 650.70 350.49 538.39 896.62 1089.12 455.59 102.05 469.64 261.72 364.44 505.09 492.26 492.91 308.42 768.92 1020.68 570.94 691.91 1014.55 655.48 234.51 751.21 154.66 909.16 336.25 466.40 564.33 1041.21 361.79 0.00 996.29 263.35 94.00 498.95 300.04 897.58 385.92 606.70 744.47 719.99 758.19 340.53 617.58 636.98 890.78 548.87 914.65 655.41 730.10 190.62 895.20 635.87 945.34 375.05 718.47 732.15 351.63 814.00
695.51 885.46 828.39 270.59 1053.54 628.76 547.09 896.10 856.12 752.59 242.66 638.89 516.74 482.83 359.99 689.52 250.44 519.61 486.56 514.69 1102.60 848.71 529.46 689.07 425.60 844.43 880.35 894.31 620.09 280.35 554.55 715.90 267.11 715.72 614.17 447.28 574.64 636.83 266.43 570.07 172.09 792.04 774.90 728.19 326.87 765.84 246.29 451.44 901.45 942.38 784.90 169.02 747.15 413.42 427.44 673.19 926.85 634.10 298.83 793.25 674.36 696.80 750.29 468.90 633.04 1064.67 176.63 411.81 526.58 507.74 634.45 639.54 785.47 953.30 863.33 719.78 1006.87 451.28 411.58 217.90 598.58 574.63 571.50 746.65 438.59 383.43 739.94 345.40 931.43 710.40 490.42 553.18 669.47 812.02 728.77 730.78 311.70 271.20 605.40 915.61 886.81 1043.33 881.06 578.48 834.04 617.60 740.27 365.05 217.74 734.56 468.55 316.55 631.54 921.89 831.02 1045.08 478.35 737.34 798.15 572.70 343.21 907.60 996.29 0.00 829.52 995.17 754.53 748.23 546.54 759.22 758.91 379.48 391.96 510.77 802.15 576.18 467.84 126.88 546.21 81.64 534.69 616.17 864.00 391.96 402.25 92.78 779.01 925.27 426.05 732.01 234.07
668.09 364.30 196.39 824.83 320.36 497.45 391.71 94.98 227.44 355.74 621.20 217.89 387.51 444.03 638.29 152.11 806.45 484.54 501.80 412.17 331.16 133.95 567.36 704.01 741.99 238.54 521.83 119.59 632.73 721.33 423.06 603.20 755.85 327.04 631.29 677.30 570.00 670.78 674.14 308.70 814.42 266.62 206.55 179.22 648.53 165.28 829.95 528.54 195.03 136.61 551.34 694.84 294.56 673.87 499.42 416.88 176.32 640.69 639.14 219.11 234.09 147.04 321.43 667.90 531.36 269.22 652.89 629.60 373.76 695.52 351.44 654.38 519.74 246.88 327.68 288.78 192.21 388.03 738.86 714.91 614.65 360.89 583.08 412.78 465.66 487.98 282.69 683.54 116.77 198.76 608.27 408.10 641.93 620.39 154.20 342.10 753.77 905.05 238.44 161.30 518.60 275.98 175.06 308.80 339.81 355.34 232.50 572.63 768.77 519.57 495.62 914.13 601.13 152.24 720.90 230.42 788.23 139.96 303.92 468.17 923.69 331.48 263.35 829.52 0.00 192.55 470.76 218.90 701.29 219.31 517.31 653.97 629.49 561.90 278.83 384.95 396.02 741.54 354.90 757.67 559.25 651.52 99.25 698.91 475.33 772.42 200.51 690.06 630.89 303.15 655.65
742.21 396.07 290.06 962.58 176.91 623.81 533.39 224.10 274.74 430.60 788.57 410.44 573.84 512.34 824.62 341.72 901.99 674.31 594.42 480.48 143.03 236.99 635.67 791.06 900.96 319.34 562.34 181.71 749.07 813.87 574.26 665.32 890.77 467.47 742.54 816.86 756.33 816.59 848.54 461.16 985.95 321.25 273.77 364.35 841.08 333.14 1022.50 714.87 172.26 99.41 654.68 840.34 364.82 860.20 567.73 526.93 256.75 713.79 825.47 305.69 423.70 339.59 408.48 771.40 624.28 136.21 836.80 707.73 559.35 859.54 525.54 763.65 539.42 123.23 350.54 378.45 24.26 555.93 888.93 881.90 800.98 528.06 741.74 519.29 651.99 655.88 352.34 856.88 75.78 385.09 676.89 523.32 712.29 716.73 312.05 471.68 881.38 1071.22 430.99 164.64 563.64 221.29 283.56 483.40 433.51 496.86 347.09 706.94 961.32 626.08 670.51 1006.06 694.05 172.75 816.49 60.66 892.13 326.29 417.48 587.58 1032.72 428.89 94.00 995.17 192.55 0.00 567.11 330.63 842.01 315.50 618.34 729.23 711.50 748.23 390.89 537.41 563.39 886.24 547.45 925.57 678.66 754.76 212.02 885.24 652.31 956.33 307.74 744.12 745.59 390.20 811.82
282.62 260.16 604.13 700.43 658.93 205.26 310.15 496.09 628.55 695.50 625.73 445.80 663.55 313.47 822.24 431.25 654.95 760.30 318.07 327.46 699.44 369.72 285.41 332.24 496.05 642.09 157.12 400.78 330.10 572.95 643.96 177.39 592.04 697.87 306.32 877.11 888.31 953.37 572.19 480.65 762.11 262.86 337.86 448.47 728.26 350.49 774.37 719.13 404.11 489.02 165.48 635.20 628.25 847.72 366.98 186.01 577.43 336.79 756.30 273.52 481.27 421.30 158.63 421.59 227.20 646.29 683.78 402.94 475.95 909.13 545.03 952.62 50.22 455.96 264.86 195.34 549.53 420.92 460.19 596.85 900.22 322.40 828.31 57.98 695.40 446.81 229.66 802.87 508.33 521.55 344.67 354.61 230.95 178.38 533.14 712.93 616.90 759.86 412.31 443.80 167.64 614.55 618.09 588.42 662.73 383.54 320.83 681.67 736.02 110.09 692.94 668.19 245.26 550.49 278.89 564.15 544.95 531.95 660.35 203.18 694.85 227.34 498.95 754.53 470.76 567.11 0.00 251.86 916.84 597.12 830.19 465.52 441.04 783.27 214.31 556.90 513.97 679.29 427.05 672.89 294.26 329.07 393.38 849.43 477.04 747.93 570.81 275.92 447.04 176.91 601.04
449.19 199.44 365.48 749.05 465.88 333.26 285.67 244.23 376.69 504.04 605.95 282.79 517.33 341.38 697.28 200.81 688.46 566.80 351.18 339.40 473.66 136.23 362.92 493.89 649.38 407.99 332.95 148.92 458.52 628.65 455.40 391.78 687.84 467.17 451.11 737.87 688.72 786.74 605.30 350.60 757.53 86.49 91.40 211.08 725.26 98.63 848.48 618.53 205.20 260.52 385.13 635.37 425.31 763.86 380.24 236.97 325.57 452.98 697.22 45.02 259.88 169.44 111.31 449.00 332.85 394.43 629.67 492.10 418.14 762.74 402.63 773.10 300.84 257.05 168.59 87.90 306.37 352.45 613.52 562.83 716.10 288.13 656.65 193.88 523.74 451.55 63.79 707.37 289.39 325.05 457.65 330.13 437.84 430.24 294.33 471.74 694.41 857.69 260.84 242.17 324.04 425.23 384.60 425.41 470.47 263.19 71.39 636.86 787.30 300.67 553.70 821.33 402.62 301.49 525.94 365.24 643.59 280.09 496.06 299.03 813.15 216.35 300.04 748.23 218.90 330.63 251.86 0.00 799.33 345.26 592.80 553.87 530.20 644.03 110.90 420.86 413.22 671.24 354.45 699.09 390.11 478.13 164.88 783.83 448.83 749.20 340.37 491.16 524.55 98.77 577.59
951.90 924.11 595.68 736.80 831.04 849.24 648.86 711.46 653.08 449.79 482.57 564.31 339.77 608.13 199.47 605.29 698.63 239.30 698.83 639.99 894.22 787.51 768.39 964.14 813.50 603.73 1036.49 779.86 894.34 647.26 375.18 905.31 717.42 412.92 870.56 99.26 131.29 171.58 606.04 515.15 625.29 807.15 764.61 627.94 227.70 707.47 661.83 197.71 832.73 836.81 1014.31 556.21 537.97 154.67 663.52 798.49 686.15 915.97 247.71 803.44 577.49 636.66 825.50 822.18 869.12 813.87 513.53 740.01 515.76 47.52 454.83 215.67 943.32 884.58 891.59 788.79 847.25 572.95 777.64 589.17 155.51 679.68 142.68 877.86 275.59 590.93 746.47 222.69 804.61 567.59 772.68 637.10 959.51 1051.03 550.28 427.98 724.78 736.93 597.80 810.38 1025.97 786.66 630.47 421.69 544.74 675.47 765.99 362.84 600.65 960.46 265.05 819.32 870.47 743.40 1069.85 888.39 862.10 561.33 518.74 718.42 805.76 956.93 897.58 546.54 701.29 842.01 916.84 799.33 0.00 526.51 553.09 685.36 709.84 174.72 871.16 438.90 457.02 538.32 587.76 531.95 809.50 903.25 749.55 170.54 594.80 472.54 587.03 1161.35 743.93 812.78 570.32
717.18 483.71 69.17 806.43 328.49 610.46 408.25 206.94 156.58 181.53 571.63 254.47 322.52 440.63 558.25 200.08 745.84 398.63 532.92 460.67 442.73 337.30 600.89 764.13 789.96 133.17 669.39 335.35 713.44 686.61 258.76 677.24 721.62 171.24 689.66 528.96 493.78 501.09 630.15 279.09 755.90 431.01 303.12 175.27 557.11 287.54 856.26 467.93 323.56 322.98 698.29 645.27 88.91 599.20 493.34 480.24 183.96 726.68 574.15 361.94 193.46 216.90 446.14 695.60 576.55 382.26 582.59 599.33 339.51 574.03 256.57 559.40 584.95 375.41 438.18 433.16 320.74 379.48 768.74 668.87 510.25 425.41 443.55 539.14 400.67 479.43 394.08 618.63 283.45 103.89 605.18 417.83 665.51 745.25 93.59 156.18 722.32 890.60 259.60 283.87 658.87 284.11 121.84 186.85 195.10 363.47 319.49 500.26 801.55 634.91 404.13 885.87 646.32 218.34 837.34 376.16 769.31 79.35 159.21 515.22 895.27 516.53 385.92 759.22 219.31 315.50 597.12 345.26 526.51 0.00 361.51 615.79 591.31 459.22 456.16 329.16 346.45 638.45 366.90 686.88 606.30 733.05 318.56 612.73 445.79 677.64 60.52 821.95 625.40 444.03 595.04
933.29 773.79 346.95 929.19 534.99 817.96 615.07 451.83 344.16 227.14 707.89 438.44 355.58 631.44 398.92 420.39 875.02 380.57 723.73 613.45 634.39 572.83 768.64 945.53 930.49 299.00 901.02 593.69 875.73 780.14 278.74 896.81 851.88 190.27 851.95 504.56 421.80 537.19 691.58 442.05 791.35 679.29 534.01 381.72 492.90 494.17 898.18 414.31 624.76 538.79 928.45 731.15 307.42 434.32 683.35 693.20 381.42 910.75 471.25 629.12 377.43 423.36 679.56 822.66 822.37 572.90 689.50 755.30 449.27 541.47 377.67 506.18 866.61 656.05 738.84 642.85 594.64 552.92 894.63 762.24 445.32 609.38 477.39 772.21 346.37 627.79 600.53 502.34 543.74 405.73 771.86 570.61 932.94 989.90 391.59 205.33 839.92 934.35 446.39 585.07 892.29 490.61 368.90 322.60 184.83 565.44 552.69 449.34 837.00 855.17 321.84 1001.53 850.35 445.59 972.72 641.78 914.70 377.35 220.72 709.92 1025.43 781.27 606.70 758.91 517.31 618.34 830.19 592.80 553.09 361.51 0.00 735.67 717.20 412.17 675.82 417.19 508.01 707.22 521.27 703.32 790.37 895.34 599.07 459.36 637.25 740.51 392.38 1069.49 751.29 666.84 725.66
386.44 584.47 682.16 293.01 878.83 298.61 284.24 653.45 749.05 691.07 233.16 474.29 473.15 216.89 562.41 550.43 238.39 573.62 203.50 248.75 872.26 629.15 220.20 309.59 237.77 699.70 578.78 635.92 296.30 180.74 456.93 405.63 161.54 679.98 320.08 645.19 696.04 774.50 191.30 397.46 345.55 541.05 545.40 572.05 524.78 524.18 356.14 512.12 702.81 704.90 562.33 210.46 633.17 578.62 218.55 381.54 734.79 293.92 496.74 551.71 468.45 530.41 473.38 148.64 331.47 860.34 285.05 62.58 369.59 637.84 461.84 749.96 487.24 685.92 594.30 486.86 753.49 265.94 201.91 212.44 682.63 315.06 636.04 447.63 539.69 170.95 494.48 543.31 743.39 541.53 122.94 291.59 394.42 500.40 563.93 695.04 152.15 401.65 455.76 674.82 589.30 834.45 737.63 503.49 755.76 380.05 496.38 421.73 304.14 422.81 569.65 319.04 322.28 710.71 507.35 789.89 221.98 578.17 754.56 262.34 335.19 617.29 744.47 379.48 653.97 729.23 465.52 553.87 685.36 615.79 735.67 0.00 24.48 614.68 543.31 405.95 358.26 257.16 360.87 297.84 224.74 276.69 647.12 589.87 220.48 342.49 595.07 603.95 58.57 455.10 145.41
361.96 559.99 660.48 274.50 854.35 274.13 266.51 628.97 731.72 666.59 247.75 449.81 448.67 199.16 537.93 525.95 213.91 549.14 179.02 231.02 854.53 604.67 195.72 306.51 213.29 682.37 554.30 618.19 271.82 172.48 438.46 382.16 186.02 655.50 295.60 653.87 694.14 750.02 170.67 402.52 321.07 539.34 527.67 554.32 521.75 499.70 350.29 536.60 685.08 680.42 537.85 225.05 608.69 593.21 194.07 357.06 710.31 269.44 521.22 559.95 443.97 512.68 464.48 124.16 306.99 847.71 291.41 38.10 345.11 662.32 437.75 725.48 462.76 661.44 583.77 462.38 735.76 241.46 177.43 232.01 658.15 297.33 647.68 423.15 515.21 146.47 473.10 567.79 719.95 517.05 98.46 273.86 388.86 475.92 546.20 670.56 176.63 383.14 438.03 657.09 564.82 809.97 713.15 479.01 731.28 362.32 471.90 413.87 323.79 400.82 545.17 294.56 297.80 686.23 504.27 772.16 197.50 558.08 730.08 237.86 321.22 592.81 719.99 391.96 629.49 711.50 441.04 530.20 709.84 591.31 717.20 24.48 0.00 607.98 542.02 381.47 333.78 265.08 336.39 312.43 212.64 252.21 622.64 611.41 196.00 357.08 580.90 579.47 34.09 465.54 160.00
855.01 790.93 521.26 660.71 738.14 711.93 474.14 536.74 544.58 374.24 421.29 437.79 174.39 520.09 150.78 443.82 600.12 77.83 552.79 488.23 816.76 670.76 643.42 867.25 728.49 526.13 909.50 649.91 797.45 477.07 200.46 768.00 585.36 337.37 773.67 128.81 125.22 203.38 449.24 357.29 566.76 632.43 607.17 482.49 244.76 546.00 673.59 102.56 730.41 698.51 859.01 421.45 414.64 186.53 566.81 652.73 595.55 769.93 223.11 636.40 442.14 475.19 704.65 732.14 745.84 736.41 351.26 638.11 360.46 192.12 299.39 189.53 782.65 774.85 745.40 681.20 754.11 437.23 692.63 493.99 169.87 504.96 65.22 779.96 120.29 489.03 654.70 251.03 678.67 441.07 659.26 481.80 823.66 913.72 436.18 352.43 560.23 709.76 441.83 721.87 913.95 695.96 533.69 295.17 468.47 510.55 604.52 267.69 612.41 814.70 90.33 687.14 725.13 594.00 920.17 768.92 753.14 421.94 443.19 581.11 713.80 807.52 758.19 510.77 561.90 748.23 783.27 644.03 174.72 459.22 412.17 614.68 607.98 0.00 702.07 294.66 301.72 468.15 432.46 477.24 672.19 810.90 634.63 211.57 439.50 470.79 482.49 1017.14 642.07 702.69 486.50
411.64 97.97 448.50 805.24 497.44 326.75 313.42 353.61 477.13 587.32 701.12 358.08 567.55 354.59 734.42 283.83 753.70 649.82 416.42 367.15 529.50 213.23 383.76 487.38 671.02 427.78 250.29 209.89 452.99 645.22 538.42 358.60 695.75 550.45 440.55 795.91 783.98 857.37 642.86 384.65 835.97 69.64 202.30 294.10 828.40 209.53 848.80 704.21 264.96 313.18 358.21 682.61 512.71 789.27 374.71 231.44 434.95 462.77 806.75 114.24 365.81 252.46 104.80 516.20 292.84 455.40 670.81 506.65 466.99 823.64 449.03 868.36 242.95 290.33 63.02 82.37 367.34 405.95 664.81 673.73 804.22 282.60 748.36 156.33 634.64 498.12 124.69 815.26 315.11 408.07 503.92 357.88 400.29 387.23 405.23 565.51 691.33 898.01 324.59 238.48 239.77 483.77 448.43 495.99 541.95 311.15 182.29 684.94 810.23 263.12 611.74 835.17 362.61 396.11 487.74 394.81 657.24 390.99 535.62 306.89 861.83 105.45 340.53 802.15 278.83 390.89 214.31 110.90 871.16 456.16 675.82 543.31 542.02 702.07 0.00 460.90 486.88 729.31 404.92 769.99 397.97 455.78 179.58 814.31 485.43 790.34 415.66 411.23 521.47 88.21 624.42
630.54 558.87 375.04 627.22 583.81 502.21 288.78 442.34 427.84 336.16 333.52 167.06 127.59 308.08 387.68 288.78 572.07 228.06 363.74 294.85 680.44 456.38 433.64 579.77 559.57 378.49 653.70 463.43 566.08 505.21 138.45 568.99 526.74 373.03 589.86 339.64 373.06 448.00 447.15 76.25 576.24 479.08 396.38 276.15 385.24 322.23 549.69 295.85 528.90 468.58 617.98 407.16 278.05 388.01 319.43 432.48 460.91 529.92 379.22 465.88 219.10 257.41 438.83 501.00 468.30 644.77 403.55 384.08 140.21 402.95 114.99 413.12 595.23 580.75 523.92 402.12 558.17 243.85 558.90 453.62 364.26 319.60 326.60 498.92 205.74 235.00 444.44 425.79 501.72 225.27 433.57 261.55 578.87 704.00 298.31 363.05 558.10 652.49 200.55 515.53 643.18 591.13 428.86 148.58 400.64 265.65 386.74 237.55 600.63 594.45 235.70 651.83 527.14 491.43 699.92 565.93 578.97 284.07 401.13 395.75 678.49 566.35 617.58 576.18 384.95 537.41 556.90 420.86 438.90 329.16 417.19 405.95 381.47 294.66 460.90 0.00 108.34 453.86 171.88 494.54 454.90 570.89 433.12 362.97 246.12 523.08 332.06 760.53 415.56 437.43 421.27
563.13 563.28 401.02 518.88 616.93 441.61 224.54 468.32 453.82 403.64 225.18 178.13 232.23 218.37 385.97 306.53 463.73 278.75 300.45 186.51 706.42 467.85 341.70 582.42 451.23 404.47 622.75 489.41 514.72 396.87 229.27 497.68 418.40 424.89 507.87 395.56 374.34 481.28 338.81 102.23 467.90 456.09 415.15 325.03 353.92 354.20 563.87 276.22 546.01 523.21 557.29 298.82 386.39 421.55 265.09 351.01 486.89 490.80 354.91 458.24 239.14 283.39 421.06 453.31 470.69 665.24 295.21 336.39 58.74 434.93 166.61 438.65 532.62 591.70 539.72 445.64 587.65 135.51 487.09 345.28 412.72 255.36 314.34 479.04 181.43 187.31 424.17 401.48 512.79 242.56 382.92 180.08 522.01 643.40 314.97 439.95 462.99 544.15 211.62 557.32 612.23 606.40 444.13 222.35 504.74 224.51 341.83 254.04 513.55 512.98 211.39 595.96 423.41 485.94 618.45 624.05 508.74 300.73 472.59 310.79 592.05 546.17 636.98 467.84 396.02 563.39 513.97 413.22 457.02 346.45 508.01 358.26 333.78 301.72 486.88 108.34 0.00 345.52 130.74 386.20 385.72 516.58 459.10 446.59 137.78 414.74 349.35 715.42 367.87 439.34 312.93
586.02 790.51 707.62 221.97 936.64 538.35 457.93 785.08 792.79 639.18 120.34 523.65 428.22 390.58 380.91 640.41 213.03 502.70 397.32 405.76 1029.27 726.39 444.16 566.75 320.56 743.44 775.01 781.67 513.46 153.47 499.11 602.81 179.10 676.05 504.68 450.41 520.64 634.95 144.11 447.75 193.05 669.72 691.27 627.72 310.62 658.04 244.94 423.01 811.15 854.62 778.33 46.70 620.27 430.08 354.60 580.94 822.41 534.52 338.66 716.26 584.66 609.04 646.94 389.24 560.20 994.93 130.51 302.32 404.26 491.49 512.13 584.95 691.53 863.00 782.69 646.94 910.50 368.53 284.70 108.41 565.29 478.52 460.64 657.41 405.38 268.58 657.19 385.23 848.68 588.08 363.54 448.60 547.15 709.91 622.95 682.07 223.69 295.34 546.89 788.73 764.49 921.44 760.29 451.60 740.04 502.75 617.95 257.88 183.76 637.71 435.34 346.64 546.24 816.07 708.70 925.35 378.07 620.44 704.15 476.11 352.75 807.53 890.78 126.88 741.54 886.24 679.29 671.24 538.32 638.45 707.22 257.16 265.08 468.15 729.31 453.86 345.52 0.00 427.48 48.43 451.81 493.85 764.35 429.31 304.80 123.47 673.19 816.06 299.17 656.96 111.75
475.74 448.25 367.69 554.60 593.57 354.69 116.90 402.48 439.83 452.95 307.14 152.90 299.47 151.97 516.71 242.18 494.01 382.40 244.26 138.73 654.05 375.64 293.92 495.45 474.63 421.59 529.95 408.92 427.35 453.33 242.53 410.76 513.25 450.01 439.72 511.52 505.08 600.07 392.34 127.35 524.95 405.91 349.70 234.57 484.66 281.62 534.19 406.96 482.30 456.39 540.67 380.78 380.67 552.29 185.65 275.25 464.51 403.40 459.19 377.73 173.44 210.81 318.68 393.33 388.60 578.68 377.17 341.62 72.00 565.67 191.73 569.39 425.41 516.45 441.56 338.76 537.87 94.93 438.77 426.49 536.14 147.72 445.08 403.28 312.17 194.88 296.44 505.76 471.67 286.29 314.86 95.89 453.86 556.48 285.42 440.10 513.02 626.99 119.41 446.82 531.41 549.19 436.16 274.54 464.40 93.77 285.57 289.90 570.60 437.22 342.13 571.88 355.26 459.74 534.26 573.39 497.74 287.55 500.29 223.87 598.54 415.43 548.87 546.21 354.90 547.45 427.05 354.45 587.76 366.90 521.27 360.87 336.39 432.46 404.92 171.88 130.74 427.48 0.00 464.57 283.02 444.37 386.52 534.85 191.31 496.70 335.66 641.62 358.67 336.96 384.36
613.87 822.53 756.05 232.29 971.90 566.20 498.61 828.11 774.48 670.95 161.02 564.33 435.10 431.26 332.48 681.09 171.70 454.27 425.02 447.24 1064.18 767.07 447.82 607.43 368.99 762.79 811.69 812.67 543.46 201.90 503.73 634.26 185.47 634.08 532.53 448.42 549.86 586.52 184.79 488.43 144.62 710.40 731.95 676.15 324.34 684.20 213.17 442.23 819.81 889.32 793.54 87.38 668.70 394.88 395.28 610.26 845.21 552.46 350.21 744.11 621.39 649.72 687.62 387.26 577.43 1002.24 172.99 330.17 444.94 502.03 552.81 557.90 715.96 871.66 803.42 687.62 925.23 369.64 333.13 136.26 571.07 492.99 489.86 675.25 356.95 301.79 658.30 396.78 849.79 628.76 410.89 484.96 587.83 730.38 647.13 649.14 230.06 246.91 583.98 837.16 805.17 962.12 808.72 500.03 752.40 535.96 658.63 283.41 151.99 652.92 386.91 298.21 549.90 840.25 749.38 963.44 396.71 655.70 716.51 491.06 322.11 840.74 914.65 81.64 757.67 925.57 672.89 699.09 531.95 686.88 703.32 297.84 312.43 477.24 769.99 494.54 386.20 48.43 464.57 0.00 453.05 534.53 782.36 380.88 326.69 75.04 697.37 856.74 346.52 697.64 152.43
192.72 422.55 636.09 487.14 809.00 158.29 198.05 613.52 689.13 676.23 331.47 421.30 520.79 201.37 620.13 410.62 426.55 621.26 135.68 199.21 821.69 457.89 44.02 222.67 325.21 639.78 371.69 513.17 155.38 350.88 525.55 225.07 359.77 639.36 179.16 736.07 760.06 841.20 328.96 410.37 533.71 392.56 455.40 449.29 603.95 393.97 505.88 653.41 569.34 612.56 354.24 405.11 591.57 709.53 194.80 210.28 694.86 120.38 631.99 414.66 412.94 441.99 343.03 172.57 124.38 758.68 401.50 214.08 355.02 772.52 465.42 824.37 315.98 596.86 420.05 315.60 654.40 315.94 321.89 379.77 757.46 228.87 700.06 271.45 567.15 228.67 326.32 661.54 638.03 529.04 138.33 242.05 234.95 321.27 541.29 636.54 348.41 555.09 387.81 569.52 382.21 781.02 654.70 557.56 701.90 291.29 417.64 520.73 500.40 249.12 584.54 492.25 138.82 657.28 359.28 725.85 353.67 527.05 705.87 91.08 491.21 446.11 655.41 534.69 559.25 678.66 294.26 390.11 809.50 606.30 790.37 224.74 212.64 672.19 397.97 454.90 385.72 451.81 283.02 453.05 0.00 161.35 495.85 725.12 278.20 521.03 550.18 416.61 178.55 350.91 370.15
109.75 489.39 701.30 492.63 871.28 154.07 345.72 706.71 788.71 776.08 480.96 550.71 682.14 349.04 778.31 558.29 447.67 756.47 258.11 330.07 893.37 605.56 190.07 96.75 291.97 765.30 367.19 627.05 19.61 390.45 616.60 163.77 361.16 787.03 43.39 886.06 820.57 943.19 419.24 562.27 550.79 467.19 560.39 596.96 752.29 486.24 545.45 775.84 649.47 704.79 332.24 447.15 701.77 845.42 317.23 306.48 787.16 40.97 773.43 489.29 571.24 557.05 414.01 218.89 162.94 831.43 532.76 268.38 494.25 909.42 613.09 884.88 278.85 701.32 505.11 390.23 744.42 447.66 327.83 439.66 865.22 341.31 760.57 335.13 698.01 386.85 432.55 799.76 678.98 680.67 212.81 372.91 136.65 274.65 645.90 784.21 387.98 581.85 535.48 675.75 377.71 826.90 769.77 588.50 824.36 421.09 509.79 653.92 505.14 228.34 727.97 453.16 93.17 703.16 276.31 792.63 234.46 660.14 841.05 238.75 479.82 457.90 730.10 616.17 651.52 754.76 329.07 478.13 903.25 733.05 895.34 276.69 252.21 810.90 455.78 570.89 516.58 493.85 444.37 534.53 161.35 0.00 609.15 859.98 433.01 546.92 696.14 367.39 218.12 395.73 412.21
591.22 270.77 292.59 853.50 347.27 464.28 381.99 174.03 306.49 449.53 664.41 300.60 486.76 447.59 724.96 207.08 803.40 573.07 476.68 415.73 355.05 37.96 507.09 617.33 768.11 330.92 429.87 30.31 589.54 724.97 434.17 509.69 793.63 414.20 568.81 763.44 666.87 763.25 698.43 356.87 842.74 167.37 119.08 217.35 747.78 180.00 920.71 627.79 95.78 133.60 452.09 717.65 376.47 773.12 465.44 353.60 255.37 616.23 733.41 119.86 264.59 175.71 234.75 613.88 450.55 275.82 695.88 604.53 424.41 782.13 369.69 704.94 422.53 147.63 228.43 218.92 187.76 412.72 753.58 726.43 711.52 397.40 606.87 335.91 559.93 512.67 207.96 738.51 165.55 263.72 583.15 372.89 546.35 545.00 235.07 429.26 780.80 962.14 267.11 123.56 419.35 304.19 268.85 406.42 439.06 331.51 185.43 643.13 862.31 442.70 589.89 903.26 520.32 216.53 645.51 255.82 764.40 239.21 403.17 404.77 929.92 285.03 190.62 864.00 99.25 212.02 393.38 164.88 749.55 318.56 599.07 647.12 622.64 634.63 179.58 433.12 459.10 764.35 386.52 782.36 495.85 609.15 0.00 796.09 504.00 813.47 285.31 590.81 610.94 216.47 652.60
917.84 912.22 641.77 613.17 875.15 793.11 601.16 704.82 712.66 510.80 394.79 530.03 325.35 631.40 114.44 590.87 552.58 224.88 625.19 599.54 972.37 816.25 695.09 891.56 749.87 671.00 972.90 794.78 856.14 521.56 364.75 859.89 566.35 505.58 849.80 83.77 245.20 259.59 440.74 439.22 525.50 779.22 720.32 629.54 121.17 685.20 594.05 170.37 877.73 831.55 980.95 429.79 548.78 25.04 622.07 785.59 746.51 842.33 93.13 815.07 582.07 620.38 768.65 697.59 759.20 892.02 395.43 645.53 503.18 132.19 463.68 289.47 899.65 911.86 875.49 731.94 891.12 526.98 714.01 453.53 267.57 631.98 241.74 861.89 265.16 496.45 774.26 87.05 815.68 582.75 672.57 556.70 869.77 974.35 573.19 517.87 589.08 604.21 563.52 860.21 962.38 853.75 691.48 442.22 611.90 615.04 723.03 335.30 532.87 898.92 258.41 679.09 797.17 762.08 995.07 915.97 730.05 558.95 579.75 708.13 672.12 919.76 895.20 391.96 698.91 885.24 849.43 783.83 170.54 612.73 459.36 589.87 611.41 211.57 814.31 362.97 446.59 429.31 534.85 380.88 725.12 859.98 796.09 0.00 470.39 355.82 596.20 1051.43 641.86 767.25 458.25
470.92 559.07 477.05 404.44 682.64 353.00 213.48 537.84 564.46 541.42 272.97 311.57 359.45 194.90 440.99 359.66 343.85 416.53 174.90 207.55 771.53 518.76 248.17 444.64 365.06 516.85 601.78 517.30 433.58 262.02 358.51 434.61 334.11 543.42 420.46 521.60 506.56 619.06 201.03 220.76 427.18 483.17 422.83 369.93 420.85 399.10 463.94 414.00 541.03 573.87 588.14 258.10 506.69 451.36 151.68 373.34 593.08 392.04 429.91 462.48 348.13 328.29 415.50 315.53 357.28 728.98 239.79 198.61 187.98 558.51 285.14 576.43 498.76 592.88 530.16 419.96 651.97 96.38 373.43 266.88 550.50 219.73 452.12 434.99 319.21 49.53 385.04 383.34 576.53 358.17 257.73 169.02 448.85 554.79 380.68 529.43 349.37 513.08 310.72 580.72 612.30 688.24 545.52 360.13 618.92 257.48 431.86 342.64 402.76 453.27 349.17 478.99 350.25 573.80 599.15 690.18 393.50 366.44 585.95 273.86 505.65 579.14 635.87 402.25 475.33 652.31 477.04 448.83 594.80 445.79 637.25 220.48 196.00 439.50 485.43 246.12 137.78 304.80 191.31 326.69 278.20 433.01 504.00 470.39 0.00 309.47 426.99 649.51 230.09 397.22 193.05
632.43 863.05 746.81 286.68 992.11 631.21 481.18 839.00 834.22 669.42 189.56 581.79 469.17 492.44 343.28 632.42 226.09 501.01 480.89 475.85 1045.50 790.77 522.86 618.94 444.03 799.12 857.67 826.77 527.31 263.89 461.77 691.78 260.51 632.55 551.09 423.62 481.86 604.73 226.77 516.97 219.66 770.19 717.80 671.09 249.30 683.52 288.21 423.29 850.50 883.34 761.43 148.56 675.95 368.76 441.27 665.61 861.60 570.36 275.17 771.95 617.26 637.76 724.97 462.30 645.41 999.72 119.53 395.18 473.48 430.17 560.70 566.24 776.86 902.35 830.53 707.97 961.44 405.85 408.17 210.92 526.51 512.00 499.43 740.98 431.99 359.00 685.41 321.74 886.00 657.30 455.54 478.49 644.35 782.35 690.15 647.61 266.50 321.95 548.30 890.19 847.15 961.75 799.48 575.07 767.89 566.95 703.28 326.04 227.03 723.04 461.95 346.78 618.62 883.27 791.36 999.65 459.41 675.91 738.37 566.10 373.44 877.61 945.34 92.78 772.42 956.33 747.93 749.20 472.54 677.64 740.51 342.49 357.08 470.79 790.34 523.08 414.74 123.47 496.70 75.04 521.03 546.92 813.47 355.82 309.47 0.00 736.46 890.07 391.17 706.69 197.08
667.55 459.15 120.14 787.63 376.75 566.21 394.35 194.25 187.93 208.30 574.53 235.67 308.10 397.28 518.43 139.56 727.04 408.57 489.57 417.32 402.09 293.95 557.54 720.78 729.44 138.58 632.21 292.00 678.24 667.81 319.28 633.89 738.54 231.76 687.43 528.93 490.59 561.61 611.35 273.90 758.80 370.49 269.81 159.72 587.77 241.74 795.74 425.83 300.91 286.17 656.86 641.29 125.26 571.16 452.67 440.77 178.31 670.56 559.73 301.42 174.66 170.93 412.18 655.10 533.20 321.74 643.11 542.80 342.41 551.80 253.38 574.97 541.60 352.76 435.57 400.48 332.00 382.38 708.37 650.07 535.24 406.61 500.60 516.42 386.25 476.52 367.46 606.30 312.22 106.79 561.83 374.48 622.16 701.90 50.24 216.70 731.58 893.50 216.25 273.00 624.91 338.16 182.36 221.59 207.55 352.48 276.14 493.22 785.95 585.78 410.26 875.46 602.97 214.42 791.37 352.28 750.51 60.55 219.73 459.10 901.50 491.97 375.05 779.01 200.51 307.74 570.81 340.37 587.03 60.52 392.38 595.07 580.90 482.49 415.66 332.06 349.35 673.19 335.66 697.37 550.18 696.14 285.31 596.20 426.99 736.46 0.00 813.70 565.03 398.03 576.24
257.64 438.38 843.43 789.74 879.37 326.14 559.17 735.39 867.85 937.28 748.08 685.10 888.12 553.22 1004.18 674.14 793.38 977.47 505.74 548.90 887.15 624.46 414.08 305.12 575.49 839.01 242.49 621.12 362.76 717.71 837.60 265.31 728.55 934.49 338.98 1100.17 1089.76 1180.95 671.95 719.95 874.29 480.87 582.56 687.77 986.34 589.79 828.07 991.64 666.59 724.41 158.13 769.36 860.59 1072.67 497.83 425.31 816.73 351.90 958.30 522.98 720.57 660.60 421.11 472.27 292.23 866.63 792.69 561.12 667.07 1150.35 784.33 1154.07 273.39 681.60 474.25 455.36 719.86 628.26 611.35 735.25 1124.79 534.72 1029.76 297.28 896.85 612.72 468.96 1004.87 726.34 718.06 534.31 545.73 297.62 134.86 764.75 949.55 707.98 865.37 651.61 649.71 248.83 861.82 859.66 792.00 929.49 624.63 560.28 877.00 828.64 298.75 926.81 736.68 312.00 791.81 107.36 804.78 517.98 771.25 932.52 452.20 763.34 417.28 718.47 925.27 690.06 744.12 275.92 491.16 1161.35 821.95 1069.49 603.95 579.47 1017.14 411.23 760.53 715.42 816.06 641.62 856.74 416.61 367.39 590.81 1051.43 649.51 890.07 813.70 0.00 545.38 426.37 717.84
327.87 573.96 657.78 308.59 861.30 286.29 246.10 641.13 720.02 700.68 281.84 442.99 482.76 233.25 572.02 532.27 248.00 583.23 191.18 265.11 888.62 572.98 161.63 272.42 179.20 670.67 534.54 597.78 237.73 172.33 472.55 348.07 214.45 687.41 261.51 687.96 715.35 784.11 201.12 368.43 355.16 519.21 539.76 542.54 555.84 465.61 327.33 570.69 667.87 646.33 507.35 259.14 642.78 627.30 193.99 369.22 722.47 259.09 555.31 529.87 456.13 500.90 430.39 90.07 287.23 838.31 321.86 50.26 367.39 696.41 432.81 759.57 474.92 673.60 574.76 467.10 735.92 263.74 143.34 228.82 692.24 276.92 675.08 389.06 549.30 180.56 460.76 595.30 685.86 539.33 126.11 290.56 354.77 469.06 575.51 696.79 169.86 376.54 409.50 690.63 545.06 816.92 726.25 513.10 765.37 352.62 505.99 435.80 321.85 366.73 579.26 313.70 263.71 698.39 470.18 799.51 212.14 570.24 764.17 250.02 340.36 605.05 732.15 426.05 630.89 745.59 447.04 524.55 743.93 625.40 751.29 58.57 34.09 642.07 521.47 415.56 367.87 299.17 358.67 346.52 178.55 218.12 610.94 641.86 230.09 391.17 565.03 545.38 0.00 433.26 194.09
384.40 161.85 440.78 740.04 527.08 267.99 228.55 343.00 475.46 575.10 635.19 295.56 553.79 266.38 750.73 290.90 679.45 641.14 353.76 282.28 533.23 223.92 347.26 400.86 612.46 504.78 234.18 246.78 376.12 571.53 503.44 331.36 616.64 557.52 352.34 777.07 736.92 813.91 557.99 386.37 773.53 85.95 166.14 285.12 787.03 194.26 760.59 695.51 256.79 312.11 323.69 610.26 503.73 742.21 304.57 151.03 424.34 404.01 774.20 96.61 321.33 265.07 18.28 459.18 234.08 483.87 623.75 445.61 380.60 765.26 405.57 821.30 227.13 308.64 146.29 35.31 389.50 354.97 576.60 604.22 781.57 235.54 717.19 129.09 600.72 411.75 66.31 771.18 331.42 386.74 430.93 273.01 344.65 353.41 383.53 546.48 603.12 809.80 262.07 296.48 231.01 482.70 467.21 438.18 521.12 243.19 157.63 600.07 731.67 235.88 626.18 746.96 303.85 400.26 453.92 416.83 569.03 378.86 506.15 259.83 773.62 193.66 351.63 732.01 303.15 390.20 176.91 98.77 812.78 444.03 666.84 455.10 465.54 702.69 88.21 437.43 439.34 656.96 336.96 697.64 350.91 395.73 216.47 767.25 397.22 706.69 398.03 426.37 433.26 0.00 553.47
518.11 678.76 626.30 211.39 831.89 434.13 369.36 710.91 713.71 654.04 87.75 491.06 489.28 305.10 463.29 552.71 150.80 505.38 300.01 331.34 941.85 614.64 355.72 455.00 335.56 666.10 676.79 669.92 431.82 91.57 458.73 494.70 169.82 617.17 455.60 503.45 588.79 637.30 45.89 413.81 234.13 619.01 579.52 562.98 422.37 575.13 270.89 404.87 732.65 766.92 666.58 65.05 670.29 433.21 249.71 495.46 742.33 429.44 442.57 622.61 541.18 521.34 535.19 284.16 455.31 897.98 139.64 198.10 371.67 540.36 478.19 612.76 579.78 755.45 685.60 542.05 827.37 289.43 307.76 73.83 545.43 366.77 528.79 560.10 494.36 242.58 578.09 417.66 769.58 551.22 258.46 362.07 466.44 629.20 529.93 632.23 167.02 320.03 503.77 743.98 666.27 809.69 694.77 535.28 737.04 422.87 506.20 276.32 209.71 525.96 475.88 303.10 457.80 723.05 610.48 872.48 350.35 515.69 722.99 397.86 326.40 711.58 814.00 234.07 655.65 811.82 601.04 577.59 570.32 595.04 725.66 145.41 160.00 486.50 624.42 421.27 312.93 111.75 384.36 152.43 370.15 412.21 652.60 458.25 193.05 197.08 576.24 717.84 194.09 553.47 0.00
DEMAND_SECTION
1 0
2 100
3 67
4 97
5 85
6 58
7 67
8 2
9 9
10 4
11 10
12 1
13 9
14 9
15 4
16 2
17 1
18 8
19 2
20 3
21 10
22 8
23 6
24 3
25 9
26 4
27 8
28 10
29 9
30 10
31 7
32 7
33 2
34 10
35 1
36 8
37 8
38 2
39 9
40 5
41 9
42 4
43 3
44 10
45 8
46 1
47 7
48 8
49 8
50 7
51 8
52 6
53 2
54 6
55 8
56 4
57 5
58 8
59 3
60 3
61 3
62 10
63 5
64 9
65 2
66 3
67 2
68 1
69 7
70 9
71 6
72 7
73 10
74 5
75 7
76 8
77 4
78 7
79 2
80 9
81 3
82 10
83 4
84 3
85 7
86 10
87 3
88 1
89 8
90 7
91 10
92 1
93 3
94 9
95 1
96 7
97 2
98 1
99 5
100 5
101 10
102 10
103 3
104 2
105 7
106 3
107 7
108 1
109 6
110 1
111 2
112 10
113 4
114 10
115 3
116 7
117 1
118 2
119 8
120 7
121 1
122 3
123 6
124 6
125 4
126 6
127 7
128 6
129 5
130 10
131 5
132 5
133 1
134 3
135 3
136 1
137 1
138 5
139 2
140 2
141 10
142 2
143 10
144 9
145 9
146 6
147 3
148 6
149 10
150 2
151 3
DEPOT_SECTION
1
-1
EOF
