NAME: LDG100_1352_none_100_0304
COMMENT: CVRP with travel times.  rootPos=1,custPos=3,demandType=5,avgRouteSizeIndex=2,weather=none,lambda_cluster=1,lambda_random=4, T1=300,T2=700,beta=1, alpha(i,j) ~ U(0.8,1.2)
TYPE: CVRP
DIMENSION: 101
EDGE_WEIGHT_TYPE: EXPLICIT
EDGE_WEIGHT_FORMAT: FULL_MATRIX
CAPACITY: 564
NODE_COORD_SECTION
1 110 824
2 981 360
3 480 468
4 989 221
5 834 836
6 835 816
7 676 760
8 937 379
9 620 855
10 60 121
11 910 410
12 423 669
13 592 974
14 521 652
15 535 329
16 694 831
17 820 726
18 527 220
19 681 650
20 590 305
21 474 866
22 116 558
23 257 146
24 686 78
25 583 335
26 567 434
27 420 357
28 512 102
29 860 23
30 379 492
31 396 761
32 94 844
33 794 954
34 631 739
35 395 275
36 269 561
37 515 366
38 780 619
39 816 775
40 942 697
41 953 246
42 771 722
43 873 386
44 386 783
45 444 427
46 652 722
47 251 191
48 967 262
49 579 630
50 592 317
51 596 752
52 893 277
53 526 986
54 133 961
55 216 304
56 852 678
57 343 805
58 732 714
59 764 279
60 778 694
61 748 293
62 351 220
63 895 370
64 575 304
65 556 279
66 651 765
67 574 348
68 166 399
69 888 251
70 115 4
71 661 730
72 559 312
73 622 502
74 940 411
75 472 962
76 54 132
77 660 784
78 890 368
79 628 926
80 882 224
81 590 682
82 671 725
83 700 699
84 532 963
85 292 884
86 796 559
87 907 340
88 851 827
89 672 858
90 718 372
91 517 333
92 140 7
93 151 407
94 576 516
95 895 323
96 653 3
97 574 434
98 121 843
99 24 566
100 114 470
101 446 877
EDGE_WEIGHT_SECTION
0.00 934.91 600.84 1032.12 754.17 752.43 617.36 911.17 585.79 771.84 901.59 449.62 479.81 456.05 644.16 618.67 738.23 718.97 564.70 604.57 375.91 351.59 694.45 865.28 617.90 648.46 627.46 803.28 1024.13 573.70 368.90 58.28 721.49 581.28 591.59 434.35 642.92 693.88 726.88 825.55 965.93 674.92 869.65 345.96 543.44 568.11 641.65 962.84 523.08 585.00 555.12 918.04 416.72 156.38 502.33 776.33 281.68 659.08 779.12 698.58 728.73 691.70 862.04 607.34 657.61 598.12 641.52 510.65 940.75 817.62 552.84 631.94 705.67 921.18 433.34 786.86 565.48 841.07 562.74 901.59 548.09 581.72 615.16 440.04 224.58 740.42 909.05 717.45 555.59 754.61 635.56 772.17 481.70 652.84 902.86 914.28 630.74 28.54 295.50 426.86 413.28
934.91 0.00 496.67 194.59 536.83 519.88 514.60 77.94 639.32 890.58 119.46 656.80 656.58 597.68 457.28 588.91 437.57 500.56 505.55 434.55 717.72 862.14 760.92 444.41 386.59 415.56 560.47 539.44 422.91 625.89 677.69 993.19 556.49 531.25 562.45 634.00 452.32 343.10 502.99 435.52 128.40 428.81 122.42 718.21 549.28 500.11 740.64 163.80 531.42 419.49 557.75 134.11 719.67 1020.30 757.38 375.14 764.91 443.29 278.75 456.08 286.67 660.10 114.81 417.92 448.91 524.18 410.21 798.86 175.38 917.26 484.84 449.69 398.43 116.50 790.92 884.12 552.43 93.84 656.03 160.95 543.64 491.20 488.34 727.92 845.57 329.83 104.88 493.44 587.52 249.88 461.90 903.78 776.55 459.38 117.24 553.09 397.84 963.45 920.39 826.09 755.09
600.84 496.67 0.00 570.74 543.99 530.57 387.20 471.85 452.30 574.17 453.07 236.47 524.85 225.02 189.80 431.30 448.26 293.73 371.93 237.25 443.17 493.87 389.87 478.70 220.09 103.28 126.71 394.99 635.84 235.21 359.80 542.56 605.06 369.09 249.72 283.23 169.79 337.36 511.53 557.92 513.22 431.02 404.60 402.61 57.40 337.95 375.63 508.15 263.34 243.68 368.85 432.99 476.83 667.18 306.81 472.55 447.02 372.15 326.41 391.61 276.02 282.50 439.87 241.86 248.91 378.76 230.82 316.27 476.99 566.23 322.68 231.44 175.32 491.29 531.14 559.15 365.41 433.18 538.40 448.88 312.99 337.05 346.21 453.51 482.42 391.27 424.19 534.70 420.32 268.96 167.73 520.78 287.32 142.02 463.26 505.58 121.00 574.90 485.54 353.87 468.65
1032.12 194.59 570.74 0.00 611.38 620.20 610.61 199.05 679.17 924.59 246.68 706.46 819.72 644.37 484.49 687.92 537.89 488.45 605.28 483.80 811.60 906.87 773.33 421.89 459.62 467.46 574.46 502.96 364.20 675.95 770.69 1035.92 751.08 622.72 630.25 734.32 485.06 439.11 603.31 496.54 66.19 498.41 218.43 792.41 613.85 590.73 780.12 86.77 577.34 475.95 647.87 143.27 842.94 1086.53 808.99 475.46 856.69 539.30 273.91 537.82 303.39 704.83 176.87 462.65 474.43 615.41 460.27 839.13 99.27 880.78 591.92 476.75 473.09 223.58 896.94 928.85 622.03 194.16 752.04 138.43 615.72 603.40 562.03 840.80 925.28 429.56 179.08 600.52 657.12 329.59 462.42 926.23 858.06 491.64 157.96 479.42 449.74 1003.58 995.05 891.57 835.93
754.17 536.83 543.99 611.38 0.00 44.69 227.03 458.89 222.99 990.52 422.32 478.89 326.12 352.87 575.12 263.08 127.00 652.61 223.19 546.47 388.49 751.80 854.33 746.83 559.80 466.75 622.41 737.04 785.48 560.41 472.88 753.44 154.48 275.00 708.00 614.49 568.28 241.75 104.75 192.40 583.45 112.97 462.43 511.13 559.91 262.20 791.98 570.64 327.37 526.90 239.85 551.30 337.45 677.01 807.26 207.47 554.62 178.36 531.04 152.38 565.36 709.98 434.51 549.24 599.51 229.97 538.02 731.33 592.05 1020.87 269.34 573.84 368.67 420.33 382.08 975.50 208.95 455.48 304.73 575.72 326.32 240.46 217.70 314.13 579.64 313.52 483.18 43.39 200.00 444.73 579.70 975.42 760.28 408.49 493.74 788.84 474.12 725.63 820.41 771.84 399.68
752.43 519.88 530.57 620.20 44.69 0.00 253.78 450.48 267.68 989.50 431.70 475.94 281.43 379.47 551.33 259.92 82.31 611.93 255.84 533.07 385.33 768.08 813.65 738.42 548.22 453.33 605.14 761.13 760.76 534.23 486.27 765.04 148.26 240.66 694.58 627.56 531.28 202.82 64.07 147.71 554.01 146.39 423.50 478.76 546.49 248.16 825.40 563.78 326.03 548.38 273.40 526.97 344.52 693.53 795.90 162.78 540.96 201.33 522.63 138.96 526.43 732.97 447.01 544.83 586.11 228.81 524.60 757.93 556.05 994.81 242.68 576.60 355.25 411.92 373.64 974.48 225.47 426.04 260.97 552.30 281.63 228.40 187.03 352.77 577.61 274.59 482.66 34.98 196.84 482.71 566.28 1008.07 773.97 391.22 487.83 792.03 471.05 732.70 847.01 790.89 422.70
617.36 514.60 387.20 610.61 227.03 253.78 0.00 459.43 140.09 871.47 440.65 266.39 235.41 218.02 454.66 119.09 200.78 512.77 129.66 470.65 242.77 616.95 750.27 669.00 466.18 351.29 487.11 643.51 767.25 382.29 320.40 624.48 293.96 106.92 546.04 479.64 437.98 171.50 214.60 314.35 544.42 136.70 392.18 327.27 444.60 78.77 712.28 553.98 193.50 464.67 87.37 521.69 298.50 521.26 680.56 215.88 391.55 71.31 494.75 152.42 444.36 614.94 441.73 449.50 458.60 39.83 452.79 596.48 546.16 913.29 64.52 417.73 324.05 432.86 336.44 856.45 53.20 420.76 152.48 547.02 141.58 70.52 69.00 276.88 427.16 243.27 451.34 234.56 147.16 425.64 443.99 867.84 625.43 273.19 482.55 715.27 343.82 592.14 609.78 633.01 280.14
911.17 77.94 471.85 199.05 458.89 450.48 459.43 0.00 573.32 848.58 53.46 578.86 634.70 532.45 428.67 522.91 402.85 478.40 427.61 374.14 639.78 811.58 723.58 405.94 363.81 368.57 532.88 481.87 458.32 569.86 653.95 921.31 597.34 453.31 524.16 610.26 415.21 287.93 450.23 369.84 132.86 362.81 67.25 672.73 512.74 422.17 684.61 113.30 465.42 383.34 479.81 134.79 657.92 954.49 679.44 322.38 737.01 388.12 220.70 402.22 208.73 609.54 49.13 367.36 406.73 458.18 354.18 739.50 178.79 859.69 406.90 399.13 320.49 38.56 712.98 833.56 486.43 70.10 600.86 196.36 487.98 435.78 433.17 681.24 819.60 251.89 59.40 415.50 521.52 297.08 438.42 853.22 710.55 381.44 88.99 554.62 362.59 908.92 842.45 777.10 677.15
585.79 639.32 452.30 679.17 222.99 267.68 140.09 573.32 0.00 927.58 519.86 255.90 179.21 264.73 499.65 152.78 235.75 603.58 226.44 567.87 214.06 663.66 815.86 773.28 546.13 428.34 575.39 740.29 850.95 472.27 307.40 530.45 213.97 140.55 595.81 523.82 521.68 299.40 248.29 359.48 646.46 210.51 520.08 350.21 509.70 154.71 802.26 611.06 258.13 558.81 120.90 535.90 169.07 554.95 696.11 311.92 389.85 209.00 596.09 249.19 570.95 695.92 531.94 563.21 558.76 119.53 529.84 637.40 579.90 963.92 169.98 545.76 404.38 538.32 222.41 942.60 86.89 548.66 105.43 612.34 218.63 154.22 195.59 161.63 460.69 354.91 579.24 266.38 129.47 502.37 521.72 943.78 666.35 361.47 587.48 815.43 427.52 557.25 678.98 715.91 176.69
771.84 890.58 574.17 924.59 990.52 989.50 871.47 848.58 927.58 0.00 857.58 691.92 926.72 668.64 513.59 920.91 932.17 523.73 824.60 502.37 886.79 474.82 246.54 585.87 512.55 582.42 447.46 421.63 832.89 491.87 732.14 774.80 1106.24 849.91 394.93 424.00 479.51 832.62 946.72 1001.52 889.70 877.55 809.11 761.29 531.48 834.59 198.54 888.81 728.04 503.56 812.47 828.90 863.63 884.69 314.96 874.90 766.20 828.41 685.20 875.52 694.77 294.82 834.56 481.22 530.72 846.83 528.97 290.18 865.30 164.40 841.43 512.99 659.23 880.36 938.74 15.02 879.47 837.69 988.57 854.30 766.48 843.84 802.47 886.95 789.75 789.22 824.98 990.96 927.06 649.26 524.44 187.37 319.13 598.28 785.91 655.95 573.67 743.30 517.35 380.93 852.08
901.59 119.46 453.07 246.68 422.32 431.70 440.65 53.46 519.86 857.58 0.00 582.32 638.16 478.99 404.75 469.45 349.39 454.97 419.57 394.71 622.54 820.58 699.66 412.19 345.03 349.79 508.96 492.17 448.74 545.94 644.37 924.77 576.80 456.77 500.24 600.68 391.29 269.15 396.77 402.20 186.32 309.35 48.47 627.30 459.28 425.63 660.69 166.76 411.96 377.93 483.27 151.28 661.38 901.03 678.98 268.92 691.58 369.34 196.40 348.76 219.03 600.35 81.49 376.36 409.74 404.72 330.26 686.04 169.73 868.35 410.36 383.89 373.95 42.02 716.44 842.56 432.97 60.52 571.28 186.78 476.34 417.04 391.44 664.63 781.58 255.35 84.39 418.96 468.06 284.35 414.50 862.22 657.09 417.50 88.72 551.62 367.51 919.22 855.31 723.64 659.91
449.62 656.80 236.47 706.46 478.89 475.94 266.39 578.86 255.90 691.92 582.32 0.00 430.09 135.01 418.52 321.65 393.63 478.40 257.10 414.28 291.41 459.66 605.55 674.99 407.32 316.01 363.18 619.07 832.55 286.48 123.33 430.58 469.87 254.62 418.47 267.92 397.00 373.33 431.21 517.36 655.09 367.32 594.01 166.14 293.87 287.18 579.53 619.69 202.04 433.78 278.84 653.46 367.00 525.72 440.21 460.05 210.55 337.70 548.05 406.73 512.49 518.58 620.75 415.76 365.03 306.22 430.94 513.47 697.46 750.51 301.03 447.11 275.77 540.30 368.04 706.94 319.59 622.59 361.33 685.35 232.85 297.88 327.85 390.32 245.95 432.25 606.03 492.57 384.73 450.80 404.20 757.25 489.35 214.82 590.90 621.70 302.84 421.08 423.08 460.01 254.04
479.81 656.58 524.85 819.72 326.12 281.43 235.41 634.70 179.21 926.72 638.16 430.09 0.00 398.58 635.97 174.87 363.74 738.89 342.68 649.98 188.70 662.50 805.30 866.06 616.46 520.44 607.16 843.90 951.10 551.84 325.05 483.61 274.87 226.38 720.66 565.15 599.01 395.86 345.50 429.14 767.56 342.57 616.54 319.74 523.14 232.63 739.47 748.00 347.36 649.36 259.03 715.11 63.09 618.90 702.71 395.24 321.51 295.67 707.18 364.70 669.12 762.95 664.11 628.83 679.56 249.49 624.24 777.04 759.11 1031.97 247.90 653.14 501.56 596.14 148.97 922.99 219.23 645.12 82.93 771.38 315.81 254.37 293.76 71.34 377.86 467.63 675.70 316.41 183.86 632.68 653.65 986.52 779.43 477.12 665.40 936.23 527.67 451.27 749.82 721.71 216.05
456.05 597.68 225.02 644.37 352.87 379.47 218.02 532.45 264.73 668.64 478.99 135.01 398.58 0.00 356.98 276.72 332.91 460.91 166.06 392.06 218.15 398.93 603.36 585.73 350.12 232.33 340.62 566.28 775.66 207.54 244.14 514.33 438.39 181.27 473.35 261.62 335.24 270.15 353.16 431.52 637.06 276.28 490.83 212.35 282.42 165.95 537.53 601.66 67.03 372.73 143.83 566.47 358.83 442.16 481.58 325.04 276.63 216.04 466.23 276.26 462.27 496.41 536.69 370.91 348.26 178.19 361.82 378.46 576.90 742.66 181.22 402.68 249.62 499.23 311.69 683.66 210.83 519.41 319.93 616.06 97.84 187.69 192.84 335.51 366.63 321.63 549.99 382.39 304.98 395.69 379.05 745.80 407.41 196.79 564.75 604.93 250.05 484.59 467.54 453.71 255.52
644.16 457.28 189.80 484.49 575.12 551.33 454.66 428.67 499.65 513.59 404.75 418.52 635.97 356.98 0.00 517.36 469.02 103.93 393.30 78.73 510.03 507.78 367.37 297.38 80.08 124.65 104.21 285.55 480.35 245.81 513.04 661.43 682.60 434.33 163.14 402.13 62.70 407.70 529.91 572.52 452.33 462.15 376.64 470.62 180.17 403.34 347.97 448.34 331.35 59.16 432.09 396.43 597.68 687.04 375.66 458.09 534.90 433.83 267.54 422.74 231.64 260.00 402.09 63.56 59.11 426.23 74.49 416.77 385.22 531.25 413.02 46.11 206.45 427.28 631.59 528.61 451.47 405.22 589.84 377.55 334.36 384.14 407.89 574.36 598.76 335.93 407.32 573.40 547.90 207.40 22.07 549.42 445.72 203.70 368.25 315.78 142.37 629.09 615.69 467.58 547.40
618.67 588.91 431.30 687.92 263.08 259.92 119.09 522.91 152.78 920.91 469.45 321.65 174.87 276.72 517.36 0.00 250.83 597.72 205.44 542.73 251.57 645.43 794.86 744.93 528.88 420.86 536.55 719.29 829.95 484.26 276.13 648.83 247.82 131.94 574.81 538.34 500.68 263.34 204.03 374.56 636.26 189.51 484.02 318.94 488.70 133.71 785.47 636.21 226.23 541.59 152.31 613.53 237.96 533.95 738.11 290.92 363.35 163.15 591.74 220.74 549.81 674.92 511.05 559.44 560.12 98.53 519.64 655.18 638.00 942.92 129.88 536.82 347.58 498.22 258.66 905.89 65.89 512.60 193.40 638.86 211.15 133.22 174.45 246.21 457.49 335.11 543.18 224.94 63.08 484.34 502.69 922.78 684.13 322.63 558.17 816.79 406.52 616.49 728.87 670.79 288.94
738.23 437.57 448.26 537.89 127.00 82.31 200.78 402.85 235.75 932.17 349.39 393.63 363.74 332.91 469.02 250.83 0.00 568.69 173.53 450.76 377.27 721.12 807.50 661.27 465.91 371.02 547.81 678.82 678.45 487.27 441.24 742.21 230.57 210.93 612.27 594.53 473.93 120.51 74.42 123.73 471.70 64.08 341.19 449.03 464.18 178.37 743.09 484.72 275.35 466.07 241.91 444.66 369.04 655.76 713.59 80.47 494.00 129.47 445.48 56.65 444.12 686.01 364.70 462.52 503.80 181.08 442.29 711.37 473.74 912.50 193.64 494.29 272.94 391.41 423.35 917.15 187.70 343.73 341.18 469.99 260.45 172.06 140.07 345.72 530.65 192.28 400.35 116.53 222.79 400.40 483.97 925.76 735.58 333.89 405.52 744.51 388.74 721.26 794.90 722.18 388.03
718.97 500.56 293.73 488.45 652.61 611.93 512.77 478.40 603.58 523.73 454.97 478.40 738.89 460.91 103.93 597.72 568.69 0.00 451.47 117.93 584.21 555.85 284.88 345.86 142.96 228.58 208.14 181.62 481.20 317.11 592.33 744.62 721.80 534.71 174.30 393.89 166.63 448.18 547.86 668.74 497.58 547.90 439.52 574.55 259.46 506.26 350.71 462.18 404.85 133.97 515.66 403.21 701.61 790.97 413.95 557.79 638.83 505.22 258.57 517.50 301.30 228.91 448.80 111.63 113.37 530.16 148.67 464.19 447.21 542.41 513.40 95.04 310.38 452.82 735.52 534.23 551.85 468.10 665.25 423.96 438.29 484.52 479.28 678.29 702.69 419.63 419.00 609.22 648.28 279.67 126.00 587.86 493.14 275.09 416.32 370.04 211.22 733.02 663.76 499.82 621.58
564.70 505.55 371.93 605.28 223.19 255.84 129.66 427.61 226.44 824.60 419.57 257.10 342.68 166.06 393.30 205.44 173.53 451.47 0.00 341.43 329.12 564.99 637.17 602.14 373.29 268.65 429.49 513.85 728.40 373.60 366.81 622.98 360.92 128.76 518.74 427.68 345.09 185.76 247.95 297.26 539.09 110.22 406.44 350.59 345.47 110.05 634.81 540.91 135.25 361.00 149.91 485.75 368.21 607.61 594.88 211.63 414.87 102.72 418.97 149.63 454.42 585.28 431.76 362.58 394.47 164.48 385.03 544.52 529.75 797.68 117.19 394.35 293.42 389.05 377.44 815.73 139.55 435.02 282.14 552.12 137.04 88.31 79.06 360.77 469.64 175.72 465.60 253.66 252.07 311.57 379.72 752.23 573.47 232.47 490.99 651.14 250.93 593.24 633.60 548.65 366.49
604.57 434.55 237.25 483.80 546.47 533.07 470.65 374.14 567.87 502.37 394.71 414.28 649.98 392.06 78.73 542.73 450.76 117.93 341.43 0.00 508.84 465.37 361.00 260.71 49.68 159.73 182.51 273.08 437.94 274.99 508.41 662.85 603.87 445.33 241.87 408.66 95.91 330.25 505.32 550.81 429.63 433.50 346.24 503.83 211.88 447.54 359.49 408.75 349.86 19.57 460.67 366.03 618.12 750.64 393.59 449.10 521.47 430.44 225.13 427.02 225.51 263.33 371.69 21.15 53.04 489.83 73.30 446.10 410.03 552.46 458.62 52.92 257.81 412.70 660.21 487.35 480.98 374.82 623.13 381.53 369.44 429.74 420.49 594.80 658.11 326.35 364.91 566.68 586.03 184.67 85.67 507.01 475.05 220.10 325.84 309.71 172.04 633.11 573.28 479.65 546.21
375.91 717.72 443.17 811.60 388.49 385.33 242.77 639.78 214.06 886.79 622.54 291.41 188.70 218.15 510.03 251.57 377.27 584.21 329.12 508.84 0.00 495.72 795.80 740.44 459.16 436.29 532.64 729.25 878.26 425.69 168.08 412.33 373.23 226.08 605.52 476.22 496.57 402.08 350.97 477.63 772.64 313.19 622.76 152.96 448.62 246.01 755.68 753.08 285.18 492.06 179.21 705.10 140.68 442.42 681.82 414.60 175.79 311.68 668.08 352.60 645.41 688.43 634.73 490.49 523.87 222.21 435.54 596.61 749.10 920.23 252.12 489.17 412.33 601.22 151.37 901.81 189.57 651.34 194.44 775.24 226.58 256.90 271.16 117.36 307.24 457.00 681.92 350.35 188.49 560.68 519.78 912.00 612.65 392.78 678.78 780.54 454.01 379.99 603.63 596.15 37.37
351.59 862.14 493.87 906.87 751.80 768.08 616.95 811.58 663.66 474.82 820.58 459.66 662.50 398.93 507.78 645.43 721.12 555.85 564.99 465.37 495.72 0.00 464.23 726.08 475.55 493.57 459.78 675.30 861.01 388.33 369.30 313.48 833.75 580.20 465.52 232.01 519.73 666.75 752.09 830.45 852.70 675.21 772.11 342.76 497.52 564.88 411.43 851.81 463.63 466.56 542.76 791.90 614.48 479.61 272.11 721.64 381.94 612.64 648.20 664.47 672.50 397.36 793.14 444.22 494.95 577.12 499.17 184.64 835.90 548.84 580.15 475.99 591.65 850.14 554.48 475.68 609.76 772.17 641.81 817.30 496.77 586.62 581.05 591.16 497.04 720.56 787.98 778.99 677.78 612.26 529.85 594.29 206.55 539.93 748.91 751.62 511.29 345.82 107.91 140.00 500.01
694.45 760.92 389.87 773.33 854.33 813.65 750.27 723.58 815.86 246.54 699.66 605.55 805.30 603.36 367.37 794.86 807.50 284.88 637.17 361.00 795.80 464.23 0.00 462.99 374.33 457.18 263.16 298.75 663.90 395.82 663.89 707.46 927.50 744.05 220.05 520.66 360.89 691.25 749.58 817.22 766.01 744.84 670.89 667.10 347.18 715.60 65.83 730.61 606.84 341.43 717.65 688.09 866.70 849.32 192.12 756.28 709.01 707.21 543.45 750.85 547.37 156.84 696.34 363.77 398.25 726.26 369.40 333.61 730.40 260.21 712.55 379.92 538.03 737.70 872.43 249.35 728.97 688.66 851.44 708.84 666.89 693.86 681.27 843.38 734.19 651.00 703.88 810.94 742.76 511.04 389.44 305.66 329.08 477.08 668.46 533.07 449.71 722.99 477.62 386.66 758.43
865.28 444.41 478.70 421.89 746.83 738.42 669.00 405.94 773.28 585.87 412.19 674.99 866.06 585.73 297.38 744.93 661.27 345.86 602.14 260.71 740.44 726.08 462.99 0.00 298.96 416.75 351.99 164.24 247.02 473.34 758.18 910.47 837.19 665.99 375.93 622.00 327.22 557.87 732.94 715.92 358.24 644.03 404.82 734.04 425.31 633.43 494.50 393.64 518.70 280.28 680.81 359.90 861.60 984.42 591.94 657.74 782.18 658.06 215.79 604.62 234.26 456.27 395.21 281.86 313.75 653.75 304.90 654.90 322.62 542.06 648.70 251.27 488.07 444.50 891.81 600.89 686.39 409.72 798.54 283.46 583.08 650.99 609.62 844.08 888.32 519.58 346.54 703.44 780.54 323.19 319.45 511.23 683.85 480.81 385.61 197.05 421.32 893.82 833.99 701.45 777.81
617.90 386.59 220.09 459.62 559.80 548.22 466.18 363.81 546.13 512.55 345.03 407.32 616.46 350.12 80.08 528.88 465.91 142.96 373.29 49.68 459.16 475.55 374.33 298.96 0.00 117.79 173.88 270.09 448.12 239.30 495.56 643.34 653.55 438.16 193.60 358.98 84.65 348.44 523.51 542.59 412.22 446.83 296.56 492.57 162.69 405.60 354.05 379.53 337.81 32.90 425.23 316.35 568.44 767.12 372.34 414.83 534.90 438.18 235.31 409.26 210.02 273.51 322.01 31.33 64.71 460.03 23.62 438.72 360.35 561.71 420.87 63.10 215.63 383.25 610.53 497.53 462.99 325.14 582.98 382.88 327.50 395.66 412.24 545.12 642.05 276.67 355.72 559.92 555.75 136.71 102.15 517.19 462.49 208.05 321.73 321.38 122.36 611.00 583.46 491.32 496.53
648.46 415.56 103.28 467.46 466.75 453.33 351.29 368.57 428.34 582.42 349.79 316.01 520.44 232.33 124.65 420.86 371.02 228.58 268.65 159.73 436.29 493.57 457.18 416.75 117.79 0.00 194.02 333.95 555.37 266.27 439.34 645.84 578.36 320.37 281.34 386.51 102.91 314.52 445.44 494.75 433.80 353.78 301.32 429.82 160.68 287.81 397.97 408.50 230.95 140.40 307.44 396.30 538.35 674.49 410.09 395.31 452.54 331.32 273.08 314.37 322.81 349.81 350.87 138.58 171.32 342.24 129.49 419.55 435.77 625.37 303.08 170.35 98.08 388.01 544.02 581.49 354.97 329.90 465.19 396.61 209.71 291.02 305.38 534.40 553.29 314.03 320.91 465.03 437.96 165.68 146.72 579.92 390.60 101.19 359.98 427.99 17.72 677.00 588.82 457.15 456.60
627.46 560.47 126.71 574.46 622.41 605.14 487.11 532.88 575.39 447.46 508.96 363.18 607.16 340.62 104.21 536.55 547.81 208.14 429.49 182.51 532.64 459.78 263.16 351.99 173.88 194.02 0.00 268.28 583.91 141.60 416.89 569.18 664.34 490.97 154.71 297.92 166.91 448.40 616.13 554.06 541.75 509.44 470.44 403.94 84.02 458.41 248.92 506.35 343.68 162.94 454.49 431.19 603.54 715.00 333.43 562.30 468.22 444.05 371.10 491.16 335.85 155.79 495.89 167.12 163.32 505.47 178.70 321.90 475.19 499.99 449.39 150.32 274.87 531.49 609.27 432.44 492.12 499.02 588.28 475.57 403.73 459.48 418.11 580.22 558.22 440.14 506.58 606.60 479.60 310.59 126.28 488.90 350.85 213.92 471.81 419.99 211.74 601.52 549.07 395.17 495.27
803.28 539.44 394.99 502.96 737.04 761.13 643.51 481.87 740.29 421.63 492.17 619.07 843.90 566.28 285.55 719.29 678.82 181.62 513.85 273.08 729.25 675.30 298.75 164.24 270.09 333.95 268.28 0.00 411.26 409.88 655.53 837.46 874.77 639.72 211.69 457.76 329.85 558.31 729.48 778.87 510.34 624.07 443.70 672.22 352.30 611.27 330.26 527.14 534.01 253.51 641.39 462.45 838.53 936.01 451.34 684.92 736.50 616.57 323.53 648.32 273.14 292.03 462.68 266.25 280.90 665.70 293.71 490.66 485.16 377.82 618.41 273.83 432.03 520.43 868.28 436.65 653.40 472.28 795.99 446.00 543.66 589.53 592.91 815.21 746.50 546.76 434.56 767.51 747.88 363.96 271.04 423.27 519.61 404.25 473.63 234.32 316.23 831.82 708.01 537.21 754.28
1024.13 422.91 635.84 364.20 785.48 760.76 767.25 458.32 850.95 832.89 448.74 832.55 951.10 775.66 480.35 829.95 678.45 481.20 728.40 437.94 878.26 861.01 663.90 247.02 448.12 555.37 583.91 411.26 0.00 658.40 943.68 1082.41 909.02 746.92 612.70 778.08 503.75 637.48 752.87 642.11 336.74 672.51 416.80 911.67 610.81 718.47 729.73 372.14 708.63 439.13 780.59 338.40 976.63 1167.39 789.23 669.52 954.00 727.48 309.43 633.10 359.82 658.97 409.19 416.79 467.52 772.90 442.72 857.82 301.12 782.06 725.61 448.56 581.71 431.92 1029.63 847.91 764.06 388.22 919.73 261.96 753.93 696.73 716.52 993.24 1012.52 613.22 413.79 783.76 813.94 416.83 502.42 736.61 881.59 642.66 400.96 244.48 564.79 1052.67 968.92 894.13 915.63
573.70 625.89 235.21 675.95 560.41 534.23 382.29 569.86 472.27 491.87 545.94 286.48 551.84 207.54 245.81 484.26 487.27 317.11 373.60 274.99 425.69 388.33 395.82 473.34 239.30 266.27 141.60 409.88 658.40 0.00 365.14 571.64 638.59 388.81 265.81 156.32 276.71 477.69 512.14 611.00 651.52 451.93 535.86 359.28 183.12 373.49 329.99 618.83 274.57 258.44 351.37 555.65 536.22 649.70 309.88 511.56 423.56 408.39 457.82 430.62 425.55 297.39 561.31 253.84 304.01 385.73 215.68 379.72 576.68 633.92 388.76 222.07 303.96 587.96 519.23 476.85 418.37 564.44 527.47 598.41 305.38 388.57 347.20 512.90 513.18 513.75 587.18 569.21 512.52 376.01 267.88 630.50 350.77 243.01 558.53 542.93 283.99 545.16 449.89 309.26 463.06
368.90 677.69 359.80 770.69 472.88 486.27 320.40 653.95 307.40 732.14 644.37 123.33 325.05 244.14 513.04 276.13 441.24 592.33 366.81 508.41 168.08 369.30 663.89 758.18 495.56 439.34 416.89 655.53 943.68 365.14 0.00 372.70 464.45 279.90 443.84 308.14 450.73 443.18 442.36 522.33 711.82 405.90 612.43 42.81 332.87 279.14 665.81 724.84 258.15 525.18 233.03 675.29 261.96 427.99 563.54 465.53 87.22 355.86 657.35 384.59 635.82 543.95 604.82 526.89 488.36 333.57 511.76 531.45 719.29 810.08 294.41 506.91 399.10 662.75 244.71 747.16 312.18 583.85 272.51 710.11 322.53 278.50 301.17 281.22 197.09 487.01 651.80 451.29 339.21 574.13 524.08 796.25 502.50 338.15 612.73 745.03 426.17 340.36 477.21 500.23 130.71
58.28 993.19 542.56 1035.92 753.44 765.04 624.48 921.31 530.45 774.80 924.77 430.58 483.61 514.33 661.43 648.83 742.21 744.62 622.98 662.85 412.33 313.48 707.46 910.47 643.34 645.84 569.18 837.46 1082.41 571.64 372.70 0.00 743.04 587.86 649.87 426.11 645.77 717.39 748.81 832.67 969.73 706.87 903.09 349.76 485.16 575.23 641.63 986.53 565.10 643.28 551.35 921.84 420.52 200.72 537.16 766.50 285.48 663.33 782.92 685.56 732.53 706.47 920.32 665.62 708.05 616.04 666.96 484.62 944.55 848.82 559.96 659.20 706.35 882.75 437.14 789.16 601.90 899.35 566.54 905.39 551.89 588.84 602.14 443.84 211.56 787.98 962.25 762.68 600.82 747.91 639.36 830.45 460.42 645.40 961.14 964.72 660.72 32.34 353.78 393.87 449.70
721.49 556.49 605.06 751.08 154.48 148.26 293.96 597.34 213.97 1106.24 576.80 469.87 274.87 438.39 682.60 247.82 230.57 721.80 360.92 603.87 373.23 833.75 927.50 837.19 653.55 578.36 664.34 874.77 909.02 638.59 464.45 743.04 0.00 329.07 766.41 700.01 679.54 351.08 212.33 295.97 684.89 267.45 571.76 507.26 662.46 306.35 913.26 710.64 421.08 623.44 334.87 675.23 337.96 656.68 910.08 311.04 549.02 290.88 669.49 287.22 674.69 820.13 588.99 625.02 656.91 260.20 672.29 816.85 704.31 1134.52 316.28 656.79 480.28 558.78 393.97 1091.22 292.84 574.30 191.94 700.56 405.92 328.09 335.29 316.34 579.15 422.85 630.92 181.84 184.74 599.21 664.36 1095.42 845.80 521.01 636.09 913.58 596.08 726.14 892.95 890.58 352.48
581.28 531.25 369.09 622.72 275.00 240.66 106.92 453.31 140.55 849.91 456.77 254.62 226.38 181.27 434.33 131.94 210.93 534.71 128.76 445.33 226.08 580.20 744.05 665.99 438.16 320.37 490.97 639.72 746.92 388.81 279.90 587.86 329.07 0.00 554.85 442.89 417.65 196.60 176.59 294.02 568.55 174.36 417.28 238.10 426.49 32.56 707.37 566.61 147.29 460.77 46.87 527.32 286.47 526.78 662.85 253.54 302.38 108.97 507.11 174.98 466.92 637.50 466.83 458.95 477.09 68.87 429.17 559.73 571.26 867.08 46.41 480.44 303.71 414.75 295.94 860.31 66.05 445.86 206.65 568.53 117.96 50.19 91.56 282.79 386.66 268.37 476.44 237.95 181.29 422.22 456.40 821.63 588.68 277.05 464.76 733.76 323.49 555.52 648.81 612.68 258.63
591.59 562.45 249.72 630.25 708.00 694.58 546.04 524.16 595.81 394.93 500.24 418.47 720.66 473.35 163.14 574.81 612.27 174.30 518.74 241.87 605.52 465.52 220.05 375.93 193.60 281.34 154.71 211.69 612.70 265.81 443.84 649.87 766.41 554.85 0.00 403.24 178.43 528.36 645.64 708.77 596.58 595.03 490.16 486.65 197.52 522.29 247.10 573.13 407.56 222.30 556.44 509.95 705.80 747.97 239.65 573.82 531.06 556.57 418.60 555.62 379.85 100.11 489.58 224.93 222.25 506.21 169.98 289.89 530.98 368.11 537.56 209.25 361.99 542.26 688.55 409.95 508.92 468.61 672.77 540.69 471.94 540.40 546.56 703.23 640.93 468.05 536.59 706.28 632.43 330.31 185.21 413.56 318.84 355.83 515.33 446.01 267.81 620.13 496.32 325.52 574.55
434.35 634.00 283.23 734.32 614.49 627.56 479.64 610.26 523.82 424.00 600.68 267.92 565.15 261.62 402.13 538.34 594.53 393.89 427.68 408.66 476.22 232.01 520.66 622.00 358.98 386.51 297.92 457.76 778.08 156.32 308.14 426.11 700.01 442.89 403.24 0.00 396.39 531.77 606.28 690.14 668.13 537.90 568.74 337.29 265.51 427.57 454.83 681.15 328.65 391.88 405.45 641.09 502.06 574.19 385.71 586.66 342.20 477.66 583.98 537.88 545.23 453.71 561.13 390.31 423.69 439.81 335.36 250.38 685.09 588.40 417.43 378.39 434.97 633.67 514.74 439.02 472.45 540.16 580.65 666.42 345.93 446.31 454.46 525.38 404.71 583.25 608.14 644.01 552.31 495.69 419.60 611.37 221.43 374.02 601.95 680.36 404.23 405.81 313.19 192.09 438.85
642.92 452.32 169.79 485.06 568.28 531.28 437.98 415.21 521.68 479.51 391.29 397.00 599.01 335.24 62.70 500.68 473.93 166.63 345.09 95.91 496.57 519.73 360.89 327.22 84.65 102.91 166.91 329.85 503.75 276.71 450.73 645.77 679.54 417.65 178.43 396.39 0.00 417.43 467.21 533.29 443.22 455.31 381.21 407.92 160.61 389.20 295.06 445.26 310.69 76.34 410.35 397.90 637.25 738.32 367.70 395.39 472.20 412.31 253.26 417.28 221.61 263.98 398.66 98.68 99.87 443.63 61.03 354.07 385.79 546.54 396.34 75.95 200.99 433.31 644.74 478.58 434.79 401.22 568.10 377.26 312.62 367.46 386.37 613.93 562.20 359.10 378.50 528.57 531.22 202.44 73.35 570.01 383.02 182.18 339.43 356.54 94.16 671.46 581.24 444.82 533.94
693.88 343.10 337.36 439.11 241.75 202.82 171.50 287.93 299.40 832.62 269.15 373.33 395.86 270.15 407.70 263.34 120.51 448.18 185.76 330.25 402.08 666.75 691.25 557.87 348.44 314.52 448.40 558.31 637.48 477.69 443.18 717.39 351.08 196.60 528.36 531.77 417.43 0.00 175.07 220.56 372.92 128.78 220.68 418.46 394.76 164.04 689.74 383.72 203.12 349.82 230.34 350.19 408.45 680.57 644.17 169.26 482.74 100.19 374.00 135.63 323.61 593.58 270.23 351.40 383.29 209.92 369.84 648.61 374.66 791.99 157.43 383.17 216.44 285.10 463.51 817.60 212.51 249.26 312.93 375.52 207.75 177.55 145.24 431.77 535.82 71.77 279.84 236.43 270.59 279.89 385.63 837.26 624.68 277.39 311.05 624.00 332.24 685.05 737.69 677.32 439.45
726.88 502.99 511.53 603.31 104.75 64.07 214.60 450.23 248.29 946.72 396.77 431.21 345.50 353.16 529.91 204.03 74.42 547.86 247.95 505.32 350.97 752.09 749.58 732.94 523.51 445.44 616.13 729.48 752.87 512.14 442.36 748.81 212.33 176.59 645.64 606.28 467.21 175.07 0.00 183.50 537.12 138.50 395.75 414.69 538.60 204.12 762.27 550.14 318.66 524.89 209.33 510.08 379.35 629.46 788.01 127.85 478.97 203.89 519.90 131.07 498.68 731.19 430.12 526.47 558.36 194.04 511.25 731.62 548.16 967.06 188.85 543.16 347.36 438.30 437.71 945.79 161.40 409.15 325.04 535.41 294.55 185.82 209.98 402.67 549.12 246.84 454.91 61.36 223.22 454.96 513.66 993.19 709.90 402.21 470.94 799.07 459.12 716.47 820.70 748.31 388.34
825.55 435.52 557.92 496.54 192.40 147.71 314.35 369.84 359.48 1001.52 402.20 517.36 429.14 431.52 572.52 374.56 123.73 668.74 297.26 550.81 477.63 830.45 817.22 715.92 542.59 494.75 554.06 778.87 642.11 611.00 522.33 832.67 295.97 294.02 708.77 690.14 533.29 220.56 183.50 0.00 469.65 187.81 370.26 532.12 587.91 265.57 802.98 456.84 376.67 570.38 340.89 437.50 492.23 772.93 837.32 137.90 590.69 253.20 510.94 180.38 510.25 709.85 320.71 571.96 603.85 304.81 563.99 809.98 481.50 1012.55 272.71 578.33 396.67 401.16 521.35 986.50 311.16 341.68 408.68 467.94 367.10 243.83 263.80 469.45 654.38 265.92 369.38 149.80 311.66 474.04 579.78 1042.96 838.93 457.62 379.94 748.28 512.47 800.33 899.06 806.32 511.76
965.93 128.40 513.22 66.19 583.45 554.01 544.42 132.86 646.46 889.70 186.32 655.09 767.56 637.06 452.33 636.26 471.70 497.58 539.09 429.63 772.64 852.70 766.01 358.24 412.22 433.80 541.75 510.34 336.74 651.52 711.82 969.73 684.89 568.55 596.58 668.13 443.22 372.92 537.12 469.65 0.00 470.48 152.24 726.22 570.62 536.56 738.28 35.40 570.03 424.58 603.26 110.56 781.37 1053.49 780.92 409.27 790.50 473.11 239.01 490.21 237.20 650.66 148.94 408.48 408.24 582.84 435.84 785.41 99.68 882.61 530.35 440.25 418.92 171.42 836.43 874.68 585.43 127.97 685.85 74.78 577.77 550.47 518.16 804.69 871.20 363.37 112.89 548.36 629.19 275.51 430.26 869.47 800.54 440.27 103.79 466.92 416.08 937.39 940.88 834.85 795.68
674.92 428.81 431.02 498.41 112.97 146.39 136.70 362.81 210.51 877.55 309.35 367.32 342.57 276.28 462.15 189.51 64.08 547.90 110.22 433.50 313.19 675.21 744.84 644.03 446.83 353.78 509.44 624.07 672.51 451.93 405.90 706.87 267.45 174.36 595.03 537.90 455.31 128.78 138.50 187.81 470.48 0.00 349.46 398.16 446.94 152.12 679.01 457.67 214.40 413.93 219.17 438.33 378.60 591.68 694.29 101.41 458.66 65.39 428.24 39.41 452.39 647.12 321.54 436.27 486.54 117.00 425.05 654.74 479.08 907.90 159.26 460.87 255.70 351.37 432.91 862.53 123.62 342.51 278.13 468.77 242.90 130.38 104.73 355.28 495.31 200.55 370.21 156.36 158.71 408.67 466.73 862.45 683.69 295.52 380.77 743.21 361.15 686.88 743.82 658.87 350.56
869.65 122.42 404.60 218.43 462.43 423.50 392.18 67.25 520.08 809.11 48.47 594.01 616.54 490.83 376.64 484.02 341.19 439.52 406.44 346.24 622.76 772.11 670.89 404.82 296.56 301.32 470.44 443.70 416.80 535.86 612.43 903.09 571.76 417.28 490.16 568.74 381.21 220.68 395.75 370.26 152.24 349.46 0.00 639.14 459.25 384.72 650.61 163.04 423.80 329.46 451.02 129.51 629.13 901.25 668.90 309.88 699.65 320.87 220.95 356.31 170.56 570.07 49.55 327.89 361.27 430.60 320.18 720.87 153.98 821.52 378.11 359.66 387.74 86.69 684.19 794.09 433.19 28.58 533.61 154.84 428.43 398.23 365.92 652.45 756.50 254.32 59.16 457.11 491.27 245.90 398.71 813.75 691.92 402.51 90.37 516.45 319.04 870.75 880.02 756.18 660.13
345.96 718.21 402.61 792.41 511.13 478.76 327.27 672.73 350.21 761.29 627.30 166.14 319.74 212.35 470.62 318.94 449.03 574.55 350.59 503.83 152.96 342.76 667.10 734.04 492.57 429.82 403.94 672.22 911.67 359.28 42.81 349.76 507.26 238.10 486.65 337.29 407.92 418.46 414.69 532.12 726.22 398.16 639.14 0.00 375.68 270.66 652.86 717.21 215.34 484.26 275.84 688.72 271.72 385.18 578.94 473.35 64.28 332.77 614.54 413.08 629.53 559.73 647.63 506.60 507.79 306.97 468.95 488.64 725.21 767.27 284.51 483.87 384.74 647.54 236.82 776.31 304.15 626.66 315.32 752.92 279.72 288.29 329.66 248.40 154.28 490.23 613.33 476.05 341.45 544.00 481.27 812.72 459.69 345.10 652.40 764.46 433.12 317.42 450.67 482.76 173.52
543.44 549.28 57.40 613.85 559.91 546.49 444.60 512.74 509.70 531.48 459.28 293.87 523.14 282.42 180.17 488.70 464.18 259.46 345.47 211.88 448.62 497.52 347.18 425.31 162.69 160.68 84.02 352.30 610.81 183.12 332.87 485.16 662.46 426.49 197.52 265.51 160.61 394.76 538.60 587.91 570.62 446.94 459.25 375.68 0.00 395.35 332.94 542.22 297.33 192.31 426.25 479.04 534.23 630.98 249.41 488.47 420.09 416.22 383.81 407.53 333.42 239.81 484.70 194.02 227.40 436.16 186.31 353.33 514.58 508.83 380.08 174.04 228.38 501.30 525.25 516.46 422.81 487.83 577.17 506.28 361.71 394.45 384.99 510.91 529.96 439.36 478.75 558.19 477.72 299.40 202.24 463.38 344.72 186.45 484.42 484.07 175.56 517.50 542.94 379.80 411.25
568.11 500.11 337.95 590.73 262.20 248.16 78.77 422.17 154.71 834.59 425.63 287.18 232.63 165.95 403.34 133.71 178.37 506.26 110.05 447.54 246.01 564.88 715.60 633.43 405.60 287.81 458.41 611.27 718.47 373.49 279.14 575.23 306.35 32.56 522.29 427.57 389.20 164.04 204.12 265.57 536.56 152.12 384.72 270.66 395.35 0.00 678.92 535.47 114.73 428.21 79.43 495.33 266.29 535.88 644.76 225.49 325.12 99.10 474.55 144.55 436.49 607.07 434.27 426.39 448.64 54.43 408.16 544.41 538.70 834.52 15.27 449.45 290.02 383.61 321.35 827.75 67.82 413.30 220.99 539.56 104.27 21.74 61.13 289.61 419.22 235.81 443.88 220.94 150.15 421.62 425.41 789.07 573.36 244.49 432.77 705.31 295.04 542.89 633.49 584.23 283.38
641.65 740.64 375.63 780.12 791.98 825.40 712.28 684.61 802.26 198.54 660.69 579.53 739.47 537.53 347.97 785.47 743.09 350.71 634.81 359.49 755.68 411.43 65.83 494.50 354.05 397.97 248.92 330.26 729.73 329.99 665.81 641.63 913.26 707.37 247.10 454.83 295.06 689.74 762.27 802.98 738.28 679.01 650.61 652.86 332.94 678.92 0.00 729.10 592.60 339.92 681.36 670.40 802.56 798.03 139.32 690.45 717.14 692.97 548.32 712.34 516.67 160.07 676.06 362.26 394.93 715.72 330.43 277.25 680.85 318.55 686.06 371.01 496.05 681.82 849.22 183.52 724.51 679.19 822.40 672.32 607.68 657.18 667.03 810.81 776.82 619.02 673.56 823.63 728.52 490.76 325.90 364.00 263.25 462.84 634.49 532.90 383.88 670.19 434.11 320.83 744.19
962.84 163.80 508.15 86.77 570.64 563.78 553.98 113.30 611.06 888.81 166.76 619.69 748.00 601.66 448.34 636.21 484.72 462.18 540.91 408.75 753.08 851.81 730.61 393.64 379.53 408.50 506.35 527.14 372.14 618.83 724.84 986.53 710.64 566.61 573.13 681.15 445.26 383.72 550.14 456.84 35.40 457.67 163.04 717.21 542.22 535.47 729.10 0.00 534.63 389.18 593.11 75.16 771.22 1043.82 751.87 422.29 781.49 483.91 203.61 497.08 254.00 635.32 136.13 407.59 443.64 571.48 403.15 799.33 99.22 904.96 520.20 436.12 433.79 151.86 826.28 873.79 581.29 140.99 696.65 110.18 572.78 526.35 484.98 772.69 838.51 365.19 103.88 528.80 616.38 242.82 458.71 882.85 795.47 404.87 132.94 502.32 390.78 954.19 955.75 804.80 760.28
523.08 531.42 263.34 577.34 327.37 326.03 193.50 465.42 258.13 728.04 411.96 202.04 347.36 67.03 331.35 226.23 275.35 404.85 135.25 349.86 285.18 463.63 606.84 518.70 337.81 230.95 343.68 534.01 708.63 274.57 258.15 565.10 421.08 147.29 407.56 328.65 310.69 203.12 318.66 376.67 570.03 214.40 423.80 215.34 297.33 114.73 592.60 534.63 0.00 348.72 162.11 543.84 342.90 509.19 546.74 258.01 279.62 149.01 399.20 222.42 449.59 499.47 473.35 369.14 371.38 169.16 330.28 445.49 509.87 775.67 130.00 377.46 190.71 432.20 378.72 713.02 182.55 452.38 279.84 549.03 64.38 132.84 139.00 366.22 369.62 274.89 482.96 315.36 264.88 328.66 353.42 760.71 474.44 129.76 500.68 628.05 217.78 532.76 534.57 520.74 322.55
585.00 419.49 243.68 475.95 526.90 548.38 464.67 383.34 558.81 503.56 377.93 433.78 649.36 372.73 59.16 541.59 466.07 133.97 361.00 19.57 492.06 466.56 341.43 280.28 32.90 140.40 162.94 253.51 439.13 258.44 525.18 643.28 623.44 460.77 222.30 391.88 76.34 349.82 524.89 570.38 424.58 413.93 329.46 484.26 192.31 428.21 339.92 389.18 348.72 0.00 447.84 349.25 601.34 741.38 387.61 447.73 541.04 449.09 226.32 409.42 205.94 264.52 354.91 22.34 72.61 482.64 56.52 430.41 393.25 539.12 443.48 46.94 238.48 416.15 643.43 488.54 495.37 358.04 605.59 378.80 350.11 428.56 423.15 578.02 638.54 309.57 366.10 560.08 572.64 169.61 79.93 493.67 459.36 218.96 327.03 329.28 155.26 613.54 574.47 499.22 529.43
555.12 557.75 368.85 647.87 239.85 273.40 87.37 479.81 120.90 812.47 483.27 278.84 259.03 143.83 432.09 152.31 241.91 515.66 149.91 460.67 179.21 542.76 717.65 680.81 425.23 307.44 454.49 641.39 780.59 351.37 233.03 551.35 334.87 46.87 556.44 405.45 410.35 230.34 209.33 340.89 603.26 219.17 451.02 275.84 426.25 79.43 681.36 593.11 162.11 447.84 0.00 555.54 239.60 479.91 625.41 266.20 320.25 155.84 488.87 185.26 499.55 610.28 500.57 446.02 478.76 102.17 408.94 522.29 599.54 886.49 72.91 462.57 283.48 441.25 249.07 823.83 108.88 479.60 176.10 605.86 97.73 97.06 124.19 235.92 339.79 302.11 510.18 270.69 207.79 381.47 454.16 868.50 551.24 240.57 511.63 725.58 325.16 535.83 611.37 597.54 216.58
918.04 134.11 432.99 143.27 551.30 526.97 521.69 134.79 535.90 828.90 151.28 653.46 715.11 566.47 396.43 613.53 444.66 403.21 485.75 366.03 705.10 791.90 688.09 359.90 316.35 396.30 431.19 462.45 338.40 555.65 675.29 921.84 675.23 527.32 509.95 641.09 397.90 350.19 510.08 437.50 110.56 438.33 129.51 688.72 479.04 495.33 670.40 75.16 543.84 349.25 555.54 0.00 704.97 1008.63 688.69 382.23 753.00 450.38 144.64 463.17 189.31 586.98 116.79 347.68 381.06 549.76 339.97 744.18 44.00 840.27 507.62 379.45 377.69 171.80 758.31 813.88 548.71 100.93 641.33 76.44 544.29 507.75 466.38 697.53 843.00 379.68 75.39 532.73 597.04 252.04 407.15 833.54 720.31 438.64 62.56 468.58 378.58 889.50 899.65 786.86 692.66
416.72 719.67 476.83 842.94 337.45 344.52 298.50 657.92 169.07 863.63 661.38 367.00 63.09 358.83 597.68 237.96 369.04 701.61 368.21 618.12 140.68 614.48 866.70 861.60 568.44 538.35 603.54 838.53 976.63 536.22 261.96 420.52 337.96 286.47 705.80 502.06 637.25 408.45 379.35 492.23 781.37 378.60 629.13 271.72 534.23 266.29 802.56 771.22 342.90 601.34 239.60 704.97 0.00 556.56 765.80 449.51 273.49 357.26 712.55 399.96 693.00 759.33 678.68 599.77 633.15 288.60 576.22 737.29 748.97 1028.03 251.02 629.85 440.27 619.36 100.95 878.65 255.96 657.71 146.02 781.41 337.33 279.90 317.64 23.32 314.77 480.22 688.29 379.50 219.89 621.07 619.75 997.61 723.49 472.66 699.06 889.82 553.20 388.18 701.80 687.48 152.96
156.38 1020.30 667.18 1086.53 677.01 693.53 521.26 954.49 554.95 884.69 901.03 525.72 618.90 442.16 687.04 533.95 655.76 790.97 607.61 750.64 442.42 479.61 849.32 984.42 767.12 674.49 715.00 936.01 1167.39 649.70 427.99 200.72 656.68 526.78 747.97 574.19 738.32 680.57 629.46 772.93 1053.49 591.68 901.25 385.18 630.98 535.88 798.03 1043.82 509.19 741.38 479.91 1008.63 556.56 0.00 658.71 693.09 421.52 590.17 908.39 631.09 868.57 805.69 913.22 750.60 746.15 500.70 749.21 598.87 1019.06 963.07 551.15 733.15 691.78 919.49 481.32 869.67 468.06 929.83 636.86 1020.45 540.00 529.10 570.47 558.95 364.42 752.34 953.77 690.82 571.40 837.85 664.97 928.55 569.92 638.95 968.65 1002.82 692.21 168.38 371.70 542.50 472.13
502.33 757.38 306.81 808.99 807.26 795.90 680.56 679.44 696.11 314.96 678.98 440.21 702.71 481.58 375.66 738.11 713.59 413.95 594.88 393.59 681.82 272.11 192.12 591.94 372.34 410.09 333.43 451.34 789.23 309.88 563.54 537.16 910.08 662.85 239.65 385.71 367.70 644.17 788.01 837.32 780.92 694.29 668.90 578.94 249.41 644.76 139.32 751.87 546.74 387.61 625.41 688.69 765.80 658.71 0.00 737.88 643.22 665.63 576.42 656.94 558.59 299.39 694.35 372.44 422.75 659.77 348.72 141.49 709.72 452.33 629.49 340.67 477.79 718.00 758.45 299.94 672.22 697.48 785.64 723.81 579.42 643.86 634.40 760.32 641.06 646.79 716.20 807.60 727.13 509.05 397.73 418.23 164.28 435.86 677.13 661.53 424.97 530.87 294.79 230.83 644.45
776.33 375.14 472.55 475.46 207.47 162.78 215.88 322.38 311.92 874.90 268.92 460.05 395.24 325.04 458.09 290.92 80.47 557.79 211.63 449.10 414.60 721.64 756.28 657.74 414.83 395.31 562.30 684.92 669.52 511.56 465.53 766.50 311.04 253.54 573.82 586.66 395.39 169.26 127.85 137.90 409.27 101.41 309.88 473.35 488.47 225.49 690.45 422.29 258.01 447.73 266.20 382.23 449.51 693.09 737.88 0.00 518.29 144.57 441.95 80.94 435.23 659.37 302.27 446.16 479.54 218.41 436.23 703.50 426.23 941.93 229.88 471.34 297.23 310.94 503.82 873.97 225.03 281.30 312.31 407.56 302.53 205.73 164.36 426.19 554.94 138.16 335.60 189.21 260.12 346.28 452.02 932.02 732.45 358.18 343.09 690.39 413.03 750.98 792.58 758.11 412.32
281.68 764.91 447.02 856.69 554.62 540.96 391.55 737.01 389.85 766.20 691.58 210.55 321.51 276.63 534.90 363.35 494.00 638.83 414.87 521.47 175.79 381.94 709.01 782.18 534.90 452.54 468.22 736.50 954.00 423.56 87.22 285.48 549.02 302.38 531.06 342.20 472.20 482.74 478.97 590.69 790.50 458.66 699.65 64.28 420.09 325.12 717.14 781.49 279.62 541.04 320.25 753.00 273.49 421.52 643.22 518.29 0.00 397.05 678.82 437.35 693.81 624.01 692.04 542.62 572.07 360.58 511.28 552.80 789.49 813.78 340.39 548.15 449.02 708.73 172.54 781.22 365.36 671.07 359.73 797.33 344.00 346.86 353.93 250.17 148.40 539.77 677.61 526.14 364.28 582.78 545.55 859.23 523.97 409.38 699.95 828.74 434.82 253.14 428.31 521.94 213.16
659.08 443.29 372.15 539.30 178.36 201.33 71.31 388.12 209.00 828.41 369.34 337.70 295.67 216.04 433.83 163.15 129.47 505.22 102.72 430.44 311.68 612.64 707.21 658.06 438.18 331.32 444.05 616.57 727.48 408.39 355.86 663.33 290.88 108.97 556.57 477.66 412.31 100.19 203.89 253.20 473.11 65.39 320.87 332.77 416.22 99.10 692.97 483.91 149.01 449.09 155.84 450.38 357.26 590.17 665.63 144.57 397.05 0.00 474.19 94.38 423.80 581.73 370.42 451.59 471.75 109.73 444.75 594.50 474.85 892.18 106.24 479.94 252.74 385.29 404.91 813.39 122.11 349.45 212.74 475.71 199.36 77.36 61.19 337.14 451.77 171.96 380.03 166.35 199.03 380.08 435.20 854.95 623.45 230.13 411.24 724.19 318.15 633.86 681.09 630.06 349.05
779.12 278.75 326.41 273.91 531.04 522.63 494.75 220.70 596.09 685.20 196.40 548.05 707.18 466.23 267.54 591.74 445.48 258.57 418.97 225.13 668.08 648.20 543.45 215.79 235.31 273.08 371.10 323.53 309.43 457.82 657.35 782.92 669.49 507.11 418.60 583.98 253.26 374.00 519.90 510.94 239.01 428.24 220.95 614.54 383.81 474.55 548.32 203.61 399.20 226.32 488.87 144.64 712.55 908.39 576.42 441.95 678.82 474.19 0.00 388.83 50.39 446.16 190.23 203.98 254.71 493.21 248.62 607.33 188.64 701.35 489.82 235.75 272.28 238.42 737.94 670.18 525.85 211.20 627.82 181.06 458.03 467.12 425.75 724.79 703.09 303.79 220.03 487.65 569.67 107.40 289.61 689.84 613.73 333.23 207.20 355.22 255.36 750.58 756.11 680.28 680.06
698.58 456.08 391.61 537.82 152.38 138.96 152.42 402.22 249.19 875.52 348.76 406.73 364.70 276.26 422.74 220.74 56.65 517.50 149.63 427.02 352.60 664.47 750.85 604.62 409.26 314.37 491.16 648.32 633.10 430.62 384.59 685.56 287.22 174.98 555.62 537.88 417.28 135.63 131.07 180.38 490.21 39.41 356.31 413.08 407.53 144.55 712.34 497.08 222.42 409.42 185.26 463.17 399.96 631.09 656.94 80.94 437.35 94.38 388.83 0.00 439.22 629.36 360.95 405.87 456.60 156.41 385.64 654.72 507.17 916.36 148.94 437.64 216.29 390.78 434.33 860.50 163.03 362.24 304.90 488.50 221.59 124.79 83.42 377.41 474.00 192.69 408.54 150.66 180.84 400.81 427.32 870.91 678.93 277.24 420.18 713.27 332.09 670.04 738.25 677.17 331.38
728.73 286.67 276.02 303.39 565.36 526.43 444.36 208.73 570.95 694.77 219.03 512.49 669.12 462.27 231.64 549.81 444.12 301.30 454.42 225.51 645.41 672.50 547.37 234.26 210.02 322.81 335.85 273.14 359.82 425.55 635.82 732.53 674.69 466.92 379.85 545.23 221.61 323.61 498.68 510.25 237.20 452.39 170.56 629.53 333.42 436.49 516.67 254.00 449.59 205.94 499.55 189.31 693.00 868.57 558.59 435.23 693.81 423.80 50.39 439.22 0.00 470.46 189.54 228.28 216.72 460.76 209.87 575.68 212.02 650.96 441.98 235.40 296.49 247.29 748.06 694.48 484.06 199.14 596.84 172.86 482.24 416.73 375.36 693.12 753.48 354.18 229.72 538.04 576.86 157.79 253.71 696.41 563.34 357.44 248.77 345.89 305.75 700.19 761.56 629.89 682.78
691.70 660.10 282.50 704.83 709.98 732.97 614.94 609.54 695.92 294.82 600.35 518.58 762.95 496.41 260.00 674.92 686.01 228.91 585.28 263.33 688.43 397.36 156.84 456.27 273.51 349.81 155.79 292.03 658.97 297.39 543.95 706.47 820.13 637.50 100.11 453.71 263.98 593.58 731.19 709.85 650.66 647.12 570.07 559.73 239.81 607.07 160.07 635.32 499.47 264.52 610.28 586.98 759.33 805.69 299.39 659.37 624.01 581.73 446.16 629.36 470.46 0.00 589.69 242.18 279.49 606.32 270.09 307.11 630.98 365.05 605.18 273.95 430.66 642.37 765.06 309.84 609.03 568.72 744.07 615.26 559.52 587.31 545.94 736.01 714.01 550.18 585.94 748.08 635.39 410.22 282.07 410.50 278.16 369.71 546.87 443.77 358.14 674.13 476.38 344.71 651.06
862.04 114.81 439.87 176.87 434.51 447.01 441.73 49.13 531.94 834.56 81.49 620.75 664.11 536.69 402.09 511.05 364.70 448.80 431.76 371.69 634.73 793.14 696.34 395.21 322.01 350.87 495.89 462.68 409.19 561.31 604.82 920.32 588.99 466.83 489.58 561.13 398.66 270.23 430.12 320.71 148.94 321.54 49.55 647.63 484.70 434.27 676.06 136.13 473.35 354.91 500.57 116.79 678.68 913.22 694.35 302.27 692.04 370.42 190.23 360.95 189.54 589.69 0.00 353.34 376.04 438.54 345.63 740.85 160.79 840.50 427.66 372.41 369.62 80.45 733.74 819.54 445.16 20.97 583.16 147.23 438.85 426.53 385.16 676.82 775.74 293.78 48.67 457.39 480.25 295.45 424.16 839.20 727.19 430.57 59.23 535.43 351.86 889.73 874.32 753.22 672.10
607.34 417.92 241.86 462.65 549.24 544.83 449.50 367.36 563.21 481.22 376.36 415.76 628.83 370.91 63.56 559.44 462.52 111.63 362.58 21.15 490.49 444.22 363.77 281.86 31.33 138.58 167.12 266.25 416.79 253.84 526.89 665.62 625.02 458.95 224.93 390.31 98.68 351.40 526.47 571.96 408.48 436.27 327.89 506.60 194.02 426.39 362.26 407.59 369.14 22.34 446.02 347.68 599.77 750.60 372.44 446.16 542.62 451.59 203.98 405.87 228.28 242.18 353.34 0.00 50.73 480.82 54.95 452.75 391.68 531.31 441.66 31.77 236.66 405.92 641.86 466.20 493.55 356.47 601.98 373.08 348.29 426.99 423.04 576.45 660.88 308.00 343.76 556.53 576.54 168.04 85.63 485.86 481.70 239.38 304.69 307.40 153.69 635.88 552.13 477.34 527.86
657.61 448.91 248.91 474.43 599.51 586.11 458.60 406.73 558.76 530.72 409.74 365.03 679.56 348.26 59.11 560.12 503.80 113.37 394.47 53.04 523.87 494.95 398.25 313.75 64.71 171.32 163.32 280.90 467.52 304.01 488.36 708.05 656.91 477.09 222.25 423.69 99.87 383.29 558.36 603.85 408.24 486.54 361.27 507.79 227.40 448.64 394.93 443.64 371.38 72.61 478.76 381.06 633.15 746.15 422.75 479.54 572.07 471.75 254.71 456.60 216.72 279.49 376.04 50.73 0.00 485.34 88.33 453.94 425.06 582.04 455.78 82.08 265.56 368.17 659.95 516.93 494.23 355.07 611.08 389.58 381.03 426.90 445.81 609.83 610.98 341.38 394.49 607.26 590.66 201.42 81.18 536.59 482.89 241.62 355.42 256.67 153.60 675.71 597.41 426.61 561.24
598.12 524.18 378.76 615.41 229.97 228.81 39.83 458.18 119.53 846.83 404.72 306.22 249.49 178.19 426.23 98.53 181.08 530.16 164.48 489.83 222.21 577.12 726.26 653.75 460.03 342.24 505.47 665.70 772.90 385.73 333.57 616.04 260.20 68.87 506.21 439.81 443.63 209.92 194.04 304.81 582.84 117.00 430.60 306.97 436.16 54.43 715.72 571.48 169.16 482.64 102.17 549.76 288.60 500.70 659.77 218.41 360.58 109.73 493.21 156.41 460.76 606.32 438.54 480.82 485.34 0.00 456.93 556.65 574.45 874.32 56.08 457.56 303.92 424.42 341.94 861.85 32.64 459.18 166.56 585.44 145.72 76.17 102.12 268.95 441.96 281.69 487.21 255.40 126.79 385.81 404.16 843.50 585.60 298.92 487.20 729.92 349.47 583.70 645.73 631.90 259.58
641.52 410.21 230.82 460.27 538.02 524.60 452.79 354.18 529.84 528.97 330.26 430.94 624.24 361.82 74.49 519.64 442.29 148.67 385.03 73.30 435.54 499.17 369.40 304.90 23.62 129.49 178.70 293.71 442.72 215.68 511.76 666.96 672.29 429.17 169.98 335.36 61.03 369.84 511.25 563.99 435.84 425.05 320.18 468.95 186.31 408.16 330.43 403.15 330.28 56.52 408.94 339.97 576.22 749.21 348.72 436.23 511.28 444.75 248.62 385.64 209.87 270.09 345.63 54.95 88.33 456.93 0.00 415.10 361.00 538.09 415.30 53.63 192.01 372.28 586.91 513.95 453.75 348.76 566.69 382.73 311.21 386.42 426.31 552.90 623.23 298.07 379.34 536.30 550.18 160.33 84.24 540.81 438.87 222.12 345.35 345.00 134.10 634.62 607.08 495.50 472.91
510.65 798.86 316.27 839.13 731.33 757.93 596.48 739.50 637.40 290.18 686.04 513.47 777.04 378.46 416.77 655.18 711.37 464.19 544.52 446.10 596.61 184.64 333.61 654.90 438.72 419.55 321.90 490.66 857.82 379.72 531.45 484.62 816.85 559.73 289.89 250.38 354.07 648.61 731.62 809.98 785.41 654.74 720.87 488.64 353.33 544.41 277.25 799.33 445.49 430.41 522.29 744.18 737.29 598.87 141.49 703.50 552.80 594.50 607.33 654.72 575.68 307.11 740.85 452.75 453.94 556.65 415.10 0.00 739.86 364.20 559.68 429.40 491.59 723.19 690.15 305.20 589.29 743.41 698.39 731.33 476.30 566.15 571.30 713.97 499.57 700.09 720.69 760.85 683.44 556.51 427.42 409.65 28.95 431.91 681.62 710.61 437.27 482.11 227.17 90.75 612.33
940.75 175.38 476.99 99.27 592.05 556.05 546.16 178.79 579.90 865.30 169.73 697.46 759.11 576.90 385.22 638.00 473.74 447.21 529.75 410.03 749.10 835.90 730.40 322.62 360.35 435.77 475.19 485.16 301.12 576.68 719.29 944.55 704.31 571.26 530.98 685.09 385.79 374.66 548.16 481.50 99.68 479.08 153.98 725.21 514.58 538.70 680.85 99.22 509.87 393.25 599.54 44.00 748.97 1019.06 709.72 426.23 789.49 474.85 188.64 507.17 212.02 630.98 160.79 391.68 425.06 574.45 361.00 739.86 0.00 862.98 532.09 377.48 421.69 211.75 802.31 857.88 587.17 144.93 685.33 39.16 574.25 551.75 510.38 741.53 879.49 408.30 119.39 571.49 637.79 296.04 363.15 833.85 764.31 482.64 106.56 431.30 422.58 912.21 943.65 808.66 736.66
817.62 917.26 566.23 880.78 1020.87 994.81 913.29 859.69 963.92 164.40 868.35 750.51 1031.97 742.66 531.25 942.92 912.50 542.41 797.68 552.46 920.23 548.84 260.21 542.06 561.71 625.37 499.99 377.82 782.06 633.92 810.08 848.82 1134.52 867.08 368.11 588.40 546.54 791.99 967.06 1012.55 882.61 907.90 821.52 767.27 508.83 834.52 318.55 904.96 775.67 539.12 886.49 840.27 1028.03 963.07 452.33 941.93 813.78 892.18 701.35 916.36 650.96 365.05 840.50 531.31 582.04 874.32 538.09 364.20 862.98 0.00 849.79 563.08 723.45 898.25 986.32 179.42 877.03 836.72 1040.88 823.82 835.08 856.26 876.74 1015.67 863.77 836.16 812.38 1028.42 979.59 698.42 553.32 45.45 393.15 695.28 836.00 537.58 607.65 846.16 591.37 454.95 920.08
552.84 484.84 322.68 591.92 269.34 242.68 64.52 406.90 169.98 841.43 410.36 301.03 247.90 181.22 413.02 129.88 193.64 513.40 117.19 458.62 252.12 580.15 712.55 648.70 420.87 303.08 449.39 618.41 725.61 388.76 294.41 559.96 316.28 46.41 537.56 417.43 396.34 157.43 188.85 272.71 530.35 159.26 378.11 284.51 380.08 15.27 686.06 520.20 130.00 443.48 72.91 507.62 251.02 551.15 629.49 229.88 340.39 106.24 489.82 148.94 441.98 605.18 427.66 441.66 455.78 56.08 415.30 559.68 532.09 849.79 0.00 459.13 305.29 368.34 306.08 843.02 83.09 406.69 217.00 532.95 119.54 28.88 66.62 274.34 412.70 229.20 437.27 228.08 134.88 428.76 435.09 804.34 588.63 259.76 448.04 712.45 302.18 527.62 648.76 591.37 289.49
631.94 449.69 231.44 476.75 573.84 576.60 417.73 399.13 545.76 512.99 383.89 447.11 653.14 402.68 46.11 536.82 494.29 95.04 394.35 52.92 489.17 475.99 379.92 251.27 63.10 170.35 150.32 273.83 448.56 222.07 506.91 659.20 656.79 480.44 209.25 378.39 75.95 383.17 543.16 578.33 440.25 460.87 359.66 483.87 174.04 449.45 371.01 436.12 377.46 46.94 462.57 379.45 629.85 733.15 340.67 471.34 548.15 479.94 235.75 437.64 235.40 273.95 372.41 31.77 82.08 457.56 53.63 429.40 377.48 563.08 459.13 0.00 242.16 425.91 640.54 497.97 470.93 388.24 570.21 383.14 364.84 430.25 454.00 606.53 638.15 339.77 375.53 588.30 564.89 199.81 68.18 517.63 458.35 249.81 336.46 320.86 170.11 660.48 583.90 508.69 526.54
705.67 398.43 175.32 473.09 368.67 355.25 324.05 320.49 404.38 659.23 373.95 275.77 501.56 249.62 206.45 347.58 272.94 310.38 293.42 257.81 412.33 591.65 538.03 488.07 215.63 98.08 274.87 432.03 581.71 303.96 399.10 706.35 480.28 303.71 361.99 434.97 200.99 216.44 347.36 396.67 418.92 255.70 387.74 384.74 228.38 290.02 496.05 433.79 190.71 238.48 283.48 377.69 440.27 691.78 477.79 297.23 449.02 252.74 272.28 216.29 296.49 430.66 369.62 236.66 265.56 303.92 192.01 491.59 421.69 723.45 305.29 242.16 0.00 359.05 530.36 644.21 331.01 376.92 441.23 453.34 185.75 306.51 265.14 463.59 521.72 215.95 354.20 366.95 397.13 248.65 228.52 678.00 462.64 60.95 315.13 522.23 115.80 682.69 521.96 460.88 416.36
921.18 116.50 491.29 223.58 420.33 411.92 432.86 38.56 538.32 880.36 42.02 540.30 596.14 499.23 427.28 498.22 391.41 452.82 389.05 412.70 601.22 850.14 737.70 444.50 383.25 388.01 531.49 520.43 431.92 587.96 662.75 882.75 558.78 414.75 542.26 633.67 433.31 285.10 438.30 401.16 171.42 351.37 86.69 647.54 501.30 383.61 681.82 151.86 432.20 416.15 441.25 171.80 619.36 919.49 718.00 310.94 708.73 385.29 238.42 390.78 247.29 642.37 80.45 405.92 368.17 424.42 372.28 723.19 211.75 898.25 368.34 425.91 359.05 0.00 674.42 865.34 451.43 93.51 585.34 219.77 456.57 397.22 399.17 642.68 781.04 213.33 97.96 376.94 503.22 326.37 449.35 891.78 694.24 420.00 127.55 559.49 401.15 895.96 881.01 760.79 638.59
433.34 790.92 531.14 896.94 382.08 373.64 336.44 712.98 222.41 938.74 716.44 368.04 148.97 311.69 631.59 258.66 423.35 735.52 377.44 660.21 151.37 554.48 872.43 891.81 610.53 544.02 609.27 868.28 1029.63 519.23 244.71 437.14 393.97 295.94 688.55 514.74 644.74 463.51 437.71 521.35 836.43 432.91 684.19 236.82 525.25 321.35 849.22 826.28 378.72 643.43 249.07 758.31 100.95 481.32 758.45 503.82 172.54 404.91 737.94 434.33 748.06 765.06 733.74 641.86 659.95 341.94 586.91 690.15 802.31 986.32 306.08 640.54 530.36 674.42 0.00 953.76 309.30 712.77 202.03 834.75 346.80 334.96 372.70 77.63 245.33 535.28 743.35 408.62 274.20 630.54 643.33 988.63 696.51 469.41 754.12 916.62 557.43 404.80 600.85 672.78 114.00
786.86 884.12 559.15 928.85 975.50 974.48 856.45 833.56 942.60 15.02 842.56 706.94 922.99 683.66 528.61 905.89 917.15 534.23 815.73 487.35 901.81 475.68 249.35 600.89 497.53 581.49 432.44 436.65 847.91 476.85 747.16 789.16 1091.22 860.31 409.95 439.02 478.58 817.60 945.79 986.50 874.68 862.53 794.09 776.31 516.46 827.75 183.52 873.79 713.02 488.54 823.83 813.88 878.65 869.67 299.94 873.97 781.22 813.39 670.18 860.50 694.48 309.84 819.54 466.20 516.93 861.85 513.95 305.20 857.88 179.42 843.02 497.97 644.21 865.34 953.76 0.00 894.49 822.67 992.86 839.28 777.40 828.82 787.45 901.97 804.77 774.20 809.96 975.94 912.04 634.24 509.42 202.39 334.15 583.26 770.89 670.97 567.40 758.32 532.37 395.95 867.10
565.48 552.43 365.41 622.03 208.95 225.47 53.20 486.43 86.89 879.47 432.97 319.59 219.23 210.83 451.47 65.89 187.70 551.85 139.55 480.98 189.57 609.76 728.97 686.39 462.99 354.97 492.12 653.40 764.06 418.37 312.18 601.90 292.84 66.05 508.92 472.45 434.79 212.51 161.40 311.16 585.43 123.62 433.19 304.15 422.81 67.82 724.51 581.29 182.55 495.37 108.88 548.71 255.96 468.06 672.22 225.03 365.36 122.11 525.85 163.03 484.06 609.03 445.16 493.55 494.23 32.64 453.75 589.29 587.17 877.03 83.09 470.93 331.01 451.43 309.30 894.49 0.00 461.77 172.99 585.67 145.26 67.33 108.70 248.52 448.67 284.28 492.35 222.76 123.51 418.45 436.80 856.89 618.24 312.31 500.59 750.90 340.63 569.56 662.98 629.82 226.94
841.07 93.84 433.18 194.16 455.48 426.04 420.76 70.10 548.66 837.69 60.52 622.59 645.12 519.41 405.22 512.60 343.73 468.10 435.02 374.82 651.34 772.17 688.66 409.72 325.14 329.90 499.02 472.28 388.22 564.44 583.85 899.35 574.30 445.86 468.61 540.16 401.22 249.26 409.15 341.68 127.97 342.51 28.58 626.66 487.83 413.30 679.19 140.99 452.38 358.04 479.60 100.93 657.71 929.83 697.48 281.30 671.07 349.45 211.20 362.24 199.14 568.72 20.97 356.47 355.07 459.18 348.76 743.41 144.93 836.72 406.69 388.24 376.92 93.51 712.77 822.67 461.77 0.00 562.19 126.26 449.80 426.81 394.50 681.03 780.94 278.75 67.98 460.26 501.22 274.48 427.29 842.33 717.61 431.09 61.79 518.40 347.62 869.61 853.35 732.25 688.71
562.74 656.03 538.40 752.04 304.73 260.97 152.48 600.86 105.43 988.57 571.28 361.33 82.93 319.93 589.84 193.40 341.18 665.25 282.14 623.13 194.44 641.81 851.44 798.54 582.98 465.19 588.28 795.99 919.73 527.47 272.51 566.54 191.94 206.65 672.77 580.65 568.10 312.93 325.04 408.68 685.85 278.13 533.61 315.32 577.17 220.99 822.40 696.65 279.84 605.59 176.10 641.33 146.02 636.86 785.64 312.31 359.73 212.74 627.82 304.90 596.84 744.07 583.16 601.98 611.08 166.56 566.69 698.39 685.33 1040.88 217.00 570.21 441.23 585.34 202.03 992.86 172.99 562.19 0.00 688.45 255.48 223.00 221.48 124.40 447.36 384.70 592.77 292.18 130.32 552.37 570.72 1010.06 727.34 409.60 623.98 867.75 482.91 534.20 749.72 769.20 231.81
901.59 160.95 448.88 138.43 575.72 552.30 547.02 196.36 612.34 854.30 186.78 685.35 771.38 616.06 377.55 638.86 469.99 423.96 552.12 381.53 775.24 817.30 708.84 283.46 382.88 396.61 475.57 446.00 261.96 598.41 710.11 905.39 700.56 568.53 540.69 666.42 377.26 375.52 535.41 467.94 74.78 468.77 154.84 752.92 506.28 539.56 672.32 110.18 549.03 378.80 605.86 76.44 781.41 1020.45 723.81 407.56 797.33 475.71 181.06 488.50 172.86 615.26 147.23 373.08 389.58 585.44 382.73 731.33 39.16 823.82 532.95 383.14 453.34 219.77 834.75 839.28 585.67 126.26 688.45 0.00 576.06 518.34 520.76 773.97 884.15 376.40 151.83 532.33 627.48 288.46 355.48 794.69 736.20 497.80 139.00 392.14 414.33 873.05 925.21 800.99 769.10
548.09 543.64 312.99 615.72 326.32 281.63 141.58 487.98 218.63 766.48 476.34 232.85 315.81 97.84 334.36 211.15 260.45 438.29 137.04 369.44 226.58 496.77 666.89 583.08 327.50 209.71 403.73 543.66 753.93 305.38 322.53 551.89 405.92 117.96 471.94 345.93 312.62 207.75 294.55 367.10 577.77 242.90 428.43 279.72 361.71 104.27 607.68 572.78 64.38 350.11 97.73 544.29 337.33 540.00 579.42 302.53 344.00 199.36 458.03 221.59 482.24 559.52 438.85 348.29 381.03 145.72 311.21 476.30 574.25 835.08 119.54 364.84 185.75 456.57 346.80 777.40 145.26 449.80 255.48 576.06 0.00 126.01 138.17 324.69 343.58 243.24 468.90 313.08 254.42 375.39 356.43 789.63 505.25 194.14 498.08 637.70 227.43 519.55 565.38 519.66 263.95
581.72 491.20 337.05 603.40 240.46 228.40 70.52 435.78 154.22 843.84 417.04 297.88 254.37 187.69 384.14 133.22 172.06 484.52 88.31 429.74 256.90 586.62 693.86 650.99 395.66 291.02 459.48 589.53 696.73 388.57 278.50 588.84 328.09 50.19 540.40 446.31 367.46 177.55 185.82 243.83 550.47 130.38 398.23 288.29 394.45 21.74 657.18 526.35 132.84 428.56 97.06 507.75 279.90 529.10 643.86 205.73 346.86 77.36 467.12 124.79 416.73 587.31 426.53 426.99 426.90 76.17 386.42 566.15 551.75 856.26 28.88 430.25 306.51 397.22 334.96 828.82 67.33 426.81 223.00 518.34 126.01 0.00 41.37 303.22 431.95 227.21 457.39 199.20 163.76 399.88 406.21 810.81 595.10 245.56 454.51 683.57 273.30 556.50 655.23 562.49 294.27
615.16 488.34 346.21 562.03 217.70 187.03 69.00 433.17 195.59 802.47 391.44 327.85 293.76 192.84 407.89 174.45 140.07 479.28 79.06 420.49 271.16 581.05 681.27 609.62 412.24 305.38 418.11 592.91 716.52 347.20 301.17 602.14 335.29 91.56 546.56 454.46 386.37 145.24 209.98 263.80 518.16 104.73 365.92 329.66 384.99 61.13 667.03 484.98 139.00 423.15 124.19 466.38 317.64 570.47 634.40 164.36 353.93 61.19 425.75 83.42 375.36 545.94 385.16 423.04 445.81 102.12 426.31 571.30 510.38 876.74 66.62 454.00 265.14 399.17 372.70 787.45 108.70 394.50 221.48 520.76 138.17 41.37 0.00 317.76 390.58 185.84 425.08 222.01 201.50 390.63 405.83 831.29 600.25 204.19 421.08 702.48 292.21 586.62 660.38 603.86 308.53
440.04 727.92 453.51 840.80 314.13 352.77 276.88 681.24 161.63 886.95 664.63 390.32 71.34 335.51 574.36 246.21 345.72 678.29 360.77 594.80 117.36 591.16 843.38 844.08 545.12 534.40 580.22 815.21 993.24 512.90 281.22 443.84 316.34 282.79 703.23 525.38 613.93 431.77 402.67 469.45 804.69 355.28 652.45 248.40 510.91 289.61 810.81 772.69 366.22 578.02 235.92 697.53 23.32 558.95 760.32 426.19 250.17 337.14 724.79 377.41 693.12 736.01 676.82 576.45 609.83 268.95 552.90 713.97 741.53 1015.67 274.34 606.53 463.59 642.68 77.63 901.97 248.52 681.03 124.40 773.97 324.69 303.22 317.76 0.00 322.96 503.54 711.61 357.52 196.57 617.39 596.43 974.29 708.09 476.49 722.38 866.50 552.12 411.50 678.48 664.16 154.73
224.58 845.57 482.42 925.28 579.64 577.61 427.16 819.60 460.69 789.75 781.58 245.95 377.86 366.63 598.76 457.49 530.65 702.69 469.64 658.11 307.24 497.04 734.19 888.32 642.05 553.29 558.22 746.50 1012.52 513.18 197.09 211.56 579.15 386.66 640.93 404.71 562.20 535.82 549.12 654.38 871.20 495.31 756.50 154.28 529.96 419.22 776.82 838.51 369.62 638.54 339.79 843.00 314.77 364.42 641.06 554.94 148.40 451.77 703.09 474.00 753.48 714.01 775.74 660.88 610.98 441.96 623.23 499.57 879.49 863.77 412.70 638.15 521.72 781.04 245.33 804.77 448.67 780.94 447.36 884.15 343.58 431.95 390.58 322.96 0.00 576.42 767.61 556.27 394.41 595.69 620.83 909.22 521.75 460.77 806.68 867.65 548.79 196.04 520.08 588.30 296.54
740.42 329.83 391.27 429.56 313.52 274.59 243.27 251.89 354.91 789.22 255.35 432.25 467.63 321.63 335.93 335.11 192.28 419.63 175.72 326.35 457.00 720.56 651.00 519.58 276.67 314.03 440.14 546.76 613.22 513.75 487.01 787.98 422.85 268.37 468.05 583.25 359.10 71.77 246.84 265.92 363.37 200.55 254.32 490.23 439.36 235.81 619.02 365.19 274.89 309.57 302.11 379.68 480.22 752.34 646.79 138.16 539.77 171.96 303.79 192.69 354.18 550.18 293.78 308.00 341.38 281.69 298.07 700.09 408.30 836.16 229.20 339.77 215.95 213.33 535.28 774.20 284.28 278.75 384.70 376.40 243.24 227.21 185.84 503.54 576.42 0.00 311.29 308.20 342.36 208.12 313.86 793.86 678.59 276.90 331.03 552.23 331.75 756.82 737.91 676.83 494.37
909.05 104.88 424.19 179.08 483.18 482.66 451.34 59.40 579.24 824.98 84.39 606.03 675.70 549.99 407.32 543.18 400.35 419.00 465.60 364.91 681.92 787.98 703.88 346.54 355.72 320.91 506.58 434.56 413.79 587.18 651.80 962.25 630.92 476.44 536.59 608.14 378.50 279.84 454.91 369.38 112.89 370.21 59.16 613.33 478.75 443.88 673.56 103.88 482.96 366.10 510.18 75.39 688.29 953.77 716.20 335.60 677.61 380.03 220.03 408.54 229.72 585.94 48.67 343.76 394.49 487.21 379.34 720.69 119.39 812.38 437.27 375.53 354.20 97.96 743.35 809.96 492.35 67.98 592.77 151.83 468.90 457.39 425.08 711.61 767.61 311.29 0.00 457.34 528.92 294.08 429.39 829.62 711.51 391.21 39.07 520.39 303.19 929.91 876.16 778.06 719.29
717.45 493.44 534.70 600.52 43.39 34.98 234.56 415.50 266.38 990.96 418.96 492.57 316.41 382.39 573.40 224.94 116.53 609.22 253.66 566.68 350.35 778.99 810.94 703.44 559.92 465.03 606.60 767.51 783.76 569.21 451.29 762.68 181.84 237.95 706.28 644.01 528.57 236.43 61.36 149.80 548.36 156.36 457.11 476.05 558.19 220.94 823.63 528.80 315.36 560.08 270.69 532.73 379.50 690.82 807.60 189.21 526.14 166.35 487.65 150.66 538.04 748.08 457.39 556.53 607.26 255.40 536.30 760.85 571.49 1028.42 228.08 588.30 366.95 376.94 408.62 975.94 222.76 460.26 292.18 532.33 313.08 199.20 222.01 357.52 556.27 308.20 457.34 0.00 161.86 488.12 575.02 1005.89 771.26 392.68 486.01 827.01 472.50 730.34 844.34 761.69 387.72
555.59 587.52 420.32 657.12 200.00 196.84 147.16 521.52 129.47 927.06 468.06 384.73 183.86 304.98 547.90 63.08 222.79 648.28 252.07 586.03 188.49 677.78 742.76 780.54 555.75 437.96 479.60 747.88 813.94 512.52 339.21 600.82 184.74 181.29 632.43 552.31 531.22 270.59 223.22 311.66 629.19 158.71 491.27 341.45 477.72 150.15 728.52 616.38 264.88 572.64 207.79 597.04 219.89 571.40 727.13 260.12 364.28 199.03 569.67 180.84 576.86 635.39 480.25 576.54 590.66 126.79 550.18 683.44 637.79 979.59 134.88 564.89 397.13 503.22 274.20 912.04 123.51 501.22 130.32 627.48 254.42 163.76 201.50 196.57 394.41 342.36 528.92 161.86 0.00 512.60 530.95 939.22 707.64 385.71 539.48 847.33 437.06 568.48 756.94 726.25 225.86
754.61 249.88 268.96 329.59 444.73 482.71 425.64 297.08 502.37 649.26 284.35 450.80 632.68 395.69 207.40 484.34 400.40 279.67 311.57 184.67 560.68 612.26 511.04 323.19 136.71 165.68 310.59 363.96 416.83 376.01 574.13 747.91 599.21 422.22 330.31 495.69 202.44 279.89 454.96 474.04 275.51 408.67 245.90 544.00 299.40 421.62 490.76 242.82 328.66 169.61 381.47 252.04 621.07 837.85 509.05 346.28 582.78 380.08 107.40 400.81 157.79 410.22 295.45 168.04 201.42 385.81 160.33 556.51 296.04 698.42 428.76 199.81 248.65 326.37 630.54 634.24 418.45 274.48 552.37 288.46 375.39 399.88 390.63 617.39 595.69 208.12 294.08 488.12 512.60 0.00 215.89 653.90 556.28 235.98 255.01 344.11 147.96 747.71 720.17 622.83 572.66
635.56 461.90 167.73 462.42 579.70 566.28 443.99 438.42 521.72 524.44 414.50 404.20 653.65 379.05 22.07 502.69 483.97 126.00 379.72 85.67 519.78 529.85 389.44 319.45 102.15 146.72 126.28 271.04 502.42 267.88 524.08 639.36 664.36 456.40 185.21 419.60 73.35 385.63 513.66 579.78 430.26 466.73 398.71 481.27 202.24 425.41 325.90 458.71 353.42 79.93 454.16 407.15 619.75 664.97 397.73 452.02 545.55 435.20 289.61 427.32 253.71 282.07 424.16 85.63 81.18 404.16 84.24 427.42 363.15 553.32 435.09 68.18 228.52 449.35 643.33 509.42 436.80 427.29 570.72 355.48 356.43 406.21 405.83 596.43 620.83 313.86 429.39 575.02 530.95 215.89 0.00 571.49 455.05 225.77 390.32 337.85 146.14 607.02 616.31 445.51 557.15
772.17 903.78 520.78 926.23 975.42 1008.07 867.84 853.22 943.78 187.37 862.22 757.25 986.52 745.80 549.42 922.78 925.76 587.86 752.23 507.01 912.00 594.29 305.66 511.23 517.19 579.92 488.90 423.27 736.61 630.50 796.25 830.45 1095.42 821.63 413.56 611.37 570.01 837.26 993.19 1042.96 869.47 862.45 813.75 812.72 463.38 789.07 364.00 882.85 760.71 493.67 868.50 833.54 997.61 928.55 418.23 932.02 859.23 854.95 689.84 870.91 696.41 410.50 839.20 485.86 536.59 843.50 540.81 409.65 833.85 45.45 804.34 517.63 678.00 891.78 988.63 202.39 856.89 842.33 1010.06 794.69 789.63 810.81 831.29 974.29 909.22 793.86 829.62 1005.89 939.22 653.90 571.49 0.00 438.60 649.83 790.55 492.13 562.20 800.71 636.82 494.85 874.63
481.70 776.55 287.32 858.06 760.28 773.97 625.43 710.55 666.35 319.13 657.09 489.35 779.43 407.41 445.72 684.13 735.58 493.14 573.47 475.05 612.65 206.55 329.08 683.85 462.49 390.60 350.85 519.61 881.59 350.77 502.50 460.42 845.80 588.68 318.84 221.43 383.02 624.68 709.90 838.93 800.54 683.69 691.92 459.69 344.72 573.36 263.25 795.47 474.44 459.36 551.24 720.31 723.49 569.92 164.28 732.45 523.97 623.45 613.73 678.93 563.34 278.16 727.19 481.70 482.89 585.60 438.87 28.95 764.31 393.15 588.63 458.35 462.64 694.24 696.51 334.15 618.24 717.61 727.34 736.20 505.25 595.10 600.25 708.09 521.75 678.59 711.51 771.26 707.64 556.28 455.05 438.60 0.00 429.34 710.57 681.66 408.32 453.16 198.22 66.55 625.33
652.84 459.38 142.02 491.64 408.49 391.22 273.19 381.44 361.47 598.28 417.50 214.82 477.12 196.79 203.70 322.63 333.89 275.09 232.47 220.10 392.78 539.93 477.08 480.81 208.05 101.19 213.92 404.25 642.66 243.01 338.15 645.40 521.01 277.05 355.83 374.02 182.18 277.39 402.21 457.62 440.27 295.52 402.51 345.10 186.45 244.49 462.84 404.87 129.76 218.96 240.57 438.64 472.66 638.95 435.86 358.18 409.38 230.13 333.23 277.24 357.44 369.71 430.57 239.38 241.62 298.92 222.12 431.91 482.64 695.28 259.76 249.81 60.95 420.00 469.41 583.26 312.31 431.09 409.60 497.80 194.14 245.56 204.19 476.49 460.77 276.90 391.21 392.68 385.71 235.98 225.77 649.83 429.34 0.00 376.08 498.29 88.02 635.90 570.73 399.93 355.41
902.86 117.24 463.26 157.96 493.74 487.83 482.55 88.99 587.48 785.91 88.72 590.90 665.40 564.75 368.25 558.17 405.52 416.32 490.99 325.84 678.78 748.91 668.46 385.61 321.73 359.98 471.81 473.63 400.96 558.53 612.73 961.14 636.09 464.76 515.33 601.95 339.43 311.05 470.94 379.94 103.79 380.77 90.37 652.40 484.42 432.77 634.49 132.94 500.68 327.03 511.63 62.56 699.06 968.65 677.13 343.09 699.95 411.24 207.20 420.18 248.77 546.87 59.23 304.69 355.42 487.20 345.35 681.62 106.56 836.00 448.04 336.46 315.13 127.55 754.12 770.89 500.59 61.79 623.98 139.00 498.08 454.51 421.08 722.38 806.68 331.03 39.07 486.01 539.48 255.01 390.32 790.55 710.57 376.08 0.00 481.32 342.26 931.40 837.09 772.37 716.15
914.28 553.09 505.58 479.42 788.84 792.03 715.27 554.62 815.43 655.95 551.62 621.70 936.23 604.93 315.78 816.79 744.51 370.04 651.14 309.71 780.54 751.62 533.07 197.05 321.38 427.99 419.99 234.32 244.48 542.93 745.03 964.72 913.58 733.76 446.01 680.36 356.54 624.00 799.07 748.28 466.92 743.21 516.45 764.46 484.07 705.31 532.90 502.32 628.05 329.28 725.58 468.58 889.82 1002.82 661.53 690.39 828.74 724.19 355.22 713.27 345.89 443.77 535.43 307.40 256.67 729.92 345.00 710.61 431.30 537.58 712.45 320.86 522.23 559.49 916.62 670.97 750.90 518.40 867.75 392.14 637.70 683.57 702.48 866.50 867.65 552.23 520.39 827.01 847.33 344.11 337.85 492.13 681.66 498.29 481.32 0.00 410.27 932.38 854.08 683.28 817.91
630.74 397.84 121.00 449.74 474.12 471.05 343.82 362.59 427.52 573.67 367.51 302.84 527.67 250.05 142.37 406.52 388.74 211.22 250.93 172.04 454.01 511.29 449.71 421.32 122.36 17.72 211.74 316.23 564.79 283.99 426.17 660.72 596.08 323.49 267.81 404.23 94.16 332.24 459.12 512.47 416.08 361.15 319.04 433.12 175.56 295.04 383.88 390.78 217.78 155.26 325.16 378.58 553.20 692.21 424.97 413.03 434.82 318.15 255.36 332.09 305.75 358.14 351.86 153.69 153.60 349.47 134.10 437.27 422.58 607.65 302.18 170.11 115.80 401.15 557.43 567.40 340.63 347.62 482.91 414.33 227.43 273.30 292.21 552.12 548.79 331.75 303.19 472.50 437.06 147.96 146.14 562.20 408.32 88.02 342.26 410.27 0.00 659.28 606.54 474.87 443.43
28.54 963.45 574.90 1003.58 725.63 732.70 592.14 908.92 557.25 743.30 919.22 421.08 451.27 484.59 629.09 616.49 721.26 733.02 593.24 633.11 379.99 345.82 722.99 893.82 611.00 677.00 601.52 831.82 1052.67 545.16 340.36 32.34 726.14 555.52 620.13 405.81 671.46 685.05 716.47 800.33 937.39 686.88 870.75 317.42 517.50 542.89 670.19 954.19 532.76 613.54 535.83 889.50 388.18 168.38 530.87 750.98 253.14 633.86 750.58 670.04 700.19 674.13 889.73 635.88 675.71 583.70 634.62 482.11 912.21 846.16 527.62 660.48 682.69 895.96 404.80 758.32 569.56 869.61 534.20 873.05 519.55 556.50 586.62 411.50 196.04 756.82 929.91 730.34 568.48 747.71 607.02 800.71 453.16 635.90 931.40 932.38 659.28 0.00 324.04 426.21 417.36
295.50 920.39 485.54 995.05 820.41 847.01 609.78 842.45 678.98 517.35 855.31 423.08 749.82 467.54 615.69 728.87 794.90 663.76 633.60 573.28 603.63 107.91 477.62 833.99 583.46 588.82 549.07 708.01 968.92 449.89 477.21 353.78 892.95 648.81 496.32 313.19 581.24 737.69 820.70 899.06 940.88 743.82 880.02 450.67 542.94 633.49 434.11 955.75 534.57 574.47 611.37 899.65 701.80 371.70 294.79 792.58 428.31 681.09 756.11 738.25 761.56 476.38 874.32 552.13 597.41 645.73 607.08 227.17 943.65 591.37 648.76 583.90 521.96 881.01 600.85 532.37 662.98 853.35 749.72 925.21 565.38 655.23 660.38 678.48 520.08 737.91 876.16 844.34 756.94 720.17 616.31 636.82 198.22 570.73 837.09 854.08 606.54 324.04 0.00 170.80 607.92
426.86 826.09 353.87 891.57 771.84 790.89 633.01 777.10 715.91 380.93 723.64 460.01 721.71 453.71 467.58 670.79 722.18 499.82 548.65 479.65 596.15 140.00 386.66 701.45 491.32 457.15 395.17 537.21 894.13 309.26 500.23 393.87 890.58 612.68 325.52 192.09 444.82 677.32 748.31 806.32 834.85 658.87 756.18 482.76 379.80 584.23 320.83 804.80 520.74 499.22 597.54 786.86 687.48 542.50 230.83 758.11 521.94 630.06 680.28 677.17 629.89 344.71 753.22 477.34 426.61 631.90 495.50 90.75 808.66 454.95 591.37 508.69 460.88 760.79 672.78 395.95 629.82 732.25 769.20 800.99 519.66 562.49 603.86 664.16 588.30 676.83 778.06 761.69 726.25 622.83 445.51 494.85 66.55 399.93 772.37 683.28 474.87 426.21 170.80 0.00 558.78
413.28 755.09 468.65 835.93 399.68 422.70 280.14 677.15 176.69 852.08 659.91 254.04 216.05 255.52 547.40 288.94 388.03 621.58 366.49 546.21 37.37 500.01 758.43 777.81 496.53 456.60 495.27 754.28 915.63 463.06 130.71 449.70 352.48 258.63 574.55 438.85 533.94 439.45 388.34 511.76 795.68 350.56 660.13 173.52 411.25 283.38 744.19 760.28 322.55 529.43 216.58 692.66 152.96 472.13 644.45 412.32 213.16 349.05 680.06 331.38 682.78 651.06 672.10 527.86 561.24 259.58 472.91 612.33 736.66 920.08 289.49 526.54 416.36 638.59 114.00 867.10 226.94 688.71 231.81 769.10 263.95 294.27 308.53 154.73 296.54 494.37 719.29 387.72 225.86 572.66 557.15 874.63 625.33 355.41 716.15 817.91 443.43 417.36 607.92 558.78 0.00
DEMAND_SECTION
1 0
2 83
3 66
4 100
5 52
6 69
7 83
8 99
9 81
10 82
11 81
12 93
13 62
14 100
15 58
16 75
17 88
18 85
19 95
20 75
21 69
22 95
23 61
24 87
25 71
26 69
27 51
28 87
29 76
30 62
31 75
32 93
33 100
34 89
35 75
36 99
37 95
38 62
39 76
40 89
41 95
42 91
43 80
44 71
45 83
46 69
47 91
48 58
49 71
50 63
51 82
52 91
53 56
54 58
55 60
56 90
57 91
58 51
59 80
60 75
61 76
62 88
63 100
64 63
65 50
66 97
67 87
68 80
69 82
70 80
71 58
72 78
73 96
74 73
75 59
76 94
77 80
78 53
79 89
80 58
81 61
82 57
83 68
84 81
85 57
86 63
87 95
88 80
89 84
90 55
91 65
92 67
93 82
94 81
95 58
96 65
97 100
98 72
99 53
100 75
101 73
DEPOT_SECTION
1
-1
EOF
