NAME: LDG110_3131_rain_110_0254
COMMENT: CVRP with travel times.  rootPos=3,custPos=1,demandType=3,avgRouteSizeIndex=1,weather=rain,lambda_cluster=1,lambda_random=4, T1=300,T2=700,beta=1, alpha(i,j) ~ U(0.8,1.2)
TYPE: CVRP
DIMENSION: 111
EDGE_WEIGHT_TYPE: EXPLICIT
EDGE_WEIGHT_FORMAT: FULL_MATRIX
CAPACITY: 36
NODE_COORD_SECTION
1 0 0
2 663 714
3 873 271
4 132 278
5 972 876
6 865 863
7 996 94
8 775 159
9 107 51
10 680 578
11 717 187
12 14 249
13 312 403
14 271 905
15 42 567
16 508 897
17 883 130
18 317 263
19 268 342
20 511 316
21 865 278
22 890 633
23 336 333
24 151 559
25 646 257
26 155 646
27 223 854
28 871 72
29 388 185
30 73 808
31 740 467
32 575 495
33 953 735
34 826 777
35 328 388
36 861 56
37 619 92
38 332 902
39 676 412
40 22 261
41 850 312
42 217 151
43 968 847
44 815 124
45 784 146
46 69 257
47 804 626
48 271 218
49 193 157
50 14 755
51 931 555
52 365 426
53 633 688
54 832 164
55 266 333
56 656 30
57 302 540
58 530 738
59 303 324
60 376 278
61 596 961
62 571 429
63 165 730
64 23 461
65 582 989
66 587 149
67 274 503
68 114 867
69 104 790
70 794 395
71 629 346
72 963 366
73 303 782
74 376 136
75 83 158
76 116 396
77 831 839
78 714 623
79 417 438
80 781 201
81 926 624
82 411 929
83 42 560
84 982 618
85 739 510
86 366 478
87 730 304
88 43 987
89 350 346
90 775 746
91 399 689
92 429 179
93 153 432
94 738 291
95 229 280
96 170 199
97 433 629
98 94 159
99 869 272
100 226 935
101 371 715
102 980 31
103 486 497
104 762 167
105 673 381
106 412 469
107 161 332
108 48 853
109 657 842
110 980 22
111 636 270
EDGE_WEIGHT_SECTION
0.00 1009.26 893.18 337.11 1255.76 1205.61 1000.96 811.00 122.99 916.49 802.27 258.99 508.15 950.75 592.30 1020.53 921.53 430.76 454.78 599.19 894.00 1100.97 491.06 643.12 747.84 596.50 875.27 916.57 413.44 855.17 905.42 765.48 1229.19 1112.69 539.79 940.30 655.65 992.76 811.78 240.10 926.32 284.60 1287.02 838.18 815.70 303.01 991.24 352.08 319.82 789.68 1071.05 579.67 965.58 868.17 473.14 731.94 597.02 914.10 452.92 487.54 1115.30 725.91 711.63 479.25 1087.12 625.71 600.32 806.35 798.04 899.95 745.74 1016.62 852.26 440.71 222.47 429.70 1185.15 889.93 641.25 830.70 1126.89 959.69 576.55 1159.85 925.52 600.02 822.19 954.00 520.10 1048.96 810.68 482.28 487.92 846.32 412.88 348.74 756.50 245.53 901.21 932.51 841.04 985.60 726.41 766.85 806.26 639.35 404.65 888.83 1007.78 998.57 735.28
1009.26 0.00 509.39 698.56 388.45 273.59 729.34 550.58 886.27 197.04 545.35 817.10 516.68 521.37 653.53 269.59 660.12 616.55 594.67 478.70 502.81 237.16 542.19 530.11 542.03 517.40 534.92 693.32 599.85 626.80 290.37 304.15 312.15 176.97 495.96 682.46 569.56 446.52 370.79 820.40 532.22 757.22 358.76 605.78 571.66 757.49 208.62 657.18 742.21 678.37 334.01 441.65 43.68 602.68 576.31 645.85 439.19 150.11 568.40 585.27 368.33 346.90 606.06 773.81 327.50 637.53 506.84 641.47 550.75 388.55 450.05 462.56 418.83 617.72 820.73 647.72 262.70 145.77 417.17 521.07 310.55 357.64 670.82 382.21 257.68 409.24 501.82 642.11 522.33 139.61 301.92 654.76 655.49 477.69 651.28 738.59 294.98 797.67 517.42 552.81 327.18 749.08 282.85 584.92 388.57 386.84 621.77 674.39 175.65 762.05 533.75
893.18 509.39 0.00 710.07 601.08 615.89 219.95 193.10 770.19 378.22 212.67 797.10 548.09 881.83 879.49 738.24 150.73 542.23 589.61 342.47 22.21 387.61 496.00 744.26 243.96 783.22 874.55 209.46 502.77 950.19 258.39 427.00 478.66 545.98 516.45 201.80 367.12 883.94 283.22 815.99 66.37 681.30 598.67 201.01 172.02 790.58 425.65 578.30 708.95 955.14 381.22 563.13 501.92 129.11 574.15 359.35 614.38 610.89 534.14 478.36 731.88 327.71 806.65 863.70 763.17 328.73 662.38 944.65 914.19 162.72 291.89 144.13 742.35 550.39 787.33 718.94 579.14 379.25 482.76 140.80 336.47 783.18 868.46 397.43 267.34 536.50 173.37 1092.30 521.95 538.28 605.10 465.34 726.38 149.24 619.69 697.27 571.98 764.27 8.03 921.56 650.70 268.48 467.26 204.65 269.38 479.23 688.10 994.98 605.12 281.45 223.68
337.11 698.56 710.07 0.00 984.79 964.10 813.56 676.35 214.12 594.34 653.59 150.03 260.76 648.84 340.03 693.19 734.83 221.52 183.36 402.63 722.89 800.75 223.73 324.83 516.78 446.09 659.47 753.45 281.35 587.02 630.62 507.71 971.58 867.55 274.26 768.83 499.94 679.60 523.61 143.42 690.88 142.85 1025.54 706.61 682.43 80.51 749.73 153.55 154.36 471.39 848.60 300.01 654.88 647.47 169.69 576.23 340.63 639.99 220.77 285.39 790.84 462.01 521.22 249.03 750.01 477.03 272.98 590.47 592.25 656.86 558.83 824.94 533.97 274.68 152.64 111.41 914.80 648.42 342.20 642.49 874.14 701.42 322.74 853.76 637.35 353.84 584.87 713.31 222.14 807.45 488.18 319.94 169.63 590.02 90.38 132.57 498.47 129.58 711.70 712.50 533.78 853.51 458.81 706.34 566.54 370.67 77.31 582.64 760.39 866.48 496.50
1255.76 388.45 601.08 984.79 0.00 114.86 821.03 694.05 1132.77 433.55 742.09 1065.80 835.40 696.11 990.92 444.33 735.75 856.87 840.28 768.77 609.26 253.91 804.60 847.32 704.69 836.77 766.54 791.18 954.52 916.71 523.83 584.56 172.44 211.48 824.09 798.32 836.49 621.26 594.49 1084.69 601.82 991.66 40.75 749.25 715.13 1064.28 363.64 935.55 1007.95 986.46 350.76 760.37 432.13 714.13 852.51 860.65 766.87 533.98 802.84 857.99 419.07 696.57 812.84 1080.28 403.08 841.63 813.31 837.43 858.84 498.57 657.79 587.85 691.94 945.93 1099.30 968.39 176.60 430.54 680.00 673.21 302.95 602.93 1001.33 309.89 496.03 746.22 629.37 943.22 762.65 275.21 621.29 917.57 910.17 653.50 915.48 973.03 667.94 1076.24 593.05 751.34 651.69 855.53 671.30 725.58 551.23 708.36 946.33 898.45 353.97 868.50 714.84
1205.61 273.59 615.89 964.10 114.86 0.00 821.94 694.37 1109.86 369.76 722.85 1035.81 741.30 581.25 876.06 329.47 752.59 846.99 813.27 748.00 593.68 228.28 776.03 732.46 639.95 741.60 651.68 765.55 873.44 801.85 408.97 520.77 197.58 96.62 734.87 791.56 809.96 506.40 536.00 1043.13 623.81 983.45 98.81 749.57 715.45 1011.02 295.26 880.77 983.74 871.60 325.13 689.01 317.27 712.87 799.31 827.28 652.01 419.12 814.17 795.16 323.90 620.49 697.98 984.36 288.22 746.46 719.66 722.57 743.98 465.20 568.65 513.05 596.77 841.91 1023.68 853.53 81.43 315.68 626.80 639.67 301.67 488.07 893.35 367.95 422.26 650.77 596.00 828.36 757.98 160.35 526.12 832.11 795.31 596.29 873.79 967.18 568.57 1046.74 609.89 636.48 556.52 839.95 556.44 692.21 557.51 593.50 886.79 783.59 258.80 852.92 619.67
1000.96 729.34 219.95 813.56 821.03 821.94 0.00 253.36 901.80 562.45 289.43 914.79 706.81 1037.29 1016.73 958.19 176.82 657.40 707.30 521.75 242.16 607.56 681.68 919.38 384.14 943.13 993.98 168.28 587.52 1151.57 440.63 588.03 698.61 725.32 706.62 181.82 417.73 1068.93 485.70 915.93 286.32 775.63 818.62 260.17 243.78 894.07 643.16 715.32 784.83 1134.42 552.14 739.66 710.40 166.09 711.39 432.74 814.99 754.67 651.83 593.53 951.83 534.10 1026.60 984.57 983.12 399.08 836.25 1142.26 1076.93 382.67 408.74 315.05 962.30 619.52 884.36 856.18 799.09 599.20 662.04 209.93 556.42 1003.13 1011.44 604.21 487.29 736.63 339.52 1235.89 699.62 661.59 825.05 552.08 850.41 315.39 781.79 787.41 738.13 861.30 227.98 1101.00 870.65 89.38 610.24 267.41 442.44 699.18 813.35 1200.57 825.07 102.35 404.42
811.00 550.58 193.10 676.35 694.05 694.37 253.36 0.00 756.60 407.22 80.02 759.56 513.69 838.00 841.72 820.17 135.77 483.74 552.07 315.94 203.16 519.90 520.07 717.73 159.57 759.66 838.75 157.69 476.68 949.11 285.40 428.12 588.38 597.75 482.05 131.88 234.47 912.85 262.50 761.44 159.00 597.35 734.80 55.20 21.08 716.24 487.93 549.96 562.13 928.61 423.05 536.60 506.90 87.27 554.79 213.97 606.46 599.44 496.60 419.87 844.32 378.87 855.52 825.82 833.38 253.88 611.68 955.29 941.46 271.16 253.51 337.23 798.68 464.29 667.52 687.39 683.48 454.48 456.23 54.70 481.47 804.52 833.90 556.90 342.57 537.69 187.14 1080.66 478.12 613.51 683.12 410.97 636.77 186.57 585.97 632.06 585.75 690.58 187.47 913.03 717.72 238.78 455.01 44.15 281.84 495.33 658.12 1002.79 675.33 251.75 179.85
122.99 886.27 770.19 214.12 1132.77 1109.86 901.80 756.60 0.00 793.50 679.28 276.35 385.16 862.96 518.14 897.54 818.20 307.77 331.79 500.44 792.40 1009.95 368.07 538.95 624.85 660.21 813.87 859.53 356.89 801.14 806.79 642.49 1142.39 1013.24 416.80 855.16 591.80 893.72 688.79 257.46 823.89 161.61 1164.03 734.85 737.88 283.81 900.22 229.09 196.83 685.51 1013.78 456.68 842.59 776.69 350.15 655.69 543.66 804.14 329.93 364.55 992.31 602.92 703.36 463.15 964.13 502.72 477.33 804.59 777.27 776.96 647.11 893.63 748.09 317.72 171.21 325.53 1062.16 847.58 518.26 727.31 1041.23 915.54 535.43 1036.86 802.53 477.03 699.20 927.43 397.11 994.41 687.69 395.48 383.75 723.33 289.89 244.88 665.30 194.27 778.22 916.85 725.23 929.05 603.42 746.99 683.27 516.36 281.66 796.76 884.79 942.02 629.51
916.49 197.04 378.22 594.34 433.55 369.76 562.45 407.22 793.50 0.00 425.59 726.53 456.45 577.13 680.51 465.14 511.42 526.42 505.85 406.08 356.01 265.12 499.69 597.97 386.10 558.16 496.33 524.77 590.38 695.37 121.82 151.01 408.94 276.84 460.83 539.10 538.86 535.93 224.62 718.62 335.18 652.39 458.63 462.42 428.30 674.85 155.39 593.70 678.73 746.94 284.05 413.48 153.36 434.13 523.13 580.53 424.12 262.33 463.57 506.92 475.20 280.39 631.22 726.09 438.00 468.98 483.40 644.61 619.32 220.00 281.50 334.22 517.79 572.84 715.99 617.61 360.84 54.08 398.15 352.52 291.04 505.99 663.22 328.98 110.88 345.76 333.27 738.24 473.26 213.11 380.54 544.96 607.79 309.14 568.34 633.76 378.01 692.93 372.18 603.35 426.14 602.28 273.38 416.37 253.60 331.92 517.03 742.96 279.95 615.25 386.37
802.27 545.35 212.67 653.59 742.09 722.85 289.43 80.02 679.28 425.59 0.00 712.30 492.95 822.28 779.13 814.94 165.37 441.03 540.03 300.22 195.52 542.30 488.83 657.26 149.61 767.67 826.19 228.51 396.66 929.05 313.88 350.34 569.65 626.23 466.33 211.90 154.45 864.29 255.83 693.41 239.02 574.20 717.83 135.22 91.90 734.10 473.02 500.04 600.64 912.89 447.58 470.02 501.67 123.34 544.83 217.85 550.46 610.64 503.88 409.91 775.05 352.50 803.35 763.23 753.36 176.56 601.72 923.90 910.89 291.37 240.95 356.80 718.66 433.85 665.93 632.40 652.00 426.62 440.51 83.18 468.91 830.55 771.31 544.34 314.71 472.58 160.57 1041.07 462.40 585.65 653.29 333.65 574.18 163.25 564.01 568.98 559.18 642.87 211.73 897.31 660.13 309.60 445.19 67.71 212.57 415.31 646.08 969.44 595.31 322.57 164.13
258.99 817.10 797.10 150.03 1065.80 1035.81 914.79 759.56 276.35 726.53 712.30 0.00 349.72 759.73 333.31 805.35 851.22 296.59 318.43 488.91 805.28 944.54 301.10 421.91 613.32 462.34 696.28 877.11 384.90 650.12 744.92 575.52 1017.62 979.35 353.52 888.18 616.62 750.47 631.61 18.89 815.22 258.74 1106.55 767.87 756.64 71.32 876.88 257.10 225.43 566.11 956.60 389.71 773.42 786.47 310.50 688.71 402.93 720.01 262.96 353.02 904.05 591.39 532.64 258.04 900.04 535.74 385.14 585.14 618.31 764.86 603.91 902.31 604.84 396.90 144.10 208.49 1019.14 780.61 469.25 704.86 956.44 772.29 350.60 1003.79 745.35 470.14 691.52 732.79 330.14 915.62 590.48 423.49 240.50 667.39 240.41 194.21 522.12 121.04 789.07 684.70 636.08 943.38 548.51 768.71 665.36 483.63 220.48 662.88 849.35 956.35 625.00
508.15 516.68 548.09 260.76 835.40 741.30 706.81 513.69 385.16 456.45 492.95 349.72 0.00 512.34 347.32 536.70 627.30 149.61 93.27 226.42 546.68 671.93 91.00 305.14 354.12 418.24 428.71 666.76 282.40 496.54 457.75 305.44 779.86 644.68 31.64 645.57 474.65 530.88 376.99 368.61 528.22 263.45 819.47 543.95 530.15 330.25 562.20 192.83 298.67 542.23 631.52 75.03 473.00 578.49 91.07 550.94 158.50 435.58 86.76 181.61 661.17 257.85 353.00 380.62 657.68 398.93 143.65 553.36 460.54 510.24 298.07 656.97 385.25 326.92 371.80 235.86 677.00 487.74 155.40 496.88 701.83 564.94 330.03 735.79 458.39 133.22 446.18 670.62 75.52 620.34 351.19 242.40 214.58 422.05 170.38 256.95 310.04 348.74 540.06 531.94 340.07 735.31 233.83 546.73 404.63 147.80 199.32 541.33 499.63 722.34 333.84
950.75 521.37 881.83 648.84 696.11 581.25 1037.29 838.00 862.96 577.13 822.28 759.73 512.34 0.00 466.42 251.78 951.61 661.95 605.61 647.89 864.72 734.09 603.34 457.32 678.43 354.25 83.63 991.07 764.94 257.47 692.13 558.69 736.21 601.03 543.98 969.88 848.44 74.85 677.06 778.62 820.56 727.20 680.06 868.26 854.46 729.35 624.36 705.17 762.42 309.04 747.23 529.49 498.08 925.27 603.41 885.61 482.19 389.11 599.10 674.95 420.54 673.65 239.12 588.36 391.39 784.94 487.36 224.25 181.42 790.31 668.87 878.58 194.57 821.85 734.62 617.13 590.21 523.05 559.11 852.64 760.01 187.42 480.90 797.95 634.96 533.34 777.81 269.60 568.86 559.06 281.83 742.18 558.91 782.04 679.63 713.81 379.20 757.68 873.80 75.03 286.22 1072.16 600.67 871.04 720.32 531.04 665.79 258.81 412.84 1083.97 658.15
592.30 653.53 879.49 340.03 990.92 876.06 1016.73 841.72 518.14 680.51 779.13 333.31 347.32 466.42 0.00 616.45 944.50 427.75 323.70 545.39 865.65 837.47 383.49 143.60 698.71 181.85 411.58 965.97 534.68 316.81 714.18 540.86 914.62 779.44 376.23 972.26 700.77 491.06 673.88 352.20 859.29 482.88 961.23 868.90 846.42 360.31 727.74 438.53 494.39 232.80 858.11 399.11 612.39 888.41 305.34 777.06 320.86 503.42 364.90 463.48 700.88 566.27 247.94 167.74 741.71 713.04 305.09 359.52 285.00 802.35 624.55 926.31 430.94 566.22 403.97 228.62 842.02 626.43 458.80 806.80 863.39 545.04 17.29 901.33 723.47 377.34 759.76 474.72 398.40 785.46 397.33 555.95 204.95 747.59 384.65 470.85 456.50 427.03 871.46 499.08 389.33 1048.28 418.49 797.57 637.32 409.65 329.46 329.57 717.48 1035.31 678.43
1020.53 269.59 738.24 693.19 444.33 329.47 958.19 820.17 897.54 465.14 814.94 805.35 536.70 251.78 616.45 0.00 864.74 639.68 620.00 667.93 716.03 506.75 587.41 512.30 776.31 445.40 330.55 918.85 713.03 472.38 559.96 500.90 527.05 426.09 558.41 914.48 839.15 176.93 583.05 816.68 671.87 756.00 428.28 794.17 841.25 773.70 478.21 696.25 767.00 542.13 495.45 461.67 313.27 853.32 601.64 915.44 449.91 258.75 588.42 651.55 169.51 584.20 368.51 687.18 170.33 846.14 420.21 456.23 414.51 658.14 680.19 732.15 295.14 779.09 814.84 627.08 344.96 411.06 542.04 790.66 565.76 158.60 609.96 639.03 522.97 481.43 725.90 501.58 545.46 409.20 229.92 769.82 568.86 744.35 627.72 730.20 327.29 791.78 732.24 307.01 275.52 911.75 526.83 839.51 626.31 483.12 615.88 454.12 305.14 924.72 756.88
921.53 660.12 150.73 734.83 735.75 752.59 176.82 135.77 818.20 511.42 165.37 851.22 627.30 951.61 944.50 864.74 0.00 596.93 663.84 429.55 158.91 524.31 578.13 815.83 295.34 864.40 953.02 63.69 554.41 1062.72 389.60 489.60 613.33 682.68 595.66 89.70 319.82 978.46 382.15 832.33 192.87 690.96 712.62 83.35 114.69 809.85 560.42 638.96 655.74 1042.22 515.89 562.84 638.62 87.36 656.28 307.58 713.68 713.71 608.37 533.06 871.07 462.38 941.32 905.84 899.87 315.48 713.14 1068.90 998.20 299.42 367.78 294.86 868.85 546.33 761.13 787.93 713.81 515.95 569.84 168.97 471.14 919.88 936.68 532.10 404.04 637.95 235.97 1187.34 591.73 674.98 731.60 472.57 739.55 211.84 699.58 707.90 634.58 781.79 142.70 1020.90 777.20 177.68 569.28 154.68 338.89 580.68 769.89 1116.40 741.82 190.26 293.46
430.76 616.55 542.23 221.52 856.87 846.99 657.40 483.74 307.77 526.42 441.03 296.59 149.61 661.95 427.75 639.68 596.93 0.00 113.70 199.76 520.02 738.10 100.34 364.11 324.17 485.37 578.32 618.85 132.79 621.52 527.01 375.41 881.92 750.37 153.41 615.62 375.00 663.95 395.69 277.70 530.23 187.43 881.11 538.94 482.24 302.03 628.37 78.68 206.17 627.18 714.03 178.01 572.87 559.93 122.41 451.29 308.11 548.08 62.85 63.87 774.22 302.24 502.61 410.57 807.29 336.40 278.73 636.63 545.47 528.94 370.86 662.70 532.53 177.31 290.80 267.20 812.99 580.50 240.39 498.38 733.46 697.96 445.04 801.96 502.78 258.44 429.67 784.28 94.22 686.64 492.80 179.31 261.43 427.78 131.14 187.35 398.22 275.89 536.23 681.55 489.68 680.44 333.70 508.74 417.30 273.52 219.75 669.11 649.24 667.47 335.85
454.78 594.67 589.61 183.36 840.28 813.27 707.30 552.07 331.79 505.85 540.03 318.43 93.27 605.61 323.70 620.00 663.84 113.70 0.00 266.94 587.20 748.28 93.61 260.06 396.18 381.32 521.98 669.62 227.12 544.22 510.42 354.84 842.64 716.65 124.91 683.95 413.79 624.15 379.10 307.64 570.28 170.18 881.03 586.01 549.15 257.54 638.55 143.29 205.40 523.13 704.09 161.42 550.99 578.98 18.36 490.08 251.23 521.77 55.47 154.05 660.52 351.12 446.27 296.87 701.35 426.06 199.79 609.50 553.81 512.35 391.34 694.82 478.52 288.57 296.98 163.15 759.07 559.93 186.47 497.37 749.06 658.21 340.99 812.14 492.84 201.30 484.03 757.15 77.63 673.38 444.46 268.97 189.23 459.90 97.67 200.15 347.14 276.03 581.58 625.21 433.34 766.85 311.82 561.22 422.36 233.99 106.05 580.82 592.90 762.86 375.90
599.19 478.70 342.47 402.63 768.77 748.00 521.75 315.94 500.44 406.08 300.22 488.91 226.42 647.89 545.39 667.93 429.55 199.76 266.94 0.00 320.26 600.38 239.27 401.79 156.37 485.76 564.26 469.01 185.75 633.17 339.03 270.71 737.04 651.38 226.08 447.82 284.87 624.55 253.05 477.46 330.47 338.83 728.02 346.20 332.40 483.14 490.65 278.44 374.05 612.67 543.59 220.66 435.02 393.43 285.30 333.56 300.11 409.18 234.47 135.89 728.51 131.80 572.62 553.26 721.99 211.03 340.55 639.35 676.77 382.34 179.35 486.60 551.61 214.55 449.98 408.50 674.33 444.25 140.29 311.82 589.06 620.00 556.45 639.68 332.34 221.75 261.87 787.00 216.70 603.28 449.71 176.06 433.05 259.98 312.25 387.11 352.34 473.04 336.47 651.30 459.96 508.89 252.28 348.98 217.54 215.14 372.99 686.85 563.94 495.92 136.09
894.00 502.81 22.21 722.89 609.26 593.68 242.16 203.16 792.40 356.01 195.52 805.28 546.68 864.72 865.65 716.03 158.91 520.02 587.20 320.26 0.00 365.40 504.18 722.05 252.14 761.01 852.34 220.72 480.56 953.43 238.69 412.01 473.54 523.77 524.63 216.20 349.97 861.73 261.01 797.72 44.16 659.09 606.85 209.19 194.23 803.40 403.44 586.48 694.31 932.93 403.43 540.92 479.71 137.29 582.33 367.53 620.37 588.68 542.32 456.15 754.09 335.89 814.83 870.14 740.96 336.91 660.81 922.44 922.37 140.51 310.40 166.34 720.14 534.81 770.24 725.38 587.32 357.04 460.55 148.98 344.65 760.97 876.71 405.61 245.13 542.01 173.42 1070.09 530.13 516.07 582.89 443.13 732.15 149.29 632.51 678.46 572.03 752.35 16.21 899.35 628.49 246.27 483.67 212.83 258.36 501.44 693.25 1003.16 582.91 259.24 231.86
1100.97 237.16 387.61 800.75 253.91 228.28 607.56 519.90 1009.95 265.12 542.30 944.54 671.93 734.09 837.47 506.75 524.31 738.10 748.28 600.38 365.40 0.00 701.39 720.89 508.27 715.12 761.45 537.27 731.72 863.96 312.26 416.13 170.83 158.37 651.21 563.28 678.28 671.56 381.78 944.17 398.96 865.45 294.66 548.05 525.57 881.26 109.73 780.86 830.23 855.21 96.85 596.90 274.67 484.59 729.92 674.20 618.50 383.64 723.65 674.23 486.57 468.58 807.64 826.37 478.82 629.95 559.40 875.00 787.91 325.51 471.94 333.94 628.86 788.29 919.04 766.27 244.10 211.04 563.95 514.38 73.39 594.80 820.18 148.82 268.04 564.49 428.79 875.64 677.55 187.35 535.45 735.40 708.05 404.66 780.83 805.18 492.65 908.39 381.61 738.40 560.23 611.67 438.10 476.72 410.76 542.09 755.07 911.55 366.19 624.64 503.16
491.06 542.19 496.00 223.73 804.60 776.03 681.68 520.07 368.07 499.69 488.83 301.10 91.00 603.34 383.49 587.41 578.13 100.34 93.61 239.27 504.18 701.39 0.00 319.85 360.50 441.11 519.71 641.82 233.13 587.54 474.74 348.68 810.92 679.41 59.36 651.95 441.08 602.30 343.42 319.99 514.12 226.96 845.35 543.67 510.34 304.24 600.84 160.56 262.18 582.92 668.41 125.74 511.64 541.83 78.15 497.38 240.95 469.95 38.14 103.38 695.90 336.09 444.00 367.70 736.73 392.54 215.33 584.36 551.54 476.67 389.07 601.21 476.25 250.28 334.60 222.94 740.75 515.46 168.15 479.83 713.38 597.62 386.59 774.43 457.16 183.22 390.42 732.01 41.95 648.06 434.73 235.45 230.38 366.29 133.35 208.33 337.76 311.54 487.97 622.94 417.12 728.04 272.47 529.80 386.68 182.53 192.10 632.33 590.63 735.19 340.22
643.12 530.11 744.26 324.83 847.32 732.46 919.38 717.73 538.95 597.97 657.26 421.91 305.14 457.32 143.60 512.30 815.83 364.11 260.06 401.79 722.05 720.89 319.85 0.00 558.16 121.26 400.03 856.43 465.37 284.16 603.48 446.96 771.02 635.84 317.46 849.61 637.13 382.47 592.28 403.02 732.26 430.24 817.63 747.99 734.19 405.34 653.91 374.89 457.64 305.42 760.67 311.79 488.97 779.53 241.70 713.42 177.26 380.00 301.26 372.03 681.81 471.03 236.39 275.24 682.63 612.82 161.49 370.22 322.80 701.66 576.64 838.91 386.72 503.39 463.96 213.42 721.57 592.55 337.08 713.61 794.28 484.45 160.89 827.50 629.57 255.62 628.12 505.09 334.76 669.72 282.38 492.31 211.95 603.99 321.01 399.53 379.75 440.90 738.26 477.56 327.98 910.68 370.04 724.97 600.37 266.05 299.15 337.84 632.57 897.71 537.88
747.84 542.03 243.96 516.78 704.69 639.95 384.14 159.57 624.85 386.10 149.61 613.32 354.12 678.43 698.71 776.31 295.34 324.17 396.18 156.37 252.14 508.27 360.50 558.16 0.00 642.13 689.84 317.26 342.12 789.54 264.28 276.26 580.67 576.63 322.48 291.45 170.01 753.28 193.26 601.87 214.66 463.24 663.94 214.77 180.65 597.29 454.49 402.85 498.46 769.04 454.42 377.03 510.35 246.84 395.22 246.30 456.48 552.99 358.88 260.30 715.94 227.54 695.95 672.58 756.77 147.07 452.11 795.72 803.49 230.61 104.60 338.53 660.46 370.92 583.93 527.82 558.52 408.09 296.66 174.21 524.73 753.15 681.42 496.33 296.18 378.12 105.50 931.75 318.55 552.24 563.35 277.91 557.46 103.61 426.40 511.52 465.98 560.87 235.93 753.46 568.81 398.35 352.09 192.61 153.46 371.51 502.23 843.22 633.96 406.91 20.28
596.50 517.40 783.22 446.09 836.77 741.60 943.13 759.66 660.21 558.16 767.67 462.34 418.24 354.25 181.85 445.40 864.40 485.37 381.32 485.76 761.01 715.12 441.11 121.26 642.13 0.00 278.77 883.02 586.63 258.67 648.86 501.65 770.15 668.74 386.60 891.54 758.39 411.09 653.76 443.45 754.21 551.50 802.64 786.84 764.36 473.56 605.39 491.24 553.95 235.02 735.76 410.30 476.26 777.04 362.96 819.32 263.21 367.29 422.52 493.29 568.07 547.96 115.13 280.99 567.16 696.79 275.60 253.35 201.54 620.50 552.40 808.67 265.46 624.65 585.22 334.68 660.17 504.08 345.47 751.21 741.04 363.19 164.56 778.98 592.77 341.57 673.26 401.00 456.02 605.01 215.48 598.01 333.21 697.39 442.27 512.78 274.65 562.16 777.22 366.27 261.08 982.06 454.96 715.51 656.20 352.36 386.46 303.46 589.23 981.68 621.85
875.27 534.92 874.55 659.47 766.54 651.68 993.98 838.75 813.87 496.33 826.19 696.28 428.71 83.63 411.58 330.55 953.02 578.32 521.98 564.26 852.34 761.45 519.71 400.03 689.84 278.77 0.00 956.30 711.11 234.34 618.15 517.04 787.55 652.37 460.35 970.63 849.13 153.62 682.66 714.53 823.11 692.16 750.49 893.95 859.83 671.37 651.72 621.54 727.38 311.56 780.38 503.74 491.24 865.66 519.78 897.82 415.31 415.85 515.47 610.32 494.92 655.95 163.64 540.31 475.02 775.29 411.88 148.28 227.31 716.33 585.24 830.55 147.13 755.63 781.12 569.69 662.47 550.41 558.45 784.05 787.37 271.05 397.27 825.31 607.21 493.67 762.32 241.91 504.23 588.64 284.38 671.11 511.47 751.04 599.09 685.66 376.50 758.06 868.51 107.02 238.78 1054.37 587.59 847.90 691.80 483.60 582.16 276.17 491.61 1060.18 700.35
916.57 693.32 209.46 753.45 791.18 765.55 168.28 157.69 859.53 524.77 228.51 877.11 666.76 991.07 965.97 918.85 63.69 618.85 669.62 469.01 220.72 537.27 641.82 856.43 317.26 883.02 956.30 0.00 503.13 1086.72 402.95 541.36 675.14 695.64 635.12 26.01 287.38 974.87 420.19 873.66 256.56 712.88 776.31 124.68 136.61 831.77 578.67 630.93 677.66 1081.68 548.27 626.53 664.59 105.98 673.71 310.12 761.93 716.99 614.15 554.98 934.76 496.42 943.18 924.46 955.95 356.81 694.94 1064.76 1016.82 361.23 371.06 344.14 833.28 564.95 783.05 818.50 775.62 572.03 609.30 172.25 532.95 962.21 958.15 593.91 460.12 690.76 299.66 1198.21 631.19 724.62 787.23 511.95 761.02 275.53 696.94 747.28 698.27 806.11 204.51 1012.49 741.63 164.33 572.56 168.40 397.37 643.82 775.67 1131.51 797.90 151.36 332.92
413.44 599.85 502.77 281.35 954.52 873.44 587.52 476.68 356.89 590.38 396.66 384.90 282.40 764.94 534.68 713.03 554.41 132.79 227.12 185.75 480.56 731.72 233.13 465.37 342.12 586.63 711.11 503.13 0.00 749.53 504.98 439.37 828.75 776.82 286.20 526.86 242.21 761.95 438.80 380.92 516.22 222.17 913.77 471.06 470.53 361.86 621.99 127.80 227.57 734.11 657.61 310.80 556.17 487.81 229.34 318.50 395.35 585.08 195.64 131.94 882.54 317.55 635.40 518.89 868.34 238.93 410.77 769.42 678.26 557.91 345.30 629.84 620.36 66.06 332.96 374.13 860.08 607.90 313.86 475.65 727.92 757.33 551.97 795.58 518.09 316.99 427.11 885.48 227.01 739.46 483.11 81.84 379.35 445.73 194.27 260.71 531.01 310.95 496.77 799.57 528.71 572.16 317.00 464.37 403.29 374.26 298.80 791.80 749.69 585.13 321.84
855.17 626.80 950.19 587.02 916.71 801.85 1151.57 949.11 801.14 695.37 929.05 650.12 496.54 257.47 316.81 472.38 1062.72 621.52 544.22 633.17 953.43 863.96 587.54 284.16 789.54 258.67 234.34 1086.72 749.53 0.00 804.19 661.81 904.09 768.91 528.18 1080.99 841.57 295.45 747.00 635.97 909.54 691.71 900.66 979.37 965.57 619.51 796.53 659.05 678.37 130.21 928.95 536.37 631.59 986.89 525.86 905.46 416.05 522.62 583.30 656.19 561.24 625.75 143.54 426.94 520.41 752.49 391.78 86.06 76.05 879.17 751.11 967.56 263.67 778.66 651.66 475.61 779.01 697.27 492.88 944.99 934.23 415.00 299.52 928.73 769.54 494.41 843.44 220.93 572.06 705.18 370.81 738.94 417.39 862.24 605.17 608.44 444.83 628.60 942.16 235.28 355.32 1103.10 620.80 974.18 776.58 531.58 541.88 53.68 633.44 1116.07 769.26
905.42 290.37 258.39 630.62 523.83 408.97 440.63 285.40 806.79 121.82 313.88 744.92 457.75 692.13 714.18 559.96 389.60 527.01 510.42 339.03 238.69 312.26 474.74 603.48 264.28 648.86 618.15 402.95 504.98 804.19 0.00 173.32 447.53 312.35 483.14 417.28 433.80 657.75 131.32 755.18 254.22 645.18 494.14 340.60 306.48 692.27 202.53 589.53 609.96 868.76 230.79 435.79 275.18 312.31 525.85 458.71 446.43 384.15 481.96 466.67 590.20 252.57 718.94 772.71 553.00 347.16 505.74 752.49 741.14 98.18 159.68 286.35 570.63 523.34 715.35 639.92 398.08 169.08 369.97 230.70 295.14 573.01 696.89 368.76 57.17 368.07 211.45 860.06 432.79 328.11 433.38 423.14 593.86 187.32 585.62 652.15 400.32 732.36 250.36 725.17 478.98 484.96 295.69 294.55 148.54 354.23 616.47 788.81 394.95 497.93 264.55
765.48 304.15 427.00 507.71 584.56 520.77 588.03 428.12 642.49 151.01 350.34 575.52 305.44 558.69 540.86 500.90 489.60 375.41 354.84 270.71 412.01 416.13 348.68 446.96 276.26 501.65 517.04 541.36 439.37 661.81 173.32 0.00 551.08 425.98 309.82 556.74 446.27 591.77 165.62 594.41 415.65 501.38 607.77 455.14 442.24 588.22 306.40 442.69 527.72 734.85 393.86 262.47 291.29 435.38 372.12 483.44 273.11 305.21 312.56 377.28 587.22 138.91 545.62 599.39 550.02 382.77 332.42 652.48 625.30 271.50 179.29 430.67 450.18 421.83 609.02 466.60 511.71 205.09 247.14 378.10 442.05 587.15 523.57 479.99 182.61 194.75 276.14 697.74 346.26 364.12 312.93 442.75 456.78 277.76 417.33 482.75 227.00 585.96 418.97 624.06 358.53 648.42 122.37 418.05 202.59 180.91 460.89 715.49 391.97 661.31 255.98
1229.19 312.15 478.66 971.58 172.44 197.58 698.61 588.38 1142.39 408.94 569.65 1017.62 779.86 736.21 914.62 527.05 613.33 881.92 842.64 737.04 473.54 170.83 810.92 771.02 580.67 770.15 787.55 675.14 828.75 904.09 447.53 551.08 0.00 135.18 773.43 675.90 724.10 661.36 523.64 1036.51 429.38 987.46 148.18 643.58 609.46 1051.11 253.55 913.30 1001.06 959.67 223.99 727.57 355.83 591.71 824.28 787.50 707.59 457.68 830.87 818.05 437.35 610.94 845.41 992.06 465.66 727.74 725.09 886.64 832.05 475.61 607.21 461.08 640.42 847.11 1043.96 870.49 194.88 354.86 665.36 603.40 153.68 643.35 931.91 202.06 411.86 689.33 576.88 949.68 811.36 198.91 588.44 746.91 873.74 575.49 903.59 949.00 495.50 1052.21 470.63 791.44 634.04 719.81 581.92 591.00 552.12 632.06 920.76 938.55 372.25 732.78 600.95
1112.69 176.97 545.98 867.55 211.48 96.62 725.32 597.75 1013.24 276.84 626.23 979.35 644.68 601.03 779.44 426.09 682.68 750.37 716.65 651.38 523.77 158.37 679.41 635.84 576.63 668.74 652.37 695.64 776.82 768.91 312.35 425.98 135.18 0.00 638.25 721.65 746.15 526.18 443.67 995.46 550.56 886.83 181.79 652.95 618.83 934.46 198.64 784.15 887.12 824.49 255.22 592.39 220.65 624.66 702.69 771.06 576.42 322.50 717.55 698.54 328.20 523.87 757.60 911.04 330.48 659.51 644.07 751.46 696.87 410.53 472.03 416.43 505.24 745.29 930.76 824.69 85.73 222.76 530.18 543.05 231.76 508.17 796.73 307.19 334.67 554.15 523.80 814.50 676.18 63.73 453.26 735.49 792.72 499.67 777.17 870.56 471.95 953.82 539.98 656.26 498.86 770.04 459.82 606.90 460.89 496.88 793.87 803.37 241.22 783.01 576.90
539.79 495.96 516.45 274.26 824.09 734.87 706.62 482.05 416.80 460.83 466.33 353.52 31.64 543.98 376.23 558.41 595.66 153.41 124.91 226.08 524.63 651.21 59.36 317.46 322.48 386.60 460.35 635.12 286.20 528.18 483.14 309.82 773.43 638.25 0.00 613.93 457.58 542.94 375.24 372.41 496.58 279.38 820.04 512.31 498.51 349.71 541.48 216.29 314.60 573.87 639.81 96.74 452.28 569.32 110.53 521.47 190.14 429.15 90.56 155.23 654.74 289.49 384.64 361.27 689.32 368.50 155.97 565.68 492.18 508.49 329.71 659.22 416.89 302.13 387.02 228.52 694.99 456.10 144.09 496.69 693.06 571.86 358.94 715.07 475.26 123.86 427.98 692.35 73.77 588.70 375.37 211.41 246.22 425.65 189.84 260.75 278.40 363.96 508.42 563.58 357.76 716.21 213.11 515.09 418.50 141.37 196.95 572.97 531.27 722.00 302.20
940.30 682.46 201.80 768.83 798.32 791.56 181.82 131.88 855.16 539.10 211.90 888.18 645.57 969.88 972.26 914.48 89.70 615.62 683.95 447.82 216.20 563.28 651.95 849.61 291.45 891.54 970.63 26.01 526.86 1080.99 417.28 556.74 675.90 721.65 613.93 0.00 284.65 1000.88 394.38 869.29 260.36 729.23 795.91 120.31 152.96 848.12 552.66 654.66 694.01 1060.49 551.10 652.54 638.78 121.36 666.92 300.23 738.34 731.32 628.48 551.75 933.68 510.75 969.19 927.17 957.16 352.44 720.95 1038.75 1032.20 356.71 385.39 345.93 859.29 578.88 799.40 811.71 776.38 573.24 588.11 186.58 533.71 936.40 965.78 594.67 461.33 669.57 315.82 1186.40 610.00 711.97 799.09 509.53 768.65 296.90 694.21 744.86 714.43 818.75 205.27 1038.50 767.64 180.87 586.89 176.03 413.72 627.21 780.87 1134.67 799.11 176.87 311.73
655.65 569.56 367.12 499.94 836.49 809.96 417.73 234.47 591.80 538.86 154.45 616.62 474.65 848.44 700.77 839.15 319.82 375.00 413.79 284.87 349.97 678.28 441.08 637.13 170.01 758.39 849.13 287.38 242.21 841.57 433.80 446.27 724.10 746.15 457.58 284.65 0.00 909.42 328.52 597.73 384.67 454.47 795.74 281.89 228.32 580.45 586.29 370.01 469.78 897.54 602.03 482.92 613.24 275.70 395.43 76.29 567.78 685.53 435.43 374.15 847.74 377.24 825.10 684.98 888.57 89.08 576.86 924.22 916.76 400.62 274.61 479.99 788.57 308.27 575.17 540.22 728.53 539.89 425.16 237.63 623.36 902.85 718.06 666.34 427.98 506.62 275.51 1062.50 399.13 698.92 705.30 246.17 598.44 273.62 409.56 481.50 635.99 553.16 366.18 923.47 696.92 380.79 506.04 222.16 285.26 452.10 509.38 895.25 745.21 393.76 190.29
992.76 446.52 883.94 679.60 621.26 506.40 1068.93 912.85 893.72 535.93 864.29 750.47 530.88 74.85 491.06 176.93 978.46 663.95 624.15 624.55 861.73 671.56 602.30 382.47 753.28 411.09 153.62 974.87 761.95 295.45 657.75 591.77 661.36 526.18 542.94 1000.88 909.42 0.00 720.05 752.66 817.57 794.33 605.21 943.11 929.31 703.80 588.17 723.71 805.68 383.89 672.38 485.94 423.23 940.61 621.95 958.11 437.73 314.26 612.69 675.82 345.69 598.80 313.97 513.51 347.26 835.58 442.52 279.30 256.27 755.93 697.45 842.11 145.63 806.49 809.47 568.19 515.36 545.90 484.26 859.00 738.96 144.18 508.35 761.76 646.81 516.09 774.82 324.65 569.73 484.21 278.84 754.35 509.97 798.95 676.64 768.09 376.21 809.18 877.94 130.08 233.24 1088.68 582.05 895.02 719.56 478.06 638.19 277.19 337.99 1101.65 733.00
811.78 370.79 283.22 523.61 594.49 536.00 485.70 262.50 688.79 224.62 255.83 631.61 376.99 677.06 673.88 583.05 382.15 395.69 379.10 253.05 261.01 381.78 343.42 592.28 193.26 653.76 682.66 420.19 438.80 747.00 131.32 165.62 523.64 443.67 375.24 394.38 328.52 720.05 0.00 650.50 250.03 527.18 553.74 317.70 283.58 603.10 272.05 468.94 491.96 806.58 324.99 385.26 348.32 345.75 394.53 404.81 415.02 446.70 368.65 359.62 605.74 121.25 687.53 664.76 609.57 335.49 462.09 770.14 678.96 133.25 101.36 321.42 608.52 406.51 597.35 520.00 529.40 225.65 323.74 283.73 369.96 629.58 656.59 445.39 113.74 356.20 151.29 863.36 301.47 384.68 478.55 364.82 560.22 170.31 454.30 538.84 392.62 620.41 277.22 752.09 516.87 501.28 255.39 301.73 43.26 338.51 485.15 800.68 451.52 514.25 208.70
240.10 820.40 815.99 143.42 1084.69 1043.13 915.93 761.44 257.46 718.62 693.41 18.89 368.61 778.62 352.20 816.68 832.33 277.70 307.64 477.46 797.72 944.17 319.99 403.02 601.87 443.45 714.53 873.66 380.92 635.97 755.18 594.41 1036.51 995.46 372.41 869.29 597.73 752.66 650.50 0.00 806.47 252.24 1125.44 748.98 758.07 62.91 870.77 253.12 217.02 549.58 975.49 408.60 776.72 790.89 302.09 669.82 421.82 737.88 281.85 341.57 911.37 579.94 551.53 239.15 893.43 516.85 396.47 566.25 623.08 783.75 595.50 907.76 612.16 400.61 147.81 189.60 1038.03 772.70 474.60 723.75 975.33 779.61 336.45 997.18 764.24 461.42 707.37 713.90 349.03 931.73 609.37 410.65 247.82 686.28 233.80 175.32 541.01 124.75 807.96 703.59 654.97 934.97 547.01 761.12 684.25 502.52 201.59 648.73 868.24 945.17 613.55
926.32 532.22 66.37 690.88 601.82 623.81 286.32 159.00 823.89 335.18 239.02 815.22 528.22 820.56 859.29 671.87 192.87 530.23 570.28 330.47 44.16 398.96 514.12 732.26 214.66 754.21 823.11 256.56 516.22 909.54 254.22 415.65 429.38 550.56 496.58 260.36 384.67 817.57 250.03 806.47 0.00 669.30 577.56 214.20 180.08 771.39 440.08 608.91 704.52 943.14 405.95 551.13 488.54 181.45 585.71 372.97 630.58 597.51 552.26 466.36 771.03 371.28 858.99 846.68 765.59 321.17 633.08 878.28 889.15 158.61 311.14 210.50 675.98 521.41 758.03 701.92 552.17 389.26 470.76 193.14 360.06 797.61 855.52 402.20 281.77 552.22 171.96 1025.93 492.65 522.19 538.73 444.04 687.99 147.83 600.50 679.37 570.57 734.97 60.37 855.19 584.33 290.43 454.59 193.27 221.97 545.60 676.33 963.22 607.54 303.40 194.38
284.60 757.22 681.30 142.85 991.66 983.45 775.63 597.35 161.61 652.39 574.20 258.74 263.45 727.20 482.88 756.00 690.96 187.43 170.18 338.83 659.09 865.45 226.96 430.24 463.24 551.50 692.16 712.88 222.17 691.71 645.18 501.38 987.46 886.83 279.38 729.23 454.47 794.33 527.18 252.24 669.30 0.00 1002.42 629.77 576.27 189.33 767.44 131.53 35.22 614.24 852.17 315.57 713.54 615.08 188.54 507.33 421.41 675.87 188.82 202.94 830.70 441.31 602.70 381.90 871.53 397.64 369.97 685.42 615.66 660.43 485.50 788.55 648.70 156.11 140.61 254.26 929.25 706.47 356.65 565.70 897.14 800.30 465.59 875.25 640.92 368.19 568.74 833.07 242.69 843.56 526.08 240.55 297.69 566.85 128.28 83.27 517.32 137.70 675.30 795.39 571.68 793.97 474.37 608.40 521.66 404.17 202.71 725.49 763.08 806.94 474.92
1287.02 358.76 598.67 1025.54 40.75 98.81 818.62 734.80 1164.03 458.63 717.83 1106.55 819.47 680.06 961.23 428.28 712.62 881.11 881.03 728.02 606.85 294.66 845.35 817.63 663.94 802.64 750.49 776.31 913.77 900.66 494.14 607.77 148.18 181.79 820.04 795.91 795.74 605.21 553.74 1125.44 577.56 1002.42 0.00 712.95 748.37 1105.03 365.21 953.41 967.20 970.41 332.51 774.18 402.44 711.72 884.48 872.03 750.82 504.29 843.59 817.24 384.94 661.31 796.79 1083.17 387.03 806.72 818.47 821.38 842.79 539.32 617.04 569.60 657.81 905.18 1072.59 952.34 142.47 404.55 711.97 713.96 262.20 586.88 967.20 269.14 464.27 705.47 632.92 927.17 803.40 245.52 587.16 876.82 894.12 637.53 956.23 1013.78 643.68 1095.65 590.64 735.29 617.56 836.23 641.61 699.52 510.48 678.67 975.66 882.40 319.84 849.20 680.71
838.18 605.78 201.01 706.61 749.25 749.57 260.17 55.20 734.85 462.42 135.22 767.87 543.95 868.26 868.90 794.17 83.35 538.94 586.01 346.20 209.19 548.05 543.67 747.99 214.77 786.84 893.95 124.68 471.06 979.37 340.60 455.14 643.58 652.95 512.31 120.31 281.89 943.11 317.70 748.98 214.20 629.77 712.95 0.00 59.23 754.39 543.13 555.61 600.28 958.87 451.20 566.86 562.10 111.80 601.44 239.48 637.25 652.09 551.80 475.07 836.61 417.37 896.95 853.00 867.93 232.13 648.81 985.55 988.38 298.34 308.71 345.14 834.74 489.42 705.67 717.65 738.68 509.68 486.49 109.90 508.65 859.72 861.08 582.38 397.77 567.95 201.51 1133.20 508.38 668.71 697.49 389.22 663.95 177.38 616.23 624.55 600.12 698.44 192.98 943.29 743.09 221.40 510.21 71.33 304.43 550.53 692.06 1033.05 722.51 215.71 210.11
815.70 571.66 172.02 682.43 715.13 715.45 243.78 21.08 737.88 428.30 91.90 756.64 530.15 854.46 846.42 841.25 114.69 482.24 549.15 332.40 194.23 525.57 510.34 734.19 180.65 764.36 859.83 136.61 470.53 965.57 306.48 442.24 609.46 618.83 498.51 152.96 228.32 929.31 283.58 758.07 180.08 576.27 748.37 59.23 0.00 695.16 501.85 528.88 541.05 945.07 428.72 528.63 527.98 77.69 553.24 192.89 627.54 620.52 493.68 418.37 823.24 399.95 876.60 830.52 839.37 268.46 632.76 971.75 962.54 275.86 274.59 316.15 810.56 485.37 646.44 690.98 704.56 455.45 472.69 75.78 486.17 825.60 838.60 561.60 343.54 554.15 206.09 1101.74 494.58 614.48 701.48 425.55 641.47 207.65 597.41 610.98 604.70 669.50 180.05 929.49 738.80 217.70 476.09 48.85 260.76 507.21 655.20 1019.25 681.32 230.67 196.31
303.01 757.49 790.58 80.51 1064.28 1011.02 894.07 716.24 283.81 674.85 734.10 71.32 330.25 729.35 360.31 773.70 809.85 302.03 257.54 483.14 803.40 881.26 304.24 405.34 597.29 473.56 671.37 831.77 361.86 619.51 692.27 588.22 1051.11 934.46 349.71 848.12 580.45 703.80 603.10 62.91 771.39 189.33 1105.03 754.39 695.16 0.00 830.24 234.06 154.11 520.38 923.06 380.52 713.81 727.98 239.18 654.94 421.14 704.12 298.74 365.90 871.35 542.52 507.73 192.57 830.52 557.54 353.49 629.16 615.27 736.35 532.59 905.45 558.17 345.44 150.59 191.92 984.29 728.93 411.69 723.00 954.65 737.86 361.67 934.27 716.84 434.35 665.38 762.30 301.63 887.96 552.31 400.45 215.71 670.53 170.89 209.33 555.61 173.65 792.21 737.38 597.91 872.06 532.64 727.29 639.15 451.18 157.82 631.63 829.88 885.03 577.01
991.24 208.62 425.65 749.73 363.64 295.26 643.16 487.93 900.22 155.39 473.02 876.88 562.20 624.36 727.74 478.21 560.42 628.37 638.55 490.65 403.44 109.73 600.84 653.91 454.49 605.39 651.72 578.67 621.99 796.53 202.53 306.40 253.55 198.64 541.48 552.66 586.29 588.17 272.05 870.77 440.08 767.44 365.21 543.13 501.85 830.24 0.00 671.13 764.01 840.41 197.62 487.17 164.94 514.84 620.19 650.01 508.77 273.91 613.92 564.50 522.43 358.85 720.52 799.34 485.23 549.69 532.37 765.27 758.14 287.93 362.21 406.37 540.10 678.56 809.31 726.61 284.37 101.31 454.22 433.23 155.56 566.26 710.45 173.59 158.31 454.76 413.98 765.91 567.82 159.31 425.72 625.67 681.02 389.85 671.10 695.45 382.92 798.66 419.65 628.67 450.98 649.71 328.37 497.08 301.03 432.36 672.42 805.60 327.18 662.68 467.08
352.08 657.18 578.30 153.55 935.55 880.77 715.32 549.96 229.09 593.70 500.04 257.10 192.83 705.17 438.53 696.25 638.96 78.68 143.29 278.44 586.48 780.86 160.56 374.89 402.85 491.24 621.54 630.93 127.80 659.05 589.53 442.69 913.30 784.15 216.29 654.66 370.01 723.71 468.94 253.12 608.91 131.53 953.41 555.61 528.88 234.06 671.13 0.00 130.65 624.94 785.41 256.69 613.50 572.36 133.19 446.30 326.30 575.05 141.53 142.55 800.64 376.50 545.83 402.58 841.47 323.48 314.62 700.29 593.01 547.87 429.85 714.39 578.08 193.86 212.12 264.96 869.83 647.78 305.70 577.06 812.14 740.55 455.82 831.91 577.04 247.94 508.35 816.43 172.90 765.32 466.33 166.39 310.72 506.46 68.53 132.91 461.97 197.21 570.27 724.77 511.93 699.96 374.33 567.75 495.98 287.27 183.96 695.65 692.46 712.93 414.53
319.82 742.21 708.95 154.36 1007.95 983.74 784.83 562.13 196.83 678.73 600.64 225.43 298.67 762.42 494.39 767.00 655.74 206.17 205.40 374.05 694.31 830.23 262.18 457.64 498.46 553.95 727.38 677.66 227.57 678.37 609.96 527.72 1001.06 887.12 314.60 694.01 469.78 805.68 491.96 217.02 704.52 35.22 967.20 600.28 541.05 154.11 764.01 130.65 0.00 609.33 816.95 348.91 698.53 618.74 215.94 500.83 411.33 640.65 224.04 238.16 865.92 476.53 611.40 346.68 904.37 424.08 363.16 709.60 602.32 625.21 450.28 813.38 671.61 191.33 105.39 265.77 961.05 717.61 388.45 600.92 861.92 811.30 477.10 840.03 605.70 332.97 603.96 848.58 277.91 876.64 537.08 275.77 307.27 602.07 139.28 69.93 544.72 128.45 700.92 802.68 582.68 758.75 459.36 573.18 535.22 390.24 167.49 720.58 798.30 771.72 510.14
789.68 678.37 955.14 471.39 986.46 871.60 1134.42 928.61 685.51 746.94 912.89 566.11 542.23 309.04 232.80 542.13 1042.22 627.18 523.13 612.67 932.93 855.21 582.92 305.42 769.04 235.02 311.56 1081.68 734.11 130.21 868.76 734.85 959.67 824.49 573.87 1060.49 897.54 383.89 806.58 549.58 943.14 614.24 970.41 958.87 945.07 520.38 840.41 624.94 609.33 0.00 952.06 587.30 707.40 1006.10 504.77 946.23 461.74 600.96 564.33 632.59 638.46 744.47 189.23 327.81 597.63 823.70 437.00 163.28 127.62 855.52 739.74 1043.69 332.24 746.07 624.03 359.98 847.58 739.10 575.94 924.49 928.60 472.57 250.09 980.30 827.79 540.10 824.38 241.92 597.83 773.75 450.50 755.38 418.20 848.51 561.77 603.96 509.67 600.97 949.14 312.50 423.89 1121.56 651.29 950.53 830.21 571.47 502.22 111.25 721.88 1108.59 748.76
1071.05 334.01 381.22 848.60 350.76 325.13 552.14 423.05 1013.78 284.05 447.58 956.60 631.52 747.23 858.11 495.45 515.89 714.03 704.09 543.59 403.43 96.85 668.41 760.67 454.42 735.76 780.38 548.27 657.61 928.95 230.79 393.86 223.99 255.22 639.81 551.10 602.03 672.38 324.99 975.49 405.95 852.17 332.51 451.20 428.72 923.06 197.62 785.41 816.95 952.06 0.00 622.79 354.35 481.19 714.93 577.35 666.97 463.32 693.64 650.16 555.45 411.79 850.89 923.22 575.67 577.95 656.25 897.69 884.76 303.94 390.47 237.09 695.39 723.67 922.34 806.16 312.98 231.68 542.42 443.72 70.31 654.05 840.82 145.74 211.25 588.61 425.04 955.32 626.46 284.20 558.14 653.93 747.94 418.11 771.52 863.83 580.54 904.51 389.25 802.46 603.74 574.51 516.23 379.87 353.97 574.77 801.08 949.57 457.55 561.54 474.70
579.67 441.65 563.13 300.01 760.37 689.01 739.66 536.60 456.68 413.48 470.02 389.71 75.03 529.49 399.11 461.67 562.84 178.01 161.42 220.66 540.92 596.90 125.74 311.79 377.03 410.30 503.74 626.53 310.80 536.37 435.79 262.47 727.57 592.39 96.74 652.54 482.92 485.94 385.26 408.60 551.13 315.57 774.18 566.86 528.63 380.52 487.17 256.69 348.91 587.30 622.79 0.00 397.97 593.36 166.10 552.78 150.84 383.29 126.75 189.88 608.88 282.86 398.54 364.05 632.00 399.81 150.30 560.01 506.08 518.51 350.91 602.37 431.98 336.78 411.05 310.89 652.97 467.56 80.37 532.48 642.73 560.08 405.06 660.76 411.54 80.43 471.43 648.92 83.79 581.26 331.94 308.15 255.69 476.04 209.63 296.94 323.95 387.99 557.13 589.82 340.33 729.55 158.80 512.12 348.99 95.51 267.47 586.87 504.55 716.58 356.75
965.58 43.68 501.92 654.88 432.13 317.27 710.40 506.90 842.59 153.36 501.67 773.42 473.00 498.08 612.39 313.27 638.62 572.87 550.99 435.02 479.71 274.67 511.64 488.97 510.35 476.26 491.24 664.59 556.17 631.59 275.18 291.29 355.83 220.65 452.28 638.78 613.24 423.23 348.32 776.72 488.54 713.54 402.44 562.10 527.98 713.81 164.94 613.50 698.53 707.40 354.35 397.97 0.00 587.49 532.63 689.53 426.05 108.97 524.72 541.59 397.61 303.22 564.92 747.86 371.18 616.86 480.89 600.33 594.43 373.36 428.58 418.88 375.16 574.04 777.05 604.04 306.38 122.67 373.49 505.88 317.78 401.32 629.68 338.53 234.58 365.56 486.63 600.97 478.65 183.29 260.78 611.08 627.59 462.50 607.60 694.91 251.30 753.99 495.92 552.12 286.04 725.98 239.17 551.05 377.30 343.16 578.09 640.66 219.33 721.81 490.07
868.17 602.68 129.11 647.47 714.13 712.87 166.09 87.27 776.69 434.13 123.34 786.47 578.49 925.27 888.41 853.32 87.36 559.93 578.98 393.43 137.29 484.59 541.83 779.53 246.84 777.04 865.66 105.98 487.81 986.89 312.31 435.38 591.71 624.66 569.32 121.36 275.70 940.61 345.75 790.89 181.45 615.08 711.72 111.80 77.69 727.98 514.84 572.36 618.74 1006.10 481.19 593.36 587.49 0.00 583.07 270.58 673.80 626.35 523.51 496.06 834.77 405.78 892.17 818.48 863.96 299.90 698.95 1013.94 910.84 277.80 280.42 273.24 827.69 458.97 724.13 727.86 692.19 480.04 533.72 81.61 449.52 883.97 883.12 510.48 368.13 595.92 194.46 1107.57 565.39 639.07 690.44 405.97 693.94 175.54 640.89 641.30 593.07 715.19 121.08 972.68 736.04 218.20 481.92 101.32 302.59 538.65 685.03 1034.48 705.91 231.17 267.12
473.14 576.31 574.15 169.69 852.51 799.31 711.39 554.79 350.15 523.13 544.83 310.50 91.07 603.41 305.34 601.64 656.28 122.41 18.36 285.30 582.33 729.92 78.15 241.70 395.22 362.96 519.78 673.71 229.34 525.86 525.85 372.12 824.28 702.69 110.53 666.92 395.43 621.95 394.53 302.09 585.71 188.54 884.48 601.44 553.24 239.18 620.19 133.19 215.94 504.77 714.93 166.10 532.63 583.07 0.00 471.72 232.87 503.41 59.56 158.14 678.88 348.92 429.67 289.55 719.71 407.70 181.43 591.14 537.21 527.78 389.14 679.36 476.32 272.74 280.73 144.79 745.11 566.63 172.51 501.46 764.49 652.22 322.63 793.78 503.68 214.30 468.57 738.79 93.06 682.83 426.15 250.61 203.01 444.44 79.31 181.79 328.78 257.67 566.12 620.95 431.14 770.94 293.46 565.31 437.79 215.63 113.95 562.46 590.70 781.22 391.33
731.94 645.85 359.35 576.23 860.65 827.28 432.74 213.97 655.69 580.53 217.85 688.71 550.94 885.61 777.06 915.44 307.58 451.29 490.08 333.56 367.53 674.20 497.38 713.42 246.30 819.32 897.82 310.12 318.50 905.46 458.71 483.44 787.50 771.06 521.47 300.23 76.29 958.11 404.81 669.82 372.97 507.33 872.03 239.48 192.89 654.94 650.01 446.30 500.83 946.23 577.35 552.78 689.53 270.58 471.72 0.00 633.67 738.99 492.58 394.00 924.03 434.72 889.06 761.27 961.94 152.97 653.15 954.63 980.65 362.08 344.22 503.48 852.46 351.22 606.22 616.51 765.70 616.18 473.85 261.33 634.80 953.56 788.04 710.23 504.27 555.31 295.52 1102.28 475.42 775.21 769.19 310.06 674.73 271.39 485.85 545.39 685.90 619.28 351.32 960.64 760.81 347.02 470.91 197.48 361.55 515.99 547.80 959.14 811.01 334.05 227.46
597.02 439.19 614.38 340.63 766.87 652.01 814.99 606.46 543.66 424.12 550.46 402.93 158.50 482.19 320.86 449.91 713.68 308.11 251.23 300.11 620.37 618.50 240.95 177.26 456.48 263.21 415.31 761.93 395.35 416.05 446.43 273.11 707.59 576.42 190.14 738.34 567.78 437.73 415.02 421.82 630.58 421.41 750.82 637.25 627.54 421.14 508.77 326.30 411.33 461.74 666.97 150.84 426.05 673.80 232.87 633.67 0.00 317.08 245.26 326.47 609.08 293.77 272.51 334.62 620.24 498.17 67.65 477.36 380.05 544.61 419.13 681.82 292.10 461.41 462.28 274.52 616.21 478.20 159.82 605.06 664.33 471.79 338.15 672.35 455.72 78.36 549.25 595.88 234.02 512.69 253.71 392.73 216.30 550.87 312.18 393.22 212.09 439.22 613.45 471.31 244.02 809.00 204.75 618.17 437.37 135.15 263.32 460.84 572.17 796.03 436.20
914.10 150.11 610.89 639.99 533.98 419.12 754.67 599.44 804.14 262.33 610.64 720.01 435.58 389.11 503.42 258.75 713.71 548.08 521.77 409.18 588.68 383.64 469.95 380.00 552.99 367.29 415.85 716.99 585.08 522.62 384.15 305.21 457.68 322.50 429.15 731.32 685.53 314.26 446.70 737.88 597.51 675.87 504.29 652.09 620.52 704.12 273.91 575.05 640.65 600.96 463.32 383.29 108.97 626.35 503.41 738.99 317.08 0.00 508.09 541.93 329.45 325.45 455.95 643.79 370.28 620.21 384.73 491.36 563.49 482.33 450.81 527.85 268.72 623.73 746.04 558.70 408.23 231.64 362.63 544.74 424.70 417.35 520.71 447.50 343.55 345.05 533.39 492.00 467.08 289.72 151.81 585.24 533.38 557.52 549.61 652.09 249.18 727.97 604.89 444.34 177.07 815.06 268.08 580.76 476.28 287.78 580.40 531.69 307.50 827.95 532.71
452.92 568.40 534.14 220.77 802.84 814.17 651.83 496.60 329.93 463.57 503.88 262.96 86.76 599.10 364.90 588.42 608.37 62.85 55.47 234.47 542.32 723.65 38.14 301.26 358.88 422.52 515.47 614.15 195.64 583.30 481.96 312.56 830.87 717.55 90.56 628.48 435.43 612.69 368.65 281.85 552.26 188.82 843.59 551.80 493.68 298.74 613.92 141.53 224.04 564.33 693.64 126.75 524.72 523.51 59.56 492.58 245.26 508.09 0.00 98.58 715.99 336.95 439.76 349.11 744.44 389.18 230.41 609.59 547.30 501.90 380.17 639.35 472.01 240.16 296.46 204.35 763.76 517.65 206.29 441.90 738.61 635.76 382.19 787.51 482.39 207.18 428.56 757.24 67.18 676.68 432.74 232.79 198.58 404.43 138.87 170.19 335.37 273.40 526.11 618.70 426.83 711.38 285.55 505.75 402.40 220.67 161.52 622.02 586.39 724.35 365.45
487.54 585.27 478.36 285.39 857.99 795.16 593.53 419.87 364.55 506.92 409.91 353.02 181.61 674.95 463.48 651.55 533.06 63.87 154.05 135.89 456.15 674.23 103.38 372.03 260.30 493.29 610.32 554.98 131.94 656.19 466.67 377.28 818.05 698.54 155.23 551.75 374.15 675.82 359.62 341.57 466.36 202.94 817.24 475.07 418.37 365.90 564.50 142.55 238.16 632.59 650.16 189.88 541.59 496.06 158.14 394.00 326.47 541.93 98.58 0.00 767.52 238.37 534.61 417.37 808.35 291.30 290.60 648.50 609.34 490.91 306.99 598.83 544.40 146.90 343.55 272.61 784.27 550.82 263.14 434.51 695.63 701.00 480.77 738.09 438.91 248.11 365.80 796.15 106.09 709.85 499.62 134.21 297.16 363.91 195.01 251.22 433.63 339.76 472.36 713.55 498.97 636.07 321.13 452.91 353.43 254.15 260.10 709.87 670.51 631.81 271.98
1115.30 368.33 731.88 790.84 419.07 323.90 951.83 844.32 992.31 475.20 775.05 904.05 661.17 420.54 700.88 169.51 871.07 774.22 660.52 728.51 754.09 486.57 695.90 681.81 715.94 568.07 494.92 934.76 882.54 561.24 590.20 587.22 437.35 328.20 654.74 933.68 847.74 345.69 605.74 911.37 771.03 830.70 384.94 836.61 823.24 871.35 522.43 800.64 865.92 638.46 555.45 608.88 397.61 834.77 678.88 924.03 609.08 329.45 715.99 767.52 0.00 627.39 452.94 829.61 40.83 858.72 589.72 475.18 560.48 644.18 669.04 711.70 421.28 910.45 913.30 721.77 242.47 421.12 588.22 791.10 485.14 244.80 718.17 536.54 533.03 570.64 673.52 559.37 692.67 374.09 399.43 866.15 663.55 659.23 758.19 860.67 496.80 890.24 739.91 439.97 365.06 1000.36 597.53 820.95 562.48 513.37 766.57 603.07 195.25 1013.33 736.22
725.91 346.90 327.71 462.01 696.57 620.49 534.10 378.87 602.92 280.39 352.50 591.39 257.85 673.65 566.27 584.20 462.38 302.24 351.12 131.80 335.89 468.58 336.09 471.03 227.54 547.96 655.95 496.42 317.55 625.75 252.57 138.91 610.94 523.87 289.49 510.75 377.24 598.80 121.25 579.94 371.28 441.31 661.31 417.37 399.95 542.52 358.85 376.50 476.53 744.47 411.79 282.86 303.22 405.78 348.92 434.72 293.77 325.45 336.95 238.37 627.39 0.00 566.28 628.39 590.19 334.05 361.42 701.55 673.82 254.50 125.36 404.91 525.49 346.35 581.13 493.71 609.51 312.45 202.49 324.17 457.26 525.61 548.98 532.44 200.54 234.95 270.35 803.44 306.93 471.48 451.84 307.86 472.43 277.88 379.71 482.19 360.08 558.07 319.68 652.97 462.08 582.16 147.78 354.31 150.83 217.26 457.17 679.43 432.14 595.13 207.26
711.63 606.06 806.65 521.22 812.84 697.98 1026.60 855.52 703.36 631.22 803.35 532.64 353.00 239.12 247.94 368.51 941.32 502.61 446.27 572.62 814.83 807.64 444.00 236.39 695.95 115.13 163.64 943.18 635.40 143.54 718.94 545.62 845.41 757.60 384.64 969.19 825.10 313.97 687.53 551.53 858.99 602.70 796.79 896.95 876.60 507.73 720.52 545.83 611.40 189.23 850.89 398.54 564.92 892.17 429.67 889.06 272.51 455.95 439.76 534.61 452.94 566.28 0.00 376.67 493.77 751.06 248.24 214.82 107.54 735.63 651.07 923.80 252.36 668.29 642.87 429.18 695.41 619.21 432.33 849.88 856.17 426.54 265.23 894.11 707.90 350.87 748.52 323.37 428.52 693.87 330.61 595.40 370.96 772.65 503.58 573.81 349.91 619.81 798.62 251.14 290.95 1061.10 477.26 830.64 687.12 388.04 443.91 188.33 619.10 1068.54 686.84
479.25 773.81 863.70 249.03 1080.28 984.36 984.57 825.82 463.15 726.09 763.23 258.04 380.62 588.36 167.74 687.18 905.84 410.57 296.87 553.26 870.14 826.37 367.70 275.24 672.58 280.99 540.31 924.46 518.89 426.94 772.71 599.39 992.06 911.04 361.27 927.17 684.98 513.51 664.76 239.15 846.68 381.90 1083.17 853.00 830.52 192.57 799.34 402.58 346.68 327.81 923.22 364.05 747.86 818.48 289.55 761.27 334.62 643.79 349.11 417.37 829.61 628.39 376.67 0.00 848.15 650.74 266.97 443.58 424.77 784.15 678.69 955.77 546.45 523.71 343.16 144.76 941.16 698.03 444.42 791.01 899.76 644.18 169.10 972.93 725.74 404.64 696.72 569.73 374.50 847.31 496.47 540.16 189.05 720.85 339.41 381.60 496.56 363.90 855.67 592.80 541.14 1036.68 511.84 781.67 691.13 459.56 248.00 439.06 812.64 1049.18 652.30
1087.12 327.50 763.17 750.01 403.08 288.22 983.12 833.38 964.13 438.00 753.36 900.04 657.68 391.39 741.71 170.33 899.87 807.29 701.35 721.99 740.96 478.82 736.73 682.63 756.77 567.16 475.02 955.95 868.34 520.41 553.00 550.02 465.66 330.48 689.32 957.16 888.57 347.26 609.57 893.43 765.59 871.53 387.03 867.93 839.37 830.52 485.23 841.47 904.37 597.63 575.67 632.00 371.18 863.96 719.71 961.94 620.24 370.28 744.44 808.35 40.83 590.19 493.77 848.15 0.00 899.55 583.97 434.35 541.63 606.98 703.62 743.89 383.66 928.84 902.65 762.60 283.30 383.92 606.61 783.70 525.97 203.97 731.72 577.37 495.83 611.47 714.35 566.16 715.79 336.89 400.25 898.05 704.38 690.55 798.05 882.58 497.62 879.59 757.17 399.14 386.60 987.23 610.35 821.07 603.31 554.20 779.64 562.24 158.05 1000.20 777.05
625.71 637.53 328.73 477.03 841.63 746.46 399.08 253.88 502.72 468.98 176.56 535.74 398.93 784.94 713.04 846.14 315.48 336.40 426.06 211.03 336.91 629.95 392.54 612.82 147.07 696.79 775.29 356.81 238.93 752.49 347.16 382.77 727.74 659.51 368.50 352.44 89.08 835.58 335.49 516.85 321.17 397.64 806.72 232.13 268.46 557.54 549.69 323.48 424.08 823.70 577.95 399.81 616.86 299.90 407.70 152.97 498.17 620.21 389.18 291.30 858.72 334.05 751.06 650.74 899.55 0.00 524.47 838.55 827.68 377.68 240.54 390.91 699.49 257.29 489.37 505.98 665.03 516.24 351.32 259.74 642.30 831.03 717.31 643.40 404.33 420.29 252.57 973.42 397.39 675.27 616.22 157.09 564.20 250.68 392.01 392.42 563.37 466.31 320.70 859.97 607.84 453.53 416.96 244.27 296.24 363.02 494.77 806.17 742.11 447.84 126.79
600.32 506.84 662.38 272.98 813.31 719.66 836.25 611.68 477.33 483.40 601.72 385.14 143.65 487.36 305.09 420.21 713.14 278.73 199.79 340.55 660.81 559.40 215.33 161.49 452.11 275.60 411.88 694.94 410.77 391.78 505.74 332.42 725.09 644.07 155.97 720.95 576.86 442.52 462.09 396.47 633.08 369.97 818.47 648.81 632.76 353.49 532.37 314.62 363.16 437.00 656.25 150.30 480.89 698.95 181.43 653.15 67.65 384.73 230.41 290.60 589.72 361.42 248.24 266.97 583.97 524.47 0.00 409.71 355.78 595.34 441.72 727.87 359.75 420.05 394.63 206.87 683.86 431.06 210.05 626.32 632.79 539.44 305.44 705.96 515.03 137.67 557.61 557.36 184.51 580.34 309.28 367.38 148.65 555.72 260.74 325.57 229.59 371.57 654.35 439.52 311.67 849.44 244.87 633.52 438.88 194.94 195.67 436.57 616.91 836.47 438.70
806.35 641.47 944.65 590.47 837.43 722.57 1142.26 955.29 804.59 644.61 923.90 585.14 553.36 224.25 359.52 456.23 1068.90 636.63 609.50 639.35 922.44 875.00 584.36 370.22 795.72 253.35 148.28 1064.76 769.42 86.06 752.49 652.48 886.64 751.46 565.68 1038.75 924.22 279.30 770.14 566.25 878.28 685.42 821.38 985.55 971.75 629.16 765.27 700.29 709.60 163.28 897.69 560.01 600.33 1013.94 591.14 954.63 477.36 491.36 609.59 648.50 475.18 701.55 214.82 443.58 434.35 838.55 409.71 0.00 107.28 850.67 733.52 936.30 246.22 795.40 714.06 523.26 717.65 666.01 499.06 932.33 902.97 344.39 342.23 938.86 755.49 547.38 835.53 147.65 542.41 687.73 339.55 777.09 503.45 859.66 670.45 639.67 436.92 691.00 938.65 149.22 337.87 1148.24 598.14 968.86 780.27 508.59 605.38 127.89 592.40 1135.27 775.44
798.04 550.75 914.19 592.25 858.84 743.98 1076.93 941.46 777.27 619.32 910.89 618.31 460.54 181.42 285.00 414.51 998.20 545.47 553.81 676.77 922.37 787.91 551.54 322.80 803.49 201.54 227.31 1016.82 678.26 76.05 741.14 625.30 832.05 696.87 492.18 1032.20 916.76 256.27 678.96 623.08 889.15 615.66 842.79 988.38 962.54 615.27 758.14 593.01 602.32 127.62 884.76 506.08 594.43 910.84 537.21 980.65 380.05 563.49 547.30 609.34 560.48 673.82 107.54 424.77 541.63 827.68 355.78 107.28 0.00 812.21 736.78 953.54 312.71 722.78 658.66 480.84 759.47 656.83 539.87 935.59 861.30 368.84 302.29 852.68 730.20 458.41 830.25 246.26 536.06 690.36 417.02 702.94 422.62 849.27 611.12 532.39 457.45 635.60 906.16 217.71 398.49 1129.04 584.80 917.05 722.22 495.58 551.45 123.64 594.26 1142.01 794.38
899.95 388.55 162.72 656.86 498.57 465.20 382.67 271.16 776.96 220.00 291.37 764.86 510.24 790.31 802.35 658.14 299.42 528.94 512.35 382.34 140.51 325.51 476.67 701.66 230.61 620.50 716.33 361.23 557.91 879.17 98.18 271.50 475.61 410.53 508.49 356.71 400.62 755.93 133.25 783.75 158.61 660.43 539.32 298.34 275.86 736.35 287.93 547.87 625.21 855.52 303.94 518.51 373.36 277.80 527.78 362.08 544.61 482.33 501.90 490.91 644.18 254.50 735.63 784.15 606.98 377.68 595.34 850.67 812.21 0.00 220.79 188.17 668.81 539.76 730.60 653.25 474.47 267.26 443.05 254.55 371.97 671.19 785.06 447.40 155.35 466.25 130.80 958.24 434.72 426.29 531.56 484.25 692.04 154.93 587.55 672.09 498.50 745.08 156.72 823.35 577.16 386.78 388.64 227.01 176.51 452.41 618.40 886.99 448.93 399.75 250.89
745.74 450.05 291.89 558.83 657.79 568.65 408.74 253.51 647.11 281.50 240.95 603.91 298.07 668.87 624.55 680.19 367.78 370.86 391.34 179.35 310.40 471.94 389.07 576.64 104.60 552.40 585.24 371.06 345.30 751.11 159.68 179.29 607.21 472.03 329.71 385.39 274.61 697.45 101.36 595.50 311.14 485.50 617.04 308.71 274.59 532.59 362.21 429.85 450.28 739.74 390.47 350.91 428.58 280.42 389.14 344.22 419.13 450.81 380.17 306.99 669.04 125.36 651.07 678.69 703.62 240.54 441.72 733.52 736.78 220.79 0.00 395.55 555.86 363.66 555.67 533.93 557.76 327.01 319.64 198.81 454.82 650.97 628.10 493.58 215.10 360.31 189.93 827.15 373.15 447.64 458.75 263.46 512.65 165.80 468.45 498.79 361.38 572.68 299.92 692.26 464.21 469.13 273.14 262.66 106.56 310.59 497.39 804.79 552.88 482.02 116.76
1016.62 462.56 144.13 824.94 587.85 513.05 315.05 337.23 893.63 334.22 356.80 902.31 656.97 878.58 926.31 732.15 294.86 662.70 694.82 486.60 166.34 333.94 601.21 838.91 338.53 808.67 830.55 344.14 629.84 967.56 286.35 430.67 461.08 416.43 659.22 345.93 479.99 842.11 321.42 907.76 210.50 788.55 569.60 345.14 316.15 905.45 406.37 714.39 813.38 1043.69 237.09 602.37 418.88 273.24 679.36 503.48 681.82 527.85 639.35 598.83 711.70 404.91 923.80 955.77 743.89 390.91 727.87 936.30 953.54 188.17 395.55 0.00 734.00 648.20 880.28 811.01 502.16 359.97 522.00 284.93 307.40 763.90 922.81 382.83 248.06 603.46 259.05 1019.85 622.89 480.16 596.75 548.00 784.75 234.92 734.56 783.33 631.55 857.22 152.16 913.21 642.35 404.43 521.61 348.78 288.99 596.85 793.31 1021.24 585.84 417.40 357.02
852.26 418.83 742.35 533.97 691.94 596.77 962.30 798.68 748.09 517.79 718.66 604.84 385.25 194.57 430.94 295.14 868.85 532.53 478.52 551.61 720.14 628.86 476.25 386.72 660.46 265.46 147.13 833.28 620.36 263.67 570.63 450.18 640.42 505.24 416.89 859.29 788.57 145.63 608.52 612.16 675.98 648.70 657.81 834.74 810.56 558.17 540.10 578.08 671.61 332.24 695.39 431.98 375.16 827.69 476.32 852.46 292.10 268.72 472.01 544.40 421.28 525.49 252.36 546.45 383.66 699.49 359.75 246.22 312.71 668.81 555.86 734.00 0.00 686.42 686.61 422.56 515.34 463.71 411.32 754.67 692.94 179.69 413.65 713.69 575.62 370.46 633.23 373.78 438.31 441.51 137.25 627.65 364.34 657.36 535.05 630.24 234.62 663.55 736.35 179.21 91.65 966.41 440.46 786.37 577.97 336.47 504.12 317.35 419.80 979.38 672.62
440.71 617.72 550.39 274.68 945.93 841.91 619.52 464.29 317.72 572.84 433.85 396.90 326.92 821.85 566.22 779.09 546.33 177.31 288.57 214.55 534.81 788.29 250.28 503.39 370.92 624.65 755.63 564.95 66.06 778.66 523.34 421.83 847.11 745.29 302.13 578.88 308.27 806.49 406.51 400.61 521.41 156.11 905.18 489.42 485.37 345.44 678.56 193.86 191.33 746.07 723.67 336.78 574.04 458.97 272.74 351.22 461.41 623.73 240.16 146.90 910.45 346.35 668.29 523.71 928.84 257.29 420.05 795.40 722.78 539.76 363.66 648.20 686.42 0.00 296.72 386.09 831.02 626.92 322.23 409.59 761.14 801.94 558.40 816.84 520.25 383.05 459.98 943.05 252.99 757.33 549.17 100.20 361.27 474.53 260.33 239.38 566.89 275.86 542.36 858.86 594.77 638.22 383.06 473.44 394.70 397.08 351.99 832.34 770.79 651.19 350.64
222.47 820.73 787.33 152.64 1099.30 1023.68 884.36 667.52 171.21 715.99 665.93 144.10 371.80 734.62 403.97 814.84 761.13 290.80 296.98 449.98 770.24 919.04 334.60 463.96 583.93 585.22 781.12 783.05 332.96 651.66 715.35 609.02 1043.96 930.76 387.02 799.40 575.17 809.47 597.35 147.81 758.03 140.61 1072.59 705.67 646.44 150.59 809.31 212.12 105.39 624.03 922.34 411.05 777.05 724.13 280.73 606.22 462.28 746.04 296.46 343.55 913.30 581.13 642.87 343.16 902.65 489.37 394.63 714.06 658.66 730.60 555.67 880.28 686.61 296.72 0.00 264.05 1014.76 708.00 453.24 706.31 944.96 854.06 421.26 945.42 711.09 438.36 677.64 861.71 354.25 867.03 599.22 332.28 322.27 653.51 201.42 126.27 548.46 23.06 779.30 809.65 644.82 864.14 564.75 678.57 601.84 481.71 198.96 705.34 871.43 877.11 563.65
429.70 647.72 718.94 111.41 968.39 853.53 856.18 687.39 325.53 617.61 632.40 208.49 235.86 617.13 228.62 627.08 787.93 267.20 163.15 408.50 725.38 766.27 222.94 213.42 527.82 334.68 569.69 818.50 374.13 475.61 639.92 466.60 870.49 824.69 228.52 811.71 540.22 568.19 520.00 189.60 701.92 254.26 952.34 717.65 690.98 191.92 726.61 264.96 265.77 359.98 806.16 310.89 604.04 727.86 144.79 616.51 274.52 558.70 204.35 272.61 721.77 493.71 429.18 144.76 762.60 505.98 206.87 523.26 480.84 653.25 533.93 811.01 422.56 386.09 264.05 0.00 869.81 637.93 317.30 646.25 839.66 590.01 211.33 900.20 594.91 271.85 551.96 601.90 237.85 787.21 425.12 395.40 58.22 576.09 201.79 243.98 436.46 240.99 710.91 601.77 470.72 908.68 398.24 650.84 550.31 329.12 142.24 471.23 735.49 904.42 507.54
1185.15 262.70 579.14 914.80 176.60 81.43 799.09 683.48 1062.16 360.84 652.00 1019.14 677.00 590.21 842.02 344.96 713.81 812.99 759.07 674.33 587.32 244.10 740.75 721.57 558.52 660.17 662.47 775.62 860.08 779.01 398.08 511.71 194.88 85.73 694.99 776.38 728.53 515.36 529.40 1038.03 552.17 929.25 142.47 738.68 704.56 984.29 284.37 869.83 961.05 847.58 312.98 652.97 306.38 692.19 745.11 765.70 616.21 408.23 763.76 784.27 242.47 609.51 695.41 941.16 283.30 665.03 683.86 717.65 759.47 474.47 557.76 502.16 515.34 831.02 1014.76 869.81 0.00 306.76 572.60 628.78 242.67 487.27 824.73 294.07 418.67 639.88 605.27 801.84 736.76 147.73 444.69 795.87 832.51 585.40 824.42 926.90 542.06 1002.78 571.11 645.44 475.09 833.59 545.55 679.99 546.62 582.61 859.06 792.55 177.37 846.56 538.24
889.93 145.77 379.25 648.42 430.54 315.68 599.20 454.48 847.58 54.08 426.62 780.61 487.74 523.05 626.43 411.06 515.95 580.50 559.93 444.25 357.04 211.04 515.46 592.55 408.09 504.08 550.41 572.03 607.90 697.27 169.08 205.09 354.86 222.76 456.10 573.24 539.89 545.90 225.65 772.70 389.26 706.47 404.55 509.68 455.45 728.93 101.31 647.78 717.61 739.10 231.68 467.56 122.67 480.04 566.63 616.18 478.20 231.64 517.65 550.82 421.12 312.45 619.21 698.03 383.92 516.24 431.06 666.01 656.83 267.26 327.01 359.97 463.71 626.92 708.00 637.93 306.76 0.00 443.08 399.78 236.96 503.41 609.14 274.90 111.91 399.84 376.94 723.64 487.18 159.03 326.46 590.47 579.71 356.40 622.42 687.84 373.97 731.06 373.25 598.08 372.06 603.31 327.46 463.63 254.63 386.00 571.11 750.95 225.87 616.28 428.37
641.25 417.17 482.76 342.20 680.00 626.80 662.04 456.23 518.26 398.15 440.51 469.25 155.40 559.11 458.80 542.04 569.84 240.39 186.47 140.29 460.55 563.95 168.15 337.08 296.66 345.47 558.45 609.30 313.86 492.88 369.97 247.14 665.36 530.18 144.09 588.11 425.16 484.26 323.74 474.60 470.76 356.65 711.97 486.49 472.69 411.69 454.22 305.70 388.45 575.94 542.42 80.37 373.49 533.72 172.51 473.85 159.82 362.63 206.29 263.14 588.22 202.49 432.33 444.42 606.61 351.32 210.05 499.06 539.87 443.05 319.64 522.00 411.32 322.23 453.24 317.30 572.60 443.08 0.00 452.11 609.78 479.71 441.51 627.81 331.17 81.46 402.16 646.71 164.16 510.32 320.98 293.48 336.06 400.27 251.82 354.30 315.16 430.18 476.76 590.53 319.67 649.18 134.32 489.27 353.32 74.85 286.46 546.56 448.56 636.21 276.38
830.70 521.07 140.80 642.49 673.21 639.67 209.93 54.70 727.31 352.52 83.18 704.86 496.88 852.64 806.80 790.66 168.97 498.38 497.37 311.82 148.98 514.38 479.83 713.61 174.21 751.21 784.05 172.25 475.65 944.99 230.70 378.10 603.40 543.05 496.69 186.58 237.63 859.00 283.73 723.75 193.14 565.70 713.96 109.90 75.78 723.00 433.23 577.06 600.92 924.49 443.72 532.48 505.88 81.61 501.46 261.33 605.06 544.74 441.90 434.51 791.10 324.17 849.88 791.01 783.70 259.74 626.32 932.33 935.59 254.55 198.81 284.93 754.67 409.59 706.31 646.25 628.78 399.78 452.11 0.00 461.21 803.71 801.51 522.17 287.87 526.70 132.44 1025.96 492.76 558.81 628.42 416.83 640.48 131.87 580.77 612.09 531.05 685.45 132.77 891.07 663.02 270.32 400.31 63.85 254.88 498.49 603.42 998.67 625.65 283.21 194.49
1126.89 310.55 336.47 874.14 302.95 301.67 556.42 481.47 1041.23 291.04 468.91 956.44 701.83 760.01 863.39 565.76 471.14 733.46 749.06 589.06 344.65 73.39 713.38 794.28 524.73 741.04 787.37 532.95 727.92 934.23 295.14 442.05 153.68 231.76 693.06 533.71 623.36 738.96 369.96 975.33 360.06 897.14 262.20 508.65 486.17 954.65 155.56 812.14 861.92 928.60 70.31 642.73 317.78 449.52 764.49 634.80 664.33 424.70 738.61 695.63 485.14 457.26 856.17 899.76 525.97 642.30 632.79 902.97 861.30 371.97 454.82 307.40 692.94 761.14 944.96 839.66 242.67 236.96 609.78 461.21 0.00 668.19 846.10 75.43 281.56 610.32 423.20 916.70 671.43 256.76 563.42 718.28 781.44 424.91 824.26 851.01 538.48 954.22 328.44 784.23 601.77 590.92 483.93 437.32 398.44 587.92 808.07 956.39 420.04 603.89 544.09
959.69 357.64 783.18 701.42 602.93 488.07 1003.13 804.52 915.54 505.99 830.55 772.29 564.94 187.42 545.04 158.60 919.88 697.96 658.21 620.00 760.97 594.80 597.62 484.45 753.15 363.19 271.05 962.21 757.33 415.00 573.01 587.15 643.35 508.17 571.86 936.40 902.85 144.18 629.58 779.61 797.61 800.30 586.88 859.72 825.60 737.86 566.26 740.55 811.30 472.57 654.05 560.08 401.32 883.97 652.22 953.56 471.79 417.35 635.76 701.00 244.80 525.61 426.54 644.18 203.97 831.03 539.44 344.39 368.84 671.19 650.97 763.90 179.69 801.94 854.06 590.01 487.27 503.41 479.71 803.71 668.19 0.00 527.75 739.85 515.84 525.73 770.20 362.19 618.00 444.44 274.22 773.19 531.79 760.33 672.02 774.50 371.59 831.00 777.18 195.17 271.34 1007.24 593.06 848.67 658.56 516.16 671.57 361.32 362.02 1020.21 732.87
576.55 670.82 868.46 322.74 1001.33 893.35 1011.44 833.90 535.43 663.22 771.31 350.60 330.03 480.90 17.29 609.96 936.68 445.04 340.99 556.45 876.71 820.18 386.59 160.89 681.42 164.56 397.27 958.15 551.97 299.52 696.89 523.57 931.91 796.73 358.94 965.78 718.06 508.35 656.59 336.45 855.52 465.59 967.20 861.08 838.60 361.67 710.45 455.82 477.10 250.09 840.82 405.06 629.68 883.12 322.63 788.04 338.15 520.71 382.19 480.77 718.17 548.98 265.23 169.10 731.72 717.31 305.44 342.23 302.29 785.06 628.10 922.81 413.65 558.40 421.26 211.33 824.73 609.14 441.51 801.51 846.10 527.75 0.00 884.04 706.18 360.05 756.26 489.88 405.55 768.17 380.04 570.35 197.13 752.08 401.94 455.31 439.21 444.32 867.36 491.45 372.04 1030.99 401.20 789.75 633.82 417.32 312.17 312.28 700.19 1018.02 661.14
1159.85 382.21 397.43 853.76 309.89 367.95 604.21 556.90 1036.86 328.98 544.34 1003.79 735.79 797.95 901.33 639.03 532.10 801.96 812.14 639.68 405.61 148.82 774.43 827.50 496.33 778.98 825.31 593.91 795.58 928.73 368.76 479.99 202.06 307.19 715.07 594.67 666.34 761.76 445.39 997.18 402.20 875.25 269.14 582.38 561.60 934.27 173.59 831.91 840.03 980.30 145.74 660.76 338.53 510.48 793.78 710.23 672.35 447.50 787.51 738.09 536.54 532.44 894.11 972.93 577.37 643.40 705.96 938.86 852.68 447.40 493.58 382.83 713.69 816.84 945.42 900.20 294.07 274.90 627.81 522.17 75.43 739.85 884.04 0.00 331.90 628.35 479.25 939.50 741.41 326.46 599.31 757.04 854.61 455.12 763.38 865.86 556.51 941.74 389.40 802.26 624.57 567.09 501.96 512.75 422.14 605.95 846.01 976.32 471.44 580.06 516.61
925.52 257.68 267.34 637.35 496.03 422.26 487.29 342.57 802.53 110.88 314.71 745.35 458.39 634.96 723.47 522.97 404.04 502.78 492.84 332.34 245.13 268.04 457.16 629.57 296.18 592.77 607.21 460.12 518.09 769.54 57.17 182.61 411.86 334.67 475.26 461.33 427.98 646.81 113.74 764.24 281.77 640.92 464.27 397.77 343.54 716.84 158.31 577.04 605.70 827.79 211.25 411.54 234.58 368.13 503.68 504.27 455.72 343.55 482.39 438.91 533.03 200.54 707.90 725.74 495.83 404.33 515.03 755.49 730.20 155.35 215.10 248.06 575.62 520.25 711.09 594.91 418.67 111.91 331.17 287.87 281.56 515.84 706.18 331.90 0.00 377.36 265.03 835.55 415.21 270.94 438.37 478.56 536.69 244.49 560.27 652.58 409.61 734.15 261.34 709.99 483.97 491.40 304.98 351.72 142.72 363.52 598.89 823.22 337.78 504.37 316.46
600.02 409.24 536.50 353.84 746.22 650.77 736.63 537.69 477.03 345.76 472.58 470.14 133.22 533.34 377.34 481.43 637.95 258.44 201.30 221.75 542.01 564.49 183.22 255.62 378.12 341.57 493.67 690.76 316.99 494.41 368.07 194.75 689.33 554.15 123.86 669.57 506.62 516.09 356.20 461.42 552.22 368.19 705.47 567.95 554.15 434.35 454.76 247.94 332.97 540.10 588.61 80.43 365.56 595.92 214.30 555.31 78.36 345.05 207.18 248.11 570.64 234.95 350.87 404.64 611.47 420.29 137.67 547.38 458.41 466.25 360.31 603.46 370.46 383.05 438.36 271.85 639.88 399.84 81.46 526.70 610.32 525.73 360.05 628.35 377.36 0.00 470.89 568.49 164.22 548.85 251.51 335.27 262.03 472.51 263.46 335.80 290.45 439.01 544.53 549.67 297.11 730.64 126.39 540.29 359.01 57.27 307.35 539.20 530.02 717.67 357.84
822.19 501.82 173.37 584.87 629.37 596.00 339.52 187.14 699.20 333.27 160.57 691.52 446.18 777.81 759.76 725.90 235.97 429.67 484.03 261.87 173.42 428.79 390.42 628.12 105.50 673.26 762.32 299.66 427.11 843.44 211.45 276.14 576.88 523.80 427.98 315.82 275.51 774.82 151.29 707.37 171.96 568.74 632.92 201.51 206.09 665.38 413.98 508.35 603.96 824.38 425.04 471.43 486.63 194.46 468.57 295.52 549.25 533.39 428.56 365.80 673.52 270.35 748.52 696.72 714.35 252.57 557.61 835.53 830.25 130.80 189.93 259.05 633.23 459.98 677.64 551.96 605.27 376.94 402.16 132.44 423.20 770.20 756.26 479.25 265.03 470.89 0.00 973.88 424.05 535.97 495.98 383.41 610.18 24.13 523.77 598.75 398.61 654.58 165.34 812.44 541.58 402.76 355.06 187.64 122.44 457.05 582.52 897.12 579.73 415.65 125.78
954.00 642.11 1092.30 713.31 943.22 828.36 1235.89 1080.66 927.43 738.24 1041.07 732.79 670.62 269.60 474.72 501.58 1187.34 784.28 757.15 787.00 1070.09 875.64 732.01 505.09 931.75 401.00 241.91 1198.21 885.48 220.93 860.06 697.74 949.68 814.50 692.35 1186.40 1062.50 324.65 863.36 713.90 1025.93 833.07 927.17 1133.20 1101.74 762.30 765.91 816.43 848.58 241.92 955.32 648.92 600.97 1107.57 738.79 1102.28 595.88 492.00 757.24 796.15 559.37 803.44 323.37 569.73 566.16 973.42 557.36 147.65 246.26 958.24 827.15 1019.85 373.78 943.05 861.71 601.90 801.84 723.64 646.71 1025.96 916.70 362.19 489.88 939.50 835.55 568.49 973.88 0.00 690.06 781.72 487.20 903.76 638.32 975.50 803.69 778.65 584.57 838.65 1086.30 194.57 465.43 1295.89 694.88 1072.76 900.33 625.76 744.14 260.04 662.64 1282.92 923.09
520.10 522.33 521.95 222.14 762.65 757.98 699.62 478.12 397.11 473.26 462.40 330.14 75.52 568.86 398.40 545.46 591.73 94.22 77.63 216.70 530.13 677.55 41.95 334.76 318.55 456.02 504.23 631.19 227.01 572.06 432.79 346.26 811.36 676.18 73.77 610.00 399.13 569.73 301.47 349.03 492.65 242.69 803.40 508.38 494.58 301.63 567.82 172.90 277.91 597.83 626.46 83.79 478.65 565.39 93.06 475.42 234.02 467.08 67.18 106.09 692.67 306.93 428.52 374.50 715.79 397.39 184.51 542.41 536.06 434.72 373.15 622.89 438.31 252.99 354.25 237.85 736.76 487.18 164.16 492.76 671.43 618.00 405.55 741.41 415.21 164.22 424.05 690.06 0.00 646.21 398.58 240.30 265.76 408.24 152.83 237.37 335.90 331.19 513.92 607.46 415.59 712.28 239.48 511.16 344.73 179.30 183.68 616.85 575.15 712.62 298.27
1048.96 139.61 538.28 807.45 275.21 160.35 661.59 613.51 994.41 213.11 585.65 915.62 620.34 559.06 785.46 409.20 674.98 686.64 673.38 603.28 516.07 187.35 648.06 669.72 552.24 605.01 588.64 724.62 739.46 705.18 328.11 364.12 198.91 63.73 588.70 711.97 698.92 484.21 384.68 931.73 522.19 843.56 245.52 668.71 614.48 887.96 159.31 765.32 876.64 773.75 284.20 581.26 183.29 639.07 682.83 775.21 512.69 289.72 676.68 709.85 374.09 471.48 693.87 847.31 336.89 675.27 580.34 687.73 690.36 426.29 447.64 480.16 441.51 757.33 867.03 787.21 147.73 159.03 510.32 558.81 256.76 444.44 768.17 326.46 270.94 548.85 535.97 781.72 646.21 0.00 389.53 711.10 728.99 515.43 762.14 846.87 434.59 890.09 532.28 614.29 435.13 750.97 422.46 622.66 413.66 526.45 730.14 758.86 178.84 763.94 564.40
810.68 301.92 605.10 488.18 621.29 526.12 825.05 683.12 687.69 380.54 653.29 590.48 351.19 281.83 397.33 229.92 731.60 492.80 444.46 449.71 582.89 535.45 434.73 282.38 563.35 215.48 284.38 787.23 483.11 370.81 433.38 312.93 588.44 453.26 375.37 799.09 705.30 278.84 478.55 609.37 538.73 526.08 587.16 697.49 701.48 552.31 425.72 466.33 537.08 450.50 558.14 331.94 260.78 690.44 426.15 769.19 253.71 151.81 432.74 499.62 399.43 451.84 330.61 496.47 400.25 616.22 309.28 339.55 417.02 531.56 458.75 596.75 137.25 549.17 599.22 425.12 444.69 326.46 320.98 628.42 563.42 274.22 380.04 599.31 438.37 251.51 495.98 487.20 398.58 389.53 0.00 564.95 457.93 520.11 397.80 500.28 97.37 576.16 599.10 316.46 45.60 829.16 318.84 662.25 440.72 253.20 504.95 424.49 373.75 842.13 568.91
482.28 654.76 465.34 319.94 917.57 832.11 552.08 410.97 395.48 544.96 333.65 423.49 242.40 742.18 555.95 769.82 472.57 179.31 268.97 176.06 443.13 735.40 235.45 492.31 277.91 598.01 671.11 511.95 81.84 738.94 423.14 442.75 746.91 735.49 211.41 509.53 246.17 754.35 364.82 410.65 444.04 240.55 876.82 389.22 425.55 400.45 625.67 166.39 275.77 755.38 653.93 308.15 611.08 405.97 250.61 310.06 392.73 585.24 232.79 134.21 866.15 307.86 595.40 540.16 898.05 157.09 367.38 777.09 702.94 484.25 263.46 548.00 627.65 100.20 332.28 395.40 795.87 590.47 293.48 416.83 718.28 773.19 570.35 757.04 478.56 335.27 383.41 903.76 240.30 711.10 564.95 0.00 431.37 381.52 234.92 235.33 489.81 309.22 459.34 774.34 569.17 610.62 398.84 401.36 370.02 352.78 350.35 783.73 740.00 604.93 257.63
487.92 655.49 726.38 169.63 910.17 795.31 850.41 636.77 383.75 607.79 574.18 240.50 214.58 558.91 204.95 568.86 739.55 261.43 189.23 433.05 732.15 708.05 230.38 211.95 557.46 333.21 511.47 761.02 379.35 417.39 593.86 456.78 873.74 792.72 246.22 768.65 598.44 509.97 560.22 247.82 687.99 297.69 894.12 663.95 641.47 215.71 681.02 310.72 307.27 418.20 747.94 255.69 627.59 693.94 203.01 674.73 216.30 533.38 198.58 297.16 663.55 472.43 370.96 189.05 704.38 564.20 148.65 503.45 422.62 692.04 512.65 784.75 364.34 361.27 322.27 58.22 832.51 579.71 336.06 640.48 781.44 531.79 197.13 854.61 536.69 262.03 610.18 638.32 265.76 728.99 457.93 431.37 0.00 596.67 255.21 265.90 378.24 299.21 718.35 543.55 455.99 859.17 388.42 592.62 516.96 306.94 139.78 471.07 714.21 872.14 548.42
846.32 477.69 149.24 590.02 653.50 596.29 315.39 186.57 723.33 309.14 163.25 667.39 422.05 782.04 747.59 744.35 211.84 427.78 459.90 259.98 149.29 404.66 366.29 603.99 103.61 697.39 751.04 275.53 445.73 862.24 187.32 277.76 575.49 499.67 425.65 296.90 273.62 798.95 170.31 686.28 147.83 566.85 637.53 177.38 207.65 670.53 389.85 506.46 602.07 848.51 418.11 476.04 462.50 175.54 444.44 271.39 550.87 557.52 404.43 363.91 659.23 277.88 772.65 720.85 690.55 250.68 555.72 859.66 849.27 154.93 165.80 234.92 657.36 474.53 653.51 576.09 585.40 356.40 400.27 131.87 424.91 760.33 752.08 455.12 244.49 472.51 24.13 975.50 408.24 515.43 520.11 381.52 596.67 0.00 499.64 574.62 422.74 630.45 141.21 836.57 565.71 389.52 359.67 163.51 127.05 458.67 558.39 915.92 582.27 393.09 123.89
412.88 651.28 619.69 90.38 915.48 873.79 781.79 585.97 289.89 568.34 564.01 240.41 170.38 679.63 384.65 627.72 699.58 131.14 97.67 312.25 632.51 780.83 133.35 321.01 426.40 442.27 599.09 696.94 194.27 605.17 585.62 417.33 903.59 777.17 189.84 694.21 409.56 676.64 454.30 233.80 600.50 128.28 956.23 616.23 597.41 170.89 671.10 68.53 139.28 561.77 771.52 209.63 607.60 640.89 79.31 485.85 312.18 549.61 138.87 195.01 758.19 379.71 503.58 339.41 798.05 392.01 260.74 670.45 611.12 587.55 468.45 734.56 535.05 260.33 201.42 201.79 824.42 622.42 251.82 580.77 824.26 672.02 401.94 763.38 560.27 263.46 523.77 803.69 152.83 762.14 397.80 234.92 255.21 499.64 0.00 102.48 408.09 178.36 621.32 700.26 443.40 766.43 368.43 619.01 476.16 280.29 115.43 641.77 670.01 779.40 406.12
348.74 738.59 697.27 132.57 973.03 967.18 787.41 632.06 244.88 633.76 568.98 194.21 256.95 713.81 470.85 730.20 707.90 187.35 200.15 387.11 678.46 805.18 208.33 399.53 511.52 512.78 685.66 747.28 260.71 608.44 652.15 482.75 949.00 870.56 260.75 744.86 481.50 768.09 538.84 175.32 679.37 83.27 1013.78 624.55 610.98 209.33 695.45 132.91 69.93 603.96 863.83 296.94 694.91 641.30 181.79 545.39 393.22 652.09 170.19 251.22 860.67 482.19 573.81 381.60 882.58 392.42 325.57 639.67 532.39 672.09 498.79 783.33 630.24 239.38 126.27 243.98 926.90 687.84 354.30 612.09 851.01 774.50 455.31 865.86 652.58 335.80 598.75 778.65 237.37 846.87 500.28 235.33 265.90 574.62 102.48 0.00 505.56 103.21 689.24 750.10 545.88 828.68 455.74 595.58 557.94 373.68 182.91 656.03 756.58 840.26 492.96
756.50 294.98 571.98 498.47 667.94 568.57 738.13 585.75 665.30 378.01 559.18 522.12 310.04 379.20 456.50 327.29 634.58 398.22 347.14 352.34 572.03 492.65 337.76 379.75 465.98 274.65 376.50 698.27 531.01 444.83 400.32 227.00 495.50 471.95 278.40 714.43 635.99 376.21 392.62 541.01 570.57 517.32 643.68 600.12 604.70 555.61 382.92 461.97 544.72 509.67 580.54 323.95 251.30 593.07 328.78 685.90 212.09 249.18 335.37 433.63 496.80 360.08 349.91 496.56 497.62 563.37 229.59 436.92 457.45 498.50 361.38 631.55 234.62 566.89 548.46 436.46 542.06 373.97 315.16 531.05 538.48 371.59 439.21 556.51 409.61 290.45 398.61 584.57 335.90 434.59 97.37 489.81 378.24 422.74 408.09 505.56 0.00 571.52 563.95 413.83 142.97 784.33 309.06 564.88 385.52 249.89 425.26 498.51 387.32 771.36 478.14
245.53 797.67 764.27 129.58 1076.24 1046.74 861.30 690.58 194.27 692.93 642.87 121.04 348.74 757.68 427.03 791.78 781.79 275.89 276.03 473.04 752.35 908.39 311.54 440.90 560.87 562.16 758.06 806.11 310.95 628.60 732.36 585.96 1052.21 953.82 363.96 818.75 553.16 809.18 620.41 124.75 734.97 137.70 1095.65 698.44 669.50 173.65 798.66 197.21 128.45 600.97 904.51 387.99 753.99 715.19 257.67 619.28 439.22 727.97 273.40 339.76 890.24 558.07 619.81 363.90 879.59 466.31 371.57 691.00 635.60 745.08 572.68 857.22 663.55 275.86 23.06 240.99 1002.78 731.06 430.18 685.45 954.22 831.00 444.32 941.74 734.15 439.01 654.58 838.65 331.19 890.09 576.16 309.22 299.21 630.45 178.36 103.21 571.52 0.00 756.24 805.74 621.76 883.11 546.79 698.79 624.90 458.65 175.90 682.28 848.37 896.08 540.59
901.21 517.42 8.03 711.70 593.05 609.89 227.98 187.47 778.22 372.18 211.73 789.07 540.06 873.80 871.46 732.24 142.70 536.23 581.58 336.47 16.21 381.61 487.97 738.26 235.93 777.22 868.51 204.51 496.77 942.16 250.36 418.97 470.63 539.98 508.42 205.27 366.18 877.94 277.22 807.96 60.37 675.30 590.64 192.98 180.05 792.21 419.65 570.27 700.92 949.14 389.25 557.13 495.92 121.08 566.12 351.32 613.45 604.89 526.11 472.36 739.91 319.68 798.62 855.67 757.17 320.70 654.35 938.65 906.16 156.72 299.92 152.16 736.35 542.36 779.30 710.91 571.11 373.25 476.76 132.77 328.44 777.18 867.36 389.40 261.34 544.53 165.34 1086.30 513.92 532.28 599.10 459.34 718.35 141.21 621.32 689.24 563.95 756.24 0.00 915.56 644.70 262.48 467.46 196.62 261.35 487.26 680.07 986.95 599.12 275.45 215.65
932.51 552.81 921.56 712.50 751.34 636.48 1101.00 913.03 916.85 603.35 897.31 684.70 531.94 75.03 499.08 307.01 1020.90 681.55 625.21 651.30 899.35 738.40 622.94 477.56 753.46 366.27 107.02 1012.49 799.57 235.28 725.17 624.06 791.44 656.26 563.58 1038.50 923.47 130.08 752.09 703.59 855.19 795.39 735.29 943.29 929.49 737.38 628.67 724.77 802.68 312.50 802.46 589.82 552.12 972.68 620.95 960.64 471.31 444.34 618.70 713.55 439.97 652.97 251.14 592.80 399.14 859.97 439.52 149.22 217.71 823.35 692.26 913.21 179.21 858.86 809.65 601.77 645.44 598.08 590.53 891.07 784.23 195.17 491.45 802.26 709.99 549.67 812.44 194.57 607.46 614.29 316.46 774.34 543.55 836.57 700.26 750.10 413.83 805.74 915.56 0.00 270.86 1145.62 550.81 941.19 757.18 515.68 635.19 277.11 468.07 1147.22 733.18
841.04 327.18 650.70 533.78 651.69 556.52 870.65 717.72 725.23 426.14 660.13 636.08 340.07 286.22 389.33 275.52 777.20 489.68 433.34 459.96 628.49 560.23 417.12 327.98 568.81 261.08 238.78 741.63 528.71 355.32 478.98 358.53 634.04 498.86 357.76 767.64 696.92 233.24 516.87 654.97 584.33 571.68 617.56 743.09 738.80 597.91 450.98 511.93 582.68 423.89 603.74 340.33 286.04 736.04 431.14 760.81 244.02 177.07 426.83 498.97 365.06 462.08 290.95 541.14 386.60 607.84 311.67 337.87 398.49 577.16 464.21 642.35 91.65 594.77 644.82 470.72 475.09 372.06 319.67 663.02 601.77 271.34 372.04 624.57 483.97 297.11 541.58 465.43 415.59 435.13 45.60 569.17 455.99 565.71 443.40 545.88 142.97 621.76 644.70 270.86 0.00 874.76 348.81 707.85 486.32 244.82 507.34 409.00 328.15 887.73 580.97
985.60 749.08 268.48 853.51 855.53 839.95 89.38 238.78 929.05 602.28 309.60 943.38 735.31 1072.16 1048.28 911.75 177.68 680.44 766.85 508.89 246.27 611.67 728.04 910.68 398.35 982.06 1054.37 164.33 572.16 1103.10 484.96 648.42 719.81 770.04 716.21 180.87 380.79 1088.68 501.28 934.97 290.43 793.97 836.23 221.40 217.70 872.06 649.71 699.96 758.75 1121.56 574.51 729.55 725.98 218.20 770.94 347.02 809.00 815.06 711.38 636.07 1000.36 582.16 1061.10 1036.68 987.23 453.53 849.44 1148.24 1129.04 386.78 469.13 404.43 966.41 638.22 864.14 908.68 833.59 603.31 649.18 270.32 590.92 1007.24 1030.99 567.09 491.40 730.64 402.76 1295.89 712.28 750.97 829.16 610.62 859.17 389.52 766.43 828.68 784.33 883.11 262.48 1145.62 874.76 0.00 670.63 266.55 478.46 724.03 870.96 1156.78 829.18 12.97 414.01
726.41 282.85 467.26 458.81 671.30 556.44 610.24 455.01 603.42 273.38 445.19 548.51 233.83 600.67 418.49 526.83 569.28 333.70 311.82 252.28 483.67 438.10 272.47 370.04 352.09 454.96 587.59 572.56 317.00 620.80 295.69 122.37 581.92 459.82 213.11 586.89 506.04 582.05 255.39 547.01 454.59 474.37 641.61 510.21 476.09 532.64 328.37 374.33 459.36 651.29 516.23 158.80 239.17 481.92 293.46 470.91 204.75 268.08 285.55 321.13 597.53 147.78 477.26 511.84 610.35 416.96 244.87 598.14 584.80 388.64 273.14 521.61 440.46 383.06 564.75 398.24 545.55 327.46 134.32 400.31 483.93 593.06 401.20 501.96 304.98 126.39 355.06 694.88 239.48 422.46 318.84 398.84 388.42 359.67 368.43 455.74 309.06 546.79 467.46 550.81 348.81 670.63 0.00 464.16 232.62 103.99 407.41 658.12 458.50 683.52 355.04
766.85 584.92 204.65 706.34 725.58 692.21 267.41 44.15 746.99 416.37 67.71 768.71 546.73 871.04 797.57 839.51 154.68 508.74 561.22 348.98 212.83 476.72 529.80 724.97 192.61 715.51 847.90 168.40 464.37 974.18 294.55 418.05 591.00 606.90 515.09 176.03 222.16 895.02 301.73 761.12 193.27 608.40 699.52 71.33 48.85 727.29 497.08 567.75 573.18 950.53 379.87 512.12 551.05 101.32 565.31 197.48 618.17 580.76 505.75 452.91 820.95 354.31 830.64 781.67 821.07 244.27 633.52 968.86 917.05 227.01 262.66 348.78 786.37 473.44 678.57 650.84 679.99 463.63 489.27 63.85 437.32 848.67 789.75 512.75 351.72 540.29 187.64 1072.76 511.16 622.66 662.25 401.36 592.62 163.51 619.01 595.58 564.88 698.79 196.62 941.19 707.85 266.55 464.16 0.00 258.47 483.02 667.27 1018.97 663.02 279.52 212.89
806.26 388.57 269.38 566.54 551.23 557.51 442.44 281.84 683.27 253.60 212.57 665.36 404.63 720.32 637.32 626.31 338.89 417.30 422.36 217.54 258.36 410.76 386.68 600.37 153.46 656.20 691.80 397.37 403.29 776.58 148.54 202.59 552.12 460.89 418.50 413.72 285.26 719.56 43.26 684.25 221.97 521.66 510.48 304.43 260.76 639.15 301.03 495.98 535.22 830.21 353.97 348.99 377.30 302.59 437.79 361.55 437.37 476.28 402.40 353.43 562.48 150.83 687.12 691.13 603.31 296.24 438.88 780.27 722.22 176.51 106.56 288.99 577.97 394.70 601.84 550.31 546.62 254.63 353.32 254.88 398.44 658.56 633.82 422.14 142.72 359.01 122.44 900.33 344.73 413.66 440.72 370.02 516.96 127.05 476.16 557.94 385.52 624.90 261.35 757.18 486.32 478.46 232.62 258.47 0.00 336.61 528.41 830.26 480.50 491.43 173.74
639.35 386.84 479.23 370.67 708.36 593.50 699.18 495.33 516.36 331.92 415.31 483.63 147.80 531.04 409.65 483.12 580.68 273.52 233.99 215.14 501.44 542.09 182.53 266.05 371.51 352.36 483.60 643.82 374.26 531.58 354.23 180.91 632.06 496.88 141.37 627.21 452.10 478.06 338.51 502.52 545.60 404.17 678.67 550.53 507.21 451.18 432.36 287.27 390.24 571.47 574.77 95.51 343.16 538.65 215.63 515.99 135.15 287.78 220.67 254.15 513.37 217.26 388.04 459.56 554.20 363.02 194.94 508.59 495.58 452.41 310.59 596.85 336.47 397.08 481.71 329.12 582.61 386.00 74.85 498.49 587.92 516.16 417.32 605.95 363.52 57.27 457.05 625.76 179.30 526.45 253.20 352.78 306.94 458.67 280.29 373.68 249.89 458.65 487.26 515.68 244.82 724.03 103.99 483.02 336.61 0.00 329.58 554.13 523.41 711.06 351.23
404.65 621.77 688.10 77.31 946.33 886.79 813.35 658.12 281.66 517.03 646.08 220.48 199.32 665.79 329.46 615.88 769.89 219.75 106.05 372.99 693.25 755.07 192.10 299.15 502.23 386.46 582.16 775.67 298.80 541.88 616.47 460.89 920.76 793.87 196.95 780.87 509.38 638.19 485.15 201.59 676.33 202.71 975.66 692.06 655.20 157.82 672.42 183.96 167.49 502.22 801.08 267.47 578.09 685.03 113.95 547.80 263.32 580.40 161.52 260.10 766.57 457.17 443.91 248.00 779.64 494.77 195.67 605.38 551.45 618.40 497.39 793.31 504.12 351.99 198.96 142.24 859.06 571.11 286.46 603.42 808.07 671.57 312.17 846.01 598.89 307.35 582.52 744.14 183.68 730.14 504.95 350.35 139.78 558.39 115.43 182.91 425.26 175.90 680.07 635.19 507.34 870.96 407.41 667.27 528.41 329.58 0.00 595.56 698.95 868.91 481.95
888.83 674.39 994.98 582.64 898.45 783.59 1200.57 1002.79 796.76 742.96 969.44 662.88 541.33 258.81 329.57 454.12 1116.40 669.11 580.82 686.85 1003.16 911.55 632.33 337.84 843.22 303.46 276.17 1131.51 791.80 53.68 788.81 715.49 938.55 803.37 572.97 1134.67 895.25 277.19 800.68 648.73 963.22 725.49 882.40 1033.05 1019.25 631.63 805.60 695.65 720.58 111.25 949.57 586.87 640.66 1034.48 562.46 959.14 460.84 531.69 622.02 709.87 603.07 679.43 188.33 439.06 562.24 806.17 436.57 127.89 123.64 886.99 804.79 1021.24 317.35 832.34 705.34 471.23 792.55 750.95 546.56 998.67 956.39 361.32 312.28 976.32 823.22 539.20 897.12 260.04 616.85 758.86 424.49 783.73 471.07 915.92 641.77 656.03 498.51 682.28 986.95 277.11 409.00 1156.78 658.12 1018.97 830.26 554.13 595.56 0.00 615.18 1169.75 822.94
1007.78 175.65 605.12 760.39 353.97 258.80 825.07 675.33 884.79 279.95 595.31 849.35 499.63 412.84 717.48 305.14 741.82 649.24 592.90 563.94 582.91 366.19 590.63 632.57 633.96 589.23 491.61 797.90 749.69 633.44 394.95 391.97 372.25 241.22 531.27 799.11 745.21 337.99 451.52 868.24 607.54 763.08 319.84 722.51 681.32 829.88 327.18 692.46 798.30 721.88 457.55 504.55 219.33 705.91 590.70 811.01 572.17 307.50 586.39 670.51 195.25 432.14 619.10 812.64 158.05 742.11 616.91 592.40 594.26 448.93 552.88 585.84 419.80 770.79 871.43 735.49 177.37 225.87 448.56 625.65 420.04 362.02 700.19 471.44 337.78 530.02 579.73 662.64 575.15 178.84 373.75 740.00 714.21 582.27 670.01 756.58 387.32 848.37 599.12 468.07 328.15 829.18 458.50 663.02 480.50 523.41 698.95 615.18 0.00 842.15 639.40
998.57 762.05 281.45 866.48 868.50 852.92 102.35 251.75 942.02 615.25 322.57 956.35 722.34 1083.97 1035.31 924.72 190.26 667.47 762.86 495.92 259.24 624.64 735.19 897.71 406.91 981.68 1060.18 151.36 585.13 1116.07 497.93 661.31 732.78 783.01 722.00 176.87 393.76 1101.65 514.25 945.17 303.40 806.94 849.20 215.71 230.67 885.03 662.68 712.93 771.72 1108.59 561.54 716.58 721.81 231.17 781.22 334.05 796.03 827.95 724.35 631.81 1013.33 595.13 1068.54 1049.18 1000.20 447.84 836.47 1135.27 1142.01 399.75 482.02 417.40 979.38 651.19 877.11 904.42 846.56 616.28 636.21 283.21 603.89 1020.21 1018.02 580.06 504.37 717.67 415.65 1282.92 712.62 763.94 842.13 604.93 872.14 393.09 779.40 840.26 771.36 896.08 275.45 1147.22 887.73 12.97 683.52 279.52 491.43 711.06 868.91 1169.75 842.15 0.00 425.82
735.28 533.75 223.68 496.50 714.84 619.67 404.42 179.85 629.51 386.37 164.13 625.00 333.84 658.15 678.43 756.88 293.46 335.85 375.90 136.09 231.86 503.16 340.22 537.88 20.28 621.85 700.35 332.92 321.84 769.26 264.55 255.98 600.95 576.90 302.20 311.73 190.29 733.00 208.70 613.55 194.38 474.92 680.71 210.11 196.31 577.01 467.08 414.53 510.14 748.76 474.70 356.75 490.07 267.12 391.33 227.46 436.20 532.71 365.45 271.98 736.22 207.26 686.84 652.30 777.05 126.79 438.70 775.44 794.38 250.89 116.76 357.02 672.62 350.64 563.65 507.54 538.24 428.37 276.38 194.49 544.09 732.87 661.14 516.61 316.46 357.84 125.78 923.09 298.27 564.40 568.91 257.63 548.42 123.89 406.12 492.96 478.14 540.59 215.65 733.18 580.97 414.01 355.04 212.89 173.74 351.23 481.95 822.94 639.40 425.82 0.00
DEMAND_SECTION
1 0
2 8
3 10
4 6
5 10
6 5
7 6
8 10
9 10
10 8
11 5
12 8
13 9
14 10
15 10
16 5
17 6
18 6
19 6
20 8
21 9
22 5
23 9
24 7
25 5
26 10
27 9
28 8
29 7
30 7
31 6
32 9
33 5
34 6
35 7
36 5
37 7
38 10
39 8
40 7
41 7
42 5
43 5
44 8
45 9
46 7
47 10
48 6
49 7
50 10
51 7
52 7
53 10
54 9
55 8
56 7
57 8
58 10
59 6
60 8
61 7
62 10
63 6
64 8
65 9
66 5
67 10
68 6
69 8
70 8
71 8
72 7
73 7
74 8
75 7
76 10
77 6
78 6
79 8
80 8
81 10
82 7
83 10
84 10
85 7
86 5
87 10
88 8
89 9
90 6
91 6
92 6
93 10
94 9
95 5
96 5
97 5
98 8
99 10
100 5
101 7
102 7
103 6
104 5
105 6
106 8
107 9
108 8
109 8
110 8
111 6
DEPOT_SECTION
1
-1
EOF
