NAME: LDG110_3254_snow_110_0260
COMMENT: CVRP with travel times.  rootPos=3,custPos=2,demandType=5,avgRouteSizeIndex=4,weather=snow,lambda_cluster=1,lambda_random=4, T1=300,T2=700,beta=1, alpha(i,j) ~ U(0.8,1.2)
TYPE: CVRP
DIMENSION: 111
EDGE_WEIGHT_TYPE: EXPLICIT
EDGE_WEIGHT_FORMAT: FULL_MATRIX
CAPACITY: 1074
NODE_COORD_SECTION
1 0 0
2 747 848
3 478 486
4 430 470
5 275 527
6 37 700
7 350 479
8 367 508
9 154 983
10 255 944
11 835 580
12 223 924
13 867 835
14 462 322
15 243 490
16 364 429
17 338 488
18 825 904
19 205 1000
20 475 571
21 756 903
22 969 845
23 275 505
24 373 451
25 986 969
26 424 477
27 445 393
28 720 958
29 759 946
30 607 554
31 227 498
32 372 480
33 369 458
34 448 650
35 158 949
36 419 973
37 829 894
38 772 862
39 811 926
40 602 787
41 754 774
42 337 874
43 679 942
44 560 393
45 349 461
46 783 946
47 363 465
48 280 310
49 335 493
50 819 950
51 308 914
52 771 805
53 363 436
54 175 577
55 94 866
56 838 868
57 422 445
58 28 508
59 123 966
60 398 451
61 334 368
62 930 924
63 305 960
64 210 976
65 266 957
66 534 727
67 173 993
68 211 976
69 438 362
70 358 408
71 398 466
72 868 850
73 831 963
74 308 381
75 691 846
76 879 941
77 801 887
78 375 470
79 208 530
80 386 377
81 183 895
82 614 777
83 320 493
84 901 755
85 274 465
86 378 480
87 268 425
88 386 441
89 861 910
90 409 507
91 926 985
92 349 497
93 227 977
94 189 995
95 817 911
96 256 964
97 813 893
98 309 483
99 809 914
100 305 481
101 463 641
102 410 390
103 586 561
104 151 992
105 239 961
106 419 405
107 158 988
108 332 514
109 347 353
110 124 969
111 82 954
EDGE_WEIGHT_SECTION
0.00 1814.45 1167.98 1111.90 943.30 1294.90 983.80 1003.79 1610.27 1666.82 1712.70 1539.92 1904.65 1108.95 839.36 1010.59 970.16 1843.16 1664.14 1282.86 1844.28 2005.04 902.75 1011.19 2102.64 1104.03 1126.67 1803.79 1904.03 1373.15 883.32 1019.31 1034.88 1088.94 1564.72 1794.10 1869.42 1819.59 1855.98 1493.15 1733.91 1568.17 1764.55 1251.29 1015.12 1924.89 1014.47 1023.64 958.82 1897.44 1575.81 1709.97 987.16 1066.78 1632.56 1797.02 1048.52 1294.51 1630.96 1047.23 872.11 2009.84 1623.62 1683.06 1638.00 1343.35 1653.78 1676.89 1113.45 976.86 1074.52 1876.21 1847.77 999.54 1684.93 1934.82 1805.26 984.96 955.64 1009.41 1520.66 1473.65 935.94 1877.21 963.32 1006.58 954.53 1041.54 1897.30 1085.35 2057.64 994.37 1644.61 1675.30 1832.32 1651.64 1801.01 892.48 1861.89 910.84 1128.63 1077.05 1400.66 1638.34 1612.16 1052.47 1618.13 995.87 923.39 1641.75 1618.89
1814.45 0.00 751.21 783.61 1024.56 1286.47 918.66 876.56 996.12 869.26 558.44 966.10 258.66 1057.99 1021.87 916.82 926.42 196.17 928.72 587.23 153.72 457.49 1022.26 864.23 466.03 815.36 978.53 285.26 202.49 636.48 1065.83 884.39 891.61 725.51 1014.27 638.42 211.38 68.66 226.66 361.28 144.07 798.70 245.95 937.04 862.86 190.27 902.90 1155.19 911.27 287.54 856.71 145.57 900.82 1048.67 1129.46 145.40 866.76 1393.22 1043.47 885.41 1015.87 336.10 865.86 874.75 846.07 471.10 934.78 868.58 978.81 983.09 888.92 224.59 237.87 1041.71 150.11 322.35 147.22 910.55 1117.51 969.44 1031.18 394.71 919.60 323.30 984.79 890.13 906.70 887.88 245.68 860.52 427.97 928.43 913.88 938.58 195.45 824.40 171.69 963.06 218.26 964.42 685.82 989.16 628.18 990.88 893.86 951.20 997.51 927.91 1041.48 1054.26 1060.26
1167.98 751.21 0.00 212.45 309.26 809.87 264.63 202.56 997.14 882.52 561.93 911.21 951.16 404.88 389.69 260.84 267.24 904.89 958.48 163.98 904.93 1066.48 339.53 222.32 1195.67 236.65 260.54 961.44 953.70 396.99 410.79 194.62 203.97 406.66 957.91 1003.99 920.39 819.87 917.71 540.17 828.75 753.97 875.65 329.74 228.77 941.48 213.39 488.19 250.16 994.48 849.17 728.09 254.87 505.44 944.61 896.61 221.46 737.47 1024.15 180.47 355.59 1087.31 904.40 939.75 831.07 563.37 1012.12 945.92 334.99 278.15 143.59 899.74 981.27 372.26 655.42 1034.99 898.43 183.02 439.25 302.46 923.02 573.60 237.31 918.92 338.00 204.64 337.64 215.52 968.94 165.78 1151.23 259.26 950.21 1002.20 894.05 852.74 862.74 275.50 923.62 282.13 366.97 249.97 387.62 988.96 922.20 302.78 1010.29 272.43 374.48 1030.13 954.29
1111.90 783.61 212.45 0.00 258.61 738.84 166.93 151.31 958.86 836.97 767.27 850.04 953.87 325.19 332.58 133.21 173.12 977.85 912.93 196.38 937.33 1065.00 269.19 148.23 1204.73 31.75 194.92 954.50 986.10 429.39 340.45 110.68 142.35 354.45 896.31 993.55 968.72 852.27 925.99 567.04 830.02 771.13 920.09 329.13 161.98 973.88 121.94 382.72 180.37 1009.98 851.49 874.55 132.05 434.41 894.62 929.01 83.15 633.78 946.80 101.80 247.10 987.54 814.24 894.20 785.52 511.16 937.42 900.37 249.70 199.48 105.31 1005.29 1021.48 258.10 867.87 1083.32 930.83 126.94 388.60 185.83 861.40 533.61 211.62 1065.38 276.38 106.52 260.39 124.48 1007.18 113.57 1099.79 144.82 909.10 882.85 952.36 807.19 955.30 219.42 922.79 225.57 314.76 205.55 460.91 935.15 876.65 167.59 956.48 181.80 269.01 936.01 903.04
943.30 1024.56 309.26 258.61 0.00 500.61 168.85 174.23 826.62 806.69 871.19 753.67 961.35 446.77 103.94 240.83 142.09 1066.39 801.94 454.99 1091.35 1160.18 40.55 228.20 1386.44 226.86 347.16 1006.51 1069.28 543.39 111.81 178.43 208.21 452.72 829.30 990.12 1097.78 1016.87 1089.09 663.28 924.44 740.10 895.01 515.39 205.65 1118.72 187.80 433.77 148.38 1173.08 783.08 917.24 219.60 196.18 897.14 1046.62 269.41 443.94 847.50 261.49 321.41 1224.74 797.97 853.21 808.44 613.02 805.59 847.04 389.11 310.98 262.78 1012.77 1167.71 293.92 938.85 1201.67 1095.43 197.06 129.99 319.25 785.24 696.71 143.21 1076.68 130.67 200.08 208.76 255.15 1144.46 247.38 1261.42 113.79 836.93 845.66 1092.52 830.11 1070.68 142.08 1085.89 124.59 448.57 331.44 568.32 813.81 825.91 345.19 792.48 186.29 360.26 836.71 847.38
1294.90 1286.47 809.87 738.84 500.61 0.00 629.14 674.84 563.93 724.66 1367.41 765.40 1391.69 874.42 455.54 702.65 613.67 1255.82 631.25 833.75 1297.17 1590.52 518.93 688.44 1600.35 727.47 819.34 1152.02 1214.79 1010.45 487.89 634.85 670.03 734.53 578.60 1030.63 1287.21 1317.15 1316.15 1117.56 1308.19 907.54 1040.52 920.45 667.11 1264.23 649.62 854.76 601.26 1331.72 812.34 1207.53 715.77 304.43 428.80 1349.63 752.87 352.65 512.36 717.91 754.89 1442.79 812.88 664.89 755.53 988.94 592.52 658.72 871.92 668.68 719.58 1340.27 1345.48 721.05 1260.75 1401.81 1323.77 662.21 415.57 751.79 689.81 1084.13 613.19 1398.36 579.50 656.50 570.71 716.97 1347.44 734.82 1372.41 614.40 688.72 603.42 1285.30 733.86 1297.97 569.73 1310.88 588.09 774.22 793.26 1046.70 551.12 696.36 807.01 529.79 557.04 759.47 501.57 530.92
983.80 918.66 264.63 166.93 168.85 629.14 0.00 103.39 830.57 762.44 808.85 702.04 969.16 361.86 205.51 119.50 26.76 961.85 815.29 363.31 986.14 1167.99 147.54 100.08 1283.52 135.18 241.72 907.20 1007.44 484.66 198.65 79.44 87.05 337.39 866.68 874.79 993.24 937.85 1010.32 650.41 774.59 624.77 864.79 398.39 55.80 1056.88 66.64 335.92 43.84 1070.03 705.13 839.29 96.07 324.71 852.01 995.86 152.41 565.42 800.44 146.51 184.39 1148.82 704.54 845.18 737.60 497.69 875.00 839.01 275.80 189.22 121.04 1020.58 1049.19 162.53 839.86 1107.84 990.15 97.01 260.85 222.50 806.10 683.84 65.26 1030.12 178.60 101.09 179.10 130.43 1038.32 128.86 1176.22 55.06 806.73 859.01 986.66 759.27 955.35 91.32 1016.23 72.96 330.05 210.28 509.89 858.64 774.28 220.47 857.53 72.10 235.67 789.65 855.12
1003.79 876.56 202.56 151.31 174.23 674.84 103.39 0.00 814.47 685.66 764.49 758.75 921.86 360.06 225.50 152.41 88.38 978.96 761.62 289.33 1009.56 1120.69 209.16 122.92 1256.76 153.62 236.53 957.91 1026.68 501.44 267.27 52.04 95.54 322.44 789.75 936.41 1006.21 945.22 991.78 603.11 798.01 686.39 900.35 396.78 107.32 1060.69 111.28 361.17 89.28 1051.56 754.09 898.67 157.58 370.41 913.13 1015.85 150.80 618.17 851.31 135.10 272.63 1138.85 707.54 742.89 634.21 479.15 815.26 749.06 292.98 219.61 136.77 973.28 1001.89 263.83 812.46 1088.94 959.38 80.91 304.22 272.62 814.59 636.54 126.88 1089.50 212.49 73.69 249.73 124.52 1025.02 81.56 1207.31 71.84 757.79 805.34 968.12 655.88 936.81 111.31 997.69 129.67 282.75 229.47 482.49 786.40 725.34 214.56 807.73 129.85 296.92 851.27 751.73
1610.27 996.12 997.14 958.86 826.62 563.93 830.57 814.47 0.00 217.57 1296.57 232.12 1125.73 1154.41 770.91 931.77 803.81 1018.21 122.05 948.26 986.30 1256.63 798.21 911.65 1225.09 931.47 1013.04 888.16 938.41 1033.49 726.95 866.51 910.01 773.35 90.27 495.37 1030.57 1044.59 957.88 868.59 1107.16 375.30 840.88 1179.22 867.37 888.97 897.21 1126.98 820.89 1009.85 316.69 1006.50 914.90 769.09 250.38 1017.50 933.24 849.34 80.74 890.43 995.54 1140.22 281.70 133.71 242.39 711.52 70.53 127.54 1044.68 988.11 853.55 1096.69 970.22 993.10 846.01 1057.27 1023.86 888.03 696.63 1015.05 241.78 869.72 842.31 1197.33 888.33 888.16 886.08 925.48 1059.63 882.40 1180.09 832.11 130.46 80.37 994.56 220.72 1012.85 864.59 975.24 846.23 733.66 1040.85 977.50 28.07 162.91 1015.52 34.14 860.44 1046.82 69.95 150.20
1666.82 869.26 882.52 836.97 806.69 724.66 762.44 685.66 217.57 0.00 1123.87 126.90 958.91 1021.68 872.38 838.07 746.97 838.61 147.08 811.95 877.85 1157.74 842.55 808.58 1146.03 839.28 922.19 734.81 795.47 830.97 865.08 737.70 781.20 744.27 177.10 320.89 870.00 937.92 864.42 749.81 953.39 221.96 623.31 1055.29 792.98 844.91 796.94 1046.83 734.56 912.40 171.33 852.73 843.24 750.14 322.22 932.42 836.46 830.52 243.34 820.76 934.36 1025.58 124.78 93.11 51.45 615.50 165.48 99.28 971.80 876.22 822.43 923.06 926.16 806.93 809.20 984.60 897.26 766.57 792.76 958.28 191.08 716.38 777.57 1043.56 875.52 759.35 886.90 810.18 902.63 767.22 1084.92 757.50 87.11 154.95 827.74 69.18 859.05 774.34 857.31 755.98 783.96 903.77 824.16 207.25 54.66 850.96 194.87 690.34 939.50 254.13 278.62
1712.70 558.44 561.93 767.27 871.19 1367.41 808.85 764.49 1296.57 1123.87 0.00 1250.77 702.57 819.08 939.20 763.30 800.88 612.31 1229.17 692.94 607.55 838.98 889.04 711.90 806.87 735.52 788.08 646.22 689.93 459.93 960.30 732.56 739.28 740.82 1300.97 1059.09 605.17 522.49 672.64 599.97 513.53 1055.77 756.58 808.53 756.18 703.33 752.30 973.19 799.67 719.12 1150.97 412.87 739.87 1062.98 1446.09 606.68 724.00 1299.40 1343.92 665.47 840.59 790.61 1140.82 1175.20 1175.32 744.43 1235.23 1169.03 884.19 763.15 687.81 685.87 699.65 888.19 573.36 692.26 574.94 732.53 1001.18 818.20 1284.41 566.54 799.24 603.70 873.31 710.91 890.75 706.09 665.40 727.71 815.08 797.20 1210.98 1239.03 641.79 1193.05 619.12 825.01 667.36 843.37 701.13 811.90 453.57 1291.33 1178.53 796.13 1297.96 810.37 859.48 1354.71 1360.71
1539.92 966.10 911.21 850.04 753.67 765.40 702.04 758.75 232.12 126.90 1250.77 0.00 1085.81 952.13 761.63 785.74 712.40 965.51 178.08 845.65 950.37 1266.50 715.65 766.15 1230.27 837.22 894.69 841.92 867.99 883.52 766.68 762.43 753.12 770.12 214.81 378.75 996.90 985.70 981.18 730.16 985.69 255.66 750.21 1081.94 753.08 917.43 732.71 1030.64 704.82 984.92 160.46 932.61 798.11 787.83 339.80 1026.93 835.96 848.10 253.67 796.21 879.11 1152.48 204.66 143.14 131.33 531.45 172.96 136.97 956.89 855.89 813.50 1049.96 998.68 863.55 855.44 1015.56 1013.67 739.92 839.00 894.05 125.35 750.08 673.90 1123.44 748.62 761.54 815.93 755.59 1029.53 830.90 1138.38 740.37 104.69 167.63 954.64 141.70 985.95 647.44 984.21 629.08 736.33 876.35 822.31 217.18 72.24 845.63 235.69 714.11 930.39 263.83 252.11
1904.65 258.66 951.16 953.87 961.35 1391.69 969.16 921.86 1125.73 958.91 702.57 1085.81 0.00 1172.87 1065.29 1026.97 995.92 160.65 1063.36 845.89 273.35 198.83 1001.90 998.98 425.09 931.15 1021.26 331.42 244.67 747.35 1073.16 940.27 990.63 874.55 1136.01 828.99 143.98 255.20 167.85 552.65 254.94 976.18 351.17 1153.97 973.73 236.76 973.94 1249.40 1010.71 233.82 1015.46 289.70 1023.99 1157.53 1276.02 113.26 964.45 1405.29 1138.84 967.13 1139.04 263.39 968.68 1009.39 992.63 620.14 1069.42 1003.22 1095.18 1064.81 930.25 51.42 238.46 1131.69 340.68 240.32 176.64 943.57 1091.34 1085.23 1149.99 519.22 1034.42 229.50 1092.02 940.31 1112.39 1002.18 183.11 840.30 300.07 988.77 1046.02 1045.36 131.17 970.96 162.48 1017.80 160.74 1036.16 834.86 1094.66 801.75 1097.66 1013.57 1041.85 1118.99 1018.08 1161.14 1149.63 1194.90
1108.95 1057.99 404.88 325.19 446.77 874.42 361.86 360.06 1154.41 1021.68 819.08 952.13 1172.87 0.00 418.88 289.22 369.00 1148.03 1077.86 521.57 1064.33 1165.56 406.22 265.89 1440.22 293.44 151.61 1108.10 1146.71 491.02 460.65 332.34 279.78 566.98 1091.34 1197.02 1175.28 1063.56 1160.85 781.98 983.43 947.00 1096.70 308.06 310.17 1161.66 298.55 305.80 351.92 1239.84 988.02 997.13 265.79 592.62 1101.88 1164.78 269.34 845.98 1141.25 274.22 243.37 1312.73 1028.58 1042.81 970.23 697.66 1115.18 1048.98 136.93 250.00 300.86 1180.14 1224.41 279.37 965.63 1289.88 1142.12 317.48 481.48 139.36 997.13 815.41 348.15 1027.55 382.89 314.45 427.55 235.54 1212.08 332.57 1294.16 344.82 1056.82 1114.38 1137.19 991.90 1105.88 304.69 1166.76 323.05 533.76 154.91 429.81 1146.46 1024.37 170.72 1135.14 396.14 192.09 1131.89 1111.79
839.36 1021.87 389.69 332.58 103.94 455.54 205.51 225.50 770.91 872.38 939.20 761.63 1065.29 418.88 0.00 256.43 184.17 1098.54 824.78 504.57 1065.99 1255.33 63.39 232.90 1403.87 325.54 377.37 1064.61 1148.37 615.63 43.96 241.02 231.05 475.66 725.36 1010.83 1123.98 1041.30 1132.73 767.22 955.62 782.18 998.95 464.91 236.83 1163.32 210.64 399.22 180.53 1198.67 792.54 931.68 269.49 227.42 793.20 1018.73 313.89 455.15 791.60 279.33 299.35 1231.55 784.26 860.75 833.95 650.69 814.42 864.30 423.64 309.76 291.43 1097.92 1149.00 265.51 992.27 1195.68 1112.60 206.67 116.28 296.25 681.30 787.50 157.65 1122.51 123.96 228.29 115.17 263.25 1119.01 307.06 1301.30 212.47 835.48 835.94 1125.41 812.28 1108.35 114.19 1115.37 132.55 435.97 352.96 591.16 798.98 831.69 353.29 778.77 217.58 350.63 802.39 779.53
1010.59 916.82 260.84 133.21 240.83 702.65 119.50 152.41 931.77 838.07 763.30 785.74 1026.97 289.22 256.43 0.00 127.96 1038.94 893.55 329.59 997.51 1198.21 200.28 60.02 1294.89 163.98 218.88 962.68 1025.45 543.96 271.54 117.75 56.87 389.55 931.53 975.99 1024.13 942.22 1036.34 641.31 785.96 725.97 851.18 345.98 67.17 1072.24 53.03 277.80 120.93 1106.17 783.39 886.62 23.43 417.76 918.27 988.39 100.00 635.23 901.64 97.83 138.48 1120.75 797.59 884.35 786.62 564.58 922.43 890.52 266.55 70.15 117.25 1067.58 1069.00 124.89 878.17 1090.35 959.97 83.40 325.97 149.86 775.92 666.82 143.52 1077.45 190.90 105.02 191.48 82.75 1049.69 186.67 1213.17 129.24 858.79 937.27 1029.49 808.29 1004.15 142.24 1018.98 156.66 349.86 194.26 548.20 938.81 857.98 172.79 958.73 165.15 164.09 890.85 904.14
970.16 926.42 267.24 173.12 142.09 613.67 26.76 88.38 803.81 746.97 800.88 712.40 995.92 369.00 184.17 127.96 0.00 935.09 788.53 341.12 993.90 1194.75 120.78 107.84 1278.19 141.37 258.02 880.44 980.68 457.90 192.04 78.96 113.81 310.63 839.92 848.03 966.48 922.15 983.56 663.60 782.35 598.01 891.55 425.15 63.56 1030.12 93.40 362.68 17.08 1043.27 678.37 812.53 111.09 309.24 839.91 982.22 179.17 538.66 773.68 135.41 211.15 1122.06 689.07 831.27 722.59 470.93 861.59 837.44 283.56 194.12 145.86 1047.34 1047.12 189.29 839.38 1081.08 972.77 84.22 234.09 233.76 830.49 695.34 38.50 1003.36 178.86 100.61 180.53 133.46 1026.71 155.62 1149.46 28.30 817.09 832.25 959.90 744.26 928.59 77.68 989.47 83.32 350.32 237.04 509.41 831.88 784.64 223.50 830.77 56.63 251.75 762.89 840.11
1843.16 196.17 904.89 977.85 1066.39 1255.82 961.85 978.96 1018.21 838.61 612.31 965.51 160.65 1148.03 1098.54 1038.94 935.09 0.00 975.01 783.40 158.21 359.48 1055.66 1004.37 347.77 981.09 1039.46 224.85 142.98 751.50 1126.92 997.37 989.43 754.22 1015.71 699.22 31.39 127.51 60.33 468.46 324.35 857.55 215.30 1058.50 995.28 129.24 1009.84 1214.89 918.01 108.18 917.51 223.69 1038.54 1126.79 1160.83 93.81 1009.77 1464.76 1032.27 971.90 1146.24 186.97 862.11 931.72 890.06 499.81 984.35 937.89 1078.14 1069.58 987.35 145.09 112.18 1124.38 249.47 145.99 86.33 985.15 1135.02 1098.26 1029.69 444.24 964.60 320.12 1085.53 997.41 1102.87 1002.52 91.62 897.40 268.81 953.56 925.72 937.84 29.48 869.27 42.15 984.35 55.06 993.75 714.53 993.12 790.67 990.14 893.27 1026.75 1011.47 962.23 1101.18 1043.06 1112.27
1664.14 928.72 958.48 912.93 801.94 631.25 815.29 761.62 122.05 147.08 1229.17 178.08 1063.36 1077.86 824.78 893.55 788.53 975.01 0.00 914.52 914.41 1189.67 761.39 873.49 1188.44 894.82 945.17 838.00 832.03 953.75 831.71 813.66 857.16 820.23 154.30 407.84 993.92 977.19 921.23 746.54 1029.35 324.53 770.39 1158.40 829.21 852.32 840.52 1106.73 796.62 948.96 243.39 928.69 879.47 648.25 310.11 950.10 912.42 836.51 140.47 896.72 955.20 1103.57 200.74 53.97 127.41 674.16 73.06 60.14 940.93 963.70 898.39 1029.29 933.57 954.01 778.61 1020.62 987.21 842.53 759.39 984.22 201.44 779.97 750.03 1119.52 851.51 835.31 892.06 881.39 1020.42 843.18 1143.44 816.83 93.10 43.72 945.53 105.74 976.20 793.49 938.59 794.85 791.23 979.73 926.73 93.98 105.84 926.92 115.31 833.18 1006.48 129.68 216.11
1282.86 587.23 163.98 196.38 454.99 833.75 363.31 289.33 948.26 811.95 692.94 845.65 845.89 521.57 504.57 329.59 341.12 783.40 914.52 0.00 740.95 1044.72 461.69 344.61 1053.26 228.13 391.30 850.09 789.72 233.01 532.95 297.16 338.73 254.29 857.99 840.01 772.34 655.89 813.89 600.03 725.42 589.99 833.18 493.72 358.36 777.50 318.32 579.10 324.04 874.77 685.19 683.51 328.43 529.32 1021.42 732.63 279.53 830.16 924.23 298.18 443.48 923.33 757.28 860.55 805.07 429.32 932.92 866.72 446.08 395.86 301.69 811.82 825.10 454.48 737.34 886.94 734.45 323.32 541.05 382.21 822.47 566.60 370.63 874.34 472.76 302.90 456.77 320.86 832.57 309.95 1009.76 341.20 895.27 911.25 782.68 822.84 758.92 390.38 805.49 399.78 214.60 401.93 264.53 942.32 862.82 363.97 920.99 340.68 465.39 935.02 979.20
1844.28 153.72 904.93 937.33 1091.35 1297.17 986.14 1009.56 986.30 877.85 607.55 950.37 273.35 1064.33 1065.99 997.51 993.90 158.21 914.41 740.95 0.00 449.39 1053.33 960.78 433.45 969.08 997.01 182.62 82.38 703.96 1107.76 983.90 985.95 828.13 1016.51 606.32 185.46 85.06 129.97 428.07 211.55 815.10 256.65 1090.76 930.34 97.33 970.38 1233.65 1007.61 199.31 824.61 194.68 980.60 1097.78 1113.73 209.25 969.38 1442.33 990.04 929.45 1095.65 345.18 819.88 895.68 830.34 573.72 960.50 901.85 1093.12 1027.13 966.33 257.79 178.58 1118.12 283.64 265.63 145.95 1000.75 1148.25 1082.18 1045.02 455.13 968.71 339.70 1052.98 994.24 1060.42 930.43 197.00 928.00 379.29 1022.20 910.58 905.93 142.18 808.67 116.06 951.80 112.61 970.16 788.44 1067.03 762.00 958.23 878.13 1020.47 979.56 1042.34 1119.94 1000.83 1080.36
2005.04 457.49 1066.48 1065.00 1160.18 1590.52 1167.99 1120.69 1256.63 1157.74 838.98 1266.50 198.83 1165.56 1255.33 1198.21 1194.75 359.48 1189.67 1044.72 449.39 0.00 1200.73 1182.84 274.66 1066.36 1124.74 501.17 417.10 904.34 1271.99 1139.10 1189.46 916.10 1275.22 899.37 342.81 427.51 341.23 564.82 453.77 1025.81 550.00 1075.61 1172.56 367.66 1172.77 1381.02 1209.54 336.08 1117.66 426.11 1197.05 1329.21 1434.69 312.09 1106.13 1604.12 1304.42 1136.41 1269.97 282.47 1138.43 1135.70 1165.06 763.53 1195.73 1129.53 1028.63 1234.09 1129.08 250.25 286.41 1204.69 411.06 373.46 348.95 1142.40 1290.17 1178.95 1258.29 531.39 1200.14 235.28 1290.85 1139.14 1311.22 1177.03 369.78 1039.13 364.68 1179.43 1174.83 1176.26 330.00 1143.39 361.31 1216.63 358.59 1234.99 955.79 1113.65 965.55 1228.56 1194.26 1149.47 1249.89 1179.09 1267.31 1312.48 1321.21
902.75 1022.26 339.53 269.19 40.55 518.93 147.54 209.16 798.21 842.55 889.04 715.65 1001.90 406.22 63.39 200.28 120.78 1055.66 761.39 461.69 1053.33 1200.73 0.00 187.65 1380.01 262.15 340.97 1001.22 1101.46 569.65 71.26 190.86 167.66 431.41 788.75 960.82 1068.99 986.31 1104.34 703.83 900.63 718.79 935.56 496.48 181.84 1150.66 147.25 393.22 137.65 1163.84 742.53 876.69 213.40 236.73 856.59 1006.07 250.50 484.49 806.95 234.08 280.86 1218.89 763.33 815.36 836.66 591.71 834.45 821.53 373.48 270.43 228.04 1053.32 1136.34 253.37 951.28 1183.02 1064.87 156.51 143.58 308.59 744.69 724.11 102.66 1067.52 90.12 178.13 168.21 214.60 1106.35 259.78 1270.24 149.08 796.38 805.11 1080.68 857.35 1049.37 101.53 1102.71 86.57 420.14 290.89 527.77 826.28 787.89 304.64 806.07 171.60 332.14 796.16 806.83
1011.19 864.23 222.32 148.23 228.20 688.44 100.08 122.92 911.65 808.58 711.90 766.15 998.98 265.89 232.90 60.02 107.84 1004.37 873.49 344.61 960.78 1182.84 187.65 0.00 1263.85 116.48 169.04 950.05 1012.82 537.81 258.91 80.32 27.38 329.53 902.04 955.87 994.64 890.82 1017.19 643.88 763.07 705.85 838.55 321.44 44.28 1049.35 40.40 290.96 94.21 1058.65 763.33 863.73 36.59 391.04 884.33 936.99 104.96 623.62 881.52 46.43 151.64 1135.77 770.87 865.81 757.13 504.56 933.67 871.98 241.23 123.46 83.31 1016.18 1008.98 184.91 840.74 1060.86 930.48 64.50 292.87 163.02 746.43 677.31 123.46 1054.56 161.41 58.67 178.85 30.35 1026.80 158.68 1183.68 129.76 840.69 908.53 993.53 778.80 962.22 118.71 1022.90 137.07 289.84 164.77 510.77 909.32 808.24 120.39 930.65 138.43 177.25 870.73 874.65
2102.64 466.03 1195.67 1204.73 1386.44 1600.35 1283.52 1256.76 1225.09 1146.03 806.87 1230.27 425.09 1440.22 1403.87 1294.89 1278.19 347.77 1188.44 1053.26 433.45 274.66 1380.01 1263.85 0.00 1236.48 1332.81 469.63 385.56 1001.34 1445.64 1257.85 1245.40 1013.70 1255.30 1029.37 329.31 420.86 354.97 770.47 508.93 1150.90 559.83 1319.63 1227.72 336.12 1253.87 1505.07 1265.78 304.54 1206.97 521.61 1277.98 1424.71 1416.91 391.66 1287.88 1758.83 1277.05 1265.25 1393.03 217.19 1106.89 1198.86 1133.52 807.26 1199.29 1205.03 1303.29 1362.93 1265.15 373.67 254.87 1413.69 556.92 214.71 342.30 1223.50 1482.79 1390.56 1337.11 737.04 1291.49 509.94 1379.43 1245.12 1372.73 1292.06 307.41 1175.20 236.70 1301.33 1199.39 1144.72 318.29 1111.85 349.60 1289.68 347.86 1308.04 974.01 1300.57 1062.55 1197.02 1181.31 1334.20 1218.35 1297.19 1391.36 1280.94 1319.15
1104.03 815.36 236.65 31.75 226.86 727.47 135.18 153.62 931.47 839.28 735.52 837.22 931.15 293.44 325.54 163.98 141.37 981.09 894.82 228.13 969.08 1066.36 262.15 116.48 1236.48 0.00 163.17 967.20 1017.85 461.14 333.41 108.65 124.05 331.73 882.98 970.83 1000.47 884.02 957.74 598.79 807.30 739.38 902.48 338.69 155.01 1005.63 114.97 365.35 148.62 1041.73 819.74 883.39 140.55 423.04 862.87 960.61 92.71 602.03 915.05 70.05 245.17 1019.29 818.90 896.51 787.83 481.28 905.67 902.68 237.64 167.73 93.06 982.57 1011.18 288.87 848.34 1098.23 962.58 119.07 356.85 154.08 843.10 565.36 179.87 1074.22 258.08 130.30 253.42 110.67 1034.31 90.85 1131.54 113.07 911.41 851.10 970.25 809.50 938.94 211.55 954.54 208.14 292.04 173.80 492.66 903.40 878.96 135.84 924.73 186.46 264.06 904.26 905.35
1126.67 978.53 260.54 194.92 347.16 819.34 241.72 236.53 1013.04 922.19 788.08 894.69 1021.26 151.61 377.37 218.88 258.02 1039.46 945.17 391.30 997.01 1124.74 340.97 169.04 1332.81 163.17 0.00 1053.04 1079.39 435.96 403.21 184.49 196.42 421.84 973.09 1045.41 1054.67 911.95 1056.18 630.37 897.41 795.39 999.75 263.13 213.32 1089.72 209.44 328.53 251.60 1136.88 890.59 942.07 197.01 514.91 960.51 1013.17 118.88 765.20 1031.70 122.61 254.56 1182.46 894.74 891.20 870.74 578.55 963.57 897.37 96.11 220.29 159.49 1072.68 1101.29 292.60 909.65 1169.27 990.51 184.46 459.38 117.26 915.47 663.80 289.94 1132.90 330.45 162.84 347.89 163.23 1113.45 180.96 1272.06 233.37 930.33 962.77 1038.74 892.41 1014.98 276.94 1052.98 265.61 382.15 109.42 374.75 1015.07 961.87 95.82 1026.30 262.30 233.92 1020.91 988.26
1803.79 285.26 961.44 954.50 1006.51 1152.02 907.20 957.91 888.16 734.81 646.22 841.92 331.42 1108.10 1064.61 962.68 880.44 224.85 838.00 850.09 182.62 501.17 1001.22 950.05 469.63 967.20 1053.04 0.00 100.24 617.08 1072.48 959.40 930.06 714.85 873.66 746.80 235.91 216.60 213.43 454.32 334.01 713.21 111.50 998.27 944.00 149.68 909.65 1222.45 897.52 217.17 738.77 233.35 975.80 1136.45 998.64 318.56 995.63 1419.10 807.42 996.48 1090.85 375.39 637.26 785.25 710.59 532.70 857.62 791.42 1080.59 1032.83 966.30 280.00 214.76 1069.73 331.73 301.81 171.75 940.02 1114.53 1011.18 925.27 420.89 918.94 424.18 1059.30 961.64 1042.63 977.00 225.27 876.35 407.56 908.74 821.92 856.82 213.74 732.26 215.93 958.12 230.79 963.76 675.16 1053.29 678.29 902.13 789.47 1050.47 886.09 937.07 1116.46 818.21 912.54
1904.03 202.49 953.70 986.10 1069.28 1214.79 1007.44 1026.68 938.41 795.47 689.93 867.99 244.67 1146.71 1148.37 1025.45 980.68 142.98 832.03 789.72 82.38 417.10 1101.46 1012.82 385.56 1017.85 1079.39 100.24 0.00 717.32 1172.72 1037.14 992.83 815.09 938.32 688.70 174.37 167.44 113.19 469.86 293.93 813.45 174.27 1061.04 1012.46 49.44 972.42 1292.94 997.76 116.93 839.01 277.06 1038.57 1180.16 1031.35 220.18 1011.17 1513.22 907.66 1011.83 1153.62 300.69 737.50 813.30 747.96 595.47 885.67 819.47 1175.50 1095.60 1048.71 228.81 130.69 1150.34 352.13 217.74 183.02 1002.79 1159.85 1111.42 962.64 503.29 1019.18 422.08 1126.86 1024.41 1105.40 1012.81 188.39 976.59 340.56 1008.98 828.20 858.04 113.50 726.29 144.81 1034.18 130.55 1052.54 775.40 1095.78 778.53 910.34 795.75 1102.85 931.67 1037.31 1179.23 918.45 998.81
1373.15 636.48 396.99 429.39 543.39 1010.45 484.66 501.44 1033.49 830.97 459.93 883.52 747.35 491.02 615.63 543.96 457.90 751.50 953.75 233.01 703.96 904.34 569.65 537.81 1001.34 461.14 435.96 617.08 717.32 0.00 620.68 491.66 510.43 465.97 1006.35 913.43 729.09 646.41 764.32 393.96 492.41 663.41 728.58 460.01 521.46 766.76 530.84 605.37 465.15 834.25 758.61 536.79 520.53 739.57 1153.19 730.60 512.54 939.95 1047.96 511.50 531.40 906.26 830.70 899.78 878.49 352.07 972.15 905.95 463.51 504.74 474.62 798.77 823.57 630.17 697.28 843.69 724.97 526.01 673.38 394.10 895.89 413.20 496.40 727.62 602.62 513.31 598.38 523.43 756.14 518.86 922.88 429.60 918.08 971.35 740.66 896.26 709.35 501.44 770.23 483.08 426.28 486.20 61.21 1023.65 885.63 433.39 1025.84 509.37 510.76 1037.17 1085.29
883.32 1065.83 410.79 340.45 111.81 487.89 198.65 267.27 726.95 865.08 960.30 766.68 1073.16 460.65 43.96 271.54 192.04 1126.92 831.71 532.95 1107.76 1271.99 71.26 258.91 1445.64 333.41 403.21 1072.48 1172.72 620.68 0.00 262.12 238.92 502.67 769.32 966.87 1140.25 1057.57 1174.50 775.09 971.89 790.05 1006.82 508.87 253.10 1205.09 218.51 400.03 208.91 1235.10 748.58 947.95 284.66 183.46 837.16 1060.50 321.76 499.11 807.69 305.34 343.31 1273.32 740.30 840.49 813.63 662.97 797.48 834.32 444.74 341.69 278.95 1124.58 1190.77 273.30 1022.54 1237.45 1136.13 227.77 72.32 340.21 725.26 795.37 173.92 1138.78 161.38 249.39 159.13 285.86 1160.78 327.51 1341.50 220.34 857.41 807.32 1151.94 835.30 1120.63 155.96 1157.14 137.60 479.93 362.15 599.03 755.02 838.92 375.90 734.81 222.63 394.59 796.90 735.57
1019.31 884.39 194.62 110.68 178.43 634.85 79.44 52.04 866.51 737.70 732.56 762.43 940.27 332.34 241.02 117.75 78.96 997.37 813.66 297.16 983.90 1139.10 190.86 80.32 1257.85 108.65 184.49 959.40 1037.14 491.66 262.12 0.00 85.13 340.85 841.79 926.99 1024.62 898.84 994.47 613.73 816.42 676.97 862.87 369.04 103.29 1063.38 64.72 309.13 96.04 1069.97 745.32 879.48 116.91 330.42 861.09 973.62 123.06 605.61 852.64 83.06 231.96 1098.22 710.25 794.93 686.25 497.56 867.30 801.10 240.94 180.74 84.73 991.69 1020.30 241.97 760.42 1107.35 977.40 34.35 308.42 226.06 804.18 644.29 105.45 1070.31 219.16 21.65 203.17 110.67 1043.43 99.97 1210.47 64.64 809.83 857.38 986.53 707.92 955.22 126.83 1011.83 133.35 301.16 177.43 430.45 838.44 777.38 200.71 859.77 77.81 257.57 841.85 803.77
1034.88 891.61 203.97 142.35 208.21 670.03 87.05 95.54 910.01 781.20 739.28 753.12 990.63 279.78 231.05 56.87 113.81 989.43 857.16 338.73 985.95 1189.46 167.66 27.38 1245.40 124.05 196.42 930.06 992.83 510.43 238.92 85.13 0.00 356.91 874.66 961.84 967.26 918.20 1002.25 630.16 779.24 711.82 818.56 348.82 60.45 1037.99 20.41 317.47 117.92 1075.27 750.77 879.90 63.10 390.44 861.40 964.37 123.66 611.06 887.49 73.81 178.15 1118.77 770.27 838.43 729.75 531.94 910.80 844.60 222.41 124.07 60.38 1042.05 1036.36 168.29 845.55 1033.48 903.10 50.78 311.24 181.75 719.05 663.59 110.90 1070.73 134.03 65.73 158.86 55.52 1027.49 150.33 1156.30 124.80 853.33 900.88 972.62 751.42 947.28 142.40 995.52 124.04 317.22 137.39 515.58 881.94 820.88 145.56 903.27 137.83 203.76 876.70 847.27
1088.94 725.51 406.66 354.45 452.72 734.53 337.39 322.44 773.35 744.27 740.82 770.12 874.55 566.98 475.66 389.55 310.63 754.22 820.23 254.29 828.13 916.10 431.41 329.53 1013.70 331.73 421.84 714.85 815.09 465.97 502.67 340.85 356.91 0.00 683.08 777.52 780.48 754.78 767.04 404.21 708.65 527.50 675.61 536.86 373.81 835.95 369.93 620.49 327.71 808.50 609.66 753.71 366.12 545.18 844.61 833.18 365.03 760.08 749.32 367.71 481.17 928.83 619.49 767.48 692.82 254.41 772.14 773.65 517.95 452.99 330.83 857.02 758.83 499.92 595.99 845.88 716.32 344.15 544.72 427.62 650.67 384.71 349.13 788.27 482.78 324.85 491.16 357.74 818.27 240.88 968.70 338.93 737.82 793.66 743.38 714.49 712.07 388.31 772.95 377.60 39.69 491.11 404.76 767.41 770.27 438.30 746.08 292.57 506.78 760.11 804.29
1564.72 1014.27 957.91 896.31 829.30 578.60 866.68 789.75 90.27 177.10 1300.97 214.81 1136.01 1091.34 725.36 931.53 839.92 1015.71 154.30 857.99 1016.51 1275.22 788.75 902.04 1255.30 882.98 973.09 873.66 938.32 1006.35 769.32 841.79 874.66 683.08 0.00 466.03 1047.10 1048.54 988.09 870.79 1084.83 342.94 800.41 1146.93 897.07 919.18 895.07 1060.90 843.86 1040.06 247.74 994.04 937.76 776.17 163.43 1035.65 916.28 853.53 66.24 918.96 909.37 1168.19 266.09 139.52 192.76 691.18 89.06 145.69 954.41 929.90 882.08 1100.16 1000.43 984.03 864.16 1087.48 1045.41 870.66 777.37 1021.61 155.61 837.36 878.42 1184.87 849.32 863.44 840.53 914.27 1079.73 792.13 1210.30 861.59 110.12 110.58 1004.84 212.03 1036.15 839.55 1005.45 843.89 643.39 1012.05 945.14 108.47 142.57 992.27 114.88 799.64 960.65 77.03 121.21
1794.10 638.42 1003.99 993.55 990.12 1030.63 874.79 936.41 495.37 320.89 1059.09 378.75 828.99 1197.02 1010.83 975.99 848.03 699.22 407.84 840.01 606.32 899.37 960.82 955.87 1029.37 970.83 1045.41 746.80 688.70 913.43 966.87 926.99 961.84 777.52 466.03 0.00 730.61 686.89 736.29 526.44 746.88 250.02 635.30 1171.04 911.59 703.65 941.43 1210.71 865.11 805.63 218.29 646.22 959.12 962.70 607.16 783.82 928.20 1108.32 532.27 922.80 1059.18 886.19 319.80 389.11 323.77 607.15 461.48 395.28 1094.75 1020.48 959.68 810.79 784.90 1037.32 488.31 845.21 739.81 921.89 987.78 1069.75 482.50 559.87 858.16 837.05 1002.80 914.11 1000.19 963.42 790.84 879.98 923.59 876.33 364.91 451.56 726.94 302.10 695.63 901.62 718.93 902.98 817.21 1074.63 852.22 501.82 371.56 1026.82 500.84 871.57 1099.78 537.52 574.62
1869.42 211.38 920.39 968.72 1097.78 1287.21 993.24 1006.21 1030.57 870.00 605.17 996.90 143.98 1175.28 1123.98 1024.13 966.48 31.39 993.92 772.34 185.46 342.81 1068.99 994.64 329.31 1000.47 1054.67 235.91 174.37 729.09 1140.25 1024.62 967.26 780.48 1047.10 730.61 0.00 142.72 91.72 496.31 292.96 872.76 246.69 1041.49 1011.75 141.60 987.67 1183.50 949.40 113.95 948.90 192.30 1030.36 1095.40 1192.22 116.37 1037.62 1439.95 1043.33 987.11 1121.07 210.35 873.17 963.11 921.45 527.06 1004.77 969.28 1105.39 1084.79 1014.60 172.98 94.48 1135.55 276.72 114.60 64.16 1015.48 1166.41 1123.19 1061.08 475.63 966.33 342.68 1101.29 1024.66 1108.36 1022.78 60.23 924.65 237.42 984.95 957.11 950.20 60.87 900.66 69.40 1009.79 86.45 1011.15 740.79 1020.37 759.62 1002.50 924.66 1054.00 1023.83 993.62 1069.79 1054.12 1124.63
1819.59 68.66 819.87 852.27 1016.87 1317.15 937.85 945.22 1044.59 937.92 522.49 985.70 255.20 1063.56 1041.30 942.22 922.15 127.51 977.19 655.89 85.06 427.51 986.31 890.82 420.86 884.02 911.95 216.60 167.44 646.41 1057.57 898.84 918.20 754.78 1048.54 686.89 142.72 0.00 158.00 353.59 210.13 730.04 314.61 1005.70 928.92 182.39 931.22 1152.11 930.24 224.93 825.24 109.62 918.79 1012.72 1198.12 149.65 894.90 1357.27 1024.02 844.39 1019.51 294.23 837.57 923.22 910.90 539.76 983.25 917.05 1008.06 942.07 881.27 228.84 221.56 1067.11 198.58 257.32 78.56 930.80 1123.56 997.12 962.52 370.07 883.65 254.64 1028.29 909.18 975.36 885.01 201.68 875.14 380.14 950.45 962.35 987.05 126.79 893.06 103.03 927.11 156.36 928.47 754.48 1021.37 676.94 1039.35 962.52 975.05 1045.98 967.86 1038.40 1034.81 1108.73
1855.98 226.66 917.71 925.99 1089.09 1316.15 1010.32 991.78 957.88 864.42 672.64 981.18 167.85 1160.85 1132.73 1036.34 983.56 60.33 921.23 813.89 129.97 341.23 1104.34 1017.19 354.97 957.74 1056.18 213.43 113.19 764.32 1174.50 994.47 1002.25 767.04 988.09 736.29 91.72 158.00 0.00 425.81 307.62 881.69 275.63 998.17 1026.41 68.91 1022.66 1273.31 978.34 98.06 925.36 267.62 1053.78 1170.72 1144.54 114.00 967.12 1515.27 1020.85 1002.39 1143.53 247.30 850.69 926.49 861.15 512.63 924.02 932.66 1090.96 1100.07 1000.17 152.29 109.77 1161.23 262.29 186.25 99.15 1001.05 1195.35 1108.67 1055.50 392.38 1022.06 340.31 1119.72 1010.23 1133.36 1043.01 101.75 910.22 284.04 1011.86 941.39 877.51 36.68 839.48 54.97 1018.54 17.36 1036.90 727.35 1005.94 803.49 929.81 908.94 1039.57 951.14 1007.36 1159.60 1013.73 1051.94
1493.15 361.28 540.17 567.04 663.28 1117.56 650.41 603.11 868.59 749.81 599.97 730.16 552.65 781.98 767.22 641.31 663.60 468.46 746.54 600.03 428.07 564.82 703.83 643.88 770.47 598.79 630.37 454.32 469.86 393.96 775.09 613.73 630.16 404.21 870.79 526.44 496.31 353.59 425.81 0.00 313.50 527.85 468.62 787.29 649.79 459.35 609.75 869.25 646.52 509.80 623.05 349.50 664.74 859.46 1021.34 499.39 541.31 1107.22 887.01 599.84 717.72 565.03 689.43 798.41 742.93 198.71 819.60 804.58 707.86 690.00 611.50 567.79 535.58 766.20 391.65 595.47 432.15 579.38 793.27 682.86 760.33 33.43 693.11 540.33 764.19 601.00 748.20 640.46 507.00 521.55 677.28 670.02 779.77 790.26 452.18 760.70 456.62 671.86 422.61 690.22 413.43 692.74 455.17 840.52 800.68 639.93 861.85 614.27 769.00 876.22 962.65
1733.91 144.07 828.75 830.02 924.44 1308.19 774.59 798.01 1107.16 953.39 513.53 985.69 254.94 983.43 955.62 785.96 782.35 324.35 1029.35 725.42 211.55 453.77 900.63 763.07 508.93 807.30 897.41 334.01 293.93 492.41 971.89 816.42 779.24 708.65 1084.83 746.88 292.96 210.13 307.62 313.50 0.00 826.48 390.02 952.42 718.79 286.28 758.83 1022.10 796.06 377.45 921.68 100.66 769.05 1003.76 1190.23 289.47 840.60 1298.13 1132.00 809.50 884.10 413.85 828.61 976.60 901.94 454.24 1045.82 979.62 938.79 856.11 806.40 306.36 367.53 906.57 261.15 356.43 288.69 789.20 1013.07 886.51 929.22 332.06 797.97 291.49 892.94 800.43 897.28 793.42 263.73 716.45 446.02 810.65 1015.73 1048.17 317.66 923.61 286.35 841.43 290.26 842.79 668.96 902.47 553.62 1100.47 993.07 883.46 1108.55 838.98 908.39 1142.79 1162.11
1568.17 798.70 753.97 771.13 740.10 907.54 624.77 686.39 375.30 221.96 1055.77 255.66 976.18 947.00 782.18 725.97 598.01 857.55 324.53 589.99 815.10 1025.81 718.79 705.85 1150.90 739.38 795.39 713.21 813.45 663.41 790.05 676.97 711.82 527.50 342.94 250.02 872.76 730.04 881.69 527.85 826.48 0.00 821.52 977.29 661.57 862.89 691.41 960.69 615.09 930.38 95.20 839.66 709.10 839.61 493.49 879.69 731.31 963.89 409.18 672.78 809.16 1024.27 167.29 270.56 215.08 618.10 342.93 276.73 881.57 770.46 709.66 958.88 927.97 787.30 738.33 987.36 808.60 671.87 832.10 825.51 232.48 494.42 636.51 984.68 776.87 693.49 778.54 713.40 919.90 753.63 957.42 626.31 305.28 342.13 845.01 232.85 833.07 675.69 874.58 681.33 567.19 824.61 602.20 394.43 272.83 803.44 377.75 654.64 849.76 419.97 456.07
1764.55 245.95 875.65 920.09 895.01 1040.52 864.79 900.35 840.88 623.31 756.58 750.21 351.17 1096.70 998.95 851.18 891.55 215.30 770.39 833.18 256.65 550.00 935.56 838.55 559.83 902.48 999.75 111.50 174.27 728.58 1006.82 862.87 818.56 675.61 800.41 635.30 246.69 314.61 275.63 468.62 390.02 821.52 0.00 886.77 838.19 223.71 798.15 1118.67 895.66 291.20 726.32 343.71 864.30 1091.19 945.53 309.11 901.40 1338.95 866.65 884.98 979.35 402.27 722.08 716.42 674.76 421.20 788.79 722.59 1026.81 921.33 878.94 299.75 304.96 976.07 220.23 361.29 283.25 828.52 1025.00 959.49 814.39 435.19 888.64 534.54 952.59 850.14 931.13 865.50 306.92 818.79 484.11 913.60 710.42 778.26 244.78 692.49 257.45 920.14 270.36 901.78 635.92 941.79 712.06 830.56 677.97 948.14 818.18 930.20 1004.96 877.44 901.93
1251.29 937.04 329.74 329.13 515.39 920.45 398.39 396.78 1179.22 1055.29 808.53 1081.94 1153.97 308.06 464.91 345.98 425.15 1058.50 1158.40 493.72 1090.76 1075.61 496.48 321.44 1319.63 338.69 263.13 998.27 1061.04 460.01 508.87 369.04 348.82 536.86 1146.93 1171.04 1041.49 1005.70 998.17 787.29 952.42 977.29 886.77 0.00 365.72 1067.08 349.23 441.61 415.65 1096.23 952.75 996.80 358.03 692.33 1126.69 1082.44 245.98 920.06 1198.83 304.51 379.18 1193.00 1054.26 1139.67 1030.99 752.39 1212.04 1145.84 260.08 394.67 325.67 1106.30 1107.94 449.77 985.16 1156.09 977.33 369.01 581.19 380.39 1067.87 820.72 439.72 1001.31 482.85 347.39 487.68 345.13 1099.92 354.80 1278.91 411.58 1142.40 1189.79 1034.85 1052.66 1021.51 440.15 1015.53 452.86 555.99 279.62 521.22 1183.18 1109.95 276.58 1204.51 446.85 327.90 1188.04 1148.51
1015.12 862.86 228.77 161.98 205.65 667.11 55.80 107.32 867.37 792.98 756.18 753.08 973.73 310.17 236.83 67.17 63.56 995.28 829.21 358.36 930.34 1172.56 181.84 44.28 1227.72 155.01 213.32 944.00 1012.46 521.46 253.10 103.29 60.45 373.81 897.07 911.59 1011.75 928.92 1026.41 649.79 718.79 661.57 838.19 365.72 0.00 1005.07 40.04 303.31 77.27 1096.24 719.05 819.45 50.26 362.68 903.47 981.27 143.29 579.34 837.24 90.71 165.31 1132.64 752.63 850.21 741.53 534.49 902.27 856.38 220.00 137.32 120.79 1025.15 1053.26 187.78 863.71 1075.22 963.55 70.41 294.28 176.69 779.50 683.22 79.18 1010.28 174.15 81.64 178.49 74.63 982.52 173.68 1164.81 91.86 857.77 872.93 1023.46 763.20 992.15 122.64 1009.05 124.00 334.12 183.68 533.74 893.72 825.32 164.67 894.33 120.19 189.60 826.45 859.05
1924.89 190.27 941.48 973.88 1118.72 1264.23 1056.88 1060.69 888.97 844.91 703.33 917.43 236.76 1161.66 1163.32 1072.24 1030.12 129.24 852.32 777.50 97.33 367.66 1150.66 1049.35 336.12 1005.63 1089.72 149.68 49.44 766.76 1205.09 1063.38 1037.99 835.95 919.18 703.65 141.60 182.39 68.91 459.35 286.28 862.89 223.71 1067.08 1005.07 0.00 1021.86 1308.38 1047.20 120.88 888.45 290.46 1055.33 1193.56 1080.79 182.91 1000.66 1538.11 955.61 1026.78 1170.38 251.25 786.94 862.74 797.40 581.54 863.17 868.91 1159.87 1124.46 1063.66 221.20 81.25 1192.85 331.20 168.30 134.89 1038.73 1209.29 1142.21 1009.28 461.29 1064.49 409.22 1150.31 1060.35 1096.97 1027.76 170.66 979.13 291.12 1058.42 877.64 808.60 105.59 775.73 123.88 1049.13 86.27 1067.49 796.26 1074.85 818.45 860.90 845.19 1099.28 882.23 1073.62 1194.67 944.82 983.03
1014.47 902.90 213.39 121.94 187.80 649.62 66.64 111.28 897.21 796.94 752.30 732.71 973.94 298.55 210.64 53.03 93.40 1009.84 840.52 318.32 970.38 1172.77 147.25 40.40 1253.87 114.97 209.44 909.65 972.42 530.84 218.51 64.72 20.41 369.93 895.07 941.43 987.67 931.22 1022.66 609.75 758.83 691.41 798.15 349.23 40.04 1021.86 0.00 320.52 97.51 1089.35 730.36 859.49 66.15 383.98 881.81 951.57 103.25 590.65 867.08 86.83 181.20 1109.48 764.49 854.17 745.49 518.79 905.67 860.34 228.66 123.18 80.79 1025.36 1049.38 177.92 825.14 1053.89 923.51 30.37 290.83 161.34 739.46 643.18 90.49 1050.32 154.44 51.99 138.45 67.35 1022.56 133.64 1176.71 115.45 837.40 884.24 993.03 767.16 967.69 121.99 1015.93 103.63 330.24 143.64 495.17 897.68 804.95 157.39 915.72 132.05 206.81 856.29 863.01
1023.64 1155.19 488.19 382.72 433.77 854.76 335.92 361.17 1126.98 1046.83 973.19 1030.64 1249.40 305.80 399.22 277.80 362.68 1214.89 1106.73 579.10 1233.65 1381.02 393.22 290.96 1505.07 365.35 328.53 1222.45 1292.94 605.37 400.03 309.13 317.47 620.49 1060.90 1210.71 1183.50 1152.11 1273.31 869.25 1022.10 960.69 1118.67 441.61 303.31 1308.38 320.52 0.00 374.90 1297.45 1004.43 1122.76 254.37 568.75 1145.62 1198.28 327.94 854.37 1108.07 307.72 151.53 1370.26 1019.38 1072.80 995.38 795.52 1145.17 1078.97 352.39 210.04 344.60 1277.47 1277.98 246.28 1069.55 1290.36 1220.57 343.48 472.35 211.27 905.29 902.68 364.56 1313.59 303.10 330.78 335.71 320.05 1243.73 409.10 1366.07 360.18 1083.76 1105.97 1244.37 1017.05 1218.34 401.91 1269.95 408.88 580.80 267.37 590.98 1147.57 1051.31 320.18 1134.84 386.94 113.71 1118.86 1112.90
958.82 911.27 250.16 180.37 148.38 601.26 43.84 89.28 820.89 734.56 799.67 704.82 1010.71 351.92 180.53 120.93 17.08 918.01 796.62 324.04 1007.61 1209.54 137.65 94.21 1265.78 148.62 251.60 897.52 997.76 465.15 208.91 96.04 117.92 327.71 843.86 865.11 949.40 930.24 978.34 646.52 796.06 615.09 895.66 415.65 77.27 1047.20 97.51 374.90 0.00 1026.19 686.46 820.62 120.53 296.83 827.50 970.88 190.17 546.75 790.76 140.64 228.23 1104.98 676.66 824.65 723.49 488.01 869.68 830.82 270.66 177.04 156.70 1050.07 1030.19 206.37 856.46 1064.00 989.85 67.14 217.01 230.45 830.17 679.95 46.59 1011.45 167.52 88.76 188.62 116.38 1009.63 170.41 1166.54 35.55 809.51 840.34 947.49 745.16 945.67 66.34 973.07 75.74 364.07 241.15 526.36 848.96 777.06 206.42 847.85 44.22 261.19 779.97 841.01
1897.44 287.54 994.48 1009.98 1173.08 1331.72 1070.03 1051.56 1009.85 912.40 719.12 984.92 233.82 1239.84 1198.67 1106.17 1043.27 108.18 948.96 874.77 199.31 336.08 1163.84 1058.65 304.54 1041.73 1136.88 217.17 116.93 834.25 1235.10 1069.97 1075.27 808.50 1040.06 805.63 113.95 224.93 98.06 509.80 377.45 930.38 291.20 1096.23 1096.24 120.88 1089.35 1297.45 1026.19 0.00 955.94 306.25 1095.24 1209.35 1148.28 183.83 1051.11 1553.90 1024.59 1069.32 1210.29 219.67 854.43 930.23 864.89 591.62 984.05 936.40 1167.76 1167.00 1059.95 218.26 49.67 1231.06 339.06 136.72 172.17 1073.27 1243.20 1190.07 1079.57 476.37 1072.78 410.14 1185.66 1070.01 1194.24 1086.86 171.58 970.00 259.54 1061.74 945.13 929.48 102.65 843.22 133.96 1084.48 87.19 1101.93 768.81 1084.93 873.57 981.78 912.68 1118.56 1003.11 1070.41 1183.74 1035.38 1103.91
1575.81 856.71 849.17 851.49 783.08 812.34 705.13 754.09 316.69 171.33 1150.97 160.46 1015.46 988.02 792.54 783.39 678.37 917.51 243.39 685.19 824.61 1117.66 742.53 763.33 1206.97 819.74 890.59 738.77 839.01 758.61 748.58 745.32 750.77 609.66 247.74 218.29 948.90 825.24 925.36 623.05 921.68 95.20 726.32 952.75 719.05 888.45 730.36 1004.43 686.46 955.94 0.00 829.46 769.31 744.41 411.17 974.89 826.51 953.49 313.98 767.98 884.36 1104.48 101.51 208.24 119.88 592.23 268.27 202.07 939.05 853.54 799.28 964.04 953.53 845.63 706.60 1040.58 903.80 753.60 769.49 874.06 285.81 589.62 639.87 1020.29 784.51 766.97 781.90 771.23 963.57 833.99 1052.62 706.67 210.08 272.07 888.68 137.65 913.92 683.33 909.30 684.69 649.35 874.00 697.40 303.88 177.63 861.27 282.55 727.10 908.65 324.77 368.95
1709.97 145.57 728.09 874.55 917.24 1207.53 839.29 898.67 1006.50 852.73 412.87 932.61 289.70 997.13 931.68 886.62 812.53 223.69 928.69 683.51 194.68 426.11 876.69 863.73 521.61 883.39 942.07 233.35 277.06 536.79 947.95 879.48 879.90 753.71 994.04 646.22 192.30 109.62 267.62 349.50 100.66 839.66 343.71 996.80 819.45 290.46 859.49 1122.76 820.62 306.25 829.46 0.00 869.71 903.10 1128.01 193.81 890.81 1247.65 1040.77 852.89 984.76 402.65 727.95 875.94 801.28 539.10 945.16 878.96 989.19 950.57 871.68 273.00 286.78 979.79 160.49 306.90 188.18 887.76 1013.94 930.89 909.16 382.93 774.03 190.83 918.67 901.09 916.06 893.51 252.53 817.11 429.72 840.83 915.07 947.51 236.41 822.95 212.65 817.49 265.98 818.85 716.79 978.06 567.32 999.81 892.41 970.18 1007.89 861.26 1009.05 1051.56 1061.45
987.16 900.82 254.87 132.05 219.60 715.77 96.07 157.58 914.90 843.24 739.87 798.11 1023.99 265.79 269.49 23.43 111.09 1038.54 879.47 328.43 980.60 1197.05 213.40 36.59 1277.98 140.55 197.01 975.80 1038.57 520.53 284.66 116.91 63.10 366.12 937.76 959.12 1030.36 918.79 1053.78 664.74 769.05 709.10 864.30 358.03 50.26 1055.33 66.15 254.37 120.53 1095.24 769.31 869.71 0.00 412.94 912.30 964.96 123.43 611.80 884.77 74.40 115.05 1119.59 797.19 860.92 791.79 541.15 899.00 867.09 261.66 93.15 111.28 1044.15 1045.57 148.32 877.33 1096.58 966.20 96.52 329.46 126.43 782.15 665.66 129.44 1060.54 197.13 95.26 204.60 66.94 1032.78 195.27 1215.07 105.81 877.28 923.19 1030.12 813.46 998.81 155.30 1042.41 169.03 326.43 176.64 547.36 942.97 844.83 154.96 941.86 164.75 140.66 873.98 909.31
1066.78 1048.67 505.44 434.41 196.18 304.43 324.71 370.41 769.09 750.14 1062.98 787.83 1157.53 592.62 227.42 417.76 309.24 1126.79 648.25 529.32 1097.78 1329.21 236.73 391.04 1424.71 423.04 514.91 1136.45 1180.16 739.57 183.46 330.42 390.44 545.18 776.17 962.70 1095.40 1012.72 1170.72 859.46 1003.76 839.61 1091.19 692.33 362.68 1193.56 383.98 568.75 296.83 1209.35 744.41 903.10 412.94 0.00 733.23 1096.91 453.48 344.55 709.93 413.48 506.13 1305.75 779.12 657.03 765.71 780.17 717.06 650.86 567.49 438.49 415.15 1176.10 1189.88 456.76 1063.59 1210.00 1091.28 363.97 111.14 453.26 833.86 892.89 339.39 1093.93 326.85 352.07 321.95 413.21 1155.63 430.39 1332.82 309.97 696.16 691.97 1139.51 744.04 1115.75 307.59 1169.08 320.77 575.79 507.85 760.87 742.23 715.59 503.25 757.23 252.61 455.04 699.14 812.13
1632.56 1129.46 944.61 894.62 897.14 428.80 852.01 913.13 250.38 322.22 1446.09 339.80 1276.02 1101.88 793.20 918.27 839.91 1160.83 310.11 1021.42 1113.73 1434.69 856.59 884.33 1416.91 862.87 960.51 998.64 1031.35 1153.19 837.16 861.09 861.40 844.61 163.43 607.16 1192.22 1198.12 1144.54 1021.34 1190.23 493.49 945.53 1126.69 903.47 1080.79 881.81 1145.62 827.50 1148.28 411.17 1128.01 912.30 733.23 0.00 1199.08 880.71 781.45 191.22 837.90 1013.02 1331.62 400.06 302.95 326.73 854.61 252.49 309.12 1028.72 935.58 801.02 1245.28 1162.04 1014.54 1027.59 1249.09 1170.39 890.58 829.65 962.52 261.01 987.91 870.51 1318.84 917.16 868.96 908.37 872.95 1219.74 890.97 1371.91 863.05 273.55 274.01 1144.85 305.06 1176.16 886.67 1161.90 868.31 806.82 998.79 1095.69 264.35 267.56 962.99 248.31 783.28 1031.91 180.43 220.71
1797.02 145.40 896.61 929.01 1046.62 1349.63 995.86 1015.85 1017.50 932.42 606.68 1026.93 113.26 1164.78 1018.73 988.39 982.22 93.81 950.10 732.63 209.25 312.09 1006.07 936.99 391.66 960.61 1013.17 318.56 220.18 730.60 1060.50 973.62 964.37 833.18 1035.65 783.82 116.37 149.65 114.00 499.39 289.47 879.69 309.11 1082.44 981.27 182.91 951.57 1198.28 970.88 183.83 974.89 193.81 964.96 1096.91 1199.08 0.00 949.09 1441.46 1064.85 890.56 1065.68 212.82 921.76 896.13 968.14 578.77 956.16 889.96 1109.28 988.24 927.44 79.19 205.99 1113.28 295.51 176.95 146.81 976.97 1100.99 1043.29 1072.96 465.96 948.00 226.31 1005.72 955.35 1052.10 931.18 100.28 953.56 282.57 1006.43 935.26 959.96 106.68 946.47 121.11 904.54 96.64 922.90 793.49 1072.08 761.13 1012.26 954.69 1021.22 1018.89 1007.93 1084.57 1075.64 1081.64
1048.52 866.76 221.46 83.15 269.41 752.87 152.41 150.80 933.24 836.46 724.00 835.96 964.45 269.34 313.89 100.00 179.17 1009.77 912.42 279.53 969.38 1106.13 250.50 104.96 1287.88 92.71 118.88 995.63 1011.17 512.54 321.76 123.06 123.66 365.03 916.28 928.20 1037.62 894.90 967.12 541.31 840.60 731.31 901.40 245.98 143.29 1000.66 103.25 327.94 190.17 1051.11 826.51 890.81 123.43 453.48 880.71 949.09 0.00 693.90 952.85 58.53 176.41 1070.69 833.31 893.69 785.01 521.74 966.06 899.86 166.55 148.69 79.69 1015.87 1044.48 224.89 875.11 1099.20 973.46 123.03 394.08 141.55 842.71 574.74 193.74 1081.64 257.69 101.41 241.70 99.15 1006.50 124.15 1182.94 165.60 908.59 943.81 993.49 806.68 979.40 215.51 963.92 206.88 325.34 151.43 493.63 937.20 876.14 98.62 958.53 200.87 227.69 942.06 902.53
1294.51 1393.22 737.47 633.78 443.94 352.65 565.42 618.17 849.34 830.52 1299.40 848.10 1405.29 845.98 455.15 635.23 538.66 1464.76 836.51 830.16 1442.33 1604.12 484.49 623.62 1758.83 602.03 765.20 1419.10 1513.22 939.95 499.11 605.61 611.06 760.08 853.53 1108.32 1439.95 1357.27 1515.27 1107.22 1298.13 963.89 1338.95 920.06 579.34 1538.11 590.65 854.37 546.75 1553.90 953.49 1247.65 611.80 344.55 781.45 1441.46 693.90 0.00 835.55 670.05 726.85 1621.32 930.53 782.54 866.99 1009.59 778.81 788.71 799.34 704.95 659.57 1456.71 1518.91 705.92 1356.07 1544.12 1435.83 613.89 455.69 734.35 731.41 1140.65 500.16 1438.48 574.61 627.26 570.32 631.52 1500.18 660.37 1666.94 557.73 743.41 833.38 1484.06 845.32 1460.30 541.29 1513.63 544.98 799.77 734.29 878.74 859.10 775.86 721.56 841.54 587.39 752.46 824.76 781.79
1630.96 1043.47 1024.15 946.80 847.50 512.36 800.44 851.31 80.74 243.34 1343.92 253.67 1138.84 1141.25 791.60 901.64 773.68 1032.27 140.47 924.23 990.04 1304.42 806.95 881.52 1277.05 915.05 1031.70 807.42 907.66 1047.96 807.69 852.64 887.49 749.32 66.24 532.27 1043.33 1024.02 1020.85 887.01 1132.00 409.18 866.65 1198.83 837.24 955.61 867.08 1108.07 790.76 1024.59 313.98 1040.77 884.77 709.93 191.22 1064.85 952.85 835.55 0.00 909.09 956.54 1182.81 316.71 168.72 259.00 757.42 141.40 174.89 1020.65 967.80 919.54 1087.42 1022.18 962.97 893.36 1109.23 979.17 857.90 741.16 1007.44 202.78 903.60 812.18 1231.60 897.07 874.29 898.60 907.14 1032.69 858.37 1214.98 801.98 176.36 147.01 1021.16 246.21 1023.35 851.36 1038.21 857.00 709.63 986.34 1011.38 94.71 208.81 997.18 78.67 830.31 1007.82 10.79 105.12
1047.23 885.41 180.47 101.80 261.49 717.91 146.51 135.10 890.43 820.76 665.47 796.21 967.13 274.22 279.33 97.83 135.41 971.90 896.72 298.18 929.45 1136.41 234.08 46.43 1265.25 70.05 122.61 996.48 1011.83 511.50 305.34 83.06 73.81 367.71 918.96 922.80 987.11 844.39 1002.39 599.84 809.50 672.78 884.98 304.51 90.71 1026.78 86.83 307.72 140.64 1069.32 767.98 852.89 74.40 413.48 837.90 890.56 58.53 670.05 909.09 0.00 175.12 1089.34 793.31 877.99 769.31 524.42 939.79 884.16 218.72 97.68 36.88 969.75 1047.16 222.72 816.58 1067.51 922.95 86.41 339.30 152.73 792.86 633.27 169.89 1043.72 207.84 64.79 225.28 40.62 990.84 126.83 1173.13 147.70 887.12 921.15 971.18 790.98 947.42 165.14 987.20 183.50 328.02 183.47 497.36 918.50 854.67 130.66 924.57 160.87 194.01 898.30 886.83
872.11 1015.87 355.59 247.10 321.41 754.89 184.39 272.63 995.54 934.36 840.59 879.11 1139.04 243.37 299.35 138.48 211.15 1146.24 955.20 443.48 1095.65 1269.97 280.86 151.64 1393.03 245.17 254.56 1090.85 1153.62 531.40 343.31 231.96 178.15 481.17 909.37 1059.18 1121.07 1019.51 1143.53 717.72 884.10 809.16 979.35 379.18 165.31 1170.38 181.20 151.53 228.23 1210.29 884.36 984.76 115.05 506.13 1013.02 1065.68 176.41 726.85 956.54 175.12 0.00 1234.64 888.93 933.21 906.84 656.20 998.43 936.76 241.34 104.75 212.00 1144.87 1160.62 127.43 991.70 1211.63 1078.46 211.57 394.99 137.30 753.76 751.15 244.49 1175.59 190.74 210.31 184.18 181.99 1147.83 300.56 1292.10 220.86 972.34 954.44 1145.17 928.51 1113.86 262.40 1140.33 257.35 441.48 204.94 528.55 1006.66 951.35 180.36 1024.25 256.49 51.28 967.33 1024.36
2009.84 336.10 1087.31 987.54 1224.74 1442.79 1148.82 1138.85 1140.22 1025.58 790.61 1152.48 263.39 1312.73 1231.55 1120.75 1122.06 186.97 1103.57 923.33 345.18 282.47 1218.89 1135.77 217.19 1019.29 1182.46 375.39 300.69 906.26 1273.32 1098.22 1118.77 928.83 1168.19 886.19 210.35 294.23 247.30 565.03 413.85 1024.27 402.27 1193.00 1132.64 251.25 1109.48 1370.26 1104.98 219.67 1104.48 402.65 1119.59 1305.75 1331.62 212.82 1070.69 1621.32 1182.81 1089.34 1234.64 0.00 1012.65 1108.95 1048.65 686.78 1079.13 1102.78 1237.24 1187.02 1092.85 211.97 170.00 1245.64 436.44 206.25 215.67 1114.48 1313.81 1173.37 1216.66 598.46 1151.57 439.13 1218.54 1094.06 1242.80 1112.02 150.12 1084.37 112.25 1132.36 1112.69 1059.85 216.45 1026.98 229.12 1117.36 234.51 1135.72 889.14 1180.09 962.30 1112.15 1080.24 1155.13 1133.48 1149.20 1256.55 1193.60 1234.28
1623.62 865.86 904.40 814.24 797.97 812.88 704.54 707.54 281.70 124.78 1140.82 204.66 968.68 1028.58 784.26 797.59 689.07 862.11 200.74 757.28 819.88 1138.43 763.33 770.87 1106.89 818.90 894.74 637.26 737.50 830.70 740.30 710.25 770.27 619.49 266.09 319.80 873.17 837.57 850.69 689.43 828.61 167.29 722.08 1054.26 752.63 786.94 764.49 1019.38 676.66 854.43 101.51 727.95 797.19 779.12 400.06 921.76 833.31 930.53 316.71 793.31 888.93 1012.65 0.00 147.99 73.33 490.72 220.36 154.16 947.32 818.32 794.98 917.26 852.02 867.07 808.11 939.07 809.01 743.80 667.98 907.11 288.01 661.71 719.67 918.78 837.01 731.90 861.70 793.04 862.53 789.10 1044.82 712.21 187.12 219.56 851.00 95.00 853.19 735.83 868.05 717.47 659.18 887.68 769.49 271.86 164.46 872.84 283.09 632.44 914.65 327.50 333.50
1683.06 874.75 939.75 894.20 853.21 664.89 845.18 742.89 133.71 93.11 1175.20 143.14 1009.39 1042.81 860.75 884.35 831.27 931.72 53.97 860.55 895.68 1135.70 815.36 865.81 1198.86 896.51 891.20 785.25 813.30 899.78 840.49 794.93 838.43 767.48 139.52 389.11 963.11 923.22 926.49 798.41 976.60 270.56 716.42 1139.67 850.21 862.74 854.17 1072.80 824.65 930.23 208.24 875.94 860.92 657.03 302.95 896.13 893.69 782.54 168.72 877.99 933.21 1108.95 147.99 0.00 108.68 620.19 72.37 6.17 987.31 954.07 879.66 975.32 943.99 900.04 724.64 1031.04 957.00 823.80 768.17 987.35 179.45 764.98 804.00 1066.77 860.70 816.58 875.27 867.41 995.74 824.45 1153.86 814.73 39.13 71.57 920.85 87.01 931.96 790.58 943.85 772.22 737.26 961.00 872.76 123.87 70.90 908.19 135.10 780.43 959.09 179.51 185.51
1638.00 846.07 831.07 785.52 808.44 755.53 737.60 634.21 242.39 51.45 1175.32 131.33 992.63 970.23 833.95 786.62 722.59 890.06 127.41 805.07 830.34 1165.06 836.66 757.13 1133.52 787.83 870.74 710.59 747.96 878.49 813.63 686.25 729.75 692.82 192.76 323.77 921.45 910.90 861.15 742.93 901.94 215.08 674.76 1030.99 741.53 797.40 745.49 995.38 723.49 864.89 119.88 801.28 791.79 765.71 326.73 968.14 785.01 866.99 259.00 769.31 906.84 1048.65 73.33 108.68 0.00 564.05 181.05 114.85 920.35 853.82 770.98 974.51 878.65 858.38 812.08 965.70 882.34 715.12 741.31 906.83 214.68 709.50 759.75 992.11 846.70 707.90 883.94 758.73 935.86 715.77 1088.52 706.05 123.58 171.13 861.46 21.67 892.77 745.52 878.51 760.41 732.51 852.32 817.28 221.39 91.13 799.51 242.72 705.77 931.13 257.09 294.19
1343.35 471.10 563.37 511.16 613.02 988.94 497.69 479.15 711.52 615.50 744.43 531.45 620.14 697.66 650.69 564.58 470.93 499.81 674.16 429.32 573.72 763.53 591.71 504.56 807.26 481.28 578.55 532.70 595.47 352.07 662.97 497.56 531.94 254.41 691.18 607.15 527.06 539.76 512.63 198.71 454.24 618.10 421.20 752.39 534.49 581.54 518.79 795.52 488.01 591.62 592.23 539.10 541.15 780.17 854.61 578.77 521.74 1009.59 757.42 524.42 656.20 686.78 490.72 620.19 564.05 0.00 692.56 626.36 647.78 622.10 487.54 602.61 576.19 660.22 378.61 641.66 501.84 488.42 705.02 635.36 656.80 232.14 509.43 729.93 649.79 497.60 651.46 532.77 563.86 397.59 746.15 499.23 581.06 691.76 488.97 585.72 457.66 548.61 518.54 554.25 214.72 579.75 290.86 739.59 603.69 526.94 745.66 527.56 681.81 768.21 783.56
1653.78 934.78 1012.12 937.42 805.59 592.52 875.00 815.26 70.53 165.48 1235.23 172.96 1069.42 1115.18 814.42 922.43 861.59 984.35 73.06 932.92 960.50 1195.73 834.45 933.67 1199.29 905.67 963.57 857.62 885.67 972.15 797.48 867.30 910.80 772.14 89.06 461.48 1004.77 983.25 924.02 819.60 1045.82 342.93 788.79 1212.04 902.27 863.17 905.67 1145.17 869.68 984.05 268.27 945.16 899.00 717.06 252.49 956.16 966.06 778.81 141.40 939.79 998.43 1079.13 220.36 72.37 181.05 692.56 0.00 66.20 1013.99 992.15 924.08 1035.35 944.42 972.41 784.67 1031.47 998.06 896.17 725.22 987.62 244.67 837.35 823.09 1135.99 921.58 875.00 929.59 928.55 1025.77 881.19 1154.29 887.10 111.50 54.57 960.70 159.38 978.99 820.40 941.38 802.04 732.45 1033.37 945.13 80.29 130.93 980.56 62.73 852.80 1031.46 130.61 202.42
1676.89 868.58 945.92 900.37 847.04 658.72 839.01 749.06 127.54 99.28 1169.03 136.97 1003.22 1048.98 864.30 890.52 837.44 937.89 60.14 866.72 901.85 1129.53 821.53 871.98 1205.03 902.68 897.37 791.42 819.47 905.95 834.32 801.10 844.60 773.65 145.69 395.28 969.28 917.05 932.66 804.58 979.62 276.73 722.59 1145.84 856.38 868.91 860.34 1078.97 830.82 936.40 202.07 878.96 867.09 650.86 309.12 889.96 899.86 788.71 174.89 884.16 936.76 1102.78 154.16 6.17 114.85 626.36 66.20 0.00 993.48 960.24 885.83 969.15 950.16 906.21 718.47 1037.21 963.17 829.97 762.00 993.52 183.00 771.15 810.17 1069.79 866.87 822.75 878.82 873.58 990.24 830.62 1160.03 820.90 45.30 70.00 927.02 93.18 925.79 784.41 950.02 766.05 743.43 967.17 878.93 122.30 64.73 914.36 128.93 786.60 965.26 185.68 191.68
1113.45 978.81 334.99 249.70 389.11 871.92 275.80 292.98 1044.68 971.80 884.19 956.89 1095.18 136.93 423.64 266.55 283.56 1078.14 940.93 446.08 1093.12 1028.63 373.48 241.23 1303.29 237.64 96.11 1080.59 1175.50 463.51 444.74 240.94 222.41 517.95 954.41 1094.75 1105.39 1008.06 1090.96 707.86 938.79 881.57 1026.81 260.08 220.00 1159.87 228.66 352.39 270.66 1167.76 939.05 989.19 261.66 567.49 1028.72 1109.28 166.55 799.34 1020.65 218.72 241.34 1237.24 947.32 987.31 920.35 647.78 1013.99 993.48 0.00 260.96 227.70 1105.97 1154.52 202.84 828.70 1219.99 1080.17 216.97 487.67 150.32 941.46 741.29 299.18 1164.48 356.44 238.59 353.18 210.88 1142.19 277.07 1305.12 275.32 1026.44 984.65 1067.30 942.02 1035.99 309.45 1096.87 327.81 478.26 85.02 470.86 1034.91 1011.48 120.84 1056.24 314.88 238.68 1031.44 1044.71
976.86 983.09 278.15 199.48 310.98 668.68 189.22 219.61 988.11 876.22 763.15 855.89 1064.81 250.00 309.76 70.15 194.12 1069.58 963.70 395.86 1027.13 1234.09 270.43 123.46 1362.93 167.73 220.29 1032.83 1095.60 504.74 341.69 180.74 124.07 452.99 929.90 1020.48 1084.79 942.07 1100.07 690.00 856.11 770.46 921.33 394.67 137.32 1124.46 123.18 210.04 177.04 1167.00 853.54 950.57 93.15 438.49 935.58 988.24 148.69 704.95 967.80 97.68 104.75 1187.02 818.32 954.07 853.82 622.10 992.15 960.24 260.96 0.00 134.56 1067.43 1132.44 155.32 914.26 1157.55 1020.63 153.55 394.05 110.64 843.12 723.43 213.67 1141.40 185.80 162.47 261.63 110.01 1088.52 224.51 1265.44 198.96 928.94 1007.42 1068.86 875.49 1045.10 212.39 1084.88 226.81 413.30 211.57 565.95 1006.01 928.13 164.00 1022.25 185.88 96.33 957.01 971.34
1074.52 888.92 143.59 105.31 262.78 719.58 121.04 136.77 853.55 822.43 687.81 813.50 930.25 300.86 291.43 117.25 145.86 987.35 898.39 301.69 966.33 1129.08 228.04 83.31 1265.15 93.06 159.49 966.30 1048.71 474.62 278.95 84.73 60.38 330.83 882.08 959.68 1014.60 881.27 1000.17 611.50 806.40 709.66 878.94 325.67 120.79 1063.66 80.79 344.60 156.70 1059.95 799.28 871.68 111.28 415.15 801.02 927.44 79.69 659.57 919.54 36.88 212.00 1092.85 794.98 879.66 770.98 487.54 924.08 885.83 227.70 134.56 0.00 981.67 1010.28 228.67 799.01 1093.86 959.83 89.56 351.27 161.50 779.43 638.92 159.41 1062.51 194.41 67.94 219.24 71.93 1027.72 89.95 1205.10 148.99 894.56 933.92 976.51 792.65 945.20 182.04 1006.08 184.42 291.14 197.77 515.18 881.62 862.11 161.97 887.69 162.54 230.89 908.75 888.50
1876.21 224.59 899.74 1005.29 1012.77 1340.27 1020.58 973.28 1096.69 923.06 685.87 1049.96 51.42 1180.14 1097.92 1067.58 1047.34 145.09 1029.29 811.82 257.79 250.25 1053.32 1016.18 373.67 982.57 1072.68 280.00 228.81 798.77 1124.58 991.69 1042.05 857.02 1100.16 810.79 172.98 228.84 152.29 567.79 306.36 958.88 299.75 1106.30 1025.15 221.20 1025.36 1277.47 1050.07 218.26 964.04 273.00 1044.15 1176.10 1245.28 79.19 1015.87 1456.71 1087.42 969.75 1144.87 211.97 917.26 975.32 974.51 602.61 1035.35 969.15 1105.97 1067.43 981.67 0.00 257.27 1183.11 352.27 239.08 185.13 994.99 1142.76 1122.48 1114.14 534.36 1027.19 257.40 1084.91 991.73 1131.29 1010.37 146.38 891.72 324.22 1040.19 1010.17 1029.80 115.61 955.10 144.95 983.73 145.18 1002.09 817.33 1095.92 750.33 1082.10 977.72 1093.27 1098.08 1069.50 1163.76 1098.21 1160.83
1847.77 237.87 981.27 1021.48 1167.71 1345.48 1049.19 1001.89 970.22 926.16 699.65 998.68 238.46 1224.41 1149.00 1069.00 1047.12 112.18 933.57 825.10 178.58 286.41 1136.34 1008.98 254.87 1011.18 1101.29 214.76 130.69 823.57 1190.77 1020.30 1036.36 758.83 1000.43 784.90 94.48 221.56 109.77 535.58 367.53 927.97 304.96 1107.94 1053.26 81.25 1049.38 1277.98 1030.19 49.67 953.53 286.78 1045.57 1189.88 1162.04 205.99 1044.48 1518.91 1022.18 1047.16 1160.62 170.00 852.02 943.99 878.65 576.19 944.42 950.16 1154.52 1132.44 1010.28 257.27 0.00 1193.89 325.85 87.05 157.36 1023.60 1231.26 1165.26 1090.53 502.15 1036.62 419.06 1135.99 1020.34 1144.57 1037.19 122.05 920.33 209.87 1065.74 944.52 889.85 141.66 856.98 118.53 1034.81 127.13 1053.17 719.14 1069.50 854.10 942.15 926.44 1103.13 963.48 1042.32 1164.27 1026.07 1064.28
999.54 1041.71 372.26 258.10 293.92 721.05 162.53 263.83 993.10 806.93 888.19 863.55 1131.69 279.37 265.51 124.89 189.29 1124.38 954.01 454.48 1118.12 1204.69 253.37 184.91 1413.69 288.87 292.60 1069.73 1150.34 630.17 273.30 241.97 168.29 499.92 984.03 1037.32 1135.55 1067.11 1161.23 766.20 906.57 787.30 976.07 449.77 187.78 1192.85 177.92 246.28 206.37 1231.06 845.63 979.79 148.32 456.76 1014.54 1113.28 224.89 705.92 962.97 222.72 127.43 1245.64 867.07 900.04 858.38 660.22 972.41 906.21 202.84 155.32 228.67 1183.11 1193.89 0.00 1002.39 1201.77 1071.39 208.29 345.62 249.23 846.16 791.71 205.76 1170.62 163.25 229.91 150.34 207.64 1170.30 291.39 1324.59 217.59 894.04 961.88 1140.91 876.11 1115.57 216.11 1143.87 234.47 474.75 249.59 609.84 1014.18 861.59 196.78 1001.80 234.63 132.57 952.18 1008.87
1684.93 150.11 655.42 867.87 938.85 1260.75 839.86 812.46 846.01 809.20 573.36 855.44 340.68 965.63 992.27 878.17 839.38 249.47 778.61 737.34 283.64 411.06 951.28 840.74 556.92 848.34 909.65 331.73 352.13 697.28 1022.54 760.42 845.55 595.99 864.16 488.31 276.72 198.58 262.29 391.65 261.15 738.33 220.23 985.16 863.71 331.20 825.14 1069.55 856.46 339.06 706.60 160.49 877.33 1063.59 1027.59 295.51 875.11 1356.07 893.36 816.58 991.70 436.44 808.11 724.64 812.08 378.61 784.67 718.47 828.70 914.26 799.01 352.27 325.85 1002.39 0.00 391.32 251.50 794.77 1068.84 939.06 901.47 358.22 865.87 351.32 979.58 782.07 963.59 857.20 313.52 757.49 495.81 825.06 763.77 788.47 238.63 790.41 207.32 887.25 268.20 893.77 556.30 866.64 669.47 840.77 783.20 813.83 847.40 835.16 1010.59 904.15 910.15
1934.82 322.35 1034.99 1083.32 1201.67 1401.81 1107.84 1088.94 1057.27 984.60 692.26 1015.56 240.32 1289.88 1195.68 1090.35 1081.08 145.99 1020.62 886.94 265.63 373.46 1183.02 1060.86 214.71 1098.23 1169.27 301.81 217.74 843.69 1237.45 1107.35 1033.48 845.88 1087.48 845.21 114.60 257.32 186.25 595.47 356.43 987.36 361.29 1156.09 1075.22 168.30 1053.89 1290.36 1064.00 136.72 1040.58 306.90 1096.58 1210.00 1249.09 176.95 1099.20 1544.12 1109.23 1067.51 1211.63 206.25 939.07 1031.04 965.70 641.66 1031.47 1037.21 1219.99 1157.55 1093.86 239.08 87.05 1201.77 391.32 0.00 178.76 1084.26 1277.94 1215.23 1140.91 562.04 1080.93 389.71 1167.51 1099.21 1192.34 1089.00 92.70 1007.38 122.82 1099.55 1031.57 976.90 167.59 944.03 184.00 1081.49 177.09 1099.85 806.19 1134.97 874.22 1029.20 1013.49 1168.60 1050.53 1108.22 1176.65 1113.12 1151.33
1805.26 147.22 898.43 930.83 1095.43 1323.77 990.15 959.38 1023.86 897.26 574.94 1013.67 176.64 1142.12 1112.60 959.97 972.77 86.33 987.21 734.45 145.95 348.95 1064.87 930.48 342.30 962.58 990.51 171.75 183.02 724.97 1136.13 977.40 903.10 716.32 1045.41 739.81 64.16 78.56 99.15 432.15 288.69 808.60 283.25 977.33 963.55 134.89 923.51 1220.57 989.85 172.17 903.80 188.18 966.20 1091.28 1170.39 146.81 973.46 1435.83 979.17 922.95 1078.46 215.67 809.01 957.00 882.34 501.84 998.06 963.17 1080.17 1020.63 959.83 185.13 157.36 1071.39 251.50 178.76 0.00 953.88 1202.12 1075.68 1041.08 448.63 962.21 333.20 1037.13 968.83 1053.92 958.62 124.39 877.82 301.58 1001.07 984.37 943.49 69.52 904.01 44.18 1005.67 92.42 1007.03 676.63 995.15 755.50 995.79 951.92 1028.78 1017.12 999.81 1106.86 989.96 1084.29
984.96 910.55 183.02 126.94 197.06 662.21 97.01 80.91 888.03 766.57 732.53 739.92 943.57 317.48 206.67 83.40 84.22 985.15 842.53 323.32 1000.75 1142.40 156.51 64.50 1223.50 119.07 184.46 940.02 1002.79 526.01 227.77 34.35 50.78 344.15 870.66 921.89 1015.48 930.80 1001.05 579.38 789.20 671.87 828.52 369.01 70.41 1038.73 30.37 343.48 67.14 1073.27 753.60 887.76 96.52 363.97 890.58 976.97 123.03 613.89 857.90 86.41 211.57 1114.48 743.80 823.80 715.12 488.42 896.17 829.97 216.97 153.55 89.56 994.99 1023.60 208.29 794.77 1084.26 953.88 0.00 284.15 191.71 769.83 612.81 113.73 1078.59 184.81 21.62 168.82 81.94 1046.73 103.27 1207.08 98.99 838.70 886.25 977.39 736.79 946.08 92.48 1001.99 110.84 304.46 174.01 464.80 867.31 806.25 171.98 888.64 111.36 237.18 847.11 832.64
955.64 1117.51 439.25 388.60 129.99 415.57 260.85 304.22 696.63 792.76 1001.18 839.00 1091.34 481.48 116.28 325.97 234.09 1135.02 759.39 541.05 1148.25 1290.17 143.58 292.87 1482.79 356.85 459.38 1114.53 1159.85 673.38 72.32 308.42 311.24 544.72 777.37 987.78 1166.41 1123.56 1195.35 793.27 1013.07 832.10 1025.00 581.19 294.28 1209.29 290.83 472.35 217.01 1243.20 769.49 1013.94 329.46 111.14 829.65 1100.99 394.08 455.69 741.16 339.30 394.99 1313.81 667.98 768.17 741.31 705.02 725.22 762.00 487.67 394.05 351.27 1142.76 1231.26 345.62 1068.84 1277.94 1202.12 284.15 0.00 342.12 797.58 826.70 239.91 1204.77 225.40 305.77 210.81 323.22 1201.27 377.37 1383.55 243.78 807.30 736.12 1164.50 762.98 1162.68 196.45 1190.08 209.92 552.25 434.47 671.35 683.82 826.73 413.26 662.49 252.17 446.27 730.37 805.95
1009.41 969.44 302.46 185.83 319.25 751.79 222.50 272.62 1015.05 958.28 818.20 894.05 1085.23 139.36 296.25 149.86 233.76 1098.26 984.22 382.21 1082.18 1178.95 308.59 163.02 1390.56 154.08 117.26 1011.18 1111.42 394.10 340.21 226.06 181.75 427.62 1021.61 1069.75 1123.19 997.12 1108.67 682.86 886.51 825.51 959.49 380.39 176.69 1142.21 161.34 211.27 230.45 1190.07 874.06 930.89 126.43 453.26 962.52 1043.29 141.55 734.35 1007.44 152.73 137.30 1173.37 907.11 987.35 906.83 635.36 987.62 993.52 150.32 110.64 161.50 1122.48 1165.26 249.23 939.06 1215.23 1075.68 191.71 342.12 0.00 891.06 716.29 234.19 1121.72 296.44 213.33 299.79 193.35 1143.57 244.93 1154.80 205.46 998.74 1005.18 1087.42 928.50 1056.11 277.65 1105.47 264.97 446.12 105.14 455.31 1025.94 966.29 125.23 1004.61 274.67 116.66 996.65 1024.35
1520.66 1031.18 923.02 861.40 785.24 689.81 806.10 814.59 241.78 191.08 1284.41 125.35 1149.99 997.13 681.30 775.92 830.49 1029.69 201.44 822.47 1045.02 1258.29 744.69 746.43 1337.11 843.10 915.47 925.27 962.64 895.89 725.26 804.18 719.05 650.67 155.61 482.50 1061.08 962.52 1055.50 760.33 929.22 232.48 814.39 1067.87 779.50 1009.28 739.46 905.29 830.17 1079.57 285.81 909.16 782.15 833.86 261.01 1072.96 842.71 731.41 202.78 792.86 753.76 1216.66 288.01 179.45 214.68 656.80 244.67 183.00 941.46 843.12 779.43 1114.14 1090.53 846.16 901.47 1140.91 1041.08 769.83 797.58 891.06 0.00 726.90 799.25 1099.99 773.91 784.78 695.82 774.57 1093.71 812.17 1189.90 843.85 218.58 200.68 1018.82 236.35 1050.13 772.79 1048.39 754.43 610.98 856.44 834.68 252.90 197.59 864.61 270.49 839.46 805.04 213.57 276.82
1473.65 394.71 573.60 533.61 696.71 1084.13 683.84 636.54 869.72 716.38 566.54 750.08 519.22 815.41 787.50 666.82 695.34 444.24 779.97 566.60 455.13 531.39 724.11 677.31 737.04 565.36 663.80 420.89 503.29 413.20 795.37 644.29 663.59 384.71 837.36 559.87 475.63 370.07 392.38 33.43 332.06 494.42 435.19 820.72 683.22 461.29 643.18 902.68 679.95 476.37 589.62 382.93 665.66 892.89 987.91 465.96 574.74 1140.65 903.60 633.27 751.15 598.46 661.71 764.98 709.50 232.14 837.35 771.15 741.29 723.43 638.92 534.36 502.15 791.71 358.22 562.04 448.63 612.81 826.70 716.29 726.90 0.00 726.54 565.34 797.62 634.43 781.63 658.09 473.57 554.98 655.86 678.43 799.70 823.69 418.75 727.27 430.59 705.29 389.18 723.65 424.40 726.17 474.41 873.95 767.25 673.36 872.17 647.70 802.43 909.65 950.49
935.94 919.60 237.31 211.62 143.21 613.19 65.26 126.88 842.31 777.57 799.24 673.90 1034.42 348.15 157.65 143.52 38.50 964.60 750.03 370.63 968.71 1200.14 102.66 123.46 1291.49 179.87 289.94 918.94 1019.18 496.40 173.92 105.45 110.90 349.13 878.42 858.16 966.33 883.65 1022.06 693.11 797.97 636.51 888.64 439.72 79.18 1064.49 90.49 364.56 46.59 1072.78 639.87 774.03 129.44 339.39 870.51 948.00 193.74 500.16 812.18 169.89 244.49 1151.57 719.67 804.00 759.75 509.43 823.09 810.17 299.18 213.67 159.41 1027.19 1036.62 205.76 865.87 1080.93 962.21 113.73 239.91 234.19 799.25 726.54 0.00 964.86 144.64 127.10 142.03 131.36 1026.56 194.12 1187.96 66.80 778.59 793.75 994.08 777.52 967.09 43.46 1019.66 44.82 317.48 234.13 535.90 844.01 746.14 221.40 856.91 87.23 268.78 801.39 878.61
1877.21 323.30 918.92 1065.38 1076.68 1398.36 1030.12 1089.50 1197.33 1043.56 603.70 1123.44 229.50 1027.55 1122.51 1077.45 1003.36 320.12 1119.52 874.34 339.70 235.28 1067.52 1054.56 509.94 1074.22 1132.90 424.18 422.08 727.62 1138.78 1070.31 1070.73 788.27 1184.87 837.05 342.68 254.64 340.31 540.33 291.49 984.68 534.54 1001.31 1010.28 409.22 1050.32 1313.59 1011.45 410.14 1020.29 190.83 1060.54 1093.93 1318.84 226.31 1081.64 1438.48 1231.60 1043.72 1175.59 439.13 918.78 1066.77 992.11 729.93 1135.99 1069.79 1164.48 1141.40 1062.51 257.40 419.06 1170.62 351.32 389.71 333.20 1078.59 1204.77 1121.72 1099.99 565.34 964.86 0.00 1109.50 1091.92 1106.89 1084.34 297.01 1007.94 459.89 1031.66 1105.90 1138.34 332.99 1013.78 347.42 1008.32 322.95 1009.68 827.96 1168.89 758.15 1190.64 1083.24 1161.01 1198.72 1052.09 1199.88 1242.39 1252.28
963.32 984.79 338.00 276.38 130.67 579.50 178.60 212.49 888.33 875.52 873.31 748.62 1092.02 382.89 123.96 190.90 178.86 1085.53 851.51 472.76 1052.98 1290.85 90.12 161.41 1379.43 258.08 330.45 1059.30 1126.86 602.62 161.38 219.16 134.03 482.78 849.32 1002.80 1101.29 1028.29 1119.72 764.19 892.94 776.87 952.59 482.85 174.15 1150.31 154.44 303.10 167.52 1185.66 784.51 918.67 197.13 326.85 917.16 1005.72 257.69 574.61 897.07 207.84 190.74 1218.54 837.01 860.70 846.70 649.79 921.58 866.87 356.44 185.80 194.41 1084.91 1135.99 163.25 979.58 1167.51 1037.13 184.81 225.40 296.44 773.91 797.62 144.64 1109.50 0.00 199.76 78.09 189.55 1106.00 284.36 1288.29 203.07 853.31 895.23 1106.65 868.37 1081.31 101.18 1102.36 119.54 451.25 271.42 615.26 909.22 820.86 279.59 887.89 204.57 242.02 886.28 896.95
1006.58 890.13 204.64 106.52 200.08 656.50 101.09 73.69 888.16 759.35 710.91 761.54 940.31 314.45 228.29 105.02 100.61 997.41 835.31 302.90 994.24 1139.14 178.13 58.67 1245.12 130.30 162.84 961.64 1024.41 513.31 249.39 21.65 65.73 324.85 863.44 914.11 1024.66 909.18 1010.23 601.00 800.43 693.49 850.14 347.39 81.64 1060.35 51.99 330.78 88.76 1070.01 766.97 901.09 95.26 352.07 868.96 955.35 101.41 627.26 874.29 64.79 210.31 1094.06 731.90 816.58 707.90 497.60 875.00 822.75 238.59 162.47 67.94 991.73 1020.34 229.91 782.07 1099.21 968.83 21.62 305.77 213.33 784.78 634.43 127.10 1091.92 199.76 0.00 190.44 89.02 1043.47 100.01 1206.31 86.29 831.48 879.03 986.57 729.57 955.26 114.10 1016.14 132.46 301.20 195.63 452.10 860.09 799.03 179.06 881.42 99.46 235.92 863.50 825.42
954.53 906.70 337.64 260.39 208.76 570.71 179.10 249.73 886.08 886.90 890.75 815.93 1112.39 427.55 115.17 191.48 180.53 1102.87 892.06 456.77 1060.42 1311.22 168.21 178.85 1372.73 253.42 347.89 1042.63 1105.40 598.38 159.13 203.17 158.86 491.16 840.53 1000.19 1108.36 975.36 1133.36 748.20 897.28 778.54 931.13 487.68 178.49 1096.97 138.45 335.71 188.62 1194.24 781.90 916.06 204.60 321.95 908.37 1052.10 241.70 570.32 898.60 225.28 184.18 1242.80 861.70 875.27 883.94 651.46 929.59 878.82 353.18 261.63 219.24 1131.29 1144.57 150.34 963.59 1192.34 1053.92 168.82 210.81 299.79 695.82 781.63 142.03 1106.89 78.09 190.44 0.00 205.80 1101.15 272.09 1283.44 208.83 914.40 896.50 1102.15 905.61 1078.39 179.27 1124.96 186.85 459.51 282.09 537.17 894.63 888.17 295.84 873.30 229.26 235.46 909.39 894.70
1041.54 887.88 215.52 124.48 255.15 716.97 130.43 124.52 925.48 810.18 706.09 755.59 1002.18 235.54 263.25 82.75 133.46 1002.52 881.39 320.86 930.43 1177.03 214.60 30.35 1292.06 110.67 163.23 977.00 1012.81 523.43 285.86 110.67 55.52 357.74 914.27 963.42 1022.78 885.01 1043.01 640.46 793.42 713.40 865.50 345.13 74.63 1027.76 67.35 320.05 116.38 1086.86 771.23 893.51 66.94 413.21 872.95 931.18 99.15 631.52 907.14 40.62 181.99 1112.02 793.04 867.41 758.73 532.77 928.55 873.58 210.88 110.01 71.93 1010.37 1037.19 207.64 857.20 1089.00 958.62 81.94 323.22 193.35 774.57 658.09 131.36 1084.34 189.55 89.02 205.80 0.00 1031.46 161.88 1211.82 151.17 860.28 923.22 1009.64 780.40 988.04 149.06 1027.82 167.42 318.05 142.85 537.98 910.92 827.83 90.04 932.25 160.60 206.34 896.35 876.25
1897.30 245.68 968.94 1007.18 1144.46 1347.44 1038.32 1025.02 1059.63 902.63 665.40 1029.53 183.11 1212.08 1119.01 1049.69 1026.71 91.62 1020.42 832.57 197.00 369.78 1106.35 1026.80 307.41 1034.31 1113.45 225.27 188.39 756.14 1160.78 1043.43 1027.49 818.27 1079.73 790.84 60.23 201.68 101.75 507.00 263.73 919.90 306.92 1099.92 982.52 170.66 1022.56 1243.73 1009.63 171.58 963.57 252.53 1032.78 1155.63 1219.74 100.28 1006.50 1500.18 1032.69 990.84 1147.83 150.12 862.53 995.74 935.86 563.86 1025.77 990.24 1142.19 1088.52 1027.72 146.38 122.05 1170.30 313.52 92.70 124.39 1046.73 1201.27 1143.57 1093.71 473.57 1026.56 297.01 1106.00 1043.47 1101.15 1031.46 0.00 943.46 182.29 1045.18 989.74 979.26 74.89 914.68 106.20 1004.82 84.39 1023.18 778.58 1057.17 817.35 1031.56 957.29 1090.80 1052.89 1053.85 1130.02 1043.48 1137.81
1085.35 860.52 165.78 113.57 247.38 734.82 128.86 81.56 882.40 767.22 727.71 830.90 840.30 332.57 307.06 186.67 155.62 897.40 843.18 309.95 928.00 1039.13 259.78 158.68 1175.20 90.85 180.96 876.35 976.59 518.86 327.51 99.97 150.33 240.88 792.13 879.98 924.65 875.14 910.22 521.55 716.45 753.63 818.79 354.80 173.68 979.13 133.64 409.10 170.41 970.00 833.99 817.11 195.27 430.39 890.97 953.56 124.15 660.37 858.37 126.83 300.56 1084.37 789.10 824.45 715.77 397.59 881.19 830.62 277.07 224.51 89.95 891.72 920.33 291.39 757.49 1007.38 877.82 103.27 377.37 244.93 812.17 554.98 194.12 1007.94 284.36 100.01 272.09 161.88 943.46 0.00 1125.75 148.47 839.35 886.90 886.56 737.44 855.25 192.87 916.13 201.82 201.19 254.36 457.65 867.96 806.90 201.55 889.29 177.78 320.84 869.16 833.29
2057.64 427.97 1151.23 1099.79 1261.42 1372.41 1176.22 1207.31 1180.09 1084.92 815.08 1138.38 300.07 1294.16 1301.30 1213.17 1149.46 268.81 1143.44 1009.76 379.29 364.68 1270.24 1183.68 236.70 1131.54 1272.06 407.56 340.56 922.88 1341.50 1210.47 1156.30 968.70 1210.30 923.59 237.42 380.14 284.04 677.28 446.02 957.42 484.11 1278.91 1164.81 291.12 1176.71 1366.07 1166.54 259.54 1052.62 429.72 1215.07 1332.82 1371.91 282.57 1182.94 1666.94 1214.98 1173.13 1292.10 112.25 1044.82 1153.86 1088.52 746.15 1154.29 1160.03 1305.12 1265.44 1205.10 324.22 209.87 1324.59 495.81 122.82 301.58 1207.08 1383.55 1154.80 1189.90 655.86 1187.96 459.89 1288.29 1206.31 1283.44 1211.82 182.29 1125.75 0.00 1177.76 1154.39 1099.72 257.18 1066.85 288.49 1187.11 266.68 1205.47 929.01 1239.46 984.09 1152.02 1136.31 1267.38 1173.35 1157.45 1271.46 1225.77 1274.15
994.37 928.43 259.26 144.82 113.79 614.40 55.06 71.84 832.11 757.50 797.20 740.37 988.77 344.82 212.47 129.24 28.30 953.56 816.83 341.20 1022.20 1179.43 149.08 129.76 1301.33 113.07 233.37 908.74 1008.98 429.60 220.34 64.64 124.80 338.93 861.59 876.33 984.95 950.45 1011.86 670.02 810.65 626.31 913.60 411.58 91.86 1058.42 115.45 360.18 35.55 1061.74 706.67 840.83 105.81 309.97 863.05 1006.43 165.60 557.73 801.98 147.70 220.86 1132.36 712.21 814.73 706.05 499.23 887.10 820.90 275.32 198.96 148.99 1040.19 1065.74 217.59 825.06 1099.55 1001.07 98.99 243.78 205.46 843.85 678.43 66.80 1031.66 203.07 86.29 208.83 151.17 1045.18 148.47 1177.76 0.00 829.63 860.55 983.04 727.72 956.89 101.89 1008.62 111.29 349.66 242.07 490.81 858.24 797.18 241.21 859.07 79.77 246.47 791.19 823.57
1644.61 913.88 950.21 909.10 836.93 688.72 806.73 757.79 130.46 87.11 1210.98 104.69 1046.02 1056.82 835.48 858.79 817.09 925.72 93.10 895.27 910.58 1174.83 796.38 840.69 1199.39 911.41 930.33 821.92 828.20 918.08 857.41 809.83 853.33 737.82 110.12 364.91 957.11 962.35 941.39 779.77 1015.73 305.28 710.42 1142.40 857.77 877.64 837.40 1083.76 809.51 945.13 210.08 915.07 877.28 696.16 273.55 935.26 908.59 743.41 176.36 887.12 972.34 1112.69 187.12 39.13 123.58 581.06 111.50 45.30 1026.44 928.94 894.56 1010.17 944.52 894.04 763.77 1031.57 984.37 838.70 807.30 998.74 218.58 799.70 778.59 1105.90 853.31 831.48 914.40 860.28 989.74 839.35 1154.39 829.63 0.00 110.70 914.85 101.91 946.16 752.13 944.42 733.77 698.13 975.90 871.92 158.53 32.45 923.09 164.60 777.45 970.05 187.15 224.64
1675.30 938.58 1002.20 882.85 845.66 603.42 859.01 805.34 80.37 154.95 1239.03 167.63 1045.36 1114.38 835.94 937.27 832.25 937.84 43.72 911.25 905.93 1176.26 805.11 908.53 1144.72 851.10 962.77 856.82 858.04 971.35 807.32 857.38 900.88 793.66 110.58 451.56 950.20 987.05 877.51 790.26 1048.17 342.13 778.26 1189.79 872.93 808.60 884.24 1105.97 840.34 929.48 272.07 947.51 923.19 691.97 274.01 959.96 943.81 833.38 147.01 921.15 954.44 1059.85 219.56 71.57 171.13 691.76 54.57 70.00 984.65 1007.42 933.92 1029.80 889.85 961.88 788.47 976.90 943.49 886.25 736.12 1005.18 200.68 823.69 793.75 1138.34 895.23 879.03 896.50 923.22 979.26 886.90 1099.72 860.55 110.70 0.00 914.19 149.46 932.48 815.07 894.87 796.71 753.97 1023.45 944.33 52.30 100.29 970.64 73.63 845.29 1005.72 136.22 174.43
1832.32 195.45 894.05 952.36 1092.52 1285.30 986.66 968.12 994.56 827.74 641.79 954.64 131.17 1137.19 1125.41 1029.49 959.90 29.48 945.53 782.68 142.18 330.00 1080.68 993.53 318.29 970.25 1038.74 213.74 113.50 740.66 1151.94 986.53 972.62 743.38 1004.84 726.94 60.87 126.79 36.68 452.18 317.66 845.01 244.78 1034.85 1023.46 105.59 993.03 1244.37 947.49 102.65 888.68 236.41 1030.12 1139.51 1144.85 106.68 993.49 1484.06 1021.16 971.18 1145.17 216.45 851.00 920.85 861.46 488.97 960.70 927.02 1067.30 1068.86 976.51 115.61 141.66 1140.91 238.63 167.59 69.52 977.39 1164.50 1087.42 1018.82 418.75 994.08 332.99 1106.65 986.57 1102.15 1009.64 74.89 886.56 257.18 983.04 914.85 914.19 0.00 839.79 31.31 1011.22 29.57 1023.23 703.69 982.28 779.83 966.49 882.40 1015.91 987.82 991.71 1130.66 1031.95 1088.62
1651.64 824.40 852.74 807.19 830.11 733.86 759.27 655.88 220.72 69.18 1193.05 141.70 970.96 991.90 812.28 808.29 744.26 869.27 105.74 822.84 808.67 1143.39 857.35 778.80 1111.85 809.50 892.41 732.26 726.29 896.26 835.30 707.92 751.42 714.49 212.03 302.10 900.66 893.06 839.48 760.70 923.61 232.85 692.49 1052.66 763.20 775.73 767.16 1017.05 745.16 843.22 137.65 822.95 813.46 744.04 305.06 946.47 806.68 845.32 246.21 790.98 928.51 1026.98 95.00 87.01 21.67 585.72 159.38 93.18 942.02 875.49 792.65 955.10 856.98 876.11 790.41 944.03 904.01 736.79 762.98 928.50 236.35 727.27 777.52 1013.78 868.37 729.57 905.61 780.40 914.68 737.44 1066.85 727.72 101.91 149.46 839.79 0.00 871.10 767.19 856.84 770.78 754.18 873.99 835.05 199.72 69.46 821.18 221.05 727.44 952.80 235.42 272.52
1801.01 171.69 862.74 955.30 1070.68 1297.97 955.35 936.81 1012.85 859.05 619.12 985.95 162.48 1105.88 1108.35 1004.15 928.59 42.15 976.20 758.92 116.06 361.31 1049.37 962.22 349.60 938.94 1014.98 215.93 144.81 709.35 1120.63 955.22 947.28 712.07 1036.15 695.63 69.40 103.03 54.97 456.62 286.35 833.07 257.45 1021.51 992.15 123.88 967.69 1218.34 945.67 133.96 913.92 212.65 998.81 1115.75 1176.16 121.11 979.40 1460.30 1023.35 947.42 1113.86 229.12 853.19 931.96 892.77 457.66 978.99 925.79 1035.99 1045.10 945.20 144.95 118.53 1115.57 207.32 184.00 44.18 946.08 1162.68 1056.11 1050.13 430.59 967.09 347.42 1081.31 955.26 1078.39 988.04 106.20 855.25 288.49 956.89 946.16 932.48 31.31 871.10 0.00 1006.27 60.88 1011.91 672.38 950.97 748.52 984.78 913.71 984.60 1006.11 985.22 1104.63 1034.14 1106.91
892.48 963.06 275.50 219.42 142.08 569.73 91.32 111.31 864.59 774.34 825.01 647.44 1017.80 304.69 114.19 142.24 77.68 984.35 793.49 390.38 951.80 1216.63 101.53 118.71 1289.68 211.55 276.94 958.12 1034.18 501.44 155.96 126.83 142.40 388.31 839.55 901.62 1009.79 927.11 1018.54 671.86 841.43 675.69 920.14 440.15 122.64 1049.13 121.99 401.91 66.34 1084.48 683.33 817.49 155.30 307.59 886.67 904.54 215.51 541.29 851.36 165.14 262.40 1117.36 735.83 790.58 745.52 548.61 820.40 784.41 309.45 212.39 182.04 983.73 1034.81 216.11 887.25 1081.49 1005.67 92.48 196.45 277.65 772.79 705.29 43.46 1008.32 101.18 114.10 179.27 149.06 1004.82 192.87 1187.11 101.89 752.13 815.07 1011.22 767.19 1006.27 0.00 1001.18 18.36 360.94 238.77 557.28 851.78 719.68 239.10 830.45 103.39 295.96 840.57 863.04
1861.89 218.26 923.62 922.79 1085.89 1310.88 1016.23 997.69 975.24 857.31 667.36 984.21 160.74 1166.76 1115.37 1018.98 989.47 55.06 938.59 805.49 112.61 358.59 1102.71 1022.90 347.86 954.54 1052.98 230.79 130.55 770.23 1157.14 1011.83 995.52 772.95 1005.45 718.93 86.45 156.36 17.36 422.61 290.26 874.58 270.36 1015.53 1009.05 86.27 1015.93 1269.95 973.07 87.19 909.30 265.98 1042.41 1169.08 1161.90 96.64 963.92 1513.63 1038.21 987.20 1140.33 234.51 868.05 943.85 878.51 518.54 941.38 950.02 1096.87 1084.88 1006.08 145.18 127.13 1143.87 268.20 177.09 92.42 1001.99 1190.08 1105.47 1048.39 389.18 1019.66 322.95 1102.36 1016.14 1124.96 1027.82 84.39 916.13 266.68 1008.62 944.42 894.87 29.57 856.84 60.88 1001.18 0.00 1019.54 733.26 1011.85 809.40 947.17 911.97 1045.48 968.50 1017.29 1156.24 1031.09 1069.30
910.84 964.42 282.13 225.57 124.59 588.09 72.96 129.67 846.23 755.98 843.37 629.08 1036.16 323.05 132.55 156.66 83.32 993.75 794.85 399.78 970.16 1234.99 86.57 137.07 1308.04 208.14 265.61 963.76 1052.54 483.08 137.60 133.35 124.04 377.60 843.89 902.98 1011.15 928.47 1036.90 690.22 842.79 681.33 901.78 452.86 124.00 1067.49 103.63 408.88 75.74 1101.93 684.69 818.85 169.03 320.77 868.31 922.90 206.88 544.98 857.00 183.50 257.35 1135.72 717.47 772.22 760.41 554.25 802.04 766.05 327.81 226.81 184.42 1002.09 1053.17 234.47 893.77 1099.85 1007.03 110.84 209.92 264.97 754.43 723.65 44.82 1009.68 119.54 132.46 186.85 167.42 1023.18 201.82 1205.47 111.29 733.77 796.71 1023.23 770.78 1011.91 18.36 1019.54 0.00 362.30 247.27 544.29 833.42 701.32 257.46 812.09 85.03 308.63 846.21 873.17
1128.63 685.82 366.97 314.76 448.57 774.22 330.05 282.75 733.66 783.96 701.13 736.33 834.86 533.76 435.97 349.86 350.32 714.53 791.23 214.60 788.44 955.79 420.14 289.84 974.01 292.04 382.15 675.16 775.40 426.28 479.93 301.16 317.22 39.69 643.39 817.21 740.79 754.48 727.35 413.43 668.96 567.19 635.92 555.99 334.12 796.26 330.24 580.80 364.07 768.81 649.35 716.79 326.43 575.79 806.82 793.49 325.34 799.77 709.63 328.02 441.48 889.14 659.18 737.26 732.51 214.72 732.45 743.43 478.26 413.30 291.14 817.33 719.14 474.75 556.30 806.19 676.63 304.46 552.25 446.12 610.98 424.40 317.48 827.96 451.25 301.20 459.51 318.05 778.58 201.19 929.01 349.66 698.13 753.97 703.69 754.18 672.38 360.94 733.26 362.30 0.00 451.42 365.07 727.72 730.58 398.61 706.39 323.18 467.09 720.42 764.60
1077.05 989.16 249.97 205.55 331.44 793.26 210.28 229.47 1040.85 903.77 811.90 876.35 1094.66 154.91 352.96 194.26 237.04 993.12 979.73 401.93 1067.03 1113.65 290.89 164.77 1300.57 173.80 109.42 1053.29 1095.78 486.20 362.15 177.43 137.39 491.11 1012.05 1074.63 1020.37 1021.37 1005.94 692.74 902.47 824.61 941.79 279.62 183.68 1074.85 143.64 267.37 241.15 1084.93 874.00 978.06 176.64 507.85 998.79 1072.08 151.43 734.29 986.34 183.47 204.94 1180.09 887.68 961.00 852.32 579.75 1033.37 967.17 85.02 211.57 197.77 1095.92 1069.50 249.59 866.64 1134.97 995.15 174.01 434.47 105.14 856.44 726.17 234.13 1168.89 271.42 195.63 282.09 142.85 1057.17 254.36 1239.46 242.07 975.90 1023.45 982.28 873.99 950.97 238.77 1011.85 247.27 451.42 0.00 452.55 1015.87 943.45 52.81 1037.20 255.24 153.66 997.13 981.20
1400.66 628.18 387.62 460.91 568.32 1046.70 509.89 482.49 977.50 824.16 453.57 822.31 801.75 429.81 591.16 548.20 509.41 790.67 926.73 264.53 762.00 965.55 527.77 510.77 1062.55 492.66 374.75 678.29 778.53 61.21 599.03 430.45 515.58 404.76 945.14 852.22 759.62 676.94 803.49 455.17 553.62 602.20 712.06 521.22 533.74 818.45 495.17 590.98 526.36 873.57 697.40 567.32 547.36 760.87 1095.69 761.13 493.63 878.74 1011.38 497.36 528.55 962.30 769.49 872.76 817.28 290.86 945.13 878.93 470.86 565.95 515.18 750.33 854.10 609.84 669.47 874.22 755.50 464.80 671.35 455.31 834.68 474.41 535.90 758.15 615.26 452.10 537.17 537.98 817.35 457.65 984.09 490.81 871.92 944.33 779.83 835.05 748.52 557.28 809.40 544.29 365.07 452.55 0.00 996.63 875.03 470.57 979.95 508.26 477.27 1022.17 1045.22
1638.34 990.88 988.96 935.15 813.81 551.12 858.64 786.40 28.07 207.25 1291.33 217.18 1097.66 1146.46 798.98 938.81 831.88 990.14 93.98 942.32 958.23 1228.56 826.28 909.32 1197.02 903.40 1015.07 902.13 910.34 1023.65 755.02 838.44 881.94 767.41 108.47 501.82 1002.50 1039.35 929.81 840.52 1100.47 394.43 830.56 1183.18 893.72 860.90 897.68 1147.57 848.96 981.78 303.88 999.81 942.97 742.23 264.35 1012.26 937.20 859.10 94.71 918.50 1006.66 1112.15 271.86 123.87 221.39 739.59 80.29 122.30 1034.91 1006.01 881.62 1082.10 942.15 1014.18 840.77 1029.20 995.79 867.31 683.82 1025.94 252.90 873.95 844.01 1190.64 909.22 860.09 894.63 910.92 1031.56 867.96 1152.02 858.24 158.53 52.30 966.49 199.72 984.78 851.78 947.17 833.42 727.72 1015.87 996.63 0.00 152.59 1000.96 21.33 888.51 1057.94 83.92 122.13
1612.16 893.86 922.20 876.65 825.91 696.36 774.28 725.34 162.91 54.66 1178.53 72.24 1013.57 1024.37 831.69 857.98 784.64 893.27 105.84 862.82 878.13 1194.26 787.89 808.24 1181.31 878.96 961.87 789.47 795.75 885.63 838.92 777.38 820.88 770.27 142.57 371.56 924.66 962.52 908.94 800.68 993.07 272.83 677.97 1109.95 825.32 845.19 804.95 1051.31 777.06 912.68 177.63 892.41 844.83 715.59 267.56 954.69 876.14 775.86 208.81 854.67 951.35 1080.24 164.46 70.90 91.13 603.69 130.93 64.73 1011.48 928.13 862.11 977.72 926.44 861.59 783.20 1013.49 951.92 806.25 826.73 966.29 197.59 767.25 746.14 1083.24 820.86 799.03 888.17 827.83 957.29 806.90 1136.31 797.18 32.45 100.29 882.40 69.46 913.71 719.68 911.97 701.32 730.58 943.45 875.03 152.59 0.00 890.64 173.92 745.00 937.60 219.60 256.41
1052.47 951.20 302.78 167.59 345.19 807.01 220.47 214.56 1015.52 850.96 796.13 845.63 1041.85 170.72 353.29 172.79 223.50 1026.75 926.92 363.97 1020.47 1149.47 304.64 120.39 1334.20 135.84 95.82 1050.47 1102.85 433.39 375.90 200.71 145.56 438.30 992.27 1026.82 1054.00 975.05 1039.57 639.93 883.46 803.44 948.14 276.58 164.67 1099.28 157.39 320.18 206.42 1118.56 861.27 970.18 154.96 503.25 962.99 1021.22 98.62 721.56 997.18 130.66 180.36 1155.13 872.84 908.19 799.51 526.94 980.56 914.36 120.84 164.00 161.97 1093.27 1103.13 196.78 813.83 1168.60 1028.78 171.98 413.26 125.23 864.61 673.36 221.40 1161.01 279.59 179.06 295.84 90.04 1090.80 201.55 1267.38 241.21 923.09 970.64 1015.91 821.18 984.60 239.10 1045.48 257.46 398.61 52.81 470.57 1000.96 890.64 0.00 1022.29 250.64 206.47 986.39 966.29
1618.13 997.51 1010.29 956.48 792.48 529.79 857.53 807.73 34.14 194.87 1297.96 235.69 1118.99 1135.14 778.77 958.73 830.77 1011.47 115.31 920.99 979.56 1249.89 806.07 930.65 1218.35 924.73 1026.30 886.09 931.67 1025.84 734.81 859.77 903.27 746.08 114.88 500.84 1023.83 1045.98 951.14 861.85 1108.55 377.75 818.18 1204.51 894.33 882.23 915.72 1134.84 847.85 1003.11 282.55 1007.89 941.86 757.23 248.31 1018.89 958.53 841.54 78.67 924.57 1024.25 1133.48 283.09 135.10 242.72 745.66 62.73 128.93 1056.24 1022.25 887.69 1098.08 963.48 1001.80 847.40 1050.53 1017.12 888.64 662.49 1004.61 270.49 872.17 856.91 1198.72 887.89 881.42 873.30 932.25 1052.89 889.29 1173.35 859.07 164.60 73.63 987.82 221.05 1006.11 830.45 968.50 812.09 706.39 1037.20 979.95 21.33 173.92 1022.29 0.00 885.21 1075.53 67.88 143.46
995.87 927.91 272.43 181.80 186.29 557.04 72.10 129.85 860.44 690.34 810.37 714.11 1018.08 396.14 217.58 165.15 56.63 962.23 833.18 340.68 1042.34 1179.09 171.60 138.43 1297.19 186.46 262.30 937.07 1037.31 509.37 222.63 77.81 137.83 292.57 799.64 871.57 993.62 967.86 1007.36 614.27 838.98 654.64 930.20 446.85 120.19 1073.62 132.05 386.94 44.22 1070.41 727.10 861.26 164.75 252.61 783.28 1007.93 200.87 587.39 830.31 160.87 256.49 1149.20 632.44 780.43 705.77 527.56 852.80 786.60 314.88 185.88 162.54 1069.50 1042.32 234.63 835.16 1108.22 999.81 111.36 252.17 274.67 839.46 647.70 87.23 1052.09 204.57 99.46 229.26 160.60 1053.85 177.78 1157.45 79.77 777.45 845.29 991.71 727.44 985.22 103.39 1017.29 85.03 323.18 255.24 508.26 888.51 745.00 250.64 885.21 0.00 282.21 819.52 881.58
923.39 1041.48 374.48 269.01 360.26 759.47 235.67 296.92 1046.82 939.50 859.48 930.39 1161.14 192.09 350.63 164.09 251.75 1101.18 1006.48 465.39 1119.94 1267.31 332.14 177.25 1391.36 264.06 233.92 1116.46 1179.23 510.76 394.59 257.57 203.76 506.78 960.65 1099.78 1069.79 1038.40 1159.60 769.00 908.39 849.76 1004.96 327.90 189.60 1194.67 206.81 113.71 261.19 1183.74 908.65 1009.05 140.66 455.04 1031.91 1084.57 227.69 752.46 1007.82 194.01 51.28 1256.55 914.65 959.09 931.13 681.81 1031.46 965.26 238.68 96.33 230.89 1163.76 1164.27 132.57 1010.59 1176.65 1106.86 237.18 446.27 116.66 805.04 802.43 268.78 1199.88 242.02 235.92 235.46 206.34 1130.02 320.84 1271.46 246.47 970.05 1005.72 1130.66 952.80 1104.63 295.96 1156.24 308.63 467.09 153.66 477.27 1057.94 937.60 206.47 1075.53 282.21 0.00 1014.64 1048.65
1641.75 1054.26 1030.13 936.01 836.71 501.57 789.65 851.27 69.95 254.13 1354.71 263.83 1149.63 1131.89 802.39 890.85 762.89 1043.06 129.68 935.02 1000.83 1312.48 796.16 870.73 1280.94 904.26 1020.91 818.21 918.45 1037.17 796.90 841.85 876.70 760.11 77.03 537.52 1054.12 1034.81 1013.73 876.22 1142.79 419.97 877.44 1188.04 826.45 944.82 856.29 1118.86 779.97 1035.38 324.77 1051.56 873.98 699.14 180.43 1075.64 942.06 824.76 10.79 898.30 967.33 1193.60 327.50 179.51 257.09 768.21 130.61 185.68 1031.44 957.01 908.75 1098.21 1026.07 952.18 904.15 1113.12 989.96 847.11 730.37 996.65 213.57 909.65 801.39 1242.39 886.28 863.50 909.39 896.35 1043.48 869.16 1225.77 791.19 187.15 136.22 1031.95 235.42 1034.14 840.57 1031.09 846.21 720.42 997.13 1022.17 83.92 219.60 986.39 67.88 819.52 1014.64 0.00 112.99
1618.89 1060.26 954.29 903.04 847.38 530.92 855.12 751.73 150.20 278.62 1360.71 252.11 1194.90 1111.79 779.53 904.14 840.11 1112.27 216.11 979.20 1080.36 1321.21 806.83 874.65 1319.15 905.35 988.26 912.54 998.81 1085.29 735.57 803.77 847.27 804.29 121.21 574.62 1124.63 1108.73 1051.94 962.65 1162.11 456.07 901.93 1148.51 859.05 983.03 863.01 1112.90 841.01 1103.91 368.95 1061.45 909.31 812.13 220.71 1081.64 902.53 781.79 105.12 886.83 1024.36 1234.28 333.50 185.51 294.19 783.56 202.42 191.68 1044.71 971.34 888.50 1160.83 1064.28 1008.87 910.15 1151.33 1084.29 832.64 805.95 1024.35 276.82 950.49 878.61 1252.28 896.95 825.42 894.70 876.25 1137.81 833.29 1274.15 823.57 224.64 174.43 1088.62 272.52 1106.91 863.04 1069.30 873.17 764.60 981.20 1045.22 122.13 256.41 966.29 143.46 881.58 1048.65 112.99 0.00
DEMAND_SECTION
1 0
2 61
3 88
4 53
5 76
6 52
7 62
8 66
9 61
10 78
11 70
12 89
13 93
14 55
15 65
16 64
17 60
18 62
19 99
20 92
21 75
22 67
23 63
24 88
25 51
26 54
27 50
28 73
29 60
30 77
31 63
32 52
33 69
34 56
35 58
36 62
37 97
38 74
39 50
40 85
41 69
42 95
43 61
44 53
45 75
46 80
47 93
48 54
49 93
50 60
51 77
52 84
53 56
54 94
55 71
56 61
57 98
58 72
59 59
60 87
61 91
62 82
63 100
64 56
65 55
66 91
67 84
68 86
69 81
70 83
71 61
72 67
73 88
74 75
75 87
76 87
77 52
78 75
79 76
80 94
81 71
82 85
83 61
84 90
85 68
86 99
87 53
88 81
89 95
90 70
91 94
92 95
93 84
94 79
95 81
96 79
97 67
98 57
99 50
100 60
101 79
102 81
103 55
104 65
105 52
106 100
107 58
108 88
109 69
110 63
111 100
DEPOT_SECTION
1
-1
EOF
