NAME: LDG115_2364_fog_115_0176
COMMENT: CVRP with travel times.  rootPos=2,custPos=3,demandType=6,avgRouteSizeIndex=4,weather=fog,lambda_cluster=1,lambda_random=4, T1=300,T2=700,beta=1, alpha(i,j) ~ U(0.8,1.2)
TYPE: CVRP
DIMENSION: 116
EDGE_WEIGHT_TYPE: EXPLICIT
EDGE_WEIGHT_FORMAT: FULL_MATRIX
CAPACITY: 832
NODE_COORD_SECTION
1 500 500
2 555 943
3 498 241
4 7 205
5 94 431
6 932 953
7 624 218
8 456 387
9 649 44
10 324 725
11 922 497
12 86 206
13 101 431
14 205 990
15 705 57
16 94 434
17 824 413
18 596 31
19 574 150
20 275 746
21 278 397
22 48 166
23 365 639
24 662 942
25 559 80
26 512 934
27 101 409
28 794 997
29 280 212
30 551 933
31 95 626
32 663 996
33 571 858
34 15 385
35 17 531
36 195 75
37 59 495
38 767 910
39 534 896
40 925 367
41 219 527
42 758 787
43 144 535
44 787 32
45 472 369
46 468 407
47 959 809
48 133 823
49 355 250
50 905 614
51 739 538
52 624 197
53 669 970
54 799 399
55 248 638
56 94 362
57 198 245
58 567 255
59 267 982
60 399 325
61 93 290
62 699 985
63 429 205
64 201 124
65 58 719
66 121 467
67 931 125
68 301 224
69 201 364
70 591 918
71 115 407
72 789 777
73 7 471
74 490 90
75 419 304
76 302 780
77 88 223
78 146 265
79 98 568
80 420 171
81 733 731
82 152 441
83 147 307
84 401 354
85 117 388
86 247 237
87 512 278
88 127 737
89 124 346
90 117 507
91 600 230
92 80 621
93 980 118
94 9 318
95 701 739
96 48 923
97 82 753
98 600 983
99 812 979
100 600 855
101 36 291
102 259 276
103 600 919
104 94 225
105 83 394
106 823 610
107 454 351
108 461 349
109 100 224
110 505 258
111 17 825
112 231 228
113 459 243
114 942 293
115 712 925
116 534 713
EDGE_WEIGHT_SECTION
0.00 598.45 304.43 676.19 526.41 722.43 340.14 132.84 537.29 346.09 480.24 585.01 530.49 663.90 605.63 518.52 430.88 554.84 397.53 417.91 357.12 639.22 430.83 576.00 485.44 556.95 539.45 717.48 464.47 574.86 576.11 620.49 469.16 588.29 616.44 619.87 621.06 648.76 547.59 677.29 428.82 530.63 505.17 628.71 180.14 182.46 775.10 605.30 361.45 698.47 381.19 370.86 637.88 386.08 344.72 503.42 447.60 386.94 699.08 258.24 534.39 618.22 331.31 564.15 578.04 552.67 690.63 432.77 366.19 529.11 511.88 514.01 650.88 490.50 267.91 445.34 563.49 536.85 505.83 382.27 578.98 474.80 471.40 265.68 468.01 381.93 276.50 573.33 453.30 575.48 375.58 597.95 765.41 606.38 530.22 770.88 628.31 573.03 686.68 435.02 565.29 406.20 513.27 580.88 502.81 554.03 189.86 189.87 574.41 295.10 727.24 419.94 297.50 635.60 561.87 272.88
598.45 0.00 841.51 1060.62 772.91 466.74 864.68 717.44 1047.65 459.86 675.90 1005.25 781.94 442.74 1073.70 765.02 714.96 1033.12 955.47 503.15 692.13 966.11 441.15 188.54 1022.52 73.99 814.63 351.36 943.87 23.59 670.10 185.04 167.43 899.06 764.66 1053.39 740.35 332.63 89.00 755.34 695.32 365.96 646.78 1172.97 730.92 667.82 499.61 533.30 871.19 629.39 537.28 895.40 180.40 752.61 538.47 876.41 912.17 845.30 355.93 719.94 935.67 207.47 864.03 1050.98 687.69 771.60 995.74 910.71 835.93 80.12 822.53 365.38 858.23 966.81 772.00 406.63 1015.03 945.19 732.83 903.08 370.06 741.47 891.24 687.46 838.74 916.23 809.48 595.07 852.00 717.09 902.06 642.19 1070.52 935.70 347.37 588.86 668.72 100.85 373.15 163.43 963.99 867.11 93.63 997.64 821.18 507.25 695.24 703.76 1003.46 810.61 733.53 908.44 802.88 865.22 209.99 358.06
304.43 841.51 0.00 607.71 481.73 941.39 197.89 171.59 289.89 568.49 601.32 506.31 494.19 886.30 358.23 489.62 444.85 250.41 161.28 597.58 390.79 536.77 491.64 873.43 181.01 847.36 497.01 905.83 295.64 818.75 630.18 855.10 764.76 603.16 613.64 443.11 594.16 759.84 792.10 550.46 486.08 618.83 481.03 457.50 145.94 212.45 841.15 823.39 165.30 709.65 570.60 228.61 872.49 409.06 597.62 468.22 370.31 139.62 945.34 177.44 481.66 849.28 126.53 429.72 770.90 546.13 548.38 256.01 403.84 763.72 493.37 671.57 635.15 244.17 140.34 667.74 484.79 415.95 567.08 176.81 691.16 527.60 481.40 193.64 505.66 304.64 61.66 722.08 468.17 526.72 179.73 602.27 623.16 581.57 668.99 866.58 753.01 822.86 873.37 732.45 518.20 328.55 747.88 501.40 523.45 570.80 147.96 140.92 494.21 30.90 851.94 342.65 76.61 632.70 857.47 568.48
676.19 1060.62 607.71 0.00 287.71 1334.29 723.95 608.20 802.48 673.77 1085.28 176.48 300.17 924.18 811.95 295.60 949.68 708.61 720.43 671.77 468.18 101.87 633.74 1088.31 693.60 1000.90 315.56 1244.02 382.82 1037.03 470.35 1115.98 935.25 198.09 399.58 257.69 388.23 1152.74 1013.68 1040.53 457.52 1095.12 432.21 911.22 578.73 607.10 1202.97 713.32 462.84 1154.25 981.24 729.30 1140.86 904.88 613.15 236.13 237.40 661.24 958.58 535.89 176.80 1164.41 500.11 285.32 597.43 307.39 1059.39 372.13 310.00 1007.72 291.85 1114.11 301.27 627.27 523.45 767.48 154.96 234.95 446.32 516.27 1028.94 333.42 258.83 545.15 291.21 303.07 598.20 612.01 222.89 361.90 680.12 496.27 1134.17 124.92 1077.70 815.96 624.61 1098.54 1212.86 981.21 110.90 335.24 1023.56 153.92 283.96 1086.86 560.09 551.57 173.50 613.48 723.54 320.81 531.50 1056.09 1152.75 875.14
526.41 772.91 481.73 287.71 0.00 1077.95 619.14 431.73 762.44 516.67 994.40 260.80 12.46 670.00 792.05 7.89 846.94 732.14 643.01 439.89 233.24 313.50 384.73 883.44 653.56 751.89 44.52 1029.95 340.58 749.32 227.36 833.48 732.83 138.27 131.91 431.59 112.43 896.40 801.79 971.71 180.91 813.56 170.77 888.38 433.95 445.53 1137.74 470.33 401.85 1016.77 752.81 640.13 869.82 802.14 367.14 119.28 252.14 594.44 715.59 402.16 177.80 897.15 444.53 360.75 309.72 64.40 969.63 324.40 160.22 758.71 59.88 826.40 153.42 599.05 408.64 490.87 245.55 212.91 188.51 467.58 741.23 84.41 147.46 434.64 74.94 283.17 482.91 369.02 88.99 100.46 590.95 230.38 1044.41 162.79 789.99 545.33 379.86 849.53 1009.93 778.79 200.98 234.05 774.55 228.16 64.05 925.65 398.27 406.79 247.74 512.63 478.79 250.75 483.99 1026.61 907.93 681.53
722.43 466.74 941.39 1334.29 1077.95 0.00 986.46 855.27 1153.19 733.68 586.55 1265.05 1086.98 808.47 1178.45 1070.06 727.39 1152.46 1006.61 805.60 1030.47 1319.26 828.75 313.64 1095.64 507.20 1070.01 153.23 1167.06 481.82 1041.11 346.05 441.25 1199.38 1118.44 1333.28 1181.59 181.55 488.49 802.24 991.02 334.37 1048.17 1237.12 893.55 882.24 199.41 954.98 1083.88 481.22 590.74 1011.25 286.34 772.19 849.48 1105.16 1170.03 891.54 721.66 979.81 1201.01 318.71 1048.33 1286.58 924.11 1126.57 1104.44 1146.18 1088.62 424.47 1042.44 382.03 1210.55 1117.19 925.38 748.57 1243.53 1229.21 1065.50 1063.87 406.70 1089.67 1163.76 984.85 1086.31 1104.36 879.73 1015.04 1153.61 1118.48 975.92 1069.02 1107.26 1240.74 428.88 954.59 994.25 373.75 182.34 395.29 1223.39 1113.59 410.95 1243.33 1113.51 417.90 912.29 912.30 1223.75 910.49 1075.47 1142.37 985.09 883.56 319.81 592.12
340.14 864.68 197.89 723.95 619.14 986.46 0.00 279.89 197.15 686.23 534.42 602.75 631.60 1004.04 265.49 626.89 386.96 261.95 126.47 705.88 507.60 680.58 587.42 835.49 215.50 866.23 647.82 969.76 407.91 841.09 766.27 886.72 747.21 696.66 751.05 586.92 731.57 834.41 825.64 403.39 587.11 652.09 617.12 364.76 269.11 329.51 796.45 940.45 309.11 654.55 434.70 30.72 904.11 342.16 678.12 611.79 486.55 94.92 1032.62 306.11 616.86 882.54 223.84 534.40 875.56 676.19 350.49 399.82 474.56 795.34 620.25 686.41 771.30 224.92 289.75 781.91 609.89 559.76 703.17 271.84 662.95 598.32 587.53 288.06 576.38 420.88 136.23 839.14 561.67 655.13 43.83 738.36 425.27 714.71 614.19 989.75 856.82 839.26 946.24 701.25 636.13 458.28 779.50 607.25 611.18 601.85 250.47 241.95 626.83 166.99 955.75 440.76 224.66 434.81 869.06 613.02
132.84 717.44 171.59 608.20 431.73 855.27 279.89 0.00 456.95 478.93 598.49 487.32 444.19 796.74 525.29 439.62 418.93 422.00 264.69 425.99 265.59 540.02 336.56 708.84 352.60 689.79 476.25 778.63 339.56 694.68 561.27 731.03 602.00 543.88 541.40 487.03 529.53 759.30 663.57 583.31 402.19 638.83 537.28 572.42 47.30 49.62 844.37 660.56 228.61 686.52 441.80 275.65 740.38 406.23 442.06 485.30 370.80 254.10 785.62 160.47 463.49 696.23 216.37 431.60 651.87 496.13 630.38 299.93 390.01 639.65 451.53 646.85 522.97 357.66 135.07 502.02 472.07 423.66 542.80 264.86 566.50 497.78 483.11 134.30 437.68 322.48 143.66 559.25 435.18 507.49 255.33 589.18 705.16 588.26 517.74 767.94 640.57 698.79 819.52 567.86 515.32 273.36 623.81 454.68 458.01 554.21 57.02 57.03 474.26 174.08 736.83 287.39 164.66 623.65 694.71 405.72
537.29 1047.65 289.89 802.48 762.44 1153.19 197.15 456.95 0.00 858.38 566.64 650.51 774.90 1176.19 68.34 770.33 553.56 128.75 192.26 882.94 661.60 700.61 760.17 1032.64 108.88 1022.49 766.67 1146.45 433.28 1038.24 907.91 1078.40 944.36 808.44 894.35 579.67 857.80 1030.65 958.65 546.71 760.04 821.71 770.92 167.61 435.83 502.34 966.07 1113.28 436.11 821.15 607.45 197.32 1096.31 508.76 847.74 717.95 581.49 264.54 1205.37 467.33 660.74 1052.16 379.76 650.16 1049.71 781.82 459.74 472.91 647.31 992.49 739.10 856.03 840.03 199.93 425.88 957.63 661.91 607.25 837.63 328.80 860.10 731.52 672.70 483.53 747.04 515.82 332.47 1011.97 673.45 814.75 216.58 892.16 534.52 783.78 811.34 1156.47 1023.42 1036.41 1112.84 898.40 705.20 539.81 976.65 661.71 753.13 735.29 423.40 414.88 642.13 320.79 1122.35 553.83 326.34 508.35 1065.59 789.67
346.09 459.86 568.49 673.77 516.67 733.68 686.23 478.93 858.38 0.00 826.33 656.92 511.70 317.81 926.72 515.62 670.26 818.90 729.77 110.85 553.19 711.13 147.45 445.49 749.50 434.70 537.92 620.85 666.53 458.40 307.44 473.16 292.43 600.46 384.76 781.22 460.32 552.13 370.86 890.24 337.29 477.35 393.96 969.37 509.19 500.99 798.21 259.21 536.19 628.52 594.14 716.95 516.71 691.12 195.27 558.68 519.96 699.28 376.85 576.96 645.73 521.59 671.73 692.99 393.86 459.11 1036.72 626.90 478.69 418.95 559.12 530.09 483.07 774.15 560.07 99.25 635.40 621.53 377.72 661.77 495.06 447.77 597.54 550.79 561.99 585.63 587.75 315.48 558.30 464.27 680.33 335.35 1080.05 655.62 476.94 424.79 362.39 476.40 665.66 338.39 655.60 634.75 416.64 635.20 558.78 679.61 473.51 482.03 615.62 590.57 426.15 603.37 581.15 874.98 508.59 219.60
480.24 675.90 601.32 1085.28 994.40 586.55 534.42 598.49 566.64 826.33 0.00 986.24 981.94 1006.11 634.98 998.76 237.06 695.39 599.45 898.15 837.36 1046.95 788.18 665.25 675.52 701.23 1003.01 732.72 744.29 652.31 975.51 685.35 558.96 1068.53 1040.65 969.64 1081.91 652.42 637.39 242.69 909.06 428.66 985.41 706.90 615.38 548.87 458.81 937.71 691.83 255.93 341.49 503.70 703.26 192.26 824.96 945.39 847.88 601.56 968.54 683.96 979.17 659.11 670.22 956.25 1058.28 1032.91 565.04 782.54 846.43 613.24 977.89 441.50 1046.81 746.78 653.32 888.02 971.22 942.48 986.07 653.98 356.33 955.04 951.64 651.48 936.93 782.21 601.18 1039.02 933.54 1033.24 512.18 1003.42 581.19 1076.04 405.09 1142.39 1073.13 672.38 724.03 589.03 997.46 820.54 597.40 981.21 983.05 168.65 647.87 639.35 991.00 570.42 1172.06 820.22 553.78 297.01 637.38 662.43
585.01 1005.25 506.31 176.48 260.80 1265.05 602.75 487.32 650.51 656.92 986.24 0.00 248.34 893.30 718.85 265.26 857.14 627.72 602.93 624.89 324.27 82.86 564.10 1041.10 541.63 931.26 261.14 1111.82 241.95 992.81 463.89 1061.14 888.37 241.75 392.71 300.43 348.31 1126.93 966.80 947.99 419.82 1025.48 397.98 818.12 457.45 519.13 1209.36 706.86 341.01 1107.37 863.93 627.54 1040.79 812.34 596.67 203.32 144.86 507.83 952.12 443.35 122.38 1084.94 407.57 212.20 570.52 300.93 953.24 280.69 218.82 938.08 266.04 1041.46 333.86 524.44 402.17 721.41 21.52 117.12 411.81 423.73 977.11 263.78 182.57 452.61 249.60 210.53 471.23 605.55 176.01 340.96 587.58 466.26 1028.02 186.85 1005.06 781.45 572.84 1028.90 1157.34 934.33 108.27 213.96 953.92 32.64 240.87 1023.72 438.81 430.29 41.30 501.99 671.77 215.23 438.96 963.55 1034.92 820.72
530.49 781.94 494.19 300.17 12.46 1086.98 631.60 444.19 774.90 511.70 981.94 248.34 0.00 669.38 793.89 16.92 834.48 744.60 634.23 428.08 220.78 301.04 376.51 875.22 666.02 743.67 42.32 1021.73 353.04 758.35 215.55 842.51 724.61 148.99 144.37 434.87 99.97 905.43 803.04 980.56 193.37 801.10 177.41 893.16 442.98 433.07 1125.28 458.52 390.13 1004.31 765.27 644.21 867.62 789.68 358.35 110.14 264.60 601.27 703.78 399.96 181.08 906.18 448.61 373.21 322.18 52.59 982.09 336.86 164.30 750.49 47.42 813.94 162.45 586.59 419.49 503.33 233.09 219.23 195.15 468.32 728.77 76.19 159.92 432.44 62.48 295.63 495.37 357.21 101.45 107.10 595.03 217.92 1056.87 175.25 777.53 557.79 368.66 841.31 1018.96 770.57 202.83 246.51 766.33 215.70 63.12 916.45 407.30 415.82 235.28 524.36 467.59 263.21 471.53 1014.80 899.71 679.33
663.90 442.74 886.30 924.18 670.00 808.47 1004.04 796.74 1176.19 317.81 1006.11 893.30 669.38 0.00 1244.53 673.30 988.07 1136.71 1047.58 426.23 856.38 947.51 465.26 590.44 1067.31 483.24 711.70 724.97 935.04 419.15 453.83 517.75 505.83 743.93 592.10 1041.91 624.62 680.06 427.40 1136.27 621.68 668.85 567.54 1287.18 827.00 818.80 908.37 248.11 854.00 932.28 840.17 1034.76 576.77 1008.93 463.32 739.15 837.77 1017.09 86.81 894.77 788.12 581.42 989.54 994.56 366.23 616.79 1302.95 895.41 756.69 505.86 690.67 721.59 626.54 1091.96 877.88 329.71 871.78 827.42 481.49 979.58 699.02 693.04 761.97 868.60 731.86 903.44 905.56 312.17 739.97 569.54 998.14 454.65 1377.73 802.89 650.26 294.84 383.53 543.59 768.71 466.32 813.28 901.79 490.02 883.14 716.46 837.46 791.32 799.84 880.68 908.38 331.74 901.73 898.96 1192.79 618.75 537.41
605.63 1073.70 358.23 811.95 792.05 1178.45 265.49 525.29 68.34 926.72 634.98 718.85 793.89 1244.53 0.00 787.72 537.46 116.83 260.60 951.28 676.64 768.95 828.51 1045.72 177.22 1090.83 807.45 1150.77 501.62 1050.11 923.84 1095.74 956.23 815.85 923.96 567.75 893.86 1004.78 1026.99 478.37 809.55 844.08 824.54 99.27 504.17 570.68 1034.41 1105.32 451.15 805.05 675.79 265.66 1113.13 577.10 884.39 758.77 574.55 332.88 1235.92 495.17 713.61 1074.53 351.08 648.73 1067.23 837.02 391.40 487.49 635.39 1004.36 781.08 896.82 889.90 268.27 494.22 1025.97 697.89 675.59 872.78 325.57 916.41 759.15 693.54 527.65 737.21 508.88 400.81 1004.01 708.65 844.45 284.92 895.93 466.18 802.71 879.68 1224.81 1046.67 1048.28 1118.31 910.27 724.13 558.00 988.52 715.28 747.97 796.08 491.74 483.22 710.47 389.13 1145.60 546.89 394.68 509.16 1087.96 842.77
518.52 765.02 489.62 295.60 7.89 1070.06 626.89 439.62 770.33 515.62 998.76 265.26 16.92 673.30 787.72 0.00 851.40 740.03 644.32 432.00 237.70 317.96 376.84 875.55 661.45 744.00 49.61 1022.06 348.47 741.43 219.47 825.59 724.94 134.04 139.80 439.48 113.64 888.51 803.37 979.60 188.80 818.02 178.66 886.99 426.06 449.99 1142.20 462.44 393.96 1021.23 760.70 632.24 874.91 806.60 362.27 111.39 260.03 602.33 707.70 407.25 185.69 889.26 436.64 368.64 317.61 56.51 977.38 332.29 152.33 750.82 57.51 830.86 145.53 596.68 415.83 498.76 250.01 220.80 196.40 475.47 745.69 76.52 155.35 439.73 73.72 291.06 490.80 361.13 96.88 108.35 583.06 234.84 1052.16 170.68 794.45 553.22 373.73 841.64 1002.04 770.90 199.10 241.94 766.66 232.62 56.16 933.37 390.38 398.90 252.20 507.44 472.66 258.64 481.62 1018.72 900.04 686.62
430.88 714.96 444.85 949.68 846.94 727.39 386.96 418.93 553.56 670.26 237.06 857.14 834.48 988.07 537.46 851.40 0.00 581.56 451.99 781.11 684.52 911.35 624.37 692.51 534.21 706.40 855.55 694.40 685.91 691.37 906.68 695.88 596.43 921.47 893.19 834.04 934.45 668.68 642.56 272.43 821.12 439.19 873.09 563.71 466.23 401.41 549.40 929.47 556.23 267.59 177.68 356.24 713.79 44.80 729.73 809.79 712.28 429.17 931.04 536.50 831.71 669.64 493.47 817.59 1003.66 887.07 472.75 646.94 761.50 645.62 833.34 466.83 935.55 603.26 517.72 724.21 835.62 805.23 836.40 518.38 427.35 867.50 831.27 504.02 789.47 646.61 393.54 911.04 834.90 885.78 405.42 928.52 433.73 940.44 421.35 1095.05 958.14 689.54 648.88 551.53 861.86 673.08 629.78 853.01 865.02 309.49 475.95 475.96 855.40 422.96 1051.11 684.62 418.18 204.72 683.07 526.73
554.84 1033.12 250.41 708.61 732.14 1152.46 261.95 422.00 128.75 818.90 695.39 627.72 744.60 1136.71 116.83 740.03 581.56 0.00 175.12 847.99 641.20 677.82 742.05 928.89 86.09 1010.01 743.88 1116.90 410.49 1010.36 880.59 1001.58 922.22 785.65 864.05 450.92 835.01 970.91 1000.65 595.20 736.49 846.75 731.44 216.10 396.35 462.86 991.72 1073.80 415.71 787.73 585.24 231.23 1000.11 536.76 767.56 700.78 558.70 290.19 1119.09 427.85 637.95 1033.30 316.45 539.15 1021.31 759.03 508.23 450.12 600.76 955.33 716.31 881.68 817.24 177.14 390.75 918.15 649.24 584.46 814.84 306.01 858.55 708.73 649.91 439.71 702.58 493.03 302.18 972.49 650.66 777.13 280.41 852.68 583.01 742.89 809.79 1116.99 1003.42 1014.47 1084.44 959.09 682.41 517.02 939.49 647.41 712.60 758.08 398.37 391.33 662.72 281.31 1102.35 531.04 327.02 603.08 1006.08 725.94
397.53 955.47 161.28 720.43 643.01 1006.61 126.47 264.69 192.26 729.77 599.45 602.93 634.23 1047.58 260.60 644.32 451.99 175.12 0.00 690.68 530.28 657.14 601.25 946.75 89.03 881.48 614.38 996.98 387.93 945.57 791.46 928.93 793.69 706.73 762.16 535.40 725.96 921.12 872.12 529.86 637.68 672.24 642.31 307.73 307.22 314.31 816.60 925.25 326.58 719.58 517.95 95.75 946.84 407.19 698.27 629.50 487.71 115.07 1050.31 338.72 612.21 902.69 270.32 525.55 916.56 686.82 476.96 348.30 554.63 904.34 586.81 706.56 750.71 151.27 301.62 766.71 581.41 558.59 728.36 219.36 744.57 678.39 605.31 354.92 630.68 434.82 222.94 823.94 600.47 688.00 127.08 763.55 551.74 728.65 740.66 1027.86 905.26 963.48 970.98 827.72 650.07 438.65 888.50 581.21 657.88 685.10 284.00 292.52 561.63 192.18 1001.52 458.70 237.89 561.28 886.40 597.41
417.91 503.15 597.58 671.77 439.89 805.60 705.88 425.99 882.94 110.85 898.15 624.89 428.08 426.23 951.28 432.00 781.11 847.99 690.68 0.00 479.83 707.75 231.51 556.34 778.59 477.99 470.40 685.10 664.52 501.69 305.86 573.59 403.28 561.03 486.61 808.08 504.05 662.98 414.15 939.15 325.34 588.20 360.99 998.41 473.29 475.61 904.80 268.81 623.00 739.37 643.05 701.64 576.81 801.97 162.30 499.00 600.18 680.09 380.12 586.46 554.29 602.10 642.36 753.26 316.10 375.49 1056.37 685.09 535.99 507.53 475.50 640.94 521.19 783.65 561.06 96.52 646.41 572.80 376.14 690.85 605.91 453.36 507.35 560.29 490.56 648.65 569.65 246.45 448.88 430.00 681.32 333.77 1131.15 572.00 587.79 427.68 264.15 489.40 639.58 449.24 560.87 610.70 491.69 643.78 475.16 790.46 483.01 483.02 641.44 600.07 363.08 610.64 590.65 985.83 619.44 330.45
357.12 692.13 390.79 468.18 233.24 1030.47 507.60 265.59 661.60 553.19 837.36 324.27 220.78 856.38 676.64 237.70 684.52 641.20 530.28 479.83 0.00 407.13 597.29 716.83 570.99 732.63 247.84 919.30 258.21 668.54 416.40 771.61 590.88 353.50 339.50 405.68 263.94 850.58 669.31 787.99 257.12 751.61 347.19 775.91 269.69 315.21 1051.81 631.12 225.49 946.57 687.91 488.27 788.05 671.82 443.35 282.99 257.33 482.90 816.27 321.61 318.77 820.04 358.70 360.52 531.02 253.44 858.09 218.58 223.69 717.40 220.27 764.45 381.82 548.30 343.69 567.08 345.79 253.06 374.89 351.07 679.28 296.97 318.51 289.13 264.14 224.10 371.37 558.06 310.80 286.84 463.95 438.70 880.18 396.03 728.04 744.53 570.66 774.85 964.11 636.84 361.00 174.98 715.09 338.51 283.90 819.80 274.17 265.65 331.32 391.23 669.59 216.31 363.54 885.99 794.02 628.37
639.22 966.11 536.77 101.87 313.50 1319.26 680.58 540.02 700.61 711.13 1046.95 82.86 301.04 947.51 768.95 317.96 911.35 677.82 657.14 707.75 407.13 0.00 646.96 1123.96 591.73 1014.12 302.20 1166.03 322.26 989.70 516.59 1143.55 971.23 299.96 445.41 241.67 401.01 1141.33 1049.66 1002.20 439.11 1102.14 452.19 868.22 510.15 573.34 1292.22 759.56 371.47 1155.42 916.63 690.97 1093.49 866.55 625.34 217.72 199.07 590.69 998.26 497.56 176.59 1137.64 461.78 183.45 623.22 353.63 1021.06 338.48 273.03 1020.94 280.44 1106.64 352.31 578.11 454.87 749.07 75.73 170.79 466.02 477.94 1029.81 346.64 202.55 506.82 272.80 264.74 554.09 658.25 258.87 395.17 641.79 518.96 1095.84 226.79 1057.76 835.66 627.05 1066.96 1211.55 1017.19 187.38 266.66 1036.78 85.34 272.95 1064.35 491.51 482.99 95.51 567.67 725.98 282.48 493.17 1017.76 1088.59 874.93
430.83 441.15 491.64 633.74 384.73 828.75 587.42 336.56 760.17 147.45 788.18 564.10 376.51 465.26 828.51 376.84 624.37 742.05 601.25 231.51 597.29 646.96 0.00 560.72 672.65 367.16 390.47 691.93 598.56 431.25 454.89 575.54 417.14 510.88 507.75 644.50 458.27 659.88 431.00 742.79 400.45 622.05 390.44 821.92 383.86 353.54 838.42 406.66 565.17 713.29 446.69 592.77 594.39 669.17 214.22 437.78 569.08 590.66 483.16 488.63 498.28 598.67 552.93 716.82 403.91 378.19 937.91 573.89 424.08 468.07 418.04 674.79 522.37 694.22 471.63 199.56 585.25 515.54 430.24 545.85 592.71 300.32 450.09 456.15 414.54 603.97 480.22 415.09 410.85 387.80 543.59 436.79 1012.69 547.52 621.64 537.90 333.77 506.98 646.41 446.14 522.84 572.67 483.91 567.86 433.00 619.53 393.58 393.59 587.44 510.64 432.70 572.61 501.22 829.09 617.29 364.30
576.00 188.54 873.43 1088.31 883.44 313.64 835.49 708.84 1032.64 445.49 665.25 1041.10 875.22 590.44 1045.72 875.55 692.51 928.89 946.75 556.34 716.83 1123.96 560.72 0.00 1013.10 193.56 889.18 204.82 961.76 211.44 752.93 72.69 153.06 960.51 830.25 1100.33 905.81 158.60 217.63 779.29 739.93 321.07 781.77 1107.11 727.49 660.98 366.81 684.12 907.52 524.97 514.83 866.21 71.22 701.75 583.08 915.54 965.45 878.24 520.49 796.07 970.83 104.41 907.31 1077.35 785.34 871.50 977.61 922.13 922.79 124.73 916.75 299.09 928.56 1060.41 828.82 490.73 1062.62 969.89 799.10 958.27 338.16 799.03 923.89 763.59 937.70 940.93 852.50 744.66 865.42 816.99 879.32 780.84 1028.98 973.40 289.40 753.42 753.87 97.85 250.34 140.98 977.41 891.81 140.57 1055.34 874.64 496.60 763.17 754.65 1048.15 857.55 817.63 933.14 870.81 897.23 77.19 349.34
485.44 1022.52 181.01 693.60 653.56 1095.64 215.50 352.60 108.88 749.50 675.52 541.63 666.02 1067.31 177.22 661.45 534.21 86.09 89.03 778.59 570.99 591.73 672.65 1013.10 0.00 970.51 657.79 1079.27 324.40 999.76 799.03 1001.22 882.72 699.56 785.47 537.01 748.92 940.85 961.15 618.89 665.81 761.27 662.04 276.49 326.95 393.46 905.63 1004.40 345.50 801.80 606.98 184.78 1035.87 489.41 778.63 614.69 472.61 204.10 1126.35 358.45 551.86 991.72 270.88 541.28 940.83 672.94 479.84 364.03 555.19 944.73 630.22 795.59 731.15 91.05 321.35 848.75 563.15 498.37 728.75 219.92 772.46 622.64 563.82 374.65 638.16 406.94 242.67 903.09 564.57 707.73 216.11 783.28 554.62 674.90 723.70 1047.59 934.02 1003.87 1054.38 907.64 596.32 430.93 928.89 561.32 644.25 751.81 328.97 320.65 576.63 211.91 1032.95 444.95 257.62 602.83 975.43 686.44
556.95 73.99 847.36 1000.90 751.89 507.20 866.23 689.79 1022.49 434.70 701.23 931.26 743.67 483.24 1090.83 744.00 706.40 1010.01 881.48 477.99 732.63 1014.12 367.16 193.56 970.51 0.00 757.63 396.99 894.31 64.09 735.55 208.38 142.27 878.04 741.36 1011.66 814.34 352.16 63.84 809.96 684.72 358.88 720.77 1185.66 737.09 703.32 558.14 530.33 842.25 620.44 528.72 891.02 227.23 727.45 581.38 804.94 936.24 771.31 396.43 694.78 865.44 231.51 838.87 1031.93 676.08 745.35 970.58 854.68 791.24 144.97 785.20 400.88 839.67 963.75 746.84 381.47 952.41 882.70 707.63 870.95 344.90 667.48 817.25 662.30 781.70 872.22 833.45 631.64 778.01 754.96 860.69 716.18 1045.36 914.68 372.17 629.36 644.61 139.82 413.65 188.23 890.00 863.10 129.13 935.02 800.16 532.58 739.58 746.82 954.60 821.65 694.85 910.23 770.75 911.12 268.52 284.07
539.45 814.63 497.01 315.56 44.52 1070.01 647.82 476.25 766.67 537.92 1003.01 261.14 42.32 711.70 807.45 49.61 855.55 743.88 614.38 470.40 247.84 302.20 390.47 889.18 657.79 757.63 0.00 1034.45 367.15 791.04 257.87 875.20 738.57 135.84 176.43 392.55 142.29 888.46 817.00 960.71 225.43 843.42 197.87 851.18 470.73 459.50 1167.60 467.33 414.89 1022.18 797.33 653.17 825.30 810.75 396.56 84.48 251.31 581.42 746.10 357.64 138.76 869.45 457.57 396.20 354.24 94.91 946.84 350.97 173.26 764.45 27.57 856.26 195.14 566.74 412.07 535.39 239.62 176.91 233.03 494.15 771.09 90.15 132.32 390.12 71.44 298.57 527.43 399.53 98.80 144.98 603.99 260.24 1021.62 207.31 819.85 589.85 410.98 855.27 1001.99 784.53 204.66 260.62 780.29 233.78 60.02 958.77 439.99 448.51 231.32 504.18 509.91 260.56 451.68 1026.83 913.67 637.01
717.48 351.36 905.83 1244.02 1029.95 153.23 969.76 778.63 1146.45 620.85 732.72 1111.82 1021.73 724.97 1150.77 1022.06 694.40 1116.90 996.98 685.10 919.30 1166.03 691.93 204.82 1079.27 396.99 1034.45 0.00 1039.53 357.95 887.88 207.22 328.42 1135.87 1005.61 1235.25 1071.34 145.99 364.62 766.68 886.44 324.74 928.28 1168.51 795.52 729.01 310.74 805.83 1007.24 476.79 586.25 961.04 209.63 649.60 729.59 1069.60 1103.28 881.91 661.97 864.10 1143.50 165.48 995.00 1210.23 930.35 1023.41 986.62 1048.15 1069.30 271.24 1006.88 337.45 1090.66 1088.20 896.85 635.74 1090.30 1132.83 945.61 1028.31 397.07 945.54 1095.31 831.62 1050.75 1037.61 844.17 891.17 1040.78 998.59 971.29 915.79 1038.53 1133.46 355.57 853.77 898.88 291.41 45.52 282.46 1152.77 1039.01 287.08 1090.10 1050.00 571.13 831.20 822.68 1070.52 874.93 962.64 1066.02 938.84 899.12 244.71 476.39
464.47 943.87 295.64 382.82 340.58 1167.06 407.91 339.56 433.28 666.53 744.29 241.95 353.04 935.04 501.62 348.47 685.91 410.49 387.93 664.52 258.21 322.26 598.56 961.76 324.40 894.31 367.15 1039.53 0.00 926.75 511.50 889.07 838.61 386.02 472.49 226.73 453.01 1004.26 854.87 777.42 454.28 870.16 439.13 600.89 292.26 310.52 1014.52 686.93 130.34 953.50 720.12 421.63 948.78 641.77 502.22 318.47 148.21 312.99 999.73 223.93 256.75 952.74 192.44 216.88 647.23 348.54 744.67 39.63 249.98 900.55 370.88 904.48 428.08 406.14 277.18 761.04 254.31 231.29 491.10 201.55 827.48 298.24 267.20 256.41 327.01 82.54 311.74 653.16 268.35 403.05 372.45 537.42 819.45 350.50 857.30 858.64 665.76 903.51 1085.05 830.52 271.92 106.53 884.71 236.92 319.85 815.11 327.38 319.42 256.50 280.98 764.69 120.55 268.39 762.14 931.32 642.33
574.86 23.59 818.75 1037.03 749.32 481.82 841.09 694.68 1038.24 458.40 652.31 992.81 758.35 419.15 1050.11 741.43 691.37 1010.36 945.57 501.69 668.54 989.70 431.25 211.44 999.76 64.09 791.04 357.95 926.75 0.00 693.69 178.09 165.97 875.47 765.06 1030.63 763.94 309.44 87.54 778.93 701.91 342.37 670.37 1149.38 711.57 645.06 499.88 539.95 869.73 605.80 513.69 871.81 195.48 736.17 545.06 852.82 925.87 835.40 332.34 718.48 927.12 231.06 862.57 1028.22 699.78 795.19 976.47 887.12 855.33 86.71 798.94 342.62 863.37 943.22 770.54 405.17 991.44 921.60 756.42 913.53 368.60 731.57 881.34 686.00 815.15 892.64 818.61 618.66 838.31 740.68 884.92 665.78 1051.25 912.11 323.78 565.27 668.31 124.44 349.56 139.84 940.53 843.52 70.87 974.05 797.59 483.66 718.83 727.35 993.63 787.85 716.60 884.85 826.47 850.49 210.26 348.16
576.11 670.10 630.18 470.35 227.36 1041.11 766.27 561.27 907.91 307.44 975.51 463.89 215.55 453.83 923.84 219.47 906.68 880.59 791.46 305.86 416.40 516.59 454.89 752.93 799.03 735.55 257.87 887.88 511.50 693.69 0.00 780.60 599.87 332.72 180.75 628.96 213.41 859.57 671.71 1025.10 198.89 727.17 149.15 1021.86 555.99 610.89 1036.38 242.97 579.93 935.96 729.00 791.53 824.15 887.83 242.73 317.86 469.75 709.15 540.64 507.61 376.91 829.03 622.61 540.73 175.25 162.96 1096.81 494.47 338.30 701.08 262.97 779.91 215.33 707.98 562.04 354.08 447.67 416.21 70.28 656.39 799.50 240.83 350.76 538.70 278.03 510.53 630.04 141.66 316.35 158.33 742.35 27.91 1171.59 359.47 784.38 347.14 154.26 746.96 933.40 645.83 359.45 461.41 716.92 431.25 262.63 901.84 552.57 544.05 450.83 599.28 253.19 478.11 636.85 1111.40 746.76 527.04
620.49 185.04 855.10 1115.98 833.48 346.05 886.72 731.03 1078.40 473.16 685.35 1061.14 842.51 517.75 1095.74 825.59 695.88 1001.58 928.93 573.59 771.61 1143.55 575.54 72.69 1001.22 208.38 875.20 207.22 889.07 178.09 780.60 0.00 180.73 959.63 857.92 1036.54 923.16 218.15 184.76 759.80 738.26 256.69 780.10 1130.92 747.92 681.41 390.62 651.25 935.19 472.67 518.20 917.44 59.71 711.57 581.41 934.82 988.85 813.86 510.43 815.70 995.32 63.67 947.40 1026.69 764.74 875.23 1022.10 849.44 921.12 123.06 883.10 292.69 927.55 1037.47 849.25 477.07 1075.60 1012.58 797.43 972.16 329.02 797.36 947.13 783.22 899.31 935.96 854.96 711.31 893.09 850.41 903.24 808.51 1017.47 996.27 315.25 743.36 694.60 84.19 252.74 185.47 1005.08 939.79 107.22 1058.21 881.75 516.70 783.60 775.08 1077.79 824.20 793.53 959.84 891.24 898.91 101.00 377.01
469.16 167.43 764.76 935.25 732.83 441.25 747.21 602.00 944.36 292.43 558.96 888.37 724.61 505.83 956.23 724.94 596.43 922.22 793.69 403.28 590.88 971.23 417.14 153.06 882.72 142.27 738.57 328.42 838.61 165.97 599.87 180.73 0.00 807.45 677.19 986.08 752.75 259.70 78.43 715.91 629.72 216.61 686.39 1055.50 632.47 565.96 508.89 544.92 754.46 478.17 419.81 777.93 224.28 585.18 487.70 762.48 812.39 748.96 425.47 694.18 817.77 229.16 793.12 951.40 686.29 726.29 882.59 798.98 771.12 126.52 766.14 269.35 775.50 944.96 733.80 391.68 909.89 836.28 670.15 844.08 202.63 648.42 770.83 668.57 785.95 814.98 745.66 607.91 712.36 756.70 791.04 627.78 957.37 865.44 229.90 658.40 654.82 183.97 373.23 45.96 824.35 765.86 124.21 912.79 721.58 390.31 659.02 659.03 904.92 733.86 718.58 807.19 766.41 801.15 222.49 196.28
588.29 899.06 603.16 198.09 138.27 1199.38 696.66 543.88 808.44 600.46 1068.53 241.75 148.99 743.93 815.85 134.04 921.47 785.65 706.73 561.03 353.50 299.96 510.88 960.51 699.56 878.04 135.84 1135.87 386.02 875.47 332.72 959.63 807.45 0.00 215.70 439.61 190.14 1017.83 885.88 1041.74 319.18 945.66 304.84 915.12 496.58 520.06 1266.52 575.69 445.57 1066.35 891.08 702.01 961.14 876.67 478.46 141.10 241.30 662.45 811.43 456.29 199.38 1005.29 504.01 414.33 447.99 185.54 1045.49 380.71 222.10 884.86 156.94 962.93 117.39 631.17 462.82 629.14 245.13 258.91 262.44 520.17 877.76 210.56 193.46 488.77 132.00 306.97 601.28 474.38 134.99 234.53 652.83 354.56 1120.27 122.68 926.52 632.08 486.98 975.68 1131.36 853.41 133.48 296.81 900.70 235.87 85.87 1024.65 521.66 513.14 255.45 602.83 551.89 296.75 532.71 1059.99 976.90 687.91
616.44 764.66 613.64 399.58 131.91 1118.44 751.05 541.40 894.35 384.76 1040.65 392.71 144.37 592.10 923.96 139.80 893.19 864.05 762.16 486.61 339.50 445.41 507.75 830.25 785.47 741.36 176.43 1005.61 472.49 765.06 180.75 857.92 677.19 215.70 0.00 563.50 75.56 936.89 677.52 1065.43 270.82 862.11 196.66 1020.29 558.29 491.78 1182.97 396.63 533.76 1013.28 769.33 772.04 879.67 848.39 326.63 238.07 383.48 726.35 678.91 476.47 309.71 906.35 576.44 492.66 265.42 181.70 1065.67 456.31 292.13 770.90 175.35 914.85 98.31 714.52 530.90 484.01 377.46 326.11 110.61 599.49 873.14 216.32 279.37 508.95 206.85 415.08 614.82 295.32 220.90 127.19 722.86 152.84 1140.45 274.66 861.70 480.25 303.58 817.10 1050.42 723.15 323.90 365.96 755.06 360.07 195.96 942.17 530.18 538.70 379.65 623.01 402.51 382.66 599.46 1097.91 893.35 604.36
619.87 1053.39 443.11 257.69 431.59 1333.28 586.92 487.03 579.67 781.22 969.64 300.43 434.87 1041.91 567.75 439.48 834.04 450.92 535.40 808.08 405.68 241.67 644.50 1100.33 537.01 1011.66 392.55 1235.25 226.73 1030.63 628.96 1036.54 986.08 439.61 563.50 0.00 534.84 1151.73 1018.23 924.89 571.03 1047.55 542.68 667.02 439.73 506.24 1196.36 834.40 277.81 1101.63 882.72 617.64 1084.37 789.24 694.11 349.64 261.26 538.32 1117.19 387.29 253.79 1100.21 399.98 88.23 716.55 466.00 892.14 187.10 400.50 975.60 412.36 1100.29 524.21 553.61 420.96 844.06 278.91 288.91 560.42 349.02 1023.20 451.75 305.67 419.77 404.72 270.45 459.21 770.62 359.20 472.37 578.80 652.54 966.92 382.61 1004.77 930.06 783.22 1034.74 1265.26 1026.24 306.13 232.75 959.76 275.43 404.87 969.23 457.60 449.08 259.13 428.45 882.15 232.44 415.86 909.61 1078.79 789.80
621.06 740.35 594.16 388.23 112.43 1181.59 731.57 529.53 857.80 460.32 1081.91 348.31 99.97 624.62 893.86 113.64 934.45 835.01 725.96 504.05 263.94 401.01 458.27 905.81 748.92 814.34 142.29 1071.34 453.01 763.94 213.41 923.16 752.75 190.14 75.56 534.84 0.00 1000.04 753.08 1051.93 233.99 901.07 143.06 971.75 533.63 533.04 1225.25 446.09 489.43 1088.84 801.85 744.18 920.75 889.65 341.75 201.87 352.12 693.00 711.43 452.48 281.05 947.82 548.58 473.18 274.96 152.56 1041.68 436.83 264.27 800.10 139.15 913.91 117.88 657.87 506.91 543.95 333.06 250.55 143.13 568.29 828.74 157.95 259.89 484.96 162.45 395.60 595.34 355.07 201.42 103.20 695.00 228.40 1116.46 275.22 872.31 510.57 345.10 841.20 1104.68 798.71 302.80 346.48 815.94 315.67 155.16 974.69 504.02 512.54 328.81 593.19 444.03 363.18 563.26 1114.77 949.32 679.92
648.76 332.63 759.84 1152.74 896.40 181.55 834.41 759.30 1030.65 552.13 652.42 1126.93 905.43 680.06 1004.78 888.51 668.68 970.91 921.12 662.98 850.58 1141.33 659.88 158.60 940.85 352.16 888.46 145.99 1004.26 309.44 859.57 218.15 259.70 1017.83 936.89 1151.73 1000.04 0.00 338.13 620.69 876.98 279.13 878.96 1104.05 712.00 733.74 312.03 790.07 925.14 529.35 491.00 865.13 158.44 678.64 741.68 923.61 1058.98 809.71 593.25 837.44 1019.46 202.59 866.78 1141.88 861.63 945.02 983.38 964.63 1006.58 283.33 860.89 275.69 1034.04 942.21 817.20 567.02 1111.68 1047.66 900.35 882.32 296.09 908.12 982.21 804.96 904.76 1004.61 698.18 843.20 972.06 949.27 873.99 887.48 1058.16 1059.19 247.33 826.18 830.16 245.85 113.53 213.74 1041.84 955.49 277.65 1094.29 931.96 483.77 747.68 739.16 1112.02 728.94 893.92 1002.71 803.54 759.80 138.26 427.25
547.59 89.00 792.10 1013.68 801.79 488.49 825.64 663.57 958.65 370.86 637.39 966.80 803.04 427.40 1026.99 803.37 642.56 1000.65 872.12 414.15 669.31 1049.66 431.00 217.63 961.15 63.84 817.00 364.62 854.87 87.54 671.71 184.76 78.43 885.88 677.52 1018.23 753.08 338.13 0.00 760.98 620.88 295.04 735.78 1126.26 691.42 644.39 506.55 466.49 782.19 556.60 464.88 856.36 202.15 663.61 551.73 840.91 890.82 827.39 361.34 630.94 896.20 246.30 775.03 1008.38 612.24 789.64 906.74 831.13 849.55 93.38 844.57 344.08 775.83 945.05 683.00 317.63 988.32 914.71 741.99 825.99 281.06 726.85 849.26 598.46 816.93 840.54 789.98 567.80 790.79 796.48 855.75 699.62 981.52 943.87 308.33 594.27 580.77 139.58 397.04 124.39 902.78 799.26 77.54 980.58 800.01 468.74 675.74 684.26 983.35 777.48 644.53 878.55 775.59 847.28 216.93 274.71
677.29 755.34 550.46 1040.53 971.71 802.24 403.39 583.31 546.71 890.24 242.69 947.99 980.56 1136.27 478.37 979.60 272.43 595.20 529.86 939.15 787.99 1002.20 742.79 779.29 618.89 809.96 960.71 766.68 777.42 778.93 1025.10 759.80 715.91 1041.74 1065.43 924.89 1051.93 620.69 760.98 0.00 939.68 503.11 969.69 549.00 621.68 632.93 647.63 1065.68 647.08 435.12 296.10 434.11 777.71 316.42 921.25 900.64 803.13 498.31 1049.46 653.68 942.19 733.56 625.47 911.50 1137.24 1033.15 407.14 737.79 872.07 764.04 933.14 555.85 1097.00 628.31 608.57 842.63 926.47 897.73 954.82 609.23 575.44 995.83 922.12 680.32 955.72 737.46 488.80 1118.81 936.40 997.44 447.22 1046.94 470.27 1031.29 539.77 1029.01 1076.56 807.96 728.36 669.95 952.71 786.58 748.20 943.86 955.87 411.34 603.04 594.52 946.25 519.56 1169.53 775.47 509.03 139.11 746.99 760.86
428.82 695.32 486.08 457.52 180.91 991.02 587.11 402.19 760.04 337.29 909.06 419.82 193.37 621.68 809.55 188.80 821.12 736.49 637.68 325.34 257.12 439.11 400.45 739.93 665.81 684.72 225.43 886.44 454.28 701.91 198.89 738.26 629.72 319.18 270.82 571.03 233.99 876.98 620.88 939.68 0.00 798.59 135.09 865.10 357.10 423.61 1054.04 374.00 482.61 965.81 673.88 592.64 755.65 780.22 186.23 221.39 408.54 562.41 559.15 384.57 317.24 799.80 458.47 533.11 366.65 201.45 937.60 475.70 279.80 615.20 240.79 793.46 262.99 653.84 379.22 309.96 409.46 369.31 221.14 509.43 832.35 156.04 303.86 352.09 225.61 445.16 450.88 309.51 245.39 175.60 543.46 226.80 1012.38 343.70 793.75 546.03 353.15 702.84 931.96 663.24 346.62 407.21 631.04 392.07 244.96 846.72 353.68 345.16 407.58 470.74 452.08 407.15 461.32 1021.92 764.42 540.84
530.63 365.96 618.83 1095.12 813.56 334.37 652.09 638.83 821.71 477.35 428.66 1025.48 801.10 668.85 844.08 818.02 439.19 846.75 672.24 588.20 751.61 1102.14 622.05 321.07 761.27 358.88 843.42 324.74 870.16 342.37 727.17 256.69 216.61 945.66 862.11 1047.55 901.07 279.13 295.04 503.11 798.59 0.00 831.01 942.88 655.80 589.29 364.08 736.56 784.13 314.79 261.51 676.88 274.60 454.88 655.78 899.16 948.46 557.17 582.04 724.38 956.09 230.45 745.36 1037.70 810.43 839.57 777.47 860.45 879.26 296.62 848.52 52.74 942.50 803.90 757.13 555.81 1034.19 976.92 797.45 787.11 72.33 761.70 911.47 691.90 863.58 882.79 668.70 717.81 872.23 885.20 646.55 755.08 832.67 976.35 121.09 814.97 799.13 340.54 298.74 202.53 984.22 899.29 280.78 1016.80 864.22 260.01 682.04 682.96 1036.38 649.73 882.71 914.60 686.91 642.22 243.88 257.75
505.17 646.78 481.03 432.21 170.77 1048.17 617.12 537.28 770.92 393.96 985.41 397.98 177.41 567.54 824.54 178.66 873.09 731.44 642.31 360.99 347.19 452.19 390.44 781.77 662.04 720.77 197.87 928.28 439.13 670.37 149.15 780.10 686.39 304.84 196.66 542.68 143.06 878.96 735.78 969.69 135.09 831.01 0.00 923.81 492.19 549.24 1095.88 365.03 430.78 1012.96 744.77 647.84 797.49 828.29 198.69 245.80 346.68 560.00 654.35 419.59 288.89 841.64 473.46 502.59 292.54 124.82 967.61 402.55 189.15 657.04 224.83 805.92 226.57 663.40 452.65 445.05 376.46 354.60 86.05 524.42 854.97 181.16 299.21 452.07 239.89 369.04 480.89 263.72 240.74 70.31 619.88 121.24 1042.39 319.86 806.21 455.69 271.98 747.63 973.80 732.35 321.31 397.76 672.88 376.26 224.49 913.05 488.77 480.25 356.68 450.13 370.91 402.50 552.19 1051.93 806.26 573.26
628.71 1172.97 457.50 911.22 888.38 1237.12 364.76 572.42 167.61 969.37 706.90 818.12 893.16 1287.18 99.27 886.99 563.71 216.10 307.73 998.41 775.91 868.22 821.92 1107.11 276.49 1185.66 851.18 1168.51 600.89 1149.38 1021.86 1130.92 1055.50 915.12 1020.29 667.02 971.75 1104.05 1126.26 549.00 865.10 942.88 923.81 0.00 547.10 585.75 1047.60 1103.95 550.42 765.79 741.39 350.51 1178.33 518.91 922.56 858.04 673.82 422.80 1305.08 594.44 786.91 1139.36 450.35 741.23 1159.77 933.68 358.56 563.98 734.66 1101.23 853.05 955.72 966.39 313.88 593.49 1021.48 796.74 721.20 951.58 424.84 870.55 858.42 786.65 605.74 836.48 608.15 500.08 1095.38 807.92 943.72 380.41 995.20 433.34 901.98 919.31 1267.74 1145.94 1147.55 1122.99 1009.54 823.40 654.33 1087.79 806.65 847.24 819.22 528.46 519.94 799.46 488.40 1244.87 646.16 493.95 409.89 1029.92 901.59
180.14 730.92 145.94 578.73 433.95 893.55 269.11 47.30 435.83 509.19 615.38 457.45 442.98 827.00 504.17 426.06 466.23 396.35 307.22 473.29 269.69 510.15 383.86 727.49 326.95 737.09 470.73 795.52 292.26 711.57 555.99 747.92 632.47 496.58 558.29 439.73 533.63 712.00 691.42 621.68 357.10 655.80 492.19 547.10 0.00 66.51 861.26 677.45 231.19 708.08 460.80 274.64 765.31 423.12 458.95 455.43 358.28 244.41 832.92 125.44 464.36 743.53 233.90 429.88 668.76 479.56 619.60 252.63 368.70 656.54 481.78 668.64 545.92 336.32 105.20 549.32 442.20 398.65 562.77 243.52 583.47 456.44 463.19 92.96 454.57 292.61 132.88 576.14 405.31 474.72 225.46 583.90 694.38 549.06 565.04 720.64 625.79 715.68 825.53 586.51 474.72 243.49 640.70 424.81 410.71 571.10 35.68 27.16 444.39 152.74 724.72 330.62 143.32 670.95 742.01 453.02
182.46 667.82 212.45 607.10 445.53 882.24 329.51 49.62 502.34 500.99 548.87 519.13 433.07 818.80 570.68 449.99 401.41 462.86 314.31 475.61 315.21 573.34 353.54 660.98 393.46 703.32 459.50 729.01 310.52 645.06 610.89 681.41 565.96 520.06 491.78 506.24 533.04 733.74 644.39 632.93 423.61 589.29 549.24 585.75 66.51 0.00 794.75 610.94 278.23 665.89 409.60 325.27 698.80 356.61 392.44 443.14 374.27 303.72 835.24 135.09 430.30 703.20 265.99 481.22 602.25 485.66 680.00 319.14 360.09 590.03 431.93 602.13 534.14 402.83 167.84 551.64 497.61 403.82 572.42 310.03 516.96 466.09 469.27 102.61 388.06 308.60 193.28 509.63 447.20 484.37 291.97 628.06 745.54 563.73 565.72 787.15 590.95 649.17 774.53 520.00 496.20 310.00 574.19 489.27 464.66 504.59 102.19 93.67 482.08 219.25 687.21 337.01 209.83 606.13 713.58 455.34
775.10 499.61 841.15 1202.97 1137.74 199.41 796.45 844.37 966.07 798.21 458.81 1209.36 1125.28 908.37 1034.41 1142.20 549.40 991.72 816.60 904.80 1051.81 1292.22 838.42 366.81 905.63 558.14 1167.60 310.74 1014.52 499.88 1036.38 390.62 508.89 1266.52 1182.97 1196.36 1225.25 312.03 506.55 647.63 1054.04 364.08 1095.88 1047.60 861.26 794.75 0.00 973.04 969.32 281.81 463.00 821.24 403.80 594.20 897.19 1219.51 1125.37 701.53 832.22 898.25 1225.05 359.65 947.71 1186.51 988.94 1177.87 905.03 1009.26 1141.29 438.84 1172.70 311.34 1249.34 917.78 930.81 824.18 1230.88 1198.57 1106.66 931.47 396.51 1113.14 1151.96 897.36 1182.81 1059.70 813.06 896.32 1210.43 1166.19 790.91 1038.80 972.24 1300.53 443.93 1065.15 977.64 452.22 265.22 474.67 1274.95 1099.61 429.01 1242.00 1188.40 290.16 895.11 888.42 1250.66 811.40 1073.90 1097.71 831.27 754.12 289.62 578.61
605.30 533.30 823.39 713.32 470.33 954.98 940.45 660.56 1113.28 259.21 937.71 706.86 458.52 248.11 1105.32 462.44 929.47 1073.80 925.25 268.81 631.12 759.56 406.66 684.12 1004.40 530.33 467.33 805.83 686.93 539.95 242.97 651.25 544.92 575.69 396.63 834.40 446.09 790.07 466.49 1065.68 374.00 736.56 365.03 1103.95 677.45 610.94 973.04 0.00 738.01 887.73 769.58 936.21 668.64 950.33 329.92 550.39 711.71 913.12 334.92 746.03 606.09 712.79 832.47 783.70 174.07 405.93 1290.94 647.30 554.18 559.87 494.90 789.30 458.30 950.95 753.22 223.05 686.74 644.24 313.25 809.22 747.55 483.80 593.73 713.55 521.00 713.34 804.22 101.31 559.32 401.30 902.91 243.79 1339.26 602.44 736.15 204.68 135.42 606.07 851.35 576.33 602.42 704.38 544.03 674.22 505.60 935.23 704.66 704.61 693.80 815.16 234.35 675.33 812.30 1134.19 683.42 478.81
361.45 871.19 165.30 462.84 401.85 1083.88 309.11 228.61 436.11 536.19 691.83 341.01 390.13 854.00 451.15 393.96 556.23 415.71 326.58 623.00 225.49 371.47 565.17 907.52 345.50 842.25 414.89 1007.24 130.34 869.73 579.93 935.19 754.46 445.57 533.76 277.81 489.43 925.14 782.19 647.08 482.61 784.13 430.78 550.42 231.19 278.23 969.32 738.01 0.00 823.82 669.94 339.83 943.40 511.43 460.70 358.30 230.12 267.79 913.04 151.25 316.36 924.84 144.44 264.42 711.57 418.94 659.60 90.71 241.63 868.26 387.32 836.87 493.12 330.17 173.07 635.44 319.49 250.65 516.83 125.58 779.19 365.39 316.10 183.73 343.45 164.86 226.96 689.31 328.74 473.45 324.45 552.02 734.38 416.27 730.43 886.47 702.76 921.77 1038.67 796.47 359.44 181.06 852.42 336.10 378.25 736.10 244.82 236.30 328.91 196.20 801.69 191.70 138.05 743.92 847.17 558.18
698.47 629.39 709.65 1154.25 1016.77 481.22 654.55 686.52 821.15 628.52 255.93 1107.37 1004.31 932.28 805.05 1021.23 267.59 787.73 719.58 739.37 946.57 1155.42 713.29 524.97 801.80 620.44 1022.18 476.79 953.50 605.80 935.96 472.67 478.17 1066.35 1013.28 1101.63 1088.84 529.35 556.60 435.12 965.81 314.79 1012.96 765.79 708.08 665.89 281.81 887.73 823.82 0.00 334.14 623.83 532.38 312.39 823.79 937.70 979.87 696.76 845.47 792.89 1033.55 536.34 761.06 1085.18 1022.38 1055.01 740.34 914.53 1018.47 560.05 1000.42 360.71 1097.49 777.12 758.96 727.77 1095.96 1052.41 952.44 785.97 275.54 1013.61 989.83 766.72 992.78 914.20 661.13 944.00 931.36 1040.49 625.22 963.87 690.43 1084.44 282.02 1053.31 990.91 556.86 522.31 465.96 1043.35 897.25 544.21 1078.57 992.93 161.30 689.44 680.92 1098.15 678.75 1054.67 952.21 685.77 472.31 557.77 439.70
381.19 537.28 570.60 981.24 752.81 590.74 434.70 441.80 607.45 594.14 341.49 863.93 765.27 840.17 675.79 760.70 177.68 585.24 517.95 643.05 687.91 916.63 446.69 514.83 606.98 528.72 797.33 586.25 720.12 513.69 729.00 518.20 419.81 891.08 769.33 882.72 801.85 491.00 464.88 296.10 673.88 261.51 744.77 741.39 460.80 409.60 463.00 769.58 669.94 334.14 0.00 440.05 536.11 222.48 660.91 846.76 764.76 480.25 753.36 535.56 839.90 491.96 570.88 873.40 841.14 801.28 559.02 709.91 709.53 467.94 798.99 314.25 803.77 659.62 511.68 546.53 848.68 805.13 658.72 547.99 292.43 747.01 852.59 509.39 797.66 699.09 539.36 822.71 796.64 746.77 390.87 750.84 571.16 915.60 243.67 974.26 780.46 511.86 560.25 373.85 870.34 649.97 452.10 831.29 816.86 172.84 432.11 433.64 850.87 549.17 873.43 729.19 539.75 382.40 505.39 501.01
370.86 895.40 228.61 729.30 640.13 1011.25 30.72 275.65 197.32 716.95 503.70 627.54 644.21 1034.76 265.66 632.24 356.24 231.23 95.75 701.64 488.27 690.97 592.77 866.21 184.78 891.02 653.17 961.04 421.63 871.81 791.53 917.44 777.93 702.01 772.04 617.64 744.18 865.13 856.36 434.11 592.64 676.88 647.84 350.51 274.64 325.27 821.24 936.21 339.83 623.83 440.05 0.00 934.83 311.44 702.91 617.14 491.90 119.71 1037.97 336.83 630.96 907.33 229.19 539.75 896.24 681.54 381.21 430.54 479.91 826.06 625.60 711.20 776.65 247.02 320.47 777.67 615.24 567.05 733.89 272.62 693.67 603.67 610.89 318.78 581.73 426.23 166.95 834.90 567.02 660.48 49.18 769.08 455.99 720.06 644.91 995.28 826.10 869.98 915.52 731.97 641.48 463.81 810.22 612.60 616.53 607.20 256.00 247.48 632.18 197.71 925.03 464.24 249.45 465.53 899.78 643.74
637.88 180.40 872.49 1140.86 869.82 286.34 904.11 740.38 1096.31 516.71 703.26 1040.79 867.62 576.77 1113.13 874.91 713.79 1000.11 946.84 576.81 788.05 1093.49 594.39 71.22 1035.87 227.23 825.30 209.63 948.78 195.48 824.15 59.71 224.28 961.14 879.67 1084.37 920.75 158.44 202.15 777.71 755.65 274.60 797.49 1178.33 765.31 698.80 403.80 668.64 943.40 532.38 536.11 934.83 0.00 722.40 598.80 909.78 1036.67 831.77 510.42 792.15 964.06 44.15 936.24 1081.96 721.45 892.62 1032.54 909.15 938.51 140.45 852.87 309.31 944.94 1054.86 846.58 480.29 1025.54 1002.21 814.82 987.20 346.93 814.75 957.62 800.61 896.74 995.67 856.62 728.70 924.10 867.80 921.15 822.59 957.76 1032.61 360.62 743.35 743.43 87.41 255.15 202.86 1029.96 963.03 124.61 1008.15 885.32 534.61 797.40 792.47 1027.73 841.59 807.19 1004.36 905.04 916.82 148.41 420.56
386.08 752.61 409.06 904.88 802.14 772.19 342.16 406.23 508.76 691.12 192.26 812.34 789.68 1008.93 577.10 806.60 44.80 536.76 407.19 801.97 671.82 866.55 669.17 701.75 489.41 727.45 810.75 649.60 641.77 736.17 887.83 711.57 585.18 876.67 848.39 789.24 889.65 678.64 663.61 316.42 780.22 454.88 828.29 518.91 423.12 356.61 594.20 950.33 511.43 312.39 222.48 311.44 722.40 0.00 684.93 764.99 667.48 431.15 975.84 491.70 786.91 685.33 489.82 772.79 958.86 842.27 463.71 602.14 716.70 690.42 788.54 467.72 890.75 558.46 472.92 769.01 790.82 760.43 817.55 473.58 382.55 822.70 786.47 459.22 744.67 601.81 408.92 866.24 790.10 840.98 360.62 909.67 388.93 895.64 431.31 1115.91 947.56 734.34 604.08 596.33 817.06 628.28 674.58 808.21 820.22 354.29 455.61 447.09 810.60 378.16 1043.82 639.82 373.38 249.52 664.78 518.00
344.72 538.47 597.62 613.15 367.14 849.48 678.12 442.06 847.74 195.27 824.96 596.67 358.35 463.32 884.39 362.27 729.73 767.56 698.27 162.30 443.35 625.34 214.22 583.08 778.63 581.38 396.56 729.59 502.22 545.06 242.73 581.41 487.70 478.46 326.63 694.11 341.75 741.68 551.73 921.25 186.23 655.78 198.69 922.56 458.95 392.44 897.19 329.92 460.70 823.79 660.91 702.91 598.80 684.93 0.00 407.62 545.37 583.20 542.42 456.97 487.58 642.95 601.06 605.88 321.23 305.76 1028.61 541.85 387.84 458.35 405.77 607.23 361.07 750.30 509.03 258.82 575.15 553.29 216.02 586.28 656.28 342.27 490.09 424.49 384.21 530.43 563.90 228.61 431.62 269.00 656.48 270.64 1073.86 488.76 607.52 534.60 309.93 549.17 775.11 533.66 502.25 567.45 474.19 574.05 405.43 714.36 449.66 458.18 555.37 566.72 406.19 568.44 557.30 934.45 607.57 414.87
503.42 876.41 468.22 236.13 119.28 1105.16 611.79 485.30 717.95 558.68 945.39 203.32 110.14 739.15 758.77 111.39 809.79 700.78 629.50 499.00 282.99 217.72 437.78 915.54 614.69 804.94 84.48 1069.60 318.47 852.82 317.86 934.82 762.48 141.10 238.07 349.64 201.87 923.61 840.91 900.64 221.39 899.16 245.80 858.04 455.43 443.14 1219.51 550.39 358.30 937.70 846.76 617.14 909.78 764.99 407.62 0.00 213.27 521.35 780.54 432.38 95.85 953.93 421.54 311.72 429.00 154.90 962.28 302.29 137.23 811.76 62.72 924.08 196.36 568.08 377.95 531.35 188.07 161.56 271.90 445.47 838.91 137.46 102.13 451.74 55.08 249.89 496.97 449.08 50.12 209.41 567.96 328.06 1037.06 148.91 887.67 641.54 472.12 902.58 1037.14 808.44 125.23 211.94 827.60 170.68 55.23 947.73 436.79 428.27 188.41 499.12 557.27 211.88 391.61 1014.51 960.98 721.49
447.60 912.17 370.31 237.40 252.14 1170.03 486.55 370.80 581.49 519.96 847.88 144.86 264.60 837.77 574.55 260.03 712.28 558.70 487.71 600.18 257.33 199.07 569.08 965.45 472.61 936.24 251.31 1103.28 148.21 925.87 469.75 988.85 812.39 241.30 383.48 261.26 352.12 1058.98 890.82 803.13 408.54 948.46 346.68 673.82 358.28 374.27 1125.37 711.71 230.12 979.87 764.76 491.90 1036.67 667.48 545.37 213.27 0.00 423.84 896.81 298.49 167.28 1041.55 262.71 173.03 561.86 316.54 821.99 139.41 207.99 938.91 240.31 961.61 358.69 389.87 303.00 619.21 123.34 101.57 399.47 278.87 891.23 268.76 118.99 307.75 236.74 65.67 360.80 610.40 163.15 333.58 442.72 467.92 896.77 289.64 886.48 769.11 618.66 996.36 1134.28 858.35 233.18 114.79 936.60 140.73 268.50 878.86 339.64 331.12 143.12 380.76 717.59 83.41 294.10 818.69 1009.47 720.48
386.94 845.30 139.62 661.24 594.44 891.54 94.92 254.10 264.54 699.28 601.56 507.83 601.27 1017.09 332.88 602.33 429.17 290.19 115.07 680.09 482.90 590.69 590.66 878.24 204.10 771.31 581.42 881.91 312.99 835.40 709.15 813.86 748.96 662.45 726.35 538.32 693.00 809.71 827.39 498.31 562.41 557.17 560.00 422.80 244.41 303.72 701.53 913.12 267.79 696.76 480.25 119.71 831.77 431.15 583.20 521.35 423.84 0.00 1039.72 256.41 562.90 787.62 246.18 501.33 837.74 615.95 445.41 351.22 492.78 805.99 553.85 591.49 695.57 246.73 229.28 756.12 529.35 514.94 646.05 229.94 629.50 611.23 542.83 288.89 576.43 358.17 111.53 811.81 557.11 605.69 89.38 681.24 520.19 652.00 678.26 965.05 831.98 896.81 855.91 759.70 573.42 407.29 821.83 540.47 576.58 647.40 225.77 217.25 549.13 109.87 930.91 396.18 129.74 524.75 801.05 647.45
699.08 355.93 945.34 958.58 715.59 721.66 1032.62 785.62 1205.37 376.85 968.54 952.12 703.78 86.81 1235.92 707.70 931.04 1119.09 1050.31 380.12 816.27 998.26 483.16 520.49 1126.35 396.43 746.10 661.97 999.73 332.34 540.64 510.43 425.47 811.43 678.91 1117.19 711.43 593.25 361.34 1049.46 559.15 582.04 654.35 1305.08 832.92 835.24 832.22 334.92 913.04 845.47 753.36 1037.97 510.42 975.84 542.42 780.54 896.81 1039.72 0.00 873.85 874.93 516.28 1001.99 1028.96 453.04 651.19 1216.14 982.22 838.95 419.05 751.20 634.78 694.04 1131.90 839.36 283.60 936.87 863.04 568.30 1029.01 612.21 715.19 848.78 866.47 766.26 962.48 929.28 398.98 804.54 656.35 988.79 541.46 1290.92 847.70 563.45 232.93 470.34 456.78 681.90 379.51 847.68 949.64 403.21 919.48 750.86 799.89 842.64 842.65 939.06 959.70 390.45 925.85 938.90 1135.76 542.60 596.45
258.24 719.94 177.44 535.89 402.16 979.81 306.11 160.47 467.33 576.96 683.96 443.35 399.96 894.77 495.17 407.25 536.50 427.85 338.72 586.46 321.61 497.56 488.63 796.07 358.45 694.78 357.64 864.10 223.93 718.48 507.61 815.70 694.18 456.29 476.47 387.29 452.48 837.44 630.94 653.68 384.57 724.38 419.59 594.44 125.44 135.09 898.25 746.03 151.25 792.89 535.56 336.83 792.15 491.70 456.97 432.38 298.49 256.41 873.85 0.00 456.25 836.30 144.09 377.44 593.46 403.79 589.20 200.19 314.45 724.32 385.21 737.22 505.54 314.11 54.43 590.25 421.83 397.80 437.33 195.05 652.05 395.96 360.52 32.48 416.27 274.56 177.30 644.72 382.26 349.28 310.27 529.45 663.98 516.61 678.21 806.97 661.87 770.52 909.62 655.09 438.03 242.64 708.48 423.96 417.66 639.68 103.45 111.97 441.61 146.54 739.32 280.15 144.65 669.19 820.11 531.12
534.39 935.67 481.66 176.80 177.80 1201.01 616.86 463.49 660.74 645.73 979.17 122.38 181.08 788.12 713.61 185.69 831.71 637.95 612.21 554.29 318.77 176.59 498.28 970.83 551.86 865.44 138.76 1143.50 256.75 927.12 376.91 995.32 817.77 199.38 309.71 253.79 281.05 1019.46 896.20 942.19 317.24 956.09 288.89 786.91 464.36 430.30 1225.05 606.09 316.36 1033.55 839.90 630.96 964.06 786.91 487.58 95.85 167.28 562.90 874.93 456.25 0.00 1008.21 401.77 263.46 462.76 233.67 959.46 263.91 168.20 872.26 158.57 995.02 270.42 473.03 409.08 627.20 100.86 65.71 306.63 416.34 909.85 197.96 131.16 446.81 150.93 204.73 480.63 518.57 105.41 218.58 581.78 398.75 1034.24 144.48 955.68 676.27 531.17 963.08 1132.99 863.73 65.90 220.87 888.10 95.02 151.08 934.89 445.72 437.20 92.56 470.78 630.10 176.10 433.16 985.97 983.51 698.34
618.22 207.47 849.28 1164.41 897.15 318.71 882.54 696.23 1052.16 521.59 659.11 1084.94 906.18 581.42 1074.53 889.26 669.64 1033.30 902.69 602.10 820.04 1137.64 598.67 104.41 991.72 231.51 869.45 165.48 952.74 231.06 829.03 63.67 229.16 1005.29 906.35 1100.21 947.82 202.59 246.30 733.56 799.80 230.45 841.64 1139.36 743.53 703.20 359.65 712.79 924.84 536.34 491.96 907.33 44.15 685.33 642.95 953.93 1041.55 787.62 516.28 836.30 1008.21 0.00 912.60 1090.36 765.60 936.77 1007.92 913.11 982.66 184.60 897.02 283.19 989.09 1034.35 826.96 524.44 1069.69 1027.24 858.97 961.09 302.78 858.90 999.99 805.81 940.89 999.63 839.89 772.85 941.52 911.95 877.00 849.66 1001.91 1059.94 336.28 749.21 758.27 131.56 211.00 183.20 1053.51 965.25 168.76 1052.30 929.47 490.46 753.25 748.92 1071.88 870.31 851.34 983.62 860.89 872.67 109.44 398.43
331.31 864.03 126.53 500.11 444.53 1048.33 223.84 216.37 379.76 671.73 670.22 407.57 448.61 989.54 351.08 436.64 493.47 316.45 270.32 642.36 358.70 461.78 552.93 907.31 270.88 838.87 457.57 995.00 192.44 862.57 622.61 947.40 793.12 504.01 576.44 399.98 548.58 866.78 775.03 625.47 458.47 745.36 473.46 450.35 233.90 265.99 947.71 832.47 144.44 761.06 570.88 229.19 936.24 489.82 601.06 421.54 262.71 246.18 1001.99 144.09 401.77 912.60 0.00 379.26 737.55 485.94 574.33 212.88 284.31 856.02 430.00 798.10 581.05 241.08 198.52 718.39 386.05 364.28 559.51 50.96 757.58 408.07 381.70 176.57 386.13 197.04 168.60 737.18 371.42 493.37 180.01 594.70 649.11 490.87 708.82 929.15 745.44 904.34 980.31 766.33 412.29 246.16 840.18 383.41 420.93 678.62 198.22 206.74 402.99 137.84 844.37 235.05 116.44 658.65 893.18 604.19
564.15 1050.98 429.72 285.32 360.75 1286.58 534.40 431.60 650.16 692.99 956.25 212.20 373.21 994.56 648.73 368.64 817.59 539.15 525.55 753.26 360.52 183.45 716.82 1077.35 541.28 1031.93 396.20 1210.23 216.88 1028.22 540.73 1026.69 951.40 414.33 492.66 88.23 473.18 1141.88 1008.38 911.50 533.11 1037.70 502.59 741.23 429.88 481.22 1186.51 783.70 264.42 1085.18 873.40 539.75 1081.96 772.79 605.88 311.72 173.03 501.33 1028.96 377.44 263.46 1090.36 379.26 0.00 669.17 377.77 882.29 177.25 317.74 973.19 374.44 1026.79 507.59 467.07 419.55 792.24 190.68 249.16 520.33 339.17 986.48 416.50 292.02 409.92 366.80 182.22 448.74 682.39 305.97 432.28 490.57 566.65 927.44 341.16 949.34 887.87 694.99 1032.33 1250.83 997.36 302.33 231.34 957.35 190.48 366.95 959.38 456.19 447.67 170.90 418.60 793.92 144.21 402.47 899.76 1068.94 779.95
578.04 687.69 770.90 597.43 309.72 924.11 875.56 651.87 1049.71 393.86 1058.28 570.52 322.18 366.23 1067.23 317.61 1003.66 1021.31 916.56 316.10 531.02 623.22 403.91 785.34 940.83 676.08 354.24 930.35 647.23 699.78 175.25 764.74 686.29 447.99 265.42 716.55 274.96 861.63 612.24 1137.24 366.65 810.43 292.54 1159.77 668.76 602.25 988.94 174.07 711.57 1022.38 841.14 896.24 721.45 958.86 321.23 429.00 561.86 837.74 453.04 593.46 462.76 765.60 737.55 669.17 0.00 298.69 1182.66 634.12 469.94 705.62 369.60 863.17 357.13 849.78 647.89 294.61 555.27 522.63 212.08 777.30 785.30 367.68 457.18 587.50 384.66 592.89 770.76 92.62 398.71 244.18 855.48 171.30 1257.44 472.51 831.83 235.61 70.14 687.49 955.68 647.89 495.18 543.77 689.78 537.88 373.77 912.93 664.78 673.30 555.32 740.00 169.07 560.47 732.59 1208.38 829.17 613.46
552.67 771.60 546.13 307.39 64.40 1126.57 676.19 496.13 781.82 459.11 1032.91 300.93 52.59 616.79 837.02 56.51 887.07 759.03 686.82 375.49 253.44 353.63 378.19 871.50 672.94 745.35 94.91 1023.41 348.54 795.19 162.96 875.23 726.29 185.54 181.70 466.00 152.56 945.02 789.64 1033.15 201.45 839.57 124.82 933.68 479.56 485.66 1177.87 405.93 418.94 1055.01 801.28 681.54 892.62 842.27 305.76 154.90 316.54 615.95 651.19 403.79 233.67 936.77 485.94 377.77 298.69 0.00 992.99 369.70 201.63 752.17 100.01 866.53 170.79 639.18 458.22 472.01 285.68 271.82 142.56 520.91 781.36 77.87 211.86 436.27 115.07 347.57 547.31 304.62 153.39 54.51 632.36 188.88 1067.77 196.51 772.99 510.10 317.22 842.99 1015.07 772.25 196.49 298.45 768.01 268.29 99.67 969.04 446.89 452.40 287.87 550.33 416.15 315.15 524.12 962.21 901.39 678.71
690.63 995.74 548.38 1059.39 969.63 1104.44 350.49 630.38 459.74 1036.72 565.04 953.24 982.09 1302.95 391.40 977.38 472.75 508.23 476.96 1056.37 858.09 1021.06 937.91 977.61 479.84 970.58 946.84 986.62 744.67 976.47 1096.81 1022.10 882.59 1045.49 1065.67 892.14 1041.68 983.38 906.74 407.14 937.60 777.47 967.61 358.56 619.60 680.00 905.03 1290.94 659.60 740.34 559.02 381.21 1032.54 463.71 1028.61 962.28 821.99 445.41 1216.14 589.20 959.46 1007.92 574.33 882.29 1182.66 992.99 0.00 705.04 825.05 930.72 970.74 790.31 1094.74 570.89 640.24 1105.55 945.33 910.25 1026.53 543.12 705.14 932.77 938.02 621.68 926.87 771.37 486.72 1189.63 912.16 938.48 394.32 1088.85 74.78 1065.20 753.90 1340.24 1207.31 974.64 941.10 836.63 986.62 776.65 914.88 957.74 961.67 731.86 600.96 592.44 950.20 517.48 1306.24 791.25 575.15 268.03 987.37 947.65
432.77 910.71 256.01 372.13 324.40 1146.18 399.82 299.93 472.91 626.90 782.54 280.69 336.86 895.41 487.49 332.29 646.94 450.12 348.30 685.09 218.58 338.48 573.89 922.13 364.03 854.68 350.97 1048.15 39.63 887.12 494.47 849.44 798.98 380.71 456.31 187.10 436.83 964.63 831.13 737.79 475.70 860.45 402.55 563.98 252.63 319.14 1009.26 647.30 90.71 914.53 709.91 430.54 909.15 602.14 541.85 302.29 139.41 351.22 982.22 200.19 263.91 913.11 212.88 177.25 634.12 369.70 705.04 0.00 213.40 909.17 359.09 913.19 402.41 366.51 254.62 726.15 262.75 234.98 488.60 161.92 836.10 337.16 258.40 232.67 315.22 86.52 272.11 636.13 252.17 422.60 392.89 522.38 779.82 380.35 817.67 841.61 648.73 933.63 1078.16 839.14 301.77 90.35 893.33 271.67 343.52 782.13 288.31 279.79 282.53 241.35 747.66 110.40 228.76 722.51 891.69 602.70
366.19 835.93 403.84 310.00 160.22 1088.62 474.56 390.01 647.31 478.69 846.43 218.82 164.30 756.69 635.39 152.33 761.50 600.76 554.63 535.99 223.69 273.03 424.08 922.79 555.19 791.24 173.26 1069.30 249.98 855.33 338.30 921.12 771.12 222.10 292.13 400.50 264.27 1006.58 849.55 872.07 279.80 879.26 189.15 734.66 368.70 360.09 1141.29 554.18 241.63 1018.47 709.53 479.91 938.51 716.70 387.84 137.23 207.99 492.78 838.95 314.45 168.20 982.66 284.31 317.74 469.94 201.63 825.05 213.40 0.00 798.06 145.69 833.61 296.74 504.09 263.50 577.94 197.30 171.27 275.20 335.27 806.93 123.76 145.43 314.51 101.82 179.89 441.41 452.87 87.11 247.26 430.73 310.39 899.83 240.19 855.69 644.84 461.13 888.88 1052.87 801.21 199.10 229.01 813.90 214.69 136.62 864.68 350.06 341.54 208.22 410.65 560.06 217.90 363.04 909.37 928.06 639.07
529.11 80.12 763.72 1007.72 758.71 424.47 795.34 639.65 992.49 418.95 613.24 938.08 750.49 505.86 1004.36 750.82 645.62 955.33 904.34 507.53 717.40 1020.94 468.07 124.73 944.73 144.97 764.45 271.24 900.55 86.71 701.08 123.06 126.52 884.86 770.90 975.60 800.10 283.33 93.38 764.04 615.20 296.62 657.04 1101.23 656.54 590.03 438.84 559.87 868.26 560.05 467.94 826.06 140.45 690.42 458.35 811.76 938.91 805.99 419.05 724.32 872.26 184.60 856.02 973.19 705.62 752.17 930.72 909.17 798.06 0.00 792.02 287.59 819.42 946.09 757.87 411.01 959.23 889.52 674.37 886.20 324.60 674.30 824.07 691.84 812.97 881.69 763.58 619.93 784.83 727.35 839.17 722.31 1005.50 921.50 278.03 651.98 674.15 90.82 316.76 94.09 896.82 832.57 15.84 941.84 806.98 444.59 692.22 683.70 961.42 732.82 737.91 919.70 799.86 850.34 149.22 322.80
511.88 822.53 493.37 291.85 59.88 1042.44 620.25 451.53 739.10 559.12 977.89 266.04 47.42 690.67 781.08 57.51 833.34 716.31 586.81 475.50 220.27 280.44 418.04 916.75 630.22 785.20 27.57 1006.88 370.88 798.94 262.97 883.10 766.14 156.94 175.35 412.36 139.15 860.89 844.57 933.14 240.79 848.52 224.83 853.05 481.78 431.93 1172.70 494.90 387.32 1000.42 798.99 625.60 852.87 788.54 405.77 62.72 240.31 553.85 751.20 385.21 158.57 897.02 430.00 374.44 369.60 100.01 970.74 359.09 145.69 792.02 0.00 861.36 175.65 539.17 409.19 543.17 250.79 186.77 209.18 480.96 776.19 117.72 121.32 417.69 43.87 288.34 529.47 404.63 112.84 154.52 576.42 265.34 1045.52 211.63 824.95 578.82 416.08 882.84 974.42 812.10 180.95 274.66 807.86 233.40 71.07 936.52 447.89 456.41 251.13 524.27 515.01 274.60 424.11 1038.06 941.24 664.58
514.01 365.38 671.57 1114.11 826.40 382.03 686.41 646.85 856.03 530.09 441.50 1041.46 813.94 721.59 896.82 830.86 466.83 881.68 706.56 640.94 764.45 1106.64 674.79 299.09 795.59 400.88 856.26 337.45 904.48 342.62 779.91 292.69 269.35 962.93 914.85 1100.29 913.91 275.69 344.08 555.85 793.46 52.74 805.92 955.72 668.64 602.13 311.34 789.30 836.87 360.71 314.25 711.20 309.31 467.72 607.23 924.08 961.61 591.49 634.78 737.22 995.02 283.19 798.10 1026.79 863.17 866.53 790.31 913.19 833.61 287.59 861.36 0.00 968.30 838.22 769.97 608.55 1030.91 1004.88 823.25 821.43 85.17 814.44 964.21 704.74 876.42 895.94 703.02 770.55 915.39 876.23 680.87 807.82 856.65 989.19 133.93 867.71 851.87 346.73 345.08 255.27 1008.88 912.13 271.75 1029.64 877.06 272.85 703.87 695.80 1041.83 701.36 935.45 927.44 721.23 671.55 296.62 310.49
650.88 858.23 635.15 301.27 153.42 1210.55 771.30 522.97 840.03 483.07 1046.81 333.86 162.45 626.54 889.90 145.53 935.55 817.24 750.71 521.19 381.82 352.31 522.37 928.56 731.15 839.67 195.14 1090.66 428.08 863.37 215.33 927.55 775.50 117.39 98.31 524.21 117.88 1034.04 775.83 1097.00 262.99 942.50 226.57 966.39 545.92 534.14 1249.34 458.30 493.12 1097.49 803.77 776.65 944.94 890.75 361.07 196.36 358.69 695.57 694.04 505.54 270.42 989.09 581.05 507.59 357.13 170.79 1094.74 402.41 296.74 819.42 175.65 968.30 0.00 714.82 542.17 569.41 316.91 336.13 145.05 564.33 891.22 222.05 272.81 538.02 203.43 414.11 636.33 356.99 214.34 156.26 727.47 237.17 1169.52 176.35 925.37 514.69 369.59 895.31 1136.18 821.46 225.59 376.16 820.33 334.30 160.12 976.61 535.91 544.43 336.69 643.76 468.52 376.10 587.97 1124.92 959.72 702.67
490.50 966.81 244.17 627.27 599.05 1117.19 224.92 357.66 199.93 774.15 746.78 524.44 586.59 1091.96 268.27 596.68 603.26 177.14 151.27 783.65 548.30 578.11 694.22 1060.41 91.05 963.75 566.74 1088.20 406.14 943.22 707.98 1037.47 944.96 631.17 714.52 553.61 657.87 942.21 945.05 628.31 653.84 803.90 663.40 313.88 336.32 402.83 917.78 950.95 330.17 777.12 659.62 247.02 1054.86 558.46 750.30 568.08 389.87 246.73 1131.90 314.11 473.03 1034.35 241.08 467.07 849.78 639.18 570.89 366.51 504.09 946.09 539.17 838.22 714.82 0.00 292.54 859.68 505.36 407.32 637.70 204.59 834.14 622.54 472.77 346.59 568.67 324.20 244.03 849.64 517.96 663.39 268.75 729.82 645.67 617.51 785.38 1007.34 862.24 1005.23 1055.74 922.83 538.93 373.32 930.25 492.77 585.89 754.05 300.64 309.16 485.58 213.27 961.17 356.20 193.00 659.73 1037.67 748.68
267.91 772.00 140.34 523.45 408.64 925.38 289.75 135.07 425.88 560.07 653.32 402.17 419.49 877.88 494.22 415.83 517.72 390.75 301.62 561.06 343.69 454.87 471.63 828.82 321.35 746.84 412.07 896.85 277.18 770.54 562.04 849.25 733.80 462.82 530.90 420.96 506.91 817.20 683.00 608.57 379.22 757.13 452.65 593.49 105.20 167.84 930.81 753.22 173.07 758.96 511.68 320.47 846.58 472.92 509.03 377.95 303.00 229.28 839.36 54.43 409.08 826.96 198.52 419.55 647.89 458.22 640.24 254.62 263.50 757.87 409.19 769.97 542.17 292.54 0.00 637.09 386.92 343.37 491.76 199.74 684.80 387.26 386.30 84.54 365.32 237.33 177.91 677.47 327.83 403.71 276.34 573.89 715.02 480.91 652.81 825.84 716.30 817.01 930.73 687.84 439.82 188.21 742.03 369.53 400.12 672.43 86.56 78.04 389.11 147.15 791.38 275.34 99.54 722.44 829.78 540.79
445.34 406.63 667.74 767.48 490.87 748.57 781.91 502.02 957.63 99.25 888.02 721.41 503.33 329.71 1025.97 498.76 724.21 918.15 766.71 96.52 567.08 749.07 199.56 490.73 848.75 381.47 535.39 635.74 761.04 405.17 354.08 477.07 391.68 629.14 484.01 844.06 543.95 567.02 317.63 842.63 309.96 555.81 445.05 1021.48 549.32 551.64 824.18 223.05 635.44 727.77 546.53 777.67 480.29 769.01 258.82 531.35 619.21 756.12 283.60 590.25 627.20 524.44 718.39 792.24 294.61 472.01 1105.55 726.15 577.94 411.01 543.17 608.55 569.41 859.68 637.09 0.00 719.42 669.32 424.36 745.41 585.98 466.00 603.87 622.73 499.30 684.88 645.68 276.18 545.40 485.56 743.15 381.99 1117.69 653.66 537.22 427.73 263.14 392.88 680.55 353.28 656.58 666.52 395.17 702.03 554.92 719.37 559.04 559.05 714.87 676.10 326.90 702.62 666.68 928.93 534.56 318.85
563.49 1015.03 484.79 154.96 245.55 1243.53 609.89 472.07 661.91 635.40 971.22 21.52 233.09 871.78 697.89 250.01 835.62 649.24 581.41 646.41 345.79 75.73 585.25 1062.62 563.15 952.41 239.62 1090.30 254.31 991.44 447.67 1075.60 909.89 245.13 377.46 278.91 333.06 1111.68 988.32 926.47 409.46 1034.19 376.46 796.74 442.20 497.61 1230.88 686.74 319.49 1095.96 848.68 615.24 1025.54 790.82 575.15 188.07 123.34 529.35 936.87 421.83 100.86 1069.69 386.05 190.68 555.27 285.68 945.33 262.75 197.30 959.23 250.79 1030.91 316.91 505.36 386.92 719.42 0.00 98.04 390.29 402.21 961.86 284.93 163.49 431.09 243.15 189.01 484.14 589.33 197.53 319.44 566.06 451.01 1020.11 175.34 989.81 759.93 551.32 1050.05 1135.82 955.85 111.65 198.71 975.07 17.39 219.35 1002.20 423.56 415.04 19.78 503.11 650.25 206.75 417.44 942.03 1015.84 799.20
536.85 945.19 415.95 234.95 212.91 1229.21 559.76 423.66 607.25 621.53 942.48 117.12 219.23 827.42 675.59 220.80 805.23 584.46 558.59 572.80 253.06 170.79 515.54 969.89 498.37 882.70 176.91 1132.83 231.29 921.60 416.21 1012.58 836.28 258.91 326.11 288.91 250.55 1047.66 914.71 897.73 369.31 976.92 354.60 721.20 398.65 403.82 1198.57 644.24 250.65 1052.41 805.13 567.05 1002.21 760.43 553.29 161.56 101.57 514.94 863.04 397.80 65.71 1027.24 364.28 249.16 522.63 271.82 910.25 234.98 171.27 889.52 186.77 1004.88 336.13 407.32 343.37 669.32 98.04 0.00 345.93 376.23 920.78 215.22 65.45 409.32 197.51 167.24 435.83 546.51 123.92 284.29 544.29 404.03 985.03 210.19 941.40 715.57 554.77 980.34 1134.99 882.24 131.61 155.16 905.36 85.45 178.57 908.41 380.01 371.49 78.26 405.07 653.70 171.70 388.70 920.26 917.80 764.05
505.83 732.83 567.08 446.32 188.51 1065.50 703.17 542.80 837.63 377.72 986.07 411.81 195.15 481.49 872.78 196.40 836.40 814.84 728.36 376.14 374.89 466.02 430.24 799.10 728.75 707.63 233.03 945.61 491.10 756.42 70.28 797.43 670.15 262.44 110.61 560.42 143.13 900.35 741.99 954.82 221.14 797.45 86.05 951.58 562.77 572.42 1106.66 313.25 516.83 952.44 658.72 733.89 814.82 817.55 216.02 271.90 399.47 646.05 568.30 437.33 306.63 858.97 559.51 520.33 212.08 142.56 1026.53 488.60 275.20 674.37 209.18 823.25 145.05 637.70 491.76 424.36 390.29 345.93 0.00 610.47 817.39 211.55 280.48 469.81 253.05 442.86 566.94 211.94 258.48 88.05 699.35 92.12 1101.31 321.40 823.54 369.64 224.54 765.19 991.13 686.61 336.40 420.30 690.21 401.65 241.84 831.56 540.78 538.51 399.19 536.18 323.47 420.24 566.57 1041.12 817.04 597.32
382.27 903.08 176.81 516.27 467.58 1063.87 271.84 264.86 328.80 661.77 653.98 423.73 468.32 979.58 325.57 475.47 518.38 306.01 219.36 690.85 351.07 477.94 545.85 958.27 219.92 870.95 494.15 1028.31 201.55 913.53 656.39 972.16 844.08 520.17 599.49 349.02 568.29 882.32 825.99 609.23 509.43 787.11 524.42 424.84 243.52 310.03 931.47 809.22 125.58 785.97 547.99 272.62 987.20 473.58 586.28 445.47 278.87 229.94 1029.01 195.05 416.34 961.09 50.96 339.17 777.30 520.91 543.12 161.92 335.27 886.20 480.96 821.43 564.33 204.59 199.74 745.41 402.21 376.23 610.47 0.00 741.34 459.03 397.86 227.53 437.09 239.89 184.14 788.14 395.35 544.33 230.97 645.66 617.90 533.72 692.58 964.16 796.40 945.34 995.85 817.29 455.14 233.53 870.36 414.85 453.66 694.16 207.84 216.36 407.08 153.38 895.33 272.32 100.20 706.65 944.14 655.15
578.98 370.06 691.16 1028.94 741.23 406.70 662.95 566.50 860.10 495.06 356.33 977.11 728.77 699.02 916.41 745.69 427.35 858.55 744.57 605.91 679.28 1029.81 592.71 338.16 772.46 344.90 771.09 397.07 827.48 368.60 799.50 329.02 202.63 877.76 873.14 1023.20 828.74 296.09 281.06 575.44 832.35 72.33 854.97 870.55 583.47 516.96 396.51 747.55 779.19 275.54 292.43 693.67 346.93 382.55 656.28 838.91 891.23 629.50 612.21 652.05 909.85 302.78 757.58 986.48 785.30 781.36 705.14 836.10 806.93 324.60 776.19 85.17 891.22 834.14 684.80 585.98 961.86 920.78 817.39 741.34 0.00 756.09 888.69 619.57 791.25 825.56 666.21 692.68 830.22 817.87 683.30 813.39 771.48 904.02 48.76 845.14 774.00 370.71 371.07 232.70 931.60 826.96 310.95 944.47 791.89 187.68 619.15 610.63 964.05 696.97 870.26 842.27 641.14 632.07 282.23 306.10
474.80 741.47 527.60 333.42 84.41 1089.67 598.32 497.78 731.52 447.77 955.04 263.78 76.19 693.04 759.15 76.52 867.50 708.73 678.39 453.36 296.97 346.64 300.32 799.03 622.64 667.48 90.15 945.54 298.24 731.57 240.83 797.36 648.42 210.56 216.32 451.75 157.95 908.12 726.85 995.83 156.04 761.70 181.16 858.42 456.44 466.09 1113.14 483.80 365.39 1013.61 747.01 603.67 814.75 822.70 342.27 137.46 268.76 611.23 715.19 395.96 197.96 858.90 408.07 416.50 367.68 77.87 932.77 337.16 123.76 674.30 117.72 814.44 222.05 622.54 387.26 466.00 284.93 215.22 211.55 459.03 756.09 0.00 149.77 363.48 138.67 303.65 555.00 382.49 110.53 123.50 554.49 266.75 1007.55 247.20 804.85 581.19 375.13 765.12 946.73 694.38 222.52 272.35 690.14 267.54 132.68 919.85 440.76 449.28 287.12 534.41 474.06 272.29 486.80 1033.13 823.52 664.62
471.40 891.24 481.40 258.83 147.46 1163.76 587.53 483.11 672.70 597.54 951.64 182.57 159.92 761.97 693.54 155.35 831.27 649.91 605.31 507.35 318.51 202.55 450.09 923.89 563.82 817.25 132.32 1095.31 267.20 881.34 350.76 947.13 770.83 193.46 279.37 305.67 259.89 982.21 849.26 922.12 303.86 911.47 299.21 786.65 463.19 469.27 1151.96 593.73 316.10 989.83 852.59 610.89 957.62 786.47 490.09 102.13 118.99 542.83 848.78 360.52 131.16 999.99 381.70 292.02 457.18 211.86 938.02 258.40 145.43 824.07 121.32 964.21 272.81 472.77 386.30 603.87 163.49 65.45 280.48 397.86 888.69 149.77 0.00 370.23 132.06 184.66 479.79 492.42 58.47 228.90 561.71 372.60 1012.80 211.55 937.45 650.12 505.02 914.89 1095.74 816.79 147.93 220.29 839.91 150.90 157.36 861.80 445.14 436.62 143.71 470.52 603.95 195.72 413.09 937.68 973.29 744.28
265.68 687.46 193.64 545.15 434.64 984.85 288.06 134.30 483.53 550.79 651.48 452.61 432.44 868.60 527.65 439.73 504.02 439.71 354.92 560.29 289.13 506.82 456.15 763.59 374.65 662.30 390.12 831.62 256.41 686.00 538.70 783.22 668.57 488.77 508.95 419.77 484.96 804.96 598.46 680.32 352.09 691.90 452.07 605.74 92.96 102.61 897.36 713.55 183.73 766.72 509.39 318.78 800.61 459.22 424.49 451.74 307.75 288.89 866.47 32.48 446.81 805.81 176.57 409.92 587.50 436.27 621.68 232.67 314.51 691.84 417.69 704.74 538.02 346.59 84.54 622.73 431.09 409.32 469.81 227.53 619.57 363.48 370.23 0.00 416.33 242.08 191.52 612.24 401.62 381.76 284.10 561.93 696.46 535.91 652.04 813.60 657.64 738.04 877.14 622.61 457.33 272.75 676.00 422.48 450.14 607.20 77.28 85.80 442.06 179.02 706.84 280.09 177.13 701.67 815.39 538.56
468.01 838.74 505.66 291.21 74.94 1086.31 576.38 437.68 747.04 561.99 936.93 249.60 62.48 731.86 737.21 73.72 789.47 702.58 630.68 490.56 264.14 272.80 414.54 937.70 638.16 781.70 71.44 1050.75 327.01 815.15 278.03 899.31 785.95 132.00 206.85 404.72 162.45 904.76 816.93 955.72 225.61 863.58 239.89 836.48 454.57 388.06 1182.81 521.00 343.45 992.78 797.66 581.73 896.74 744.67 384.21 55.08 236.74 576.43 766.26 416.27 150.93 940.89 386.13 366.80 384.66 115.07 926.87 315.22 101.82 812.97 43.87 876.42 203.43 568.67 365.32 499.30 243.15 197.51 253.05 437.09 791.25 138.67 132.06 416.33 0.00 244.47 539.88 419.69 73.59 169.58 532.55 280.40 1001.65 203.99 840.01 620.27 431.14 892.18 1018.29 831.91 180.31 235.41 828.81 225.76 76.60 892.65 451.88 443.36 239.16 512.47 530.07 235.35 446.69 994.19 962.19 708.45
381.93 916.23 304.64 303.07 283.17 1104.36 420.88 322.48 515.82 585.63 782.21 210.53 295.63 903.44 508.88 291.06 646.61 493.03 434.82 648.65 224.10 264.74 603.97 940.93 406.94 872.22 298.57 1037.61 82.54 892.64 510.53 935.96 814.98 306.97 415.08 270.45 395.60 1004.61 840.54 737.46 445.16 882.79 369.04 608.15 292.61 308.60 1059.70 713.34 164.86 914.20 699.09 426.23 995.67 601.81 530.43 249.89 65.67 358.17 962.48 274.56 204.73 999.63 197.04 182.22 592.89 347.57 771.37 86.52 179.89 881.69 288.34 895.94 414.11 324.20 237.33 684.88 189.01 167.24 442.86 239.89 825.56 303.65 184.66 242.08 244.47 0.00 333.79 632.76 199.77 354.81 377.05 490.28 846.15 293.83 820.81 812.50 641.02 954.96 1068.61 816.95 215.25 49.12 882.79 206.40 305.12 813.19 273.97 265.45 208.79 327.87 739.95 38.01 228.43 809.03 943.80 654.81
276.50 809.48 61.66 598.20 482.91 879.73 136.23 143.66 332.47 587.75 601.18 471.23 495.37 905.56 400.81 490.80 393.54 302.18 222.94 569.65 371.37 554.09 480.22 852.50 242.67 833.45 527.43 844.17 311.74 818.61 630.04 854.96 745.66 601.28 614.82 459.21 595.34 698.18 789.98 488.80 450.88 668.70 480.89 500.08 132.88 193.28 813.06 804.22 226.96 661.13 539.36 166.95 856.62 408.92 563.90 496.97 360.80 111.53 929.28 177.30 480.63 839.89 168.60 448.74 770.76 547.31 486.72 272.11 441.41 763.58 529.47 703.02 636.33 244.03 177.91 645.68 484.14 435.83 566.94 184.14 666.21 555.00 479.79 191.52 539.88 333.79 0.00 702.91 466.29 526.58 175.81 602.13 561.50 611.04 661.40 853.52 752.87 822.72 811.71 711.52 532.46 322.05 747.74 501.53 543.59 571.54 114.24 105.72 493.74 30.76 851.80 304.53 105.36 571.04 836.44 549.38
573.33 595.07 722.08 612.01 369.02 1015.04 839.14 559.25 1011.97 315.48 1039.02 605.55 357.21 312.17 1004.01 361.13 911.04 972.49 823.94 246.45 558.06 658.25 415.09 744.66 903.09 631.64 399.53 891.17 653.16 618.66 141.66 711.31 607.91 474.38 295.32 770.62 355.07 843.20 567.80 1118.81 309.51 717.81 263.72 1095.38 576.14 509.63 896.32 101.31 689.31 944.00 822.71 834.90 728.70 866.24 228.61 449.08 610.40 811.81 398.98 644.72 518.57 772.85 737.18 682.39 92.62 304.62 1189.63 636.13 452.87 619.93 404.63 770.55 356.99 849.64 677.47 276.18 589.33 546.51 211.94 788.14 692.68 382.49 492.42 612.24 419.69 632.76 702.91 0.00 458.01 299.99 801.60 142.48 1255.17 501.13 741.44 305.99 81.32 669.06 886.03 629.46 501.11 603.07 604.09 572.91 404.29 880.36 611.82 603.30 592.49 713.85 177.58 619.77 719.46 1115.76 743.48 535.08
453.30 852.00 468.17 222.89 88.99 1153.61 561.67 435.18 673.45 558.30 933.54 176.01 101.45 739.97 708.65 96.88 834.90 650.66 600.47 448.88 310.80 258.87 410.85 865.42 564.57 778.01 98.80 1040.78 268.35 838.31 316.35 893.09 712.36 134.99 220.90 359.20 201.42 972.06 790.79 936.40 245.39 872.23 240.74 807.92 405.31 447.20 1210.43 559.32 328.74 931.36 796.64 567.02 924.10 790.10 431.62 50.12 163.15 557.11 804.54 382.26 105.41 941.52 371.42 305.97 398.71 153.39 912.16 252.17 87.11 784.83 112.84 915.39 214.34 517.96 327.83 545.40 197.53 123.92 258.48 395.35 830.22 110.53 58.47 401.62 73.59 199.77 466.29 458.01 0.00 170.43 517.84 319.37 986.94 153.08 878.98 628.12 468.85 875.65 1057.26 758.32 111.99 161.82 800.67 200.43 105.35 920.27 386.67 378.15 192.56 474.98 567.78 161.76 427.37 974.68 934.05 726.18
575.48 717.09 526.72 361.90 100.46 1118.48 655.13 507.49 814.75 464.27 1033.24 340.96 107.10 569.54 844.45 108.35 885.78 777.13 688.00 430.00 286.84 395.17 387.80 816.99 707.73 754.96 144.98 998.59 403.05 740.68 158.33 850.41 756.70 234.53 127.19 472.37 103.20 949.27 796.48 997.44 175.60 885.20 70.31 943.72 474.72 484.37 1166.19 401.30 473.45 1040.49 746.77 660.48 867.80 840.98 269.00 209.41 333.58 605.69 656.35 349.28 218.58 911.95 493.37 432.28 244.18 54.51 938.48 422.60 247.26 727.35 154.52 876.23 156.26 663.39 403.71 485.56 319.44 284.29 88.05 544.33 817.87 123.50 228.90 381.76 169.58 354.81 526.58 299.99 170.43 0.00 611.30 180.17 1013.26 251.02 769.11 457.69 312.59 817.94 1034.21 774.66 251.00 332.25 743.19 313.60 154.18 919.61 452.73 450.46 311.14 495.82 411.52 332.19 488.41 1016.72 876.57 643.57
375.58 902.06 179.73 680.12 590.95 975.92 43.83 255.33 216.58 680.33 512.18 587.58 595.03 998.14 284.92 583.06 405.42 280.41 127.08 681.32 463.95 641.79 543.59 879.32 216.11 860.69 603.99 971.29 372.45 884.92 742.35 903.24 791.04 652.83 722.86 578.80 695.00 873.99 855.75 447.22 543.46 646.55 619.88 380.41 225.46 291.97 790.91 902.91 324.45 625.22 390.87 49.18 921.15 360.62 656.48 567.96 442.72 89.38 988.79 310.27 581.78 877.00 180.01 490.57 855.48 632.36 394.32 392.89 430.73 839.17 576.42 680.87 727.47 268.75 276.34 743.15 566.06 544.29 699.35 230.97 683.30 554.49 561.71 284.10 532.55 377.05 175.81 801.60 517.84 611.30 0.00 741.12 469.10 670.88 634.54 946.10 851.25 883.09 945.29 745.08 592.30 414.63 823.33 563.42 567.35 558.02 206.82 198.30 583.00 199.25 947.69 415.06 219.12 478.64 890.43 648.46
597.95 642.19 602.27 496.27 230.38 1069.02 738.36 589.18 892.16 335.35 1003.42 466.26 217.92 454.65 895.93 234.84 928.52 852.68 763.55 333.77 438.70 518.96 436.79 780.84 783.28 716.18 260.24 915.79 537.42 665.78 27.91 808.51 627.78 354.56 152.84 652.54 228.40 887.48 699.62 1046.94 226.80 755.08 121.24 995.20 583.90 628.06 1038.80 243.79 552.02 963.87 750.84 769.08 822.59 909.67 270.64 328.06 467.92 681.24 541.46 529.45 398.75 849.66 594.70 566.65 171.30 188.88 1088.85 522.38 310.39 722.31 265.34 807.82 237.17 729.82 573.89 381.99 451.01 404.03 92.12 645.66 813.39 266.75 372.60 561.93 280.40 490.28 602.13 142.48 319.37 180.17 741.12 0.00 1163.63 385.39 764.63 375.05 150.74 743.04 961.31 673.74 385.37 462.62 735.82 433.62 281.04 923.68 580.48 571.96 453.20 571.37 249.67 481.13 658.69 1133.24 774.67 554.95
765.41 1070.52 623.16 1134.17 1044.41 1107.26 425.27 705.16 534.52 1080.05 581.19 1028.02 1056.87 1377.73 466.18 1052.16 433.73 583.01 551.74 1131.15 880.18 1095.84 1012.69 1028.98 554.62 1045.36 1021.62 1038.53 819.45 1051.25 1171.59 1017.47 957.37 1120.27 1140.45 966.92 1116.46 1058.16 981.52 470.27 1012.38 832.67 1042.39 433.34 694.38 745.54 972.24 1339.26 734.38 690.43 571.16 455.99 957.76 388.93 1073.86 1037.06 896.77 520.19 1290.92 663.98 1034.24 1001.91 649.11 927.44 1257.44 1067.77 74.78 779.82 899.83 1005.50 1045.52 856.65 1169.52 645.67 715.02 1117.69 1020.11 985.03 1101.31 617.90 771.48 1007.55 1012.80 696.46 1001.65 846.15 561.50 1255.17 986.94 1013.26 469.10 1163.63 0.00 1139.98 814.83 1415.02 1282.09 1045.17 993.01 911.41 1061.40 851.43 989.66 1032.52 1036.45 743.22 675.74 667.22 1024.98 592.26 1381.02 866.03 649.93 331.16 1053.71 906.93
606.38 935.70 581.57 124.92 162.79 1240.74 714.71 588.26 783.78 655.62 1076.04 186.85 175.25 802.89 802.71 170.68 940.44 742.89 728.65 572.00 396.03 226.79 547.52 973.40 674.90 914.68 207.31 1133.46 350.50 912.11 359.47 996.27 865.44 122.68 274.66 382.61 275.22 1059.19 943.87 1031.29 343.70 976.35 319.86 901.98 549.06 563.73 1300.53 602.44 416.27 1084.44 915.60 720.06 1032.61 895.64 488.76 148.91 289.64 652.00 847.70 516.61 144.48 1059.94 490.87 341.16 472.51 196.51 1065.20 380.35 240.19 921.50 211.63 989.19 176.35 617.51 480.91 653.66 175.34 210.19 321.40 533.72 904.02 247.20 211.55 535.91 203.99 293.83 611.04 501.13 153.08 251.02 670.88 385.39 1139.98 0.00 952.78 691.04 513.73 1012.32 1087.94 911.40 78.58 314.90 937.34 157.95 180.03 1068.32 539.75 531.23 170.26 612.47 612.66 306.51 522.26 1102.86 1050.59 810.59
530.22 347.37 668.99 1077.70 789.99 428.88 614.19 517.74 811.34 476.94 405.09 1005.06 777.53 650.26 879.68 794.45 421.35 809.79 740.66 587.79 728.04 1057.76 621.64 289.40 723.70 372.17 819.85 355.57 857.30 323.78 784.38 315.25 229.90 926.52 861.70 1004.77 872.31 247.33 308.33 539.77 793.75 121.09 806.21 919.31 565.04 565.72 443.93 736.15 730.43 282.02 243.67 644.91 360.62 431.31 607.52 887.67 886.48 678.26 563.45 678.21 955.68 336.28 708.82 949.34 831.83 772.99 753.90 817.67 855.69 278.03 824.95 133.93 925.37 785.38 652.81 537.22 989.81 941.40 823.54 692.58 48.76 804.85 937.45 652.04 840.01 820.81 661.40 741.44 878.98 769.11 634.54 764.63 814.83 952.78 0.00 796.38 800.36 321.95 360.86 183.94 969.48 791.10 262.19 972.42 840.65 236.44 574.76 574.77 992.00 691.82 864.12 805.13 592.38 626.07 287.48 257.34
770.88 588.86 866.58 815.96 545.33 954.59 989.75 767.94 1156.47 424.79 1142.39 781.45 557.79 294.84 1224.81 553.22 1095.05 1116.99 1027.86 427.68 744.53 835.66 537.90 753.42 1047.59 629.36 589.85 853.77 858.64 565.27 347.14 743.36 658.40 632.08 480.25 930.06 510.57 826.18 594.27 1029.01 546.03 814.97 455.69 1267.74 720.64 787.15 1065.15 204.68 886.47 1053.31 974.26 995.28 743.35 1115.91 534.60 641.54 769.11 965.05 232.93 806.97 676.27 749.21 929.15 887.87 235.61 510.10 1340.24 841.61 644.84 651.98 578.82 867.71 514.69 1007.34 825.84 427.73 759.93 715.57 369.64 964.16 845.14 581.19 650.12 813.60 620.27 812.50 853.52 305.99 628.12 457.69 946.10 375.05 1415.02 691.04 796.38 0.00 239.77 689.71 899.29 612.44 706.04 779.38 636.14 771.29 609.38 1032.82 756.32 747.80 768.83 873.38 157.52 789.88 863.96 1168.12 775.53 644.39
628.31 668.72 753.01 624.61 379.86 994.25 856.82 640.57 1023.42 362.39 1073.13 572.84 368.66 383.53 1046.67 373.73 958.14 1003.42 905.26 264.15 570.66 627.05 333.77 753.87 934.02 644.61 410.98 898.88 665.76 668.31 154.26 694.60 654.82 486.98 303.58 783.22 345.10 830.16 580.77 1076.56 353.15 799.13 271.98 1145.94 625.79 590.95 977.64 135.42 702.76 990.91 780.46 826.10 743.43 947.56 309.93 472.12 618.66 831.98 470.34 661.87 531.17 758.27 745.44 694.99 70.14 317.22 1207.31 648.73 461.13 674.15 416.08 851.87 369.59 862.24 716.30 263.14 551.32 554.77 224.54 796.40 774.00 375.13 505.02 657.64 431.14 641.02 752.87 81.32 468.85 312.59 851.25 150.74 1282.09 513.73 800.36 239.77 0.00 656.02 903.73 616.42 513.71 613.36 658.31 568.71 416.89 953.30 661.47 652.95 571.10 722.11 98.93 630.61 769.11 1162.86 795.60 581.99
573.03 100.85 822.86 1098.54 849.53 373.75 839.26 698.79 1036.41 476.40 672.38 1028.90 841.31 543.59 1048.28 841.64 689.54 1014.47 963.48 489.40 774.85 1066.96 506.98 97.85 1003.87 139.82 855.27 291.41 903.51 124.44 746.96 84.19 183.97 975.68 817.10 1034.74 841.20 245.85 139.58 807.96 702.84 340.54 747.63 1147.55 715.68 649.17 452.22 606.07 921.77 556.86 511.86 869.98 87.41 734.34 549.17 902.58 996.36 896.81 456.78 770.52 963.08 131.56 904.34 1032.33 687.49 842.99 974.64 933.63 888.88 90.82 882.84 346.73 895.31 1005.23 817.01 392.88 1050.05 980.34 765.19 945.34 370.71 765.12 914.89 738.04 892.18 954.96 822.72 669.06 875.65 817.94 883.09 743.04 1045.17 1012.32 321.95 689.71 656.02 0.00 336.93 138.01 987.64 923.39 74.98 1032.66 897.80 503.73 751.36 742.84 1052.24 791.96 719.78 986.18 859.00 894.26 175.04 380.25
686.68 373.15 873.37 1212.86 1009.93 182.34 946.24 819.52 1112.84 665.66 724.03 1157.34 1018.96 768.71 1118.31 1002.04 648.88 1084.44 970.98 639.58 964.11 1211.55 646.41 250.34 1054.38 413.65 1001.99 45.52 1085.05 349.56 933.40 252.74 373.23 1131.36 1050.42 1265.26 1104.68 113.53 397.04 728.36 931.96 298.74 973.80 1122.99 825.53 774.53 265.22 851.35 1038.67 522.31 560.25 915.52 255.15 604.08 775.11 1037.14 1134.28 855.91 681.90 909.62 1132.99 211.00 980.31 1250.83 955.68 1015.07 941.10 1078.16 1052.87 316.76 974.42 345.08 1136.18 1055.74 930.73 680.55 1135.82 1134.99 991.13 995.85 371.07 946.73 1095.74 877.14 1018.29 1068.61 811.71 886.03 1057.26 1034.21 945.29 961.31 993.01 1087.94 360.86 899.29 903.73 336.93 0.00 327.27 1155.37 1069.02 319.50 1135.62 1045.49 555.38 861.21 852.69 1116.04 842.47 1002.66 1106.62 917.07 853.60 217.19 506.18
435.02 163.43 732.45 981.21 778.79 395.29 701.25 567.86 898.40 338.39 589.03 934.33 770.57 466.32 910.27 770.90 551.53 959.09 827.72 449.24 636.84 1017.19 446.14 140.98 907.64 188.23 784.53 282.46 830.52 139.84 645.83 185.47 45.96 853.41 723.15 1026.24 798.71 213.74 124.39 669.95 663.24 202.53 732.35 1009.54 586.51 520.00 474.67 576.33 796.47 465.96 373.85 731.97 202.86 596.33 533.66 808.44 858.35 759.70 379.51 655.09 863.73 183.20 766.33 997.36 647.89 772.25 836.63 839.14 801.21 94.09 812.10 255.27 821.46 922.83 687.84 353.28 955.85 882.24 686.61 817.29 232.70 694.38 816.79 622.61 831.91 816.95 711.52 629.46 758.32 774.66 745.08 673.74 911.41 911.40 183.94 612.44 616.42 138.01 327.27 0.00 870.31 811.82 78.25 958.75 767.54 420.38 622.19 613.67 950.88 730.12 680.18 853.15 729.83 756.25 217.64 242.24
565.29 963.99 518.20 110.90 200.98 1223.39 636.13 515.32 705.20 655.60 997.46 108.27 202.83 813.28 724.13 199.10 861.86 682.41 650.07 560.87 361.00 187.38 522.84 977.41 596.32 890.00 204.66 1152.77 271.92 940.53 359.45 1005.08 824.35 133.48 323.90 306.13 302.80 1041.84 902.78 952.71 346.62 984.22 321.31 823.40 474.72 496.20 1274.95 602.42 359.44 1043.35 870.34 641.48 1029.96 817.06 502.25 125.23 233.18 573.42 847.68 438.03 65.90 1053.51 412.29 302.33 495.18 196.49 986.62 301.77 199.10 896.82 180.95 1008.88 225.59 538.93 439.82 656.58 111.65 131.61 336.40 455.14 931.60 222.52 147.93 457.33 180.31 215.25 532.46 501.11 111.99 251.00 592.30 385.37 1061.40 78.58 969.48 706.04 513.71 987.64 1155.37 870.31 0.00 264.37 912.66 129.04 180.46 1000.79 489.22 480.70 131.43 536.68 612.64 227.93 443.68 1024.28 1046.04 764.24
406.20 867.11 328.55 335.24 234.05 1113.59 458.28 273.36 539.81 634.75 820.54 213.96 246.51 901.79 558.00 241.94 673.08 517.02 438.65 610.70 174.98 266.66 572.67 891.81 430.93 863.10 260.62 1039.01 106.53 843.52 461.41 939.79 765.86 296.81 365.96 232.75 346.48 955.49 799.26 786.58 407.21 899.29 397.76 654.33 243.49 310.00 1099.61 704.38 181.06 897.25 649.97 463.81 963.03 628.28 567.45 211.94 114.79 407.29 949.64 242.64 220.87 965.25 246.16 231.34 543.77 298.45 776.65 90.35 229.01 832.57 274.66 912.13 376.16 373.32 188.21 666.52 198.71 155.16 420.30 233.53 826.96 272.35 220.29 272.75 235.41 49.12 322.05 603.07 161.82 332.25 414.63 462.62 851.43 314.90 791.10 779.38 613.36 923.39 1069.02 811.82 264.37 0.00 848.41 181.32 267.17 814.59 224.85 216.33 200.90 331.70 712.29 87.13 277.55 812.86 968.07 679.08
513.27 93.63 747.88 1023.56 774.55 410.95 779.50 623.81 976.65 416.64 597.40 953.92 766.33 490.02 988.52 766.66 629.78 939.49 888.50 491.69 715.09 1036.78 483.91 140.57 928.89 129.13 780.29 287.08 884.71 70.87 716.92 107.22 124.21 900.70 755.06 959.76 815.94 277.65 77.54 748.20 631.04 280.78 672.88 1087.79 640.70 574.19 429.01 544.03 852.42 544.21 452.10 810.22 124.61 674.58 474.19 827.60 936.60 821.83 403.21 708.48 888.10 168.76 840.18 957.35 689.78 768.01 914.88 893.33 813.90 15.84 807.86 271.75 820.33 930.25 742.03 395.17 975.07 905.36 690.21 870.36 310.95 690.14 839.91 676.00 828.81 882.79 747.74 604.09 800.67 743.19 823.33 735.82 989.66 937.34 262.19 636.14 658.31 74.98 319.50 78.25 912.66 848.41 0.00 957.68 822.82 428.75 676.38 667.86 977.26 716.98 722.07 911.20 784.02 834.50 139.39 320.49
580.88 997.64 501.40 153.92 228.16 1243.33 607.25 454.68 661.71 635.20 981.21 32.64 215.70 883.14 715.28 232.62 853.01 647.41 581.21 643.78 338.51 85.34 567.86 1055.34 561.32 935.02 233.78 1090.10 236.92 974.05 431.25 1058.21 912.79 235.87 360.07 275.43 315.67 1094.29 980.58 943.86 392.07 1016.80 376.26 806.65 424.81 489.27 1242.00 674.22 336.10 1078.57 831.29 612.60 1008.15 808.21 574.05 170.68 140.73 540.47 919.48 423.96 95.02 1052.30 383.41 190.48 537.88 268.29 957.74 271.67 214.69 941.84 233.40 1029.64 334.30 492.77 369.53 702.03 17.39 85.45 401.65 414.85 944.47 267.54 150.90 422.48 225.76 206.40 501.53 572.91 200.43 313.60 563.42 433.62 1032.52 157.95 972.42 771.29 568.71 1032.66 1135.62 958.75 129.04 181.32 957.68 0.00 225.91 993.86 406.17 397.65 19.58 490.52 667.64 208.79 434.83 959.42 1003.25 793.36
502.81 821.18 523.45 283.96 64.05 1113.51 611.18 458.01 753.13 558.78 983.05 240.87 63.12 716.46 747.97 56.16 865.02 712.60 657.88 475.16 283.90 272.95 433.00 874.64 644.25 800.16 60.02 1050.00 319.85 797.59 262.63 881.75 721.58 85.87 195.96 404.87 155.16 931.96 800.01 955.87 244.96 864.22 224.49 847.24 410.71 464.66 1188.40 505.60 378.25 992.93 816.86 616.53 885.32 820.22 405.43 55.23 268.50 576.58 750.86 417.66 151.08 929.47 420.93 366.95 373.77 99.67 961.67 343.52 136.62 806.98 71.07 877.06 160.12 585.89 400.12 554.92 219.35 178.57 241.84 453.66 791.89 132.68 157.36 450.14 76.60 305.12 543.59 404.29 105.35 154.18 567.35 281.04 1036.45 180.03 840.65 609.38 416.89 897.80 1045.49 767.54 180.46 267.17 822.82 225.91 0.00 969.25 446.39 437.87 239.13 547.27 502.26 267.11 446.84 1045.99 944.07 697.03
554.03 507.25 570.80 1086.86 925.65 417.90 601.85 554.21 735.29 679.61 168.65 1023.72 916.45 837.46 796.08 933.37 309.49 758.08 685.10 790.46 819.80 1064.35 619.53 496.60 751.81 532.58 958.77 571.13 815.11 483.66 901.84 516.70 390.31 1024.65 942.17 969.23 974.69 483.77 468.74 411.34 846.72 260.01 913.05 819.22 571.10 504.59 290.16 935.23 736.10 161.30 172.84 607.20 534.61 354.29 714.36 947.73 878.86 647.40 799.89 639.68 934.89 490.46 678.62 959.38 912.93 969.04 731.86 782.13 864.68 444.59 936.52 272.85 976.61 754.05 672.43 719.37 1002.20 908.41 831.56 694.16 187.68 919.85 861.80 607.20 892.65 813.19 571.54 880.36 920.27 919.61 558.02 923.68 743.22 1068.32 236.44 1032.82 953.30 503.73 555.38 420.38 1000.79 814.59 428.75 993.86 969.25 0.00 604.95 598.26 986.67 540.78 1046.27 841.60 647.41 465.66 468.73 493.78
189.86 695.24 147.96 560.09 398.27 912.29 250.47 57.02 423.40 473.51 647.87 438.81 407.30 791.32 491.74 390.38 475.95 398.37 284.00 483.01 274.17 491.51 393.58 763.17 328.97 739.58 439.99 831.20 327.38 718.83 552.57 783.60 659.02 521.66 530.18 457.60 504.02 747.68 675.74 603.04 353.68 682.04 488.77 528.46 35.68 102.19 895.11 704.66 244.82 689.44 432.11 256.00 797.40 455.61 449.66 436.79 339.64 225.77 842.64 103.45 445.72 753.25 198.22 456.19 664.78 446.89 600.96 288.31 350.06 692.22 447.89 703.87 535.91 300.64 86.56 559.04 423.56 380.01 540.78 207.84 619.15 440.76 445.14 77.28 451.88 273.97 114.24 611.82 386.67 452.73 206.82 580.48 675.74 539.75 574.76 756.32 661.47 751.36 861.21 622.19 489.22 224.85 676.38 406.17 446.39 604.95 0.00 8.52 425.75 117.06 745.16 311.98 107.64 680.67 751.73 462.74
189.87 703.76 140.92 551.57 406.79 912.30 241.95 57.03 414.88 482.03 639.35 430.29 415.82 799.84 483.22 398.90 475.96 391.33 292.52 483.02 265.65 482.99 393.59 754.65 320.65 746.82 448.51 822.68 319.42 727.35 544.05 775.08 659.03 513.14 538.70 449.08 512.54 739.16 684.26 594.52 345.16 682.96 480.25 519.94 27.16 93.67 888.42 704.61 236.30 680.92 433.64 247.48 792.47 447.09 458.18 428.27 331.12 217.25 842.65 111.97 437.20 748.92 206.74 447.67 673.30 452.40 592.44 279.79 341.54 683.70 456.41 695.80 544.43 309.16 78.04 559.05 415.04 371.49 538.51 216.36 610.63 449.28 436.62 85.80 443.36 265.45 105.72 603.30 378.15 450.46 198.30 571.96 667.22 531.23 574.77 747.80 652.95 742.84 852.69 613.67 480.70 216.33 667.86 397.65 437.87 598.26 8.52 0.00 417.23 125.58 751.88 303.46 116.16 676.76 751.74 462.75
574.41 1003.46 494.21 173.50 247.74 1223.75 626.83 474.26 642.13 615.62 991.00 41.30 235.28 880.68 710.47 252.20 855.40 662.72 561.63 641.44 331.32 95.51 587.44 1048.15 576.63 954.60 231.32 1070.52 256.50 993.63 450.83 1077.79 904.92 255.45 379.65 259.13 328.81 1112.02 983.35 946.25 407.58 1036.38 356.68 799.46 444.39 482.08 1250.66 693.80 328.91 1098.15 850.87 632.18 1027.73 810.60 555.37 188.41 143.12 549.13 939.06 441.61 92.56 1071.88 402.99 170.90 555.32 287.87 950.20 282.53 208.22 961.42 251.13 1041.83 336.69 485.58 389.11 714.87 19.78 78.26 399.19 407.08 964.05 287.12 143.71 442.06 239.16 208.79 493.74 592.49 192.56 311.14 583.00 453.20 1024.98 170.26 992.00 768.83 571.10 1052.24 1116.04 950.88 131.43 200.90 977.26 19.58 239.13 986.67 425.75 417.23 0.00 483.33 670.03 189.21 437.22 961.81 996.06 790.90
295.10 810.61 30.90 613.48 512.63 910.49 166.99 174.08 320.79 590.57 570.42 501.99 524.36 908.38 389.13 507.44 422.96 281.31 192.18 600.07 391.23 567.67 510.64 857.55 211.91 821.65 504.18 874.93 280.98 787.85 599.28 824.20 733.86 602.83 623.01 428.45 593.19 728.94 777.48 519.56 470.74 649.73 450.13 488.40 152.74 219.25 811.40 815.16 196.20 678.75 549.17 197.71 841.59 378.16 566.72 499.12 380.76 109.87 959.70 146.54 470.78 870.31 137.84 418.60 740.00 550.33 517.48 241.35 410.65 732.82 524.27 701.36 643.76 213.27 147.15 676.10 503.11 405.07 536.18 153.38 696.97 534.41 470.52 179.02 512.47 327.87 30.76 713.85 474.98 495.82 199.25 571.37 592.26 612.47 691.82 873.38 722.11 791.96 842.47 730.12 536.68 331.70 716.98 490.52 547.27 540.78 117.06 125.58 483.33 0.00 821.04 335.29 107.51 601.80 826.57 537.58
727.24 733.53 851.94 723.54 478.79 1075.47 955.75 736.83 1122.35 426.15 1172.06 671.77 467.59 331.74 1145.60 472.66 1051.11 1102.35 1001.52 363.08 669.59 725.98 432.70 817.63 1032.95 694.85 509.91 962.64 764.69 716.60 253.19 793.53 718.58 551.89 402.51 882.15 444.03 893.92 644.53 1169.53 452.08 882.71 370.91 1244.87 724.72 687.21 1073.90 234.35 801.69 1054.67 873.43 925.03 807.19 1043.82 406.19 557.27 717.59 930.91 390.45 739.32 630.10 851.34 844.37 793.92 169.07 416.15 1306.24 747.66 560.06 737.91 515.01 935.45 468.52 961.17 791.38 326.90 650.25 653.70 323.47 895.33 870.26 474.06 603.95 706.84 530.07 739.95 851.80 177.58 567.78 411.52 947.69 249.67 1381.02 612.66 864.12 157.52 98.93 719.78 1002.66 680.18 612.64 712.29 722.07 667.64 502.26 1046.27 745.16 751.88 670.03 821.04 0.00 729.54 852.80 1255.83 812.60 645.75
419.94 908.44 342.65 320.81 250.75 1142.37 440.76 287.39 553.83 603.37 820.22 215.23 263.21 901.73 546.89 258.64 684.62 531.04 458.70 610.64 216.31 282.48 572.61 933.14 444.95 910.23 260.56 1066.02 120.55 884.85 478.11 959.84 807.19 296.75 382.66 232.44 363.18 1002.71 878.55 775.47 407.15 914.60 402.50 646.16 330.62 337.01 1097.71 675.33 191.70 952.21 729.19 464.24 1004.36 639.82 568.44 211.88 83.41 396.18 925.85 280.15 176.10 983.62 235.05 144.21 560.47 315.15 791.25 110.40 217.90 919.70 274.60 927.44 376.10 356.20 275.34 702.62 206.75 171.70 420.24 272.32 842.27 272.29 195.72 280.09 235.35 38.01 304.53 619.77 161.76 332.19 415.06 481.13 866.03 306.51 805.13 789.88 630.61 986.18 1106.62 853.15 227.93 87.13 911.20 208.79 267.11 841.60 311.98 303.46 189.21 335.29 729.54 0.00 266.44 832.91 981.81 692.82
297.50 802.88 76.61 531.50 483.99 985.09 224.66 164.66 326.34 581.15 553.78 438.96 471.53 898.96 394.68 481.62 418.18 327.02 237.89 590.65 363.54 493.17 501.22 870.81 257.62 770.75 451.68 938.84 268.39 826.47 636.85 891.24 766.41 532.71 599.46 415.86 563.26 803.54 775.59 509.03 461.32 686.91 552.19 493.95 143.32 209.83 831.27 812.30 138.05 685.77 539.75 249.45 905.04 373.38 557.30 391.61 294.10 129.74 938.90 144.65 433.16 860.89 116.44 402.47 732.59 524.12 575.15 228.76 363.04 799.86 424.11 721.23 587.97 193.00 99.54 666.68 417.44 388.70 566.57 100.20 641.14 486.80 413.09 177.13 446.69 228.43 105.36 719.46 427.37 488.41 219.12 658.69 649.93 522.26 592.38 863.96 769.11 859.00 917.07 729.83 443.68 277.55 784.02 434.83 446.84 647.41 107.64 116.16 437.22 107.51 852.80 266.44 0.00 622.90 859.12 570.13
635.60 865.22 632.70 1056.09 1026.61 883.56 434.81 623.65 508.35 874.98 297.01 963.55 1014.80 1192.79 509.16 1018.72 204.72 603.08 561.28 985.83 885.99 1017.76 829.09 897.23 602.83 911.12 1026.83 899.12 762.14 850.49 1111.40 898.91 801.15 1059.99 1097.91 909.61 1114.77 759.80 847.28 139.11 1021.92 642.22 1051.93 409.89 670.95 606.13 754.12 1134.19 743.92 472.31 382.40 465.53 916.82 249.52 934.45 1014.51 818.69 524.75 1135.76 669.19 985.97 872.67 658.65 899.76 1208.38 962.21 268.03 722.51 909.37 850.34 1038.06 671.55 1124.92 659.73 722.44 928.93 942.03 920.26 1041.12 706.65 632.07 1033.13 937.68 701.67 994.19 809.03 571.04 1115.76 974.68 1016.72 478.64 1133.24 331.16 1102.86 626.07 1168.12 1162.86 894.26 853.60 756.25 1024.28 812.86 834.50 959.42 1045.99 465.66 680.67 676.76 961.81 601.80 1255.83 832.91 622.90 0.00 886.10 731.45
561.87 209.99 857.47 1152.75 907.93 319.81 869.06 694.71 1065.59 508.59 637.38 1034.92 899.71 618.75 1087.96 900.04 683.07 1006.08 886.40 619.44 794.02 1088.59 617.29 77.19 975.43 268.52 913.67 244.71 931.32 210.26 746.76 101.00 222.49 976.90 893.35 1078.79 949.32 138.26 216.93 746.99 764.42 243.88 806.26 1029.92 742.01 713.58 289.62 683.42 847.17 557.77 505.39 899.78 148.41 664.78 607.57 960.98 1009.47 801.05 542.60 820.11 983.51 109.44 893.18 1068.94 829.17 901.39 987.37 891.69 928.06 149.22 941.24 296.62 959.72 1037.67 829.78 534.56 1015.84 917.80 817.04 944.14 282.23 823.52 973.29 815.39 962.19 943.80 836.44 743.48 934.05 876.57 890.43 774.67 1053.71 1050.59 287.48 775.53 795.60 175.04 217.19 217.64 1046.04 968.07 139.39 1003.25 944.07 468.73 751.73 751.74 996.06 826.57 812.60 981.81 859.12 886.10 0.00 288.99
272.88 358.06 568.48 875.14 681.53 592.12 613.02 405.72 789.67 219.60 662.43 820.72 679.33 537.41 842.77 686.62 526.73 725.94 597.41 330.45 628.37 874.93 364.30 349.34 686.44 284.07 637.01 476.39 642.33 348.16 527.04 377.01 196.28 687.91 604.36 789.80 679.92 427.25 274.71 760.86 540.84 257.75 573.26 901.59 453.02 455.34 578.61 478.81 558.18 439.70 501.01 643.74 420.56 518.00 414.87 721.49 720.48 647.45 596.45 531.12 698.34 398.43 604.19 779.95 613.46 678.71 947.65 602.70 639.07 322.80 664.58 310.49 702.67 748.68 540.79 318.85 799.20 764.05 597.32 655.15 306.10 664.62 744.28 538.56 708.45 654.81 549.38 535.08 726.18 643.57 648.46 554.95 906.93 810.59 257.34 644.39 581.99 380.25 506.18 242.24 764.24 679.08 320.49 793.36 697.03 493.78 462.74 462.75 790.90 537.58 645.75 692.82 570.13 731.45 288.99 0.00
DEMAND_SECTION
1 0
2 51
3 62
4 91
5 72
6 65
7 17
8 73
9 42
10 12
11 24
12 97
13 64
14 46
15 16
16 81
17 26
18 36
19 50
20 14
21 95
22 92
23 12
24 58
25 23
26 73
27 66
28 77
29 73
30 66
31 33
32 88
33 51
34 79
35 3
36 96
37 99
38 58
39 64
40 5
41 10
42 52
43 1
44 5
45 54
46 64
47 75
48 50
49 67
50 81
51 93
52 15
53 72
54 31
55 7
56 84
57 58
58 37
59 27
60 63
61 77
62 99
63 76
64 72
65 28
66 96
67 39
68 72
69 74
70 95
71 70
72 87
73 99
74 93
75 67
76 32
77 70
78 59
79 9
80 63
81 56
82 92
83 87
84 94
85 80
86 83
87 13
88 10
89 60
90 21
91 28
92 20
93 24
94 86
95 56
96 29
97 14
98 95
99 64
100 76
101 76
102 58
103 79
104 99
105 72
106 56
107 83
108 60
109 77
110 21
111 17
112 95
113 57
114 9
115 69
116 85
DEPOT_SECTION
1
-1
EOF
