NAME: LDG150_2322_rain_150_0231
COMMENT: CVRP with travel times.  rootPos=2,custPos=3,demandType=2,avgRouteSizeIndex=2,weather=rain,lambda_cluster=1,lambda_random=4, T1=300,T2=700,beta=1, alpha(i,j) ~ U(0.8,1.2)
TYPE: CVRP
DIMENSION: 151
EDGE_WEIGHT_TYPE: EXPLICIT
EDGE_WEIGHT_FORMAT: FULL_MATRIX
CAPACITY: 32
NODE_COORD_SECTION
1 500 500
2 846 660
3 488 710
4 945 770
5 829 624
6 691 69
7 299 28
8 968 446
9 799 613
10 938 715
11 876 607
12 878 645
13 653 625
14 30 109
15 971 820
16 203 29
17 964 747
18 534 331
19 323 105
20 899 832
21 209 692
22 828 26
23 713 955
24 901 328
25 311 138
26 768 846
27 906 705
28 71 39
29 962 488
30 102 55
31 350 140
32 798 494
33 528 114
34 334 55
35 763 556
36 267 73
37 878 553
38 985 495
39 811 700
40 405 113
41 465 136
42 987 173
43 928 608
44 880 619
45 112 498
46 866 626
47 826 501
48 407 192
49 932 590
50 793 677
51 910 431
52 40 971
53 946 768
54 59 853
55 854 541
56 304 10
57 487 744
58 776 570
59 972 618
60 849 975
61 741 676
62 384 69
63 761 505
64 757 309
65 183 904
66 698 799
67 553 488
68 704 625
69 841 619
70 389 74
71 526 591
72 575 642
73 850 452
74 476 215
75 579 408
76 102 167
77 407 899
78 396 2
79 705 952
80 626 918
81 219 154
82 799 761
83 950 65
84 621 744
85 327 7
86 914 565
87 686 818
88 926 432
89 939 456
90 698 835
91 832 612
92 522 28
93 879 453
94 273 369
95 116 15
96 631 382
97 236 28
98 733 981
99 388 26
100 637 107
101 309 169
102 656 689
103 166 708
104 387 53
105 12 727
106 778 603
107 925 616
108 443 4
109 75 731
110 224 66
111 306 885
112 822 574
113 721 543
114 611 932
115 534 765
116 825 128
117 683 683
118 880 723
119 842 590
120 0 109
121 605 54
122 351 7
123 720 586
124 430 39
125 708 427
126 576 917
127 52 929
128 600 660
129 889 612
130 284 409
131 876 643
132 743 615
133 70 669
134 634 325
135 376 109
136 373 151
137 747 654
138 977 606
139 970 680
140 591 45
141 865 558
142 546 662
143 924 784
144 855 291
145 573 933
146 399 64
147 681 664
148 872 594
149 713 643
150 347 155
151 466 48
EDGE_WEIGHT_SECTION
0.00 442.58 296.98 561.45 388.83 510.41 573.79 553.69 358.54 523.05 434.78 421.83 276.30 737.02 603.30 565.91 559.64 210.31 505.59 592.27 424.24 653.46 546.39 531.65 541.66 479.49 483.00 687.00 549.25 688.97 481.90 339.15 475.91 560.82 289.65 558.62 404.09 527.89 447.51 441.80 371.17 600.29 457.35 444.41 596.34 432.48 387.04 406.79 452.16 419.40 462.70 680.83 554.21 651.11 420.45 582.62 291.15 319.59 503.60 648.47 370.58 513.43 335.98 429.81 519.60 419.95 90.25 309.69 401.87 500.43 111.80 210.18 430.55 337.04 203.23 707.29 517.66 562.64 529.11 457.61 608.87 461.99 789.98 392.60 567.08 406.80 399.73 486.11 503.90 409.28 383.87 506.52 468.99 409.37 666.32 283.76 585.92 586.38 535.11 412.24 512.89 269.46 430.21 521.03 617.97 356.00 472.92 559.85 534.00 512.91 453.40 354.36 258.20 487.49 304.76 593.24 312.95 465.98 391.71 791.42 473.89 598.31 297.14 522.81 332.45 490.18 698.56 253.98 444.05 352.58 411.68 338.82 612.45 303.35 480.81 475.32 346.25 497.29 548.41 520.06 383.34 190.07 573.40 526.84 470.26 524.98 327.26 421.05 334.46 489.42 483.67
442.58 0.00 351.59 176.74 81.62 609.20 819.32 282.12 98.00 132.93 67.57 56.09 249.32 1009.68 219.00 868.73 186.45 514.28 773.97 231.44 619.49 641.22 372.36 394.17 708.40 239.55 109.81 1000.33 236.53 968.68 725.59 186.74 682.24 777.98 166.89 807.37 125.64 256.61 61.75 715.15 669.91 539.24 128.88 88.07 798.35 72.56 187.65 650.40 146.17 81.88 266.80 896.37 169.50 824.64 124.04 831.99 376.38 145.57 160.89 399.99 112.48 736.97 198.97 387.53 727.11 241.56 370.61 173.37 53.15 723.97 379.72 272.34 249.91 615.91 421.11 905.54 588.36 786.24 381.89 344.21 823.62 136.64 651.50 296.98 826.49 145.23 264.79 260.78 230.21 294.50 68.25 683.17 228.12 663.48 935.63 381.44 866.62 394.57 781.98 592.12 707.05 222.06 679.96 739.97 851.36 127.47 113.31 781.19 767.39 853.08 685.87 114.89 184.38 374.09 357.66 524.96 189.58 100.30 97.53 1005.35 653.77 835.02 170.70 741.61 264.66 388.44 875.04 273.68 88.58 632.94 55.34 151.64 757.79 422.35 747.14 709.02 154.90 173.20 203.78 699.94 119.01 313.56 184.23 399.18 408.36 750.87 176.37 90.16 163.50 733.03 702.47
296.98 351.59 0.00 486.03 376.50 704.71 757.20 605.55 352.76 444.20 409.37 393.77 234.74 800.82 522.40 759.45 509.24 431.23 657.33 493.09 369.31 754.79 374.24 615.48 644.08 347.40 452.63 845.00 517.42 781.16 611.48 415.41 707.06 716.68 356.95 722.02 448.15 554.14 329.96 656.98 638.52 781.26 471.77 403.90 547.41 409.74 439.83 578.97 461.49 297.32 554.39 544.78 493.27 568.86 439.88 744.95 58.51 341.61 492.09 516.38 239.11 688.88 422.84 551.39 545.94 290.87 311.68 258.19 386.95 687.75 185.18 157.38 496.61 524.56 376.55 696.11 285.02 731.98 373.08 274.93 610.49 396.46 854.92 229.39 723.17 462.15 267.64 562.37 553.64 297.35 380.60 758.56 513.10 437.20 835.25 457.08 779.46 415.90 704.45 707.18 641.65 225.80 401.89 696.23 578.85 323.86 457.61 757.83 505.68 706.45 376.17 368.78 320.31 304.81 136.96 728.93 260.23 425.34 400.20 823.51 723.41 681.60 307.28 715.11 408.55 345.91 620.24 156.94 422.52 380.41 388.94 304.88 551.14 439.04 621.19 622.07 281.53 517.50 471.25 758.60 434.69 106.91 458.46 639.23 347.36 688.82 244.10 430.37 286.74 584.68 732.90
561.45 176.74 486.03 0.00 199.06 765.59 942.81 347.79 221.49 74.32 176.94 161.69 356.89 1084.79 81.58 1015.20 41.96 617.99 892.76 93.30 767.23 751.06 328.51 493.59 854.87 248.00 114.37 1136.04 323.30 1078.85 830.90 333.78 816.83 901.47 290.38 953.84 235.01 286.80 201.50 831.98 761.35 664.06 196.59 191.80 856.71 179.87 314.11 783.03 195.64 195.06 366.22 878.93 7.24 905.22 256.32 968.72 508.58 286.39 150.34 262.84 246.92 860.46 341.63 534.00 807.93 290.56 471.20 283.54 209.54 847.46 502.66 443.89 359.28 725.44 532.81 1015.71 609.50 918.87 343.80 380.89 934.12 176.56 722.98 368.93 956.88 241.00 299.45 354.76 355.03 269.74 223.71 838.63 337.49 790.32 1091.09 500.63 990.11 358.78 916.29 701.49 817.22 345.00 827.70 877.98 978.43 250.96 193.15 913.82 894.46 999.55 658.64 261.36 329.22 410.77 460.38 648.41 324.02 95.47 230.16 1112.92 763.14 958.51 302.85 874.24 421.05 409.58 924.04 400.09 197.95 733.53 159.07 261.17 881.79 548.81 869.55 846.71 277.94 178.60 115.21 809.31 228.38 444.65 33.92 508.55 429.50 874.36 307.46 194.62 271.07 857.70 835.10
388.83 81.62 376.50 199.06 0.00 584.52 765.60 277.91 44.28 154.90 81.00 81.26 216.09 955.93 262.37 824.27 191.49 460.56 729.51 233.05 631.83 637.57 403.81 350.03 663.94 271.00 114.85 959.11 243.96 934.16 694.84 143.14 638.64 724.26 113.17 762.91 104.88 231.71 93.20 697.66 674.90 529.68 118.21 81.35 750.72 73.89 169.23 619.65 133.99 107.08 233.92 904.31 201.55 823.00 105.62 778.24 366.19 87.37 164.46 402.59 137.39 683.25 174.29 343.07 672.53 266.47 348.77 138.85 28.47 670.25 335.28 291.78 204.25 569.01 367.39 871.02 577.43 742.50 401.87 375.66 769.90 168.89 628.29 233.53 768.29 127.51 289.70 225.90 243.15 287.21 24.65 639.57 193.24 667.89 892.03 327.72 812.90 426.02 728.23 605.55 672.53 238.80 656.78 686.22 844.54 73.75 129.27 737.45 760.57 808.62 652.64 70.43 130.63 405.54 368.89 504.85 200.81 140.19 66.78 972.12 627.53 781.30 141.88 697.87 239.98 409.21 851.49 272.04 62.73 611.10 71.11 120.79 741.41 398.92 713.12 665.42 129.92 164.27 198.79 673.70 84.13 318.50 232.98 364.30 429.13 697.15 181.31 74.42 130.27 702.28 658.73
510.41 609.20 704.71 765.59 584.52 0.00 414.65 517.40 589.12 717.89 608.58 616.67 576.89 669.72 811.77 478.95 754.48 360.52 384.59 782.45 902.43 165.63 884.14 473.57 411.92 791.81 677.84 629.52 595.31 595.75 352.16 561.24 242.22 376.83 520.23 462.86 621.91 580.67 654.89 327.69 332.92 406.93 646.71 616.48 714.06 604.27 513.35 334.36 660.21 651.92 531.29 1139.17 758.35 1083.19 576.96 409.66 763.22 550.17 692.96 945.69 624.20 304.03 466.35 354.81 1016.53 725.35 492.17 608.30 556.05 317.03 570.14 627.62 530.49 301.38 378.77 621.89 892.94 307.47 866.86 832.12 522.57 730.58 290.68 695.44 378.53 642.93 717.32 556.29 569.31 747.03 574.05 241.29 492.05 561.18 579.36 349.85 459.68 860.93 314.79 98.17 423.40 559.69 940.62 326.35 989.68 568.37 662.28 302.42 960.09 506.13 907.67 584.94 464.69 862.00 747.47 287.43 603.18 698.44 600.43 686.08 95.82 369.37 527.34 262.84 497.65 853.19 1118.20 628.55 629.59 504.39 606.52 569.02 881.64 278.65 356.76 396.91 612.28 686.59 754.96 141.99 601.16 610.78 772.64 376.44 833.27 318.29 630.33 620.52 580.32 378.96 223.70
573.79 819.32 757.20 942.81 765.60 414.65 0.00 768.49 721.32 896.37 800.19 824.81 726.24 289.40 987.71 117.72 957.09 444.01 119.88 970.92 724.08 550.53 970.92 719.83 136.96 925.05 880.45 282.62 779.49 212.00 152.63 658.23 253.95 41.34 652.43 72.05 779.31 795.23 810.29 160.36 202.62 716.52 820.13 806.38 505.08 793.86 705.47 190.70 832.05 784.12 725.91 948.65 935.57 897.58 733.37 25.91 711.16 682.37 866.38 1048.67 762.61 124.72 709.65 555.01 896.74 861.19 573.29 724.97 774.79 111.72 595.86 667.92 744.43 274.23 469.38 253.86 918.66 107.18 988.20 941.67 182.16 808.45 616.15 825.37 40.28 804.40 883.79 700.91 743.43 913.50 762.52 233.96 739.83 388.81 218.13 535.13 79.36 1012.58 103.38 356.18 205.82 753.52 698.63 102.88 822.20 718.78 835.70 171.65 791.88 108.53 879.37 717.14 658.47 971.55 791.60 570.11 736.42 847.34 743.57 343.80 346.73 81.85 721.12 155.33 600.35 947.93 944.65 711.72 813.26 445.60 814.66 715.53 714.16 478.60 145.98 135.95 757.91 873.64 918.09 300.56 765.47 674.13 945.26 622.70 954.32 137.95 753.70 780.44 711.59 172.52 190.95
553.69 282.12 605.55 347.79 277.91 517.40 768.49 0.00 292.79 299.61 217.00 253.00 392.76 1006.48 386.50 843.36 308.11 527.57 782.37 377.58 825.81 545.02 577.58 218.87 746.13 497.26 276.94 964.45 110.77 933.31 742.92 214.54 580.26 727.15 270.55 836.07 218.92 63.27 322.53 746.47 681.92 360.94 159.70 233.80 868.67 235.67 212.13 686.91 153.17 317.34 92.58 1096.60 340.55 1020.55 182.32 794.40 579.78 288.55 197.45 547.12 366.44 729.89 233.86 336.51 902.77 477.64 463.44 364.38 250.36 728.57 527.57 478.66 132.82 625.91 402.72 870.17 761.51 754.78 586.80 578.85 788.58 398.22 525.74 475.95 808.77 198.53 500.87 67.58 51.91 509.98 262.51 699.43 94.38 737.37 943.77 394.73 847.85 619.24 743.60 584.33 671.68 412.04 852.24 736.74 1030.33 281.69 175.27 650.69 946.36 790.36 815.69 262.12 326.09 604.17 536.63 453.99 368.55 309.33 241.65 997.57 610.95 784.19 338.54 696.70 273.01 642.40 1014.57 470.56 215.18 680.58 242.85 319.25 939.87 425.69 745.54 736.15 340.67 169.19 268.30 564.78 203.49 509.59 381.71 261.84 652.14 701.67 395.70 212.74 367.13 728.65 671.48
358.54 98.00 352.76 221.49 44.28 589.12 721.32 292.79 0.00 175.05 80.56 108.91 171.81 942.99 285.01 798.68 235.77 416.28 703.92 255.69 594.65 615.88 389.76 305.75 638.35 260.38 159.13 947.07 259.27 889.88 687.02 136.97 617.93 679.98 68.89 737.32 123.33 250.16 105.19 680.78 630.62 517.46 147.83 98.23 706.44 77.96 166.48 622.63 156.63 62.80 231.96 860.03 214.25 787.18 124.64 747.23 365.35 64.90 194.08 425.23 114.22 638.97 131.49 317.48 654.94 238.48 304.49 94.57 65.29 625.97 291.00 247.50 159.97 524.73 323.11 826.74 538.51 698.22 372.48 387.65 725.62 176.88 585.49 215.94 735.39 138.21 261.71 244.35 259.25 285.80 47.29 662.21 198.41 623.61 899.09 283.44 768.62 428.48 694.80 605.11 628.25 200.02 650.58 656.49 818.31 29.47 156.33 693.17 734.34 783.03 608.36 44.84 124.43 417.53 324.61 481.14 156.53 126.02 87.67 927.84 627.78 737.02 97.60 653.59 209.92 390.18 832.41 236.22 101.57 566.82 98.76 90.44 711.06 354.64 668.84 656.54 91.00 201.34 228.78 652.54 102.58 274.22 223.94 360.79 410.10 652.87 137.03 97.06 85.99 685.22 614.45
523.05 132.93 444.20 74.32 154.90 717.89 896.37 299.61 175.05 0.00 150.85 121.52 324.63 1010.47 120.26 967.50 65.04 559.15 848.69 167.62 721.43 701.86 322.44 419.27 807.17 306.31 40.05 1097.68 292.56 1056.75 786.83 297.57 765.53 855.03 243.94 906.14 203.55 257.17 128.51 795.01 734.91 633.47 157.29 133.08 844.91 132.17 288.02 735.33 146.44 146.88 291.90 944.64 72.95 888.65 226.35 905.79 443.14 239.95 174.63 337.16 205.09 814.02 293.93 486.30 792.11 273.99 450.06 265.98 161.84 801.02 454.48 398.14 330.27 699.78 498.16 993.61 628.87 871.17 339.72 410.97 900.67 192.13 695.92 369.13 910.44 191.80 297.22 316.90 327.00 326.93 179.08 794.00 311.40 769.18 1046.46 426.31 943.67 364.10 869.85 675.40 795.12 296.82 781.90 831.54 943.97 204.52 163.51 866.12 860.00 951.85 724.35 213.66 285.53 440.76 450.27 574.09 282.19 74.33 182.46 1064.87 737.05 912.07 249.43 826.54 373.35 459.49 907.47 354.34 151.70 712.39 111.37 257.95 851.08 497.51 825.27 814.45 235.04 176.30 91.24 783.22 202.29 406.85 108.24 482.46 479.41 827.92 269.66 163.35 238.81 813.63 787.40
434.78 67.57 409.37 176.94 81.00 608.58 800.19 217.00 80.56 150.85 0.00 48.19 231.96 999.60 258.52 839.66 187.44 476.66 744.64 260.08 644.75 587.72 436.82 326.60 679.33 307.12 110.80 995.13 192.66 961.29 682.78 161.75 639.89 760.54 149.45 777.80 58.07 199.02 129.32 687.50 647.85 499.87 76.49 29.03 787.00 36.71 137.17 609.49 82.16 112.05 199.23 927.86 184.18 856.67 79.38 825.20 416.34 140.42 122.74 391.68 170.26 719.53 176.76 358.46 735.50 297.92 385.05 175.13 52.53 706.53 371.56 328.06 182.34 605.29 355.87 863.29 619.07 748.17 427.91 411.78 806.18 204.21 607.63 296.50 815.95 77.66 321.15 193.21 225.08 308.08 60.67 675.59 160.55 690.52 928.05 364.00 840.56 403.32 755.49 524.55 699.66 261.99 703.74 733.18 885.47 110.03 75.77 743.12 803.09 823.51 668.51 85.82 177.59 441.66 393.36 484.83 225.28 141.09 59.46 990.69 586.20 810.07 178.16 703.54 264.04 446.22 884.78 305.71 21.01 633.73 39.48 156.81 777.43 371.87 696.66 684.03 171.56 130.00 169.14 632.37 51.44 347.69 205.08 331.61 466.14 733.43 217.59 22.59 166.55 692.12 664.40
421.83 56.09 393.77 161.69 81.26 616.67 824.81 253.00 108.91 121.52 48.19 0.00 226.20 1015.21 241.78 864.29 158.11 488.50 756.48 254.99 638.99 615.49 397.00 363.23 703.96 295.64 81.47 1012.72 191.34 955.53 694.62 197.11 688.08 786.25 175.16 802.93 106.26 238.84 117.84 693.79 689.80 532.25 93.30 40.87 799.92 30.95 185.36 634.11 104.17 101.77 235.86 922.10 161.98 854.96 127.57 849.71 424.43 150.12 104.80 343.90 154.66 741.23 192.71 383.09 747.00 283.74 384.63 187.57 60.62 728.23 390.70 328.01 230.53 600.70 404.06 892.39 599.65 769.95 379.72 400.30 810.80 162.60 606.31 314.79 831.04 105.43 289.60 237.43 256.24 259.89 78.62 693.54 208.74 703.75 946.00 389.44 865.19 436.99 777.27 572.74 693.90 238.45 699.46 758.75 865.09 135.47 87.28 764.90 797.33 848.64 662.75 110.45 204.29 430.18 387.60 519.31 219.52 111.76 81.24 1014.57 634.39 827.87 178.11 725.32 272.13 399.73 917.22 304.00 57.64 646.96 10.15 136.43 757.05 420.06 732.80 719.39 184.55 133.06 151.97 680.56 99.63 354.83 195.61 379.80 419.65 755.13 232.46 68.08 172.72 716.74 686.18
276.30 249.32 234.74 356.89 216.09 576.89 726.24 392.76 171.81 324.63 231.96 226.20 0.00 845.08 420.13 727.91 361.22 397.22 674.84 348.91 451.75 701.68 359.35 408.89 623.40 268.16 284.58 832.59 320.19 850.97 662.05 194.68 566.26 684.90 122.21 720.62 228.00 367.69 216.33 644.85 574.22 599.98 288.69 215.52 643.72 195.25 242.57 621.70 287.60 190.26 347.50 733.53 349.65 628.76 253.01 719.14 269.41 152.15 331.00 441.27 136.84 633.76 202.33 402.10 596.20 169.30 232.57 82.72 211.48 646.76 164.50 104.60 263.11 545.90 283.87 791.29 466.92 724.65 342.07 296.97 733.30 204.28 620.18 210.02 688.01 280.08 192.53 341.64 377.04 222.24 204.61 709.57 301.55 495.74 828.32 264.38 747.92 370.10 698.09 628.07 616.40 123.28 512.22 656.08 699.98 151.31 293.18 722.73 616.01 674.91 436.55 186.92 177.75 326.85 228.53 581.76 105.18 297.83 224.27 848.99 625.91 729.58 122.60 690.73 263.24 354.80 739.90 77.80 233.21 494.90 216.05 108.47 598.41 298.24 667.37 617.30 124.04 336.93 350.62 647.79 235.25 154.18 351.40 418.50 374.72 661.98 78.03 228.03 85.82 635.76 686.72
737.02 1009.68 800.82 1084.79 955.93 669.72 289.40 1006.48 942.99 1010.47 999.60 1015.21 845.08 0.00 1130.73 190.93 1075.51 526.71 324.57 1122.89 640.96 802.06 1123.30 928.32 351.26 1032.11 1045.81 117.90 995.94 187.97 386.43 878.63 543.35 330.74 880.84 284.58 979.76 1043.44 986.42 411.32 458.99 967.48 965.09 974.34 553.59 994.61 870.21 442.75 994.13 974.74 967.89 953.34 1083.42 812.92 933.82 315.31 853.10 910.78 1011.34 1205.22 928.48 365.69 899.42 746.21 858.26 933.25 654.47 868.48 968.97 352.69 780.97 754.76 928.38 469.95 643.73 136.31 987.38 396.58 1106.02 1017.70 312.98 1016.29 899.67 911.31 329.68 1004.85 956.48 990.31 1002.37 986.19 950.97 517.48 939.91 363.62 184.98 659.55 210.04 1100.81 392.78 645.58 334.80 836.14 701.43 383.21 684.67 913.52 980.66 453.05 655.08 243.93 921.57 940.05 825.30 1027.35 913.07 811.75 878.85 1030.20 962.83 54.40 611.76 371.25 861.36 407.04 830.10 1046.03 890.38 767.28 992.96 420.41 1007.07 903.04 576.63 635.51 401.15 408.55 910.47 1018.60 1081.24 589.96 971.31 776.38 1118.71 873.54 1026.11 379.59 852.01 999.70 896.25 379.89 446.18
603.30 219.00 522.40 81.58 262.37 811.77 987.71 386.50 285.01 120.26 258.52 241.78 420.13 1130.73 0.00 1038.20 95.88 671.91 934.06 133.11 835.44 779.73 382.83 534.84 877.87 313.88 160.31 1172.18 362.01 1139.49 872.20 356.21 851.71 950.20 339.11 976.84 287.97 340.72 248.77 875.02 842.93 676.91 244.21 248.12 932.36 252.43 378.23 797.01 266.35 267.14 412.16 960.51 88.82 914.09 314.62 1011.00 498.33 328.78 217.13 275.27 283.29 914.59 401.54 557.00 819.01 329.13 537.51 344.18 255.72 910.98 550.53 488.29 403.80 790.47 591.11 1076.35 556.70 932.85 383.61 420.70 994.76 247.68 730.66 450.51 1003.91 269.67 352.36 410.40 367.88 351.32 237.72 852.64 399.60 856.63 1105.10 546.57 1039.10 341.17 940.17 783.07 877.86 392.87 889.54 918.98 1022.17 314.48 237.66 927.80 938.20 1022.55 683.36 284.36 363.39 424.67 513.29 682.21 360.39 161.78 244.14 1176.16 840.60 994.75 369.69 888.22 467.23 396.62 962.61 444.49 266.74 799.84 231.63 333.86 954.48 612.93 903.30 878.49 325.71 217.31 128.06 881.36 290.49 512.89 115.50 570.66 376.70 937.61 375.70 276.20 334.31 879.64 849.08
565.91 868.73 759.45 1015.20 824.27 478.95 117.72 843.36 798.68 967.50 839.66 864.29 727.91 190.93 1038.20 0.00 1004.09 483.11 174.54 1008.88 745.68 611.13 994.29 737.39 160.33 983.42 927.45 167.49 852.24 139.87 220.09 762.53 371.67 159.06 770.15 93.65 840.50 899.74 903.87 243.02 308.96 799.18 856.83 854.83 565.68 847.93 802.67 295.28 884.13 861.48 794.93 1002.93 1007.96 919.18 833.64 143.63 799.26 800.09 903.08 1144.80 829.35 197.39 792.31 648.09 902.23 884.56 621.54 768.46 818.48 184.39 619.23 747.97 787.42 378.53 565.51 247.38 1006.04 224.90 1011.57 965.04 148.96 912.75 708.74 898.90 150.79 847.21 907.16 818.63 835.38 936.87 800.48 326.55 748.98 412.18 100.41 615.95 41.74 1035.95 204.64 466.69 234.78 776.89 704.12 214.91 834.06 828.15 872.40 262.12 807.91 53.00 908.33 753.84 770.50 994.92 834.19 643.45 820.38 924.70 797.64 245.33 443.46 192.36 786.53 216.11 709.18 997.61 1030.32 773.88 860.67 451.13 856.13 819.60 767.56 581.98 243.18 240.25 851.95 910.34 972.98 411.79 819.75 697.50 1016.30 729.04 977.69 211.29 805.94 824.56 797.01 223.30 255.25
559.64 186.45 509.24 41.96 191.49 754.48 957.09 308.11 235.77 65.04 187.44 158.11 361.22 1075.51 95.88 1004.09 0.00 576.03 882.66 127.87 758.02 741.67 370.47 484.31 843.76 289.96 76.64 1114.56 292.34 1084.25 820.80 334.16 802.12 915.75 304.66 942.73 243.39 244.84 193.55 831.60 799.95 666.17 193.88 167.05 895.78 168.76 324.61 771.92 211.48 211.92 356.94 920.89 49.20 925.24 266.82 942.38 508.18 276.91 192.30 295.71 270.13 874.74 330.52 522.89 849.89 310.58 500.93 288.94 198.43 861.74 514.05 451.73 364.88 740.14 543.31 1021.11 651.46 907.76 378.37 394.78 939.52 218.52 707.31 410.89 957.83 231.61 333.81 339.16 357.14 311.70 215.67 830.59 347.99 820.05 1083.05 462.90 1001.01 400.74 915.08 711.99 822.62 361.86 818.49 877.71 979.36 252.52 200.10 902.71 895.39 988.44 700.60 250.25 322.12 424.66 451.32 639.13 329.29 125.20 219.05 1117.25 773.64 965.68 314.47 863.13 409.94 451.54 944.06 407.93 185.67 763.26 147.96 294.54 905.80 534.10 870.61 851.04 300.08 212.89 138.28 819.81 238.88 462.25 75.88 519.05 471.46 888.64 325.06 197.32 275.40 847.60 823.99
210.31 514.28 431.23 617.99 460.56 360.52 444.01 527.57 416.28 559.15 476.66 488.50 397.22 526.71 671.91 483.11 576.03 0.00 366.84 666.62 589.21 520.05 676.49 443.96 357.16 613.74 519.10 538.53 469.23 607.99 320.99 374.43 292.85 409.56 383.10 431.53 453.05 516.73 514.18 350.12 296.03 499.40 438.38 447.63 657.83 467.90 343.50 272.11 467.42 479.08 441.18 891.14 625.23 780.73 407.11 426.94 489.74 413.04 484.63 718.82 442.41 363.26 395.22 219.50 729.91 557.21 252.93 420.36 461.66 350.26 322.11 374.79 401.67 248.74 139.53 548.04 714.72 417.56 659.21 591.86 468.06 588.03 621.49 530.51 458.07 478.14 533.98 466.18 475.66 563.69 458.22 327.33 440.11 459.56 544.76 132.84 492.91 716.48 390.03 353.83 351.16 469.56 640.52 348.02 652.48 386.81 453.95 429.81 736.45 474.88 613.53 447.81 332.55 615.95 461.01 398.69 477.14 542.30 436.12 581.11 292.18 444.91 375.73 383.80 303.39 624.43 891.87 400.70 466.25 417.39 480.36 417.41 717.29 108.80 327.41 331.58 399.99 491.89 554.53 327.37 444.60 324.32 631.12 346.83 604.51 377.16 459.93 472.99 406.60 294.19 408.53
505.59 773.97 657.33 892.76 729.51 384.59 119.88 782.37 703.92 848.69 744.64 756.48 674.84 324.57 934.06 174.54 882.66 366.84 0.00 914.12 664.08 549.20 899.53 642.59 65.57 868.57 819.66 295.63 770.83 256.67 61.86 616.76 228.85 78.54 645.19 164.54 745.62 805.33 764.84 115.59 134.42 657.48 762.07 715.61 470.92 735.88 636.07 137.05 778.40 722.45 733.94 914.49 888.53 824.48 699.68 129.42 648.61 675.13 808.32 970.26 713.91 80.56 646.66 485.61 886.35 789.80 453.41 659.72 723.72 90.96 524.47 653.21 649.55 220.69 390.97 315.92 875.12 168.11 916.81 870.28 174.05 766.98 630.16 740.67 124.99 752.45 812.40 738.11 763.48 842.11 705.72 247.97 687.99 317.42 274.95 471.50 185.02 916.89 140.58 372.90 126.04 682.13 724.55 101.50 788.04 711.54 777.64 183.54 757.72 121.54 813.57 659.08 657.09 900.16 737.95 539.74 690.08 829.14 689.92 301.49 318.20 135.58 660.30 137.53 550.95 902.85 903.18 679.12 734.23 374.21 748.34 684.96 680.00 410.40 76.58 94.48 709.41 815.58 878.22 321.41 724.99 602.74 858.84 554.50 882.93 107.58 662.93 726.79 662.89 72.65 166.17
592.27 231.44 493.09 93.30 233.05 782.45 970.92 377.58 255.69 167.62 260.08 254.99 348.91 1122.89 133.11 1008.88 127.87 666.62 914.12 0.00 758.88 795.82 267.78 542.44 848.55 180.77 204.51 1138.77 407.37 1110.18 856.36 326.89 822.39 929.58 318.49 947.52 304.24 372.71 197.92 879.18 808.55 729.05 269.44 248.02 865.66 227.75 352.98 803.40 240.40 220.52 417.29 922.05 100.54 840.74 289.37 981.68 443.13 318.82 243.64 169.54 253.98 893.97 372.22 527.68 797.28 226.08 531.82 314.87 226.40 881.66 486.34 411.73 410.19 768.81 561.79 1047.04 545.09 939.24 250.50 287.59 965.45 189.97 816.28 369.44 991.08 285.76 234.00 418.78 420.96 263.71 208.40 821.80 391.84 802.87 1075.78 533.78 1009.78 307.77 931.67 784.63 848.55 341.52 787.95 889.66 922.97 285.16 283.35 930.13 839.00 993.23 671.75 255.04 334.07 317.47 394.93 688.60 298.03 156.09 250.53 1146.85 811.28 986.62 346.22 894.61 437.91 358.57 841.62 384.44 239.07 794.15 248.55 304.54 852.30 587.68 898.91 849.17 296.40 271.90 208.51 857.45 296.88 408.07 59.38 550.71 365.44 908.56 270.88 258.17 305.00 883.16 855.47
424.24 619.49 369.31 767.23 631.83 902.43 724.08 825.81 594.65 721.43 644.75 638.99 451.75 640.96 835.44 745.68 758.02 589.21 664.08 758.88 0.00 990.10 645.01 805.25 662.92 605.72 681.38 729.12 760.02 647.61 700.70 620.12 660.21 697.42 565.62 652.03 679.75 807.52 629.15 758.76 710.03 1015.27 701.48 628.31 351.88 608.04 668.01 680.75 704.94 598.41 744.16 406.87 774.47 278.12 681.85 749.99 427.82 575.62 743.79 779.40 552.15 744.64 625.45 761.53 258.58 556.92 512.91 517.96 640.03 755.04 386.41 347.15 692.99 626.20 577.78 520.28 433.97 786.99 645.93 560.83 615.63 630.39 1071.93 398.30 764.36 689.35 533.74 767.08 794.96 526.10 634.87 841.29 731.43 411.07 713.06 633.97 765.02 603.35 759.46 804.26 718.77 459.81 60.47 758.96 248.23 565.18 705.97 809.82 164.26 697.74 418.82 608.68 510.08 590.71 506.27 967.79 497.30 695.57 641.52 586.56 812.54 754.46 497.05 788.76 618.69 573.98 325.91 390.95 646.00 467.86 628.84 538.73 212.65 677.90 735.62 685.55 571.63 753.19 728.77 811.17 669.75 397.62 733.31 843.94 593.90 733.31 488.00 645.37 537.57 722.94 822.53
653.46 641.22 754.79 751.06 637.57 165.63 550.53 545.02 615.88 701.86 587.72 615.49 701.68 802.06 779.73 611.13 741.67 520.05 549.20 795.82 990.10 0.00 937.44 380.31 552.25 822.43 678.67 778.35 513.97 736.22 517.79 507.00 329.89 509.19 579.47 612.24 569.45 561.47 702.97 444.41 433.11 241.30 570.41 574.62 879.69 594.89 527.30 477.41 555.42 678.68 499.08 1222.68 743.82 1216.40 581.09 550.13 813.30 609.41 616.66 959.39 705.75 468.64 592.45 348.53 1165.02 834.83 575.68 693.71 617.19 481.64 653.65 737.54 455.91 467.01 462.28 768.25 1024.09 457.17 954.72 938.71 638.01 777.86 272.23 816.14 527.36 510.06 858.06 522.42 493.11 875.38 612.92 330.39 454.24 726.81 711.54 447.05 622.73 964.71 447.15 241.22 585.01 725.32 1050.57 489.16 1093.14 633.02 582.86 438.72 1102.49 647.97 995.25 603.43 619.17 968.59 811.50 134.74 717.10 698.96 572.81 850.69 261.45 519.70 649.09 411.67 491.37 981.71 1181.06 779.48 592.12 670.02 607.35 642.57 1047.27 424.63 483.42 529.97 703.93 600.55 651.67 307.62 563.35 731.92 763.26 283.18 983.22 467.12 689.95 596.98 690.45 531.91 389.33
546.39 372.36 374.24 328.51 403.81 884.14 970.92 577.58 389.76 322.44 436.82 397.00 359.35 1123.30 382.83 994.29 370.47 676.49 899.53 267.78 645.01 937.44 0.00 656.52 833.96 132.81 359.33 1087.05 578.53 1134.16 893.72 486.31 909.03 978.07 426.64 932.93 457.15 579.61 310.61 914.20 908.09 822.52 460.40 430.07 783.40 410.23 479.07 836.19 468.88 353.00 529.15 685.82 328.14 650.51 458.08 982.01 315.73 424.63 465.29 185.57 319.13 947.85 462.31 690.61 547.85 190.05 567.26 371.09 409.45 934.85 454.75 398.38 521.64 794.13 638.48 1016.55 346.29 1003.75 17.28 115.43 966.87 262.53 916.31 264.91 996.08 468.70 166.82 554.15 543.82 137.11 399.67 1003.82 483.20 769.51 1094.70 569.81 995.19 41.66 983.56 942.02 904.77 324.45 615.79 965.37 716.52 360.29 444.83 977.62 702.23 978.64 472.95 434.60 458.17 118.32 258.16 829.44 321.44 310.77 391.37 1117.56 964.22 1034.31 395.52 931.61 547.77 186.21 608.40 356.02 444.83 748.42 397.34 388.58 736.35 641.01 916.81 918.18 353.94 455.79 394.36 953.22 437.72 376.48 327.16 654.26 166.29 953.95 338.45 428.24 342.54 891.69 970.75
531.65 394.17 615.48 493.59 350.03 473.57 719.83 218.87 305.75 419.27 326.60 363.23 408.89 928.32 534.84 737.39 484.31 443.96 642.59 542.44 805.25 380.31 656.52 0.00 640.49 564.00 419.29 904.88 213.92 867.73 580.73 232.08 469.36 692.02 286.68 739.46 272.50 246.69 410.94 587.84 517.21 276.03 338.12 324.21 902.58 343.55 245.88 570.36 337.54 368.55 127.37 1118.61 492.22 1011.27 281.99 697.40 652.92 306.60 351.27 707.13 412.20 659.47 282.32 224.46 960.69 513.67 480.98 389.16 349.82 646.47 549.58 458.10 145.78 535.30 380.96 850.46 840.65 680.95 673.80 657.79 751.14 457.21 323.18 521.69 707.06 305.25 536.90 152.37 166.96 566.61 336.64 592.48 173.32 715.16 837.80 367.55 760.94 683.29 681.15 391.16 651.97 441.82 865.72 644.83 1050.04 335.22 322.55 625.83 969.51 764.13 845.44 314.49 342.22 687.67 599.80 272.65 431.72 420.39 305.44 922.79 452.81 741.81 308.20 636.32 351.95 688.16 1122.41 481.45 305.59 658.82 353.08 349.29 942.00 391.43 626.85 615.85 393.14 358.62 406.78 498.98 282.43 508.57 511.92 97.13 708.08 651.83 426.25 318.57 361.18 607.53 597.18
541.66 708.40 644.08 854.87 663.94 411.92 136.96 746.13 638.35 807.17 679.33 703.96 623.40 351.26 877.87 160.33 843.76 357.16 65.57 848.55 662.92 552.25 833.96 640.49 0.00 823.09 767.12 318.77 782.08 300.20 59.76 610.90 247.26 144.11 658.22 98.97 680.17 807.00 743.54 107.84 178.47 664.00 696.50 694.50 405.35 687.60 642.34 134.95 723.80 701.15 730.41 848.92 847.63 772.89 673.31 148.05 638.93 663.79 742.75 995.57 669.02 113.89 657.13 491.88 820.78 724.23 461.21 608.13 658.15 100.89 458.90 587.64 705.19 226.90 422.05 255.29 865.44 189.45 851.24 804.71 159.84 761.12 662.81 738.57 162.12 686.88 746.83 754.08 770.86 776.54 640.15 280.62 684.46 251.85 260.74 490.00 161.23 875.62 161.92 371.14 74.45 616.56 692.03 131.41 722.47 667.82 712.07 196.50 692.15 144.68 748.00 593.51 676.42 834.59 673.86 552.15 660.05 764.37 637.31 367.06 316.10 200.35 626.20 170.86 548.85 837.28 884.03 613.55 700.34 308.64 695.80 659.27 614.43 421.65 82.85 88.62 710.58 750.01 812.65 313.66 659.42 537.17 855.97 594.40 817.36 119.99 660.24 664.23 636.68 62.97 210.00
479.49 239.55 347.40 248.00 271.00 791.81 925.05 497.26 260.38 306.31 307.12 295.64 268.16 1032.11 313.88 983.42 289.96 613.74 868.57 180.77 605.72 822.43 132.81 564.00 823.09 0.00 300.47 1036.62 458.73 1053.06 806.71 356.93 795.58 883.71 297.26 922.06 324.34 452.49 177.80 848.09 808.22 753.34 350.45 297.69 738.44 277.42 378.46 782.03 347.04 220.19 459.97 799.42 240.76 713.52 329.04 950.96 288.89 295.25 332.48 227.12 227.94 872.74 332.93 564.35 639.21 98.86 487.92 257.75 276.64 870.52 367.69 308.63 418.22 707.07 542.81 929.49 376.90 901.40 150.09 205.82 908.33 141.06 786.93 207.42 936.27 335.89 79.76 446.68 460.69 89.43 282.15 897.07 414.02 699.77 1012.15 484.88 984.32 168.10 873.87 827.09 791.43 232.12 666.19 895.06 768.73 230.91 352.86 886.43 684.76 943.07 503.56 302.36 349.83 220.53 240.69 696.63 188.63 258.86 258.56 1056.89 847.74 940.75 299.04 840.42 433.10 215.41 732.34 264.83 315.38 721.58 291.67 297.99 733.65 556.08 839.17 789.10 240.25 328.07 261.55 853.98 304.91 289.42 240.15 580.75 196.90 895.87 205.64 295.43 251.35 826.49 863.50
483.00 109.81 452.63 114.37 114.85 677.84 880.45 276.94 159.13 40.05 110.80 81.47 284.58 1045.81 160.31 927.45 76.64 519.10 819.66 204.51 681.38 678.67 359.33 419.29 767.12 300.47 0.00 1057.63 252.51 1016.70 757.80 257.52 725.48 839.11 228.02 866.09 168.87 269.32 122.67 754.96 733.44 593.42 117.24 104.05 819.14 92.12 247.97 695.28 146.28 162.94 291.92 954.14 113.00 848.60 190.18 865.74 437.30 200.27 141.82 372.35 213.52 798.10 253.88 446.25 787.38 233.94 424.29 227.31 121.79 785.10 437.41 382.15 293.14 663.50 466.67 953.56 588.82 831.12 342.05 400.29 871.97 166.36 655.87 348.38 881.19 168.61 257.17 280.64 319.66 286.88 139.03 753.95 271.35 743.41 1006.41 386.26 927.75 399.32 838.44 635.35 755.07 293.59 741.85 801.07 923.05 175.88 123.46 826.07 839.08 911.80 715.48 173.61 245.48 430.17 418.10 580.48 261.27 48.56 142.41 1040.61 697.00 889.04 244.01 786.49 333.30 419.44 867.42 353.18 118.81 686.62 71.32 217.90 829.84 457.46 793.97 774.40 236.86 136.25 97.14 743.17 162.24 385.61 148.29 442.41 439.36 812.00 248.42 133.39 198.76 777.91 747.35
687.00 1000.33 845.00 1136.04 959.11 629.52 282.62 964.45 947.07 1097.68 995.13 1012.72 832.59 117.90 1172.18 167.49 1114.56 538.53 295.63 1138.77 729.12 778.35 1087.05 904.88 318.77 1036.62 1057.63 0.00 973.33 81.51 325.28 877.32 495.64 312.87 890.25 219.80 966.91 1020.83 999.57 367.57 430.05 923.73 976.91 979.03 534.68 981.77 882.03 400.28 1005.95 971.60 916.02 835.44 1128.80 920.93 945.64 267.60 893.61 919.18 1023.16 1209.73 913.39 351.67 868.81 758.03 913.34 937.76 749.04 852.50 952.46 351.88 777.67 727.99 908.51 493.32 678.06 219.31 1088.73 339.75 1069.77 1046.00 234.51 1011.23 848.72 915.30 298.73 1005.65 960.99 941.02 956.47 990.70 934.46 466.53 870.07 481.52 67.08 671.37 209.23 1127.04 349.82 602.17 318.82 840.65 715.23 359.62 802.57 925.34 992.48 412.69 772.98 174.09 1037.84 912.28 871.08 1031.86 915.15 796.93 878.14 1073.09 953.15 172.30 581.62 277.22 877.89 366.68 749.22 1039.38 922.16 771.79 997.65 536.68 1002.57 903.64 694.53 647.33 372.21 355.04 938.52 1030.42 1093.06 562.35 946.16 778.46 1122.26 850.13 1058.65 376.77 867.89 983.00 881.05 317.65 405.82
549.25 236.53 517.42 323.30 243.96 595.31 779.49 110.77 259.27 292.56 192.66 191.34 320.19 995.94 362.01 852.24 292.34 469.23 770.83 407.37 760.02 513.97 578.53 213.92 782.08 458.73 252.51 973.33 0.00 951.27 768.26 218.82 589.14 738.15 264.22 844.95 187.47 47.50 298.28 707.04 636.41 376.18 196.01 167.25 877.55 181.31 171.25 693.07 166.97 272.81 86.55 1053.72 316.06 948.95 204.68 765.18 575.93 252.12 172.96 535.24 331.02 771.98 248.34 366.65 911.65 398.42 459.00 343.93 215.49 765.67 484.69 412.87 141.70 608.09 411.60 906.12 745.74 789.50 570.96 564.77 824.53 353.94 414.97 475.21 796.31 169.44 421.65 109.67 67.15 451.23 219.84 714.67 103.26 746.25 952.65 407.65 858.85 595.98 761.97 593.21 707.63 396.59 820.49 764.61 962.78 267.46 204.59 745.61 901.32 799.24 756.74 232.63 319.76 594.22 537.96 417.58 369.88 277.47 206.94 1033.52 644.15 795.19 262.97 752.71 281.89 583.92 1031.90 397.99 185.87 689.46 181.19 298.63 854.74 360.43 730.74 741.10 338.99 144.70 243.81 606.87 166.72 410.51 349.68 253.09 603.84 743.76 381.02 170.07 315.95 763.42 713.57
688.97 968.68 781.16 1078.85 934.16 595.75 212.00 933.31 889.88 1056.75 961.29 955.53 850.97 187.97 1139.49 139.87 1084.25 607.99 256.67 1110.18 647.61 736.22 1134.16 867.73 300.20 1053.06 1016.70 81.51 951.27 0.00 287.00 849.27 414.13 253.34 864.43 221.77 953.08 996.58 947.05 354.73 391.09 908.78 996.70 940.75 453.17 924.58 843.53 362.19 990.39 914.41 917.99 896.74 1071.61 839.42 907.14 186.09 839.67 885.68 1042.95 1224.51 856.20 300.43 895.68 742.28 906.19 976.35 710.08 795.31 924.07 296.10 759.10 809.50 901.70 460.09 645.22 137.80 1050.20 294.33 1120.26 1045.41 170.67 996.24 803.30 965.81 217.22 978.17 987.53 912.91 955.43 1017.24 935.02 421.11 872.04 454.56 73.71 680.03 153.45 1153.51 289.07 533.12 261.63 891.04 708.08 278.11 770.29 913.53 1012.27 378.92 739.97 176.06 966.80 893.71 833.70 1059.27 914.56 745.34 874.57 1015.90 915.06 205.47 528.16 249.44 876.27 332.91 776.09 1031.22 950.56 853.30 959.37 472.84 945.38 846.45 662.25 608.83 333.25 331.75 898.62 1050.21 1083.67 485.25 945.10 777.87 1075.55 811.17 1011.30 313.18 847.42 951.93 823.86 313.80 372.05
481.90 725.59 611.48 830.90 694.84 352.16 152.63 742.92 687.02 786.83 682.78 694.62 662.05 386.43 872.20 220.09 820.80 320.99 61.86 856.36 700.70 517.79 893.72 580.73 59.76 806.71 757.80 325.28 768.26 287.00 0.00 562.27 215.24 111.29 630.12 158.73 693.84 786.63 742.22 99.62 163.55 655.78 719.35 653.75 465.11 674.02 610.16 75.19 716.54 710.26 681.71 904.38 838.14 769.68 672.28 178.54 595.65 659.05 765.60 957.47 652.05 139.17 608.68 483.93 858.56 753.52 464.32 604.92 672.44 126.17 518.66 641.21 656.56 173.09 378.18 269.73 822.16 169.67 911.00 858.28 170.41 717.25 609.76 678.81 179.17 718.31 776.75 706.71 740.96 806.46 670.19 227.57 667.72 289.63 277.37 453.83 180.21 935.38 173.33 311.38 71.24 671.71 725.57 136.74 751.34 688.29 734.92 215.73 721.75 183.40 807.76 653.27 616.66 888.16 676.09 518.54 628.22 786.81 628.06 363.35 256.34 168.33 654.01 188.74 489.09 854.49 853.45 667.12 672.37 346.42 686.48 637.36 643.30 418.44 94.82 44.75 666.71 772.86 823.94 302.51 674.41 590.74 796.98 548.42 870.93 139.22 601.07 664.93 601.03 26.80 203.61
339.15 186.74 415.41 333.78 143.14 561.24 658.23 214.54 136.97 297.57 161.75 197.11 194.68 878.63 356.21 762.53 334.16 374.43 616.76 326.89 620.12 507.00 486.31 232.08 610.90 356.93 257.52 877.32 218.82 849.27 562.27 0.00 495.50 616.89 72.47 697.01 155.95 241.28 222.84 565.09 558.57 405.30 201.89 169.43 710.02 184.71 47.89 487.08 194.75 199.77 171.96 928.21 326.54 823.44 110.01 684.14 453.16 102.41 248.14 496.43 198.75 616.70 99.84 207.42 777.18 327.83 248.90 186.71 136.49 603.70 359.18 272.97 94.29 504.07 234.90 742.32 645.06 627.63 469.03 491.65 727.05 298.53 548.47 338.18 698.51 181.04 351.06 146.96 189.48 380.77 118.49 619.53 132.73 537.76 810.24 315.43 720.79 485.30 655.16 511.12 610.15 253.58 654.16 634.22 841.92 126.02 217.11 651.97 757.95 738.30 631.23 98.90 128.01 505.78 415.06 415.46 253.99 262.07 142.70 869.72 490.81 673.93 142.09 661.15 213.50 474.71 934.58 272.48 177.42 511.23 186.96 135.57 752.73 282.59 572.35 522.28 197.55 248.06 318.04 536.98 147.97 308.50 353.08 223.82 494.63 629.39 238.82 139.16 183.45 559.67 641.48
475.91 682.24 707.06 816.83 638.64 242.22 253.95 580.26 617.93 765.53 639.89 688.08 566.26 543.35 851.71 371.67 802.12 292.85 228.85 822.39 660.21 329.89 909.03 469.36 247.26 795.58 725.48 495.64 589.14 414.13 215.24 495.50 0.00 237.01 558.84 322.96 612.27 636.64 680.95 171.90 104.74 571.19 678.62 664.93 608.88 673.94 502.72 238.22 649.58 680.73 531.83 1034.81 822.04 938.33 566.33 228.04 656.92 553.03 717.71 947.43 637.28 197.79 574.81 399.85 905.47 735.56 415.46 626.74 631.99 205.99 541.96 643.40 524.32 193.23 368.14 455.87 883.43 240.62 908.33 863.23 375.89 756.64 532.90 714.35 259.17 636.76 758.79 556.83 572.28 788.50 613.99 208.00 485.88 484.08 436.85 339.22 333.31 936.36 214.08 144.05 258.99 650.44 720.68 175.47 908.44 593.19 690.09 156.47 824.47 350.39 883.56 594.40 538.93 873.84 736.84 414.53 606.95 742.49 629.68 530.34 152.33 272.45 573.17 175.50 482.12 890.03 986.12 613.77 660.90 519.18 679.37 614.85 817.96 268.02 210.91 209.60 645.61 727.25 778.37 150.96 594.99 600.15 837.50 512.62 880.34 182.47 634.10 634.66 626.15 202.02 182.74
560.82 777.98 716.68 901.47 724.26 376.83 41.34 727.15 679.98 855.03 760.54 786.25 684.90 330.74 950.20 159.06 915.75 409.56 78.54 929.58 697.42 509.19 978.07 692.02 144.11 883.71 839.11 312.87 738.15 253.34 111.29 616.89 237.01 0.00 611.09 113.39 737.97 753.89 768.95 119.02 189.65 675.18 778.79 765.04 546.42 757.94 664.13 186.48 801.63 742.78 684.57 989.99 894.23 862.92 692.03 67.25 706.94 641.03 825.04 1007.33 721.27 83.38 668.31 513.67 920.15 822.74 531.95 698.16 733.45 70.38 603.01 651.61 703.09 232.89 428.04 295.20 892.03 89.57 995.35 918.08 191.17 767.11 598.54 784.03 81.62 763.06 845.97 659.57 702.09 875.68 721.18 216.35 722.89 369.09 259.34 493.79 120.70 995.43 62.04 367.04 164.48 734.99 739.97 61.54 856.54 677.44 794.36 160.00 826.95 138.78 838.03 675.80 617.13 947.96 787.23 528.77 695.08 806.00 713.15 380.03 305.39 57.04 679.78 113.99 600.38 950.65 903.31 695.41 781.44 408.01 778.09 674.19 748.50 465.63 104.64 94.61 716.57 832.30 876.75 259.22 724.13 650.54 903.92 609.73 930.73 96.61 712.36 742.49 670.25 132.00 153.13
289.65 166.89 356.95 290.38 113.17 520.23 652.43 270.55 68.89 243.94 149.45 175.16 122.21 880.84 339.11 770.15 304.66 383.10 645.19 318.49 565.62 579.47 426.64 286.68 658.22 297.26 228.02 890.25 264.22 864.43 630.12 72.47 558.84 611.09 0.00 724.48 128.85 260.62 157.86 627.18 566.80 477.77 167.70 161.67 637.55 146.85 120.36 554.93 190.54 131.69 225.29 855.74 283.14 750.97 130.80 678.34 380.69 29.94 213.95 481.07 126.28 575.48 80.12 279.89 704.71 255.36 280.90 114.24 122.36 588.48 286.71 218.47 140.90 499.51 254.22 761.64 582.81 666.37 409.36 419.18 754.92 233.55 518.60 265.71 692.53 158.08 278.59 219.43 254.83 308.30 110.09 692.00 179.34 588.87 860.07 255.25 731.13 465.36 639.81 574.28 638.02 181.11 581.69 597.80 769.45 66.35 183.27 678.46 685.48 749.87 558.76 64.71 55.54 433.31 342.59 459.55 181.52 194.91 102.06 889.04 563.28 668.13 74.01 632.45 141.03 402.24 862.11 200.01 170.35 532.08 167.00 63.10 683.72 290.82 637.72 587.65 135.85 221.21 265.66 609.45 113.04 268.94 292.83 296.29 422.16 603.70 166.35 131.40 110.98 625.04 660.80
558.62 807.37 722.02 953.84 762.91 462.86 72.05 836.07 737.32 906.14 777.80 802.93 720.62 284.58 976.84 93.65 942.73 431.53 164.54 947.52 652.03 612.24 932.93 739.46 98.97 922.06 866.09 219.80 844.95 221.77 158.73 697.01 322.96 113.39 724.48 0.00 747.11 867.28 842.51 206.81 274.67 751.20 795.47 793.47 504.32 786.57 741.31 219.97 822.77 800.12 787.64 947.89 946.60 825.53 764.32 97.96 713.30 754.42 841.72 1087.45 767.99 158.83 753.46 590.85 894.94 823.20 560.18 707.10 757.12 171.83 557.87 686.61 780.13 313.01 508.16 181.81 939.81 179.13 950.21 903.68 141.67 847.23 688.10 837.54 112.33 785.85 845.80 772.96 815.48 875.51 739.12 305.91 741.69 330.42 192.01 564.37 112.99 974.59 173.20 428.23 173.42 715.53 696.83 174.93 821.44 766.79 811.04 243.70 791.12 45.71 846.97 692.48 730.52 933.56 772.83 577.13 759.02 863.34 736.28 309.21 404.90 153.90 725.17 200.57 633.87 936.25 936.67 712.52 798.81 387.21 794.77 758.24 713.40 520.62 181.82 174.73 796.69 848.98 911.62 372.61 726.36 636.14 954.94 693.20 916.33 187.05 759.21 763.20 735.65 137.34 239.71
404.09 125.64 448.15 235.01 104.88 621.91 779.31 218.92 123.33 203.55 58.07 106.26 228.00 979.76 287.97 840.50 243.39 453.05 745.62 304.24 679.75 569.45 457.15 272.50 680.17 324.34 168.87 966.91 187.47 953.08 693.84 155.95 612.27 737.97 128.85 747.11 0.00 168.33 187.39 690.86 620.23 469.18 94.91 76.34 766.40 94.78 109.55 618.65 80.27 170.12 157.88 928.64 233.45 856.76 45.94 805.22 440.97 141.66 124.26 449.75 209.04 704.33 183.96 359.30 777.41 338.12 393.47 209.78 110.16 717.33 359.61 332.60 126.72 591.91 383.07 889.94 614.13 754.49 462.47 465.88 808.35 262.28 595.68 338.41 816.14 59.39 353.74 162.52 167.01 358.40 95.84 705.18 129.86 693.71 939.12 361.21 841.40 461.39 752.30 582.62 691.45 285.41 707.71 726.65 895.47 142.12 79.34 749.44 811.50 792.82 651.44 86.66 181.56 489.55 410.00 447.89 241.92 168.98 65.78 1000.41 644.27 786.54 193.45 709.86 258.77 484.58 908.03 305.80 72.07 655.80 97.55 191.95 792.76 344.25 669.04 678.23 166.62 139.23 188.94 659.72 20.75 348.53 263.15 300.92 464.66 713.71 214.77 46.07 194.37 701.28 670.72
527.89 256.61 554.14 286.80 231.71 580.67 795.23 63.27 250.16 257.17 199.02 238.84 367.69 1043.44 340.72 899.74 244.84 516.73 805.33 372.71 807.52 561.47 579.61 246.69 807.00 452.49 269.32 1020.83 47.50 996.58 786.63 241.28 636.64 753.89 260.62 867.28 168.33 0.00 316.76 754.54 683.91 421.33 178.77 211.79 898.17 228.81 218.75 725.84 149.73 307.19 119.32 1087.97 294.04 996.45 183.85 812.68 581.31 272.48 152.90 540.55 355.02 724.77 295.84 363.25 904.24 445.92 490.18 344.73 238.31 737.77 527.94 460.37 189.20 644.92 459.10 933.44 698.24 781.99 593.65 535.76 851.85 377.85 462.47 465.24 835.51 157.80 469.15 94.32 112.30 493.85 231.29 735.53 150.76 763.06 1000.15 455.12 874.59 602.34 770.34 622.54 734.95 427.54 834.54 747.09 1010.28 270.27 181.85 713.96 938.33 846.74 778.27 213.49 308.39 561.09 570.61 465.08 406.69 304.43 193.93 1060.84 637.69 810.93 310.47 737.36 329.39 606.74 1043.71 445.49 220.03 736.96 228.69 320.35 902.24 407.93 772.28 763.56 334.50 162.79 227.60 591.52 147.58 458.01 320.72 300.59 609.06 728.41 383.10 181.52 336.15 791.92 698.22
447.51 61.75 329.96 201.50 93.20 654.89 810.29 322.53 105.19 128.51 129.32 117.84 216.33 986.42 248.77 903.87 193.55 514.18 764.84 197.92 629.15 702.97 310.61 410.94 743.54 177.80 122.67 999.57 298.28 947.05 742.22 222.84 680.95 768.95 157.86 842.51 187.39 316.76 0.00 701.05 630.42 600.99 176.66 132.76 776.72 134.31 229.50 695.40 169.36 42.39 313.62 874.74 194.26 800.81 185.32 827.51 314.63 127.92 179.50 367.46 90.85 733.34 211.92 403.12 687.62 219.93 370.19 151.74 98.84 731.16 349.99 282.00 265.16 597.50 412.08 883.91 533.46 789.19 320.94 282.46 802.32 75.69 665.92 264.64 808.84 197.32 243.16 319.10 291.96 265.39 104.35 719.27 286.44 673.14 971.73 388.63 873.81 332.82 794.36 653.87 685.42 192.33 689.62 755.66 829.73 134.66 175.06 798.36 745.76 886.38 632.29 150.03 213.40 312.34 336.03 581.29 167.95 106.03 143.22 983.72 707.23 825.99 173.26 758.78 288.64 333.54 853.41 249.85 150.33 632.52 117.09 154.87 722.57 448.68 720.78 717.51 114.19 207.76 219.75 753.40 177.33 278.34 203.53 446.66 353.46 758.06 141.15 151.91 141.87 742.39 719.64
441.80 715.15 656.98 831.98 697.66 327.69 160.36 746.47 680.78 795.01 687.50 693.79 644.85 411.32 875.02 243.02 831.60 350.12 115.59 879.18 758.76 444.41 914.20 587.84 107.84 848.09 754.96 367.57 707.04 354.73 99.62 565.09 171.90 119.02 627.18 206.81 690.86 754.54 701.05 0.00 70.63 556.16 722.17 698.02 513.19 681.17 581.31 78.01 719.36 658.66 684.53 956.76 824.74 846.43 644.92 181.17 598.47 657.12 768.42 952.25 684.30 71.63 549.29 448.04 869.23 781.63 467.14 623.41 675.26 58.63 553.60 644.03 639.48 175.91 372.96 346.48 824.98 146.79 923.14 861.10 264.89 761.58 576.80 718.40 168.05 715.95 773.60 678.89 696.12 803.31 673.01 194.61 657.78 359.69 343.43 417.81 201.28 955.86 122.27 282.87 147.99 615.97 797.72 89.15 827.04 651.31 733.10 159.69 797.45 237.13 826.28 663.99 617.52 890.98 678.91 514.19 659.46 785.25 630.88 417.08 251.99 156.51 647.16 128.60 491.91 877.31 897.78 669.94 700.57 357.09 683.64 640.18 719.00 346.61 39.01 89.08 707.09 775.68 826.76 205.82 677.23 593.56 819.80 490.71 857.39 83.18 670.23 667.75 651.96 102.50 103.99
371.17 669.91 638.52 761.35 674.90 332.92 202.62 681.92 630.62 734.91 647.85 689.80 574.22 458.99 842.93 308.96 799.95 296.03 134.42 808.55 710.03 433.11 908.09 517.21 178.47 808.22 733.44 430.05 636.41 391.09 163.55 558.57 104.74 189.65 566.80 274.67 620.23 683.91 630.42 70.63 0.00 624.96 660.22 676.88 504.14 684.56 510.68 148.64 657.54 588.03 626.70 947.71 754.11 899.67 574.29 227.04 616.14 596.74 706.47 954.78 613.67 142.26 582.77 424.80 855.51 733.82 458.37 552.78 661.93 129.26 482.97 581.35 568.85 113.96 375.49 398.11 842.65 191.47 890.81 799.15 308.47 702.11 517.54 658.41 195.91 645.32 741.27 651.70 630.01 770.98 655.26 135.35 590.62 430.32 394.83 347.18 271.91 910.98 163.94 248.79 201.23 640.63 770.50 149.86 821.26 601.15 675.79 188.68 790.94 255.96 824.57 631.51 546.89 829.03 668.30 499.30 632.04 730.46 644.77 435.91 237.10 227.14 581.13 151.64 492.33 831.72 968.41 607.99 668.86 427.72 679.65 578.23 713.22 275.98 109.64 159.71 650.98 713.73 776.37 197.94 612.25 531.61 749.17 420.08 811.80 153.81 604.89 658.39 581.33 144.26 112.50
600.29 539.24 781.26 664.06 529.68 406.93 716.52 360.94 517.46 633.47 499.87 532.25 599.98 967.48 676.91 799.18 666.17 499.40 657.48 729.05 1015.27 241.30 822.52 276.03 664.00 753.34 593.42 923.73 376.18 908.78 655.78 405.30 571.19 675.18 477.77 751.20 469.18 421.33 600.99 556.16 624.96 0.00 511.75 515.96 987.41 501.30 453.19 634.17 489.59 580.26 357.04 1205.57 656.82 1175.28 486.39 722.69 754.65 507.71 549.14 876.15 604.05 627.79 484.40 292.10 1119.89 733.13 510.04 592.01 539.16 614.79 636.54 668.12 357.49 602.94 490.72 902.64 981.16 662.81 839.80 823.79 821.05 675.88 258.52 733.40 720.23 451.40 756.36 351.55 309.03 767.10 522.76 571.69 339.32 821.81 899.59 461.80 757.44 864.18 648.16 482.52 704.15 658.88 1030.50 641.30 1151.88 528.56 524.20 651.17 1104.66 779.02 978.14 504.20 529.36 853.67 755.07 174.07 638.80 584.59 494.78 958.97 436.27 678.66 547.39 652.97 404.61 880.01 1220.39 624.32 520.88 768.58 522.10 540.87 1144.93 390.60 595.17 645.24 589.01 520.88 548.85 482.44 448.43 700.70 669.67 204.88 899.93 606.23 611.65 494.57 588.75 658.66 630.63
457.35 128.88 471.77 196.59 118.21 646.71 820.13 159.70 147.83 157.29 76.49 93.30 288.69 965.09 244.21 856.83 193.88 438.38 762.07 269.44 701.48 570.41 460.40 338.12 696.50 350.45 117.24 976.91 196.01 996.70 719.35 201.89 678.62 778.79 167.70 795.47 94.91 178.77 176.66 722.17 660.22 511.75 0.00 74.10 805.25 93.44 175.90 644.16 29.04 174.77 210.75 965.69 189.35 881.69 126.70 844.55 454.47 173.27 46.25 422.75 232.98 740.23 236.48 375.63 790.74 351.18 421.51 219.42 90.66 753.23 427.04 364.52 221.63 546.26 421.92 929.34 639.44 780.60 443.12 459.12 856.34 243.35 597.89 351.74 849.44 60.35 374.41 214.21 209.60 353.19 108.66 689.17 197.85 739.65 955.88 419.48 857.73 479.81 773.63 550.06 752.43 311.45 742.22 761.07 917.13 165.51 15.57 775.55 835.25 841.18 655.99 102.99 223.24 444.47 397.77 513.36 277.07 149.63 91.89 1019.49 611.71 807.87 214.62 735.97 283.98 493.03 933.34 343.84 55.48 683.84 83.15 204.80 809.09 410.60 690.37 684.54 191.93 53.51 116.15 657.88 88.74 364.86 222.30 368.91 492.44 758.00 271.53 88.61 233.82 721.93 696.83
444.41 88.07 403.90 191.80 81.35 616.48 806.38 233.80 98.23 133.08 29.03 40.87 215.52 974.34 248.12 854.83 167.05 447.63 715.61 248.02 628.31 574.62 430.07 324.21 694.50 297.69 104.05 979.03 167.25 940.75 653.75 169.43 664.93 765.04 161.67 793.47 76.34 211.79 132.76 698.02 676.88 515.96 74.10 0.00 799.22 20.27 166.20 620.01 89.84 106.58 196.84 911.42 184.56 844.28 108.41 832.29 424.24 141.18 120.35 384.77 164.79 737.15 182.03 373.63 751.81 293.87 373.95 189.19 60.43 724.20 378.43 320.12 197.83 618.10 384.90 881.71 630.63 755.85 420.59 415.22 800.12 203.47 582.22 314.17 822.10 64.56 317.10 196.56 234.40 300.76 78.43 693.35 185.52 693.07 931.12 370.87 833.96 432.35 763.17 553.58 683.22 252.33 688.78 754.72 870.62 116.90 85.16 750.80 786.65 837.15 652.07 100.99 204.10 433.18 376.92 492.51 208.84 133.06 67.14 1001.77 615.23 817.19 185.03 711.22 266.85 440.60 892.46 293.32 18.62 636.28 32.73 156.58 777.20 400.90 725.69 691.71 188.43 127.61 178.41 661.40 76.41 360.40 188.64 356.58 460.52 751.10 223.21 30.27 184.22 680.55 672.08
596.34 798.35 547.41 856.71 750.72 714.06 505.08 868.67 706.44 844.91 787.00 799.92 643.72 553.59 932.36 565.68 895.78 657.83 470.92 865.66 351.88 879.69 783.40 902.58 405.35 738.44 819.14 534.68 877.55 453.17 465.11 710.02 608.88 546.42 637.55 504.32 766.40 898.17 776.72 513.19 504.14 987.41 805.25 799.22 0.00 784.40 757.91 540.30 828.09 744.08 820.24 443.57 858.81 445.37 768.35 530.99 488.90 667.49 851.50 911.55 685.87 519.24 717.67 763.73 507.22 639.58 506.09 688.03 759.91 506.24 561.81 568.26 778.45 569.71 521.62 489.72 640.29 594.80 793.11 694.96 451.45 772.29 1004.74 591.42 545.36 795.63 662.81 845.24 860.69 692.52 747.64 639.49 774.29 262.72 526.88 602.15 566.58 825.06 567.27 665.15 479.80 634.78 309.11 536.76 317.12 703.90 820.82 601.85 286.80 547.41 513.63 702.26 693.09 665.08 591.05 902.95 608.77 770.58 739.61 499.19 640.75 586.93 705.17 571.82 758.59 669.61 522.83 565.92 807.90 243.76 804.55 663.49 209.08 621.74 488.20 493.97 693.91 858.76 880.79 686.92 750.59 517.79 878.00 865.77 649.69 525.34 635.92 768.95 679.31 468.32 610.96
432.48 72.56 409.74 179.87 73.89 604.27 793.86 235.67 77.96 132.17 36.71 30.95 195.25 994.61 252.43 847.93 168.76 467.90 735.88 227.75 608.04 594.89 410.23 343.55 687.60 277.42 92.12 981.77 181.31 924.58 674.02 184.71 673.94 757.94 146.85 786.57 94.78 228.81 134.31 681.17 684.56 501.30 93.44 20.27 784.40 0.00 173.88 603.16 110.11 112.42 216.18 891.15 172.63 824.01 116.09 819.77 412.03 120.91 135.75 374.85 170.63 716.93 161.76 366.73 732.90 294.67 353.68 172.53 48.22 703.93 359.75 299.85 209.95 601.14 392.58 861.44 610.36 739.00 406.28 416.77 779.85 193.55 596.28 293.90 801.83 84.83 317.90 216.83 234.07 290.84 66.22 681.14 197.26 672.80 933.60 361.40 846.58 440.03 746.32 561.26 662.95 232.06 668.51 734.45 850.35 107.43 97.93 733.95 766.38 832.28 631.80 94.09 191.89 412.91 356.65 488.36 188.57 112.79 50.29 984.92 622.91 796.92 175.56 694.37 259.73 430.68 910.37 273.05 37.96 616.01 20.80 136.87 757.49 408.58 709.45 703.17 168.96 145.15 159.09 669.08 88.15 340.13 168.37 368.32 450.60 730.83 202.94 50.54 163.95 685.79 655.23
387.04 187.65 439.83 314.11 169.23 513.35 705.47 212.13 166.48 288.02 137.17 185.36 242.57 870.21 378.23 802.67 324.61 343.50 636.07 352.98 668.01 527.30 479.07 245.88 642.34 378.46 247.97 882.03 171.25 843.53 610.16 47.89 502.72 664.13 120.36 741.31 109.55 218.75 229.50 581.31 510.68 453.19 175.90 166.20 757.91 173.88 0.00 534.97 146.86 229.28 163.70 955.09 321.35 837.21 63.61 726.55 461.07 101.58 214.99 522.52 224.16 627.18 91.30 255.31 769.07 344.41 296.79 195.18 151.25 626.05 407.07 320.86 100.10 482.36 282.79 780.39 649.99 670.28 476.70 508.92 698.80 287.76 527.89 330.07 706.59 134.64 365.80 188.70 193.76 356.87 144.58 646.03 117.75 584.63 858.13 305.90 763.94 437.41 642.75 559.01 581.90 262.05 667.23 634.53 854.99 147.55 188.89 659.19 771.02 757.61 679.12 126.28 175.90 531.19 423.53 392.56 262.46 239.77 134.09 907.79 538.70 676.99 173.64 613.26 171.59 496.71 939.36 286.25 158.18 559.12 176.65 144.04 764.66 234.70 559.49 570.17 216.79 225.13 276.25 584.87 101.57 356.39 342.25 271.71 516.63 604.16 247.29 147.71 191.92 607.56 605.00
406.79 650.40 578.97 783.03 619.65 334.36 190.70 686.91 622.63 735.33 609.49 634.11 621.70 442.75 797.01 295.28 771.92 272.11 137.05 803.40 680.75 477.41 836.19 570.36 134.95 782.03 695.28 400.28 693.07 362.19 75.19 487.08 238.22 186.48 554.93 219.97 618.65 725.84 695.40 78.01 148.64 634.17 644.16 620.01 540.30 603.16 534.97 0.00 641.35 678.47 606.52 960.21 775.79 821.51 597.09 216.61 520.46 583.86 690.41 926.93 642.29 149.64 533.49 408.74 821.70 748.44 389.13 613.31 597.25 136.64 515.63 566.02 581.37 97.90 347.64 306.44 746.97 211.77 853.47 783.09 239.97 756.50 625.04 655.91 230.98 661.88 725.21 631.52 665.77 754.92 595.00 272.62 592.53 284.37 333.20 404.95 255.40 877.85 184.24 236.19 123.07 636.89 724.55 167.16 807.17 613.10 659.73 218.82 777.58 258.59 838.12 585.98 541.47 812.97 600.90 532.62 593.40 712.65 552.87 433.84 297.84 223.79 596.02 177.09 413.90 815.66 908.71 591.93 622.56 341.16 623.96 562.17 699.13 345.56 106.29 100.01 629.08 697.67 748.75 266.86 599.22 515.55 771.53 473.23 795.74 142.31 592.22 589.74 610.05 82.63 182.00
452.16 146.17 461.49 195.64 133.99 660.21 832.05 153.17 156.63 146.44 82.16 104.17 287.60 994.13 266.35 884.13 211.48 467.42 778.40 240.40 704.94 555.42 468.88 337.54 723.80 347.04 146.28 1005.95 166.97 990.39 716.54 194.75 649.58 801.63 190.54 822.77 80.27 149.73 169.36 719.36 657.54 489.59 29.04 89.84 828.09 110.11 146.86 641.35 0.00 164.17 210.17 994.73 188.40 908.75 116.39 857.96 480.74 173.12 68.13 409.94 222.38 766.02 213.74 390.87 806.52 351.46 437.89 245.69 116.93 772.91 426.35 382.85 206.99 575.30 429.65 927.25 657.50 777.19 470.50 451.82 845.66 245.05 581.94 367.52 848.25 45.36 374.69 185.17 180.56 364.06 109.34 691.15 196.24 731.49 974.55 418.79 885.03 485.48 784.51 579.10 728.76 314.11 738.81 781.39 926.57 164.82 42.95 770.22 842.60 868.48 685.03 130.29 235.01 471.85 426.81 521.81 298.68 177.01 88.48 1005.24 640.75 823.85 232.95 732.56 311.36 498.34 921.76 357.79 77.90 700.22 94.02 205.48 826.10 381.56 706.35 713.58 220.97 82.55 145.19 657.05 101.02 392.16 229.56 367.30 518.26 751.02 293.66 59.57 242.62 723.98 693.42
419.40 81.88 297.32 195.06 107.08 651.92 784.12 317.34 62.80 146.88 112.05 101.77 190.26 974.74 267.14 861.48 211.92 479.08 722.45 220.52 598.41 678.68 353.00 368.55 701.15 220.19 162.94 971.60 272.81 914.41 710.26 199.77 680.73 742.78 131.69 800.12 170.12 307.19 42.39 658.66 588.03 580.26 174.77 106.58 744.08 112.42 229.28 678.47 164.17 0.00 277.11 842.10 202.30 758.42 187.44 810.03 355.83 127.70 206.57 390.06 58.21 701.77 194.29 380.28 645.23 187.29 353.44 119.10 115.61 688.77 307.60 251.26 222.77 587.53 385.91 851.27 534.09 761.02 342.83 324.85 769.68 114.08 648.29 222.25 783.94 171.14 210.52 301.38 312.09 223.00 110.09 723.38 261.21 642.40 958.39 346.24 831.42 375.21 751.97 636.60 652.78 149.94 658.88 719.29 797.09 92.27 160.29 755.97 713.12 843.99 626.81 107.64 187.23 354.73 303.39 543.94 135.31 142.43 125.60 951.08 690.58 795.89 155.88 716.39 272.72 334.17 820.77 207.46 125.20 615.77 91.62 129.91 728.07 417.44 678.39 684.87 97.61 220.18 238.12 715.34 159.61 283.84 161.14 423.59 354.09 715.67 150.62 134.64 109.23 709.75 677.25
462.70 266.80 554.39 366.22 233.92 531.29 725.91 92.58 231.96 291.90 199.23 235.86 347.50 967.89 412.16 794.93 356.94 441.18 733.94 417.29 744.16 499.08 529.15 127.37 730.41 459.97 291.92 916.02 86.55 917.99 681.71 171.96 531.83 684.57 225.29 787.64 157.88 119.32 313.62 684.53 626.70 357.04 210.75 196.84 820.24 216.18 163.70 606.52 210.17 277.11 0.00 1004.02 364.85 950.18 165.19 751.82 562.65 245.21 223.90 579.76 319.94 687.31 181.62 293.93 854.34 438.65 372.45 321.96 227.27 685.99 434.99 397.01 84.39 533.33 354.29 861.71 743.15 702.95 546.43 530.42 814.82 389.31 450.55 447.90 757.13 177.88 461.88 25.00 59.25 466.41 209.27 666.21 45.95 688.94 895.34 383.41 805.27 570.81 675.42 518.53 697.92 388.83 760.23 694.16 947.99 235.19 195.18 688.30 864.02 741.93 776.59 187.12 234.08 560.30 504.82 400.02 380.78 324.11 201.41 989.11 568.37 741.61 296.73 668.04 224.58 595.90 1033.30 424.06 178.22 632.15 225.71 270.82 891.44 350.72 677.44 671.61 295.64 231.25 299.07 522.20 155.06 447.48 384.55 215.90 601.85 659.09 365.53 201.20 317.95 689.15 628.90
680.83 896.37 544.78 878.93 904.31 1139.17 948.65 1096.60 860.03 944.64 927.86 922.10 733.53 953.34 960.51 1002.93 920.89 891.14 914.49 922.05 406.87 1222.68 685.82 1118.61 848.92 799.42 954.14 835.44 1053.72 896.74 904.38 928.21 1034.81 989.99 855.74 947.89 928.64 1087.97 874.74 956.76 947.71 1205.57 965.69 911.42 443.57 891.15 955.09 960.21 994.73 842.10 1004.02 0.00 871.69 167.45 952.84 974.56 603.29 853.51 1011.94 871.39 783.89 962.81 932.58 1010.73 265.68 720.20 695.53 802.97 905.41 949.81 569.03 697.77 972.83 926.10 760.40 869.07 436.36 1038.37 671.55 693.86 895.02 887.09 1308.44 704.68 988.93 975.98 719.66 1029.02 1060.34 749.37 907.32 1083.06 1008.51 706.29 902.52 840.93 1010.15 727.48 1010.84 1091.03 865.89 726.69 346.40 980.33 295.70 830.56 981.26 1027.77 328.90 990.98 309.70 904.87 834.85 664.33 650.37 1133.04 770.18 906.22 906.90 942.76 1084.32 1024.90 814.76 981.76 916.07 636.28 86.72 701.72 929.11 687.33 911.95 842.00 400.47 860.52 931.77 895.42 826.31 1015.87 979.66 1130.49 940.39 647.30 912.85 1104.55 616.36 968.91 784.49 941.69 817.95 877.58 1020.90
554.21 169.50 493.27 7.24 201.55 758.35 935.57 340.55 214.25 72.95 184.18 161.98 349.65 1083.42 88.82 1007.96 49.20 625.23 888.53 100.54 774.47 743.82 328.14 492.22 847.63 240.76 113.00 1128.80 316.06 1071.61 838.14 326.54 822.04 894.23 283.14 946.60 233.45 294.04 194.26 824.74 754.11 656.82 189.35 184.56 858.81 172.63 321.35 775.79 188.40 202.30 364.85 871.69 0.00 899.27 263.56 961.48 501.34 279.15 143.10 270.08 254.16 853.22 334.39 526.76 815.17 297.80 463.96 276.30 202.30 840.22 505.25 436.65 360.17 732.68 537.36 1008.47 602.26 911.63 345.42 388.13 926.88 169.32 715.74 376.17 949.64 233.76 292.21 347.52 347.79 262.50 220.30 835.22 342.63 783.08 1087.68 497.69 982.87 366.02 909.05 708.73 809.98 352.24 834.94 870.74 971.19 243.72 185.91 906.58 887.22 992.31 651.40 254.12 321.98 418.01 453.14 647.04 331.26 88.23 222.92 1105.68 770.38 951.27 310.09 867.00 413.81 402.34 931.28 392.85 199.32 726.29 151.83 268.41 889.03 556.05 863.75 839.47 270.70 171.36 107.97 816.55 233.52 451.89 41.16 513.69 422.26 867.12 314.70 187.38 263.83 858.42 827.86
651.11 824.64 568.86 905.22 823.00 1083.19 897.58 1020.55 787.18 888.65 856.67 854.96 628.76 812.92 914.09 919.18 925.24 780.73 824.48 840.74 278.12 1216.40 650.51 1011.27 772.89 713.52 848.60 920.93 948.95 839.42 769.68 823.44 938.33 862.92 750.97 825.53 856.76 996.45 800.81 846.43 899.67 1175.28 881.69 844.28 445.37 824.01 837.21 821.51 908.75 758.42 950.18 167.45 899.27 0.00 841.86 908.09 510.35 735.63 927.94 784.90 712.16 875.11 831.09 946.89 192.44 614.66 715.97 711.48 804.14 864.46 589.47 553.17 890.63 840.80 754.12 701.62 374.53 918.21 666.12 615.24 776.06 775.13 1246.61 631.44 876.96 895.37 637.89 970.17 1000.98 667.60 817.06 950.11 929.07 661.08 883.06 834.65 904.45 608.85 890.68 1057.37 698.44 619.82 220.90 882.46 128.25 771.20 897.26 929.72 212.22 871.24 247.87 805.91 716.10 585.36 483.92 1144.13 652.00 855.58 820.27 829.02 1026.02 857.45 703.07 898.63 835.86 548.30 111.14 550.96 861.97 613.54 844.81 720.92 236.29 854.24 807.42 792.80 737.14 935.20 888.78 1035.97 858.20 603.64 900.12 1047.26 537.39 875.05 664.52 853.46 714.58 755.41 859.49
420.45 124.04 439.88 256.32 105.62 576.96 733.37 182.32 124.64 226.35 79.38 127.57 253.01 933.82 314.62 833.64 266.82 407.11 699.68 289.37 681.85 581.09 458.08 281.99 673.31 329.04 190.18 945.64 204.68 907.14 672.28 110.01 566.33 692.03 130.80 764.32 45.94 183.85 185.32 644.92 574.29 486.39 126.70 108.41 768.35 116.09 63.61 597.09 116.39 187.44 165.19 952.84 263.56 841.86 0.00 759.28 397.46 106.23 161.22 458.91 200.77 690.79 154.91 317.43 778.15 329.85 358.91 182.06 98.97 689.66 383.81 334.70 136.21 545.97 344.91 844.00 605.86 733.89 440.80 467.78 762.41 224.15 591.50 339.15 770.20 71.03 345.47 179.73 186.47 343.53 80.97 695.89 147.07 647.77 920.25 369.51 812.73 482.70 706.36 603.93 645.51 268.12 712.49 698.14 893.94 122.28 125.28 722.80 812.06 810.03 668.65 79.80 186.34 497.66 411.57 456.17 243.49 176.16 70.48 971.40 600.82 740.60 190.41 676.87 235.20 476.73 899.76 290.90 100.39 621.24 118.86 177.11 785.90 298.31 623.10 632.29 158.35 161.52 212.64 646.99 37.96 341.67 283.58 318.13 496.65 667.77 234.17 84.10 210.61 669.68 668.61
582.62 831.99 744.95 968.72 778.24 409.66 25.91 794.40 747.23 905.79 825.20 849.71 719.14 315.31 1011.00 143.63 942.38 426.94 129.42 981.68 749.99 550.13 982.01 697.40 148.05 950.96 865.74 267.60 765.18 186.09 178.54 684.14 228.04 67.25 678.34 97.96 805.22 812.68 827.51 181.17 227.04 722.69 844.55 832.29 530.99 819.77 726.55 216.61 857.96 810.03 751.82 974.56 961.48 908.09 759.28 0.00 737.07 699.59 890.80 1074.58 759.95 114.34 730.46 576.09 922.65 868.54 582.83 699.06 791.28 122.54 606.95 658.77 733.57 300.14 495.29 279.77 900.16 108.24 999.29 952.76 208.07 834.36 617.21 846.08 31.13 830.31 891.77 726.82 769.34 921.48 773.28 235.02 713.92 399.90 208.81 559.78 105.27 1023.67 102.98 347.03 209.65 764.61 724.54 92.02 848.11 744.69 860.12 192.83 817.79 134.44 868.99 741.56 647.61 962.64 817.51 559.25 762.33 873.25 769.48 369.71 342.07 63.35 710.26 146.82 626.26 938.78 970.56 702.57 839.17 456.69 840.57 741.44 740.07 496.06 167.06 161.86 783.82 898.06 944.00 299.16 791.38 685.22 971.17 647.12 958.70 127.09 751.17 806.35 727.61 198.43 185.96
291.15 376.38 58.51 508.58 366.19 763.22 711.16 579.78 365.35 443.14 416.34 424.43 269.41 853.10 498.33 799.26 508.18 489.74 648.61 443.13 427.82 813.30 315.73 652.92 638.93 288.89 437.30 893.61 575.93 839.67 595.65 453.16 656.92 706.94 380.69 713.30 440.97 581.31 314.63 598.47 616.14 754.65 454.47 424.24 488.90 412.03 461.07 520.46 480.74 355.83 562.65 603.29 501.34 510.35 397.46 737.07 0.00 376.28 494.13 457.87 297.62 670.10 447.90 492.88 487.43 232.36 299.80 283.75 363.81 657.10 243.69 194.82 521.59 583.07 413.20 754.62 226.51 732.23 333.01 333.44 669.00 362.41 836.02 170.88 751.44 468.49 209.13 577.19 575.66 238.84 381.81 751.49 524.04 489.48 826.53 456.21 775.86 357.39 704.70 695.30 632.93 230.86 455.53 687.62 630.19 345.88 470.04 739.28 546.22 759.01 317.66 378.06 357.75 357.51 102.15 706.67 258.79 420.66 408.19 882.02 756.95 740.11 344.72 697.55 350.04 335.84 561.73 191.61 428.92 432.69 414.28 317.59 571.31 497.55 626.75 613.35 274.35 507.98 529.43 787.32 435.42 165.42 502.51 620.21 319.11 662.77 231.64 431.58 312.30 575.96 702.46
319.59 145.57 341.61 286.39 87.37 550.17 682.37 288.55 64.90 239.95 140.42 150.12 152.15 910.78 328.78 800.09 276.91 413.04 675.13 318.82 575.62 609.41 424.63 306.60 663.79 295.25 200.27 919.18 252.12 885.68 659.05 102.41 553.03 641.03 29.94 754.42 141.66 272.48 127.92 657.12 596.74 507.71 173.27 141.18 667.49 120.91 101.58 583.86 173.12 127.70 245.21 853.51 279.15 735.63 106.23 699.59 376.28 0.00 219.52 488.36 149.09 605.42 110.06 275.20 719.84 278.17 303.28 117.57 92.42 618.42 316.65 228.47 160.82 529.45 284.16 791.58 563.79 696.31 407.35 410.38 768.15 203.61 548.54 280.84 680.92 163.65 301.40 234.54 274.75 331.11 110.42 687.31 199.26 594.76 890.01 285.19 761.07 460.74 669.75 573.24 651.25 198.69 611.63 627.74 799.39 64.34 188.84 708.40 715.42 779.81 588.70 70.28 85.48 440.26 336.99 481.99 196.83 190.92 84.64 918.98 593.22 698.07 96.39 662.39 169.96 425.05 846.77 184.67 150.10 537.97 141.71 80.68 701.30 320.76 661.07 617.59 135.87 226.73 263.65 639.39 124.90 261.05 288.84 326.23 444.97 633.64 169.68 117.83 128.56 654.98 679.35
503.60 160.89 492.09 150.34 164.46 692.96 866.38 197.45 194.08 174.63 122.74 104.80 331.00 1011.34 217.13 903.08 192.30 484.63 808.32 243.64 743.79 616.66 465.29 351.27 742.75 332.48 141.82 1023.16 172.96 1042.95 765.60 248.14 717.71 825.04 213.95 841.72 124.26 152.90 179.50 768.42 706.47 549.14 46.25 120.35 851.50 135.75 214.99 690.41 68.13 206.57 223.90 1011.94 143.10 927.94 161.22 890.80 494.13 219.52 0.00 413.18 252.98 786.48 281.87 421.88 836.99 375.76 467.76 265.67 136.91 799.48 473.29 410.77 250.98 592.51 468.17 975.59 685.69 826.85 466.77 461.96 902.59 255.19 572.64 397.99 895.69 106.60 389.17 228.40 240.11 364.69 154.91 735.42 244.10 785.90 1002.13 465.73 903.98 500.58 819.88 596.31 796.89 343.25 788.47 807.32 963.38 211.76 61.82 821.80 881.50 887.43 702.24 149.24 269.49 490.72 444.02 559.61 323.32 173.28 138.14 1065.74 657.96 854.12 260.87 782.22 330.23 504.53 979.59 390.09 101.73 730.09 114.95 241.23 855.34 449.69 736.62 730.79 238.18 28.26 89.07 704.13 134.99 411.11 184.26 401.21 518.72 804.25 317.78 127.70 277.52 768.18 743.08
648.47 399.99 516.38 262.84 402.59 945.69 1048.67 547.12 425.23 337.16 391.68 343.90 441.27 1205.22 275.27 1144.80 295.71 718.82 970.26 169.54 779.40 959.39 185.57 707.13 995.57 227.12 372.35 1209.73 535.24 1224.51 957.47 496.43 947.43 1007.33 481.07 1087.45 449.75 540.55 367.46 952.25 954.78 876.15 422.75 384.77 911.55 374.85 522.52 926.93 409.94 390.06 579.76 871.39 270.08 784.90 458.91 1074.58 457.87 488.36 413.18 0.00 401.05 992.94 536.61 697.22 733.42 271.97 663.17 453.01 395.94 994.14 536.67 481.74 574.02 848.46 579.29 1086.71 531.86 1069.64 202.85 301.00 1103.59 298.57 950.21 384.18 1088.95 449.33 248.74 581.33 590.50 278.45 377.94 991.34 552.23 872.88 1200.68 659.82 1111.23 176.05 1046.05 916.23 986.69 386.00 801.36 1015.26 902.09 454.70 407.18 1059.54 853.74 1091.80 637.63 424.58 503.61 303.89 409.67 858.14 415.75 325.63 420.07 1214.11 968.90 1064.37 477.44 1013.53 607.45 371.78 793.97 437.94 401.54 857.15 354.05 456.33 902.63 679.41 962.79 912.72 435.86 441.44 378.05 1015.07 443.12 458.40 228.92 720.25 351.86 1021.04 432.76 411.98 424.46 950.11 985.87
370.58 112.48 239.11 246.92 137.39 624.20 762.61 366.44 114.22 205.09 170.26 154.66 136.84 928.48 283.29 829.35 270.13 442.41 713.91 253.98 552.15 705.75 319.13 412.20 669.02 227.94 213.52 913.39 331.02 856.20 652.05 198.75 637.28 721.27 126.28 767.99 209.04 355.02 90.85 684.30 613.67 604.05 232.98 164.79 685.87 170.63 224.16 642.29 222.38 58.21 319.94 783.89 254.16 712.16 200.77 759.95 297.62 149.09 252.98 401.05 0.00 701.76 186.77 406.17 623.50 129.08 295.23 60.89 159.49 708.08 267.24 205.00 267.18 544.39 345.95 793.06 475.88 784.64 301.85 295.43 711.47 157.35 640.77 184.50 773.09 229.35 152.31 343.81 314.53 182.02 141.49 749.02 273.99 596.14 900.18 338.72 800.58 359.12 757.11 622.89 594.57 109.58 612.62 715.10 738.88 84.75 218.50 793.75 654.91 807.43 573.39 159.06 159.51 307.03 245.18 585.83 77.10 187.71 161.09 892.87 655.76 753.58 104.00 758.73 267.31 275.96 762.56 161.20 183.41 557.56 149.83 80.12 673.83 409.15 676.73 626.66 42.42 278.39 232.14 701.93 207.44 229.60 219.35 422.57 295.88 729.98 92.41 191.26 51.02 651.54 726.17
513.43 736.97 688.88 860.46 683.25 304.03 124.72 729.89 638.97 814.02 719.53 741.23 633.76 365.69 914.59 197.39 874.74 363.26 80.56 893.97 744.64 468.64 947.85 659.47 113.89 872.74 798.10 351.67 771.98 300.43 139.17 616.70 197.79 83.38 575.48 158.83 704.33 724.77 733.34 71.63 142.26 627.79 740.23 737.15 519.24 716.93 627.18 149.64 766.02 701.77 687.31 962.81 853.22 875.11 690.79 114.34 670.10 605.42 786.48 992.94 701.76 0.00 620.92 476.72 852.29 798.53 527.05 689.72 697.84 13.00 572.79 612.39 663.87 193.97 413.65 340.64 834.65 90.89 965.13 879.16 254.61 766.92 549.60 747.08 117.05 733.56 821.28 662.31 704.83 850.99 685.57 167.41 683.67 365.74 284.59 459.26 155.65 989.51 64.33 307.72 176.67 687.60 752.09 22.32 832.22 641.83 755.80 102.98 748.25 202.10 754.65 640.19 577.91 909.04 748.31 460.38 694.89 764.99 677.54 382.05 246.07 119.30 638.87 56.97 563.54 911.73 903.12 656.19 740.54 385.77 731.08 638.58 728.32 418.24 67.69 94.42 711.33 793.74 841.14 252.65 688.52 611.62 862.91 562.34 891.81 28.22 711.79 706.88 670.06 131.81 96.11
335.98 198.97 422.84 341.63 174.29 466.35 709.65 233.86 131.49 293.93 176.76 192.71 202.33 899.42 401.54 792.31 330.52 395.22 646.66 372.22 625.45 592.45 462.31 282.32 657.13 332.93 253.88 868.81 248.34 895.68 608.68 99.84 574.81 668.31 80.12 753.46 183.96 295.84 211.92 549.29 582.77 484.40 236.48 182.03 717.67 161.76 91.30 533.49 213.74 194.29 181.62 932.58 334.39 831.09 154.91 730.46 447.90 110.06 281.87 536.61 186.77 620.92 0.00 262.43 745.04 315.85 253.44 164.65 145.82 607.92 363.55 278.30 136.54 512.29 255.69 763.11 621.06 696.08 445.03 482.20 770.89 287.61 454.00 335.80 717.34 225.94 339.08 206.62 231.48 368.79 163.82 674.54 145.08 572.56 866.69 265.57 750.57 501.03 671.56 494.16 653.99 261.23 661.00 638.44 848.76 102.02 232.12 694.95 764.79 768.20 638.88 144.83 134.85 493.80 411.99 457.71 243.91 257.51 165.90 890.51 555.81 705.80 147.34 677.89 119.59 462.73 914.96 280.13 197.77 515.77 182.56 143.22 763.84 306.79 588.30 589.12 173.55 263.07 301.33 601.98 192.87 328.77 330.13 316.14 482.65 632.47 216.76 154.17 191.10 616.12 653.28
429.81 387.53 551.39 534.00 343.07 354.81 555.01 336.51 317.48 486.30 358.46 383.09 402.10 746.21 557.00 648.09 522.89 219.50 485.61 527.68 761.53 348.53 690.61 224.46 491.88 564.35 446.25 758.03 366.65 742.28 483.93 207.42 399.85 513.67 279.89 590.85 359.30 363.25 403.12 448.04 424.80 292.10 375.63 373.63 763.73 366.73 255.31 408.74 390.87 380.28 293.93 1010.73 526.76 946.89 317.43 576.09 492.88 275.20 421.88 697.22 406.17 476.72 262.43 0.00 934.35 534.12 363.73 392.38 337.28 475.59 441.70 425.53 263.91 310.84 250.33 712.66 716.68 519.82 673.33 676.61 631.07 478.81 442.72 495.35 559.95 345.51 557.35 268.93 299.50 581.84 319.28 412.11 293.03 529.71 737.08 233.99 613.48 692.72 492.29 303.70 514.17 431.44 796.79 484.07 871.98 333.44 391.20 520.44 900.58 607.15 783.30 272.64 270.64 706.49 462.97 213.79 387.95 443.50 316.44 787.10 365.35 518.38 333.29 502.95 142.84 671.03 991.54 450.58 379.47 528.19 374.93 341.24 905.44 166.97 409.03 449.12 393.65 429.14 487.12 375.51 338.55 476.00 535.10 127.33 690.95 476.66 370.30 343.36 386.27 486.51 502.73
519.60 727.11 545.94 807.93 672.53 1016.53 896.74 902.77 654.94 792.11 735.50 747.00 596.20 858.26 819.01 902.23 849.89 729.91 886.35 797.28 258.58 1165.02 547.85 960.69 820.78 639.21 787.38 913.34 911.65 906.19 858.56 777.18 905.47 920.15 704.71 894.94 777.41 904.24 687.62 869.23 855.51 1119.89 790.74 751.81 507.22 732.90 769.07 821.70 806.52 645.23 854.34 265.68 815.17 192.44 778.15 922.65 487.43 719.84 836.99 733.42 623.50 852.29 745.04 934.35 0.00 586.51 609.85 610.15 701.00 865.29 511.37 598.96 814.91 838.09 702.74 778.86 264.07 937.01 565.13 520.16 753.27 709.92 1168.51 439.00 937.02 793.15 563.28 879.34 894.79 566.80 697.18 990.86 808.39 568.93 971.64 783.27 922.24 589.51 913.48 931.84 793.52 574.75 198.11 874.61 320.69 684.41 801.80 955.27 301.90 849.23 169.77 699.78 682.74 490.28 510.44 1092.75 546.40 780.96 739.31 803.86 993.49 947.72 669.92 909.26 791.51 462.23 178.96 583.03 735.26 512.14 736.85 661.29 380.35 802.86 830.22 831.55 631.54 836.80 851.48 1039.66 756.66 566.95 774.01 971.96 442.31 880.51 573.55 746.95 616.94 850.49 948.40
419.95 241.56 290.87 290.56 266.47 725.35 861.19 477.64 238.48 273.99 297.92 283.74 169.30 933.25 329.13 884.56 310.58 557.21 789.80 226.08 556.92 834.83 190.05 513.67 724.23 98.86 233.94 937.76 398.42 976.35 753.52 327.83 735.56 822.74 255.36 823.20 338.12 445.92 219.93 781.63 733.82 733.13 351.18 293.87 639.58 294.67 344.41 748.44 351.46 187.29 438.65 720.20 297.80 614.66 329.85 868.54 232.36 278.17 375.76 271.97 129.08 798.53 315.85 534.12 586.51 0.00 396.70 181.04 279.75 809.55 311.16 209.77 396.26 650.54 448.43 872.96 354.88 813.70 172.77 166.35 831.62 166.89 769.85 158.67 837.41 346.45 23.23 413.65 443.61 52.94 270.57 852.00 403.07 600.91 984.97 433.68 885.46 230.04 793.51 751.97 714.72 165.66 617.39 799.84 712.20 213.83 347.58 787.57 628.23 844.21 481.54 283.32 268.12 196.23 184.16 714.91 172.63 282.50 290.17 987.65 776.01 866.11 205.47 741.56 391.28 185.50 633.48 165.97 312.49 657.70 278.91 200.37 677.12 467.54 778.20 728.13 171.50 370.19 303.58 817.09 336.52 232.89 285.46 551.65 205.42 797.01 163.82 305.48 152.49 741.62 780.70
90.25 370.61 311.68 471.20 348.77 492.17 573.29 463.44 304.49 450.06 385.05 384.63 232.57 654.47 537.51 621.54 500.93 252.93 453.41 531.82 512.91 575.68 567.26 480.98 461.21 487.92 424.29 749.04 459.00 710.08 464.32 248.90 415.46 531.95 280.90 560.18 393.47 490.18 370.19 467.14 458.37 510.04 421.51 373.95 506.09 353.68 296.79 389.13 437.89 353.44 372.45 695.53 463.96 715.97 358.91 582.83 299.80 303.28 467.76 663.17 295.23 527.05 253.44 363.73 609.85 396.70 0.00 272.76 349.87 525.77 126.50 241.07 343.19 344.41 113.40 620.82 474.16 589.67 549.98 472.31 564.50 427.11 707.44 302.35 578.40 394.42 414.43 395.86 431.70 430.15 344.71 580.26 381.63 319.12 721.95 193.93 622.44 602.67 562.14 395.50 512.20 284.16 520.46 520.13 678.59 275.02 437.08 571.93 594.62 574.95 468.10 318.52 269.54 502.19 341.46 503.41 314.75 375.73 351.36 708.87 457.15 588.99 206.89 559.12 265.83 478.03 725.50 262.16 391.64 262.33 374.48 248.57 639.58 213.52 488.52 446.83 256.00 475.02 473.71 503.32 372.72 204.77 483.15 436.59 484.96 531.44 298.12 388.06 244.21 471.76 519.98
309.69 173.37 258.19 283.54 138.85 608.30 724.97 364.38 94.57 265.98 175.13 187.57 82.72 868.48 344.18 768.46 288.94 420.36 659.72 314.87 517.96 693.71 371.09 389.16 608.13 257.75 227.31 852.50 343.93 795.31 604.92 186.71 626.74 698.16 114.24 707.10 209.78 344.73 151.74 623.41 552.78 592.01 219.42 189.19 688.03 172.53 195.18 613.31 245.69 119.10 321.96 802.97 276.30 711.48 182.06 699.06 283.75 117.57 265.67 453.01 60.89 689.72 164.65 392.38 610.15 181.04 272.76 0.00 128.76 682.04 240.80 170.81 254.54 515.41 285.06 732.17 499.69 744.25 353.81 347.39 650.58 200.93 618.65 171.15 712.20 232.78 204.27 333.67 348.00 233.98 139.71 688.13 276.01 561.95 839.29 287.52 739.69 358.20 716.72 597.44 533.68 106.03 573.77 699.20 724.90 118.22 234.99 741.46 657.07 746.54 519.27 139.41 143.61 367.92 247.34 573.79 79.26 220.59 173.14 859.57 626.78 692.69 80.96 704.42 249.54 319.11 789.11 160.52 196.14 535.09 179.23 51.14 616.86 358.72 642.66 604.19 103.31 272.93 293.03 670.93 197.15 189.30 280.24 410.53 339.03 706.59 52.11 189.48 28.55 590.65 665.28
401.87 53.15 386.95 209.54 28.47 556.05 774.79 250.36 65.29 161.84 52.53 60.62 211.48 968.97 255.72 818.48 198.43 461.66 723.72 226.40 640.03 617.19 409.45 349.82 658.15 276.64 121.79 952.46 215.49 924.07 672.44 136.49 631.99 733.45 122.36 757.12 110.16 238.31 98.84 675.26 661.93 539.16 90.66 60.43 759.91 48.22 151.25 597.25 116.93 115.61 227.27 905.41 202.30 804.14 98.97 791.28 363.81 92.42 136.91 395.94 159.49 697.84 145.82 337.28 701.00 279.75 349.87 128.76 0.00 691.26 336.38 292.88 204.04 578.41 371.39 860.93 588.41 733.09 400.39 381.30 779.34 174.53 599.82 262.00 773.34 114.32 302.98 232.50 271.62 280.56 18.00 632.92 199.84 668.99 885.38 328.82 819.38 431.66 740.41 577.08 662.44 232.15 669.82 699.26 842.80 74.85 106.23 728.04 773.61 802.83 648.03 64.64 143.67 411.18 376.10 482.45 208.02 152.08 44.38 979.01 620.88 790.49 142.98 688.46 211.51 420.40 879.96 253.18 73.54 612.20 50.47 114.14 734.76 385.95 703.54 658.77 140.90 144.17 198.91 667.05 90.73 318.06 216.59 360.31 440.32 718.16 180.87 67.77 151.28 679.88 649.32
500.43 723.97 687.75 847.46 670.25 317.03 111.72 728.57 625.97 801.02 706.53 728.23 646.76 352.69 910.98 184.39 861.74 350.26 90.96 881.66 755.04 481.64 934.85 646.47 100.89 870.52 785.10 351.88 765.67 296.10 126.17 603.70 205.99 70.38 588.48 171.83 717.33 737.77 731.16 58.63 129.26 614.79 753.23 724.20 506.24 703.93 626.05 136.64 772.91 688.77 685.99 949.81 840.22 864.46 689.66 122.54 657.10 618.42 799.48 994.14 708.08 13.00 607.92 475.59 865.29 809.55 525.77 682.04 691.26 0.00 559.79 620.59 672.07 206.97 414.85 353.64 821.65 93.14 952.13 892.16 260.73 753.92 561.92 745.95 109.42 746.56 832.23 660.99 703.51 861.94 673.26 179.73 691.87 352.74 284.80 472.26 142.65 976.51 68.83 307.43 166.02 674.60 739.09 30.52 823.36 654.83 768.80 103.41 758.32 209.16 767.65 653.19 586.11 922.04 737.54 459.06 681.89 751.99 689.51 392.45 259.07 112.93 625.87 69.97 550.54 921.63 890.12 664.39 727.54 384.64 718.08 651.58 715.32 405.24 66.56 81.42 703.38 806.74 854.14 264.45 701.52 624.62 849.91 549.34 904.81 26.90 709.04 719.88 657.06 118.81 109.11
111.80 379.72 185.18 502.66 335.28 570.14 595.86 527.57 291.00 454.48 371.56 390.70 164.50 780.97 550.53 619.23 514.05 322.11 524.47 486.34 386.41 653.65 454.75 549.58 458.90 367.69 437.41 777.67 484.69 759.10 518.66 359.18 541.96 603.01 286.71 557.87 359.61 527.94 349.99 553.60 482.97 636.54 427.04 378.43 561.81 359.75 407.07 515.63 426.35 307.60 434.99 569.03 505.25 589.47 383.81 606.95 243.69 316.65 473.29 536.67 267.24 572.79 363.55 441.70 511.37 311.16 126.50 240.80 336.38 559.79 0.00 128.74 403.80 448.84 191.37 698.79 446.49 648.35 437.47 345.81 618.74 357.04 784.68 284.46 621.02 419.00 287.93 459.99 491.31 317.64 338.29 618.32 439.48 445.62 719.64 271.90 620.13 494.74 620.82 522.00 533.35 157.66 446.88 590.31 552.09 261.53 438.95 655.40 468.12 603.58 341.60 335.84 265.82 375.69 214.96 581.38 201.15 417.02 337.87 825.96 580.98 659.25 245.73 629.76 347.04 378.38 599.00 154.65 385.03 388.83 380.55 272.97 522.50 291.49 541.75 523.18 286.29 446.84 460.84 627.15 380.36 78.27 468.74 535.52 358.46 578.89 215.46 374.74 248.92 521.87 595.47
210.18 272.34 157.38 443.89 291.78 627.62 667.92 478.66 247.50 398.14 328.06 328.01 104.60 754.76 488.29 747.97 451.73 374.79 653.21 411.73 347.15 737.54 398.38 458.10 587.64 308.63 382.15 727.99 412.87 809.50 641.21 272.97 643.40 651.61 218.47 686.61 332.60 460.37 282.00 644.03 581.35 668.12 364.52 320.12 568.26 299.85 320.86 566.02 382.85 251.26 397.01 697.77 436.65 553.17 334.70 658.77 194.82 228.47 410.77 481.74 205.00 612.39 278.30 425.53 598.96 209.77 241.07 170.81 292.88 620.59 128.74 0.00 345.84 468.12 275.26 690.54 421.33 659.61 382.54 318.01 675.03 283.24 724.78 187.31 627.64 342.20 233.00 419.93 447.81 262.71 287.72 702.12 384.28 391.14 795.07 355.79 747.28 439.81 632.08 622.42 595.24 112.66 407.62 590.07 595.38 218.03 380.09 701.65 511.41 723.09 470.34 261.53 162.93 303.87 187.16 639.32 150.15 348.42 294.37 809.16 664.87 669.21 149.90 669.36 282.69 311.39 664.31 43.80 337.81 447.93 320.65 191.58 494.70 375.38 612.23 606.40 224.48 418.03 381.62 702.16 322.60 50.47 412.40 496.79 330.66 625.14 140.85 331.24 190.42 643.79 676.46
430.55 249.91 496.61 359.28 204.25 530.49 744.43 132.82 159.97 330.27 182.34 230.53 263.11 928.38 403.80 787.42 364.88 401.67 649.55 410.19 692.99 455.91 521.64 145.78 705.19 418.22 293.14 908.51 141.70 901.70 656.56 94.29 524.32 703.09 140.90 780.13 126.72 189.20 265.16 639.48 568.85 357.49 221.63 197.83 778.45 209.95 100.10 581.37 206.99 222.77 84.39 972.83 360.17 890.63 136.21 733.57 521.59 160.82 250.98 574.02 267.18 663.87 136.54 263.91 814.91 396.26 343.19 254.54 204.04 672.07 403.80 345.84 0.00 540.53 329.19 836.61 698.48 711.09 532.45 522.91 756.97 336.85 468.96 375.91 764.70 186.11 419.49 104.00 113.93 445.77 201.79 676.02 38.44 632.05 887.83 364.07 807.43 537.51 683.56 528.39 640.07 322.01 722.59 641.55 910.35 189.44 206.06 680.79 826.38 734.42 699.66 193.19 196.44 552.79 483.49 321.17 316.50 274.61 159.66 951.04 583.37 738.53 214.91 696.79 207.85 543.14 992.38 339.67 186.14 605.52 221.82 204.00 824.62 292.87 659.59 616.57 250.97 265.95 315.66 601.20 147.47 396.31 378.32 209.50 563.06 647.46 297.00 172.79 245.96 653.96 681.35
337.04 615.91 524.56 725.44 569.01 301.38 274.23 625.91 524.73 699.78 605.29 600.70 545.90 469.95 790.47 378.53 740.14 248.74 220.69 768.81 626.20 467.01 794.13 535.30 226.90 707.07 663.50 493.32 608.09 460.09 173.09 504.07 193.23 232.89 499.51 313.01 591.91 644.92 597.50 175.91 113.96 602.94 546.26 618.10 569.71 601.14 482.36 97.90 575.30 587.53 533.33 926.10 732.68 840.80 545.97 300.14 583.07 529.45 592.51 848.46 544.39 193.97 512.29 310.84 838.09 650.54 344.41 515.41 578.41 206.97 448.84 468.12 540.53 0.00 269.17 404.34 777.95 254.90 776.85 685.19 323.07 673.19 592.06 558.01 303.18 606.61 627.31 558.33 592.58 657.02 560.41 244.84 571.33 382.27 426.24 318.86 336.79 834.12 227.37 233.33 206.17 562.89 686.67 216.29 781.96 531.35 561.83 280.75 781.65 342.23 790.44 564.22 518.57 715.07 554.34 524.63 570.97 650.75 597.86 522.18 294.98 261.61 505.95 238.03 392.70 717.76 946.98 494.03 599.48 325.95 610.85 464.27 703.20 247.66 144.11 138.28 537.02 599.77 662.41 266.92 583.93 417.65 748.67 438.17 697.84 211.74 554.84 610.18 512.15 175.67 208.34
203.23 421.11 376.55 532.81 367.39 378.77 469.38 402.72 323.11 498.16 355.87 404.06 283.87 643.73 591.11 565.51 543.31 139.53 390.97 561.79 577.78 462.28 638.48 380.96 422.05 542.81 466.67 678.06 411.60 645.22 378.18 234.90 368.14 428.04 254.22 508.16 383.07 459.10 412.08 372.96 375.49 490.72 421.92 384.90 521.62 392.58 282.79 347.64 429.65 385.91 354.29 760.40 537.36 754.12 344.91 495.29 413.20 284.16 468.17 579.29 345.95 413.65 255.69 250.33 702.74 448.43 113.40 285.06 371.39 414.85 191.37 275.26 329.19 269.17 0.00 507.42 587.56 490.35 621.20 537.18 541.14 478.84 612.81 410.66 509.66 412.30 471.66 379.29 394.74 501.37 353.39 466.86 308.34 334.65 621.39 80.53 531.94 643.26 466.76 348.50 427.79 349.03 633.44 435.97 743.46 320.57 431.64 485.30 659.49 512.51 532.97 318.93 280.24 567.06 406.33 390.01 364.30 449.13 356.28 634.82 389.61 485.08 320.29 445.72 236.97 569.75 790.37 319.06 376.88 277.86 395.35 317.32 655.11 100.12 383.50 333.43 369.40 475.43 519.88 435.78 367.26 269.64 547.05 344.15 549.83 441.75 337.17 374.06 295.94 370.82 406.58
707.29 905.54 696.11 1015.71 871.02 621.89 253.86 870.17 826.74 993.61 863.29 892.39 791.29 136.31 1076.35 247.38 1021.11 548.04 315.92 1047.04 520.28 768.25 1016.55 850.46 255.29 929.49 953.56 219.31 906.12 137.80 269.73 742.32 455.87 295.20 761.64 181.81 889.94 933.44 883.91 346.48 398.11 902.64 929.34 881.71 489.72 861.44 780.39 306.44 927.25 851.27 861.71 869.07 1008.47 701.62 844.00 279.77 754.62 791.58 975.59 1086.71 793.06 340.64 763.11 712.66 778.86 872.96 620.82 732.17 860.93 353.64 698.79 690.54 836.61 404.34 507.42 0.00 912.40 360.94 999.27 907.61 290.34 933.10 835.30 846.26 294.14 915.03 849.73 886.71 902.16 879.44 860.81 453.11 815.76 482.02 192.78 587.95 267.39 1056.54 355.01 527.03 198.49 785.31 580.75 356.74 761.06 827.99 939.06 425.51 684.54 194.38 934.45 826.35 787.66 937.49 776.76 750.07 793.39 952.76 859.31 127.40 526.07 335.71 813.13 382.38 720.34 909.72 812.76 716.45 884.30 433.29 882.24 783.31 653.02 545.69 307.47 291.24 835.48 982.85 1020.53 552.30 874.68 640.07 1012.41 779.67 889.80 368.86 777.26 881.48 760.72 253.85 421.52
517.66 588.36 285.02 609.50 577.43 892.94 918.66 761.51 538.51 628.87 619.07 599.65 466.92 987.38 556.70 1006.04 651.46 714.72 875.12 545.09 433.97 1024.09 346.29 840.65 865.44 376.90 588.82 1088.73 745.74 1050.20 822.16 645.06 883.43 892.03 582.81 939.81 614.13 698.24 533.46 824.98 842.65 981.16 639.44 630.63 640.29 610.36 649.99 746.97 657.50 534.09 743.15 436.36 602.26 374.53 605.86 900.16 226.51 563.79 685.69 531.86 475.88 834.65 621.06 716.68 264.07 354.88 474.16 499.69 588.41 821.65 446.49 421.33 698.48 777.95 587.56 912.40 0.00 899.34 342.99 257.50 895.51 479.29 1062.53 375.60 878.38 661.89 331.65 757.14 748.82 339.76 570.41 978.00 697.20 623.76 1053.04 668.09 964.30 387.95 890.48 869.66 859.44 453.58 373.50 852.17 478.34 519.04 655.01 925.06 394.37 985.52 126.66 568.52 527.27 227.97 253.71 930.47 421.79 597.09 569.02 1001.54 931.31 836.81 532.45 891.62 576.55 199.92 443.03 389.12 638.71 627.82 609.80 520.26 472.82 687.68 853.26 839.86 447.51 692.56 609.65 919.77 615.37 390.40 604.47 844.01 180.00 848.55 448.94 605.89 492.33 802.47 928.97
562.64 786.24 731.98 918.87 742.50 307.47 107.18 754.78 698.22 871.17 748.17 769.95 724.65 396.58 932.85 224.90 907.76 417.56 168.11 939.24 786.99 457.17 1003.75 680.95 189.45 901.40 831.12 339.75 789.50 294.33 169.67 627.63 240.62 89.57 666.37 179.13 754.49 781.99 789.19 146.79 191.47 662.81 780.60 755.85 594.80 739.00 670.28 211.77 777.19 761.02 702.95 1038.37 911.63 918.21 733.89 108.24 732.23 696.31 826.85 1069.64 784.64 90.89 696.08 519.82 937.01 813.70 589.67 744.25 733.09 93.14 648.35 659.61 711.09 254.90 490.35 360.94 899.34 0.00 986.47 940.09 280.74 833.36 508.97 790.18 77.11 772.57 836.93 687.67 730.19 866.64 730.84 126.78 726.50 435.34 317.05 466.78 186.54 1009.78 27.53 312.05 219.77 762.76 805.81 69.54 910.16 720.75 796.17 104.09 839.14 215.71 845.54 704.70 625.13 963.48 809.24 488.74 722.91 824.24 688.71 433.71 272.25 62.53 687.78 72.14 625.67 965.86 969.56 703.41 758.40 424.87 759.80 719.17 802.12 467.45 110.79 160.86 772.72 834.11 884.59 240.06 735.06 672.55 907.37 611.55 952.74 69.46 695.76 725.58 736.50 196.47 83.77
529.11 381.89 373.08 343.80 401.87 866.86 988.20 586.80 372.48 339.72 427.91 379.72 342.07 1106.02 383.61 1011.57 378.37 659.21 916.81 250.50 645.93 954.72 17.28 673.80 851.24 150.09 342.05 1069.77 570.96 1120.26 911.00 469.03 908.33 995.35 409.36 950.21 462.47 593.65 320.94 923.14 890.81 839.80 443.12 420.59 793.11 406.28 476.70 853.47 470.50 342.83 546.43 671.55 345.42 666.12 440.80 999.29 333.01 407.35 466.77 202.85 301.85 965.13 445.03 673.33 565.13 172.77 549.98 353.81 400.39 952.13 437.47 382.54 532.45 776.85 621.20 999.27 342.99 986.47 0.00 98.15 949.59 245.25 899.03 247.63 1010.18 482.39 149.54 571.43 561.10 119.83 382.39 986.54 500.48 752.23 1111.98 587.09 1012.47 57.27 966.28 924.74 887.49 307.17 598.51 972.61 699.24 343.01 427.55 960.34 689.24 995.92 469.65 417.32 440.89 128.03 275.44 837.79 338.72 293.49 399.72 1100.28 946.94 1038.46 378.24 914.33 530.49 169.13 591.12 338.74 437.36 753.49 389.87 371.30 719.07 640.31 920.96 900.90 336.66 438.51 411.64 966.08 446.07 359.20 309.88 671.54 162.99 969.78 336.59 416.40 325.26 908.97 953.47
457.61 344.21 274.93 380.89 375.66 832.12 941.67 578.85 387.65 410.97 411.78 400.30 296.97 1017.70 420.70 965.04 394.78 591.86 870.28 287.59 560.83 938.71 115.43 657.79 804.71 205.82 400.29 1046.00 564.77 1045.41 858.28 491.65 863.23 918.08 419.18 903.68 465.88 535.76 282.46 861.10 799.15 823.79 459.12 415.22 694.96 416.77 508.92 783.09 451.82 324.85 530.42 693.86 388.13 615.24 467.78 952.76 333.44 410.38 461.96 301.00 295.43 879.16 482.20 676.61 520.16 166.35 472.31 347.39 381.30 892.16 345.81 318.01 522.91 685.19 537.18 907.61 257.50 940.09 98.15 0.00 885.42 312.84 917.15 229.81 945.65 479.78 143.12 555.42 570.87 172.83 386.81 919.19 484.47 654.08 1065.45 561.35 965.94 155.42 912.56 867.81 812.31 272.43 500.36 901.48 688.12 380.18 455.34 953.92 604.15 949.39 384.16 432.49 434.47 29.88 282.22 814.99 288.66 388.49 425.68 1035.01 884.04 946.80 371.82 907.91 533.77 70.98 689.27 289.95 432.79 655.34 399.55 364.88 620.92 595.21 829.30 823.47 330.24 490.22 467.37 900.87 445.13 267.54 346.97 655.53 77.85 896.93 315.81 434.37 318.84 859.61 893.53
608.87 823.62 610.49 934.12 769.90 522.57 182.16 788.58 725.62 900.67 806.18 810.80 733.30 312.98 994.76 148.96 939.52 468.06 174.05 965.45 615.63 638.01 966.87 751.14 159.84 908.33 871.97 234.51 824.53 170.67 170.41 727.05 375.89 191.17 754.92 141.67 808.35 851.85 802.32 264.89 308.47 821.05 856.34 800.12 451.45 779.85 698.80 239.97 845.66 769.68 814.82 895.02 926.88 776.06 762.41 208.07 669.00 768.15 902.59 1103.59 711.47 254.61 770.89 631.07 753.27 831.62 564.50 650.58 779.34 260.73 618.74 675.03 756.97 323.07 541.14 290.34 895.51 280.74 949.59 885.42 0.00 851.51 740.94 821.73 222.44 833.44 854.85 807.54 840.49 884.56 772.91 358.75 791.94 283.89 244.38 535.30 168.97 1006.86 253.21 476.16 116.90 756.61 555.16 252.71 742.92 755.09 871.91 348.18 658.95 95.96 803.33 753.35 735.01 915.30 747.45 670.09 729.84 851.64 792.84 301.86 426.75 245.38 731.54 305.16 653.87 956.40 887.20 718.83 817.81 302.17 800.65 701.72 660.53 464.10 225.88 207.71 753.89 909.85 938.94 450.39 800.37 661.67 930.82 713.20 941.86 279.83 702.69 822.68 679.13 173.87 340.22
461.99 136.64 396.46 176.56 168.89 730.58 808.45 398.22 176.88 192.13 204.21 162.60 204.28 1016.29 247.68 912.75 218.52 588.03 766.98 189.97 630.39 777.86 262.53 457.21 761.12 141.06 166.36 1011.23 353.94 996.24 717.25 298.53 756.64 767.11 233.55 847.23 262.28 377.85 75.69 761.58 702.11 675.88 243.35 203.47 772.29 193.55 287.76 756.50 245.05 114.08 389.31 887.09 169.32 775.13 224.15 834.36 362.41 203.61 255.19 298.57 157.35 766.92 287.61 478.81 709.92 166.89 427.11 200.93 174.53 753.92 357.04 283.24 336.85 673.19 478.84 933.10 479.29 833.36 245.25 312.84 851.51 0.00 741.61 270.92 848.73 268.03 169.72 394.79 366.85 198.00 180.04 794.96 362.13 674.38 960.46 455.19 871.01 289.56 805.83 728.76 734.61 199.38 690.86 764.09 801.87 201.22 227.78 857.33 717.90 879.19 605.95 221.72 289.09 342.72 291.21 656.98 163.52 117.80 218.91 1024.75 782.92 824.15 235.88 816.49 364.33 319.21 800.37 268.24 220.24 689.44 172.75 230.56 725.43 502.52 722.57 672.50 188.90 262.82 260.84 824.29 253.02 301.47 210.48 522.35 299.29 780.82 164.28 226.80 182.90 709.89 791.33
789.98 651.50 854.92 722.98 628.29 290.68 616.15 525.74 585.49 695.92 607.63 606.31 620.18 899.67 730.66 708.74 707.31 621.49 630.16 816.28 1071.93 272.23 916.31 323.18 662.81 786.93 655.87 848.72 414.97 803.30 609.76 548.47 532.90 598.54 518.60 688.10 595.68 462.47 665.92 576.80 517.54 258.52 597.89 582.22 1004.74 596.28 527.89 625.04 581.94 648.29 450.55 1308.44 715.74 1246.61 591.50 617.21 836.02 548.54 572.64 950.21 640.77 549.60 454.00 442.72 1168.51 769.85 707.44 618.65 599.82 561.92 784.68 724.78 468.96 592.06 612.81 835.30 1062.53 508.97 899.03 917.15 740.94 741.61 0.00 784.31 586.08 584.41 793.08 475.55 482.12 822.79 617.82 382.19 496.50 812.41 806.20 583.89 695.51 955.03 536.50 388.85 636.81 699.71 1100.29 567.83 1232.51 556.02 604.27 490.52 1148.54 724.68 998.74 583.31 574.14 947.03 848.71 252.17 697.91 689.40 585.57 931.65 386.50 571.50 592.61 492.63 485.98 916.73 1298.49 697.98 600.84 795.07 596.16 581.70 1172.32 512.69 586.55 636.62 627.55 544.38 643.49 432.67 581.69 774.36 756.90 420.31 936.65 548.08 670.76 585.04 629.58 636.56 472.81
392.60 296.98 229.39 368.93 233.53 695.44 825.37 475.95 215.94 369.13 296.50 314.79 210.02 911.31 450.51 898.90 410.89 530.51 740.67 369.44 398.30 816.14 264.91 521.69 738.57 207.42 348.38 915.30 475.21 965.81 678.81 338.18 714.35 784.03 265.71 837.54 338.41 465.24 264.64 718.40 658.41 733.40 351.74 314.17 591.42 293.90 330.07 655.91 367.52 222.25 447.90 704.68 376.17 631.44 339.15 846.08 170.88 280.84 397.99 384.18 184.50 747.08 335.80 495.35 439.00 158.67 302.35 171.15 262.00 745.95 284.46 187.31 375.91 558.01 410.66 846.26 375.60 790.18 247.63 229.81 821.73 270.92 784.31 0.00 814.95 354.15 135.44 459.43 475.19 127.80 258.18 793.76 414.35 558.27 956.18 443.45 859.02 304.90 762.65 697.85 704.83 135.75 458.77 754.43 634.63 245.41 362.80 816.03 562.56 862.21 488.54 260.78 243.74 243.57 161.68 697.08 107.40 341.96 300.31 965.71 759.50 796.89 230.92 773.31 352.51 175.68 617.96 144.03 296.26 564.68 304.64 222.29 526.59 508.26 679.39 696.29 192.54 397.80 412.48 805.67 317.66 206.19 335.01 532.96 195.60 747.02 134.55 307.95 177.94 705.61 766.35
567.08 826.49 723.17 956.88 768.29 378.53 40.28 808.77 735.39 910.44 815.95 831.04 688.01 329.68 1003.91 150.79 957.83 458.07 124.99 991.08 764.36 527.36 996.08 707.06 162.12 936.27 881.19 298.73 796.31 217.22 179.17 698.51 259.17 81.62 692.53 112.33 816.14 835.51 808.84 168.05 195.91 720.23 849.44 822.10 545.36 801.83 706.59 230.98 848.25 783.94 757.13 988.93 949.64 876.96 770.20 31.13 751.44 680.92 895.69 1088.95 773.09 117.05 717.34 559.95 937.02 837.41 578.40 712.20 773.34 109.42 621.02 627.64 764.70 303.18 509.66 294.14 878.38 77.11 1010.18 945.65 222.44 848.73 586.08 814.95 0.00 841.23 860.64 741.19 783.71 890.35 782.68 203.89 745.05 413.97 239.94 543.09 119.64 1037.74 81.71 315.90 178.52 740.30 738.91 123.15 862.48 745.26 865.01 161.70 832.16 148.81 871.70 751.20 678.74 931.51 814.80 555.80 776.70 861.41 759.77 384.08 310.94 41.57 735.29 115.69 640.63 907.65 984.93 671.44 829.46 459.90 822.63 755.63 754.44 471.89 159.07 176.23 798.19 902.95 944.57 268.03 805.57 678.11 945.08 615.99 927.57 123.64 749.94 796.64 740.75 197.64 154.83
406.80 145.23 462.15 241.00 127.51 642.93 804.40 198.53 138.21 191.80 77.66 105.43 280.08 1004.85 269.67 847.21 231.61 478.14 752.45 285.76 689.35 510.06 468.70 305.25 686.88 335.89 168.61 1005.65 169.44 978.17 718.31 181.04 636.76 763.06 158.08 785.85 59.39 157.80 197.32 715.95 645.32 451.40 60.35 64.56 795.63 84.83 134.64 661.88 45.36 171.14 177.88 975.98 233.76 895.37 71.03 830.31 468.49 163.65 106.60 449.33 229.35 733.56 225.94 345.51 793.15 346.45 394.42 232.78 114.32 746.56 419.00 342.20 186.11 606.61 412.30 915.03 661.89 772.57 482.39 479.78 833.44 268.03 584.41 354.15 841.23 0.00 369.68 202.88 184.54 365.32 102.86 645.79 150.88 713.54 947.62 393.17 848.11 480.98 777.39 602.21 716.54 307.42 719.61 749.05 907.37 167.68 72.80 724.86 823.40 831.56 710.83 93.37 193.46 497.74 441.48 507.28 273.40 188.90 109.01 959.88 657.86 811.63 192.30 747.90 299.11 505.16 955.79 348.32 82.06 656.75 97.29 199.00 799.47 369.34 694.13 703.32 214.38 90.49 141.61 611.69 80.14 355.24 253.20 321.94 524.05 738.80 274.16 94.83 224.20 740.71 713.95
399.73 264.79 267.64 299.45 289.70 717.32 883.79 500.87 261.71 297.22 321.15 289.60 192.53 956.48 352.36 907.16 333.81 533.98 812.40 234.00 533.74 858.06 166.82 536.90 746.83 79.76 257.17 960.99 421.65 987.53 776.75 351.06 758.79 845.97 278.59 845.80 353.74 469.15 243.16 773.60 741.27 756.36 374.41 317.10 662.81 317.90 365.80 725.21 374.69 210.52 461.88 719.66 292.21 637.89 345.47 891.77 209.13 301.40 389.17 248.74 152.31 821.28 339.08 557.35 563.28 23.23 414.43 204.27 302.98 832.23 287.93 233.00 419.49 627.31 471.66 849.73 331.65 836.93 149.54 143.12 854.85 169.72 793.08 135.44 860.64 369.68 0.00 436.88 466.84 29.71 292.27 861.31 426.30 624.14 1007.57 456.91 908.06 206.81 816.74 775.20 737.95 157.63 594.21 823.07 688.97 237.06 370.81 810.80 605.00 867.44 458.31 306.55 291.35 173.00 160.93 738.14 193.74 287.52 313.40 977.13 797.40 888.92 228.70 764.79 414.51 162.27 656.71 189.20 335.72 641.82 299.75 221.76 653.89 490.77 771.42 751.36 187.12 360.91 326.81 840.32 359.75 209.66 293.38 574.88 182.19 820.24 187.05 328.71 175.72 764.85 803.93
486.11 260.78 562.37 354.76 225.90 556.29 700.91 67.58 244.35 316.90 193.21 237.43 341.64 990.31 410.40 818.63 339.16 466.18 738.11 418.78 767.08 522.42 554.15 152.37 754.08 446.68 280.64 941.02 109.67 912.91 706.71 146.96 556.83 659.57 219.43 772.96 162.52 94.32 319.10 678.89 651.70 351.55 214.21 196.56 845.24 216.83 188.70 631.52 185.17 301.38 25.00 1029.02 347.52 970.17 179.73 726.82 577.19 234.54 228.40 581.33 343.81 662.31 206.62 268.93 879.34 413.65 395.86 333.67 232.50 660.99 459.99 419.93 104.00 558.33 379.29 886.71 757.14 687.67 571.43 555.42 807.54 394.79 475.55 459.43 741.19 202.88 436.88 0.00 42.52 466.59 230.25 641.21 70.95 684.72 918.91 383.10 780.27 585.32 676.02 528.22 722.92 400.54 785.23 669.16 972.99 259.06 220.18 682.62 889.02 766.93 772.46 207.68 259.08 585.30 529.82 425.02 396.74 310.82 188.12 1014.11 543.37 716.61 289.05 643.04 249.58 599.15 1047.13 419.21 203.22 657.15 229.29 282.53 899.69 375.72 677.96 669.24 320.64 236.77 282.34 497.20 141.77 455.46 385.20 239.24 619.07 634.09 377.29 187.91 326.20 706.63 603.90
503.90 230.21 553.64 355.03 243.15 569.31 743.43 51.91 259.25 327.00 225.08 256.24 377.04 1002.37 367.88 835.38 357.14 475.66 763.48 420.96 794.96 493.11 543.82 166.96 770.86 460.69 319.66 956.47 67.15 955.43 740.96 189.48 572.28 702.09 254.83 815.48 167.01 112.30 291.96 696.12 630.01 309.03 209.60 234.40 860.69 234.07 193.76 665.77 180.56 312.09 59.25 1060.34 347.79 1000.98 186.47 769.34 575.66 274.75 240.11 590.50 314.53 704.83 231.48 299.50 894.79 443.61 431.70 348.00 271.62 703.51 491.31 447.81 113.93 592.58 394.74 902.16 748.82 730.19 561.10 570.87 840.49 366.85 482.12 475.19 783.71 184.54 466.84 42.52 0.00 458.07 257.19 647.52 86.40 727.24 935.79 342.82 822.79 585.48 718.54 558.12 723.59 414.87 819.48 711.68 1007.24 229.78 223.51 702.60 923.27 782.38 813.59 223.14 293.33 600.75 554.53 435.10 386.45 330.33 230.64 1029.56 577.00 759.13 297.91 685.56 265.03 590.49 1042.72 453.60 237.47 672.60 248.34 296.86 917.48 403.13 708.53 711.76 301.31 211.85 239.82 539.72 184.29 477.66 388.95 209.93 610.41 676.61 360.12 207.42 322.33 748.40 646.42
409.28 294.50 297.35 269.74 287.21 747.03 913.50 509.98 285.80 326.93 308.08 259.89 222.24 986.19 351.32 936.87 311.70 563.69 842.11 263.71 526.10 875.38 137.11 566.61 776.54 89.43 286.88 990.70 451.23 1017.24 806.46 380.77 788.50 875.68 308.30 875.51 358.40 493.85 265.39 803.31 770.98 767.10 353.19 300.76 692.52 290.84 356.87 754.92 364.06 223.00 466.41 749.37 262.50 667.60 343.53 921.48 238.84 331.11 364.69 278.45 182.02 850.99 368.79 581.84 566.80 52.94 430.15 233.98 280.56 861.94 317.64 262.71 445.77 657.02 501.37 879.44 339.76 866.64 119.83 172.83 884.56 198.00 822.79 127.80 890.35 365.32 29.71 466.59 458.07 0.00 262.56 877.48 446.00 653.85 1037.28 486.62 937.77 177.10 846.45 804.91 767.66 187.34 586.57 852.78 717.38 266.77 346.33 840.51 633.41 897.15 466.42 309.20 321.06 202.71 190.64 742.76 223.45 315.80 304.69 980.45 827.11 918.63 258.41 794.50 444.22 139.84 686.42 218.91 317.53 671.53 270.04 251.47 654.39 520.48 801.13 781.07 216.83 390.62 350.98 870.03 351.04 239.37 303.66 604.59 159.76 849.95 216.76 312.33 205.43 794.56 833.64
383.87 68.25 380.60 223.71 24.65 574.05 762.52 262.51 47.29 179.08 60.67 78.62 204.61 950.97 237.72 800.48 215.67 458.22 705.72 208.40 634.87 612.92 399.67 336.64 640.15 282.15 139.03 934.46 219.84 935.02 670.19 118.49 613.99 721.18 110.09 739.12 95.84 231.29 104.35 673.01 655.26 522.76 108.66 78.43 747.64 66.22 144.58 595.00 109.34 110.09 209.27 907.32 220.30 817.06 80.97 773.28 381.81 110.42 154.91 377.94 141.49 685.57 163.82 319.28 697.18 270.57 344.71 139.71 18.00 673.26 338.29 287.72 201.79 560.41 353.39 860.81 570.41 730.84 382.39 386.81 772.91 180.04 617.82 258.18 782.68 102.86 292.27 230.25 257.19 262.56 0.00 614.92 183.44 656.25 867.38 325.38 801.38 437.17 723.27 585.22 673.39 214.15 651.82 681.26 824.80 76.76 112.08 723.25 755.61 784.83 641.16 46.64 125.67 416.69 366.38 480.20 198.30 145.15 42.13 975.13 602.88 778.22 137.82 686.21 229.51 402.40 864.31 266.10 81.68 607.04 68.47 96.14 716.76 379.28 690.84 640.77 122.90 158.67 216.91 649.05 88.48 308.51 234.59 342.31 422.32 700.16 184.32 49.77 133.28 677.63 647.07
506.52 683.17 758.56 838.63 639.57 241.29 233.96 699.43 662.21 794.00 675.59 693.54 709.57 517.48 852.64 326.55 830.59 327.33 247.97 821.80 841.29 330.39 1003.82 592.48 280.62 897.07 753.95 466.53 714.67 421.11 227.57 619.53 208.00 216.35 692.00 305.91 705.18 735.53 719.27 194.61 135.35 571.69 689.17 693.35 639.49 681.14 646.03 272.62 691.15 723.38 666.21 1083.06 835.22 950.11 695.89 235.02 751.49 687.31 735.42 991.34 749.02 167.41 674.54 412.11 990.86 852.00 580.26 688.13 632.92 179.73 618.32 702.12 676.02 244.84 466.86 453.11 978.00 126.78 986.54 919.19 358.75 794.96 382.19 793.76 203.89 645.79 861.31 641.21 647.52 877.48 614.92 0.00 693.88 430.22 424.01 460.17 313.32 1043.81 154.31 207.12 254.62 764.17 870.40 185.64 956.61 691.68 673.60 108.33 915.66 342.49 922.06 661.56 659.88 943.28 788.34 407.67 720.68 760.07 657.05 549.46 145.47 189.31 703.06 110.44 554.95 951.76 1061.25 728.03 696.60 487.01 683.39 709.11 848.57 411.33 204.36 254.43 727.32 733.49 783.20 144.01 703.40 651.65 849.51 539.44 931.84 165.89 693.53 664.69 716.68 254.37 90.62
468.99 228.12 513.10 337.49 193.24 492.05 739.83 94.38 198.41 311.40 160.55 208.74 301.55 939.91 399.60 748.98 347.99 440.11 687.99 391.84 731.43 454.24 483.20 173.32 684.46 414.02 271.35 870.07 103.26 872.04 667.72 132.73 485.88 722.89 179.34 741.69 129.86 150.76 286.44 657.78 590.62 339.32 197.85 185.52 774.29 197.26 117.75 592.53 196.24 261.21 45.95 1008.51 342.63 929.07 147.07 713.92 524.04 199.26 244.10 552.23 273.99 683.67 145.08 293.03 808.39 403.07 381.63 276.01 199.84 691.87 439.48 384.28 38.44 571.33 308.34 815.76 697.20 726.50 500.48 484.47 791.94 362.13 496.50 414.35 745.05 150.88 426.30 70.95 86.40 446.00 183.44 693.88 0.00 642.99 849.39 337.46 768.99 524.86 699.96 489.95 678.51 342.88 761.03 661.35 941.45 189.24 204.21 642.35 864.82 695.98 738.10 175.02 234.88 514.35 502.91 359.61 334.83 278.16 155.46 943.16 548.43 758.33 253.35 661.38 178.63 549.95 987.35 378.11 181.56 586.20 200.03 224.87 845.49 331.31 677.24 641.77 249.69 241.37 292.49 568.15 109.11 415.21 365.63 171.06 562.32 668.35 319.58 155.25 272.75 675.16 668.62
409.37 663.48 437.20 790.32 667.89 561.18 388.81 737.37 623.61 769.18 690.52 703.75 495.74 363.62 856.63 412.18 820.05 459.56 317.42 802.87 411.07 726.81 769.51 715.16 251.85 699.77 743.41 481.52 746.25 454.56 289.63 537.76 484.08 369.09 588.87 330.42 693.71 763.06 673.14 359.69 430.32 821.81 739.65 693.07 262.72 672.80 584.63 284.37 731.49 642.40 688.94 706.29 783.08 661.08 647.77 399.90 489.48 594.76 785.90 872.88 596.14 365.74 572.56 529.71 568.93 600.91 319.12 561.95 668.99 352.74 445.62 391.14 632.05 382.27 334.65 482.02 623.76 435.34 752.23 654.08 283.89 674.38 812.41 558.27 413.97 713.54 624.14 684.72 727.24 653.85 656.25 430.22 642.99 0.00 430.61 415.18 413.08 809.50 407.81 507.78 309.27 503.80 440.18 383.26 542.08 594.14 754.87 448.35 512.49 376.13 557.95 636.66 554.07 683.96 574.16 724.66 541.29 694.85 653.42 418.02 545.97 426.13 526.01 418.47 522.63 702.53 736.98 434.94 710.76 56.79 693.60 567.69 434.04 434.77 324.55 274.48 575.12 785.82 772.76 551.23 685.73 441.61 802.27 618.03 721.80 371.84 531.99 676.92 563.33 311.87 457.61
666.32 935.63 835.25 1091.09 892.03 579.36 218.13 943.77 899.09 1046.46 928.05 946.00 828.32 184.98 1105.10 100.41 1083.05 544.76 274.95 1075.78 713.06 711.54 1094.70 837.80 260.74 1012.15 1006.41 67.08 952.65 73.71 277.37 810.24 436.85 259.34 860.07 192.01 939.12 1000.15 971.73 343.43 394.83 899.59 955.88 931.12 526.88 933.60 858.13 333.20 974.55 958.39 895.34 902.52 1087.68 883.06 920.25 208.81 826.53 890.01 1002.13 1200.68 900.18 284.59 866.69 737.08 971.64 984.97 721.95 839.29 885.38 284.80 719.64 795.07 887.83 426.24 621.39 192.78 1053.04 317.05 1111.98 1065.45 244.38 960.46 806.20 956.18 239.94 947.62 1007.57 918.91 935.79 1037.28 867.38 424.01 849.39 430.61 0.00 677.60 142.15 1136.36 305.05 555.84 305.61 877.30 773.53 300.83 844.00 926.42 971.45 362.53 813.68 153.41 988.56 854.25 856.42 1095.33 928.68 743.86 860.61 1012.53 886.07 207.43 530.66 272.16 886.94 316.52 747.10 1098.02 989.24 838.87 949.06 487.40 935.85 890.43 735.96 652.81 338.03 287.96 909.92 1009.39 1072.03 507.97 918.37 797.91 1074.35 806.43 1078.10 311.70 833.46 917.15 863.60 250.57 355.66
283.76 381.44 457.08 500.63 327.72 349.85 535.13 394.73 283.44 426.31 364.00 389.44 264.38 659.55 546.57 615.95 462.90 132.84 471.50 533.78 633.97 447.05 569.81 367.55 490.00 484.88 386.26 671.37 407.65 680.03 453.83 315.43 339.22 493.79 255.25 564.37 361.21 455.12 388.63 417.81 347.18 461.80 419.48 370.87 602.15 361.40 305.90 404.95 418.79 346.24 383.41 840.93 497.69 834.65 369.51 559.78 456.21 285.19 465.73 659.82 338.72 459.26 265.57 233.99 783.27 433.68 193.93 287.52 328.82 472.26 271.90 355.79 364.07 318.86 80.53 587.95 668.09 466.78 587.09 561.35 535.30 455.19 583.89 443.45 543.09 393.17 456.91 383.10 342.82 486.62 325.38 460.17 337.46 415.18 677.60 0.00 593.50 611.47 494.31 378.80 418.40 376.51 694.44 480.86 785.32 253.97 435.05 495.69 740.02 569.16 613.50 319.96 199.71 591.23 486.86 361.09 366.41 409.46 330.31 713.95 398.87 529.31 242.89 475.12 170.55 606.63 870.90 342.18 385.01 358.39 379.29 284.57 735.64 71.20 446.10 413.96 325.50 472.99 453.28 383.41 340.46 350.17 498.28 270.42 626.55 487.48 339.63 367.18 295.87 427.03 459.68
585.92 866.62 779.46 990.11 812.90 459.68 79.36 847.85 768.62 943.67 840.56 865.19 747.92 210.04 1039.10 41.74 1001.01 492.91 185.02 1009.78 765.02 622.73 995.19 760.94 161.23 984.32 927.75 209.23 858.85 153.45 180.21 720.79 333.31 120.70 731.13 112.99 841.40 874.59 873.81 201.28 271.91 757.44 857.73 833.96 566.58 846.58 763.94 255.40 885.03 831.42 805.27 1010.15 982.87 904.45 812.73 105.27 775.86 761.07 903.98 1111.23 800.58 155.65 750.57 613.48 922.24 885.46 622.44 739.69 819.38 142.65 620.13 747.28 807.43 336.79 531.94 267.39 964.30 186.54 1012.47 965.94 168.97 871.01 695.51 859.02 119.64 848.11 908.06 780.27 822.79 937.77 801.38 313.32 768.99 413.08 142.15 593.50 0.00 1036.85 182.74 435.54 206.01 777.79 724.13 173.17 829.59 797.48 873.30 246.06 827.92 73.01 909.23 754.74 728.76 995.82 835.09 601.71 798.98 894.64 798.54 264.44 401.72 161.21 768.52 211.06 669.30 998.51 1007.21 774.78 852.58 469.87 857.03 790.83 775.66 547.89 204.45 198.51 820.47 911.24 973.88 379.92 820.65 698.40 977.19 691.99 978.59 169.55 781.28 825.46 768.24 207.01 250.20
586.38 394.57 415.90 358.78 426.02 860.93 1012.58 619.24 428.48 364.10 403.32 436.99 370.10 1100.81 341.17 1035.95 400.74 716.48 916.89 307.77 603.35 964.71 41.66 683.29 875.62 168.10 399.32 1127.04 595.98 1153.51 935.38 485.30 936.36 995.43 465.36 974.59 461.39 602.34 332.82 955.86 910.98 864.18 479.81 432.35 825.06 440.03 437.41 877.85 485.48 375.21 570.81 727.48 366.02 608.85 482.70 1023.67 357.39 460.74 500.58 176.05 359.12 989.51 501.03 692.72 589.51 230.04 602.67 358.20 431.66 976.51 494.74 439.81 537.51 834.12 643.26 1056.54 387.95 1009.78 57.27 155.42 1006.86 289.56 955.03 304.90 1037.74 480.98 206.81 585.32 585.48 177.10 437.17 1043.81 524.86 809.50 1136.36 611.47 1036.85 0.00 982.25 927.87 891.88 364.44 655.78 1007.03 737.10 399.01 479.09 962.22 743.89 1020.30 514.61 470.46 498.16 159.98 299.82 829.97 356.73 350.76 426.66 1155.21 956.75 1050.89 435.51 971.60 587.76 197.82 648.39 396.01 424.33 790.08 439.00 409.34 776.34 668.34 958.47 957.20 362.14 495.78 429.65 994.88 454.76 416.47 324.86 695.92 207.95 995.61 373.74 425.91 382.53 933.35 1010.74
535.11 781.98 704.45 916.29 728.23 314.79 103.38 743.60 694.80 869.85 755.49 777.27 698.09 392.78 940.17 204.64 915.08 390.03 140.58 931.67 759.46 447.15 983.56 681.15 161.92 873.87 838.44 349.82 761.97 289.07 173.33 655.16 214.08 62.04 639.81 173.20 752.30 770.34 794.36 122.27 163.94 648.16 773.63 763.17 567.27 746.32 642.75 184.24 784.51 751.97 675.42 1010.84 909.05 890.68 706.36 102.98 704.70 669.75 819.88 1046.05 757.11 64.33 671.56 492.29 913.48 793.51 562.14 716.72 740.41 68.83 620.82 632.08 683.56 227.37 466.76 355.01 890.48 27.53 966.28 912.56 253.21 805.83 536.50 762.65 81.71 777.39 816.74 676.02 718.54 846.45 723.27 154.31 699.96 407.81 305.05 494.31 182.74 982.25 0.00 320.35 192.24 738.24 780.48 42.01 884.39 706.16 789.20 97.96 812.58 200.82 818.98 700.09 597.60 935.95 781.71 474.09 695.38 820.82 696.03 442.07 258.70 72.60 660.25 51.95 598.14 938.33 942.03 675.88 765.72 401.34 767.12 691.64 776.35 439.92 83.26 133.33 745.19 827.14 881.41 212.53 742.38 645.02 913.11 584.02 925.21 41.93 668.23 732.90 708.97 170.72 91.09
412.24 592.12 707.18 701.49 605.55 98.17 356.18 584.33 605.11 675.40 524.55 572.74 628.07 645.58 783.07 466.69 711.99 353.83 372.90 784.63 804.26 241.22 942.02 391.16 371.14 827.09 635.35 602.17 593.21 533.12 311.38 511.12 144.05 367.04 574.28 428.23 582.62 622.54 653.87 282.87 248.79 482.52 550.06 553.58 665.15 561.26 559.01 236.19 579.10 636.60 518.53 1091.03 708.73 1057.37 603.93 347.03 695.30 573.24 596.31 916.23 622.89 307.72 494.16 303.70 931.84 751.97 395.50 597.44 577.08 307.43 522.00 622.42 528.39 233.33 348.50 527.03 869.66 312.05 924.74 867.81 476.16 728.76 388.85 697.85 315.90 602.21 775.20 528.22 558.12 804.91 585.22 207.12 489.95 507.78 555.84 378.80 435.54 927.87 320.35 0.00 359.26 657.86 842.45 319.52 982.27 596.18 565.63 276.55 946.24 428.08 809.50 576.34 562.86 897.69 717.00 323.85 676.70 665.64 584.01 654.43 61.65 357.47 602.39 296.99 446.54 873.53 1110.80 657.66 545.56 526.85 564.03 614.41 874.23 376.82 321.88 336.20 651.50 603.57 666.21 107.82 575.99 600.27 729.63 431.03 880.46 326.52 649.55 547.14 625.99 318.82 257.85
512.89 707.05 641.65 817.22 672.53 423.40 205.82 671.68 628.25 795.12 699.66 693.90 616.40 334.80 877.86 234.78 822.62 351.16 126.04 848.55 718.77 585.01 904.77 651.97 74.45 791.43 755.07 318.82 707.63 261.63 71.24 610.15 258.99 164.48 638.02 173.42 691.45 734.95 685.42 147.99 201.23 704.15 752.43 683.22 479.80 662.95 581.90 123.07 728.76 652.78 697.92 865.89 809.98 698.44 645.51 209.65 632.93 651.25 796.89 986.69 594.57 176.67 653.99 514.17 793.52 714.72 512.20 533.68 662.44 166.02 533.35 595.24 640.07 206.17 427.79 198.49 859.44 219.77 887.49 812.31 116.90 734.61 636.81 704.83 178.52 716.54 737.95 722.92 723.59 767.66 673.39 254.62 678.51 309.27 305.61 418.40 206.01 891.88 192.24 359.26 0.00 639.71 672.06 184.02 766.67 651.90 760.88 231.28 737.08 212.86 782.54 667.96 618.11 842.19 681.46 553.19 612.94 754.27 675.94 325.89 327.58 159.01 614.64 202.90 536.97 844.88 809.58 621.15 700.91 281.38 683.75 584.82 658.63 347.20 108.98 94.36 636.99 805.94 822.04 353.81 683.47 544.77 813.92 596.30 824.96 176.61 585.79 712.81 562.23 56.97 242.04
269.46 222.06 225.80 345.00 238.80 559.69 753.52 412.04 200.02 296.82 261.99 238.45 123.28 836.14 392.87 776.89 361.86 469.56 682.13 341.52 459.81 725.32 324.45 441.82 616.56 232.12 293.59 840.65 396.59 891.04 671.71 253.58 650.44 734.99 181.11 715.53 285.41 427.54 192.33 615.97 640.63 658.88 311.45 252.33 634.78 232.06 262.05 636.89 314.11 149.94 388.83 726.69 352.24 619.82 268.12 764.61 230.86 198.69 343.25 386.00 109.58 687.60 261.23 431.44 574.75 165.66 284.16 106.03 232.15 674.60 157.66 112.66 322.01 562.89 349.03 785.31 453.58 762.76 307.17 272.43 756.61 199.38 699.71 135.75 740.30 307.42 157.63 400.54 414.87 187.34 214.15 764.17 342.88 503.80 877.30 376.51 777.79 364.44 738.24 657.86 639.71 0.00 520.28 702.73 697.51 185.09 305.43 775.66 621.30 761.24 499.26 214.05 196.27 302.31 211.57 621.80 43.49 292.37 251.60 890.54 655.51 772.48 133.62 732.01 288.60 293.50 730.96 68.86 270.02 546.49 228.30 118.01 589.47 421.52 654.98 643.96 128.63 364.96 341.72 701.68 279.96 145.24 311.08 477.40 273.58 699.15 70.64 263.92 114.03 679.53 719.96
430.21 679.96 401.89 827.70 656.78 940.62 698.63 852.24 650.58 781.90 703.74 699.46 512.22 701.43 889.54 704.12 818.49 640.52 724.55 787.95 60.47 1050.57 615.79 865.72 692.03 666.19 741.85 715.23 820.49 708.08 725.57 654.16 720.68 739.97 581.69 696.83 707.71 834.54 689.62 797.72 770.50 1030.50 742.22 688.78 309.11 668.51 667.23 724.55 738.81 658.88 760.23 346.40 834.94 220.90 712.49 724.54 455.53 611.63 788.47 801.36 612.62 752.09 661.00 796.79 198.11 617.39 520.46 573.77 669.82 739.09 446.88 407.62 722.59 686.67 633.44 580.75 373.50 805.81 598.51 500.36 555.16 690.86 1100.29 458.77 738.91 719.61 594.21 785.23 819.48 586.57 651.82 870.40 761.03 440.18 773.53 694.44 724.13 655.78 780.48 842.45 672.06 520.28 0.00 769.61 187.76 625.65 757.79 819.71 103.79 651.12 367.88 646.40 526.15 530.24 538.85 1010.58 557.77 756.04 650.33 647.03 873.01 780.48 557.52 798.65 653.95 571.34 332.04 451.42 706.47 496.97 689.31 599.20 182.24 733.56 764.73 714.66 632.10 795.73 789.24 871.64 686.96 443.52 793.78 877.98 553.50 743.20 548.47 687.20 585.51 729.03 837.79
521.03 739.97 696.23 877.98 686.22 326.35 102.88 736.74 656.49 831.54 733.18 758.75 656.08 383.21 918.98 214.91 877.71 348.02 101.50 889.66 758.96 489.16 965.37 644.83 131.41 895.06 801.07 359.62 764.61 278.11 136.74 634.22 175.47 61.54 597.80 174.93 726.65 747.09 755.66 89.15 149.86 641.30 761.07 754.72 536.76 734.45 634.53 167.16 781.39 719.29 694.16 980.33 870.74 882.46 698.14 92.02 687.62 627.74 807.32 1015.26 715.10 22.32 638.44 484.07 874.61 799.84 520.13 699.20 699.26 30.52 590.31 590.07 641.55 216.29 435.97 356.74 852.17 69.54 972.61 901.48 252.71 764.09 567.83 754.43 123.15 749.05 823.07 669.16 711.68 852.78 681.26 185.64 661.35 383.26 300.83 480.86 173.17 1007.03 42.01 319.52 184.02 702.73 769.61 0.00 853.88 664.15 768.29 111.58 770.57 200.32 776.97 658.08 555.59 893.94 768.06 467.23 712.41 782.51 699.86 402.99 268.39 96.98 618.24 79.29 581.06 901.46 920.64 633.87 748.95 393.12 748.60 659.92 745.84 425.84 75.04 111.94 703.18 814.58 863.46 254.54 710.84 633.94 880.43 569.94 914.13 35.07 710.24 728.80 671.22 149.33 118.43
617.97 851.36 578.85 978.43 844.54 989.68 822.20 1030.33 818.31 943.97 885.47 865.09 699.98 684.67 1022.17 834.06 979.36 652.48 788.04 922.97 248.23 1093.14 716.52 1050.04 722.47 768.73 923.05 802.57 962.78 770.29 751.34 841.92 908.44 856.54 769.45 821.44 895.47 1010.28 829.73 827.04 821.26 1151.88 917.13 870.62 317.12 850.35 854.99 807.17 926.57 797.09 947.99 295.70 971.19 128.25 893.94 848.11 630.19 799.39 963.38 902.09 738.88 832.22 848.76 871.98 320.69 712.20 678.59 724.90 842.80 823.36 552.09 595.38 910.35 781.96 743.46 761.06 478.34 910.16 699.24 688.12 742.92 801.87 1232.51 634.63 862.48 907.37 688.97 972.99 1007.24 717.38 824.80 956.61 941.45 542.08 844.00 785.32 829.59 737.10 884.39 982.27 766.67 697.51 187.76 853.88 0.00 795.74 932.70 918.97 83.97 838.88 351.68 814.14 713.91 706.31 528.04 1051.17 661.78 919.67 838.09 739.07 944.66 859.32 741.84 888.94 762.82 676.55 239.39 628.65 888.31 485.29 871.15 728.66 108.04 761.28 803.37 761.93 746.92 970.64 966.47 976.91 874.72 552.27 958.23 999.31 658.34 842.46 688.93 874.57 732.32 724.54 928.08
356.00 127.47 323.86 250.96 73.75 568.37 718.78 281.69 29.47 204.52 110.03 135.47 151.31 913.52 314.48 828.15 252.52 386.81 711.54 285.16 565.18 633.02 360.29 335.22 667.82 230.91 175.88 925.34 267.46 913.53 688.29 126.02 593.19 677.44 66.35 766.79 142.12 270.27 134.66 651.31 601.15 528.56 165.51 116.90 703.90 107.43 147.55 613.10 164.82 92.27 235.19 830.56 243.72 771.20 122.28 744.69 345.88 64.34 211.76 454.70 84.75 641.83 102.02 333.44 684.41 213.83 275.02 118.22 74.85 654.83 261.53 218.03 189.44 531.35 320.57 827.99 519.04 720.75 343.01 380.18 755.09 201.22 556.02 245.41 745.26 167.68 237.06 259.06 229.78 266.77 76.76 691.68 189.24 594.14 926.42 253.97 797.48 399.01 706.16 596.18 651.90 185.09 625.65 664.15 795.74 0.00 181.08 722.64 729.44 812.50 587.86 74.31 118.92 391.78 324.75 510.61 156.67 155.49 76.34 934.40 616.83 734.48 68.13 683.06 207.38 360.71 812.94 229.11 131.04 537.35 125.32 67.08 687.70 325.17 675.46 648.30 71.53 219.02 199.31 623.07 122.69 267.53 244.31 349.84 380.63 670.05 130.34 113.21 92.55 681.00 643.92
472.92 113.31 457.61 193.15 129.27 662.28 835.70 175.27 156.33 163.51 75.77 87.28 293.18 980.66 237.66 872.40 200.10 453.95 777.64 283.35 705.97 582.86 444.83 322.55 712.07 352.86 123.46 992.48 204.59 1012.27 734.92 217.11 690.09 794.36 183.27 811.04 79.34 181.85 175.06 733.10 675.79 524.20 15.57 85.16 820.82 97.93 188.89 659.73 42.95 160.29 195.18 981.26 185.91 897.26 125.28 860.12 470.04 188.84 61.82 407.18 218.50 755.80 232.12 391.20 801.80 347.58 437.08 234.99 106.23 768.80 438.95 380.09 206.06 561.83 431.64 939.06 655.01 796.17 427.55 455.34 871.91 227.78 604.27 362.80 865.01 72.80 370.81 220.18 223.51 346.33 112.08 673.60 204.21 754.87 971.45 435.05 873.30 479.09 789.20 565.63 760.88 305.43 757.79 768.29 932.70 181.08 0.00 781.93 850.82 856.75 671.56 118.56 237.75 428.90 413.34 527.23 286.50 134.06 107.46 1032.68 627.28 823.44 230.19 751.54 268.41 486.17 940.14 359.41 66.54 699.41 77.13 208.22 824.66 423.59 705.94 700.11 207.50 59.89 109.60 673.45 95.10 380.43 227.07 375.27 476.87 773.57 287.10 77.95 242.32 737.50 712.40
559.85 781.19 757.83 913.82 737.45 302.42 171.65 650.69 693.17 866.12 743.12 764.90 722.73 453.05 927.80 262.12 902.71 429.81 183.54 930.13 809.82 438.72 977.62 625.83 196.50 886.43 826.07 412.69 745.61 378.92 215.73 651.97 156.47 160.00 678.46 243.70 749.44 713.96 798.36 159.69 188.68 651.17 775.55 750.80 601.85 733.95 659.19 218.82 770.22 755.97 688.30 1027.77 906.58 929.72 722.80 192.83 739.28 708.40 821.80 1059.54 793.75 102.98 694.95 520.44 955.27 787.57 571.93 741.46 728.04 103.41 655.40 701.65 680.79 280.75 485.30 425.51 925.06 104.09 960.34 953.92 348.18 857.33 490.52 816.03 161.70 724.86 810.80 682.62 702.60 840.51 723.25 108.33 642.35 448.35 362.53 495.69 246.06 962.22 97.96 276.55 231.28 775.66 819.71 111.58 918.97 722.64 781.93 0.00 851.23 279.19 857.63 727.46 655.61 969.23 819.72 477.10 763.42 819.19 683.66 485.03 214.90 166.62 718.26 46.01 632.72 973.07 993.53 709.16 753.35 454.72 754.75 741.56 810.93 424.49 136.64 184.83 784.17 815.35 866.47 241.69 730.01 698.40 902.32 608.76 978.59 76.51 766.19 720.53 760.47 205.74 78.72
534.00 767.39 505.68 894.46 760.57 960.09 791.88 946.36 734.34 860.00 803.09 797.33 616.01 655.08 938.20 807.91 895.39 736.45 757.72 839.00 164.26 1102.49 702.23 969.51 692.15 684.76 839.08 772.98 901.32 739.97 721.75 757.95 824.47 826.95 685.48 791.12 811.50 938.33 745.76 797.45 790.94 1104.66 835.25 786.65 286.80 766.38 771.02 777.58 842.60 713.12 864.02 328.90 887.22 212.22 812.06 817.79 546.22 715.42 881.50 853.74 654.91 748.25 764.79 900.58 301.90 628.23 594.62 657.07 773.61 758.32 468.12 511.41 826.38 781.65 659.49 684.54 394.37 839.14 689.24 604.15 658.95 717.90 1148.54 562.56 832.16 823.40 605.00 889.02 923.27 633.41 755.61 915.66 864.82 512.49 813.68 740.02 827.92 743.89 812.58 946.24 737.08 621.30 103.79 770.57 83.97 729.44 850.82 851.23 0.00 754.91 267.71 732.26 629.94 622.34 444.07 1049.50 577.81 835.70 754.12 701.65 927.55 829.73 661.31 805.22 757.74 594.29 242.18 555.21 804.34 455.70 787.18 696.23 78.45 759.61 773.78 732.34 662.95 888.76 887.05 947.32 790.75 490.81 874.26 971.48 574.37 776.47 604.96 790.99 648.35 694.95 844.36
512.91 853.08 706.45 999.55 808.62 506.13 108.53 790.36 783.03 951.85 823.51 848.64 674.91 243.93 1022.55 53.00 988.44 474.88 121.54 993.23 697.74 647.97 978.64 764.13 144.68 943.07 911.80 174.09 799.24 176.06 183.40 738.30 350.39 138.78 749.87 45.71 792.82 846.74 886.38 237.13 255.96 779.02 841.18 837.15 547.41 832.28 757.61 258.59 868.48 843.99 741.93 990.98 992.31 871.24 810.03 134.44 759.01 779.81 887.43 1091.80 807.43 202.10 768.20 607.15 849.23 844.21 574.95 746.54 802.83 209.16 603.58 723.09 734.42 342.23 512.51 194.38 985.52 215.71 995.92 949.39 95.96 879.19 724.68 862.21 148.81 831.56 867.44 766.93 782.38 897.15 784.83 342.49 695.98 376.13 153.41 569.16 73.01 1020.30 200.82 428.08 212.86 761.24 651.12 200.32 838.88 812.50 856.75 279.19 754.91 0.00 892.68 738.19 755.91 979.27 817.67 622.84 780.09 909.05 781.99 298.33 439.74 160.46 770.88 246.28 672.49 981.96 982.38 752.71 844.52 398.13 840.48 783.38 756.49 531.94 198.12 216.02 798.95 894.69 957.33 398.00 772.07 681.85 980.38 676.04 962.04 202.68 752.94 808.91 760.73 183.05 285.42
453.40 685.87 376.17 658.64 652.64 907.67 879.37 815.69 608.36 724.35 668.51 662.75 436.55 921.57 683.36 908.33 700.60 613.53 813.57 671.75 418.82 995.25 472.95 845.44 748.00 503.56 715.48 1037.84 756.74 966.80 807.76 631.23 883.56 838.03 558.76 846.97 651.44 778.27 632.29 826.28 824.57 978.14 655.99 652.07 513.63 631.80 679.12 838.12 685.03 626.81 776.59 309.70 651.40 247.87 668.65 868.99 317.66 588.70 702.24 637.63 573.39 754.65 638.88 783.30 169.77 481.54 468.10 519.27 648.03 767.65 341.60 470.34 699.66 790.44 532.97 934.45 126.66 845.54 469.65 384.16 803.33 605.95 998.74 488.54 871.70 710.83 458.31 772.46 813.59 466.42 641.16 922.06 738.10 557.95 988.56 613.50 909.23 514.61 818.98 809.50 782.54 499.26 367.88 776.97 351.68 587.86 671.56 857.63 267.71 892.68 0.00 623.47 607.42 354.63 340.67 922.98 508.75 723.75 660.82 874.88 859.98 873.95 559.15 811.62 667.70 326.58 319.53 463.01 669.76 501.16 652.60 545.02 346.16 633.09 819.24 820.57 560.59 709.50 736.31 906.15 630.69 419.87 692.56 855.05 306.66 782.87 514.58 664.58 522.37 810.97 850.76
354.36 114.89 368.78 261.36 70.43 584.94 717.14 262.12 44.84 213.66 85.82 110.45 186.92 940.05 284.36 753.84 250.25 447.81 659.08 255.04 608.68 603.43 434.60 314.49 593.51 302.36 173.61 912.28 232.63 893.71 653.27 98.90 594.40 675.80 64.71 692.48 86.66 213.49 150.03 663.99 631.51 504.20 102.99 100.99 702.26 94.09 126.28 585.98 130.29 107.64 187.12 904.87 254.12 805.91 79.80 741.56 378.06 70.28 149.24 424.58 159.06 640.19 144.83 272.64 699.78 283.32 318.52 139.41 64.64 653.19 335.84 261.53 193.19 564.22 318.93 826.35 568.52 704.70 417.32 432.49 753.35 221.72 583.31 260.78 751.20 93.37 306.55 207.68 223.14 309.20 46.64 661.56 175.02 636.66 854.25 319.96 754.74 470.46 700.09 576.34 667.96 214.05 646.40 658.08 814.14 74.31 118.56 727.46 732.26 738.19 623.47 0.00 120.25 462.37 357.12 481.87 201.37 170.86 43.80 953.75 589.71 732.84 111.63 687.88 205.74 435.02 862.42 254.95 106.83 580.85 102.29 127.81 706.10 355.53 671.25 621.18 121.01 156.50 219.14 635.88 65.91 261.87 262.46 322.72 454.94 668.41 181.87 70.72 130.83 656.48 648.74
258.20 184.38 320.31 329.22 130.63 464.69 658.47 326.09 124.43 285.53 177.59 204.29 177.75 825.30 363.39 770.50 322.12 332.55 657.09 334.07 510.08 619.17 458.17 342.22 676.42 349.83 245.48 871.08 319.76 833.70 616.66 128.01 538.93 617.13 55.54 730.52 181.56 308.39 213.40 617.52 546.89 529.36 223.24 204.10 693.09 191.89 175.90 541.47 235.01 187.23 234.08 834.85 321.98 716.10 186.34 647.61 357.75 85.48 269.49 503.61 159.51 577.91 134.85 270.64 682.74 268.12 269.54 143.61 143.67 586.11 265.82 162.93 196.44 518.57 280.24 787.66 527.27 625.13 440.89 434.47 735.01 289.09 574.14 243.74 678.74 193.46 291.35 259.08 293.33 321.06 125.67 659.88 234.88 554.07 856.42 199.71 728.76 498.16 597.60 562.86 618.11 196.27 526.15 555.59 713.91 118.92 237.75 655.61 629.94 755.91 607.42 120.25 0.00 464.35 350.09 484.43 186.17 233.75 157.60 879.70 560.51 652.57 62.65 634.88 127.80 419.42 827.24 206.73 193.36 531.87 194.14 104.33 657.63 270.91 630.63 613.67 147.59 276.75 318.23 583.12 160.81 213.40 341.17 351.83 439.34 590.66 180.70 175.44 115.63 624.10 659.39
487.49 374.09 304.81 410.77 405.54 862.00 971.55 604.17 417.53 440.76 441.66 430.18 326.85 1027.35 424.67 994.92 424.66 615.95 900.16 317.47 590.71 968.59 118.32 687.67 834.59 220.53 430.17 1031.86 594.22 1059.27 888.16 505.78 873.84 947.96 433.31 933.56 489.55 561.09 312.34 890.98 829.03 853.67 444.47 433.18 665.08 412.91 531.19 812.97 471.85 354.73 560.30 664.33 418.01 585.36 497.66 962.64 357.51 440.26 490.72 303.89 307.03 909.04 493.80 706.49 490.28 196.23 502.19 367.92 411.18 922.04 375.69 303.87 552.79 715.07 567.06 937.49 227.97 963.48 128.03 29.88 915.30 342.72 947.03 243.57 931.51 497.74 173.00 585.30 600.75 202.71 416.69 943.28 514.35 683.96 1095.33 591.23 995.82 159.98 935.95 897.69 842.19 302.31 530.24 893.94 706.31 391.78 428.90 969.23 622.34 979.27 354.63 462.37 464.35 0.00 255.36 844.87 318.54 418.37 455.56 1064.89 908.13 973.08 401.70 923.22 563.65 67.89 669.24 260.07 450.87 685.22 429.43 387.15 650.80 625.09 859.18 853.35 345.70 488.79 477.62 930.75 475.01 297.42 376.85 685.41 47.97 926.81 345.69 443.48 348.72 889.49 923.41
304.76 357.66 136.96 460.38 368.89 747.47 791.60 536.63 324.61 450.27 393.36 387.60 228.53 913.07 513.29 834.19 451.32 461.01 737.95 394.93 506.27 811.50 258.16 599.80 673.86 240.69 418.10 915.15 537.96 914.56 676.09 415.06 736.84 787.23 342.59 772.83 410.00 570.61 336.03 678.91 668.30 755.07 397.77 376.92 591.05 356.65 423.53 600.90 426.81 303.39 504.82 650.37 453.14 483.92 411.57 817.51 102.15 336.99 444.02 409.67 245.18 748.31 411.99 462.97 510.44 184.16 341.46 247.34 376.10 737.54 214.96 187.16 483.49 554.34 406.33 776.76 253.71 809.24 275.44 282.22 747.45 291.21 848.71 161.68 814.80 441.48 160.93 529.82 554.53 190.64 366.38 788.34 502.91 574.16 928.68 486.86 835.09 299.82 781.71 717.00 681.46 211.57 538.85 768.06 528.04 324.75 413.34 819.72 444.07 817.67 340.67 357.12 350.09 255.36 0.00 676.76 168.08 409.01 400.92 904.16 753.19 815.95 291.60 777.99 413.19 254.73 595.06 152.32 394.61 517.37 377.45 279.49 522.52 468.82 698.45 692.62 253.22 451.28 477.32 788.38 423.03 136.69 454.31 590.30 274.65 743.21 195.23 407.19 238.62 678.11 762.68
593.24 524.96 728.93 648.41 504.85 287.43 570.11 453.99 481.14 574.09 484.83 519.31 581.76 811.75 682.21 643.45 639.13 398.69 539.74 688.60 967.79 134.74 829.44 272.65 552.15 696.63 580.48 796.93 417.58 745.34 518.54 415.46 414.53 528.77 459.55 577.13 447.89 465.08 581.29 514.19 499.30 174.07 513.36 492.51 902.95 488.36 392.56 532.62 521.81 543.94 400.02 1133.04 647.04 1144.13 456.17 559.25 706.67 481.99 559.61 858.14 585.83 460.38 457.71 213.79 1092.75 714.91 503.41 573.79 482.45 459.06 581.38 639.32 321.17 524.63 390.01 750.07 930.47 488.74 837.79 814.99 670.09 656.98 252.17 697.08 555.80 507.28 738.14 425.02 435.10 742.76 480.20 407.67 359.61 724.66 743.86 361.09 601.71 829.97 474.09 323.85 553.19 621.80 1010.58 467.23 1051.17 510.61 527.23 477.10 1049.50 622.84 922.98 481.87 484.43 844.87 676.76 0.00 601.74 585.15 438.07 828.66 262.20 546.69 533.56 487.61 356.63 861.79 1046.32 659.56 505.84 667.87 509.16 522.65 1045.12 289.89 499.79 533.61 572.14 562.28 629.51 308.37 468.64 622.02 656.73 243.13 881.71 432.16 584.09 462.24 567.13 496.22 458.40
312.95 189.58 260.23 324.02 200.81 603.18 736.42 368.55 156.53 282.19 225.28 219.52 105.18 878.85 360.39 820.38 329.29 477.14 690.08 298.03 497.30 717.10 321.44 431.72 660.05 188.63 261.27 878.14 369.88 874.57 628.22 253.99 606.95 695.08 181.52 759.02 241.92 406.69 167.95 659.46 632.04 638.80 277.07 208.84 608.77 188.57 262.46 593.40 298.68 135.31 380.78 770.18 331.26 652.00 243.49 762.33 258.79 196.83 323.32 415.75 77.10 694.89 243.91 387.95 546.40 172.63 314.75 79.26 208.02 681.89 201.15 150.15 316.50 570.97 364.30 793.39 421.79 722.91 338.72 288.66 729.84 163.52 697.91 107.40 776.70 273.40 193.74 396.74 386.45 223.45 198.30 720.68 334.83 541.29 860.61 366.41 798.98 356.73 695.38 676.70 612.94 43.49 557.77 712.41 661.78 156.67 286.50 763.42 577.81 780.09 508.75 201.37 186.17 318.54 168.08 601.74 0.00 264.81 233.01 912.39 694.06 752.12 123.52 744.46 245.11 283.08 725.36 111.57 226.53 577.08 209.37 118.42 597.55 403.42 650.54 600.47 85.14 330.58 309.24 740.23 259.11 153.32 296.45 433.92 303.00 708.79 27.15 239.11 70.54 637.86 744.54
465.98 100.30 425.34 95.47 140.19 698.44 847.34 309.33 126.02 74.33 141.09 111.76 297.83 1030.20 161.78 924.70 125.20 542.30 829.14 156.09 695.57 698.96 310.77 420.39 764.37 258.86 48.56 1073.09 277.47 1015.90 786.81 262.07 742.49 806.00 194.91 863.34 168.98 304.43 106.03 785.25 730.46 584.59 149.63 133.06 770.58 112.79 239.77 712.65 177.01 142.43 324.11 906.22 88.23 855.58 176.16 873.25 420.66 190.92 173.28 325.63 187.71 764.99 257.51 443.50 780.96 282.50 375.73 220.59 152.08 751.99 417.02 348.42 274.61 650.75 449.13 952.76 597.09 824.24 293.49 388.49 851.64 117.80 689.40 341.96 861.41 188.90 287.52 310.82 330.33 315.80 145.15 760.07 278.16 694.85 1012.53 409.46 894.64 350.76 820.82 665.64 754.27 292.37 756.04 782.51 919.67 155.49 134.06 819.19 835.70 909.05 723.75 170.86 233.75 418.37 409.01 585.15 264.81 0.00 159.78 1053.86 727.29 863.04 223.62 779.61 335.94 437.01 884.61 304.62 149.10 638.06 101.61 216.46 825.23 474.47 794.86 782.56 198.20 145.02 143.04 773.46 169.05 381.00 107.42 449.22 417.09 778.89 247.18 122.91 212.01 795.28 740.47
391.71 97.53 400.20 230.16 66.78 600.43 743.57 241.65 87.67 182.46 59.46 81.24 224.27 962.83 244.14 797.64 219.05 436.12 689.92 250.53 641.52 572.81 391.37 305.44 637.31 258.56 142.41 953.15 206.94 915.06 628.06 142.70 629.68 713.15 102.06 736.28 65.78 193.93 143.22 630.88 644.77 494.78 91.89 67.14 739.61 50.29 134.09 552.87 88.48 125.60 201.41 906.90 222.92 820.27 70.48 769.48 408.19 84.64 138.14 420.07 161.09 677.54 165.90 316.44 739.31 290.17 351.36 173.14 44.38 689.51 337.87 294.37 159.66 597.86 356.28 859.31 569.02 688.71 399.72 425.68 792.84 218.91 585.57 300.31 759.77 109.01 313.40 188.12 230.64 304.69 42.13 657.05 155.46 653.42 886.07 330.31 798.54 426.66 696.03 584.01 675.94 251.60 650.33 699.86 838.09 76.34 107.46 683.66 754.12 781.99 660.82 43.80 157.60 455.56 400.92 438.07 233.01 159.78 0.00 934.63 633.51 750.61 144.47 644.08 229.23 437.05 889.28 269.31 69.69 613.69 71.09 133.59 749.90 368.79 659.16 652.88 147.87 145.40 195.88 679.68 46.35 305.67 218.66 326.52 455.46 693.47 206.68 36.87 168.89 635.50 604.94
791.42 1005.35 823.51 1112.92 972.12 686.08 343.80 997.57 927.84 1064.87 990.69 1014.57 848.99 54.40 1176.16 245.33 1117.25 581.11 301.49 1146.85 586.56 850.69 1117.56 922.79 367.06 1056.89 1040.61 172.30 1033.52 205.47 363.35 869.72 530.34 380.03 889.04 309.21 1000.41 1060.84 983.72 417.08 435.91 958.97 1019.49 1001.77 499.19 984.92 907.79 433.84 1005.24 951.08 989.11 942.76 1105.68 829.02 971.40 369.71 882.02 918.98 1065.74 1214.11 892.87 382.05 890.51 787.10 803.86 987.65 708.87 859.57 979.01 392.45 825.96 809.16 951.04 522.18 634.82 127.40 1001.54 433.71 1100.28 1035.01 301.86 1024.75 931.65 965.71 384.08 959.88 977.13 1014.11 1029.56 980.45 975.13 549.46 943.16 418.02 207.43 713.95 264.44 1155.21 442.07 654.43 325.89 890.54 647.03 402.99 739.07 934.40 1032.68 485.03 701.65 298.33 874.88 953.75 879.70 1064.89 904.16 828.66 912.39 1053.86 934.63 0.00 619.69 385.39 894.83 439.02 847.74 1000.72 912.47 821.68 1004.32 474.81 1005.72 889.73 631.03 673.09 378.07 395.97 920.19 1050.37 1101.49 622.90 980.98 767.47 1112.22 855.99 1017.20 409.07 904.66 971.50 841.85 374.14 467.66
473.89 653.77 723.41 763.14 627.53 95.82 346.73 610.95 627.78 737.05 586.20 634.39 625.91 611.76 840.60 443.46 773.64 292.18 318.20 811.28 812.54 261.45 964.22 452.81 316.10 847.74 697.00 581.62 644.15 528.16 256.34 490.81 152.33 305.39 563.28 404.90 644.27 637.69 707.23 251.99 237.10 436.27 611.71 615.23 640.75 622.91 538.70 297.84 640.75 690.58 568.37 1084.32 770.38 1026.02 600.82 342.07 756.95 593.22 657.96 968.90 655.76 246.07 555.81 365.35 993.49 776.01 457.15 626.78 620.88 259.07 580.98 664.87 583.37 294.98 389.61 526.07 931.31 272.25 946.94 884.04 426.75 782.92 386.50 759.50 310.94 657.86 797.40 543.37 577.00 827.11 602.88 145.47 548.43 545.97 530.66 398.87 401.72 956.75 258.70 61.65 327.58 655.51 873.01 268.39 944.66 616.83 627.28 214.90 927.55 439.74 859.98 589.71 560.51 908.13 753.19 262.20 694.06 727.29 633.51 619.69 0.00 331.30 617.32 235.34 508.19 916.61 1109.79 692.88 607.21 588.50 625.68 575.64 849.83 327.67 291.00 301.09 648.39 665.22 727.86 46.17 637.64 616.50 791.28 447.06 896.69 274.29 678.89 608.79 623.52 283.14 196.20
598.31 835.02 681.60 958.51 781.30 369.37 81.85 784.19 737.02 912.07 810.07 827.87 729.58 371.25 994.75 192.36 965.68 444.91 135.58 986.62 754.46 519.70 1034.31 741.81 200.35 940.75 889.04 277.22 795.19 249.44 168.33 673.93 272.45 57.04 668.13 153.90 786.54 810.93 825.99 156.51 227.14 678.66 807.87 817.19 586.93 796.92 676.99 223.79 823.85 795.89 741.61 1024.90 951.27 857.45 740.60 63.35 740.11 698.07 854.12 1064.37 753.58 119.30 705.80 518.38 947.72 866.11 588.99 692.69 790.49 112.93 659.25 669.21 738.53 261.61 485.08 335.71 836.81 62.53 1038.46 946.80 245.38 824.15 571.50 796.89 41.57 811.63 888.92 716.61 759.13 918.63 778.22 189.31 758.33 426.13 272.16 529.31 161.21 1050.89 72.60 357.47 159.01 772.48 780.48 96.98 859.32 734.48 823.44 166.62 829.73 160.46 873.95 732.84 652.57 973.08 815.95 546.69 752.12 863.04 750.61 385.39 331.30 0.00 715.22 124.55 637.69 949.22 960.35 713.01 820.30 435.58 817.72 725.88 751.28 503.12 117.50 151.65 773.61 861.38 924.02 285.13 778.56 679.26 957.03 645.71 959.45 114.53 740.83 787.48 721.24 180.51 145.67
297.14 170.70 307.28 302.85 141.88 527.34 721.12 338.54 97.60 249.43 178.16 178.11 122.60 861.36 369.69 786.53 314.47 375.73 660.30 346.22 497.05 649.09 395.52 308.20 626.20 299.04 244.01 877.89 262.97 876.27 654.01 142.09 573.17 679.78 74.01 725.17 193.45 310.47 173.26 647.16 581.13 547.39 214.62 185.03 705.17 175.56 173.64 596.02 232.95 155.88 296.73 814.76 310.09 703.07 190.41 710.26 344.72 96.39 260.87 477.44 104.00 638.87 147.34 333.29 669.92 205.47 206.89 80.96 142.98 625.87 245.73 149.90 214.91 505.95 320.29 813.13 532.45 687.78 378.24 371.82 731.54 235.88 592.61 230.92 735.29 192.30 228.70 289.05 297.91 258.41 137.82 703.06 253.35 526.01 886.94 242.89 768.52 435.51 660.25 602.39 614.64 133.62 557.52 618.24 741.84 68.13 230.19 718.26 661.31 770.88 559.15 111.63 62.65 401.70 291.60 533.56 123.52 223.62 144.47 894.83 617.32 715.22 0.00 695.84 190.45 379.96 814.21 173.25 199.17 469.22 188.26 41.68 633.80 305.15 650.06 628.62 84.94 268.13 267.44 626.30 172.70 200.37 312.44 365.91 399.88 652.77 118.05 181.34 52.98 666.01 693.63
522.81 741.61 715.11 874.24 697.87 262.84 155.33 696.70 653.59 826.54 703.54 725.32 690.73 407.04 888.22 216.11 863.13 383.80 137.53 894.61 788.76 411.67 931.61 636.32 170.86 840.42 786.49 366.68 752.71 332.91 188.74 661.15 175.50 113.99 632.45 200.57 709.86 737.36 758.78 128.60 151.64 652.97 735.97 711.22 571.82 694.37 613.26 177.09 732.56 716.39 668.04 981.76 867.00 898.63 676.87 146.82 697.55 662.39 782.22 1013.53 758.73 56.97 677.89 502.95 909.26 741.56 559.12 704.42 688.46 69.97 629.76 669.36 696.79 238.03 445.72 382.38 891.62 72.14 914.33 907.91 305.16 816.49 492.63 773.31 115.69 747.90 764.79 643.04 685.56 794.50 686.21 110.44 661.38 418.47 316.52 475.12 211.06 971.60 51.95 296.99 202.90 732.01 798.65 79.29 888.94 683.06 751.54 46.01 805.22 246.28 811.62 687.88 634.88 923.22 777.99 487.61 744.46 779.61 644.08 439.02 235.34 124.55 695.84 0.00 590.99 927.06 952.69 663.15 713.77 412.00 715.17 695.55 780.90 403.92 93.92 143.99 744.59 789.48 829.46 195.68 690.43 655.68 862.74 571.72 935.87 55.45 720.18 680.95 719.63 181.38 39.14
332.45 264.66 408.55 421.05 239.98 497.65 600.35 273.01 209.92 373.35 264.04 272.13 263.24 830.10 467.23 709.18 409.94 303.39 550.95 437.91 618.69 491.37 547.77 351.95 548.85 433.10 333.30 749.22 281.89 776.09 489.09 213.50 482.12 600.38 141.03 633.87 258.77 329.39 288.64 491.91 492.33 404.61 283.98 266.85 758.59 259.73 171.59 413.90 311.36 272.72 224.58 916.07 413.81 835.86 235.20 626.26 350.04 169.96 330.23 607.45 267.31 563.54 119.59 142.84 791.51 391.28 265.83 249.54 211.51 550.54 347.04 282.69 207.85 392.70 236.97 720.34 576.55 625.67 530.49 533.77 653.87 364.33 485.98 352.51 640.63 299.11 414.51 249.58 265.03 444.22 229.51 554.95 178.63 522.63 747.10 170.55 669.30 587.76 598.14 446.54 536.97 288.60 653.95 581.06 762.82 207.38 268.41 632.72 757.74 672.49 667.70 205.74 127.80 563.65 413.19 356.63 245.11 335.94 229.23 847.74 508.19 637.69 190.45 590.99 0.00 528.19 911.77 307.74 285.05 514.83 261.98 198.40 777.39 241.75 520.19 513.91 271.15 328.30 378.01 518.35 254.07 333.16 428.10 270.17 548.11 556.21 227.46 266.10 243.43 496.53 593.17
490.18 388.44 345.91 409.58 409.21 853.19 947.93 642.40 390.18 459.49 446.22 399.73 354.80 1046.03 396.62 997.61 451.54 624.43 902.85 358.57 573.98 981.71 186.21 688.16 837.28 215.41 419.44 1039.38 583.92 1031.22 854.49 474.71 890.03 950.65 402.24 936.25 484.58 606.74 333.54 877.31 831.72 880.01 493.03 440.60 669.61 430.68 496.71 815.66 498.34 334.17 595.90 636.28 402.34 548.30 476.73 938.78 335.84 425.05 504.53 371.78 275.96 911.73 462.73 671.03 462.23 185.50 478.03 319.11 420.40 921.63 378.38 311.39 543.14 717.76 569.75 909.72 199.92 965.86 169.13 70.98 956.40 319.21 916.73 175.68 907.65 505.16 162.27 599.15 590.49 139.84 402.40 951.76 549.95 702.53 1098.02 606.63 998.51 197.82 938.33 873.53 844.88 293.50 571.34 901.46 676.55 360.71 486.17 973.07 594.29 981.96 326.58 435.02 419.42 67.89 254.73 861.79 283.08 437.01 437.05 1000.72 916.61 949.22 379.96 927.06 528.19 0.00 641.19 319.71 457.37 726.32 409.88 356.08 672.74 632.24 855.07 856.04 318.38 523.18 449.57 951.80 483.40 300.11 417.95 698.53 19.92 922.70 310.23 452.17 326.98 881.29 926.10
698.56 875.04 620.24 924.04 851.49 1118.20 944.65 1014.57 832.41 907.47 884.78 917.22 739.90 890.38 962.61 1030.32 944.06 891.87 903.18 841.62 325.91 1181.06 608.40 1122.41 884.03 732.34 867.42 922.16 1031.90 950.56 853.45 934.58 986.12 903.31 862.11 936.67 908.03 1043.71 853.41 897.78 968.41 1220.39 933.34 892.46 522.83 910.37 939.36 908.71 921.76 820.77 1033.30 86.72 931.28 111.14 899.76 970.56 561.73 846.77 979.59 793.97 762.56 903.12 914.96 991.54 178.96 633.48 725.50 789.11 879.96 890.12 599.00 664.31 992.38 946.98 790.37 812.76 443.03 969.56 591.12 689.27 887.20 800.37 1298.49 617.96 984.93 955.79 656.71 1047.13 1042.72 686.42 864.31 1061.25 987.35 736.98 989.24 870.90 1007.21 648.39 942.03 1110.80 809.58 730.96 332.04 920.64 239.39 812.94 940.14 993.53 242.18 982.38 319.53 862.42 827.24 669.24 595.06 1046.32 725.36 884.61 889.28 912.47 1109.79 960.35 814.21 952.69 911.77 641.19 0.00 662.10 905.79 691.00 912.39 814.16 313.75 890.49 858.77 808.70 741.41 971.09 937.06 1103.60 908.33 677.27 901.00 1048.23 621.27 917.02 752.51 862.19 785.97 846.09 970.63
253.98 273.68 156.94 400.09 272.04 628.55 711.72 470.56 236.22 354.34 305.71 304.00 77.80 767.28 444.49 773.88 407.93 400.70 679.12 384.44 390.95 779.48 356.02 481.45 613.55 264.83 353.18 771.79 397.99 853.30 667.12 272.48 613.77 695.41 200.01 712.52 305.80 445.49 249.85 669.94 607.99 624.32 343.84 293.32 565.92 273.05 286.25 591.93 357.79 207.46 424.06 701.72 392.85 550.96 290.90 702.57 191.61 184.67 390.09 437.94 161.20 656.19 280.13 450.58 583.03 165.97 262.16 160.52 253.18 664.39 154.65 43.80 339.67 494.03 319.06 716.45 389.12 703.41 338.74 289.95 718.83 268.24 697.98 144.03 671.44 348.32 189.20 419.21 453.60 218.91 266.10 728.03 378.11 434.94 838.87 342.18 774.78 396.01 675.88 657.66 621.15 68.86 451.42 633.87 628.65 229.11 359.41 709.16 555.21 752.71 463.01 254.95 206.73 260.07 152.32 659.56 111.57 304.62 269.31 821.68 692.88 713.01 173.25 663.15 307.74 319.71 662.10 0.00 311.01 491.73 293.85 169.96 520.61 370.22 638.14 632.31 196.71 397.35 337.82 725.59 307.24 76.38 368.60 496.30 308.04 668.94 113.56 302.50 163.62 669.70 702.29
444.05 88.58 422.52 197.95 62.73 629.59 813.26 215.18 101.57 151.70 21.01 57.64 233.21 992.96 266.74 860.67 185.67 466.25 734.23 239.07 646.00 592.12 444.83 305.59 700.34 315.38 118.81 997.65 185.87 959.37 672.37 177.42 660.90 781.44 170.35 798.81 72.07 220.03 150.33 700.57 668.86 520.88 55.48 18.62 807.90 37.96 158.18 622.56 77.90 125.20 178.22 929.11 199.32 861.97 100.39 839.17 428.92 150.10 101.73 401.54 183.41 740.54 197.77 379.47 735.26 312.49 391.64 196.14 73.54 727.54 385.03 337.81 186.14 599.48 376.88 884.30 638.71 758.40 437.36 432.79 817.81 220.24 600.84 296.26 829.46 82.06 335.72 203.22 237.47 317.53 81.68 696.60 181.56 710.76 949.06 385.01 852.58 424.33 765.72 545.56 700.91 270.02 706.47 748.95 888.31 131.04 66.54 753.35 804.34 844.52 669.76 106.83 193.36 450.87 394.61 505.84 226.53 149.10 69.69 1004.32 607.21 820.30 199.17 713.77 285.05 457.37 905.79 311.01 0.00 653.97 47.49 174.83 795.45 392.88 717.67 699.70 192.57 108.99 159.79 653.38 72.45 368.70 206.33 352.62 477.29 754.44 238.60 43.60 187.56 699.17 674.63
352.58 632.94 380.41 733.53 611.10 504.39 445.60 680.58 566.82 712.39 633.73 646.96 494.90 420.41 799.84 451.13 763.26 417.39 374.21 794.15 467.86 670.02 748.42 658.82 308.64 721.58 686.62 536.68 689.46 472.84 346.42 511.23 519.18 408.01 532.08 387.21 655.80 736.96 632.52 357.09 427.72 768.58 683.84 636.28 243.76 616.01 559.12 341.16 700.22 615.77 632.15 687.33 726.29 613.54 621.24 456.69 432.69 537.97 730.09 857.15 557.56 385.77 515.77 528.19 512.14 657.70 262.33 535.09 612.20 384.64 388.83 447.93 605.52 325.95 277.86 433.29 627.82 424.87 753.49 655.34 302.17 689.44 795.07 564.68 459.90 656.75 641.82 657.15 672.60 671.53 607.04 487.01 586.20 56.79 487.40 358.39 469.87 790.08 401.34 526.85 281.38 546.49 496.97 393.12 485.29 537.35 699.41 454.72 455.70 398.13 501.16 580.85 531.87 685.22 517.37 667.87 577.08 638.06 613.69 474.81 588.50 435.58 469.22 412.00 514.83 726.32 691.00 491.73 653.97 0.00 636.81 510.90 377.25 377.98 318.08 319.41 518.33 737.35 736.04 562.91 635.05 435.89 745.48 622.01 716.08 385.71 560.45 650.39 506.54 338.35 451.14
411.68 55.34 388.94 159.07 71.11 606.52 814.66 242.85 98.76 111.37 39.48 10.15 216.05 1007.07 231.63 856.13 147.96 480.36 748.34 248.55 628.84 607.35 397.34 353.08 695.80 291.67 71.32 1002.57 181.19 945.38 686.48 186.96 679.37 778.09 167.00 794.77 97.55 228.69 117.09 683.64 679.65 522.10 83.15 32.73 804.55 20.80 176.65 623.96 94.02 91.62 225.71 911.95 151.83 844.81 118.86 840.57 414.28 141.71 114.95 354.05 149.83 731.08 182.56 374.93 736.85 278.91 374.48 179.23 50.47 718.08 380.55 320.65 221.82 610.85 395.35 882.24 609.80 759.80 389.87 399.55 800.65 172.75 596.16 304.64 822.63 97.29 299.75 229.29 248.34 270.04 68.47 683.39 200.03 693.60 935.85 379.29 857.03 439.00 767.12 564.03 683.75 228.30 689.31 748.60 871.15 125.32 77.13 754.75 787.18 840.48 652.60 102.29 194.14 429.43 377.45 509.16 209.37 101.61 71.09 1005.72 625.68 817.72 188.26 715.17 261.98 409.88 912.39 293.85 47.49 636.81 0.00 146.58 767.20 411.35 722.65 709.24 174.40 136.66 148.44 671.85 90.92 360.93 189.17 371.09 429.80 744.98 223.74 62.07 182.87 706.59 676.03
338.82 151.64 304.88 261.17 120.79 569.02 715.53 319.25 90.44 257.95 156.81 136.43 108.47 903.04 333.86 819.60 294.54 417.41 684.96 304.54 538.73 642.57 388.58 349.29 659.27 297.99 217.90 903.64 298.63 846.45 637.36 135.57 614.85 674.19 63.10 758.24 191.95 320.35 154.87 640.18 578.23 540.87 204.80 156.58 663.49 136.87 144.04 562.17 205.48 129.91 270.82 842.00 268.41 720.92 177.11 741.44 317.59 80.68 241.23 456.33 80.12 638.58 143.22 341.24 661.29 200.37 248.57 51.14 114.14 651.58 272.97 191.58 204.00 464.27 317.32 783.31 520.26 719.17 371.30 364.88 701.72 230.56 581.70 222.29 755.63 199.00 221.76 282.53 296.86 251.47 96.14 709.11 224.87 567.69 890.43 284.57 790.83 409.34 691.64 614.41 584.82 118.01 599.20 659.92 728.66 67.08 208.22 741.56 696.23 783.38 545.02 127.81 104.33 387.15 279.49 522.65 118.42 216.46 133.59 889.73 575.64 725.88 41.68 695.55 198.40 356.08 814.16 169.96 174.83 510.90 146.58 0.00 620.62 346.83 608.38 602.55 72.75 254.81 266.39 621.81 176.14 218.40 291.05 359.39 376.00 666.80 103.25 145.91 47.88 639.94 672.61
612.45 757.79 551.14 881.79 741.41 881.64 714.16 939.87 711.06 851.08 777.43 757.05 598.41 576.63 954.48 767.56 905.80 717.29 680.00 852.30 212.65 1047.27 736.35 942.00 614.43 733.65 829.84 694.53 854.74 662.25 643.30 752.73 817.96 748.50 683.72 713.40 792.76 902.24 722.57 719.00 713.22 1144.93 809.09 777.20 209.08 757.49 764.66 699.13 826.10 728.07 891.44 400.47 889.03 236.29 785.90 740.07 571.31 701.30 855.34 902.63 673.83 728.32 763.84 905.44 380.35 677.12 639.58 616.86 734.76 715.32 522.50 494.70 824.62 703.20 655.11 653.02 472.82 802.12 719.07 620.92 660.53 725.43 1172.32 526.59 754.44 799.47 653.89 899.69 917.48 654.39 716.76 848.57 845.49 434.04 735.96 735.64 775.66 776.34 776.35 874.23 658.63 589.47 182.24 745.84 108.04 687.70 824.66 810.93 78.45 756.49 346.16 706.10 657.63 650.80 522.52 1045.12 597.55 825.23 749.90 631.03 849.83 751.28 633.80 780.90 777.39 672.74 313.75 520.61 795.45 377.25 767.20 620.62 0.00 755.23 695.33 653.89 665.05 862.60 858.43 868.87 772.01 444.23 854.96 976.55 652.82 734.42 581.42 766.53 645.41 616.50 820.04
303.35 422.35 439.04 548.81 398.92 278.65 478.60 425.69 354.64 497.51 371.87 420.06 298.24 635.51 612.93 581.98 534.10 108.80 410.40 587.68 677.90 424.63 641.01 391.43 421.65 556.08 457.46 647.33 360.43 608.83 418.44 282.59 268.02 465.63 290.82 520.62 344.25 407.93 448.68 346.61 275.98 390.60 410.60 400.90 621.74 408.58 234.70 345.56 381.56 417.44 350.72 860.52 556.05 854.24 298.31 496.06 497.55 320.76 449.69 679.41 409.15 418.24 306.79 166.97 802.86 467.54 213.52 358.72 385.95 405.24 291.49 375.38 292.87 247.66 100.12 545.69 687.68 467.45 640.31 595.21 464.10 502.52 512.69 508.26 471.89 369.34 490.77 375.72 403.13 520.48 379.28 411.33 331.31 434.77 652.81 71.20 547.89 668.34 439.92 376.82 347.20 421.52 733.56 425.84 761.28 325.17 423.59 424.49 759.61 531.94 633.09 355.53 270.91 625.09 468.82 289.89 403.42 474.47 368.79 673.09 327.67 503.12 305.15 403.92 241.75 632.24 890.49 370.22 392.88 377.98 411.35 346.83 755.23 0.00 385.62 385.94 390.09 459.83 510.95 373.84 336.27 332.13 569.48 294.30 612.32 429.79 376.27 382.41 358.13 402.99 388.48
480.81 747.14 621.19 869.55 713.12 356.76 145.98 745.54 668.84 825.27 696.66 732.80 667.37 401.15 903.30 243.18 870.61 327.41 76.58 898.91 735.62 483.42 916.81 626.85 82.85 839.17 793.97 372.21 730.74 333.25 94.82 572.35 210.91 104.64 637.72 181.82 669.04 772.28 720.78 39.01 109.64 595.17 690.37 725.69 488.20 709.45 559.49 106.29 706.35 678.39 677.44 931.77 863.75 807.42 623.10 167.06 626.75 661.07 736.62 962.79 676.73 67.69 588.30 409.03 830.22 778.20 488.52 642.66 703.54 66.56 541.75 612.23 659.59 144.11 383.50 307.47 853.26 110.79 920.96 829.30 225.88 722.57 586.55 679.39 159.07 694.13 771.42 677.96 708.53 801.13 690.84 204.36 677.24 324.55 338.03 446.10 204.45 958.47 83.26 321.88 108.98 654.98 764.73 75.04 803.37 675.46 705.94 136.64 773.78 198.12 819.24 671.25 630.63 859.18 698.45 499.79 650.54 794.86 659.16 378.07 291.00 117.50 650.06 93.92 520.19 855.07 858.77 638.14 717.67 318.08 722.65 608.38 695.33 385.62 0.00 50.07 672.03 743.88 806.52 244.83 661.06 561.76 839.53 529.72 841.95 67.63 677.69 696.03 625.71 87.46 133.06
475.32 709.02 622.07 846.71 665.42 396.91 135.95 736.15 656.54 814.45 684.03 719.39 617.30 408.55 878.49 240.25 851.04 331.58 94.48 849.17 685.55 529.97 918.18 615.85 88.62 789.10 774.40 355.04 741.10 331.75 44.75 522.28 209.60 94.61 587.65 174.73 678.23 763.56 717.51 89.08 159.71 645.24 684.54 691.71 493.97 703.17 570.17 100.01 713.58 684.87 671.61 895.42 839.47 792.80 632.29 161.86 613.35 617.59 730.79 912.72 626.66 94.42 589.12 449.12 831.55 728.13 446.83 604.19 658.77 81.42 523.18 606.40 616.57 138.28 333.43 291.24 839.86 160.86 900.90 823.47 207.71 672.50 636.62 696.29 176.23 703.32 751.36 669.24 711.76 781.07 640.77 254.43 641.77 274.48 287.96 413.96 198.51 957.20 133.33 336.20 94.36 643.96 714.66 111.94 761.93 648.30 700.11 184.83 732.34 216.02 820.57 621.18 613.67 853.35 692.62 533.61 600.47 782.56 652.88 395.97 301.09 151.65 628.62 143.99 513.91 856.04 808.70 632.31 699.70 319.41 709.24 602.55 653.89 385.94 50.07 0.00 621.96 738.05 800.69 294.90 670.25 555.93 841.73 518.72 836.12 108.32 627.62 661.44 575.64 37.39 183.13
346.25 154.90 281.53 277.94 129.92 612.28 757.91 340.67 91.00 235.04 171.56 184.55 124.04 910.47 325.71 851.95 300.08 399.99 709.41 296.40 571.63 703.93 353.94 393.14 710.58 240.25 236.86 938.52 338.99 898.62 666.71 197.55 645.61 716.57 135.85 796.69 166.62 334.50 114.19 707.09 650.98 589.01 191.93 188.43 693.91 168.96 216.79 629.08 220.97 97.61 295.64 826.31 270.70 737.14 158.35 783.82 274.35 135.87 238.18 435.86 42.42 711.33 173.55 393.65 631.54 171.50 256.00 103.31 140.90 703.38 286.29 224.48 250.97 537.02 369.40 835.48 447.51 772.72 336.66 330.24 753.89 188.90 627.55 192.54 798.19 214.38 187.12 320.64 301.31 216.83 122.90 727.32 249.69 575.12 909.92 325.50 820.47 362.14 745.19 651.50 636.99 128.63 632.10 703.18 746.92 71.53 207.50 784.17 662.95 798.95 560.59 121.01 147.59 345.70 253.22 572.14 85.14 198.20 147.87 920.19 648.39 773.61 84.94 744.59 271.15 318.38 741.41 196.71 192.57 518.33 174.40 72.75 665.05 390.09 672.03 621.96 0.00 245.44 270.84 694.56 186.92 220.82 258.75 420.75 338.30 730.28 83.63 172.67 78.34 659.35 705.45
497.29 173.20 517.50 178.60 164.27 686.59 873.64 169.19 201.34 176.30 130.00 133.06 336.93 1018.60 217.31 910.34 212.89 491.89 815.58 271.90 753.19 600.55 455.79 358.62 750.01 328.07 136.25 1030.42 144.70 1050.21 772.86 248.06 727.25 832.30 221.21 848.98 139.23 162.79 207.76 775.68 713.73 520.88 53.51 127.61 858.76 145.15 225.13 697.67 82.55 220.18 231.25 1015.87 171.36 935.20 161.52 898.06 507.98 226.73 28.26 441.44 278.39 793.74 263.07 429.14 836.80 370.19 475.02 272.93 144.17 806.74 446.84 418.03 265.95 599.77 475.43 982.85 692.56 834.11 438.51 490.22 909.85 262.82 544.38 397.80 902.95 90.49 360.91 236.77 211.85 390.62 158.67 733.49 241.37 785.82 1009.39 472.99 911.24 495.78 827.14 603.57 805.94 364.96 795.73 814.58 970.64 219.02 59.89 815.35 888.76 894.69 709.50 156.50 276.75 488.79 451.28 562.28 330.58 145.02 145.40 1050.37 665.22 861.38 268.13 789.48 328.30 523.18 971.09 397.35 108.99 737.35 136.66 254.81 862.60 459.83 743.88 738.05 245.44 0.00 99.11 702.18 142.25 418.37 212.52 397.79 524.97 811.51 325.04 108.90 287.33 775.44 750.34
548.41 203.78 471.25 115.21 198.79 754.96 918.09 268.30 228.78 91.24 169.14 151.97 350.62 1081.24 128.06 972.98 138.28 554.53 878.22 208.51 728.77 651.67 394.36 406.78 812.65 261.55 97.14 1093.06 243.81 1083.67 823.94 318.04 778.37 876.75 265.66 911.62 188.94 227.60 219.75 826.76 776.37 548.85 116.15 178.41 880.79 159.09 276.25 748.75 145.19 238.12 299.07 979.66 107.97 888.78 212.64 944.00 529.43 263.65 89.07 378.05 232.14 841.14 301.33 487.12 851.48 303.58 473.71 293.03 198.91 854.14 460.84 381.62 315.66 662.41 519.88 1020.53 609.65 884.59 411.64 467.37 938.94 260.84 643.49 412.48 944.57 141.61 326.81 282.34 239.82 350.98 216.91 783.20 292.49 772.76 1072.03 453.28 973.88 429.65 881.41 666.21 822.04 341.72 789.24 863.46 966.47 199.31 109.60 866.47 887.05 957.33 736.31 219.14 318.23 477.62 477.32 629.51 309.24 143.04 195.88 1101.49 727.86 924.02 267.44 829.46 378.01 449.57 937.06 337.82 159.79 736.04 148.44 266.39 858.43 510.95 806.52 800.69 270.84 99.11 0.00 753.30 204.70 414.20 149.13 449.75 429.65 869.36 324.55 187.55 283.16 831.38 800.82
520.06 699.94 758.60 809.31 673.70 141.99 300.56 564.78 652.54 783.22 632.37 680.56 647.79 589.96 881.36 411.79 819.81 327.37 321.41 857.45 811.17 307.62 953.22 498.98 313.66 853.98 743.17 562.35 606.87 485.25 302.51 536.98 150.96 259.22 609.45 372.61 659.72 591.52 753.40 205.82 197.94 482.44 657.88 661.40 686.92 669.08 584.87 266.86 657.05 715.34 522.20 1130.49 816.55 1035.97 646.99 299.16 787.32 639.39 704.13 1015.07 701.93 252.65 601.98 375.51 1039.66 817.09 503.32 670.93 667.05 264.45 627.15 702.16 601.20 266.92 435.78 552.30 919.77 240.06 966.08 900.87 450.39 824.29 432.67 805.67 268.03 611.69 840.32 497.20 539.72 870.03 649.05 144.01 568.15 551.23 507.97 383.41 379.92 994.88 212.53 107.82 353.81 701.68 871.64 254.54 976.91 623.07 673.45 241.69 947.32 398.00 906.15 635.88 583.12 930.75 788.38 308.37 740.23 773.46 679.68 622.90 46.17 285.13 626.30 195.68 518.35 951.80 1103.60 725.59 653.38 562.91 671.85 621.81 868.87 373.84 244.83 294.90 694.56 702.18 753.30 0.00 638.97 651.69 837.45 463.14 931.88 251.13 723.04 654.96 669.69 308.32 176.48
383.34 119.01 434.69 228.38 84.13 601.16 765.47 203.49 102.58 202.29 51.44 99.63 235.25 971.31 290.49 819.75 238.88 444.60 724.99 296.88 669.75 563.35 437.72 282.43 659.42 304.91 162.24 946.16 166.72 945.10 674.41 147.97 594.99 724.13 113.04 726.36 20.75 147.58 177.33 677.23 612.25 448.43 88.74 76.41 750.59 88.15 101.57 599.22 101.02 159.61 155.06 940.39 233.52 858.20 37.96 791.38 435.42 124.90 134.99 443.12 207.44 688.52 192.87 338.55 756.66 336.52 372.72 197.15 90.73 701.52 380.36 322.60 147.47 583.93 367.26 874.68 615.37 735.06 446.07 445.13 800.37 253.02 581.69 317.66 805.57 80.14 359.75 141.77 184.29 351.04 88.48 703.40 109.11 685.73 918.37 340.46 820.65 454.76 742.38 575.99 683.47 279.96 686.96 710.84 874.72 122.69 95.10 730.01 790.75 772.07 630.69 65.91 160.81 475.01 423.03 468.64 259.11 169.05 46.35 980.98 637.64 778.56 172.70 690.43 254.07 483.40 908.33 307.24 72.45 635.05 90.92 176.14 772.01 336.27 661.06 670.25 186.92 142.25 204.70 638.97 0.00 327.78 256.52 280.17 485.41 705.73 235.52 46.14 188.57 681.85 651.29
190.07 313.56 106.91 444.65 318.50 610.78 674.13 509.59 274.22 406.85 347.69 354.83 154.18 776.38 512.89 697.50 462.25 324.32 602.74 408.07 397.62 731.92 376.48 508.57 537.17 289.42 385.61 778.46 410.51 777.87 590.74 308.50 600.15 650.54 268.94 636.14 348.53 458.01 278.34 593.56 531.61 700.70 364.86 360.40 517.79 340.13 356.39 515.55 392.16 283.84 447.48 647.30 451.89 603.64 341.67 685.22 165.42 261.05 411.11 458.40 229.60 611.62 328.77 476.00 566.95 232.89 204.77 189.30 318.06 624.62 78.27 50.47 396.31 417.65 269.64 640.07 390.40 672.55 359.20 267.54 661.67 301.47 774.36 206.19 678.11 355.24 209.66 455.46 477.66 239.37 308.51 651.65 415.21 441.61 797.91 350.17 698.40 416.47 645.02 600.27 544.77 145.24 443.52 633.94 552.27 267.53 380.43 698.40 490.81 681.85 419.87 261.87 213.40 297.42 136.69 622.02 153.32 381.00 305.67 767.47 616.50 679.26 200.37 655.68 333.16 300.11 677.27 76.38 368.70 435.89 360.93 218.40 444.23 332.13 561.76 555.93 220.82 418.37 414.20 651.69 327.78 0.00 410.73 532.32 280.19 629.39 137.19 332.59 208.45 593.32 625.99
573.40 184.23 458.46 33.92 232.98 772.64 945.26 381.71 223.94 108.24 205.08 195.61 351.40 1118.71 115.50 1016.30 75.88 631.12 858.84 59.38 733.31 763.26 327.16 511.92 855.97 240.15 148.29 1122.26 349.68 1075.55 796.98 353.08 837.50 903.92 292.83 954.94 263.15 320.72 203.53 819.80 749.17 669.67 222.30 188.64 878.00 168.37 342.25 771.53 229.56 161.14 384.55 912.85 41.16 900.12 283.58 971.17 502.51 288.84 184.26 228.92 219.35 862.91 330.13 535.10 774.01 285.46 483.15 280.24 216.59 849.91 468.74 412.40 378.32 748.67 547.05 1012.41 604.47 907.37 309.88 346.97 930.82 210.48 756.90 335.01 945.08 253.20 293.38 385.20 388.95 303.66 234.59 849.51 365.63 802.27 1074.35 498.28 977.19 324.86 913.11 729.63 813.92 311.08 793.78 880.43 958.23 244.31 227.07 902.32 874.26 980.38 692.56 262.46 341.17 376.85 454.31 656.73 296.45 107.42 218.66 1112.22 791.28 957.03 312.44 862.74 428.10 417.95 901.00 368.60 206.33 745.48 189.17 291.05 854.96 569.48 839.53 841.73 258.75 212.52 149.13 837.45 256.52 410.73 0.00 536.69 424.82 876.81 273.54 218.91 270.37 823.78 823.60
526.84 399.18 639.23 508.55 364.30 376.44 622.70 261.84 360.79 482.46 331.61 379.80 418.50 873.54 570.66 729.04 519.05 346.83 554.50 550.71 843.94 283.18 654.26 97.13 594.40 580.75 442.41 850.13 253.09 811.17 548.42 223.82 512.62 609.73 296.29 693.20 300.92 300.59 446.66 490.71 420.08 204.88 368.91 356.58 865.77 368.32 271.71 473.23 367.30 423.59 215.90 1104.55 513.69 1047.26 318.13 647.12 620.21 326.23 401.21 720.25 422.57 562.34 316.14 127.33 971.96 551.65 436.59 410.53 360.31 549.34 535.52 496.79 209.50 438.17 344.15 779.67 844.01 611.55 671.54 655.53 713.20 522.35 420.31 532.96 615.99 321.94 574.88 239.24 209.93 604.59 342.31 539.44 171.06 618.03 806.43 270.42 691.99 695.92 584.02 431.03 596.30 477.40 877.98 569.94 999.31 349.84 375.27 608.76 971.48 676.04 855.05 322.72 351.83 685.41 590.30 243.13 433.92 449.22 326.52 855.99 447.06 645.71 365.91 571.72 270.17 698.53 1048.23 496.30 352.62 622.01 371.09 359.39 976.55 294.30 529.72 518.72 420.75 397.79 449.75 463.14 280.17 532.32 536.69 0.00 718.45 573.89 406.77 326.31 407.27 555.86 532.58
470.26 408.36 347.36 429.50 429.13 833.27 954.32 652.14 410.10 479.41 466.14 419.65 374.72 1026.11 376.70 977.69 471.46 604.51 882.93 365.44 593.90 983.22 166.29 708.08 817.36 196.90 439.36 1058.65 603.84 1011.30 870.93 494.63 880.34 930.73 422.16 916.33 464.66 609.06 353.46 857.39 811.80 899.93 492.44 460.52 649.69 450.60 516.63 795.74 518.26 354.09 601.85 616.36 422.26 537.39 496.65 958.70 319.11 444.97 518.72 351.86 295.88 891.81 482.65 690.95 442.31 205.42 484.96 339.03 440.32 904.81 358.46 330.66 563.06 697.84 549.83 889.80 180.00 952.74 162.99 77.85 941.86 299.29 936.65 195.60 927.57 524.05 182.19 619.07 610.41 159.76 422.32 931.84 562.32 721.80 1078.10 626.55 978.59 207.95 925.21 880.46 824.96 273.58 553.50 914.13 658.34 380.63 476.87 978.59 574.37 962.04 306.66 454.94 439.34 47.97 274.65 881.71 303.00 417.09 455.46 1017.20 896.69 959.45 399.88 935.87 548.11 19.92 621.27 308.04 477.29 716.08 429.80 376.00 652.82 612.32 841.95 836.12 338.30 524.97 429.65 931.88 485.41 280.19 424.82 718.45 0.00 909.58 330.15 459.23 346.90 873.51 906.18
524.98 750.87 688.82 874.36 697.15 318.29 137.95 701.67 652.87 827.92 733.43 755.13 661.98 379.59 937.61 211.29 888.64 377.16 107.58 908.56 733.31 467.12 953.95 651.83 119.99 895.87 812.00 376.77 743.76 313.18 139.22 629.39 182.47 96.61 603.70 187.05 713.71 728.41 758.06 83.18 153.81 606.23 758.00 751.10 525.34 730.83 604.16 142.31 751.02 715.67 659.09 968.91 867.12 875.05 667.77 127.09 662.77 633.64 804.25 1021.04 729.98 28.22 632.47 476.66 880.51 797.01 531.44 706.59 718.16 26.90 578.89 625.14 647.46 211.74 441.75 368.86 848.55 69.46 969.78 896.93 279.83 780.82 548.08 747.02 123.64 738.80 820.24 634.09 676.61 849.95 700.16 165.89 668.35 371.84 311.70 487.48 169.55 995.61 41.93 326.52 176.61 699.15 743.20 35.07 842.46 670.05 773.57 76.51 776.47 202.68 782.87 668.41 590.66 926.81 743.21 432.16 708.79 778.89 693.47 409.07 274.29 114.53 652.77 55.45 556.21 922.70 917.02 668.94 754.44 385.71 744.98 666.80 734.42 429.79 67.63 108.32 730.28 811.51 869.36 251.13 705.73 629.39 876.81 573.89 909.58 0.00 710.16 730.34 683.96 129.23 94.59
327.26 176.37 244.10 307.46 181.31 630.33 753.70 395.70 137.03 269.66 217.59 232.46 78.03 852.01 375.70 805.94 325.06 459.93 662.93 270.88 488.00 689.95 338.45 426.25 660.24 205.64 248.42 867.89 381.02 847.42 601.07 238.82 634.10 712.36 166.35 759.21 214.77 383.10 141.15 670.23 604.89 611.65 271.53 223.21 635.92 202.94 247.29 592.22 293.66 150.62 365.53 784.49 314.70 664.52 234.17 751.17 231.64 169.68 317.78 432.76 92.41 711.79 216.76 370.30 573.55 163.82 298.12 52.11 180.87 709.04 215.46 140.85 297.00 554.84 337.17 777.26 448.94 695.76 336.59 315.81 702.69 164.28 670.76 134.55 749.94 274.16 187.05 377.29 360.12 216.76 184.32 693.53 319.58 531.99 833.46 339.63 781.28 373.74 668.23 649.55 585.79 70.64 548.47 710.24 688.93 130.34 287.10 766.19 604.96 752.94 514.58 181.87 180.70 345.69 195.23 584.09 27.15 247.18 206.68 904.66 678.89 740.83 118.05 720.18 227.46 310.23 752.51 113.56 238.60 560.45 223.74 103.25 581.42 376.27 677.69 627.62 83.63 325.04 324.55 723.04 235.52 137.19 273.54 406.77 330.15 710.16 0.00 234.09 80.66 627.87 717.39
421.05 90.16 430.37 194.62 74.42 620.52 780.44 212.74 97.06 163.35 22.59 68.08 228.03 999.70 276.20 824.56 197.32 472.99 726.79 258.17 645.37 596.98 428.24 318.57 664.23 295.43 133.39 983.00 170.07 951.93 664.93 139.16 634.66 742.49 131.40 763.20 46.07 181.52 151.91 667.75 658.39 494.57 88.61 30.27 768.95 50.54 147.71 589.74 59.57 134.64 201.20 941.69 187.38 853.46 84.10 806.35 431.58 117.83 127.70 411.98 191.26 706.88 154.17 343.36 746.95 305.48 388.06 189.48 67.77 719.88 374.74 331.24 172.79 610.18 374.06 881.48 605.89 725.58 416.40 434.37 822.68 226.80 585.04 307.95 796.64 94.83 328.71 187.91 207.42 312.33 49.77 664.69 155.25 676.92 917.15 367.18 825.46 425.91 732.90 547.14 712.81 263.92 687.20 728.80 874.57 113.21 77.95 720.53 790.99 808.91 664.58 70.72 175.44 443.48 407.19 462.24 239.11 122.91 36.87 971.50 608.79 787.48 181.34 680.95 266.10 452.17 862.19 302.50 43.60 650.39 62.07 145.91 766.53 382.41 696.03 661.44 172.67 108.90 187.55 654.96 46.14 332.59 218.91 326.31 459.23 730.34 234.09 0.00 183.05 672.37 641.81
334.46 163.50 286.74 271.07 130.27 580.32 711.59 367.13 85.99 238.81 166.55 172.72 85.82 896.25 334.31 797.01 275.40 406.60 662.89 305.00 537.57 690.45 342.54 361.18 636.68 251.35 198.76 881.05 315.95 823.86 601.03 183.45 626.15 670.25 110.98 735.65 194.37 336.15 141.87 651.96 581.33 588.75 233.82 184.22 679.31 163.95 191.92 610.05 242.62 109.23 317.95 817.95 263.83 714.58 210.61 727.61 312.30 128.56 277.52 424.46 51.02 670.06 191.10 386.27 616.94 152.49 244.21 28.55 151.28 657.06 248.92 190.42 245.96 512.15 295.94 760.72 492.33 736.50 325.26 318.84 679.13 182.90 629.58 177.94 740.75 224.20 175.72 326.20 322.33 205.43 133.28 716.68 272.75 563.33 863.60 295.87 768.24 382.53 708.97 625.99 562.23 114.03 585.51 671.22 732.32 92.55 242.32 760.47 648.35 760.73 522.37 130.83 115.63 348.72 238.62 567.13 70.54 212.01 168.89 841.85 623.52 721.24 52.98 719.63 243.43 326.98 785.97 163.62 187.56 506.54 182.87 47.88 645.41 358.13 625.71 575.64 78.34 287.33 283.16 669.69 188.57 208.45 270.37 407.27 346.90 683.96 80.66 183.05 0.00 613.03 693.83
489.42 733.03 584.68 857.70 702.28 378.96 172.52 728.65 685.22 813.63 692.12 716.74 635.76 379.89 879.64 223.30 847.60 294.19 72.65 883.16 722.94 531.91 891.69 607.53 62.97 826.49 777.91 317.65 763.42 313.80 26.80 559.67 202.02 132.00 625.04 137.34 701.28 791.92 742.39 102.50 144.26 658.66 721.93 680.55 468.32 685.79 607.56 82.63 723.98 709.75 689.15 877.58 858.42 755.41 669.68 198.43 575.96 654.98 768.18 950.11 651.54 131.81 616.12 486.51 850.49 741.62 471.76 590.65 679.88 118.81 521.87 643.79 653.96 175.67 370.82 253.85 802.47 196.47 908.97 859.61 173.87 709.89 636.56 705.61 197.64 740.71 764.85 706.63 748.40 794.56 677.63 254.37 675.16 311.87 250.57 427.03 207.01 933.35 170.72 318.82 56.97 679.53 729.03 149.33 724.54 681.00 737.50 205.74 694.95 183.05 810.97 656.48 624.10 889.49 678.11 496.22 637.86 795.28 635.50 374.14 283.14 180.51 666.01 181.38 496.53 881.29 846.09 669.70 699.17 338.35 706.59 639.94 616.50 402.99 87.46 37.39 659.35 775.44 831.38 308.32 681.85 593.32 823.78 555.86 873.51 129.23 627.87 672.37 613.03 0.00 206.49
483.67 702.47 732.90 835.10 658.73 223.70 190.95 671.48 614.45 787.40 664.40 686.18 686.72 446.18 849.08 255.25 823.99 408.53 166.17 855.47 822.53 389.33 970.75 597.18 210.00 863.50 747.35 405.82 713.57 372.05 203.61 641.48 182.74 153.13 660.80 239.71 670.72 698.22 719.64 103.99 112.50 630.63 696.83 672.08 610.96 655.23 605.00 182.00 693.42 677.25 628.90 1020.90 827.86 859.49 668.61 185.96 702.46 679.35 743.08 985.87 726.17 96.11 653.28 502.73 948.40 780.70 519.98 665.28 649.32 109.11 595.47 676.46 681.35 208.34 406.58 421.52 928.97 83.77 953.47 893.53 340.22 791.33 472.81 766.35 154.83 713.95 803.93 603.90 646.42 833.64 647.07 90.62 668.62 457.61 355.66 459.68 250.20 1010.74 91.09 257.85 242.04 719.96 837.79 118.43 928.08 643.92 712.40 78.72 844.36 285.42 850.76 648.74 659.39 923.41 762.68 458.40 744.54 740.47 604.94 467.66 196.20 145.67 693.63 39.14 593.17 926.10 970.63 702.29 674.63 451.14 676.03 672.61 820.04 388.48 133.06 183.13 705.45 750.34 800.82 176.48 651.29 625.99 823.60 532.58 906.18 94.59 717.39 641.81 693.83 206.49 0.00
DEMAND_SECTION
1 0
2 10
3 10
4 1
5 1
6 4
7 1
8 8
9 3
10 4
11 4
12 2
13 4
14 5
15 10
16 1
17 5
18 10
19 5
20 2
21 1
22 8
23 10
24 8
25 5
26 9
27 10
28 9
29 7
30 1
31 10
32 6
33 5
34 2
35 1
36 8
37 2
38 3
39 1
40 8
41 5
42 8
43 2
44 10
45 7
46 5
47 10
48 3
49 2
50 9
51 7
52 3
53 8
54 1
55 7
56 10
57 6
58 3
59 5
60 7
61 8
62 7
63 4
64 1
65 6
66 6
67 10
68 9
69 9
70 1
71 10
72 10
73 5
74 8
75 10
76 9
77 1
78 2
79 5
80 8
81 8
82 6
83 1
84 9
85 7
86 5
87 9
88 3
89 1
90 4
91 5
92 8
93 8
94 10
95 8
96 9
97 4
98 8
99 9
100 8
101 4
102 9
103 3
104 7
105 4
106 6
107 2
108 5
109 7
110 10
111 7
112 10
113 1
114 2
115 4
116 9
117 9
118 6
119 6
120 2
121 7
122 7
123 4
124 5
125 6
126 2
127 10
128 8
129 2
130 5
131 1
132 7
133 9
134 7
135 5
136 6
137 7
138 9
139 6
140 9
141 8
142 9
143 9
144 8
145 10
146 2
147 4
148 10
149 9
150 4
151 9
DEPOT_SECTION
1
-1
EOF
