NAME: LDG105_1224_none_105_0209
COMMENT: CVRP with travel times.  rootPos=1,custPos=2,demandType=2,avgRouteSizeIndex=4,weather=none,lambda_cluster=1,lambda_random=4, T1=300,T2=700,beta=1, alpha(i,j) ~ U(0.8,1.2)
TYPE: CVRP
DIMENSION: 106
EDGE_WEIGHT_TYPE: EXPLICIT
EDGE_WEIGHT_FORMAT: FULL_MATRIX
CAPACITY: 76
NODE_COORD_SECTION
1 999 623
2 944 311
3 334 903
4 768 910
5 913 203
6 234 919
7 373 319
8 314 896
9 111 876
10 943 221
11 388 408
12 885 251
13 841 391
14 336 490
15 374 349
16 423 964
17 922 176
18 873 917
19 170 893
20 335 915
21 979 817
22 853 139
23 821 942
24 733 316
25 842 1000
26 430 425
27 860 794
28 292 145
29 951 349
30 336 310
31 865 762
32 423 386
33 979 286
34 861 952
35 970 886
36 958 300
37 373 377
38 581 285
39 720 247
40 901 797
41 256 288
42 406 415
43 808 337
44 954 971
45 440 820
46 992 755
47 382 231
48 111 892
49 409 985
50 955 191
51 274 996
52 397 457
53 939 210
54 955 351
55 414 823
56 995 335
57 379 984
58 691 160
59 984 69
60 997 891
61 412 271
62 320 424
63 328 289
64 883 344
65 965 843
66 377 327
67 443 862
68 916 867
69 954 261
70 449 376
71 317 894
72 317 977
73 533 249
74 872 166
75 922 202
76 899 896
77 961 278
78 909 249
79 479 325
80 900 914
81 828 301
82 348 319
83 908 932
84 363 820
85 960 804
86 346 932
87 958 298
88 913 192
89 933 831
90 384 360
91 782 817
92 398 254
93 903 244
94 392 361
95 213 976
96 936 266
97 908 328
98 441 361
99 449 274
100 388 378
101 880 987
102 351 359
103 581 932
104 916 268
105 403 385
106 828 261
EDGE_WEIGHT_SECTION
0.00 381.04 800.81 425.67 487.71 875.56 646.91 820.99 983.14 440.42 613.52 461.14 500.80 674.99 634.48 724.78 502.06 333.54 929.42 822.49 259.10 572.82 376.26 567.05 390.83 605.70 245.31 784.15 361.77 670.47 211.34 553.53 398.29 368.48 332.50 360.26 612.23 730.39 618.43 275.14 739.60 634.34 507.18 379.82 751.57 251.60 656.64 952.21 733.89 477.09 855.46 648.06 460.73 377.33 785.64 414.40 693.30 676.30 522.86 306.67 601.03 669.99 681.50 444.58 311.75 665.14 801.54 296.51 405.80 585.31 808.33 770.32 719.21 532.94 467.69 275.21 371.53 436.04 623.31 299.22 503.09 643.28 325.76 710.80 316.32 777.38 351.73 492.13 242.77 610.69 341.81 632.94 457.64 620.93 931.30 395.36 385.55 619.39 702.30 601.83 385.20 647.50 584.50 424.81 580.21 512.73
381.04 0.00 859.81 586.78 136.82 930.95 564.68 850.82 934.85 118.00 573.95 125.68 119.76 607.84 591.19 865.26 161.27 633.75 993.93 863.89 594.64 244.76 619.91 231.59 729.49 572.08 526.36 752.63 105.01 615.71 469.90 553.69 75.87 686.06 664.69 37.84 585.96 455.28 277.66 539.97 699.51 536.24 184.76 708.33 786.02 524.41 568.26 974.36 849.37 147.92 946.58 571.32 138.31 89.45 820.35 91.98 830.99 353.88 257.95 661.45 569.51 644.23 626.74 122.16 634.91 588.40 736.05 667.00 81.62 521.91 834.82 908.01 428.05 186.57 116.80 626.71 49.11 113.62 512.39 635.47 162.13 588.52 641.93 864.47 638.98 818.78 29.31 141.24 613.26 565.46 549.54 595.93 116.97 558.32 989.33 72.94 50.09 510.28 527.02 555.49 700.04 615.29 745.61 97.06 577.11 190.31
800.81 859.81 0.00 458.96 852.84 128.76 584.76 36.15 223.90 894.05 520.87 810.55 834.72 540.75 600.41 119.15 860.78 585.22 210.71 32.42 705.12 954.25 564.92 805.25 550.40 546.27 605.95 763.23 832.20 575.21 589.47 580.86 869.76 577.66 676.87 839.03 590.99 762.41 897.07 659.54 659.01 529.66 840.33 682.15 187.97 705.03 640.60 259.27 125.65 906.59 128.09 553.19 887.79 816.64 164.85 868.56 125.11 975.35 1025.08 638.31 670.71 545.93 576.72 737.65 632.96 565.08 170.04 655.67 868.49 555.26 32.63 105.48 714.98 902.34 864.29 610.77 834.22 866.55 645.50 601.55 826.85 602.40 628.09 90.01 686.38 41.03 830.50 876.33 632.53 580.56 515.33 670.31 844.95 559.71 134.50 868.46 813.48 591.23 571.81 571.30 606.70 627.29 300.13 889.37 560.03 824.09
425.67 586.78 458.96 0.00 681.70 550.06 754.39 454.95 645.20 646.16 677.89 677.24 706.54 732.25 716.06 364.76 690.74 179.58 618.56 426.54 294.20 693.68 105.96 748.42 215.54 613.57 270.79 913.00 624.44 782.68 214.33 665.74 586.97 148.04 224.27 548.94 682.13 758.05 820.41 209.37 809.50 649.41 672.18 256.42 454.63 327.85 811.00 641.81 333.31 682.83 499.03 655.93 666.47 640.00 396.88 603.08 402.16 864.98 769.05 264.93 755.39 754.92 776.10 619.20 221.04 746.76 431.34 196.71 611.54 664.81 453.93 437.95 852.93 721.62 661.68 151.81 577.27 624.72 741.38 175.82 722.25 755.49 171.97 471.72 277.16 443.41 557.47 686.12 209.44 692.31 195.39 787.30 646.32 691.77 574.87 584.04 614.24 700.78 806.65 651.66 203.93 711.46 158.83 630.55 673.28 701.41
487.71 136.82 852.84 681.70 0.00 907.42 557.37 888.99 969.79 68.59 538.74 73.76 256.58 645.07 584.23 951.05 43.52 692.35 989.37 885.26 621.01 137.60 756.73 220.94 794.81 532.22 577.72 692.46 183.97 560.72 546.10 542.43 145.72 745.27 632.24 132.76 585.52 420.77 241.17 616.17 644.52 522.74 182.23 724.94 834.59 619.33 564.95 959.96 956.04 62.69 980.93 560.67 48.28 175.24 793.73 162.51 949.61 307.23 172.24 672.90 509.34 602.68 571.75 168.91 694.17 580.36 821.84 690.98 83.53 510.65 885.47 958.32 417.40 79.81 20.02 696.56 116.18 70.22 477.90 705.32 131.73 533.53 720.50 814.29 668.81 865.53 135.98 23.49 637.24 562.37 643.12 541.25 56.80 541.52 987.34 110.90 149.35 507.75 524.49 566.35 736.97 620.10 840.53 114.84 569.11 134.37
875.56 930.95 128.76 550.06 907.42 0.00 627.86 112.13 155.39 936.46 522.84 893.20 905.68 413.02 604.98 233.37 932.11 631.93 81.95 140.54 748.40 993.41 656.02 906.25 641.50 561.64 630.25 781.74 908.18 599.37 686.71 534.48 938.19 641.16 672.18 910.17 592.96 731.43 947.36 713.25 658.72 535.35 925.86 686.97 291.62 781.33 675.63 146.14 216.75 913.86 159.14 566.52 916.15 892.62 255.86 955.18 194.45 965.90 1079.66 712.84 677.39 522.19 627.44 829.18 741.68 623.92 246.02 679.00 903.00 566.26 96.13 117.43 728.83 935.22 894.08 634.47 921.44 837.20 617.28 610.46 917.86 624.23 583.92 193.66 749.94 132.56 901.64 912.08 721.45 587.73 591.31 645.48 858.80 601.88 83.30 877.88 905.01 600.34 662.08 573.27 683.85 614.31 391.23 888.25 561.16 932.21
646.91 564.68 584.76 754.39 557.37 627.86 0.00 548.61 601.56 594.72 124.80 517.67 488.38 214.84 42.81 653.83 553.91 763.60 609.93 577.02 807.49 543.26 774.67 397.00 826.52 145.55 709.85 221.87 609.70 51.03 694.28 93.38 581.93 793.14 800.60 543.90 85.05 280.77 432.17 674.62 134.83 123.33 409.01 787.84 549.72 725.63 165.48 641.07 622.38 602.31 710.35 174.21 583.76 625.26 578.04 598.04 691.23 400.68 679.45 834.63 123.44 134.47 62.06 521.12 792.31 23.72 599.69 742.49 537.41 119.46 564.61 661.61 200.54 546.05 558.32 787.39 555.17 525.65 176.18 797.92 459.51 23.84 811.61 538.99 773.63 622.13 535.37 533.88 747.91 62.08 612.36 124.66 547.25 69.29 687.24 565.30 572.71 83.49 111.91 102.73 837.03 68.68 641.47 566.87 97.08 476.44
820.99 850.82 36.15 454.95 888.99 112.13 548.61 0.00 207.27 910.20 516.86 846.70 829.76 524.12 591.42 147.02 884.30 613.09 190.65 28.41 701.11 943.90 560.91 841.40 546.39 529.64 576.67 770.48 796.05 568.64 609.65 576.85 868.07 561.03 674.96 830.04 586.98 751.08 933.22 659.67 651.99 525.65 836.22 687.61 183.86 741.18 656.87 246.78 121.64 940.53 164.24 572.00 920.28 780.49 143.73 843.05 145.53 949.29 1050.15 634.30 667.48 578.42 540.57 770.14 660.83 572.33 133.89 651.66 875.58 550.66 16.00 121.56 748.62 885.71 900.44 606.76 841.31 885.51 640.90 630.77 805.73 572.45 626.92 113.53 657.81 73.52 821.51 904.33 628.52 581.75 479.18 673.27 881.10 583.23 138.63 865.14 845.97 586.63 605.45 567.29 602.69 617.29 296.12 894.59 556.02 820.08
983.14 934.85 223.90 645.20 969.79 155.39 601.56 207.27 0.00 994.23 527.84 896.03 958.62 568.41 565.21 306.57 994.24 772.64 103.70 235.68 860.67 1008.40 706.58 793.24 736.64 587.71 783.94 774.61 989.57 621.01 780.38 535.54 952.10 736.30 827.57 914.07 569.05 732.49 885.06 850.45 684.32 565.55 879.25 842.36 378.88 778.81 721.58 39.51 311.89 992.07 240.12 556.21 989.50 987.76 351.00 968.21 289.84 1001.07 1134.18 841.57 671.33 646.24 626.87 902.38 820.38 593.93 341.16 834.39 959.61 567.32 191.27 243.37 729.89 973.24 949.77 789.86 925.34 929.25 618.34 765.85 929.75 593.82 739.31 280.92 845.08 205.76 905.54 974.21 835.79 539.48 686.45 694.64 930.43 560.33 164.28 949.17 962.31 553.73 657.78 578.27 779.24 597.21 486.37 977.21 562.22 909.79
440.42 118.00 894.05 646.16 68.59 936.46 594.72 910.20 994.23 0.00 510.77 103.58 232.74 620.59 568.14 938.56 70.67 698.35 1018.41 898.13 593.04 161.60 737.91 234.83 773.02 545.80 585.71 725.72 172.72 607.42 529.25 526.34 104.43 728.42 661.28 97.22 575.85 435.99 234.67 599.32 690.25 548.48 193.34 736.18 845.70 583.79 567.56 989.00 908.75 36.67 1012.80 571.51 20.31 188.28 804.84 145.14 937.10 279.26 240.83 659.85 546.89 611.34 618.45 163.13 666.20 581.38 834.88 673.61 66.16 494.56 894.20 966.42 431.29 103.41 49.84 655.27 68.89 99.26 507.72 664.03 142.84 580.23 690.57 841.44 642.79 853.02 88.69 70.19 619.87 546.28 608.92 514.98 98.42 525.43 1019.76 94.05 132.85 518.86 518.92 561.20 748.08 604.01 804.99 124.04 549.93 118.28
613.52 573.95 520.87 677.89 538.74 522.84 124.80 516.86 527.84 510.77 0.00 540.66 454.19 109.82 82.14 529.03 540.82 638.80 524.31 488.45 721.87 485.34 649.87 400.47 743.60 64.32 585.05 299.23 604.32 136.65 618.03 59.99 593.29 694.77 721.56 568.08 70.12 253.45 434.91 640.28 197.49 37.71 451.37 730.89 516.33 640.01 238.35 567.35 497.58 547.44 635.75 60.74 490.46 619.88 551.39 622.22 566.43 498.54 689.62 762.22 182.74 148.69 127.17 535.10 745.23 101.08 566.30 714.80 560.87 91.77 532.86 602.22 248.09 543.53 530.19 697.13 579.66 564.14 136.54 673.12 501.87 109.46 686.81 523.92 722.47 533.56 576.61 540.34 676.25 64.89 487.56 206.31 575.06 79.46 606.14 532.98 581.97 125.85 172.53 50.43 712.23 106.42 651.64 547.43 39.16 468.05
461.14 125.68 810.55 677.24 73.76 893.20 517.67 846.70 896.03 103.58 540.66 0.00 201.70 602.13 522.47 883.59 98.21 659.25 975.15 842.97 576.05 143.70 717.70 189.16 764.05 500.13 563.50 670.06 157.51 521.02 528.40 480.67 123.32 727.57 618.02 128.30 530.18 394.55 192.48 555.03 604.82 514.39 151.90 693.32 804.26 573.66 542.55 935.54 915.04 96.04 938.64 528.89 93.47 161.02 763.40 182.44 912.93 332.96 246.00 642.86 486.94 528.92 532.05 146.51 649.21 535.71 807.62 682.06 115.71 448.89 843.18 916.03 385.62 117.02 53.74 672.27 136.33 56.00 497.17 682.92 101.40 493.83 695.85 838.24 633.27 837.60 132.36 78.18 628.32 500.61 624.48 510.75 34.40 479.76 945.05 93.20 75.59 477.42 494.16 519.87 706.64 558.34 814.96 81.18 507.35 72.61
500.80 119.76 834.72 706.54 256.58 905.68 488.38 829.76 958.62 232.74 454.19 201.70 0.00 538.81 471.43 781.19 262.79 658.07 903.08 840.42 594.46 305.35 700.79 179.09 691.95 452.32 584.96 680.83 224.77 539.41 589.66 470.75 195.63 690.00 626.79 157.60 475.27 373.83 157.90 572.00 580.62 416.48 79.37 704.35 726.75 512.60 528.75 967.27 780.08 248.94 873.39 480.48 212.43 209.21 747.11 176.83 711.23 312.02 377.71 586.13 508.08 538.84 533.09 131.05 623.10 500.15 695.87 644.64 201.38 440.86 842.24 788.25 375.55 247.16 236.56 599.74 168.87 196.01 487.10 623.75 129.87 512.22 650.29 744.71 614.40 795.31 149.07 244.04 631.01 445.70 609.02 476.17 217.61 452.93 949.23 189.77 169.85 404.89 421.63 460.09 634.11 503.43 737.42 177.73 473.42 177.87
674.99 607.84 540.75 732.25 645.07 413.02 214.84 524.12 568.41 620.59 109.82 602.13 538.81 0.00 191.96 638.85 650.64 681.52 494.97 552.53 780.45 594.32 724.24 493.23 756.19 148.62 694.87 368.72 640.66 186.35 727.85 121.46 661.08 690.53 707.58 623.05 179.94 318.41 534.34 724.90 245.70 122.33 512.84 727.80 577.80 724.63 262.61 559.16 607.40 657.26 572.16 153.50 600.28 656.22 624.64 677.19 607.47 552.88 799.02 748.24 264.37 109.17 214.42 602.82 712.20 210.90 627.77 668.09 630.10 153.24 508.12 530.45 315.81 615.87 640.01 623.19 634.32 625.61 204.26 647.20 563.34 211.21 673.74 605.65 760.16 545.58 614.52 650.16 721.83 174.71 597.38 232.46 636.53 188.86 496.32 602.21 557.75 187.32 249.06 160.25 733.18 201.29 573.42 581.16 148.14 529.52
634.48 591.19 600.41 716.06 584.23 604.98 42.81 591.42 565.21 568.14 82.14 522.47 471.43 191.96 0.00 611.17 577.17 720.94 567.24 570.59 767.66 500.45 732.01 391.68 811.73 118.35 667.19 233.48 566.89 93.84 700.17 80.95 564.96 750.33 794.83 580.25 42.24 256.71 443.78 631.81 169.61 86.98 416.27 800.17 537.29 689.28 168.94 604.72 579.72 604.81 683.77 131.40 572.60 582.45 551.46 623.65 648.57 443.49 646.98 791.82 113.33 121.39 98.32 528.38 749.50 35.33 587.26 732.43 544.67 109.40 607.42 646.82 195.22 547.33 576.21 777.33 578.94 532.91 158.65 755.26 466.77 66.65 768.95 512.41 730.82 613.70 571.72 562.50 705.10 25.73 569.70 140.54 554.51 42.71 688.28 546.95 573.18 90.75 125.65 64.40 794.37 53.89 614.89 568.33 54.27 449.86
724.78 865.26 119.15 364.76 951.05 233.37 653.83 147.02 306.57 938.56 529.03 883.59 781.19 638.85 611.17 0.00 968.90 466.07 275.96 124.68 586.97 1014.37 470.72 838.91 456.20 593.35 524.05 828.26 791.37 665.68 554.00 589.02 864.44 512.80 583.31 860.04 599.15 782.48 930.73 574.13 726.52 566.74 831.54 580.99 179.18 624.31 759.75 302.11 31.45 957.49 197.17 589.77 947.57 775.81 189.52 838.37 69.96 1027.57 1051.53 623.60 711.77 605.71 656.20 797.43 513.81 630.11 129.21 561.47 903.94 615.04 151.78 136.09 777.12 978.85 937.33 516.57 869.67 880.83 665.57 500.39 851.52 638.49 514.08 209.16 569.93 100.81 851.51 948.87 574.20 593.92 560.15 735.34 902.43 608.49 253.65 895.14 873.26 651.01 690.96 579.46 512.50 635.45 205.93 905.11 568.19 899.52
502.06 161.27 860.78 690.74 43.52 932.11 553.91 884.30 994.24 70.67 540.82 98.21 262.79 650.64 577.17 968.90 0.00 708.86 989.39 893.20 623.09 126.77 781.18 217.48 798.02 575.74 598.36 708.97 200.48 557.26 541.90 557.27 129.43 741.07 656.93 141.80 608.91 449.68 284.69 611.97 619.58 566.26 211.55 735.78 863.91 608.73 577.95 984.65 970.39 56.23 942.13 557.21 50.36 193.09 831.66 189.44 966.12 309.31 174.36 689.90 525.85 627.13 568.29 185.42 696.25 576.90 839.69 717.91 110.46 547.10 868.30 966.26 413.94 68.58 44.47 680.27 139.56 94.91 480.19 689.03 169.66 530.07 715.57 770.77 662.35 882.04 150.33 20.03 664.17 598.82 660.97 542.20 73.31 577.97 995.28 106.70 167.08 531.14 553.81 589.25 766.29 622.17 841.50 123.64 572.95 170.82
333.54 633.75 585.22 179.58 692.35 631.93 763.60 613.09 772.64 698.35 638.80 659.25 658.07 681.52 720.94 466.07 708.86 0.00 713.88 590.75 177.52 797.21 111.58 660.42 104.80 660.74 228.63 938.03 616.05 775.45 215.70 698.79 593.92 70.98 136.27 631.95 708.92 664.57 752.24 145.63 836.29 676.51 578.70 114.92 561.00 245.42 826.77 768.18 497.52 733.81 663.24 699.54 718.66 600.49 576.46 663.05 536.03 856.05 838.85 157.53 806.10 787.49 765.97 625.15 166.92 739.88 579.64 102.86 659.26 711.98 616.01 602.16 785.69 739.02 707.12 58.33 629.46 657.15 678.41 34.32 629.20 748.26 48.01 600.75 217.91 566.88 640.43 688.83 156.60 703.69 151.24 774.19 635.55 718.26 715.23 650.90 583.66 747.95 763.78 689.23 73.43 710.61 338.41 684.61 677.96 671.25
929.42 993.93 210.71 618.56 989.37 81.95 609.93 190.65 103.70 1018.41 524.31 975.15 903.08 494.97 567.24 275.96 989.39 713.88 0.00 219.06 830.35 989.72 708.93 890.33 710.00 522.44 712.20 782.98 978.92 592.74 718.08 567.41 1003.88 723.11 754.13 973.15 525.00 743.88 959.22 788.15 652.37 486.60 913.59 768.92 316.58 863.28 693.23 64.19 285.25 995.81 194.21 550.60 998.10 971.14 293.46 1002.68 259.23 956.66 1161.61 794.79 637.62 604.14 618.97 871.77 789.77 602.30 324.54 760.95 984.95 552.10 178.08 199.38 753.89 1017.17 976.03 716.42 968.34 919.15 642.34 692.41 951.62 619.93 665.87 218.62 814.99 175.15 964.62 994.03 803.40 547.85 669.83 669.53 940.75 553.33 160.65 959.83 947.60 588.07 672.06 530.21 748.63 561.30 459.73 970.20 543.54 928.38
822.49 863.89 32.42 426.54 885.26 140.54 577.02 28.41 235.68 898.13 488.45 842.97 840.42 552.53 570.59 124.68 893.20 590.75 219.06 0.00 672.70 972.31 532.50 837.67 517.98 533.08 605.08 787.68 819.30 542.79 615.78 548.44 873.84 574.58 646.55 843.11 558.57 741.90 911.54 635.91 626.59 497.24 823.31 659.20 170.95 718.52 657.76 275.19 93.23 934.80 147.30 549.19 891.87 803.74 172.14 866.30 129.19 967.30 1057.50 605.89 641.63 550.01 568.98 741.73 638.49 589.53 157.14 623.25 872.57 559.34 44.41 135.81 736.54 914.12 896.71 578.35 838.30 875.44 624.99 602.36 834.14 569.98 598.51 122.43 669.36 45.11 834.58 907.12 600.11 553.34 507.59 653.08 853.84 563.97 166.92 872.54 817.56 595.31 604.23 538.88 574.28 594.87 267.71 893.45 527.61 791.67
259.10 594.64 705.12 294.20 621.01 748.40 807.49 701.11 860.67 593.04 721.87 576.05 594.46 780.45 767.66 586.97 623.09 177.52 830.35 672.70 0.00 719.75 246.43 605.08 255.63 700.21 140.97 929.14 610.61 822.37 124.74 752.38 599.88 180.28 80.93 568.43 725.42 711.60 696.90 135.85 852.79 684.16 592.25 173.63 555.63 81.86 801.63 865.61 618.42 629.71 784.14 742.57 572.73 626.17 613.38 622.57 656.93 768.39 781.96 66.81 746.02 824.46 798.46 550.71 73.16 799.86 580.88 112.36 567.46 735.39 711.03 720.09 727.71 677.15 612.46 157.26 596.76 580.25 768.55 146.64 642.75 795.18 164.48 624.20 57.22 687.78 576.96 622.61 96.72 745.41 238.46 777.93 601.85 750.89 831.70 539.57 579.93 771.36 765.16 727.77 232.62 761.72 453.03 587.82 741.10 617.55
572.82 244.76 954.25 693.68 137.60 993.41 543.26 943.90 1008.40 161.60 485.34 143.70 305.35 594.32 500.45 1014.37 126.77 797.21 989.72 972.31 719.75 0.00 799.64 238.19 846.58 514.12 663.71 605.10 264.51 574.95 630.97 472.86 231.92 830.14 718.23 212.56 498.27 437.02 221.09 698.73 620.31 503.12 234.00 802.43 886.36 699.13 591.94 1045.95 982.92 183.00 1068.90 546.08 163.99 261.23 907.10 238.06 1016.58 368.15 267.91 758.89 571.27 572.81 592.24 273.77 777.87 531.42 907.83 775.97 188.53 504.64 927.90 1033.46 434.65 58.19 127.96 754.37 222.80 156.21 469.80 778.38 245.10 562.61 804.92 897.54 721.75 970.39 221.09 114.11 722.23 507.75 729.11 539.36 161.66 486.90 1065.20 195.77 219.29 520.75 555.17 467.80 788.74 527.60 852.51 190.29 446.18 213.93
376.26 619.91 564.92 105.96 756.73 656.02 774.67 560.91 706.58 737.91 649.87 717.70 700.79 724.24 732.01 470.72 781.18 111.58 708.93 532.50 246.43 799.64 0.00 709.59 109.58 671.81 224.63 949.10 645.75 786.52 281.09 709.86 651.89 66.15 185.44 654.90 719.99 707.29 801.41 247.10 847.36 687.58 621.42 187.08 537.39 315.65 802.96 667.07 439.27 767.83 604.99 710.61 758.22 630.19 502.84 692.75 508.12 838.18 834.02 226.10 817.17 798.56 777.04 640.28 210.01 750.95 487.42 145.95 701.53 723.05 559.89 543.91 811.37 797.23 736.71 101.05 669.02 730.68 710.50 125.06 671.92 759.33 133.96 577.68 241.27 533.78 649.22 761.15 197.24 714.76 162.31 785.26 736.88 724.47 680.83 690.00 670.00 759.02 795.87 700.30 102.16 721.68 264.79 710.51 689.03 719.92
567.05 231.59 805.25 748.42 220.94 906.25 397.00 841.40 793.24 234.83 400.47 189.16 179.09 493.23 391.68 838.91 217.48 660.42 890.33 837.67 605.08 238.19 709.59 0.00 712.30 382.09 593.41 571.43 264.26 435.43 536.95 390.81 283.22 680.22 524.15 246.80 413.58 256.17 91.82 607.02 519.23 403.73 99.72 616.85 742.26 664.43 360.47 832.75 849.33 271.50 902.85 339.73 247.33 248.70 725.16 300.94 890.32 245.62 379.58 564.81 399.55 438.72 436.27 178.25 593.65 373.28 709.70 610.35 266.50 398.25 837.88 910.73 196.46 180.00 221.89 608.54 258.07 212.64 308.01 632.55 150.22 420.11 612.41 781.48 634.75 846.28 238.27 197.45 613.88 384.01 656.22 410.09 223.56 404.86 827.01 250.30 181.50 415.29 339.63 424.66 654.46 441.74 907.25 232.11 409.47 116.55
390.83 729.49 550.40 215.54 794.81 641.50 826.52 546.39 736.64 773.02 743.60 764.05 691.95 756.19 811.73 456.20 798.02 104.80 710.00 517.98 255.63 846.58 109.58 712.30 0.00 757.30 229.94 1041.71 683.99 860.86 286.40 803.59 668.59 113.73 217.39 706.62 794.14 739.24 804.12 250.43 921.51 781.31 612.58 142.76 572.75 324.59 912.54 733.25 424.75 805.88 590.47 799.66 793.33 668.43 602.02 730.99 493.60 857.36 881.60 258.05 893.30 851.78 870.77 724.69 214.09 843.56 522.78 177.53 733.93 800.56 545.37 529.39 816.68 788.39 786.10 133.00 704.13 729.22 783.21 108.99 663.08 849.94 135.53 611.85 270.21 534.85 715.15 793.63 231.27 808.49 256.04 878.99 740.35 822.45 666.31 721.60 688.46 836.53 854.13 794.03 57.84 757.84 250.27 715.82 782.76 711.08
605.70 572.08 546.27 613.57 532.22 561.64 145.55 529.64 587.71 545.80 64.32 500.13 452.32 148.62 118.35 593.35 575.74 660.74 522.44 533.08 700.21 514.12 671.81 382.09 757.30 0.00 606.99 299.43 540.00 169.11 639.97 52.17 560.52 716.71 749.77 535.31 76.11 221.44 437.37 638.41 203.48 35.84 412.73 775.66 508.51 638.14 228.30 559.06 561.90 582.47 674.36 42.36 554.78 555.56 487.07 589.45 630.75 434.22 704.46 767.02 188.73 141.35 170.08 524.84 738.33 151.54 558.48 674.27 528.10 51.24 513.64 619.20 239.36 539.42 552.24 719.07 562.37 523.61 127.81 695.06 463.23 141.92 708.75 505.54 737.42 562.56 543.84 555.71 698.19 97.09 509.50 220.64 534.53 102.57 644.94 500.21 560.13 87.21 201.31 79.45 734.17 112.41 674.75 545.56 67.94 427.52
245.31 526.36 605.95 270.79 577.72 630.25 709.85 576.67 783.94 585.71 585.05 563.50 584.96 694.87 667.19 524.05 598.36 228.63 712.20 605.08 140.97 663.71 224.63 593.41 229.94 606.99 0.00 860.86 469.64 721.70 56.46 645.04 551.97 238.21 142.78 526.76 655.17 606.05 669.14 83.00 782.54 622.76 505.59 235.48 507.25 205.35 733.35 776.39 555.50 584.16 655.46 645.79 574.22 485.20 565.00 547.76 587.66 627.42 739.62 183.44 677.74 704.47 712.22 562.52 160.18 686.13 557.22 144.94 519.55 658.23 592.67 660.14 586.74 605.52 564.38 189.84 541.03 507.50 698.29 213.48 556.09 694.51 231.04 555.92 137.42 624.86 535.29 582.38 91.20 649.94 97.49 709.65 529.10 664.51 694.02 491.66 552.55 694.20 624.19 635.48 221.10 656.86 429.62 485.88 624.21 549.27
784.15 752.63 763.23 913.00 692.46 781.74 221.87 770.48 774.61 725.72 299.23 670.06 680.83 368.72 233.48 828.26 708.97 938.03 782.98 787.68 929.14 605.10 949.10 571.43 1041.71 299.43 860.86 0.00 762.83 263.89 804.40 247.26 724.58 977.73 979.10 733.04 264.70 444.21 529.01 854.27 220.53 296.38 622.37 1009.71 703.60 898.68 212.27 814.12 796.81 733.92 891.32 341.79 731.80 762.28 761.35 768.02 857.30 595.11 844.82 995.95 183.12 340.01 261.14 658.37 956.96 198.15 753.57 892.90 689.04 269.87 786.48 868.71 374.97 663.29 707.23 937.80 723.31 657.26 330.06 961.44 672.87 244.98 986.04 723.80 953.28 784.10 741.57 688.94 927.56 235.13 786.79 210.74 635.66 254.10 865.04 697.94 734.20 296.85 284.39 275.78 1011.46 283.87 826.17 708.31 273.94 646.15
361.77 105.01 832.20 624.44 183.97 908.18 609.70 796.05 989.57 172.72 604.32 157.51 224.77 640.66 566.89 791.37 200.48 616.05 978.92 819.30 610.61 264.51 645.75 264.26 683.99 540.00 469.64 762.83 0.00 660.73 512.76 578.95 104.19 635.85 612.42 75.50 608.81 498.95 303.32 552.64 736.18 575.84 219.26 671.09 712.13 562.07 553.25 1010.32 801.79 197.24 841.57 582.36 177.18 15.56 746.46 78.12 845.75 370.92 291.28 653.08 579.71 675.21 665.21 107.15 584.87 602.22 662.16 614.58 136.08 547.17 812.05 870.69 460.72 218.60 177.46 618.59 103.83 120.58 505.71 594.58 214.50 633.54 568.04 810.09 607.06 803.77 84.03 180.45 560.84 592.62 483.44 592.52 127.17 590.60 917.41 110.60 82.91 544.78 535.69 591.38 626.15 620.78 783.27 113.74 569.76 183.45
670.47 615.71 575.21 782.68 560.72 599.37 51.03 568.64 621.01 607.42 136.65 521.02 539.41 186.35 93.84 665.68 557.26 775.45 592.74 542.79 822.37 574.95 786.52 435.43 860.86 169.11 721.70 263.89 660.73 0.00 697.63 116.94 632.96 831.42 851.63 594.93 114.41 284.12 428.56 703.98 83.80 174.36 460.04 838.87 573.28 776.66 114.97 656.93 634.23 613.49 690.09 197.39 587.11 676.29 578.17 649.07 671.98 451.71 730.48 863.99 98.84 137.82 28.07 561.07 821.67 65.74 623.25 771.75 588.44 148.72 584.64 648.39 242.56 597.08 561.67 809.54 606.20 572.98 199.74 809.77 510.54 27.19 823.46 569.07 802.99 587.90 586.40 537.23 777.27 113.11 624.21 110.29 551.38 120.32 682.67 597.69 596.61 134.52 156.06 144.88 848.88 103.02 692.50 602.20 128.77 525.00
211.34 469.90 589.47 214.33 546.10 686.71 694.28 609.65 780.38 529.25 618.03 528.40 589.66 727.85 700.17 554.00 541.90 215.70 718.08 615.78 124.74 630.97 281.09 536.95 286.40 639.97 56.46 804.40 512.76 697.63 0.00 678.02 495.51 265.42 199.24 470.30 659.64 662.51 612.68 70.07 781.43 655.74 562.05 238.43 540.23 160.24 676.89 740.87 522.55 552.54 670.82 678.77 517.76 528.32 574.30 524.44 591.40 683.88 683.16 191.55 621.28 760.93 708.66 549.59 179.16 717.27 590.20 197.10 463.09 691.21 596.99 627.19 643.20 572.78 532.76 202.13 497.36 475.88 702.77 226.14 540.81 670.44 234.96 499.46 169.08 598.99 478.83 550.76 143.36 682.92 130.47 653.19 497.48 697.49 723.97 435.20 516.81 674.77 680.65 668.46 277.56 689.84 373.16 483.45 657.19 492.81
553.53 553.69 580.86 665.74 542.43 534.48 93.38 576.85 535.54 526.34 59.99 480.67 470.75 121.46 80.95 589.02 557.27 698.79 567.41 548.44 752.38 472.86 709.86 390.81 803.59 52.17 645.04 247.26 578.95 116.94 678.02 0.00 541.06 730.47 741.01 515.85 58.70 196.95 412.88 648.27 186.07 80.81 391.38 790.88 456.34 683.11 201.17 575.05 557.57 563.01 693.62 94.53 506.91 575.95 514.09 569.99 610.04 468.06 677.56 762.57 145.56 116.46 127.97 481.36 718.87 111.61 506.31 654.81 508.64 31.78 565.81 651.91 194.35 494.41 534.41 699.71 542.91 504.15 82.80 723.35 441.88 89.75 746.80 537.10 747.28 546.01 524.38 556.79 708.55 57.16 547.55 177.47 515.07 67.40 617.78 480.75 540.67 65.86 160.05 48.30 772.22 93.97 639.58 529.00 26.68 408.06
398.29 75.87 869.76 586.97 145.72 938.19 581.93 868.07 952.10 104.43 593.29 123.32 195.63 661.08 564.96 864.44 129.43 593.92 1003.88 873.84 599.88 231.92 651.89 283.22 668.59 560.52 551.97 724.58 104.19 632.96 495.51 541.06 0.00 644.11 635.23 38.03 568.80 441.70 286.89 565.58 684.07 574.78 202.01 640.20 785.20 524.60 578.21 990.73 866.62 141.10 945.76 602.88 124.74 88.63 819.53 71.82 906.86 347.87 258.14 666.69 541.46 645.99 626.62 132.11 635.10 593.68 735.23 595.74 65.34 509.28 852.07 943.76 479.68 192.39 131.70 550.84 35.54 100.99 499.76 559.60 162.44 605.77 586.14 866.89 638.97 828.73 46.56 142.20 619.05 539.23 556.51 573.37 88.92 560.08 999.28 60.31 103.33 519.26 544.27 542.86 645.58 596.96 745.80 90.69 564.48 190.50
368.48 686.06 577.66 148.04 745.27 641.16 793.14 561.03 736.30 728.42 694.77 727.57 690.00 690.53 750.33 512.80 741.07 70.98 723.11 574.58 180.28 830.14 66.15 680.22 113.73 716.71 238.21 977.73 635.85 831.42 265.42 730.47 644.11 0.00 156.07 669.47 755.88 699.51 772.04 195.35 877.92 732.48 610.63 140.81 602.67 262.14 869.11 733.22 481.35 751.71 647.07 755.51 716.93 620.29 544.92 682.85 545.29 865.63 767.87 196.73 855.51 799.70 821.94 674.87 202.23 785.66 553.57 138.17 662.26 761.20 545.03 585.99 820.63 771.95 731.93 93.27 679.65 675.05 749.39 94.35 661.13 804.23 67.81 619.76 183.59 591.45 678.00 749.93 147.01 759.66 207.21 830.16 696.65 744.51 699.66 634.37 654.64 792.55 819.57 725.41 55.89 766.58 306.87 682.62 703.79 691.05
332.50 664.69 676.87 224.27 632.24 672.18 800.60 674.96 827.57 661.28 721.56 618.02 626.79 707.58 794.83 583.31 656.93 136.27 754.13 646.55 80.93 718.23 185.44 524.15 217.39 749.77 142.78 979.10 612.42 851.63 199.24 741.01 635.23 156.07 0.00 626.85 752.59 690.63 615.97 163.02 879.96 742.58 604.76 92.70 624.03 140.28 876.13 818.32 557.58 638.68 717.68 782.30 640.97 627.98 621.15 680.99 626.43 769.77 804.48 40.66 820.52 816.75 846.56 631.64 69.50 822.64 619.89 86.20 627.82 709.23 678.20 643.87 720.61 660.04 618.90 84.39 652.47 562.02 795.72 108.40 649.53 824.44 88.26 586.86 125.62 667.68 635.38 636.90 89.73 782.16 240.27 852.43 583.62 785.70 755.48 602.70 638.35 745.20 762.29 771.99 177.62 788.89 383.10 597.32 760.72 640.70
360.26 37.84 839.03 548.94 132.76 910.17 543.90 830.04 914.07 97.22 568.08 128.30 157.60 623.05 580.25 860.04 141.80 631.95 973.15 843.11 568.43 212.56 654.90 246.80 706.62 535.31 526.76 733.04 75.50 594.93 470.30 515.85 38.03 669.47 626.85 0.00 548.12 423.45 271.47 540.37 675.49 549.57 163.98 678.23 787.63 486.57 547.48 953.58 828.59 133.89 917.07 577.67 117.53 91.06 807.16 54.14 868.83 316.04 220.11 635.24 549.92 623.45 605.96 101.38 597.07 567.62 737.66 633.77 62.60 484.07 814.04 919.60 443.26 172.68 112.74 588.87 28.33 75.78 474.55 597.63 173.31 567.74 624.17 849.21 625.65 798.00 8.53 137.18 603.03 558.30 528.76 581.83 97.38 537.54 968.55 35.10 65.30 489.50 506.24 517.65 683.61 577.45 707.77 81.61 539.27 152.47
612.23 585.96 590.99 682.13 585.52 592.96 85.05 586.98 569.05 575.85 70.12 530.18 475.27 179.94 42.24 599.15 608.91 708.92 525.00 558.57 725.42 498.27 719.99 413.58 794.14 76.11 655.17 264.70 608.81 114.41 659.64 58.70 568.80 755.88 752.59 548.12 0.00 250.23 462.80 589.57 127.37 67.49 403.29 757.93 515.04 669.79 168.23 568.91 567.70 596.59 691.48 89.16 560.58 624.37 559.17 602.26 636.55 485.73 660.58 749.58 112.62 116.10 93.97 513.14 707.26 77.57 565.01 712.53 531.69 89.50 589.75 629.23 237.46 540.33 576.81 735.62 565.96 519.93 141.50 743.24 453.79 108.89 756.93 520.12 688.58 594.21 556.65 594.81 662.86 29.57 557.68 144.53 541.53 50.42 676.26 513.02 566.99 77.77 167.89 30.47 782.35 36.30 620.61 561.15 52.09 457.57
730.39 455.28 762.41 758.05 420.77 731.43 280.77 751.08 732.49 435.99 253.45 394.55 373.83 318.41 256.71 782.48 449.68 664.57 743.88 741.90 711.60 437.02 707.29 256.17 739.24 221.44 606.05 444.21 498.95 284.12 662.51 196.95 441.70 699.51 690.63 423.45 250.23 0.00 215.93 689.05 367.92 257.28 343.65 710.85 653.29 793.46 285.13 772.00 751.03 472.66 861.80 263.80 456.30 503.69 708.51 465.85 805.46 271.11 508.78 731.29 270.84 307.87 295.15 422.15 710.50 285.43 703.26 651.14 416.24 207.15 735.08 806.86 121.12 381.10 440.79 606.24 450.51 420.79 116.91 630.25 293.15 256.93 656.79 690.44 654.38 721.38 431.98 444.26 697.25 230.98 703.54 302.75 413.22 251.83 814.73 388.35 437.67 224.99 198.52 245.25 716.23 213.93 821.66 400.51 223.63 335.80
618.43 277.66 897.07 820.41 241.17 947.36 432.17 933.22 885.06 234.67 434.91 192.48 157.90 534.34 443.78 930.73 284.69 752.24 959.22 911.54 696.90 221.09 801.41 91.82 804.12 437.37 669.14 529.01 303.32 428.56 612.68 412.88 286.89 772.04 615.97 271.47 462.80 215.93 0.00 682.75 497.21 472.62 191.54 708.67 834.08 670.50 370.85 924.57 932.49 271.34 994.67 431.55 253.53 287.76 816.98 316.54 869.13 154.12 413.41 656.63 350.18 523.80 456.63 238.14 685.47 408.45 801.52 702.17 264.26 423.08 929.70 946.15 288.28 271.82 246.22 700.36 251.35 210.22 332.84 724.37 167.87 419.09 704.23 838.80 684.83 934.76 266.70 264.66 705.70 446.91 716.11 318.27 213.74 458.41 918.83 236.37 268.07 440.92 414.45 461.18 746.28 429.86 895.32 214.90 439.56 119.87
275.14 539.97 659.54 209.37 616.17 713.25 674.62 659.67 850.45 599.32 640.28 555.03 572.00 724.90 631.81 574.13 611.97 145.63 788.15 635.91 135.85 698.73 247.10 607.02 250.43 638.41 83.00 854.27 552.64 703.98 70.07 648.27 565.58 195.35 163.02 540.37 589.57 689.05 682.75 0.00 716.94 602.57 572.46 168.36 588.76 191.70 746.96 810.94 542.68 622.61 708.40 666.57 587.83 568.20 531.01 594.51 592.71 710.42 753.23 160.01 691.35 705.67 683.54 479.52 117.69 667.14 615.31 127.03 533.16 668.07 663.30 647.32 669.74 642.85 602.83 146.05 567.43 545.95 632.70 170.06 608.52 698.46 193.64 569.53 99.01 652.78 548.90 620.83 73.29 619.14 180.49 723.26 567.55 639.99 766.89 505.27 555.35 667.34 707.19 620.04 219.06 625.87 368.20 553.52 641.66 562.88
739.60 699.51 659.01 809.50 644.52 658.72 134.83 651.99 684.32 690.25 197.49 604.82 580.62 245.70 169.61 726.52 619.58 836.29 652.37 626.59 852.79 620.31 847.36 519.23 921.51 203.48 782.54 220.53 736.18 83.80 781.43 186.07 684.07 877.92 879.96 675.49 127.37 367.92 497.21 716.94 0.00 194.86 530.66 885.30 642.41 797.16 198.77 696.28 695.07 675.81 773.89 216.53 669.94 740.53 661.97 729.63 755.78 535.51 775.65 876.95 182.64 221.62 111.42 640.51 834.63 149.54 692.38 839.90 659.06 216.87 667.99 732.19 326.36 667.70 645.47 862.99 690.00 647.30 268.87 870.61 581.16 110.99 884.30 635.19 815.95 671.70 670.20 621.03 790.23 144.84 685.05 178.94 635.18 165.49 742.02 640.39 680.41 205.14 239.86 157.84 909.72 163.67 735.88 686.00 174.13 572.64
634.34 536.24 529.66 649.41 522.74 535.35 123.33 525.65 565.55 548.48 37.71 514.39 416.48 122.33 86.98 566.74 566.26 676.51 486.60 497.24 684.16 503.12 687.58 403.73 781.31 35.84 622.76 296.38 575.84 174.36 655.74 80.81 574.78 732.48 742.58 549.57 67.49 257.28 472.62 602.57 194.86 0.00 426.99 768.60 537.15 602.30 233.34 550.79 535.29 585.15 644.54 64.00 528.17 591.40 522.91 593.31 604.14 470.06 676.89 750.97 177.73 140.30 148.64 539.10 712.80 115.70 587.12 688.53 542.36 65.50 541.65 633.05 267.29 561.31 542.76 733.43 564.87 537.87 155.74 710.83 465.02 147.17 724.52 527.18 701.58 526.72 558.10 546.23 675.86 61.25 525.27 206.87 548.79 66.73 618.65 514.47 574.39 101.47 185.46 43.61 749.94 103.41 638.91 509.72 56.94 441.78
507.18 184.76 840.33 672.18 182.23 925.86 409.01 836.22 879.25 193.34 451.37 151.90 79.37 512.84 416.27 831.54 211.55 578.70 913.59 823.31 592.25 234.00 621.42 99.72 612.58 412.73 505.59 622.37 219.26 460.04 562.05 391.38 202.01 610.63 604.76 163.98 403.29 343.65 191.54 572.46 530.66 426.99 0.00 624.98 652.36 591.97 460.19 918.76 837.27 193.30 921.68 439.45 186.92 221.66 710.11 218.12 790.60 312.12 352.80 645.42 443.53 459.47 471.07 112.11 591.15 424.22 702.33 565.27 182.44 361.49 847.85 867.62 296.18 175.81 173.52 520.37 175.25 116.64 407.73 544.38 50.50 432.85 570.92 750.32 535.03 808.73 155.45 191.52 596.79 394.41 590.08 471.02 138.24 373.56 926.73 157.32 163.70 325.52 342.26 413.67 554.74 439.59 816.79 157.86 414.28 98.50
379.82 708.33 682.15 256.42 724.94 686.97 787.84 687.61 842.36 736.18 730.89 693.32 704.35 727.80 800.17 580.99 735.78 114.92 768.92 659.20 173.63 802.43 187.08 616.85 142.76 775.66 235.48 1009.71 671.09 838.87 238.43 790.88 640.20 140.81 92.70 678.23 757.93 710.85 708.67 168.36 885.30 768.60 624.98 0.00 675.92 232.98 915.32 825.59 565.97 731.38 624.98 791.63 733.67 655.53 653.30 712.02 574.32 862.47 891.78 133.36 859.71 836.97 849.90 647.88 162.20 811.56 634.68 149.14 671.71 772.17 685.84 651.34 813.31 744.24 711.60 104.61 667.29 654.72 793.33 80.60 675.48 811.68 103.05 679.56 218.32 658.40 685.22 716.50 182.43 787.50 266.16 889.11 676.32 808.35 700.82 660.39 698.58 808.14 854.99 781.32 84.92 794.23 391.49 612.14 770.05 723.48
751.57 786.02 187.97 454.63 834.59 291.62 549.72 183.86 378.88 845.70 516.33 804.26 726.75 577.80 537.29 179.18 863.91 561.00 316.58 170.95 555.63 886.36 537.39 742.26 572.75 508.51 507.25 703.60 712.13 573.28 540.23 456.34 785.20 602.67 624.03 787.63 515.04 653.29 834.08 588.76 642.41 537.15 652.36 675.92 0.00 637.49 657.51 339.37 184.91 845.66 269.32 550.87 839.28 696.57 57.75 759.13 230.62 924.40 949.19 622.44 601.90 572.80 584.31 764.47 554.53 567.95 49.97 613.46 834.80 488.12 195.49 234.41 650.69 828.17 825.88 586.61 815.96 769.00 539.14 595.32 702.86 546.09 581.60 97.96 498.41 216.06 796.16 843.88 593.77 513.50 409.76 633.81 790.60 523.74 322.47 809.68 795.04 522.20 589.88 504.64 629.05 550.31 322.48 810.22 483.02 750.86
251.60 524.41 705.03 327.85 619.33 781.33 725.63 741.18 778.81 583.79 640.01 573.66 512.60 724.63 689.28 624.31 608.73 245.42 863.28 718.52 81.86 699.13 315.65 664.43 324.59 638.14 205.35 898.68 562.07 776.66 160.24 683.11 524.60 262.14 140.28 486.57 669.79 793.46 670.50 191.70 797.16 602.30 591.97 232.98 637.49 0.00 835.64 818.32 634.96 620.46 800.68 666.30 604.10 577.63 695.24 540.71 694.27 802.61 706.68 148.67 780.03 742.60 750.94 573.90 110.50 718.00 662.74 172.15 549.17 667.80 737.66 739.60 753.18 659.25 599.31 217.05 514.90 562.35 758.04 223.95 642.47 749.47 197.41 659.70 139.08 725.12 495.10 623.75 118.41 663.55 290.71 809.17 583.95 669.03 839.53 521.67 498.07 703.77 787.76 645.91 309.93 705.71 460.48 568.18 659.24 639.04
656.64 568.26 640.60 811.00 564.95 675.63 165.48 656.87 721.58 567.56 238.35 542.55 528.75 262.61 168.94 759.75 577.95 826.77 693.23 657.76 801.63 591.94 802.96 360.47 912.54 228.30 733.35 212.27 553.25 114.97 676.89 201.17 578.21 869.11 876.13 547.48 168.23 285.13 370.85 746.96 198.77 233.34 460.19 915.32 657.51 835.64 0.00 737.14 735.93 604.23 768.69 224.13 587.87 568.81 675.36 577.01 710.72 436.95 675.00 868.44 55.61 252.52 116.30 446.10 856.05 145.78 707.48 800.09 561.53 177.06 672.87 746.08 164.01 540.47 579.72 844.99 542.67 529.75 209.54 861.09 510.69 142.16 841.52 636.31 839.27 681.63 538.95 557.92 820.25 182.10 675.53 52.58 508.15 166.61 758.93 570.43 521.93 183.01 156.88 198.70 900.20 191.07 738.79 580.80 207.33 477.02
952.21 974.36 259.27 641.81 959.96 146.14 641.07 246.78 39.51 989.00 567.35 935.54 967.27 559.16 604.72 302.11 984.65 768.18 64.19 275.19 865.61 1045.95 667.07 832.75 733.25 559.06 776.39 814.12 1010.32 656.93 740.87 575.05 990.73 733.22 818.32 953.58 568.91 772.00 924.57 810.94 696.28 550.79 918.76 825.59 339.37 818.32 737.14 0.00 308.50 966.40 200.61 516.70 968.69 994.76 316.25 1007.72 280.88 993.28 1132.20 858.98 681.53 615.69 662.88 935.96 815.92 633.44 380.67 813.02 955.54 606.83 230.78 203.86 769.40 987.76 946.62 768.12 964.85 889.74 657.85 756.60 969.26 633.33 730.06 241.41 837.78 239.34 945.05 964.62 851.25 578.99 721.30 713.44 911.34 599.84 124.77 930.42 1001.82 593.24 697.29 594.40 769.23 605.21 482.98 940.79 601.73 949.30
733.89 849.37 125.65 333.31 956.04 216.75 622.38 121.64 311.89 908.75 497.58 915.04 780.08 607.40 579.72 31.45 970.39 497.52 285.25 93.23 618.42 982.92 439.27 849.33 424.75 561.90 555.50 796.81 801.79 634.23 522.55 557.57 866.62 481.35 557.58 828.59 567.70 751.03 932.49 542.68 695.07 535.29 837.27 565.97 184.91 634.96 735.93 308.50 0.00 945.42 165.72 558.32 929.06 786.23 220.97 848.79 68.85 996.12 1048.70 598.24 680.32 615.00 624.75 806.72 545.26 598.66 139.63 530.02 874.13 589.35 120.62 104.64 745.67 989.27 936.02 485.12 839.86 891.25 634.12 509.13 882.97 607.04 505.28 215.66 601.38 110.10 820.06 959.29 542.75 562.47 528.70 703.89 912.85 577.04 241.56 863.69 876.83 623.43 670.11 548.01 481.05 604.00 174.48 893.14 536.74 884.90
477.09 147.92 906.59 682.83 62.69 913.86 602.31 940.53 992.07 36.67 547.44 96.04 248.94 657.26 604.81 957.49 56.23 733.81 995.81 934.80 629.71 183.00 767.83 271.50 805.88 582.47 584.16 733.92 197.24 613.49 552.54 563.01 141.10 751.71 638.68 133.89 596.59 472.66 271.34 622.61 675.81 585.15 193.30 731.38 845.66 620.46 604.23 966.40 945.42 0.00 998.36 608.18 56.98 181.68 841.51 181.81 960.17 315.93 230.59 679.34 550.80 624.96 624.52 199.80 662.24 617.52 828.28 710.28 102.83 531.23 924.53 1003.09 467.96 124.81 74.60 691.94 105.56 76.66 532.48 700.70 179.51 586.30 726.94 827.00 606.12 889.69 125.36 76.26 656.54 582.95 645.59 551.65 98.26 562.10 997.16 117.34 164.86 518.82 535.56 597.87 748.04 632.89 841.66 127.71 586.60 154.95
855.46 946.58 128.09 499.03 980.93 159.14 710.35 164.24 240.12 1012.80 635.75 938.64 873.39 572.16 683.77 197.17 942.13 663.24 194.21 147.30 784.14 1068.90 604.99 902.85 590.47 674.36 655.46 891.32 841.57 690.09 670.82 693.62 945.76 647.07 717.68 917.07 691.48 861.80 994.67 708.40 773.89 644.54 921.68 624.98 269.32 800.68 768.69 200.61 165.72 998.36 0.00 634.54 992.49 857.13 246.20 919.69 162.16 1103.44 1116.49 753.19 752.06 674.02 704.81 865.74 710.98 693.17 293.67 695.74 977.65 683.35 160.72 85.14 806.45 1010.71 986.60 650.84 945.40 962.15 748.65 667.29 908.20 690.57 640.75 171.36 767.10 169.12 925.60 962.16 708.47 661.91 557.97 758.54 968.74 641.06 75.84 952.17 924.48 689.10 663.28 681.17 646.77 678.07 340.20 955.31 674.91 933.28
648.06 571.32 553.19 655.93 560.67 566.52 174.21 572.00 556.21 571.51 60.74 528.89 480.48 153.50 131.40 589.77 557.21 699.54 550.60 549.19 742.57 546.08 710.61 339.73 799.66 42.36 645.79 341.79 582.36 197.39 678.77 94.53 602.88 755.51 782.30 577.67 89.16 263.80 431.55 666.57 216.53 64.00 439.45 791.63 550.87 666.30 224.13 516.70 558.32 608.18 634.54 0.00 551.20 588.43 529.43 631.81 627.17 476.58 719.31 809.38 201.78 98.99 183.13 517.98 776.80 161.82 600.84 716.63 570.46 93.60 556.00 658.67 281.72 519.73 561.62 726.06 597.80 552.37 170.17 733.86 489.95 170.20 747.55 463.18 765.58 590.72 578.00 537.18 736.99 118.73 548.30 233.69 563.29 130.73 641.47 542.57 521.23 129.57 233.27 107.61 772.97 125.46 702.91 571.84 99.90 456.28
460.73 138.31 887.79 666.47 48.28 916.15 583.76 920.28 989.50 20.31 490.46 93.47 212.43 600.28 572.60 947.57 50.36 718.66 998.10 891.87 572.73 163.99 758.22 247.33 793.33 554.78 574.22 731.80 177.18 587.11 517.76 506.91 124.74 716.93 640.97 117.53 560.58 456.30 253.53 587.83 669.94 528.17 186.92 733.67 839.28 604.10 587.87 968.69 929.06 56.98 992.49 551.20 0.00 172.25 825.15 153.72 923.66 258.95 220.52 639.54 548.68 622.39 598.14 150.14 645.89 591.54 818.85 680.80 74.74 514.87 914.51 976.78 443.79 109.50 39.73 675.58 89.20 78.95 497.61 684.34 163.15 559.92 710.88 821.13 629.95 846.76 109.00 49.88 628.45 555.35 628.11 535.29 96.14 545.74 999.45 82.56 153.16 512.44 529.18 540.89 741.66 596.88 825.30 130.00 529.62 138.59
377.33 89.45 816.64 640.00 175.24 892.62 625.26 780.49 987.76 188.28 619.88 161.02 209.21 656.22 582.45 775.81 193.09 600.49 971.14 803.74 626.17 261.23 630.19 248.70 668.43 555.56 485.20 762.28 15.56 676.29 528.32 575.95 88.63 620.29 627.98 91.06 624.37 503.69 287.76 568.20 740.53 591.40 221.66 655.53 696.57 577.63 568.81 994.76 786.23 181.68 857.13 588.43 172.25 0.00 730.90 62.56 830.19 386.48 275.72 668.64 579.16 660.95 676.35 122.71 598.73 613.36 646.60 630.14 141.54 544.17 796.49 855.13 445.16 203.04 161.90 603.03 119.39 105.02 521.27 579.02 215.89 649.10 552.48 794.53 622.62 819.33 99.59 173.06 576.40 595.89 467.88 606.03 126.62 575.04 919.12 126.16 98.47 547.18 523.04 606.94 610.59 636.34 798.83 129.30 585.32 167.89
785.64 820.35 164.85 396.88 793.73 255.86 578.04 143.73 351.00 804.84 551.39 763.40 747.11 624.64 551.46 189.52 831.66 576.46 293.46 172.14 613.38 907.10 502.84 725.16 602.02 487.07 565.00 761.35 746.46 578.17 574.30 514.09 819.53 544.92 621.15 807.16 559.17 708.51 816.98 531.01 661.97 522.91 710.11 653.30 57.75 695.24 675.36 316.25 220.97 841.51 246.20 529.43 825.15 730.90 0.00 793.46 172.87 921.29 964.30 661.81 619.75 594.66 606.24 791.00 612.28 564.70 84.30 566.13 799.95 506.66 159.73 249.89 708.44 865.74 813.75 548.69 824.51 803.67 596.89 572.70 662.00 571.65 568.85 74.84 556.16 179.45 815.69 817.22 604.30 529.60 467.51 648.89 782.07 508.75 282.36 772.06 812.80 497.42 566.76 548.86 600.81 587.33 351.75 769.36 540.77 710.00
414.40 91.98 868.56 603.08 162.51 955.18 598.04 843.05 968.21 145.14 622.22 182.44 176.83 677.19 623.65 838.37 189.44 663.05 1002.68 866.30 622.57 238.06 692.75 300.94 730.99 589.45 547.76 768.02 78.12 649.07 524.44 569.99 71.82 682.85 680.99 54.14 602.26 465.85 316.54 594.51 729.63 593.31 218.12 712.02 759.13 540.71 577.01 1007.72 848.79 181.81 919.69 631.81 153.72 62.56 793.46 0.00 888.06 358.82 274.25 689.38 584.90 666.85 660.10 130.91 651.21 621.76 709.16 665.17 78.98 538.21 859.05 917.69 484.79 226.82 164.72 622.66 82.47 129.92 528.69 631.42 172.70 621.88 615.04 795.07 679.79 827.53 62.67 186.00 611.43 601.79 530.44 616.28 151.52 580.94 981.68 89.24 119.44 532.90 560.38 571.79 673.15 631.59 761.91 101.64 593.41 206.61
693.30 830.99 125.11 402.16 949.61 194.45 691.23 145.53 289.84 937.10 566.43 912.93 711.23 607.47 648.57 69.96 966.12 536.03 259.23 129.19 656.93 1016.58 508.12 890.32 493.60 630.75 587.66 857.30 845.75 671.98 591.40 610.04 906.86 545.29 626.43 868.83 636.55 805.46 869.13 592.71 755.78 604.14 790.60 574.32 230.62 694.27 710.72 280.88 68.85 960.17 162.16 627.17 923.66 830.19 172.87 888.06 0.00 1023.25 1088.94 667.09 747.98 588.98 686.10 780.70 583.77 667.51 183.59 595.15 895.83 598.31 157.74 77.02 800.10 958.39 947.79 553.97 877.27 907.24 688.55 570.35 834.87 675.89 574.13 215.12 639.89 84.08 860.30 946.09 611.60 631.32 511.19 763.30 892.81 645.89 238.00 867.94 856.53 634.28 696.92 616.86 489.40 669.95 243.33 888.96 605.59 882.87
676.30 353.88 975.35 864.98 307.23 965.90 400.68 949.29 1001.07 279.26 498.54 332.96 312.02 552.88 443.49 1027.57 309.31 856.05 956.66 967.30 768.39 368.15 838.18 245.62 857.36 434.22 627.42 595.11 370.92 451.71 683.88 468.06 347.87 865.63 769.77 316.04 485.73 271.11 154.12 710.42 535.51 470.06 312.12 862.47 924.40 802.61 436.95 993.28 996.12 315.93 1103.44 476.58 258.95 386.48 921.29 358.82 1023.25 0.00 479.47 810.43 416.28 443.71 462.74 315.00 787.60 410.27 955.32 772.36 316.75 478.26 947.86 1053.42 392.23 309.96 298.68 817.26 312.33 308.23 388.02 840.90 321.99 424.52 858.03 935.92 764.84 948.61 324.57 308.83 718.62 461.59 724.91 384.37 298.56 466.22 1049.20 305.43 381.34 484.17 469.63 484.50 848.52 469.36 1023.81 257.18 462.88 273.99
522.86 257.95 1025.08 769.05 172.24 1079.66 679.45 1050.15 1134.18 240.83 689.62 246.00 377.71 799.02 646.98 1051.53 174.36 838.85 1161.61 1057.50 781.96 267.91 834.02 379.58 881.60 704.46 739.62 844.82 291.28 730.48 683.16 677.56 258.14 767.87 804.48 220.11 660.58 508.78 413.41 753.23 775.65 676.89 352.80 891.78 949.19 706.68 675.00 1132.20 1048.70 230.59 1116.49 719.31 220.52 275.72 964.30 274.25 1088.94 479.47 0.00 829.53 661.70 696.07 718.40 321.49 807.28 666.11 922.32 792.04 220.07 680.74 1034.15 1130.56 510.99 209.72 192.26 798.07 248.44 242.46 621.33 817.74 302.30 703.29 828.20 945.13 833.66 1018.11 228.64 194.39 738.30 631.01 743.60 693.61 229.04 610.16 1159.58 247.96 285.41 658.20 654.16 650.27 823.76 688.74 927.88 279.64 650.88 306.61
306.67 661.45 638.31 264.93 672.90 712.84 834.63 634.30 841.57 659.85 762.22 642.86 586.13 748.24 791.82 623.60 689.90 157.53 794.79 605.89 66.81 758.89 226.10 564.81 258.05 767.02 183.44 995.95 653.08 863.99 191.55 762.57 666.69 196.73 40.66 635.24 749.58 731.29 656.63 160.01 876.95 750.97 645.42 133.36 622.44 148.67 868.44 858.98 598.24 679.34 753.19 809.38 639.54 668.64 661.81 689.38 667.09 810.43 829.53 0.00 812.83 857.41 843.55 617.52 110.16 827.15 647.69 107.76 634.27 730.79 650.30 683.05 761.27 700.70 659.56 125.05 663.57 602.68 792.71 149.06 688.90 852.32 128.92 627.52 124.03 651.00 643.77 677.56 120.40 779.15 280.93 844.74 624.28 800.00 772.81 606.38 646.74 766.76 792.96 780.05 218.28 785.88 423.76 620.39 789.25 681.36
601.03 569.51 670.71 755.39 509.34 677.39 123.44 667.48 671.33 546.89 182.74 486.94 508.08 264.37 113.33 711.77 525.85 806.10 637.62 641.63 746.02 571.27 817.17 399.55 893.30 188.73 677.74 183.12 579.71 98.84 621.28 145.56 541.46 855.51 820.52 549.92 112.62 270.84 350.18 691.35 182.64 177.73 443.53 859.71 601.90 780.03 55.61 681.53 680.32 550.80 752.06 201.78 548.68 579.16 619.75 584.90 747.98 416.28 661.70 812.83 0.00 196.91 126.91 501.71 800.44 128.91 651.87 800.37 505.92 177.34 678.23 728.39 203.09 556.01 524.11 823.41 540.19 474.14 153.93 840.42 494.03 126.03 854.11 580.70 783.66 686.74 558.45 505.82 764.64 131.85 654.86 31.91 452.54 111.00 760.69 514.82 559.88 159.04 101.27 143.09 879.53 135.46 683.18 525.19 151.72 470.05
669.99 644.23 545.93 754.92 602.68 522.19 134.47 578.42 646.24 611.34 148.69 528.92 538.84 109.17 121.39 605.71 627.13 787.49 604.14 550.01 824.46 572.81 798.56 438.72 851.78 141.35 704.47 340.01 675.21 137.82 760.93 116.46 645.99 799.70 816.75 623.45 116.10 307.87 523.80 705.67 221.62 140.30 459.47 836.97 572.80 742.60 252.52 615.69 615.00 624.96 674.02 98.99 622.39 660.95 594.66 666.85 588.98 443.71 696.07 857.41 196.91 0.00 148.85 571.58 821.37 141.86 622.77 771.27 587.87 148.24 578.56 634.92 294.94 596.51 582.66 732.36 622.14 576.11 199.26 756.37 509.97 110.63 782.91 555.61 804.68 504.90 614.92 607.10 778.96 106.76 636.25 211.45 563.32 85.91 605.49 597.21 604.51 133.95 204.64 126.02 842.35 93.94 658.09 610.10 126.63 493.06
681.50 626.74 576.72 776.10 571.75 627.44 62.06 540.57 626.87 618.45 127.17 532.05 533.09 214.42 98.32 656.20 568.29 765.97 618.97 568.98 798.46 592.24 777.04 436.27 870.77 170.08 712.22 261.14 665.21 28.07 708.66 127.97 626.62 821.94 846.56 605.96 93.97 295.15 456.63 683.54 111.42 148.64 471.07 849.90 584.31 750.94 116.30 662.88 624.75 624.52 704.81 183.13 598.14 676.35 606.24 660.10 686.10 462.74 718.40 843.55 126.91 148.85 0.00 562.40 801.23 62.99 634.28 782.78 599.47 159.75 556.57 662.13 239.81 608.11 572.70 824.30 617.23 587.71 210.77 800.29 521.57 38.22 813.98 577.94 782.55 614.09 597.43 548.26 756.83 87.39 614.73 138.36 566.45 108.24 679.20 606.99 607.64 145.55 153.31 124.44 839.40 124.07 678.43 613.23 146.06 515.39
444.58 122.16 737.65 619.20 168.91 829.18 521.12 770.14 902.38 163.13 535.10 146.51 131.05 602.82 528.38 797.43 185.42 625.15 871.77 741.73 550.71 273.77 640.28 178.25 724.69 524.84 562.52 658.37 107.15 561.07 549.59 481.36 132.11 674.87 631.64 101.38 513.14 422.15 238.14 479.52 640.51 539.10 112.11 647.88 764.47 573.90 446.10 935.96 806.72 199.80 865.74 517.98 150.14 122.71 791.00 130.91 780.70 315.00 321.49 617.52 501.71 571.58 562.40 0.00 597.21 536.33 769.31 606.55 130.84 473.60 770.28 826.64 374.71 215.58 183.68 625.57 96.57 133.71 398.56 649.58 129.00 544.96 634.35 827.66 578.53 696.62 92.85 165.39 552.81 506.52 477.97 485.37 112.11 485.67 867.17 130.81 75.83 437.63 454.37 525.78 666.85 542.08 778.03 151.72 508.04 177.00
311.75 634.91 632.96 221.04 694.17 741.68 792.31 660.83 820.38 666.20 745.23 649.21 623.10 712.20 749.50 513.81 696.25 166.92 789.77 638.49 73.16 777.87 210.01 593.65 214.09 738.33 160.18 956.96 584.87 821.67 179.16 718.87 635.10 202.23 69.50 597.07 707.26 710.50 685.47 117.69 834.63 712.80 591.15 162.20 554.53 110.50 856.05 815.92 545.26 662.24 710.98 776.80 645.89 598.73 612.28 651.21 583.77 787.60 807.28 110.16 800.44 821.37 801.23 597.21 0.00 784.83 580.04 64.06 622.69 687.09 665.59 649.90 746.92 729.54 685.62 108.96 625.40 631.52 750.39 132.60 641.65 808.62 157.76 652.49 56.12 614.62 605.60 695.77 68.98 736.83 257.67 832.35 653.12 757.68 767.46 612.73 608.57 723.06 741.54 728.93 218.58 743.56 379.87 646.06 745.55 671.97
665.14 588.40 565.08 746.76 580.36 623.92 23.72 572.33 593.93 581.38 101.08 535.71 500.15 210.90 35.33 630.11 576.90 739.88 602.30 589.53 799.86 531.42 750.95 373.28 843.56 151.54 686.13 198.15 602.22 65.74 717.27 111.61 593.68 785.66 822.64 567.62 77.57 285.43 408.45 667.14 149.54 115.70 424.22 811.56 567.95 718.00 145.78 633.44 598.66 617.52 693.17 161.82 591.54 613.36 564.70 621.76 667.51 410.27 666.11 827.15 128.91 141.86 62.99 536.33 784.83 0.00 617.92 755.45 552.62 132.42 588.33 670.56 176.82 553.28 581.31 798.21 578.89 540.86 175.69 774.20 474.72 46.83 787.89 525.65 766.15 606.11 559.09 556.87 740.43 54.45 588.64 105.23 562.46 55.95 699.58 577.65 554.78 98.70 90.32 95.10 813.31 85.72 628.13 582.08 85.24 463.10
801.54 736.05 170.04 431.34 821.84 246.02 599.69 133.89 341.16 834.88 566.30 807.62 695.87 627.77 587.26 129.21 839.69 579.64 324.54 157.14 580.88 907.83 487.42 709.70 522.78 558.48 557.22 753.57 662.16 623.25 590.20 506.31 735.23 553.57 619.89 737.66 565.01 703.26 801.52 615.31 692.38 587.12 702.33 634.68 49.97 662.74 707.48 380.67 139.63 828.28 293.67 600.84 818.85 646.60 84.30 709.16 183.59 955.32 922.32 647.69 651.87 622.77 634.28 769.31 580.04 617.92 0.00 581.54 788.14 538.09 149.89 208.53 696.80 849.64 808.50 536.64 765.99 751.62 589.11 558.17 746.30 596.06 531.63 147.93 523.92 202.25 746.19 819.66 619.28 563.47 459.73 683.78 773.22 573.71 272.52 772.76 745.07 572.17 639.85 554.61 579.08 600.28 272.51 775.90 532.99 794.30
296.51 667.00 655.67 196.71 690.98 679.00 742.49 651.66 834.39 673.61 714.80 682.06 644.64 668.09 732.43 561.47 717.91 102.86 760.95 623.25 112.36 775.97 145.95 610.35 177.53 674.27 144.94 892.90 614.58 771.75 197.10 654.81 595.74 138.17 86.20 633.77 712.53 651.14 702.17 127.03 839.90 688.53 565.27 149.14 613.46 172.15 800.09 813.02 530.02 710.28 695.74 716.63 680.80 630.14 566.13 665.17 595.15 772.36 792.04 107.76 800.37 771.27 782.78 606.55 64.06 755.45 581.54 0.00 607.45 623.03 650.64 634.66 731.68 717.78 693.19 44.90 631.28 648.22 713.27 68.54 615.77 744.56 95.08 629.49 115.05 640.12 642.30 714.47 53.74 706.70 242.43 832.28 669.82 699.50 762.30 632.30 670.22 659.00 726.30 703.11 154.52 748.78 355.54 630.82 681.49 663.77
405.80 81.62 868.49 611.54 83.53 903.00 537.41 875.58 959.61 66.16 560.87 115.71 201.38 630.10 544.67 903.94 110.46 659.26 984.95 872.57 567.46 188.53 701.53 266.50 733.93 528.10 519.55 689.04 136.08 588.44 463.09 508.64 65.34 662.26 627.82 62.60 531.69 416.24 264.26 533.16 659.06 542.36 182.44 671.71 834.80 549.17 561.53 955.54 874.13 102.83 977.65 570.46 74.74 141.54 799.95 78.98 895.83 316.75 220.07 634.27 505.92 587.87 599.47 130.84 622.69 552.62 788.14 607.45 0.00 476.86 859.58 957.48 462.96 155.51 85.74 616.18 34.27 65.80 467.34 624.94 151.10 561.25 651.48 874.05 624.68 827.46 54.07 107.02 553.71 522.81 574.30 537.83 81.83 501.96 986.30 27.89 106.69 453.92 524.70 510.44 710.92 567.99 770.37 59.57 532.06 149.95
585.31 521.91 555.26 664.81 510.65 566.26 119.46 550.66 567.32 494.56 91.77 448.89 440.86 153.24 109.40 615.04 547.10 711.98 552.10 559.34 735.39 504.64 723.05 398.25 800.56 51.24 658.23 269.87 547.17 148.72 691.21 31.78 509.28 761.20 709.23 484.07 89.50 207.15 423.08 668.07 216.87 65.50 361.49 772.17 488.12 667.80 177.06 606.83 589.35 531.23 683.35 93.60 514.87 544.17 506.66 538.21 598.31 478.26 680.74 730.79 177.34 148.24 159.75 473.60 687.09 132.42 538.09 623.03 476.86 0.00 564.88 644.25 201.79 498.53 502.63 667.93 511.13 472.37 90.24 691.57 411.99 121.53 718.11 546.17 730.74 514.23 492.60 527.07 676.77 83.67 560.74 209.25 483.29 76.47 649.56 448.97 508.89 35.97 150.42 80.08 777.55 125.75 648.65 497.22 58.46 376.28
808.33 834.82 32.63 453.93 885.47 96.13 564.61 16.00 191.27 894.20 532.86 843.18 842.24 508.12 607.42 151.78 868.30 616.01 178.08 44.41 711.03 927.90 559.89 837.88 545.37 513.64 592.67 786.48 812.05 584.64 596.99 565.81 852.07 545.03 678.20 814.04 589.75 735.08 929.70 663.30 667.99 541.65 847.85 685.84 195.49 737.66 672.87 230.78 120.62 924.53 160.72 556.00 914.51 796.49 159.73 859.05 157.74 947.86 1034.15 650.30 678.23 578.56 556.57 770.28 665.59 588.33 149.89 650.64 859.58 564.88 0.00 105.56 732.62 869.71 896.92 605.74 825.31 889.82 641.45 629.75 821.73 575.94 612.84 97.53 653.81 73.66 805.51 888.33 644.52 588.08 495.18 676.76 877.58 567.23 154.63 849.14 846.11 600.85 589.45 583.29 600.92 626.05 295.10 878.59 572.02 836.08
770.32 908.01 105.48 437.95 958.32 117.43 661.61 121.56 243.37 966.42 602.22 916.03 788.25 530.45 646.82 136.09 966.26 602.16 199.38 135.81 720.09 1033.46 543.91 910.73 529.39 619.20 660.14 868.71 870.69 648.39 627.19 651.91 943.76 585.99 643.87 919.60 629.23 806.86 946.15 647.32 732.19 633.05 867.62 651.34 234.41 739.60 746.08 203.86 104.64 1003.09 85.14 658.67 976.78 855.13 249.89 917.69 77.02 1053.42 1130.56 683.05 728.39 634.92 662.13 826.64 649.90 670.56 208.53 634.66 957.48 644.25 105.56 0.00 805.78 975.27 969.77 589.76 923.21 944.23 694.23 582.15 896.14 675.58 555.61 195.49 706.02 130.02 911.07 981.81 647.39 650.66 588.21 746.30 938.75 665.19 160.98 944.96 902.47 680.22 677.29 652.65 566.42 592.93 279.12 965.98 641.38 848.14
719.21 428.05 714.98 852.93 417.40 728.83 200.54 748.62 729.89 431.29 248.09 385.62 375.55 315.81 195.22 777.12 413.94 785.69 753.89 736.54 727.71 434.65 811.37 196.46 816.68 239.36 586.74 374.97 460.72 242.56 643.20 194.35 479.68 820.63 720.61 443.26 237.46 121.12 288.28 669.74 326.36 267.29 296.18 813.31 650.69 753.18 164.01 769.40 745.67 467.96 806.45 281.72 443.79 445.16 708.44 484.79 800.10 392.23 510.99 761.27 203.09 294.94 239.81 374.71 746.92 176.82 696.80 731.68 462.96 201.79 732.62 805.78 0.00 376.46 418.35 727.36 454.53 409.10 111.55 751.37 346.68 223.65 777.91 635.09 724.16 716.02 434.73 393.91 677.94 220.95 684.23 216.59 401.75 209.03 812.13 446.76 377.96 218.83 143.17 234.63 807.84 249.11 781.21 428.57 213.01 313.01
532.94 186.57 902.34 721.62 79.81 935.22 546.05 885.71 973.24 103.41 543.53 117.02 247.16 615.87 547.33 978.85 68.58 739.02 1017.17 914.12 677.15 58.19 797.23 180.00 788.39 539.42 605.52 663.29 218.60 597.08 572.78 494.41 192.39 771.95 660.04 172.68 540.33 381.10 271.82 642.85 667.70 561.31 175.81 744.24 828.17 659.25 540.47 987.76 989.27 124.81 1010.71 519.73 109.50 203.04 865.74 226.82 958.39 309.96 209.72 700.70 556.01 596.51 608.11 215.58 729.54 553.28 849.64 717.78 155.51 498.53 869.71 975.27 376.46 0.00 69.77 696.18 165.93 98.02 411.61 720.19 203.74 569.89 746.73 839.35 710.84 912.20 181.21 63.31 664.04 531.45 670.92 585.48 103.47 510.60 1007.01 137.58 192.61 462.56 496.98 525.99 730.55 555.13 880.45 132.10 504.37 155.74
467.69 116.80 864.29 661.68 20.02 894.08 558.32 900.44 949.77 49.84 530.19 53.74 236.56 640.01 576.21 937.33 44.47 707.12 976.03 896.71 612.46 127.96 736.71 221.89 786.10 552.24 564.38 707.23 177.46 561.67 532.76 534.41 131.70 731.93 618.90 112.74 576.81 440.79 246.22 602.83 645.47 542.76 173.52 711.60 825.88 599.31 579.72 946.62 936.02 74.60 986.60 561.62 39.73 161.90 813.75 164.72 947.79 298.68 192.26 659.56 524.11 582.66 572.70 183.68 685.62 581.31 808.50 693.19 85.74 502.63 896.92 969.77 418.35 69.77 0.00 682.54 96.16 56.88 457.88 691.30 151.75 534.48 707.16 815.24 669.68 880.30 115.96 24.44 639.45 554.35 629.78 546.61 71.57 533.50 977.38 97.56 129.33 499.04 515.78 573.61 728.26 601.40 820.51 107.93 561.09 126.35
275.21 626.71 610.77 151.81 696.56 634.47 787.39 606.76 789.86 655.27 697.13 672.27 599.74 623.19 777.33 516.57 680.27 58.33 716.42 578.35 157.26 754.37 101.05 608.54 133.00 719.07 189.84 937.80 618.59 809.54 202.13 699.71 550.84 93.27 84.39 588.87 735.62 606.24 700.36 146.05 862.99 733.43 520.37 104.61 586.61 217.05 844.99 768.12 485.12 691.94 650.84 726.06 675.58 603.03 548.69 622.66 553.97 817.26 798.07 125.05 823.41 732.36 824.30 625.57 108.96 798.21 536.64 44.90 616.18 667.93 605.74 589.76 727.36 696.18 682.54 0.00 586.38 637.01 723.15 24.01 570.87 789.46 50.55 584.59 159.95 595.22 597.40 693.04 98.64 751.60 209.57 832.52 639.76 744.40 717.77 611.15 641.99 703.90 771.20 747.56 109.99 768.94 310.64 641.53 726.39 618.87
371.53 49.11 834.22 577.27 116.18 921.44 555.17 841.31 925.34 68.89 579.66 136.33 168.87 634.32 578.94 869.67 139.56 629.46 968.34 838.30 596.76 222.80 669.02 258.07 704.13 562.37 541.03 723.31 103.83 606.20 497.36 542.91 35.54 679.65 652.47 28.33 565.96 450.51 251.35 567.43 690.00 564.87 175.25 667.29 815.96 514.90 542.67 964.85 839.86 105.56 945.40 597.80 89.20 119.39 824.51 82.47 877.27 312.33 248.44 663.57 540.19 622.14 617.23 96.57 625.40 578.89 765.99 631.28 34.27 511.13 825.31 923.21 454.53 165.93 96.16 586.38 0.00 90.59 495.13 595.14 162.51 579.01 621.68 877.54 603.43 793.19 19.80 120.60 587.98 557.08 540.03 569.62 112.19 536.23 963.74 62.16 76.57 488.19 517.51 544.71 681.12 602.26 736.10 55.15 566.33 180.80
436.04 113.62 866.55 624.72 70.22 837.20 525.65 885.51 929.25 99.26 564.14 56.00 196.01 625.61 532.91 880.83 94.91 657.15 919.15 875.44 580.25 156.21 730.68 212.64 729.22 523.61 507.50 657.26 120.58 572.98 475.88 504.15 100.99 675.05 562.02 75.78 519.93 420.79 210.22 545.95 647.30 537.87 116.64 654.72 769.00 562.35 529.75 889.74 891.25 76.66 962.15 552.37 78.95 105.02 803.67 129.92 907.24 308.23 242.46 602.68 474.14 576.11 587.71 133.71 631.52 540.86 751.62 648.22 65.80 472.37 889.82 944.23 409.10 98.02 56.88 637.01 90.59 0.00 480.13 635.80 141.67 549.49 650.28 865.68 637.47 830.33 84.31 74.88 598.70 511.05 572.90 506.05 21.60 490.20 920.50 40.68 122.29 442.16 458.90 523.23 671.38 556.23 783.55 51.05 530.83 96.09
623.31 512.39 645.50 741.38 477.90 617.28 176.18 640.90 618.34 507.72 136.54 497.17 487.10 204.26 158.65 665.57 480.19 678.41 642.34 624.99 768.55 469.80 710.50 308.01 783.21 127.81 698.29 330.06 505.71 199.74 702.77 82.80 499.76 749.39 795.72 474.55 141.50 116.91 332.84 632.70 268.87 155.74 407.73 793.33 539.14 758.04 209.54 657.85 634.12 532.48 748.65 170.17 497.61 521.27 596.89 528.69 688.55 388.02 621.33 792.71 153.93 199.26 210.77 398.56 750.39 175.69 589.11 713.27 467.34 90.24 641.45 694.23 111.55 411.61 457.88 723.15 495.13 480.13 0.00 712.73 410.06 172.55 726.42 577.29 731.71 604.47 483.08 474.92 705.99 139.96 624.10 185.84 501.73 150.20 700.58 439.45 474.39 108.08 85.37 128.36 751.84 143.52 704.75 487.70 109.48 424.56
299.22 635.47 601.55 175.82 705.32 610.46 797.92 630.77 765.85 664.03 673.12 682.92 623.75 647.20 755.26 500.39 689.03 34.32 692.41 602.36 146.64 778.38 125.06 632.55 108.99 695.06 213.48 961.44 594.58 809.77 226.14 723.35 559.60 94.35 108.40 597.63 743.24 630.25 724.37 170.06 870.61 710.83 544.38 80.60 595.32 223.95 861.09 756.60 509.13 700.70 667.29 733.86 684.34 579.02 572.70 631.42 570.35 840.90 817.74 149.06 840.42 756.37 800.29 649.58 132.60 774.20 558.17 68.54 624.94 691.57 629.75 582.15 751.37 720.19 691.30 24.01 595.14 635.80 712.73 0.00 594.88 782.58 26.54 608.60 183.59 601.20 606.16 701.80 122.28 738.01 185.56 808.51 648.52 752.58 693.76 619.91 617.98 727.54 794.84 723.55 85.98 744.93 334.65 650.29 712.28 642.88
503.09 162.13 826.85 722.25 131.73 917.86 459.51 805.73 929.75 142.84 501.87 101.40 129.87 563.34 466.77 851.52 169.66 629.20 951.62 834.14 642.75 245.10 671.92 150.22 663.08 463.23 556.09 672.87 214.50 510.54 540.81 441.88 162.44 661.13 649.53 173.31 453.79 293.15 167.87 608.52 581.16 465.02 50.50 675.48 702.86 642.47 510.69 969.26 882.97 179.51 908.20 489.95 163.15 215.89 662.00 172.70 834.87 321.99 302.30 688.90 494.03 509.97 521.57 129.00 641.65 474.72 746.30 615.77 151.10 411.99 821.73 896.14 346.68 203.74 151.75 570.87 162.51 141.67 410.06 594.88 0.00 483.35 621.42 736.84 585.53 825.62 164.78 155.22 647.29 444.91 606.97 486.14 120.07 424.06 944.36 155.61 150.80 376.02 392.76 464.17 605.24 490.09 867.29 107.36 464.78 48.00
643.28 588.52 602.40 755.49 533.53 624.23 23.84 572.45 593.82 580.23 109.46 493.83 512.22 211.21 66.65 638.49 530.07 748.26 619.93 569.98 795.18 562.61 759.33 420.11 849.94 141.92 694.51 244.98 633.54 27.19 670.44 89.75 605.77 804.23 824.44 567.74 108.89 256.93 419.09 698.46 110.99 147.17 432.85 811.68 546.09 749.47 142.16 633.33 607.04 586.30 690.57 170.20 559.92 649.10 571.65 621.88 675.89 424.52 703.29 852.32 126.03 110.63 38.22 544.96 808.62 46.83 596.06 744.56 561.25 121.53 575.94 675.58 223.65 569.89 534.48 789.46 579.01 549.49 172.55 782.58 483.35 0.00 796.27 562.83 797.47 615.09 559.21 510.04 771.75 85.92 597.02 100.82 528.23 93.13 707.53 570.50 569.42 107.33 135.75 126.57 821.69 92.10 665.31 575.01 116.43 497.81
325.76 641.93 628.09 171.97 720.50 583.92 811.61 626.92 739.31 690.57 686.81 695.85 650.29 673.74 768.95 514.08 715.57 48.01 665.87 598.51 164.48 804.92 133.96 612.41 135.53 708.75 231.04 986.04 568.04 823.46 234.96 746.80 586.14 67.81 88.26 624.17 756.93 656.79 704.23 193.64 884.30 724.52 570.92 103.05 581.60 197.41 841.52 730.06 505.28 726.94 640.75 747.55 710.88 552.48 568.85 615.04 574.13 858.03 828.20 128.92 854.11 782.91 813.98 634.35 157.76 787.89 531.63 95.08 651.48 718.11 612.84 555.61 777.91 746.73 707.16 50.55 621.68 650.28 726.42 26.54 621.42 796.27 0.00 635.14 175.13 614.89 632.70 725.16 147.99 751.70 199.25 822.20 671.88 766.27 667.22 646.45 631.67 754.08 811.79 737.24 112.52 758.62 330.80 676.83 725.97 623.24
710.80 864.47 90.01 471.72 814.29 193.66 538.99 113.53 280.92 841.44 523.92 838.24 744.71 605.65 512.41 209.16 770.77 600.75 218.62 122.43 624.20 897.54 577.68 781.48 611.85 505.54 555.92 723.80 810.09 569.07 499.46 537.10 866.89 619.76 586.86 849.21 520.12 690.44 838.80 569.53 635.19 527.18 750.32 679.56 97.96 659.70 636.31 241.41 215.66 827.00 171.36 463.18 821.13 794.53 74.84 795.07 215.12 935.92 945.13 627.52 580.70 555.61 577.94 827.66 652.49 525.65 147.93 629.49 874.05 546.17 97.53 195.49 635.09 839.35 815.24 584.59 877.54 865.68 577.29 608.60 736.84 562.83 635.14 0.00 596.37 131.04 857.74 790.80 642.82 490.55 507.72 609.84 844.08 469.70 224.51 846.90 887.64 517.74 491.92 509.81 669.69 548.28 390.14 844.20 510.42 784.84
316.32 638.98 686.38 277.16 668.81 749.94 773.63 657.81 845.08 642.79 722.47 633.27 614.40 760.16 730.82 569.93 662.35 217.91 814.99 669.36 57.22 721.75 241.27 634.75 270.21 737.42 137.42 953.28 607.06 802.99 169.08 747.28 638.97 183.59 125.62 625.65 688.58 654.38 684.83 99.01 815.95 701.58 535.03 218.32 498.41 139.08 839.27 837.78 601.38 606.12 767.10 765.58 629.95 622.62 556.16 679.79 639.89 764.84 833.66 124.03 783.66 804.68 782.55 578.53 56.12 766.15 523.92 115.05 624.68 730.74 653.81 706.02 724.16 710.84 669.68 159.95 603.43 637.47 731.71 183.59 585.53 797.47 175.13 596.37 0.00 670.74 623.23 679.83 95.36 718.15 234.91 815.57 659.07 739.00 796.44 596.79 637.15 766.35 761.61 719.05 239.48 724.88 435.99 623.30 740.67 633.53
777.38 818.78 41.03 443.41 865.53 132.56 622.13 73.52 205.76 853.02 533.56 837.60 795.31 545.58 613.70 100.81 882.04 566.88 175.15 45.11 687.78 970.39 533.78 846.28 534.85 562.56 624.86 784.10 803.77 587.90 598.99 546.01 828.73 591.45 667.68 798.00 594.21 721.38 934.76 652.78 671.70 526.72 808.73 658.40 216.06 725.12 681.63 239.34 110.10 889.69 169.12 590.72 846.76 819.33 179.45 827.53 84.08 948.61 1018.11 651.00 686.74 504.90 614.09 696.62 614.62 606.11 202.25 640.12 827.46 514.23 73.66 130.02 716.02 912.20 880.30 595.22 793.19 830.33 604.47 601.20 825.62 615.09 614.89 131.04 670.74 0.00 789.47 862.01 645.22 587.97 552.70 698.19 808.73 590.70 170.55 827.43 772.45 550.20 612.84 570.33 573.48 598.84 284.58 848.34 572.69 836.78
351.73 29.31 830.50 557.47 135.98 901.64 535.37 821.51 905.54 88.69 576.61 132.36 149.07 614.52 571.72 851.51 150.33 640.43 964.62 834.58 576.96 221.09 649.22 238.27 715.15 543.84 535.29 741.57 84.03 586.40 478.83 524.38 46.56 678.00 635.38 8.53 556.65 431.98 266.70 548.90 670.20 558.10 155.45 685.22 796.16 495.10 538.95 945.05 820.06 125.36 925.60 578.00 109.00 99.59 815.69 62.67 860.30 324.57 228.64 643.77 558.45 614.92 597.43 92.85 605.60 559.09 746.19 642.30 54.07 492.60 805.51 911.07 434.73 181.21 115.96 597.40 19.80 84.31 483.08 606.16 164.78 559.21 632.70 857.74 623.23 789.47 0.00 140.40 594.50 549.86 520.23 578.22 105.91 529.01 960.02 43.63 56.77 480.97 497.71 526.18 692.14 585.98 716.30 73.08 547.80 161.00
492.13 141.24 876.33 686.12 23.49 912.08 533.88 904.33 974.21 70.19 540.34 78.18 244.04 650.16 562.50 948.87 20.03 688.83 994.03 907.12 622.61 114.11 761.15 197.45 793.63 555.71 582.38 688.94 180.45 537.23 550.76 556.79 142.20 749.93 636.90 137.18 594.81 444.26 264.66 620.83 621.03 546.23 191.52 716.50 843.88 623.75 557.92 964.62 959.29 76.26 962.16 537.18 49.88 173.06 817.22 186.00 946.09 308.83 194.39 677.56 505.82 607.10 548.26 165.39 695.77 556.87 819.66 714.47 107.02 527.07 888.33 981.81 393.91 63.31 24.44 693.04 120.60 74.88 474.92 701.80 155.22 510.04 725.16 790.80 679.83 862.01 140.40 0.00 660.73 578.79 640.94 522.17 53.28 557.94 995.38 115.56 147.05 517.04 533.78 581.91 746.26 602.14 844.95 104.36 560.29 150.79
242.77 613.26 632.53 209.44 637.24 721.45 747.91 628.52 835.79 619.87 676.25 628.32 631.01 721.83 705.10 574.20 664.17 156.60 803.40 600.11 96.72 722.23 197.24 613.88 231.27 698.19 91.20 927.56 560.84 777.27 143.36 708.55 619.05 147.01 89.73 603.03 662.86 697.25 705.70 73.29 790.23 675.86 596.79 182.43 593.77 118.41 820.25 851.25 542.75 656.54 708.47 736.99 628.45 576.40 604.30 611.43 611.60 718.62 738.30 120.40 764.64 778.96 756.83 552.81 68.98 740.43 619.28 53.74 553.71 676.77 644.52 647.39 677.94 664.04 639.45 98.64 587.98 598.70 705.99 122.28 647.29 771.75 147.99 642.82 95.36 645.22 594.50 660.73 0.00 692.43 188.69 796.55 620.30 713.28 767.03 578.56 616.48 712.74 672.56 693.33 202.90 699.16 368.27 577.08 714.95 636.17
610.69 565.46 580.56 692.31 562.37 587.73 62.08 581.75 539.48 546.28 64.89 500.61 445.70 174.71 25.73 593.92 598.82 703.69 547.85 553.34 745.41 507.75 714.76 384.01 808.49 97.09 649.94 235.13 592.62 113.11 682.92 57.16 539.23 759.66 782.16 558.30 29.57 230.98 446.91 619.14 144.84 61.25 394.41 787.50 513.50 663.55 182.10 578.99 562.47 582.95 661.91 118.73 555.35 595.89 529.60 601.79 631.32 461.59 631.01 779.15 131.85 106.76 87.39 506.52 736.83 54.45 563.47 706.70 522.81 83.67 588.08 650.66 220.95 531.45 554.35 751.60 557.08 511.05 139.96 738.01 444.91 85.92 751.70 490.55 718.15 587.97 549.86 578.79 692.43 0.00 552.45 159.68 532.65 20.85 671.03 523.20 558.11 68.89 139.58 40.65 777.12 57.73 591.04 552.27 61.57 428.00
341.81 549.54 515.33 195.39 643.12 591.31 612.36 479.18 686.45 608.92 487.56 624.48 609.02 597.38 569.70 560.15 660.97 151.24 669.83 507.59 238.46 729.11 162.31 656.22 256.04 509.50 97.49 786.79 483.44 624.21 130.47 547.55 556.51 207.21 240.27 528.76 557.68 703.54 716.11 180.49 685.05 525.27 590.08 266.16 409.76 290.71 675.53 721.30 528.70 645.59 557.97 548.30 628.11 467.88 467.51 530.44 511.19 724.91 743.60 280.93 654.86 636.25 614.73 477.97 257.67 588.64 459.73 242.43 574.30 560.74 495.18 588.21 684.23 670.92 629.78 209.57 540.03 572.90 624.10 185.56 606.97 597.02 199.25 507.72 234.91 552.70 520.23 640.94 188.69 552.45 0.00 622.95 590.08 567.02 596.53 563.86 553.80 596.71 660.09 537.99 224.67 559.37 354.22 583.37 526.72 623.28
632.94 595.93 670.31 787.30 541.25 645.48 124.66 673.27 694.64 514.98 206.31 510.75 476.17 232.46 140.54 735.34 542.20 774.19 669.53 653.08 777.93 539.36 785.26 410.09 878.99 220.64 709.65 210.74 592.52 110.29 653.19 177.47 573.37 830.16 852.43 581.83 144.53 302.75 318.27 723.26 178.94 206.87 471.02 889.11 633.81 809.17 52.58 713.44 703.89 551.65 758.54 233.69 535.29 606.03 648.89 616.28 763.30 384.37 693.61 844.74 31.91 211.45 138.36 485.37 832.35 105.23 683.78 832.28 537.83 209.25 676.76 746.30 216.59 585.48 546.61 832.52 569.62 506.05 185.84 808.51 486.14 100.82 822.20 609.84 815.57 698.19 578.22 522.17 796.55 159.68 622.95 0.00 484.45 140.14 728.78 546.73 561.20 173.32 128.76 175.00 847.62 153.37 712.32 533.17 180.86 438.14
457.64 116.97 844.95 646.32 56.80 858.80 547.25 881.10 930.43 98.42 575.06 34.40 217.61 636.53 554.51 902.43 73.31 635.55 940.75 853.84 601.85 161.66 736.88 223.56 740.35 534.53 529.10 635.66 127.17 551.38 497.48 515.07 88.92 696.65 583.62 97.38 541.53 413.22 213.74 567.55 635.18 548.79 138.24 676.32 790.60 583.95 508.15 911.34 912.85 98.26 968.74 563.29 96.14 126.62 782.07 151.52 892.81 298.56 229.04 624.28 452.54 563.32 566.45 112.11 653.12 562.46 773.22 669.82 81.83 483.29 877.58 938.75 401.75 103.47 71.57 639.76 112.19 21.60 501.73 648.52 120.07 528.23 671.88 844.08 659.07 808.73 105.91 53.28 620.30 532.65 590.08 484.45 0.00 511.80 942.10 62.28 107.34 463.76 480.50 544.83 692.98 577.83 805.15 72.65 541.75 107.01
620.93 558.32 559.71 691.77 541.52 601.88 69.29 583.23 560.33 525.43 79.46 479.76 452.93 188.86 42.71 608.49 577.97 718.26 553.33 563.97 750.89 486.90 724.47 404.86 822.45 102.57 664.51 254.10 590.60 120.32 697.49 67.40 560.08 744.51 785.70 537.54 50.42 251.83 458.41 639.99 165.49 66.73 373.56 808.35 523.74 669.03 166.61 599.84 577.04 562.10 641.06 130.73 545.74 575.04 508.75 580.94 645.89 466.22 610.16 800.00 111.00 85.91 108.24 485.67 757.68 55.95 573.71 699.50 501.96 76.47 567.23 665.19 209.03 510.60 533.50 744.40 536.23 490.20 150.20 752.58 424.06 93.13 766.27 469.70 739.00 590.70 529.01 557.94 713.28 20.85 567.02 140.14 511.80 0.00 685.18 522.66 537.26 48.04 118.73 40.11 791.69 78.58 572.18 531.42 40.72 407.15
931.30 989.33 134.50 574.87 987.34 83.30 687.24 138.63 164.28 1019.76 606.14 945.05 949.23 496.32 688.28 253.65 995.28 715.23 160.65 166.92 831.70 1065.20 680.83 827.01 666.31 644.94 694.02 865.04 917.41 682.67 723.97 617.78 999.28 699.66 755.48 968.55 676.26 814.73 918.83 766.89 742.02 618.65 926.73 700.82 322.47 839.53 758.93 124.77 241.56 997.16 75.84 641.47 999.45 919.12 282.36 981.68 238.00 1049.20 1159.58 772.81 760.69 605.49 679.20 867.17 767.46 699.58 272.52 762.30 986.30 649.56 154.63 160.98 812.13 1007.01 977.38 717.77 963.74 920.50 700.58 693.76 944.36 707.53 667.22 224.51 796.44 170.55 960.02 995.38 767.03 671.03 596.53 728.78 942.10 685.18 0.00 961.18 943.00 683.64 706.31 656.57 722.61 688.34 416.04 971.55 644.46 943.56
395.36 72.94 868.46 584.04 110.90 877.88 565.30 865.14 949.17 94.05 532.98 93.20 189.77 602.21 546.95 895.14 106.70 650.90 959.83 872.54 539.57 195.77 690.00 250.30 721.60 500.21 491.66 697.94 110.60 597.69 435.20 480.75 60.31 634.37 602.70 35.10 513.02 388.35 236.37 505.27 640.39 514.47 157.32 660.39 809.68 521.67 570.43 930.42 863.69 117.34 952.17 542.57 82.56 126.16 772.06 89.24 867.94 305.43 247.96 606.38 514.82 597.21 606.99 130.81 612.73 577.65 772.76 632.30 27.89 448.97 849.14 944.96 446.76 137.58 97.56 611.15 62.16 40.68 439.45 619.91 155.61 570.50 646.45 846.90 596.79 827.43 43.63 115.56 578.56 523.20 563.86 546.73 62.28 522.66 961.18 0.00 81.61 481.81 499.58 482.55 690.26 542.35 742.87 48.25 504.17 133.75
385.55 50.09 813.48 614.24 149.35 905.01 572.71 845.97 962.31 132.85 581.97 75.59 169.85 557.75 573.18 873.26 167.08 583.66 947.60 817.56 579.93 219.29 670.00 181.50 688.46 560.13 552.55 734.20 82.91 596.61 516.81 540.67 103.33 654.64 638.35 65.30 566.99 437.67 268.07 555.35 680.41 574.39 163.70 698.58 795.04 498.07 521.93 1001.82 876.83 164.86 924.48 521.23 153.16 98.47 812.80 119.44 856.53 381.34 285.41 646.74 559.88 604.51 607.64 75.83 608.57 554.78 745.07 670.22 106.69 508.89 846.11 902.47 377.96 192.61 129.33 641.99 76.57 122.29 474.39 617.98 150.80 569.42 631.67 887.64 637.15 772.45 56.77 147.05 616.48 558.11 553.80 561.20 107.34 537.26 943.00 81.61 0.00 489.22 505.96 564.16 657.09 603.29 739.37 128.13 567.35 148.20
619.39 510.28 591.23 700.78 507.75 600.34 83.49 586.63 553.73 518.86 125.85 477.42 404.89 187.32 90.75 651.01 531.14 747.95 588.07 595.31 771.36 520.75 759.02 415.29 836.53 87.21 694.20 296.85 544.78 134.52 674.77 65.86 519.26 792.55 745.20 489.50 77.77 224.99 440.92 667.34 205.14 101.47 325.52 808.14 522.20 703.77 183.01 593.24 623.43 518.82 689.10 129.57 512.44 547.18 497.42 532.90 634.28 484.17 658.20 766.76 159.04 133.95 145.55 437.63 723.06 98.70 572.17 659.00 453.92 35.97 600.85 680.22 218.83 462.56 499.04 703.90 488.19 442.16 108.08 727.54 376.02 107.33 754.08 517.74 766.35 550.20 480.97 517.04 712.74 68.89 596.71 173.32 463.76 48.04 683.64 481.81 489.22 0.00 114.45 88.15 813.52 114.07 620.22 483.38 88.76 412.25
702.30 527.02 571.81 806.65 524.49 662.08 111.91 605.45 657.78 518.92 172.53 494.16 421.63 249.06 125.65 690.96 553.81 763.78 672.06 604.23 765.16 555.17 795.87 339.63 854.13 201.31 624.19 284.39 535.69 156.06 680.65 160.05 544.27 819.57 762.29 506.24 167.89 198.52 414.45 707.19 239.86 185.46 342.26 854.99 589.88 787.76 156.88 697.29 670.11 535.56 663.28 233.27 529.18 523.04 566.76 560.38 696.92 469.63 654.16 792.96 101.27 204.64 153.31 454.37 741.54 90.32 639.85 726.30 524.70 150.42 589.45 677.29 143.17 496.98 515.78 771.20 517.51 458.90 85.37 794.84 392.76 135.75 811.79 491.92 761.61 612.84 497.71 533.78 672.56 139.58 660.09 128.76 480.50 118.73 706.31 499.58 505.96 114.45 0.00 154.99 837.21 176.04 690.91 500.12 133.37 440.76
601.83 555.49 571.30 651.66 566.35 573.27 102.73 567.29 578.27 561.20 50.43 519.87 460.09 160.25 64.40 579.46 589.25 689.23 530.21 538.88 727.77 467.80 700.30 424.66 794.03 79.45 635.48 275.78 591.38 144.88 668.46 48.30 542.86 725.41 771.99 517.65 30.47 245.25 461.18 620.04 157.84 43.61 413.67 781.32 504.64 645.91 198.70 594.40 548.01 597.87 681.17 107.61 540.89 606.94 548.86 571.79 616.86 484.50 650.27 780.05 143.09 126.02 124.44 525.78 728.93 95.10 554.61 703.11 510.44 80.08 583.29 652.65 234.63 525.99 573.61 747.56 544.71 523.23 128.36 723.55 464.17 126.57 737.24 509.81 719.05 570.33 526.18 581.91 693.33 40.65 537.99 175.00 544.83 40.11 656.57 482.55 564.16 88.15 154.99 0.00 762.66 59.80 612.29 530.80 21.62 447.26
385.20 700.04 606.70 203.93 736.97 683.85 837.03 602.69 779.24 748.08 712.23 706.64 634.11 733.18 794.37 512.50 766.29 73.43 748.63 574.28 232.62 788.74 102.16 654.46 57.84 734.17 221.10 1011.46 626.15 848.88 277.56 772.22 645.58 55.89 177.62 683.61 782.35 716.23 746.28 219.06 909.72 749.94 554.74 84.92 629.05 309.93 900.20 769.23 481.05 748.04 646.77 772.97 741.66 610.59 600.81 673.15 489.40 848.52 823.76 218.28 879.53 842.35 839.40 666.85 218.58 813.31 579.08 154.52 710.92 777.55 600.92 566.42 807.84 730.55 728.26 109.99 681.12 671.38 751.84 85.98 605.24 821.69 112.52 669.69 239.48 573.48 692.14 746.26 202.90 777.12 224.67 847.62 692.98 791.69 722.61 690.26 657.09 813.52 837.21 762.66 0.00 784.04 306.57 697.06 751.39 653.24
647.50 615.29 627.29 711.46 620.10 614.31 68.68 617.29 597.21 604.01 106.42 558.34 503.43 201.29 53.89 635.45 622.17 710.61 561.30 594.87 761.72 527.60 721.68 441.74 757.84 112.41 656.86 283.87 620.78 103.02 689.84 93.97 596.96 766.58 788.89 577.45 36.30 213.93 429.86 625.87 163.67 103.41 439.59 794.23 550.31 705.71 191.07 605.21 604.00 632.89 678.07 125.46 596.88 636.34 587.33 631.59 669.95 469.36 688.74 785.88 135.46 93.94 124.07 542.08 743.56 85.72 600.28 748.78 567.99 125.75 626.05 592.93 249.11 555.13 601.40 768.94 602.26 556.23 143.52 744.93 490.09 92.10 758.62 548.28 724.88 598.84 585.98 602.14 699.16 57.73 559.37 153.37 577.83 78.58 688.34 542.35 603.29 114.07 176.04 59.80 784.04 0.00 648.77 590.60 81.42 485.73
584.50 745.61 300.13 158.83 840.53 391.23 641.47 296.12 486.37 804.99 651.64 814.96 737.42 573.42 614.89 205.93 841.50 338.41 459.73 267.71 453.03 852.51 264.79 907.25 250.27 674.75 429.62 826.17 783.27 692.50 373.16 639.58 745.80 306.87 383.10 707.77 620.61 821.66 895.32 368.20 735.88 638.91 816.79 391.49 322.48 460.48 738.79 482.98 174.48 841.66 340.20 702.91 825.30 798.83 351.75 761.91 243.33 1023.81 927.88 423.76 683.18 658.09 678.43 778.03 379.87 628.13 272.51 355.54 770.37 648.65 295.10 279.12 781.21 880.45 820.51 310.64 736.10 783.55 704.75 334.65 867.29 665.31 330.80 390.14 435.99 284.58 716.30 844.95 368.27 591.04 354.22 712.32 805.15 572.18 416.04 742.87 739.37 620.22 690.91 612.29 306.57 648.77 0.00 789.38 612.90 860.24
424.81 97.06 889.37 630.55 114.84 888.25 566.87 894.59 977.21 124.04 547.43 81.18 177.73 581.16 568.33 905.11 123.64 684.61 970.20 893.45 587.82 190.29 710.51 232.11 715.82 545.56 485.88 708.31 113.74 602.20 483.45 529.00 90.69 682.62 597.32 81.61 561.15 400.51 214.90 553.52 686.00 509.72 157.86 612.14 810.22 568.18 580.80 940.79 893.14 127.71 955.31 571.84 130.00 129.30 769.36 101.64 888.96 257.18 279.64 620.39 525.19 610.10 613.23 151.72 646.06 582.08 775.90 630.82 59.57 497.22 878.59 965.98 428.57 132.10 107.93 641.53 55.15 51.05 487.70 650.29 107.36 575.01 676.83 844.20 623.30 848.34 73.08 104.36 577.08 552.27 583.37 533.17 72.65 531.42 971.55 48.25 128.13 483.38 500.12 530.80 697.06 590.60 789.38 0.00 514.06 147.14
580.21 577.11 560.03 673.28 569.11 561.16 97.08 556.02 562.22 549.93 39.16 507.35 473.42 148.14 54.27 568.19 572.95 677.96 543.54 527.61 741.10 446.18 689.03 409.47 782.76 67.94 624.21 273.94 569.76 128.77 657.19 26.68 564.48 703.79 760.72 539.27 52.09 223.63 439.56 641.66 174.13 56.94 414.28 770.05 483.02 659.24 207.33 601.73 536.74 586.60 674.91 99.90 529.62 585.32 540.77 593.41 605.59 462.88 650.88 789.25 151.72 126.63 146.06 508.04 745.55 85.24 532.99 681.49 532.06 58.46 572.02 641.38 213.01 504.37 561.09 726.39 566.33 530.83 109.48 712.28 464.78 116.43 725.97 510.42 740.67 572.69 547.80 560.29 714.95 61.57 526.72 180.86 541.75 40.72 644.46 504.17 567.35 88.76 133.37 21.62 751.39 81.42 612.90 514.06 0.00 434.74
512.73 190.31 824.09 701.41 134.37 932.21 476.44 820.08 909.79 118.28 468.05 72.61 177.87 529.52 449.86 899.52 170.82 671.25 928.38 791.67 617.55 213.93 719.92 116.55 711.08 427.52 549.27 646.15 183.45 525.00 492.81 408.06 190.50 691.05 640.70 152.47 457.57 335.80 119.87 562.88 572.64 441.78 98.50 723.48 750.86 639.04 477.02 949.30 884.90 154.95 933.28 456.28 138.59 167.89 710.00 206.61 882.87 273.99 306.61 681.36 470.05 493.06 515.39 177.00 671.97 463.10 794.30 663.77 149.95 376.28 836.08 848.14 313.01 155.74 126.35 618.87 180.80 96.09 424.56 642.88 48.00 497.81 623.24 784.84 633.53 836.78 161.00 150.79 636.17 428.00 623.28 438.14 107.01 407.15 943.56 133.75 148.20 412.25 440.76 447.26 653.24 485.73 860.24 147.14 434.74 0.00
DEMAND_SECTION
1 0
2 9
3 4
4 1
5 3
6 5
7 2
8 3
9 8
10 3
11 7
12 3
13 10
14 10
15 7
16 9
17 3
18 3
19 1
20 2
21 3
22 4
23 1
24 9
25 2
26 6
27 4
28 6
29 9
30 3
31 5
32 8
33 6
34 7
35 4
36 4
37 4
38 4
39 5
40 7
41 5
42 4
43 8
44 1
45 6
46 3
47 9
48 2
49 7
50 2
51 1
52 8
53 10
54 2
55 3
56 2
57 4
58 6
59 7
60 1
61 4
62 3
63 6
64 10
65 7
66 4
67 1
68 5
69 1
70 10
71 7
72 6
73 7
74 4
75 2
76 8
77 5
78 1
79 7
80 8
81 7
82 8
83 4
84 9
85 6
86 5
87 8
88 4
89 7
90 4
91 9
92 6
93 4
94 6
95 2
96 9
97 8
98 7
99 6
100 2
101 4
102 5
103 6
104 1
105 8
106 1
DEPOT_SECTION
1
-1
EOF
