NAME: LDG180_3244_rain_180_0200
COMMENT: CVRP with travel times.  rootPos=3,custPos=2,demandType=4,avgRouteSizeIndex=4,weather=rain,lambda_cluster=1,lambda_random=4, T1=300,T2=700,beta=1, alpha(i,j) ~ U(0.8,1.2)
TYPE: CVRP
DIMENSION: 181
EDGE_WEIGHT_TYPE: EXPLICIT
EDGE_WEIGHT_FORMAT: FULL_MATRIX
CAPACITY: 776
NODE_COORD_SECTION
1 0 0
2 962 214
3 598 471
4 714 240
5 795 166
6 729 271
7 955 130
8 890 252
9 707 197
10 847 186
11 810 202
12 887 207
13 781 91
14 699 314
15 696 250
16 803 176
17 923 41
18 969 425
19 696 305
20 718 318
21 699 208
22 624 414
23 764 132
24 917 254
25 923 163
26 757 151
27 706 182
28 849 186
29 925 315
30 751 225
31 715 141
32 945 322
33 808 507
34 798 211
35 693 109
36 742 233
37 732 315
38 685 325
39 900 386
40 916 233
41 723 319
42 670 225
43 898 346
44 755 103
45 944 251
46 965 259
47 969 370
48 815 265
49 780 248
50 945 382
51 813 221
52 754 264
53 751 200
54 804 205
55 640 477
56 804 318
57 891 170
58 885 275
59 757 103
60 872 178
61 896 43
62 753 344
63 740 194
64 786 194
65 675 207
66 968 202
67 641 225
68 917 208
69 621 178
70 653 166
71 747 362
72 782 264
73 712 80
74 944 134
75 883 174
76 766 106
77 684 190
78 687 35
79 603 143
80 774 244
81 947 116
82 721 204
83 761 145
84 912 208
85 819 244
86 736 257
87 975 242
88 941 199
89 750 177
90 812 22
91 845 413
92 980 227
93 901 122
94 720 128
95 747 206
96 868 251
97 904 187
98 727 137
99 575 318
100 597 250
101 739 257
102 786 366
103 901 147
104 786 217
105 815 139
106 905 190
107 917 371
108 892 197
109 670 259
110 930 215
111 813 279
112 901 262
113 916 444
114 798 217
115 926 294
116 520 92
117 904 207
118 598 261
119 746 183
120 926 302
121 918 229
122 878 238
123 717 240
124 901 226
125 921 217
126 758 274
127 724 253
128 874 318
129 771 238
130 941 230
131 746 179
132 624 451
133 754 226
134 762 245
135 926 207
136 810 204
137 743 252
138 820 207
139 915 303
140 858 247
141 857 111
142 885 154
143 681 105
144 730 236
145 937 296
146 865 136
147 928 255
148 754 262
149 968 149
150 806 273
151 903 200
152 894 190
153 796 286
154 997 307
155 678 294
156 910 336
157 749 240
158 922 180
159 991 227
160 752 218
161 972 128
162 575 382
163 678 172
164 905 126
165 868 277
166 795 276
167 944 236
168 728 25
169 841 513
170 961 167
171 770 256
172 778 75
173 785 205
174 635 154
175 897 383
176 773 92
177 951 41
178 627 275
179 722 67
180 737 407
181 733 215
EDGE_WEIGHT_SECTION
0.00 1036.11 933.38 860.19 849.72 847.25 1023.66 974.10 830.37 916.56 896.19 966.79 900.34 881.57 856.23 850.10 1061.15 1135.42 871.33 878.63 822.68 967.01 860.29 995.20 1019.35 840.27 806.75 907.52 1001.36 854.11 802.90 1041.55 1100.63 881.21 825.54 842.42 896.26 892.63 1046.03 977.33 889.02 790.92 987.27 851.22 1020.17 1011.84 1078.26 902.49 855.36 1072.85 899.91 814.06 838.64 887.84 1014.07 920.78 973.22 979.48 842.55 958.32 1016.44 932.31 813.90 874.21 798.85 1037.15 799.26 989.99 674.34 763.35 930.52 841.01 849.75 996.92 959.28 857.49 808.35 870.99 730.69 860.87 1017.60 823.76 844.40 984.95 892.19 838.56 1041.67 1037.30 793.40 988.62 1000.65 1056.07 950.34 826.54 837.90 959.22 983.54 828.74 792.26 778.02 836.33 957.12 976.75 868.00 917.00 981.25 1035.47 959.10 804.63 1004.66 896.95 974.88 1101.09 884.95 1007.19 885.76 973.76 788.79 814.61 1000.20 970.90 934.08 847.43 981.24 990.35 830.42 857.99 967.29 855.81 1003.29 807.42 968.69 847.90 856.12 1002.66 890.94 839.40 912.57 981.47 938.29 933.57 989.04 813.14 821.10 1015.12 947.52 993.99 809.88 1050.87 889.47 975.94 963.18 873.51 1088.76 840.93 1008.84 848.74 996.32 1067.48 831.07 1004.05 904.03 777.56 960.28 938.68 877.60 1012.02 906.91 1140.71 1029.75 849.91 901.85 871.35 720.14 1035.01 879.96 1071.64 786.51 882.07 981.54 808.61
1036.11 0.00 482.98 262.36 197.25 275.01 113.63 110.19 291.58 142.95 187.32 100.57 246.21 314.02 299.25 186.01 252.35 249.63 315.48 280.18 272.93 435.58 253.90 90.77 110.51 257.57 282.03 143.35 135.41 237.04 285.61 159.28 386.36 200.72 331.19 250.59 258.39 320.97 222.70 80.77 277.82 321.62 189.84 270.73 63.97 78.21 188.19 189.44 221.89 233.01 172.46 249.24 231.30 192.97 468.07 218.03 86.29 146.40 262.06 116.20 248.57 296.16 258.47 186.66 325.98 40.80 365.38 57.76 361.77 354.58 311.16 218.68 308.91 86.89 101.80 247.12 312.40 361.95 390.51 225.19 126.40 269.74 243.50 73.12 187.90 267.20 65.59 52.96 242.71 272.73 298.93 58.07 128.40 280.41 249.25 129.21 88.95 266.44 425.79 389.69 263.25 286.11 125.06 208.79 196.71 97.42 228.04 87.87 306.94 46.25 194.08 114.71 283.70 199.06 118.69 515.28 77.11 401.96 235.54 138.56 65.21 120.96 273.37 84.06 69.34 252.44 261.24 193.83 210.28 49.69 250.65 467.98 223.27 219.98 63.33 185.39 262.44 170.94 135.28 144.20 161.84 123.57 333.67 256.19 140.27 152.08 75.06 245.16 95.17 185.10 84.61 103.41 210.78 151.65 320.19 170.38 258.17 72.50 45.33 240.10 130.54 457.00 318.40 118.46 152.77 206.15 62.60 336.82 355.47 68.00 235.32 277.18 204.78 357.44 221.60 258.25 206.14 357.07 313.50 330.67 264.91
933.38 482.98 0.00 297.91 423.12 304.65 521.05 393.10 330.92 423.30 383.74 449.21 470.94 232.23 289.31 404.61 585.73 459.52 242.55 244.27 344.06 85.54 426.22 438.56 484.98 399.32 357.00 414.26 447.91 315.57 411.16 457.77 296.26 368.18 438.75 317.20 253.31 201.81 391.07 450.25 233.88 339.39 430.75 441.42 454.27 488.52 447.55 329.59 327.68 400.37 383.69 293.37 357.57 382.60 80.69 329.87 452.30 415.18 432.75 445.21 557.12 280.44 360.44 381.57 307.22 500.98 331.58 461.27 340.09 362.41 236.74 318.47 477.92 503.18 465.03 447.69 349.75 517.69 396.44 333.87 536.84 352.76 413.39 463.42 352.60 291.64 501.15 484.61 376.28 547.02 279.85 505.40 513.31 415.88 348.84 399.89 433.48 394.64 221.72 236.41 277.44 267.29 476.06 363.77 426.93 425.01 382.55 451.10 291.10 464.02 326.97 414.62 433.06 365.09 434.71 483.28 441.92 250.44 373.98 451.28 438.08 407.00 310.67 446.65 448.94 276.97 311.33 401.01 319.13 433.29 378.15 35.31 322.94 320.71 465.86 382.78 296.66 400.12 432.55 396.42 491.42 478.99 421.69 327.17 470.89 449.68 454.27 293.29 523.19 325.17 446.87 445.37 292.51 509.82 253.51 418.42 306.34 459.41 475.05 339.28 546.19 183.71 353.54 503.37 416.59 304.70 446.20 523.77 303.47 522.51 308.45 487.81 366.38 374.83 402.09 468.91 614.62 307.91 499.18 269.78 343.12
860.19 262.36 297.91 0.00 154.24 62.77 298.52 213.88 72.47 165.95 113.72 210.43 205.90 97.68 47.39 142.72 331.59 358.77 84.16 101.64 71.95 244.37 145.12 218.90 253.66 118.60 92.06 174.99 230.50 67.53 142.99 284.96 314.12 117.34 171.45 42.82 120.34 96.10 294.09 222.46 112.03 71.62 230.95 181.49 241.63 268.86 305.63 118.54 85.61 295.93 134.52 65.87 102.68 115.07 297.69 145.62 222.61 211.52 172.82 202.29 313.47 155.13 94.41 111.95 106.01 282.28 130.03 204.60 185.85 124.30 162.96 88.29 198.70 271.78 224.07 175.62 78.93 246.87 195.58 74.97 297.97 68.96 132.67 219.96 125.55 45.21 263.31 251.91 97.92 268.78 244.33 296.95 256.80 169.22 88.01 192.18 222.17 153.96 207.41 141.78 49.82 189.65 235.06 105.12 161.01 223.82 279.15 197.73 59.03 226.05 141.08 194.96 302.37 102.08 252.59 323.40 223.38 163.64 99.93 243.61 236.62 192.38 12.76 229.85 231.80 74.10 30.33 210.96 60.06 220.65 83.90 262.60 62.86 74.97 221.67 120.57 40.53 130.10 227.95 179.25 227.84 208.41 177.53 40.37 250.65 217.35 234.61 70.05 281.12 130.09 223.20 214.28 122.00 298.10 112.92 243.84 53.68 248.61 297.82 66.25 314.45 248.29 95.91 252.46 172.08 109.04 233.56 255.86 362.56 296.87 65.17 207.10 93.83 153.33 283.07 194.84 356.95 113.55 233.15 201.09 67.80
849.72 197.25 423.12 154.24 0.00 143.74 192.82 170.42 117.57 66.84 74.36 122.08 90.76 220.53 162.61 19.07 230.12 359.87 210.53 198.58 140.08 338.32 72.10 167.29 169.63 60.32 122.00 57.80 244.54 117.03 103.83 268.58 365.51 54.94 144.81 118.97 191.14 234.12 285.69 155.43 201.37 187.50 239.62 102.86 178.03 209.32 280.16 120.51 118.03 302.73 63.81 134.01 87.39 63.73 372.56 170.73 123.50 193.90 111.53 108.60 229.17 222.95 86.69 53.81 162.88 213.61 209.57 140.27 175.38 182.55 227.27 140.55 170.15 199.01 109.56 121.56 140.19 180.31 212.39 99.04 188.38 106.95 46.25 139.77 97.50 138.84 223.50 187.58 56.32 180.58 282.88 206.35 162.36 96.02 88.85 156.82 133.82 117.26 299.64 278.81 146.24 245.45 127.03 85.14 70.71 131.53 270.88 109.38 207.67 157.21 123.20 178.08 353.44 70.20 219.02 328.89 124.04 252.30 76.49 227.23 139.87 158.21 151.94 142.44 156.52 150.37 124.60 197.17 113.95 157.05 70.34 388.55 106.59 102.97 157.34 70.30 138.63 90.74 217.87 145.62 105.88 139.32 155.09 126.98 233.19 128.15 174.99 129.83 208.71 144.68 126.22 113.46 143.28 265.71 206.08 247.21 129.63 146.60 222.30 114.39 217.96 364.17 146.37 154.34 157.94 141.63 169.96 188.44 375.67 184.01 124.46 120.68 71.93 183.56 275.70 111.14 267.97 233.97 162.62 289.59 118.74
847.25 275.01 304.65 62.77 143.74 0.00 290.09 196.77 100.31 163.82 139.26 194.41 208.43 84.01 61.72 143.08 326.52 355.52 97.51 87.65 87.70 219.11 158.96 218.79 262.85 138.95 112.53 172.86 213.41 67.93 161.53 258.13 293.23 112.26 194.28 59.42 65.86 125.67 262.46 197.30 85.29 85.57 199.32 201.84 248.98 255.62 290.31 127.23 71.57 298.00 135.15 41.55 98.92 132.47 312.07 124.73 220.48 196.63 193.17 209.91 329.31 119.74 101.35 120.74 107.97 257.12 143.98 234.38 181.93 140.90 114.91 68.50 232.11 295.99 234.55 208.05 125.95 247.26 207.29 87.31 286.87 95.91 153.02 221.72 119.68 41.96 264.76 253.54 122.49 288.37 212.70 291.58 266.58 185.59 91.84 181.34 217.99 181.03 242.17 183.80 28.93 171.72 240.45 110.70 179.29 226.46 247.52 203.49 120.01 240.93 120.19 194.85 313.14 116.58 192.24 354.18 224.72 203.19 101.28 216.78 212.86 154.05 59.78 201.21 217.84 42.47 32.44 194.78 82.55 230.00 117.31 269.34 73.65 67.64 242.28 132.41 48.15 155.64 198.05 181.36 225.61 229.22 193.28 35.17 229.52 225.13 221.48 37.37 267.08 106.62 219.72 212.33 96.86 305.73 108.59 220.89 57.83 237.04 281.46 62.49 301.52 262.24 148.90 256.64 166.17 103.99 242.91 248.09 341.67 293.84 66.51 198.71 118.74 184.11 251.44 188.05 370.27 143.96 233.05 182.20 61.01
1023.66 113.63 521.05 298.52 192.82 290.09 0.00 171.43 294.58 137.98 184.80 126.75 208.74 345.40 321.44 211.18 172.40 335.33 331.88 334.10 281.26 458.82 245.02 172.49 75.48 233.70 291.95 147.02 227.48 256.96 285.36 225.30 456.06 209.71 311.04 277.12 314.95 363.99 271.21 137.29 327.98 326.94 266.44 254.01 166.15 155.72 291.55 232.18 228.23 293.95 204.08 269.53 256.78 189.50 463.10 281.03 81.32 198.69 245.34 102.27 168.31 305.61 267.09 221.36 324.02 77.47 341.09 114.53 349.32 317.08 349.31 250.75 303.49 26.74 96.83 230.40 271.71 306.87 385.77 247.22 43.53 278.23 219.63 114.50 214.69 275.36 133.97 113.04 245.70 237.53 314.43 120.38 73.32 279.61 256.27 190.08 92.64 266.45 447.82 418.38 261.16 346.34 65.79 230.98 188.06 96.04 286.22 114.05 348.85 127.28 249.20 149.91 346.97 222.99 205.57 514.38 132.56 425.89 262.73 227.73 135.99 156.58 285.76 148.77 140.30 270.51 289.66 240.84 251.72 145.17 256.22 509.05 259.12 246.51 130.20 191.65 264.03 176.44 209.00 180.30 124.37 92.44 318.73 282.37 213.84 116.12 173.34 273.71 32.72 227.58 117.90 116.40 260.24 253.83 327.58 244.87 270.57 95.07 150.73 261.77 25.14 454.70 290.37 83.26 202.61 248.63 156.27 306.42 450.95 67.86 248.67 228.38 210.10 347.79 260.19 229.12 133.83 392.55 289.26 376.01 261.64
974.10 110.19 393.10 213.88 170.42 196.77 171.43 0.00 234.54 116.42 131.93 70.98 235.88 244.33 232.98 165.78 269.16 258.92 234.69 216.87 220.71 325.39 219.62 45.46 142.53 209.43 231.41 112.62 99.09 186.01 265.38 124.08 288.68 138.35 246.51 181.47 221.70 224.37 172.37 60.54 206.48 254.16 133.22 246.18 88.67 95.42 168.56 139.51 128.27 191.10 110.09 162.17 200.33 130.60 401.04 151.60 116.41 54.50 252.91 109.29 256.24 216.23 196.10 162.46 243.71 118.72 305.10 85.00 325.15 266.24 240.92 151.44 301.60 168.55 116.57 237.97 245.88 350.73 349.14 147.26 176.10 215.78 216.67 80.79 116.50 178.63 116.61 119.56 212.31 299.20 242.81 129.58 170.36 249.68 198.60 46.49 90.13 244.82 347.86 315.91 184.44 208.11 140.10 146.62 206.10 98.60 157.56 83.68 272.05 78.74 135.05 21.52 227.98 153.61 71.38 479.52 88.10 334.33 203.83 82.84 44.98 42.72 203.94 61.93 55.84 177.99 202.72 119.32 157.29 77.37 198.29 357.79 172.24 160.84 83.88 138.74 186.38 115.55 64.11 73.31 190.10 122.90 268.85 200.19 102.45 160.47 61.17 164.22 155.69 121.21 82.33 81.53 100.59 175.79 257.82 120.23 170.61 111.19 136.52 168.42 185.71 390.57 267.78 160.42 44.62 123.56 86.10 327.67 323.22 130.62 148.71 237.39 151.84 309.45 177.10 215.50 237.84 314.90 295.98 306.73 195.24
830.37 291.58 330.92 72.47 117.57 100.31 294.58 234.54 0.00 156.60 120.07 217.86 159.71 157.60 83.70 117.95 304.81 378.65 156.23 144.98 28.95 274.53 108.45 245.37 263.02 80.68 26.08 165.64 256.01 74.02 85.77 310.78 368.86 121.02 107.83 68.33 140.55 168.57 294.06 244.18 155.37 81.26 263.91 141.06 269.56 290.32 354.90 151.06 106.27 315.55 125.59 104.85 60.28 105.08 309.22 174.08 213.26 232.55 132.39 197.80 275.55 179.98 47.29 113.58 52.85 302.36 114.24 240.12 156.03 98.30 213.05 135.41 162.03 278.13 214.08 134.06 52.93 220.87 157.38 107.49 287.26 21.84 94.75 224.76 151.59 100.71 265.75 259.84 61.25 249.73 278.99 298.92 233.63 112.00 70.13 191.13 236.17 97.61 270.10 173.16 106.05 219.30 232.95 105.94 157.27 227.70 301.52 223.89 96.54 251.80 137.61 241.83 374.44 119.57 238.37 280.30 231.88 185.47 58.29 269.43 228.62 210.46 84.83 230.67 237.84 121.25 97.39 209.99 92.58 253.17 47.23 324.76 80.94 101.75 251.88 113.22 97.11 136.08 273.19 164.31 201.42 217.77 130.17 69.13 275.65 187.33 261.08 105.10 301.78 142.54 226.14 207.34 166.43 325.79 147.52 279.14 79.19 246.16 306.54 74.30 316.63 257.93 62.45 237.61 210.95 160.98 266.08 219.19 398.86 291.85 116.53 163.74 111.96 110.23 305.08 141.85 290.97 151.06 177.48 262.48 39.30
916.56 142.95 423.30 165.95 66.84 163.82 137.98 116.42 156.60 0.00 60.67 62.30 157.60 213.41 197.31 80.34 197.36 314.93 199.89 214.31 163.69 355.11 110.95 118.53 109.63 127.16 165.01 9.04 179.49 121.39 158.09 213.80 376.30 71.73 196.88 145.13 193.41 240.63 245.43 108.39 212.84 188.96 220.02 129.76 129.27 167.49 237.44 104.30 128.93 253.97 72.03 149.74 135.28 51.52 389.35 181.52 56.66 151.41 138.43 48.49 168.75 215.23 136.79 83.38 209.45 163.56 247.03 94.63 242.22 226.91 246.92 141.11 222.52 132.17 72.17 145.15 203.16 247.15 279.23 115.83 158.34 158.56 113.09 96.78 81.29 155.63 176.02 129.07 123.16 182.78 269.51 142.32 113.60 146.10 142.25 100.22 86.60 157.22 316.43 291.94 152.92 233.24 95.43 93.00 89.99 82.77 230.62 73.17 224.98 108.45 140.41 111.24 306.53 85.83 168.87 395.73 75.28 288.73 124.75 183.05 100.46 93.16 161.63 99.37 107.76 146.82 159.63 148.41 122.38 108.29 137.18 388.48 127.99 135.77 111.70 59.66 154.26 56.74 178.46 109.39 120.31 72.48 205.17 153.49 174.20 61.31 126.23 146.62 167.06 129.43 77.46 71.81 135.36 216.95 219.76 198.45 146.42 89.56 172.67 128.84 163.12 365.63 201.38 121.65 117.68 129.19 121.20 225.59 383.89 135.25 115.34 134.23 72.12 230.55 255.30 156.12 235.28 263.82 200.85 303.14 123.66
896.19 187.32 383.74 113.72 74.36 139.26 184.80 131.93 120.07 60.67 0.00 122.97 159.20 160.60 136.64 55.29 220.03 344.32 147.08 154.53 127.16 307.29 111.79 173.11 165.71 93.82 112.20 64.08 201.58 87.04 155.05 220.31 323.49 31.31 178.31 92.32 132.74 181.93 246.32 151.31 152.17 153.07 203.48 139.96 163.19 192.36 264.68 84.37 92.08 276.50 35.50 110.38 96.65 14.99 348.93 128.71 111.50 127.40 131.29 101.52 229.42 181.62 82.29 41.00 157.86 198.66 211.14 145.61 221.85 184.75 217.92 95.60 169.71 158.06 123.99 116.35 164.61 254.67 244.85 75.41 194.94 107.74 107.89 130.25 62.46 115.21 175.66 183.91 104.39 234.90 271.35 199.06 143.08 150.45 91.33 111.03 129.80 129.21 276.01 255.10 113.04 193.57 132.03 56.47 122.81 121.33 231.51 117.52 172.35 141.07 94.46 153.40 297.95 46.57 182.92 368.88 130.32 249.47 88.22 178.96 149.23 115.25 100.96 130.09 125.32 121.53 106.82 173.65 86.49 152.59 90.37 348.43 87.57 84.46 153.36 6.85 115.00 16.38 183.85 124.86 133.82 120.46 192.51 115.49 182.76 121.98 181.27 106.20 196.22 79.64 119.77 100.97 112.30 250.87 177.48 212.45 103.18 144.40 212.78 76.97 208.74 329.74 148.57 138.74 118.57 92.89 165.50 206.05 347.36 190.29 90.05 160.71 36.23 198.81 240.66 138.82 252.37 226.87 196.42 260.94 111.97
966.79 100.57 449.21 210.43 122.08 194.41 126.75 70.98 217.86 62.30 122.97 0.00 204.47 230.65 232.52 141.15 198.18 279.83 244.17 244.03 225.99 373.90 173.25 80.09 71.55 162.56 227.31 71.34 137.41 183.69 214.22 173.38 359.66 134.03 247.05 190.68 230.06 272.31 224.70 56.41 246.15 251.26 193.02 192.06 101.75 115.45 223.30 126.50 143.56 222.54 134.33 179.46 197.58 113.82 427.21 186.44 45.43 109.33 200.73 70.23 199.04 221.68 199.09 140.64 250.10 101.26 309.33 43.59 292.45 287.80 265.38 149.40 271.45 109.63 45.59 190.91 242.43 302.39 314.63 162.55 147.11 196.02 148.49 43.09 115.95 203.96 123.87 90.90 173.39 245.08 251.17 116.89 113.34 207.43 197.82 80.37 37.14 219.52 363.15 345.36 201.58 262.94 84.20 155.30 140.50 38.79 190.76 12.70 269.46 65.04 138.91 82.81 254.38 144.66 124.69 445.96 34.58 342.69 181.72 144.61 69.46 51.08 198.69 37.07 67.06 190.90 201.33 149.41 150.37 90.40 187.41 414.66 180.60 165.28 60.66 121.96 197.16 119.04 135.09 53.55 120.98 70.62 261.25 181.02 132.12 95.87 95.80 175.28 124.50 142.17 25.31 29.25 157.46 189.43 265.16 172.38 185.90 54.17 125.62 181.92 151.89 418.81 262.00 103.40 100.19 144.51 77.49 280.61 346.62 126.17 164.00 196.53 134.42 282.27 223.60 184.09 201.19 323.98 263.15 314.70 185.96
900.34 246.21 470.94 205.90 90.76 208.43 208.74 235.88 159.71 157.60 159.20 204.47 0.00 267.67 210.72 109.83 259.26 432.55 267.60 253.17 174.00 399.59 86.93 258.05 226.50 98.24 136.15 148.56 309.90 161.77 129.13 317.88 437.17 145.70 102.30 177.08 274.29 271.05 356.98 229.91 261.40 216.02 330.38 52.01 268.79 294.73 362.25 211.27 201.20 384.79 154.57 201.06 147.87 154.49 425.25 242.39 159.92 249.52 57.79 189.83 214.14 270.59 112.42 144.57 212.56 272.34 239.33 220.87 226.00 197.28 278.18 170.50 117.96 206.92 175.43 42.85 169.95 165.60 243.41 182.21 203.19 137.87 96.17 219.54 188.26 204.69 292.58 232.33 107.98 101.37 347.22 282.20 185.70 126.85 136.42 242.25 189.86 105.61 358.76 285.03 193.50 298.90 184.33 159.94 105.72 187.21 342.17 191.77 241.59 214.75 213.96 239.92 421.67 160.96 297.55 335.52 207.74 303.32 129.19 276.53 230.63 248.97 198.10 231.20 214.09 212.00 205.51 280.18 186.65 247.81 122.00 437.55 148.00 190.64 229.20 161.06 190.89 175.58 295.26 236.38 84.37 195.15 124.64 177.25 304.52 146.56 260.81 201.63 231.28 209.92 194.02 175.22 191.38 356.47 264.19 323.25 187.94 192.82 291.54 163.60 205.62 392.69 172.52 188.39 229.23 188.87 258.17 97.68 455.29 249.27 191.02 42.27 136.39 192.87 352.88 20.38 251.06 290.88 100.86 345.47 147.42
881.57 314.02 232.23 97.68 220.53 84.01 345.40 244.33 157.60 213.41 160.60 230.65 267.67 0.00 118.25 202.33 366.93 359.22 13.52 33.84 144.78 146.69 235.66 260.78 302.20 208.67 131.52 220.91 259.93 125.01 183.61 283.17 283.49 170.32 213.27 120.73 55.63 41.66 265.26 257.68 44.23 120.46 245.10 249.99 295.92 305.52 314.76 168.34 132.55 312.51 182.40 91.25 163.53 161.89 239.71 153.78 270.07 213.49 258.66 257.23 382.16 74.71 166.83 179.45 145.95 317.50 161.92 274.24 207.23 189.07 86.00 121.81 274.06 318.66 270.89 254.19 151.09 319.03 260.85 141.70 340.18 164.69 211.70 273.74 177.74 100.11 321.74 312.34 173.14 340.94 236.18 334.22 295.58 209.43 157.28 197.84 267.79 188.19 199.16 149.74 85.91 121.85 289.76 155.42 236.37 268.23 279.16 243.35 90.04 267.77 147.82 250.26 303.75 172.37 276.25 380.38 265.23 162.61 178.64 263.30 261.84 219.63 84.92 249.93 271.15 88.99 95.93 208.68 131.15 291.74 181.41 196.92 131.41 118.43 277.25 153.75 105.13 176.98 244.57 224.66 265.92 280.57 235.61 112.53 282.76 274.72 271.18 95.43 328.06 143.90 255.96 247.87 147.62 341.84 43.92 265.00 114.81 284.82 344.81 127.10 351.22 244.86 152.89 285.64 224.23 143.45 302.96 319.01 331.93 347.12 120.47 267.94 168.87 210.31 254.24 247.29 396.41 95.06 282.92 146.65 142.36
856.23 299.25 289.31 47.39 162.61 61.72 321.44 232.98 83.70 197.31 136.64 232.52 210.72 118.25 0.00 164.76 351.16 367.91 104.73 121.16 54.75 254.47 152.22 259.86 276.58 142.02 92.60 197.45 252.72 85.10 158.28 288.97 323.35 138.25 174.35 71.49 127.58 87.50 259.72 250.48 119.38 65.31 238.63 192.07 270.54 297.45 314.77 147.39 113.40 303.61 163.43 87.21 111.29 146.12 273.56 128.57 243.54 233.56 183.40 225.40 336.89 171.57 98.30 128.98 59.09 310.30 120.48 251.99 181.89 114.28 146.49 114.16 188.61 294.70 228.03 198.34 94.22 262.16 183.18 103.88 320.89 72.85 156.09 252.06 155.87 54.35 304.38 292.86 115.75 291.70 252.01 325.86 279.72 175.66 94.98 195.99 246.11 161.05 195.34 122.08 68.55 205.29 257.98 128.04 196.46 247.76 286.83 221.67 80.53 262.80 159.81 235.92 306.57 136.69 253.96 327.36 249.79 157.32 94.54 249.42 259.99 207.23 35.68 248.08 260.27 81.78 38.01 233.91 88.97 249.56 109.46 254.00 85.78 97.92 269.06 137.98 73.46 153.02 230.69 186.93 251.57 231.33 160.33 60.59 258.33 235.13 267.12 83.03 308.91 143.55 247.14 232.10 145.47 327.01 74.33 239.79 71.06 271.19 322.99 95.00 337.37 241.98 105.41 269.87 195.00 122.50 262.47 245.77 353.35 314.25 106.13 230.26 135.91 157.29 270.74 208.37 357.49 135.05 229.03 192.49 90.42
850.10 186.01 404.61 142.72 19.07 143.08 211.18 165.78 117.95 80.34 55.29 141.15 109.83 202.33 164.76 0.00 211.05 340.80 191.46 196.89 137.11 338.63 91.17 172.82 172.49 79.39 122.38 71.30 226.68 104.92 122.90 258.88 346.44 64.87 163.88 99.90 188.03 228.79 281.35 136.36 199.34 179.64 234.25 121.93 170.07 190.25 295.93 115.14 116.47 306.17 65.17 132.32 87.73 44.66 380.69 151.66 137.00 174.83 130.60 122.10 210.10 212.21 87.07 50.84 146.59 194.54 193.89 156.89 175.76 182.93 208.20 126.15 185.52 208.82 128.63 140.63 151.83 199.38 231.46 107.17 169.31 98.11 65.32 158.84 92.13 131.12 204.43 195.38 56.70 199.65 301.95 219.85 175.86 115.09 69.78 166.32 150.16 129.60 307.77 263.98 127.17 226.38 146.10 80.08 80.81 141.69 272.24 128.45 201.75 154.56 104.13 181.15 348.07 78.97 204.64 329.27 137.54 252.68 76.30 217.53 120.80 140.35 135.52 153.19 160.26 139.34 140.84 203.32 98.81 153.19 70.72 381.00 107.29 83.90 152.56 51.23 126.36 71.67 198.80 154.53 86.81 152.82 174.16 107.91 221.39 141.65 171.12 130.14 216.58 125.93 137.71 121.33 126.89 257.75 187.01 243.22 110.76 164.95 231.34 95.32 208.06 349.67 146.75 173.41 159.30 122.56 161.92 207.51 376.44 197.51 107.86 139.75 62.80 202.63 270.33 119.87 253.50 239.80 173.09 275.49 100.61
1061.15 252.35 585.73 331.59 230.12 326.52 172.40 269.16 304.81 197.36 220.03 198.18 259.26 366.93 351.16 211.05 0.00 406.66 353.41 374.56 322.06 513.62 265.41 252.42 165.43 253.63 311.10 206.40 292.44 293.37 305.29 314.05 503.18 240.86 301.59 298.65 352.77 383.92 362.68 239.62 372.20 359.40 306.66 260.10 221.00 251.94 358.42 291.80 275.61 380.96 241.83 311.79 294.15 221.32 530.14 335.04 172.85 300.74 251.43 187.23 77.54 369.63 298.12 247.33 357.64 237.74 402.88 216.37 386.81 363.49 408.16 298.13 266.95 168.38 186.33 266.37 333.50 241.13 385.85 256.62 128.87 300.41 239.56 215.87 268.79 323.66 265.12 234.72 267.75 157.89 418.53 245.85 143.75 299.54 276.20 271.48 202.79 317.77 457.22 459.97 315.00 403.04 181.00 262.80 207.99 200.14 354.86 185.48 381.41 218.50 314.49 269.51 417.84 251.32 272.64 448.64 222.37 454.22 287.35 272.70 237.86 249.26 320.99 235.25 228.21 313.52 313.15 325.80 271.53 209.65 276.15 550.42 297.12 279.89 221.09 213.18 303.71 236.41 291.33 251.73 198.24 156.43 316.74 295.34 297.91 136.05 236.71 307.61 205.12 299.67 210.95 197.80 322.19 308.68 381.97 327.41 299.62 203.44 276.20 282.70 185.94 536.07 327.31 153.69 286.91 299.22 196.74 271.13 515.43 184.35 282.04 281.65 242.56 376.87 358.78 269.06 46.21 424.67 231.94 451.41 265.51
1135.42 249.63 459.52 358.77 359.87 355.52 335.33 258.92 378.65 314.93 344.32 279.83 432.55 359.22 367.91 340.80 406.66 0.00 365.34 325.38 392.20 426.24 413.23 228.87 303.42 378.99 389.08 305.89 165.30 327.49 408.70 155.71 308.19 329.10 456.43 342.79 303.59 335.76 115.07 235.56 323.02 404.67 166.50 412.61 185.66 223.88 102.39 273.92 324.14 67.82 311.53 326.61 340.78 329.33 378.83 245.08 272.63 238.20 403.94 299.88 422.72 312.09 353.77 337.40 412.23 274.34 412.21 245.60 461.08 442.60 309.57 325.37 484.79 329.33 275.24 418.88 409.55 540.18 470.55 328.49 331.43 361.53 393.06 247.27 296.93 313.56 229.33 257.96 373.50 470.22 179.67 252.85 339.46 434.93 334.53 266.40 242.69 430.99 497.42 479.56 327.76 250.77 302.21 298.90 370.15 251.16 118.30 267.13 401.69 242.23 292.61 242.87 68.87 315.85 197.82 630.93 264.95 460.31 370.27 176.08 220.00 251.63 346.01 252.39 247.33 323.35 333.42 173.38 324.28 206.64 372.00 476.47 321.18 309.37 239.21 337.47 333.51 338.07 194.81 255.51 348.18 299.49 460.67 339.43 206.08 325.52 213.16 330.79 339.60 302.68 269.73 271.52 274.52 177.39 373.74 156.23 340.86 285.56 227.80 304.35 329.85 484.05 421.08 329.52 229.99 297.49 209.92 508.44 270.28 302.05 331.35 445.41 322.45 475.69 126.09 426.36 414.52 454.28 479.98 340.01 339.35
871.33 315.48 242.55 84.16 210.53 97.51 331.88 234.69 156.23 199.89 147.08 244.17 267.60 13.52 104.73 191.46 353.41 365.34 0.00 47.36 131.26 160.21 222.46 260.37 307.35 196.18 145.04 207.39 271.03 112.43 197.13 296.69 282.57 167.91 226.79 107.21 61.75 40.74 271.38 264.94 57.75 133.98 258.62 236.47 296.57 312.78 328.28 159.14 138.89 318.63 168.88 97.59 150.01 148.37 233.88 167.30 256.55 220.39 245.14 248.38 368.64 88.23 164.76 174.38 137.45 324.76 163.17 280.00 196.99 175.55 99.52 128.15 282.69 305.14 257.37 255.90 137.57 305.51 247.33 134.55 339.15 151.17 198.18 276.43 182.15 103.85 309.04 317.79 159.62 327.42 249.70 338.59 282.06 222.95 143.76 205.10 263.18 201.71 185.64 136.22 92.18 135.37 276.24 152.55 223.79 254.71 292.68 250.90 76.52 269.23 152.18 254.01 317.27 169.50 289.75 366.86 266.87 171.46 165.12 276.82 268.33 225.97 71.40 257.19 264.85 102.51 88.70 222.20 139.66 289.72 167.89 207.24 121.50 129.57 284.51 140.23 111.40 163.46 258.09 219.00 267.20 267.05 236.84 99.01 288.88 261.20 276.08 101.77 329.60 130.38 253.15 234.35 134.10 346.20 30.40 278.52 118.07 282.01 343.00 113.58 346.76 239.13 139.37 272.12 221.80 141.64 302.63 332.30 331.01 333.60 124.22 272.61 163.24 196.79 260.36 255.88 385.75 96.31 296.44 145.73 128.84
878.63 280.18 244.27 101.64 198.58 87.65 334.10 216.87 144.98 214.31 154.53 244.03 253.17 33.84 121.16 196.89 374.56 325.38 47.36 0.00 157.76 180.53 212.08 254.20 300.67 188.26 154.61 218.61 251.91 124.36 212.24 249.33 256.00 143.64 236.36 105.27 21.79 53.24 231.42 236.20 10.39 128.93 211.26 245.85 262.08 289.92 296.97 146.45 105.87 278.67 159.14 64.57 156.03 163.43 273.55 119.94 257.05 179.65 242.48 249.21 360.69 55.79 169.93 152.77 139.61 291.52 168.44 255.38 241.07 194.80 68.21 95.13 274.01 312.59 241.54 250.93 172.89 324.19 258.00 119.74 313.50 147.58 196.19 251.43 151.06 78.61 309.22 295.70 145.19 340.86 217.26 318.21 297.61 237.17 147.08 192.41 249.17 216.88 233.00 183.58 86.84 88.01 274.75 156.05 228.77 240.70 245.32 231.83 123.88 233.93 120.86 230.26 269.91 156.14 249.98 395.98 239.84 178.51 166.40 248.91 251.76 192.95 110.49 240.11 244.47 80.97 83.15 174.84 114.68 268.90 159.21 219.74 123.79 112.99 251.01 161.38 89.91 170.91 235.59 203.92 283.70 261.49 258.70 104.72 248.92 257.78 244.50 68.75 301.38 117.69 249.55 238.96 116.28 308.59 77.76 231.16 107.61 275.10 325.51 129.90 324.54 222.20 173.65 293.05 197.55 127.85 277.35 331.17 304.44 320.88 104.03 270.62 142.19 231.07 220.40 261.59 403.80 128.90 289.31 119.16 134.55
822.68 272.93 344.06 71.95 140.08 87.70 281.26 220.71 28.95 163.69 127.16 225.99 174.00 144.78 54.75 137.11 322.06 392.20 131.26 157.76 0.00 276.00 134.71 264.74 234.07 109.63 37.85 172.73 260.62 102.74 103.53 319.47 377.00 132.38 119.60 72.94 153.56 142.25 311.31 252.58 159.71 80.66 265.93 170.01 275.87 302.67 356.92 163.44 122.93 344.50 132.68 95.67 88.58 112.17 322.05 183.32 220.35 224.69 161.34 212.18 304.50 185.25 73.16 86.27 54.32 312.40 100.56 248.73 148.34 84.84 201.24 122.62 180.39 280.96 221.17 163.01 39.47 207.41 128.43 103.94 278.38 50.79 123.36 233.37 148.39 100.51 272.84 286.46 90.20 275.37 282.26 306.01 248.37 120.91 87.38 209.40 231.85 118.09 241.15 150.34 112.70 190.35 215.47 123.19 171.39 234.79 314.13 228.65 67.59 258.89 154.86 240.80 361.32 137.40 255.62 272.61 238.97 185.58 77.03 278.12 247.36 215.69 84.71 243.55 244.93 112.03 80.51 238.94 105.91 254.89 76.18 308.75 98.19 106.36 260.49 120.31 95.82 143.17 263.08 193.26 223.92 188.82 105.58 65.31 292.90 202.56 271.84 91.49 309.07 134.68 233.23 214.43 155.12 343.95 118.57 287.50 83.80 253.25 307.68 87.85 294.86 257.33 70.26 242.78 214.53 155.73 258.90 207.66 408.01 298.94 116.96 175.51 104.39 102.54 316.62 153.62 302.74 122.11 189.25 247.24 56.55
967.01 435.58 85.54 244.37 338.32 219.11 458.82 325.39 274.53 355.11 307.29 373.90 399.59 146.69 254.47 338.63 513.62 426.24 160.21 180.53 276.00 0.00 359.95 370.85 445.45 336.36 278.21 364.15 398.11 265.36 328.27 417.67 210.72 283.38 359.96 258.21 202.32 173.24 397.32 375.94 190.92 265.37 385.88 373.77 414.06 420.81 451.73 272.66 253.97 412.70 306.27 212.67 301.76 303.59 93.02 275.81 377.50 347.47 382.44 397.05 500.43 221.40 299.08 300.87 221.68 433.27 283.07 404.34 298.59 276.87 232.69 239.62 407.84 453.01 393.01 375.10 264.21 432.15 354.94 259.48 457.99 295.68 346.72 400.36 290.80 237.17 442.00 441.04 319.83 468.98 292.18 454.97 442.27 330.34 289.10 332.18 396.63 309.10 174.75 194.91 232.60 268.54 416.27 293.85 376.72 402.41 394.88 376.32 234.03 396.31 259.26 346.91 445.39 298.64 396.77 436.31 384.99 230.15 310.57 398.81 370.37 332.69 231.61 378.94 381.23 229.03 226.02 346.98 254.42 402.76 321.76 50.23 251.59 254.73 409.27 300.44 238.01 323.67 380.08 320.35 412.61 414.78 381.58 244.46 413.73 402.27 386.56 208.49 449.48 257.46 399.21 383.45 224.80 453.28 180.14 368.49 247.35 410.40 449.13 268.42 472.64 98.17 268.00 432.33 335.48 247.77 411.49 439.92 259.16 456.01 248.52 414.63 290.29 320.08 386.30 393.98 543.10 222.37 421.98 275.78 274.29
860.29 253.90 426.22 145.12 72.10 158.96 245.02 219.62 108.45 110.95 111.79 173.25 86.93 235.66 152.22 91.17 265.41 413.23 222.46 212.08 134.71 359.95 0.00 229.48 197.83 37.16 114.31 119.99 290.44 110.65 84.25 304.80 420.31 127.04 100.07 138.61 224.82 239.05 317.19 219.34 218.19 167.10 284.54 46.30 240.22 278.44 348.39 165.43 142.78 348.33 135.91 155.64 91.19 115.99 385.21 225.53 167.61 239.19 48.52 159.44 222.05 243.70 81.59 125.91 153.59 274.51 189.17 205.58 185.95 155.52 247.35 161.56 122.64 243.12 164.27 63.46 119.79 180.32 191.99 146.22 242.14 97.83 25.85 207.73 142.42 156.40 276.66 240.02 66.89 146.10 328.83 253.27 199.64 85.83 93.42 173.13 193.21 98.24 295.24 269.69 158.14 286.69 179.23 119.31 121.81 184.74 309.83 181.48 202.30 219.40 183.55 221.87 397.48 129.14 268.80 333.23 186.23 242.24 57.68 263.45 211.41 204.11 151.40 207.00 218.71 172.00 164.48 254.42 131.31 219.24 61.22 390.91 120.98 136.95 219.45 118.64 144.32 128.17 281.96 172.62 129.31 152.58 122.41 123.79 285.15 129.36 237.18 151.46 273.39 191.43 188.41 182.76 179.17 327.90 225.72 293.51 141.96 200.51 283.62 108.88 250.56 343.77 136.60 189.70 215.76 190.32 232.15 142.13 414.20 229.03 159.51 93.35 114.42 163.16 320.62 71.46 296.00 221.18 105.66 293.39 118.59
995.20 90.77 438.56 218.90 167.29 218.79 172.49 45.46 245.37 118.53 173.11 80.09 258.05 260.78 259.86 172.82 252.42 228.87 260.37 254.20 264.74 370.85 229.48 0.00 140.31 227.61 235.82 109.49 97.89 208.03 271.12 105.87 319.40 183.81 291.97 201.93 243.72 269.83 154.50 42.83 251.94 278.10 122.88 248.29 43.21 81.43 143.21 147.56 156.00 172.78 155.55 190.98 185.09 168.17 433.45 178.06 112.22 74.55 245.23 119.75 252.74 236.28 218.48 181.20 271.44 95.02 327.59 69.85 320.86 308.37 266.36 179.50 317.57 157.64 103.43 248.75 287.50 346.44 372.97 160.80 171.07 223.53 213.54 77.29 133.49 205.51 90.35 76.11 201.80 301.31 260.98 110.40 165.47 246.55 203.04 91.47 104.47 257.67 361.40 318.33 191.31 219.15 148.65 167.75 180.73 105.71 163.55 90.66 277.93 61.77 163.23 23.94 209.66 173.00 51.73 474.37 69.19 353.57 218.60 64.52 52.02 64.74 227.48 43.02 64.39 185.21 222.78 126.87 175.71 64.19 215.82 403.25 194.26 182.14 78.85 166.26 207.89 157.19 63.54 91.80 187.77 126.02 305.62 205.38 65.90 153.71 15.71 186.80 141.00 160.42 83.85 100.15 146.05 130.89 229.97 119.66 191.07 112.71 114.41 196.15 152.21 417.03 272.19 161.94 77.97 167.04 55.68 338.45 322.02 137.66 153.73 252.76 189.41 322.43 165.52 243.48 234.06 332.23 319.38 287.46 222.97
1019.35 110.51 484.98 253.66 169.63 262.85 75.48 142.53 263.02 109.63 165.71 71.55 226.50 302.20 276.58 172.49 165.43 303.42 307.35 300.67 234.07 445.45 197.83 140.31 0.00 216.08 263.65 118.67 189.20 194.92 267.10 200.16 418.62 181.36 297.90 226.55 278.88 341.46 239.25 97.48 298.31 298.59 222.10 214.71 117.76 155.98 244.53 193.64 215.11 267.07 181.66 249.38 237.50 161.15 451.53 252.70 69.75 175.19 223.38 93.37 205.94 269.54 246.42 193.01 288.39 113.22 296.71 81.28 345.01 318.91 313.24 219.87 267.94 48.74 84.88 215.18 273.54 318.58 348.07 199.09 88.25 267.57 202.01 91.33 181.11 240.67 147.22 69.29 225.95 232.15 278.36 153.76 87.82 255.73 238.65 143.62 68.44 266.85 399.69 384.41 250.86 270.86 50.57 190.28 153.00 59.97 247.17 83.17 301.66 81.29 210.46 145.32 295.94 183.53 150.95 498.52 81.31 386.43 232.80 158.81 99.88 121.00 240.90 105.28 92.25 247.27 252.72 207.20 214.00 96.78 238.60 475.18 208.69 222.31 64.21 169.29 246.18 161.58 177.54 125.10 142.13 45.25 301.11 232.35 149.52 98.50 127.35 245.20 79.70 212.36 66.87 80.33 229.01 205.44 304.72 210.65 226.23 38.01 155.84 218.13 99.42 443.13 300.02 77.88 156.84 216.06 109.69 304.88 402.56 70.29 224.51 225.24 181.75 336.61 250.27 231.51 129.64 356.18 243.92 362.56 233.29
840.27 257.57 399.32 118.60 60.32 138.95 233.70 209.43 80.68 127.16 93.82 162.56 98.24 208.67 142.02 79.39 253.63 378.99 196.18 188.26 109.63 336.36 37.16 227.61 216.08 0.00 77.15 118.12 281.96 83.75 79.80 293.20 397.19 99.04 84.49 115.38 200.16 201.89 305.41 215.75 197.72 132.75 264.24 62.89 238.35 269.33 337.57 145.13 132.58 311.17 99.34 123.69 65.92 78.83 358.69 202.41 183.37 219.31 54.22 168.76 194.87 220.24 67.24 88.82 133.53 263.82 162.54 200.59 165.93 135.62 233.00 135.04 137.97 227.31 167.86 69.16 108.01 199.69 180.21 122.20 235.33 71.31 14.07 200.09 122.12 129.50 239.50 236.04 46.87 183.26 310.32 266.67 180.73 74.05 70.30 186.50 181.43 84.86 283.46 235.73 139.17 260.55 172.42 82.15 88.13 172.96 298.05 169.70 177.22 217.53 171.77 210.09 378.06 99.10 257.02 319.44 184.36 205.08 47.48 251.85 200.19 195.63 131.19 199.63 211.59 140.09 141.36 237.49 111.86 217.37 34.70 364.01 97.52 125.21 207.67 86.97 119.95 109.83 253.96 160.84 154.96 170.83 98.69 105.65 276.53 117.58 235.31 127.87 266.42 172.34 186.54 173.78 157.41 326.03 202.49 267.51 115.06 206.92 280.29 100.48 246.88 309.42 99.44 177.92 193.47 156.73 230.28 158.72 394.18 223.66 147.40 88.50 100.07 151.38 300.32 77.86 285.63 207.61 131.79 268.12 92.07
806.75 282.03 357.00 92.06 122.00 112.53 291.95 231.41 26.08 165.01 112.20 227.31 136.15 131.52 92.60 122.38 311.10 389.08 145.04 154.61 37.85 278.21 114.31 235.82 263.65 77.15 0.00 172.51 277.38 93.31 71.30 310.44 376.61 115.11 81.75 94.41 166.63 173.18 320.14 242.92 165.00 82.09 263.29 140.04 261.69 299.00 354.28 153.77 124.09 321.26 121.32 90.04 50.73 113.49 335.30 191.42 221.67 227.86 131.37 205.24 272.02 205.52 35.31 118.10 78.93 302.08 123.00 245.12 132.41 72.55 201.07 120.60 142.54 265.21 222.49 138.24 59.71 198.94 137.15 105.10 291.69 47.92 91.22 241.55 139.36 99.69 274.16 278.89 65.68 237.52 276.67 303.31 236.66 97.53 59.31 217.21 228.30 82.52 279.00 173.07 112.31 228.20 241.36 104.66 149.29 219.83 307.10 216.02 105.44 244.49 158.09 229.85 377.11 99.85 264.45 256.68 231.99 204.71 59.22 269.09 229.55 212.32 104.82 228.59 229.57 106.44 118.36 236.07 111.44 254.84 67.85 328.44 82.80 114.32 253.08 105.35 107.87 128.58 261.06 190.39 205.85 226.67 104.09 77.36 281.77 194.73 251.53 94.22 294.72 168.06 218.27 199.47 151.62 313.81 156.42 281.85 105.27 225.64 314.95 86.49 311.88 258.76 36.37 226.72 212.70 156.54 267.75 199.70 412.99 298.72 129.01 137.66 99.98 86.61 313.12 115.77 264.89 156.95 151.40 252.93 65.38
907.52 143.35 414.26 174.99 57.80 172.86 147.02 112.62 165.64 9.04 64.08 71.34 148.56 220.91 197.45 71.30 206.40 305.89 207.39 218.61 172.73 364.15 119.99 109.49 118.67 118.12 172.51 0.00 188.53 112.35 161.63 215.36 383.80 80.77 187.84 143.01 196.82 246.01 252.60 105.71 216.25 198.00 210.98 138.80 120.23 158.45 244.69 113.34 127.80 244.93 71.63 158.78 144.32 60.56 392.27 189.02 65.70 149.08 147.47 50.80 177.79 209.75 144.49 87.96 202.50 157.00 256.07 85.59 233.18 235.95 253.45 141.06 227.95 141.21 75.44 154.19 195.57 238.11 270.19 118.75 156.79 164.75 104.05 87.74 90.33 158.10 166.98 132.90 114.12 191.82 273.48 148.55 104.56 137.06 135.78 99.02 82.20 148.18 319.35 300.95 161.96 242.28 93.88 94.48 99.03 73.73 235.31 79.32 234.02 99.41 149.45 120.28 297.49 77.53 161.22 386.69 66.24 280.43 133.79 174.01 100.38 102.20 165.04 92.41 98.72 154.02 167.13 139.37 125.25 99.25 128.14 392.61 126.12 126.73 102.66 67.16 145.96 47.70 173.03 100.35 129.35 81.52 196.13 149.78 175.39 70.35 117.19 155.66 158.02 138.47 68.42 62.77 144.40 207.91 219.36 189.41 143.66 93.65 170.27 136.06 172.16 374.67 204.17 114.50 126.72 138.23 112.16 234.63 383.49 126.21 124.38 143.27 81.16 221.51 246.26 165.16 228.13 272.86 209.89 302.77 132.70
1001.36 135.41 447.91 230.50 244.54 213.41 227.48 99.09 256.01 179.49 201.58 137.41 309.90 259.93 252.72 226.68 292.44 165.30 271.03 251.91 260.62 398.11 290.44 97.89 189.20 281.96 277.38 188.53 0.00 219.31 314.90 72.60 253.06 214.88 345.60 187.68 236.78 291.10 87.29 117.80 247.95 286.72 56.54 277.76 71.44 109.66 115.89 163.05 210.74 102.77 193.80 187.34 250.82 203.13 381.03 146.19 180.21 102.62 286.43 152.90 309.02 230.85 252.34 222.23 284.73 160.12 345.13 131.38 355.76 324.74 239.32 186.63 354.12 219.17 177.54 301.37 289.66 397.91 389.05 211.71 217.21 234.17 273.59 136.84 160.11 220.16 118.58 143.74 263.31 346.78 181.87 138.63 221.54 325.59 232.87 123.68 150.27 317.35 412.31 366.83 209.61 216.94 197.78 209.29 269.48 158.74 92.63 150.11 289.53 128.01 162.45 77.57 170.36 199.62 49.52 520.14 146.00 365.55 257.46 33.37 121.54 86.33 223.49 123.31 113.52 170.94 214.71 113.54 213.10 92.42 270.78 412.60 215.85 221.10 124.99 194.99 212.68 185.20 46.17 134.65 247.78 200.99 366.20 211.93 55.03 204.08 98.94 191.48 211.74 140.65 155.89 166.66 173.31 131.24 274.79 34.97 198.54 169.32 158.51 231.41 210.40 385.16 313.75 224.60 104.90 161.70 95.70 373.59 224.13 187.83 202.42 313.72 213.71 350.07 86.19 297.11 295.52 341.20 348.85 230.05 221.49
854.11 237.04 315.57 67.53 117.03 67.93 256.96 186.01 74.02 121.39 87.04 183.69 161.77 125.01 85.10 104.92 293.37 327.49 112.43 124.36 102.74 265.36 110.65 208.03 194.92 83.75 93.31 112.35 219.31 0.00 95.59 265.64 320.24 70.03 149.02 31.63 128.24 153.17 257.81 186.54 113.97 124.03 218.40 146.64 209.91 247.91 306.17 99.29 63.86 259.67 87.49 66.22 42.58 72.05 322.22 128.43 178.05 192.27 137.97 163.15 278.62 136.49 61.26 66.30 110.23 246.36 161.07 197.94 179.77 137.06 177.28 65.60 188.60 230.22 181.05 148.17 91.69 245.49 208.34 59.99 262.83 78.12 97.82 200.09 99.22 45.75 232.72 220.85 60.71 232.03 231.11 258.55 216.91 121.82 51.28 177.20 194.55 121.43 260.59 207.18 55.94 197.81 199.92 55.29 111.36 186.08 266.60 178.54 126.56 190.79 124.31 184.09 332.22 72.24 240.88 333.28 178.59 214.75 58.41 224.79 202.10 143.29 63.87 180.02 184.81 82.58 57.80 182.51 48.43 205.67 73.80 280.26 13.77 46.52 207.87 80.19 54.85 103.05 206.06 158.57 178.19 193.87 171.36 37.43 224.33 182.70 223.74 62.04 259.37 112.85 180.77 174.31 109.41 286.47 118.74 227.37 31.31 193.72 273.51 23.71 280.90 270.22 122.48 212.08 166.40 102.19 192.76 231.40 353.21 238.56 68.65 172.25 50.81 178.35 246.79 153.34 324.56 181.08 193.15 222.74 55.41
802.90 285.61 411.16 142.99 103.83 161.53 285.36 265.38 85.77 158.09 155.05 214.22 129.13 183.61 158.28 122.90 305.29 408.70 197.13 212.24 103.53 328.27 84.25 271.12 267.10 79.80 71.30 161.63 314.90 95.59 0.00 344.87 415.83 152.10 67.79 127.22 221.28 225.27 353.40 235.96 209.56 126.94 302.14 90.51 273.77 289.85 383.99 194.88 144.50 355.26 160.57 161.34 109.53 140.06 383.72 224.02 214.75 280.80 99.18 206.58 273.07 232.08 106.61 137.90 116.37 294.14 133.44 244.10 128.56 90.44 269.61 161.19 128.58 286.10 209.01 91.84 64.06 149.90 133.30 155.58 292.21 106.90 65.73 243.60 187.53 141.34 300.73 287.16 92.33 185.72 324.15 300.41 239.52 26.23 120.19 230.11 233.09 25.84 286.45 193.27 151.53 293.40 230.86 143.33 114.10 224.62 337.49 213.21 128.57 246.03 219.90 261.75 411.52 152.79 304.24 252.83 227.87 228.51 86.81 306.05 220.40 238.88 130.23 246.27 248.61 172.86 129.09 278.10 144.02 252.79 78.31 375.85 109.36 142.11 259.33 148.20 147.89 171.06 287.32 212.50 180.93 221.85 75.88 133.02 291.41 169.24 263.01 157.63 308.53 205.89 230.05 213.28 201.02 359.82 180.24 322.96 124.35 247.65 326.13 104.35 286.21 303.61 94.85 229.58 254.70 197.78 261.52 135.81 439.64 287.84 154.98 130.64 119.78 82.76 342.38 108.75 336.19 183.09 114.63 311.73 125.07
1041.55 159.28 457.77 284.96 268.58 258.13 225.30 124.08 310.78 213.80 220.31 173.38 317.88 283.17 288.97 258.88 314.05 155.71 296.69 249.33 319.47 417.67 304.80 105.87 200.16 293.20 310.44 215.36 72.60 265.64 344.87 0.00 267.27 225.85 359.42 257.28 258.37 282.09 129.54 140.69 238.94 316.89 70.75 329.62 119.29 81.07 101.89 177.26 224.24 87.89 204.77 231.10 280.55 218.55 407.57 160.40 206.31 116.53 333.96 201.07 328.25 245.06 282.87 233.20 321.18 147.83 375.30 154.43 403.25 374.00 221.03 200.54 389.55 233.93 192.11 332.95 328.63 446.08 434.28 232.74 255.01 289.70 294.00 152.80 171.08 247.81 110.90 176.09 286.20 394.95 208.41 104.92 251.99 352.42 276.48 131.67 183.45 332.77 420.71 396.95 253.37 239.83 236.87 227.54 286.59 185.82 106.84 183.19 343.59 160.73 204.91 102.56 133.48 210.59 72.41 556.28 173.78 413.49 284.36 41.35 138.08 134.50 272.20 148.30 158.76 215.66 259.43 127.45 235.74 130.22 283.47 422.46 251.87 237.87 162.79 226.69 248.30 203.93 60.08 147.23 281.86 223.88 381.76 267.64 53.46 242.39 121.58 231.67 231.46 194.70 163.96 182.76 211.41 82.45 308.04 49.18 255.89 192.82 135.27 259.05 233.94 399.37 346.81 242.05 112.88 202.15 117.31 413.84 269.95 212.80 226.31 343.62 227.62 394.79 122.87 321.73 319.64 365.37 388.62 244.26 271.48
1100.63 386.36 296.26 314.12 365.51 293.23 456.06 288.68 368.86 376.30 323.49 359.66 437.17 283.49 323.35 346.44 503.18 308.19 282.57 256.00 377.00 210.72 420.31 319.40 418.62 397.19 376.61 383.80 253.06 320.24 415.83 267.27 0.00 312.48 444.69 304.06 265.04 241.83 223.99 335.95 245.61 351.09 196.52 415.88 324.50 321.43 262.70 282.49 288.65 240.37 328.77 286.57 339.04 324.78 257.98 194.78 394.79 280.21 407.21 373.54 513.69 229.86 350.89 350.79 374.83 385.49 405.28 341.53 451.68 412.90 204.13 295.63 479.50 429.32 387.94 422.15 367.53 517.80 477.44 307.64 450.82 347.02 400.01 356.89 295.08 278.50 351.26 370.17 370.95 528.46 186.08 372.19 418.10 437.64 326.89 335.17 378.81 416.40 360.81 399.35 264.30 237.90 425.90 323.69 427.25 387.28 189.89 372.36 347.42 362.98 242.31 310.20 249.85 327.74 267.67 592.39 360.88 397.21 362.63 260.64 333.66 331.40 301.36 350.61 344.52 285.14 302.59 276.33 317.67 345.48 368.23 260.95 309.44 307.57 358.60 316.64 283.52 339.87 265.63 327.10 433.25 411.58 467.03 314.03 279.22 406.25 335.11 290.75 441.91 264.11 368.38 370.21 245.79 349.72 293.53 218.09 293.20 385.54 376.66 326.27 458.07 308.89 398.32 408.16 302.83 259.04 336.60 511.71 48.44 410.76 301.88 458.18 345.20 451.21 235.01 444.62 520.55 374.21 484.78 136.84 331.05
881.21 200.72 368.18 117.34 54.94 112.26 209.71 138.35 121.02 71.73 31.31 134.03 145.70 170.32 138.25 64.87 240.86 329.10 167.91 143.64 132.38 283.38 127.04 183.81 181.36 99.04 115.11 80.77 214.88 70.03 152.10 225.85 312.48 0.00 183.53 85.37 161.27 186.12 243.99 165.36 152.12 147.78 196.89 157.80 184.02 210.71 270.22 77.78 63.09 264.60 28.26 79.07 75.12 20.21 317.62 139.35 128.39 143.27 153.26 113.67 237.97 168.01 87.54 50.84 158.10 212.06 202.68 162.14 206.87 178.67 195.53 85.61 188.59 189.37 129.21 147.66 133.30 235.25 249.95 44.10 196.53 101.70 101.19 159.56 54.77 83.90 180.88 200.80 87.81 231.39 265.66 214.05 167.77 150.96 75.67 115.16 150.63 134.43 244.70 236.67 98.10 195.86 148.08 30.20 119.30 142.16 235.33 138.35 168.89 154.47 107.23 159.87 308.19 15.26 202.55 360.38 144.42 218.16 89.46 184.50 149.80 128.55 106.36 144.56 144.98 95.43 107.74 166.41 59.01 168.69 73.79 333.61 56.26 67.37 171.55 27.68 83.69 45.69 195.34 106.37 151.68 144.21 197.73 94.74 209.59 130.53 182.57 74.89 217.05 89.74 137.54 121.80 88.34 271.70 166.10 205.86 74.69 161.29 221.67 73.09 234.21 313.60 151.48 159.57 122.39 92.04 176.64 237.36 340.12 206.98 69.52 175.62 32.72 201.72 232.97 166.08 273.20 212.21 206.26 238.89 96.84
825.54 331.19 438.75 171.45 144.81 194.28 311.04 246.51 107.83 196.88 178.31 247.05 102.30 213.27 174.35 163.88 301.59 456.43 226.79 236.36 119.60 359.96 100.07 291.97 297.90 84.49 81.75 187.84 345.60 149.02 67.79 359.42 444.69 183.53 0.00 164.36 248.38 254.93 379.29 287.59 246.75 159.50 338.19 94.86 308.07 335.43 403.79 220.83 180.55 395.66 183.83 171.79 132.48 163.32 379.75 249.91 253.54 301.01 86.19 238.64 256.29 257.97 117.06 155.18 160.68 344.84 169.98 273.43 151.20 118.74 282.82 185.88 60.79 295.53 246.45 101.13 131.85 137.20 158.62 183.15 292.24 129.67 98.56 275.58 206.61 181.44 323.99 320.53 128.84 203.67 358.42 336.39 248.95 51.36 141.06 227.75 265.92 72.60 292.83 246.50 180.75 309.95 256.91 166.64 172.62 257.45 379.38 246.09 187.19 287.25 239.84 268.03 452.01 181.60 317.89 278.15 254.08 265.65 107.63 318.07 277.96 264.77 184.21 279.84 286.56 188.19 196.88 313.88 192.11 287.09 119.19 408.72 135.25 177.89 290.50 171.46 178.14 194.32 310.62 242.17 186.67 252.65 22.34 159.11 345.81 202.07 305.03 175.97 311.48 222.98 256.26 250.61 216.94 395.56 238.17 348.91 175.22 281.49 358.11 152.08 307.92 336.17 118.12 258.89 274.69 205.69 300.00 117.95 474.69 308.15 160.11 93.89 164.37 108.08 368.27 111.50 346.64 229.96 69.65 334.68 147.13
842.42 250.59 317.20 42.82 118.97 59.42 277.12 181.47 68.33 145.13 92.32 190.68 177.08 120.73 71.49 99.90 298.65 342.79 107.21 105.27 72.94 258.21 138.61 201.93 226.55 115.38 94.41 143.01 187.68 31.63 127.22 257.28 304.06 85.37 164.36 0.00 107.79 136.83 269.81 179.64 115.66 99.04 206.67 165.71 221.88 237.25 297.66 98.79 53.20 274.97 107.90 53.90 63.14 93.61 290.59 121.54 197.31 182.41 157.04 187.33 292.78 112.31 64.66 79.09 97.05 239.46 157.45 208.87 168.08 137.06 156.01 73.97 197.90 250.38 202.61 163.51 101.98 268.68 201.37 44.68 269.21 46.49 124.24 208.37 86.20 53.96 251.90 236.19 91.66 252.59 210.66 277.11 227.30 153.45 45.19 161.89 187.29 138.92 242.35 180.78 39.76 173.63 213.40 71.37 126.34 195.76 254.87 177.98 101.85 206.13 114.20 177.99 320.49 85.90 232.88 345.55 194.80 186.69 80.93 215.93 195.20 158.63 35.81 196.10 205.63 70.26 43.91 169.41 40.31 200.90 83.10 303.33 29.11 33.42 223.21 85.47 34.40 102.19 214.43 148.60 186.71 186.75 178.52 24.25 239.67 185.34 212.74 49.72 248.71 92.40 198.39 179.59 105.03 278.35 87.11 222.65 10.86 223.64 290.90 43.73 292.00 249.77 130.78 217.36 159.54 92.65 213.81 253.21 342.35 254.05 48.20 182.74 82.44 175.48 258.79 160.85 330.99 156.37 203.40 205.33 33.81
896.26 258.39 253.31 120.34 191.14 65.86 314.95 221.70 140.55 193.41 132.74 230.06 274.29 55.63 127.58 188.03 352.77 303.59 61.75 21.79 153.56 202.32 224.82 243.72 278.88 200.16 166.63 196.82 236.78 128.24 221.28 258.37 265.04 161.27 248.38 107.79 0.00 62.58 209.63 222.23 19.43 147.80 222.69 254.89 258.27 291.19 304.06 139.25 116.55 256.88 168.24 82.24 134.24 147.73 273.63 117.01 244.24 201.44 254.38 234.08 362.16 53.88 167.21 170.44 148.65 269.73 163.08 233.59 236.74 188.04 90.00 107.34 280.26 290.80 250.58 247.58 173.75 313.12 259.82 122.74 321.44 154.28 214.07 246.65 152.56 87.65 299.93 273.91 166.98 323.69 215.35 308.97 275.82 232.50 143.53 195.59 227.38 224.11 225.39 175.97 94.79 109.80 264.77 157.80 234.13 218.91 243.73 242.76 124.04 212.14 99.07 219.78 291.70 154.79 256.24 379.35 245.31 156.72 167.14 240.15 237.79 178.98 107.58 226.14 235.23 65.84 98.30 196.63 108.00 247.73 165.46 229.08 129.25 122.91 229.22 139.59 86.36 149.12 221.42 182.13 266.56 253.20 259.14 101.03 227.13 254.72 249.72 86.38 312.06 120.87 240.77 233.71 125.32 293.09 70.15 228.23 96.93 253.31 303.72 128.35 338.88 200.41 151.86 271.48 211.90 130.20 255.56 313.95 313.48 308.96 97.32 264.57 158.26 209.28 198.61 253.91 384.43 150.69 297.46 128.20 126.87
892.63 320.97 201.81 96.10 234.12 125.67 363.99 224.37 168.57 240.63 181.93 272.31 271.05 41.66 87.50 228.79 383.92 335.76 40.74 53.24 142.25 173.24 239.05 269.83 341.46 201.89 173.18 246.01 291.10 153.17 225.27 282.09 241.83 186.12 254.93 136.83 62.58 0.00 272.21 284.81 43.15 152.81 264.50 239.61 313.04 319.79 333.60 171.64 159.11 286.42 199.43 117.81 172.08 189.11 255.18 152.70 289.81 232.89 230.94 264.19 355.31 102.99 158.63 200.49 134.15 332.25 187.89 296.17 218.29 189.34 121.45 148.37 276.11 339.99 274.30 245.88 167.88 335.82 270.68 149.52 366.74 160.35 215.96 284.19 194.65 111.37 340.98 336.49 189.00 361.53 227.10 353.95 318.15 232.59 159.60 225.17 289.96 229.85 202.49 157.52 121.65 141.25 310.29 173.87 257.11 281.49 278.08 285.01 105.59 274.72 158.24 245.89 323.15 170.86 295.02 400.60 283.97 155.38 182.04 302.15 269.35 241.56 108.86 277.26 280.21 128.42 109.52 228.08 156.16 301.74 180.00 166.50 145.32 144.89 291.80 180.97 102.43 198.31 284.00 227.69 307.58 301.12 247.83 132.94 289.71 247.87 285.54 121.99 354.62 150.45 293.89 275.09 123.78 352.26 51.70 263.92 125.97 315.89 348.11 154.32 377.17 230.74 180.11 308.21 241.87 146.75 310.47 333.27 290.27 354.99 143.76 290.24 189.93 232.55 261.19 268.35 421.84 136.72 297.37 104.99 141.31
1046.03 222.70 391.07 294.09 285.69 262.46 271.21 172.37 294.06 245.43 246.32 224.70 356.98 265.26 259.72 281.35 362.68 115.07 271.38 231.42 311.31 397.32 317.19 154.50 239.25 305.41 320.14 252.60 87.29 257.81 353.40 129.54 223.99 243.99 379.29 269.81 209.63 272.21 0.00 189.32 229.06 325.03 63.14 347.95 158.73 157.44 94.43 182.25 220.78 47.25 221.88 234.10 290.47 236.69 310.38 154.90 239.00 146.83 356.62 240.19 352.62 235.29 291.53 251.34 318.81 193.74 372.71 192.11 389.03 358.01 248.03 223.37 407.69 279.90 240.74 359.07 339.23 466.00 438.61 225.13 267.26 289.66 291.34 202.16 189.22 255.56 187.27 223.74 309.25 428.21 111.22 208.48 292.74 335.67 281.55 176.97 215.35 350.91 421.46 369.37 250.70 243.68 268.08 245.68 301.46 217.03 34.10 217.42 286.62 191.40 202.43 164.86 84.42 228.73 121.04 569.19 211.46 366.35 305.88 89.98 186.71 173.62 287.07 197.52 200.81 219.99 263.76 113.23 240.04 178.85 295.23 411.88 244.04 248.40 175.04 244.83 259.44 246.45 108.71 171.31 309.24 272.15 394.74 272.12 119.98 272.87 170.21 236.15 277.37 205.18 212.05 230.85 172.52 167.81 266.22 84.71 263.12 234.30 228.06 260.87 283.72 393.87 353.24 290.14 127.75 195.49 165.94 437.92 234.32 258.71 229.35 358.49 251.81 399.12 11.02 336.60 357.56 341.14 406.76 236.65 254.76
977.33 80.77 450.25 222.46 155.43 197.30 137.29 60.54 244.18 108.39 151.31 56.41 229.91 257.68 250.48 136.36 239.62 235.56 264.94 236.20 252.58 375.94 219.34 42.83 97.48 215.75 242.92 105.71 117.80 186.54 235.96 140.69 335.95 165.36 287.59 179.64 222.23 284.81 189.32 0.00 241.66 278.68 139.43 238.15 66.02 85.01 174.26 140.04 172.24 198.28 150.72 171.63 192.19 158.75 436.33 168.38 90.99 100.60 231.12 104.15 212.06 218.45 209.80 179.15 276.22 59.82 318.35 51.97 312.12 303.56 261.51 166.19 287.85 124.37 96.94 234.63 268.14 335.74 367.82 168.63 146.25 223.92 201.68 36.61 117.03 196.13 77.71 77.49 193.06 286.49 243.34 99.73 141.23 242.77 199.46 59.84 79.28 253.89 369.23 344.38 193.90 235.70 109.84 153.64 170.70 70.81 187.63 67.00 281.49 49.08 156.36 49.99 244.48 150.10 68.28 465.63 39.47 334.86 185.89 99.34 15.56 43.25 215.45 28.91 25.99 187.99 220.22 143.42 183.54 45.04 201.92 418.33 172.77 185.03 54.03 150.61 196.97 134.93 91.71 81.45 145.54 83.19 301.84 203.42 105.49 136.44 46.76 167.45 140.90 134.56 54.13 57.32 161.13 144.60 266.75 130.63 190.50 82.99 118.50 189.60 149.80 407.35 279.29 132.22 104.02 145.55 56.68 324.33 341.93 96.54 179.78 234.05 177.19 318.72 191.55 212.16 207.99 325.49 292.64 311.47 213.45
889.02 277.82 233.88 112.03 201.37 85.29 327.98 206.48 155.37 212.84 152.17 246.15 261.40 44.23 119.38 199.34 372.20 323.02 57.75 10.39 159.71 190.92 218.19 251.94 298.31 197.72 165.00 216.25 247.95 113.97 209.56 238.94 245.61 152.12 246.75 115.66 19.43 43.15 229.06 241.66 0.00 139.32 221.65 235.46 272.47 283.73 304.01 136.06 116.26 276.31 169.53 74.96 151.90 167.16 272.58 109.55 246.66 190.04 244.13 244.01 371.08 59.84 160.58 163.16 129.22 289.16 178.83 253.02 235.69 184.41 78.60 105.52 284.40 310.23 231.15 247.80 162.50 316.53 267.16 126.03 323.89 157.97 206.58 241.04 159.07 68.22 313.56 293.34 155.58 341.35 221.31 327.63 292.60 235.79 139.42 182.02 246.81 216.26 224.34 174.92 82.42 98.40 269.09 153.69 225.33 238.34 234.93 242.22 122.99 231.57 118.50 228.00 280.30 150.68 251.87 385.59 248.39 176.15 160.51 259.30 246.02 198.41 100.67 234.11 254.66 85.27 92.31 185.23 119.01 267.16 169.60 209.65 113.40 115.44 248.65 159.02 82.25 168.55 240.85 195.92 285.99 270.78 265.29 94.40 246.56 265.95 254.89 79.14 311.77 107.30 259.94 249.35 105.89 312.52 69.10 220.77 105.79 272.74 323.15 119.51 334.93 219.84 171.29 282.66 198.72 128.35 274.99 331.29 294.05 328.39 100.61 273.16 152.58 227.62 218.04 251.27 396.29 139.29 292.28 108.77 124.23
790.92 321.62 339.39 71.62 187.50 85.57 326.94 254.16 81.26 188.96 153.07 251.26 216.02 120.46 65.31 179.64 359.40 404.67 133.98 128.93 80.66 265.37 167.10 278.10 298.59 132.75 82.09 198.00 286.72 124.03 126.94 316.89 351.09 147.78 159.50 99.04 147.80 152.81 325.03 278.68 139.32 0.00 277.37 195.64 302.56 309.94 340.25 183.20 125.89 342.35 158.59 109.06 132.82 138.08 304.67 182.59 245.62 248.34 186.97 237.45 327.62 168.49 103.60 134.96 43.69 338.50 58.41 275.46 116.58 98.88 197.14 139.62 217.89 311.13 247.08 201.91 62.88 230.82 172.93 142.62 328.86 103.10 141.25 274.96 185.24 99.34 298.75 318.03 132.76 312.66 290.75 331.28 265.41 153.17 118.55 252.49 269.01 152.78 241.06 102.98 86.79 216.94 265.95 140.39 203.42 260.70 325.57 244.57 77.24 284.80 178.05 254.16 356.50 149.85 277.81 312.16 264.24 122.62 127.51 293.43 282.57 237.44 66.89 265.12 270.84 120.52 76.75 262.29 127.71 288.30 128.49 304.08 116.99 129.13 287.49 146.22 106.01 169.08 276.10 225.67 266.45 261.44 137.16 94.50 263.43 244.76 288.99 113.24 321.40 185.20 259.14 240.34 170.64 339.64 116.55 293.81 109.80 278.52 339.54 100.32 352.08 176.67 90.01 275.35 226.21 169.95 301.21 237.98 399.53 324.21 124.37 206.49 116.84 142.09 329.49 197.86 346.98 74.86 221.96 248.09 120.56
987.27 189.84 430.75 230.95 239.62 199.32 266.44 133.22 263.91 220.02 203.48 193.02 330.38 245.10 238.63 234.25 306.66 166.50 258.62 211.26 265.93 385.88 284.54 122.88 222.10 264.24 263.29 210.98 56.54 218.40 302.14 70.75 196.52 196.89 338.19 206.67 222.69 264.50 63.14 139.43 221.65 277.37 0.00 315.65 127.98 124.91 90.99 119.11 157.64 98.68 175.81 173.25 233.26 189.59 350.06 132.79 215.34 83.69 306.98 192.62 317.17 217.45 231.78 201.14 273.08 188.97 334.47 176.76 354.52 325.95 225.92 180.59 360.59 253.09 202.91 319.83 291.04 419.93 375.47 161.99 262.47 247.64 278.31 165.33 142.12 192.42 154.74 173.65 262.15 396.68 150.90 175.67 252.35 300.57 222.75 148.74 205.88 303.81 362.59 352.74 195.52 213.53 241.76 198.58 280.13 210.24 48.20 195.72 286.78 180.59 159.29 128.78 113.82 181.63 71.15 506.05 178.90 366.88 242.74 64.12 147.11 141.94 224.87 165.90 157.50 156.85 200.62 79.81 176.90 148.96 258.77 398.51 209.89 185.26 170.25 197.73 198.59 194.71 69.11 162.23 271.92 222.62 354.11 213.36 82.70 209.73 138.59 177.39 245.39 147.87 191.61 196.75 166.97 153.20 287.34 21.57 199.98 215.68 180.14 197.79 261.55 371.76 297.00 242.41 115.59 144.00 140.08 398.46 244.96 214.24 178.08 334.72 210.83 335.98 52.12 312.83 324.03 294.62 356.56 173.51 224.61
851.22 270.73 441.42 181.49 102.86 201.84 254.01 246.18 141.06 129.76 139.96 192.06 52.01 249.99 192.07 121.93 260.10 412.61 236.47 245.85 170.01 373.77 46.30 248.29 214.71 62.89 140.04 138.80 277.76 146.64 90.51 329.62 415.88 157.80 94.86 165.71 254.89 239.61 347.95 238.15 235.46 195.64 315.65 0.00 259.03 275.49 358.78 199.64 179.25 374.06 162.23 186.58 128.81 141.72 406.60 221.10 184.44 265.12 8.67 178.25 182.56 274.46 126.76 114.51 165.77 293.32 219.93 223.17 176.88 148.16 292.52 196.01 111.51 255.71 168.93 23.61 150.55 145.75 191.40 160.26 233.64 119.22 56.61 221.23 176.63 167.24 302.39 256.09 107.61 153.38 372.77 272.08 209.13 85.91 133.19 219.43 201.48 64.67 326.00 235.91 181.44 308.51 188.22 145.04 87.14 203.06 340.59 202.93 219.08 236.67 196.91 241.00 424.37 161.99 298.63 310.93 205.04 267.97 103.98 288.27 230.22 222.92 189.76 210.88 237.52 202.98 191.33 278.17 174.75 238.05 97.59 406.11 151.74 183.25 240.24 144.81 182.84 156.34 294.33 203.38 136.38 194.89 108.98 168.54 303.96 154.97 255.99 190.76 276.94 175.11 207.22 200.77 200.99 346.71 250.79 312.73 173.75 217.34 302.43 155.18 257.63 372.31 136.92 213.94 242.77 178.02 250.96 95.83 445.88 265.01 185.68 54.07 132.63 140.86 354.83 45.93 273.32 262.74 71.09 331.01 154.12
1020.17 63.97 454.27 241.63 178.03 248.98 166.15 88.67 269.56 129.27 163.19 101.75 268.79 295.92 270.54 170.07 221.00 185.66 296.57 262.08 275.87 414.06 240.22 43.21 117.76 238.35 261.69 120.23 71.44 209.91 273.77 119.29 324.50 184.02 308.07 221.88 258.27 313.04 158.73 66.02 272.47 302.56 127.98 259.03 0.00 38.22 155.00 173.88 198.71 174.21 161.41 207.43 228.30 164.48 452.47 191.51 118.00 82.43 267.70 128.91 237.58 244.16 245.48 189.60 287.08 88.68 348.47 59.94 345.83 334.24 278.15 211.01 299.13 147.73 114.18 259.50 301.60 358.34 390.42 183.68 145.77 252.31 224.28 75.30 150.87 240.29 47.14 72.30 226.77 309.77 253.31 67.19 160.57 257.29 239.85 117.37 93.86 268.41 384.28 361.54 229.70 230.69 130.40 197.94 209.09 90.71 164.07 90.83 300.66 56.57 178.15 67.15 235.18 187.91 63.27 499.34 79.29 388.54 223.70 90.04 53.37 96.93 254.39 77.01 61.67 223.73 232.53 138.41 181.57 20.98 239.73 446.46 223.68 196.48 53.55 156.34 230.77 157.19 71.31 132.20 193.55 146.96 316.36 234.03 76.91 164.46 27.50 211.61 159.14 172.44 86.79 105.59 189.26 87.68 273.18 106.41 226.68 103.17 87.17 233.62 144.19 430.48 298.06 157.71 101.80 193.49 24.26 349.20 295.57 116.39 196.94 263.50 185.72 341.74 157.63 255.38 228.86 355.11 330.12 299.25 251.88
1011.84 78.21 488.52 268.86 209.32 255.62 155.72 95.42 290.32 167.49 192.36 115.45 294.73 305.52 297.45 190.25 251.94 223.88 312.78 289.92 302.67 420.81 278.44 81.43 155.98 269.33 299.00 158.45 109.66 247.91 289.85 81.07 321.43 210.71 335.43 237.25 291.19 319.79 157.44 85.01 283.73 309.94 124.91 275.49 38.22 0.00 171.71 197.52 184.05 168.96 199.63 225.35 260.63 190.50 467.82 174.18 152.71 120.65 266.82 158.04 275.80 258.84 263.69 222.36 299.49 78.25 360.88 98.16 366.01 354.27 267.31 228.43 337.35 165.10 152.40 251.88 322.03 389.63 421.71 203.04 183.99 276.97 255.57 113.15 183.45 255.47 29.83 95.02 246.95 345.28 268.66 51.04 198.79 295.51 254.38 107.68 132.08 275.76 403.64 368.29 241.27 251.19 168.62 220.94 247.24 128.93 173.11 128.15 327.83 94.79 204.20 73.90 214.55 203.99 83.77 519.52 105.56 393.29 239.78 85.99 69.45 114.70 273.06 101.84 99.89 234.76 259.44 155.34 213.07 59.20 255.81 453.21 241.03 216.62 91.77 194.56 242.16 195.41 87.97 134.50 228.26 168.20 354.58 255.34 111.34 202.68 65.72 229.53 161.88 182.40 119.18 133.02 196.01 116.60 311.40 130.25 226.39 131.82 70.62 224.20 168.23 413.15 335.37 191.01 127.93 203.45 55.20 341.58 333.79 143.22 203.69 296.24 211.74 372.61 168.46 274.35 243.18 370.68 344.39 298.42 251.02
1078.26 188.19 447.55 305.63 280.16 290.31 291.55 168.56 354.90 237.44 264.68 223.30 362.25 314.76 314.77 295.93 358.42 102.39 328.28 296.97 356.92 451.73 348.39 143.21 244.53 337.57 354.28 244.69 115.89 306.17 383.99 101.89 262.70 270.22 403.79 297.66 304.06 333.60 94.43 174.26 304.01 340.25 90.99 358.78 155.00 171.71 0.00 210.10 248.63 47.18 249.14 264.24 324.25 262.92 366.86 194.46 234.24 160.90 350.11 261.12 382.58 272.46 322.77 277.57 364.07 224.46 391.57 195.01 445.51 404.41 228.76 244.91 429.84 275.08 236.48 335.17 359.04 460.47 459.36 252.98 282.86 334.07 326.41 207.13 215.45 260.42 201.54 219.32 330.57 420.22 167.70 181.55 295.64 376.18 313.74 176.04 216.26 377.14 453.58 418.55 274.62 284.20 273.01 271.91 323.94 224.73 72.81 225.90 335.80 173.56 238.97 167.15 160.98 254.96 116.78 577.79 206.73 443.75 328.73 85.72 175.13 196.76 292.87 186.23 196.65 247.84 284.51 152.74 267.89 174.59 327.84 430.19 300.88 276.25 190.64 271.06 280.37 248.30 104.45 191.60 309.79 257.45 426.13 304.35 115.72 286.76 127.50 268.38 273.39 238.86 212.36 231.16 245.47 157.08 358.68 83.24 290.97 239.02 211.90 288.78 295.42 433.43 387.99 290.45 157.25 234.99 161.68 424.87 304.95 256.19 269.07 371.67 271.99 426.97 105.45 357.64 345.85 385.61 427.68 264.50 315.60
902.49 189.44 329.59 118.54 120.51 127.23 232.18 139.51 151.06 104.30 84.37 126.50 211.27 168.34 147.39 115.14 291.80 273.92 159.14 146.45 163.44 272.66 165.43 147.56 193.64 145.13 153.77 113.34 163.05 99.29 194.88 177.26 282.49 77.78 220.83 98.79 139.25 171.64 182.25 140.04 136.06 183.20 119.11 199.64 173.88 197.52 210.10 0.00 57.31 206.10 56.70 91.39 115.93 70.48 342.48 87.71 159.15 92.98 190.97 152.79 273.05 110.93 134.61 85.13 172.75 199.86 229.64 131.68 243.89 206.84 154.63 61.48 241.48 219.47 172.09 200.72 180.56 300.82 284.29 73.39 238.22 129.22 159.20 133.83 23.01 105.95 195.35 168.38 154.07 287.08 240.54 194.64 215.02 205.94 127.64 99.77 139.54 184.70 273.99 251.88 98.30 155.38 190.55 79.47 170.25 148.01 167.31 139.20 177.57 145.50 40.18 123.62 232.93 62.52 169.13 398.20 112.33 253.66 142.41 152.74 147.13 96.79 127.34 138.50 144.81 88.76 109.44 157.80 58.48 161.22 147.15 305.06 96.79 71.80 148.75 78.62 86.00 84.34 149.43 72.95 201.95 176.78 239.23 112.37 177.83 165.61 163.27 92.61 236.45 28.76 126.99 144.85 47.86 234.20 185.90 128.08 98.06 155.85 216.36 97.46 256.28 326.68 190.14 205.08 96.35 24.89 174.13 282.45 312.49 207.38 60.72 224.03 91.72 240.38 171.23 222.99 317.79 214.52 240.55 203.95 124.28
855.36 221.89 327.68 85.61 118.03 71.57 228.23 128.27 106.27 128.93 92.08 143.56 201.20 132.55 113.40 116.47 275.61 324.14 138.89 105.87 122.93 253.97 142.78 156.00 215.11 132.58 124.09 127.80 210.74 63.86 144.50 224.24 288.65 63.09 180.55 53.20 116.55 159.11 220.78 172.24 116.26 125.89 157.64 179.25 198.71 184.05 248.63 57.31 0.00 256.32 69.50 41.30 76.58 83.30 292.51 93.87 181.71 150.29 170.58 176.76 272.98 142.90 88.78 65.89 115.44 230.42 176.83 186.20 196.88 170.22 132.55 46.21 215.93 250.14 166.20 185.52 145.35 277.44 246.56 18.99 231.79 99.69 146.65 170.84 67.89 72.22 213.88 225.69 106.31 266.03 220.94 235.09 206.13 157.57 70.33 132.72 180.70 166.79 219.59 212.65 58.02 170.82 168.88 51.74 151.01 176.71 205.84 156.26 143.78 190.44 80.40 149.79 271.46 50.27 199.65 370.31 169.64 209.24 85.10 182.89 156.68 141.67 89.01 161.56 179.99 50.71 75.39 154.47 29.02 177.73 101.13 292.37 56.98 32.57 197.96 85.23 58.11 97.14 186.67 130.26 192.65 195.53 196.47 72.09 212.09 165.54 171.71 45.48 195.51 70.09 168.87 172.81 77.27 267.06 140.31 179.21 42.34 197.73 253.37 40.15 253.37 281.25 156.88 196.19 135.02 66.02 190.64 263.21 318.65 239.87 20.44 212.97 75.29 210.70 209.76 191.08 309.82 186.63 219.84 199.84 66.97
1072.85 233.01 400.37 295.93 302.73 298.00 293.95 191.10 315.55 253.97 276.50 222.54 384.79 312.51 303.61 306.17 380.96 67.82 318.63 278.67 344.50 412.70 348.33 172.78 267.07 311.17 321.26 244.93 102.77 259.67 355.26 87.89 240.37 264.60 395.66 274.97 256.88 286.42 47.25 198.28 276.31 342.35 98.68 374.06 174.21 168.96 47.18 206.10 256.32 0.00 243.71 258.79 289.86 261.51 319.68 202.15 242.57 170.38 365.39 244.13 354.90 281.99 285.95 271.10 355.98 230.49 344.39 194.81 425.51 393.51 275.94 267.45 422.91 267.21 249.05 380.33 351.36 480.59 440.45 260.67 297.77 293.71 325.24 179.45 229.11 288.77 198.79 242.12 309.00 436.75 120.52 192.81 293.76 381.49 300.64 198.58 223.95 375.73 461.27 416.62 281.06 239.28 276.72 234.40 313.54 225.67 50.48 209.84 333.87 188.47 245.51 180.34 131.67 251.35 130.00 577.94 200.95 413.60 309.86 108.26 204.99 189.10 292.94 213.72 205.25 255.53 265.60 105.56 256.46 195.19 308.11 422.99 273.44 241.55 205.55 269.65 284.01 270.25 126.99 187.69 318.12 265.14 409.86 297.10 138.26 295.31 157.95 262.97 303.27 234.86 205.73 223.77 219.77 120.56 313.47 108.14 282.02 233.34 223.16 283.38 313.17 441.12 357.63 283.82 163.42 230.99 184.22 454.30 281.57 285.29 266.82 380.17 257.95 407.87 58.27 372.27 360.76 388.39 415.48 272.19 301.04
899.91 172.46 383.69 134.52 63.81 135.15 204.08 110.09 125.59 72.03 35.50 134.33 154.57 182.40 163.43 65.17 241.83 311.53 168.88 159.14 132.68 306.27 135.91 155.55 181.66 99.34 121.32 71.63 193.80 87.49 160.57 204.77 328.77 28.26 183.83 107.90 168.24 199.43 221.88 150.72 169.53 158.59 175.81 162.23 161.41 199.63 249.14 56.70 69.50 243.71 0.00 101.96 90.24 20.51 345.88 133.99 122.76 138.66 153.56 112.78 240.78 167.30 86.01 52.37 164.43 183.80 216.66 135.51 225.57 193.57 185.21 97.88 191.51 193.56 129.51 151.85 161.56 244.12 251.77 72.36 181.52 111.46 110.06 137.66 33.69 112.16 181.18 182.82 111.13 240.42 251.22 198.47 170.48 155.97 103.93 109.91 142.32 134.73 272.96 243.00 106.25 202.23 143.29 36.53 127.17 133.85 207.07 130.04 193.55 126.21 92.81 131.61 289.63 43.52 181.47 378.00 116.16 246.42 93.74 163.42 155.07 107.47 128.89 142.33 136.58 116.62 125.42 138.15 74.46 140.43 102.05 356.50 78.79 79.59 143.29 28.65 107.97 27.64 174.20 90.15 151.98 143.97 198.03 117.27 188.51 133.34 171.26 97.78 208.74 85.46 130.82 113.49 104.56 249.09 147.73 184.78 102.95 155.66 217.79 92.39 229.22 335.26 157.69 160.54 94.13 81.59 153.34 241.55 311.86 197.84 89.94 184.49 41.75 207.93 211.89 174.32 271.82 233.45 207.79 246.67 103.17
814.06 249.24 293.37 65.87 134.01 41.55 269.53 162.17 104.85 149.74 110.38 179.46 201.06 91.25 87.21 132.32 311.79 326.61 97.59 64.57 95.67 212.67 155.64 190.98 249.38 123.69 90.04 158.78 187.34 66.22 161.34 231.10 286.57 79.07 171.79 53.90 82.24 117.81 234.10 171.63 74.96 109.06 173.25 186.58 207.43 225.35 264.24 91.39 41.30 258.79 101.96 0.00 94.99 98.86 305.69 106.76 199.99 174.93 177.91 184.64 296.12 120.36 106.33 88.20 112.95 231.45 166.47 198.15 186.91 162.59 116.50 30.56 227.87 268.44 202.48 192.85 121.34 259.62 224.10 55.17 248.93 83.01 137.76 196.05 86.49 32.86 249.34 239.75 126.93 276.29 186.63 253.64 246.84 173.55 82.51 153.55 191.70 152.31 225.92 179.49 22.27 143.06 210.18 91.48 164.20 193.35 221.45 167.26 124.90 202.99 91.25 169.18 287.07 91.57 205.84 337.54 197.67 206.05 106.26 189.75 187.19 128.38 55.17 175.54 179.90 16.40 50.70 153.23 50.11 204.33 119.17 258.06 67.77 48.42 207.94 106.75 25.34 124.76 171.02 148.89 219.13 215.76 194.13 40.15 209.36 193.21 179.93 4.18 236.81 87.55 192.73 174.39 61.58 285.27 124.56 194.82 43.04 211.37 267.86 67.68 259.97 273.15 126.41 237.49 132.98 66.50 214.52 282.41 331.54 256.31 39.46 212.19 77.62 176.65 223.08 197.02 339.23 153.86 224.74 167.48 69.98
838.64 231.30 357.57 102.68 87.39 98.92 256.78 200.33 60.28 135.28 96.65 197.58 147.87 163.53 111.29 87.73 294.15 340.78 150.01 156.03 88.58 301.76 91.19 185.09 237.50 65.92 50.73 144.32 250.82 42.58 109.53 280.55 339.04 75.12 132.48 63.14 134.24 172.08 290.47 192.19 151.90 132.82 233.26 128.81 228.30 260.63 324.25 115.93 76.58 289.86 90.24 94.99 0.00 95.22 325.82 150.06 184.42 197.97 120.14 154.51 260.79 172.89 37.22 86.93 103.40 252.01 142.50 216.84 164.30 123.28 192.08 108.18 146.02 254.71 179.15 122.94 102.41 225.18 187.88 71.27 251.20 38.44 79.99 208.75 109.47 87.72 255.89 244.75 45.24 189.45 269.83 273.42 217.62 117.50 17.95 183.02 190.14 101.28 271.87 204.08 80.13 222.92 213.79 55.46 114.11 198.61 256.37 196.77 123.35 216.45 140.63 208.13 347.08 69.96 236.82 307.41 206.36 232.71 33.51 239.20 203.84 174.16 90.81 180.19 199.68 99.60 89.01 208.65 77.96 230.67 31.22 322.84 50.17 72.66 202.35 102.80 69.65 98.14 246.55 161.07 170.28 202.63 154.82 74.95 231.04 158.10 200.80 99.17 272.09 135.80 203.28 185.98 133.36 307.25 150.25 241.77 72.94 207.73 276.63 36.43 276.01 277.10 87.10 218.44 182.81 132.64 235.34 203.18 374.84 270.53 87.06 154.42 79.01 137.34 283.19 143.78 315.62 177.87 168.25 202.20 48.78
887.84 192.97 382.60 115.07 63.73 132.47 189.50 130.60 105.08 51.52 14.99 113.82 154.49 161.89 146.12 44.66 221.32 329.33 148.37 163.43 112.17 303.59 115.99 168.17 161.15 78.83 113.49 60.56 203.13 72.05 140.06 218.55 324.78 20.21 163.32 93.61 147.73 189.11 236.69 158.75 167.16 138.08 189.59 141.72 164.48 190.50 262.92 70.48 83.30 261.51 20.51 98.86 95.22 0.00 337.83 130.00 108.18 142.02 133.05 100.01 220.27 181.41 85.91 31.86 157.93 204.31 196.15 146.15 213.50 186.04 205.72 97.45 171.00 173.05 109.00 131.34 151.64 243.88 235.71 64.31 190.78 111.36 92.90 144.34 47.47 104.11 160.67 180.59 94.44 219.91 265.00 193.84 149.97 135.46 90.73 125.65 131.09 114.22 264.91 241.06 118.31 181.72 127.87 41.48 107.82 122.62 227.58 118.81 174.10 146.72 100.07 152.12 303.41 34.31 184.21 367.01 126.80 237.21 73.23 177.20 151.98 116.80 115.95 131.38 132.76 113.66 108.11 158.66 71.50 157.63 87.19 352.31 76.47 84.54 160.80 8.14 102.74 31.00 175.13 109.87 131.47 124.00 177.52 109.48 197.70 112.83 177.75 95.10 197.51 94.63 121.06 102.26 100.87 252.16 168.24 198.56 94.90 141.08 201.46 77.32 214.64 314.75 149.86 140.03 114.64 77.90 170.54 221.04 332.37 186.77 89.73 167.33 21.24 200.10 225.67 153.81 253.66 212.94 187.28 251.62 108.12
1014.07 468.07 80.69 297.69 372.56 312.07 463.10 401.04 309.22 389.35 348.93 427.21 425.25 239.71 273.56 380.69 530.14 378.83 233.88 273.55 322.05 93.02 385.21 433.45 451.53 358.69 335.30 392.27 381.03 322.22 383.72 407.57 257.98 317.62 379.75 290.59 273.63 255.18 310.38 436.33 272.58 304.67 350.06 406.60 452.47 467.82 366.86 342.48 292.51 319.68 345.88 305.69 325.82 337.83 0.00 310.98 381.78 398.09 397.93 411.69 537.45 261.55 312.83 352.07 314.70 494.12 296.67 415.08 341.98 365.03 217.85 315.03 438.79 457.29 397.29 412.87 319.66 483.57 398.33 273.52 483.46 287.38 372.76 399.72 354.25 318.55 497.65 454.19 338.01 515.27 199.16 499.26 453.42 407.64 334.28 388.44 411.72 386.40 258.59 287.93 305.77 238.84 420.55 313.57 416.93 409.07 301.86 414.51 257.37 436.53 335.52 410.38 352.37 314.74 406.26 520.15 421.22 318.44 336.74 400.36 443.42 398.90 305.28 433.99 425.52 317.95 311.57 333.27 288.43 449.02 323.99 103.31 319.70 296.79 426.84 345.30 320.61 361.16 400.64 402.34 447.18 419.06 402.09 314.84 399.51 430.01 449.16 301.51 488.02 313.72 426.00 429.43 317.82 429.13 203.48 359.52 299.55 414.68 482.25 332.66 488.24 191.19 350.45 447.86 405.14 334.77 460.21 495.95 222.78 500.75 298.94 447.19 337.12 351.69 321.40 435.34 561.49 229.81 449.40 276.39 322.28
920.78 218.03 329.87 145.62 170.73 124.73 281.03 151.60 174.08 181.52 128.71 186.44 242.39 153.78 128.57 151.66 335.04 245.08 167.30 119.94 183.32 275.81 225.53 178.06 252.70 202.41 191.42 189.02 146.19 128.43 224.02 160.40 194.78 139.35 249.91 121.54 117.01 152.70 154.90 168.38 109.55 182.59 132.79 221.10 191.51 174.18 194.46 87.71 93.87 202.15 133.99 106.76 150.06 130.00 310.98 0.00 208.67 109.08 212.43 178.76 337.38 84.66 156.11 156.01 187.66 226.56 236.99 208.03 280.11 242.85 93.13 101.86 284.72 269.90 193.16 227.37 199.03 349.30 308.94 112.86 285.15 152.24 205.23 195.35 100.30 110.00 204.01 227.40 176.17 333.68 166.23 225.22 223.32 245.71 132.11 144.05 209.16 224.47 313.46 250.65 95.80 104.71 231.12 128.91 232.47 200.69 168.88 199.14 204.25 186.58 47.53 154.12 239.32 139.81 142.32 427.22 200.04 273.73 167.85 173.38 152.82 167.33 132.86 185.21 192.28 90.36 134.09 110.09 122.89 185.21 173.45 294.56 114.66 118.84 192.93 121.86 115.02 145.09 164.27 132.89 238.47 226.88 272.25 145.53 172.35 229.94 193.77 110.90 269.42 69.33 202.55 215.69 51.01 241.55 178.65 111.22 124.70 231.41 244.80 131.49 300.26 238.97 223.86 213.38 154.98 73.98 193.94 316.93 224.78 238.46 107.84 263.49 151.24 269.49 165.92 249.84 327.01 230.46 290.00 160.42 145.84
973.22 86.29 452.30 222.61 123.50 220.48 81.32 116.41 213.26 56.66 111.50 45.43 159.92 270.07 243.54 137.00 172.85 272.63 256.55 257.05 220.35 377.50 167.61 112.22 69.75 183.37 221.67 65.70 180.21 178.05 214.75 206.31 394.79 128.39 253.54 197.31 244.24 289.81 239.00 90.99 246.66 245.62 215.34 184.44 118.00 152.71 234.24 159.15 181.71 242.57 122.76 199.99 184.42 108.18 381.78 208.67 0.00 149.39 175.77 29.91 173.23 236.86 193.45 140.04 266.11 116.34 279.09 63.62 298.88 275.23 280.56 169.43 231.13 75.51 15.51 160.83 259.71 299.58 335.44 172.49 101.68 205.87 169.30 63.12 136.14 211.62 147.71 72.41 179.82 211.12 245.68 126.80 71.64 202.76 183.20 121.33 29.94 213.88 373.09 337.44 204.95 289.90 38.77 149.66 110.42 27.29 204.90 32.73 281.64 67.36 180.45 118.72 278.22 141.67 156.30 452.39 51.52 344.57 181.41 164.96 95.97 93.88 212.46 77.69 69.95 198.15 216.29 168.48 170.40 101.85 193.84 427.73 184.65 183.81 69.28 116.32 191.67 95.12 146.23 98.98 75.55 37.28 261.83 201.05 159.65 65.79 106.74 200.56 114.04 186.09 49.15 47.65 192.02 205.68 270.49 202.35 203.08 32.90 131.62 185.50 106.46 373.38 239.05 66.08 121.29 184.04 110.78 250.53 390.41 118.97 167.37 190.89 128.78 287.21 250.02 180.30 179.71 320.19 253.34 329.88 180.32
979.48 146.40 415.18 211.52 193.90 196.63 198.69 54.50 232.55 151.41 127.40 109.33 249.52 213.49 233.56 174.83 300.74 238.20 220.39 179.65 224.69 347.47 239.19 74.55 175.19 219.31 227.86 149.08 102.62 192.27 280.80 116.53 280.21 143.27 301.01 182.41 201.44 232.89 146.83 100.60 190.04 248.34 83.69 265.12 82.43 120.65 160.90 92.98 150.29 170.38 138.66 174.93 197.97 142.02 398.09 109.08 149.39 0.00 258.69 124.82 261.72 161.73 200.29 168.40 204.65 121.22 266.04 101.63 305.14 259.84 202.21 144.37 297.11 174.03 149.46 243.75 246.05 369.83 353.12 166.37 205.61 210.71 233.38 86.27 115.99 189.15 129.57 148.94 204.79 318.70 198.93 149.62 193.46 277.48 199.10 76.13 122.19 256.24 366.97 344.71 187.49 198.54 181.23 144.96 219.61 130.18 131.89 116.66 270.55 108.85 111.81 50.61 197.51 128.01 91.27 473.12 107.77 314.91 215.25 75.18 99.48 58.25 205.22 96.35 110.34 169.35 198.87 64.82 151.46 99.49 217.06 379.87 187.22 164.78 113.39 134.25 178.98 111.02 56.45 88.74 224.94 168.49 318.00 180.71 94.79 164.69 90.26 174.70 184.78 90.01 108.32 127.12 122.67 170.11 250.79 105.26 171.55 137.18 165.61 190.44 211.20 348.05 250.97 186.41 45.90 111.06 106.69 333.45 317.55 185.12 149.91 251.03 161.02 303.05 135.81 229.14 281.14 302.93 309.62 254.75 208.81
842.55 262.06 432.75 172.82 111.53 193.17 245.34 252.91 132.39 138.43 131.29 200.73 57.79 258.66 183.40 130.60 251.43 403.94 245.14 242.48 161.34 382.44 48.52 245.23 223.38 54.22 131.37 147.47 286.43 137.97 99.18 333.96 407.21 153.26 86.19 157.04 254.38 230.94 356.62 231.12 244.13 186.97 306.98 8.67 267.70 266.82 350.11 190.97 170.58 365.39 153.56 177.91 120.14 133.05 397.93 212.43 175.77 258.69 0.00 184.90 173.89 269.35 121.46 105.84 174.44 285.59 216.76 214.50 168.21 139.49 287.22 189.26 109.61 251.28 160.26 14.94 159.22 152.23 200.07 151.59 242.31 110.55 65.28 229.86 167.96 175.91 293.72 247.42 101.09 148.53 364.25 280.75 213.93 84.57 124.52 221.65 192.81 73.34 330.85 227.24 190.11 314.77 179.55 136.37 95.81 194.39 341.67 201.03 227.75 228.00 205.58 247.95 415.70 153.32 296.96 319.60 213.71 259.30 101.70 292.61 234.60 231.59 185.41 202.21 231.12 194.31 195.58 271.38 166.08 246.72 88.92 397.44 149.34 174.86 231.57 138.14 174.17 147.67 285.66 212.05 142.16 199.55 100.31 159.87 311.13 146.30 260.94 182.09 268.27 183.78 211.05 192.25 209.66 355.38 242.12 319.05 167.90 208.67 307.39 154.70 263.41 363.64 145.59 205.42 234.10 186.69 259.63 104.50 437.21 256.60 177.01 59.30 123.96 149.53 346.16 37.41 264.65 261.83 77.57 322.34 145.45
958.32 116.20 445.21 202.29 108.60 209.91 102.27 109.29 197.80 48.49 101.52 70.23 189.83 257.23 225.40 122.10 187.23 299.88 248.38 249.21 212.18 397.05 159.44 119.75 93.37 168.76 205.24 50.80 152.90 163.15 206.58 201.07 373.54 113.67 238.64 187.33 234.08 264.19 240.19 104.15 244.01 237.45 192.62 178.25 128.91 158.04 261.12 152.79 176.76 244.13 112.78 184.64 154.51 100.01 411.69 178.76 29.91 124.82 184.90 0.00 158.62 241.77 183.81 131.87 250.65 146.25 249.18 68.97 283.98 245.32 268.34 189.60 201.22 105.42 24.64 169.96 239.93 288.91 317.10 157.77 129.49 175.96 154.69 78.94 129.78 181.71 151.22 102.32 164.92 231.27 266.66 149.63 68.64 187.86 172.46 103.92 57.19 198.98 358.37 338.20 180.98 272.29 68.68 141.49 119.55 57.20 234.51 62.64 261.32 90.42 188.90 107.37 281.73 128.33 165.00 436.63 67.32 331.23 173.24 175.40 88.59 66.57 202.48 76.73 97.09 168.24 187.39 138.57 170.87 118.61 178.94 409.90 169.93 177.53 86.04 108.15 161.76 85.14 158.44 108.22 105.46 48.12 246.93 192.27 147.61 51.18 135.46 188.56 134.99 168.79 52.66 62.05 183.85 216.59 260.51 187.87 185.30 62.81 161.47 177.33 121.50 403.29 209.14 78.58 123.46 168.87 122.54 258.38 377.03 146.22 163.83 182.72 120.61 266.56 239.09 184.19 192.21 290.28 232.94 334.79 172.15
1016.44 248.57 557.12 313.47 229.17 329.31 168.31 256.24 275.55 168.75 229.42 199.04 214.14 382.16 336.89 210.10 77.54 422.72 368.64 360.69 304.50 500.43 222.05 252.74 205.94 194.87 272.02 177.79 309.02 278.62 273.07 328.25 513.69 237.97 256.29 292.78 362.16 355.31 352.62 212.06 371.08 327.62 317.17 182.56 237.58 275.80 382.58 273.05 272.98 354.90 240.78 296.12 260.79 220.27 537.45 337.38 173.23 261.72 173.89 158.62 0.00 370.18 262.11 252.13 328.40 233.65 357.41 190.81 342.10 313.38 405.53 270.09 272.10 163.05 157.72 188.83 302.88 312.78 373.96 263.93 124.78 266.18 208.94 175.45 250.04 311.09 274.72 235.13 241.74 112.77 417.13 274.99 173.02 258.46 247.59 252.57 190.27 247.23 464.53 401.13 310.36 401.99 159.45 239.66 179.38 198.74 365.37 192.47 372.09 212.26 306.23 234.72 426.76 222.71 280.34 493.49 196.95 399.95 242.35 302.94 219.15 225.19 326.06 209.72 201.25 311.59 318.65 297.19 270.43 235.14 229.57 521.81 281.92 282.72 202.57 228.41 291.14 225.49 289.50 252.59 169.63 160.69 274.20 300.52 274.79 107.44 255.08 291.94 201.03 298.18 197.69 178.89 304.11 325.26 375.56 335.92 303.64 206.13 257.98 277.77 147.23 504.29 294.31 163.08 282.08 297.94 226.98 226.01 533.15 209.77 284.09 220.08 240.87 323.42 363.64 198.19 90.76 402.48 250.57 449.80 278.42
932.31 296.16 280.44 155.13 222.95 119.74 305.61 216.23 179.98 215.23 181.62 221.68 270.59 74.71 171.57 212.21 369.63 312.09 88.23 55.79 185.25 221.40 243.70 236.28 269.54 220.24 205.52 209.75 230.85 136.49 232.08 245.06 229.86 168.01 257.97 112.31 53.88 102.99 235.29 218.45 59.84 168.49 217.45 274.46 244.16 258.84 272.46 110.93 142.90 281.99 167.30 120.36 172.89 181.41 261.55 84.66 236.86 161.73 269.35 241.77 370.18 0.00 170.21 180.43 189.06 278.27 212.66 242.61 257.97 241.92 43.70 100.09 310.21 287.74 250.59 257.12 213.98 364.25 313.68 123.91 318.46 158.80 217.85 242.87 133.94 117.22 288.67 272.65 194.51 362.34 161.47 305.57 297.87 253.77 157.50 194.95 218.04 232.53 273.87 224.45 110.75 61.32 260.62 141.93 238.65 209.57 253.54 234.38 164.75 256.43 132.19 212.34 243.22 158.88 214.45 433.23 223.26 210.60 193.24 213.02 234.01 175.20 147.81 222.36 244.44 116.21 138.94 194.75 138.82 251.15 195.41 245.13 122.72 129.72 251.56 174.77 129.97 194.94 194.29 168.13 297.57 271.30 280.31 136.56 232.63 262.74 251.99 124.54 314.95 127.07 231.43 229.93 128.26 308.84 118.63 195.88 123.17 243.97 307.38 139.55 330.75 254.29 205.74 287.93 207.28 106.02 264.06 346.82 278.30 307.07 125.86 292.28 165.48 263.16 224.27 273.16 399.18 145.80 308.95 93.02 146.12
813.90 258.47 360.44 94.41 86.69 101.35 267.09 196.10 47.29 136.79 82.29 199.09 112.42 166.83 98.30 87.07 298.12 353.77 164.76 169.93 73.16 299.08 81.59 218.48 246.42 67.24 35.31 144.49 252.34 61.26 106.61 282.87 350.89 87.54 117.06 64.66 167.21 158.63 291.53 209.80 160.58 103.60 231.78 126.76 245.48 263.69 322.77 134.61 88.78 285.95 86.01 106.33 37.22 85.91 312.83 156.11 193.45 200.29 121.46 183.81 262.11 170.21 0.00 82.79 100.14 267.98 130.66 219.16 139.56 107.56 165.76 111.30 147.34 240.35 194.91 124.26 89.42 213.40 172.46 69.79 256.38 25.45 70.15 210.07 111.79 101.12 246.58 250.80 30.37 213.79 275.32 275.74 202.75 108.22 24.00 184.34 196.19 102.60 270.39 197.31 92.99 224.56 213.72 69.35 142.58 196.74 279.98 192.40 140.75 212.22 122.78 194.54 345.60 72.28 244.16 291.99 202.17 219.72 23.91 241.52 194.24 177.01 93.79 194.08 202.00 118.29 95.06 213.60 76.13 226.44 32.54 325.13 47.49 83.09 229.30 89.14 81.17 98.67 232.21 163.39 170.54 202.75 139.40 66.18 258.05 164.15 234.19 102.15 271.63 144.58 193.68 176.38 139.54 278.50 151.77 253.35 75.52 221.62 287.37 51.18 291.03 280.27 71.68 212.69 180.14 124.42 235.36 204.50 377.68 266.72 95.21 144.58 64.67 121.92 280.51 132.80 300.20 178.46 138.74 233.05 54.83
874.21 186.66 381.57 111.95 53.81 120.74 221.36 162.46 113.58 83.38 41.00 140.64 144.57 179.45 128.98 50.84 247.33 337.40 174.38 152.77 86.27 300.87 125.91 181.20 193.01 88.82 118.10 87.96 222.23 66.30 137.90 233.20 350.79 50.84 155.18 79.09 170.44 200.49 251.34 179.15 163.16 134.96 201.14 114.51 189.60 222.36 277.57 85.13 65.89 271.10 52.37 88.20 86.93 31.86 352.07 156.01 140.04 168.40 105.84 131.87 252.13 180.43 82.79 0.00 140.59 227.46 186.83 166.37 199.87 171.11 198.44 99.85 175.01 199.06 140.86 120.78 125.74 230.08 203.85 78.55 220.15 91.74 100.06 170.35 62.12 112.05 192.53 200.19 80.81 216.79 274.83 225.70 173.93 149.83 71.55 151.34 145.58 136.85 279.15 236.61 110.47 213.58 159.73 38.50 85.12 148.63 235.83 142.38 153.86 173.29 121.24 171.67 309.86 51.13 208.73 353.38 154.20 254.03 74.86 191.85 171.64 135.90 105.67 157.39 158.77 104.60 90.97 165.54 68.38 168.62 66.79 346.26 77.87 81.56 175.28 34.15 109.94 57.38 185.66 124.52 137.65 155.86 154.10 85.57 211.94 144.69 186.36 92.38 223.52 113.89 147.07 128.27 116.40 277.28 166.20 213.21 89.95 172.94 221.41 78.58 240.68 311.63 149.57 166.04 128.26 109.76 181.53 197.32 364.23 214.17 86.33 165.14 18.12 188.81 240.32 143.25 279.67 208.38 155.42 248.64 79.17
798.85 325.98 307.22 106.01 162.88 107.97 324.02 243.71 52.85 209.45 157.86 250.10 212.56 145.95 59.09 146.59 357.64 412.23 137.45 139.61 54.32 221.68 153.59 271.44 288.39 133.53 78.93 202.50 284.73 110.23 116.37 321.18 374.83 158.10 160.68 97.05 148.65 134.15 318.81 276.22 129.22 43.69 273.08 165.77 287.08 299.49 364.07 172.75 115.44 355.98 164.43 112.95 103.40 157.93 314.70 187.66 266.11 204.65 174.44 250.65 328.40 189.06 100.14 140.59 0.00 325.87 61.39 272.01 124.51 55.19 205.58 139.90 186.16 309.95 266.93 184.57 52.31 220.25 148.94 134.43 315.90 74.69 146.25 266.49 182.43 113.44 318.60 312.69 114.10 278.45 299.54 346.22 264.99 139.81 121.35 238.22 265.56 118.57 223.19 146.67 113.25 227.62 269.79 127.90 210.12 267.21 321.28 241.12 89.47 288.16 185.30 254.24 365.66 144.85 291.22 268.47 268.74 135.45 95.91 279.83 260.77 232.97 94.77 252.63 272.48 129.31 97.10 250.42 129.34 289.93 100.08 271.91 111.28 114.43 289.08 164.71 94.03 174.24 261.10 217.16 233.40 243.14 159.90 72.80 299.44 240.18 279.33 108.77 310.95 163.50 265.68 248.38 172.40 367.38 133.42 294.65 104.42 280.17 349.02 111.32 349.16 220.36 46.32 274.93 237.57 162.54 301.89 243.32 412.44 328.71 124.45 216.59 151.45 98.40 325.20 194.70 343.82 98.28 200.30 237.99 92.15
1037.15 40.80 500.98 282.28 213.61 257.12 77.47 118.72 302.36 163.56 198.66 101.26 272.34 317.50 310.30 194.54 237.74 274.34 324.76 291.52 312.40 433.27 274.51 95.02 113.22 263.82 302.08 157.00 160.12 246.36 294.14 147.83 385.49 212.06 344.84 239.46 269.73 332.25 193.74 59.82 289.16 338.50 188.97 293.32 88.68 78.25 224.46 199.86 230.42 230.49 183.80 231.45 252.01 204.31 494.12 226.56 116.34 121.22 285.59 146.25 233.65 278.27 267.98 227.46 325.87 0.00 376.53 79.04 370.30 363.38 319.69 226.01 320.25 104.21 125.33 270.65 326.32 384.34 415.89 228.45 108.87 281.93 249.75 94.40 176.85 255.95 56.50 43.93 251.24 296.87 303.16 42.91 150.79 294.06 259.28 119.66 98.54 277.78 429.05 404.20 253.72 295.52 143.26 213.46 220.24 96.51 225.06 109.93 341.31 57.59 216.18 109.81 278.16 208.28 128.10 523.81 90.76 394.68 244.07 155.20 73.74 103.07 275.27 88.73 80.68 247.81 279.25 186.04 228.29 67.70 260.10 465.67 232.59 231.32 74.67 196.73 256.79 182.28 151.53 141.27 191.89 143.01 343.26 263.24 158.28 175.61 103.65 227.27 83.63 194.38 97.71 116.51 208.47 176.36 324.99 167.40 250.32 97.18 73.26 249.42 89.98 465.53 338.45 142.60 163.34 205.37 80.61 360.35 373.48 64.97 239.60 293.24 225.55 376.90 182.72 271.35 199.17 378.35 351.83 348.68 273.27
799.26 365.38 331.58 130.03 209.57 143.98 341.09 305.10 114.24 247.03 211.14 309.33 239.33 161.92 120.48 193.89 402.88 412.21 163.17 168.44 100.56 283.07 189.17 327.59 296.71 162.54 123.00 256.07 345.13 161.07 133.44 375.30 405.28 202.68 169.98 157.45 163.08 187.89 372.71 318.35 178.83 58.41 334.47 219.93 348.47 360.88 391.57 229.64 176.83 344.39 216.66 166.47 142.50 196.15 296.67 236.99 279.09 266.04 216.76 249.18 357.41 212.66 130.66 186.83 61.39 376.53 0.00 318.15 124.92 105.13 201.15 193.26 228.37 345.45 273.82 224.88 69.38 237.32 152.59 181.67 363.20 133.35 163.32 327.88 226.40 148.99 356.82 351.50 161.03 318.76 349.16 389.35 317.82 159.67 154.66 285.98 306.37 158.88 223.24 119.13 145.20 256.45 316.03 189.29 247.54 306.38 382.67 302.51 101.48 332.13 189.46 312.57 414.91 187.42 336.22 272.12 316.50 104.80 154.57 341.22 302.79 286.53 125.30 308.38 317.14 178.93 135.16 294.39 173.31 333.90 150.91 296.27 157.01 158.40 335.22 204.29 155.42 227.15 322.49 274.82 280.70 289.38 147.64 134.19 321.84 266.83 332.00 170.16 372.34 211.26 301.84 292.85 223.92 383.48 136.19 345.19 163.56 311.99 397.61 140.18 366.23 235.08 86.63 327.17 284.62 223.93 343.91 249.72 453.72 367.00 182.78 237.75 174.91 102.05 361.69 238.77 387.89 66.86 232.44 268.44 153.54
989.99 57.76 461.27 204.60 140.27 234.38 114.53 85.00 240.12 94.63 145.61 43.59 220.87 274.24 251.99 156.89 216.37 245.60 280.00 255.38 248.73 404.34 205.58 69.85 81.28 200.59 245.12 85.59 131.38 197.94 244.10 154.43 341.53 162.14 273.43 208.87 233.59 296.17 192.11 51.97 253.02 275.46 176.76 223.17 59.94 98.16 195.01 131.68 186.20 194.81 135.51 198.15 216.84 146.15 415.08 208.03 63.62 101.63 214.50 68.97 190.81 242.61 219.16 166.37 272.01 79.04 318.15 0.00 315.65 310.29 286.31 167.59 262.65 87.79 54.24 199.56 264.92 318.12 351.00 183.47 109.29 229.50 186.52 15.36 141.09 227.40 107.08 47.31 196.59 259.21 267.10 101.66 100.63 222.65 206.42 84.71 40.39 233.77 384.07 346.38 215.14 264.12 99.76 162.98 149.15 48.71 207.72 30.89 263.63 21.45 171.86 74.63 255.92 146.88 115.51 469.16 19.35 349.78 196.62 134.35 55.21 83.03 216.88 38.25 29.16 209.04 219.52 166.45 168.56 49.64 192.89 436.74 197.17 180.73 17.07 139.77 215.31 129.23 129.41 97.14 139.17 87.02 281.72 199.21 114.70 104.52 67.51 198.72 116.71 159.43 26.85 45.65 179.54 147.62 283.24 166.35 214.90 44.01 93.22 198.32 126.73 434.00 274.42 104.94 116.32 156.57 58.39 289.26 355.42 112.77 177.56 222.38 158.62 300.46 203.13 200.49 193.74 299.31 280.97 330.62 218.29
674.34 361.77 340.09 185.85 175.38 181.93 349.32 325.15 156.03 242.22 221.85 292.45 226.00 207.23 181.89 175.76 386.81 461.08 196.99 241.07 148.34 298.59 185.95 320.86 345.01 165.93 132.41 233.18 355.76 179.77 128.56 403.25 451.68 206.87 151.20 168.08 236.74 218.29 389.03 312.12 235.69 116.58 354.52 176.88 345.83 366.01 445.51 243.89 196.88 425.51 225.57 186.91 164.30 213.50 341.98 280.11 298.88 305.14 168.21 283.98 342.10 257.97 139.56 199.87 124.51 370.30 124.92 315.65 0.00 89.01 293.23 202.71 175.41 322.58 284.94 183.15 134.01 196.65 56.35 202.47 343.26 149.42 170.06 310.61 250.12 197.22 374.17 362.96 119.06 314.28 373.50 381.73 276.00 152.20 163.56 284.88 309.20 154.40 232.89 103.68 196.49 316.73 302.41 193.66 242.66 306.91 401.16 284.76 130.29 330.32 232.58 328.20 462.70 210.61 332.85 211.42 299.42 114.45 140.27 361.90 296.56 303.08 173.09 317.82 331.90 203.27 183.65 337.49 208.39 328.95 133.08 304.78 173.56 201.50 328.32 216.60 177.27 238.23 343.17 263.95 259.23 314.70 138.80 146.76 370.13 273.18 336.57 182.73 382.04 215.13 301.60 288.84 246.36 414.42 166.59 371.97 178.38 321.98 393.14 156.73 373.26 293.25 103.22 285.94 306.55 236.18 337.68 232.57 466.37 355.41 198.41 227.51 197.01 45.80 400.05 205.62 397.30 112.17 207.73 314.84 134.27
763.35 354.58 362.41 124.30 182.55 140.90 317.08 266.24 98.30 226.91 184.75 287.80 197.28 189.07 114.28 182.93 363.49 442.60 175.55 194.80 84.84 276.87 155.52 308.37 318.91 135.62 72.55 235.95 324.74 137.06 90.44 374.00 412.90 178.67 118.74 137.06 188.04 189.34 358.01 303.56 184.41 98.88 325.95 148.16 334.24 354.27 404.41 206.84 170.22 393.51 193.57 162.59 123.28 186.04 365.03 242.85 275.23 259.84 139.49 245.32 313.38 241.92 107.56 171.11 55.19 363.38 105.13 310.29 89.01 0.00 255.81 193.15 172.82 299.81 269.96 154.43 45.37 213.31 93.75 169.18 320.27 109.34 139.31 295.24 202.92 143.99 346.71 347.34 126.23 268.31 347.72 366.87 298.61 116.67 131.50 277.91 297.47 108.43 246.90 131.96 148.60 275.19 300.31 169.89 204.54 292.38 374.15 288.57 141.11 316.22 201.56 287.76 401.15 163.41 302.32 213.28 300.82 163.82 131.47 332.65 297.95 274.41 111.54 274.65 293.13 178.99 138.88 297.49 154.27 314.86 126.11 327.10 144.89 169.18 315.72 177.90 149.22 201.13 316.29 251.81 266.40 273.66 135.24 127.99 339.60 242.82 322.28 163.96 349.80 218.69 290.82 272.02 212.08 386.06 161.55 334.92 147.92 298.19 377.77 138.25 342.22 275.55 36.18 299.27 270.86 207.23 327.77 226.25 461.34 346.68 179.64 198.79 172.23 43.21 369.03 176.90 337.44 153.47 155.36 293.18 103.25
930.52 311.16 236.74 162.96 227.27 114.91 349.31 240.92 213.05 246.92 217.92 265.38 278.18 86.00 146.49 208.20 408.16 309.57 99.52 68.21 201.24 232.69 247.35 266.36 313.24 233.00 201.07 253.45 239.32 177.28 269.61 221.03 204.13 195.53 282.82 156.01 90.00 121.45 248.03 261.51 78.60 197.14 225.92 292.52 278.15 267.31 228.76 154.63 132.55 275.94 185.21 116.50 192.08 205.72 217.85 93.13 280.56 202.21 287.22 268.34 405.53 43.70 165.76 198.44 205.58 319.69 201.15 286.31 293.23 255.81 0.00 141.60 313.10 331.44 286.29 290.02 229.94 356.71 318.72 151.54 359.97 191.21 235.91 286.57 177.64 142.38 297.14 316.35 196.13 379.55 205.17 318.35 316.45 273.98 179.60 213.00 261.74 268.36 232.32 235.74 138.77 58.80 300.07 182.95 279.10 253.27 232.23 274.12 176.04 277.13 140.66 247.25 240.70 182.82 226.22 396.30 266.96 246.72 189.67 256.72 245.95 218.90 163.77 265.09 285.41 100.10 143.87 180.37 142.26 278.34 198.30 201.43 165.32 157.17 286.06 213.86 122.43 212.85 237.99 211.83 295.01 302.12 305.16 150.08 263.50 298.09 250.65 120.64 328.06 138.28 275.13 273.63 140.33 303.48 129.92 204.35 145.97 287.67 335.21 170.15 374.45 227.20 237.44 306.51 229.70 149.72 287.07 363.00 252.57 331.59 131.58 310.34 192.52 279.23 259.05 298.56 420.14 181.06 304.50 67.29 175.92
841.01 218.68 318.47 88.29 140.55 68.50 250.75 151.44 135.41 141.11 95.60 149.40 170.50 121.81 114.16 126.15 298.13 325.37 128.15 95.13 122.62 239.62 161.56 179.50 219.87 135.04 120.60 141.06 186.63 65.60 161.19 200.54 295.63 85.61 185.88 73.97 107.34 148.37 223.37 166.19 105.52 139.62 180.59 196.01 211.01 228.43 244.91 61.48 46.21 267.45 97.88 30.56 108.18 97.45 315.03 101.86 169.43 144.37 189.26 189.60 270.09 100.09 111.30 99.85 139.90 226.01 193.26 167.59 202.71 193.15 141.60 0.00 215.14 240.96 177.47 192.06 149.41 282.04 251.05 41.51 218.37 113.57 139.40 167.09 80.16 59.81 233.04 214.90 114.36 271.87 211.73 223.08 232.93 180.09 101.34 132.36 161.14 170.40 242.11 210.05 52.83 158.37 208.20 61.35 171.48 162.79 217.61 136.70 147.32 172.43 66.21 155.56 294.41 78.30 175.28 359.96 173.59 236.61 116.37 159.19 181.75 138.89 85.73 180.40 149.34 41.50 81.26 173.03 56.42 206.28 100.34 283.16 79.37 42.25 177.38 102.45 47.76 111.98 140.46 134.43 212.96 185.20 208.22 67.10 178.80 162.65 195.21 31.13 239.08 57.64 162.17 143.83 50.85 255.01 135.62 189.56 63.11 191.03 237.95 76.40 275.44 298.25 156.97 222.99 140.35 36.59 197.61 268.18 326.64 225.75 25.77 212.77 84.90 207.21 212.35 190.88 308.67 176.28 242.43 193.11 96.93
849.75 308.91 477.92 198.70 170.15 232.11 303.49 301.60 162.03 222.52 169.71 271.45 117.96 274.06 188.61 185.52 266.95 484.79 282.69 274.01 180.39 407.84 122.64 317.57 267.94 137.97 142.54 227.95 354.12 188.60 128.58 389.55 479.50 188.59 60.79 197.90 280.26 276.11 407.69 287.85 284.40 217.89 360.59 111.51 299.13 337.35 429.84 241.48 215.93 422.91 191.51 227.87 146.02 171.00 438.79 284.72 231.13 297.11 109.61 201.22 272.10 310.21 147.34 175.01 186.16 320.25 228.37 262.65 175.41 172.82 313.10 215.14 0.00 306.64 225.86 94.67 174.68 115.08 137.45 217.13 312.25 151.41 123.90 269.88 218.47 222.48 331.67 294.28 128.82 170.40 401.81 330.69 269.86 112.15 156.68 266.60 258.41 133.39 333.30 251.30 221.75 345.03 249.34 188.51 186.15 258.42 398.46 263.86 226.17 262.66 264.17 301.51 467.66 203.85 338.93 272.77 248.38 243.85 130.83 348.20 287.17 267.79 211.29 274.55 273.62 244.27 226.62 329.66 222.15 278.15 114.80 442.61 194.19 215.77 245.58 162.86 202.53 186.09 346.13 270.67 198.33 222.69 80.73 196.94 348.83 226.03 308.72 232.05 336.21 249.35 253.88 252.42 237.51 386.81 262.94 369.56 202.01 264.03 352.41 182.45 304.54 394.56 178.91 265.59 285.64 248.90 291.06 57.16 476.13 333.21 220.90 119.47 180.75 129.61 396.67 97.58 297.61 251.49 40.42 348.22 172.17
996.92 86.89 503.18 271.78 199.01 295.99 26.74 168.55 278.13 132.17 158.06 109.63 206.92 318.66 294.70 208.82 168.38 329.33 305.14 312.59 280.96 453.01 243.12 157.64 48.74 227.31 265.21 141.21 219.17 230.22 286.10 233.93 429.32 189.37 295.53 250.38 290.80 339.99 279.90 124.37 310.23 311.13 253.09 255.71 147.73 165.10 275.08 219.47 250.14 267.21 193.56 268.44 254.71 173.05 457.29 269.90 75.51 174.03 251.28 105.42 163.05 287.74 240.35 199.06 309.95 104.21 345.45 87.79 322.58 299.81 331.44 240.96 306.64 0.00 91.02 236.34 294.42 280.13 371.59 233.47 39.51 265.80 220.37 87.76 211.65 273.27 152.48 108.53 218.96 210.79 296.56 144.96 46.58 270.33 249.39 172.21 86.64 287.27 434.07 412.95 271.10 319.60 83.83 214.53 174.57 78.17 280.41 104.26 330.41 109.24 231.33 147.03 329.10 204.63 192.65 487.64 107.14 407.53 240.17 207.55 131.46 150.58 259.02 122.03 113.56 273.66 264.88 238.85 241.93 135.11 232.98 501.02 243.99 240.51 104.86 164.91 267.18 170.63 201.81 163.18 122.55 92.14 317.87 267.65 187.10 116.86 155.30 264.26 59.46 211.16 100.03 98.53 243.82 235.41 335.54 239.54 261.24 86.75 132.22 235.03 50.68 448.89 263.63 56.52 196.80 232.21 146.18 294.23 440.89 46.87 242.88 201.64 194.29 321.05 286.93 223.53 129.81 384.93 292.66 380.76 255.83
959.28 101.80 465.03 224.07 109.56 234.55 96.83 116.57 214.08 72.17 123.99 45.59 175.43 270.89 228.03 128.63 186.33 275.24 257.37 241.54 221.17 393.01 164.27 103.43 84.88 167.86 222.49 75.44 177.54 181.05 209.01 192.11 387.94 129.21 246.45 202.61 250.58 274.30 240.74 96.94 231.15 247.08 202.91 168.93 114.18 152.40 236.48 172.09 166.20 249.05 129.51 202.48 179.15 109.00 397.29 193.16 15.51 149.46 160.26 24.64 157.72 250.59 194.91 140.86 266.93 125.33 273.82 54.24 284.94 269.96 286.29 177.47 225.86 91.02 0.00 145.32 246.64 284.07 319.93 173.31 117.19 200.60 153.79 69.60 151.65 206.35 151.97 87.16 165.88 226.63 259.41 142.31 76.20 205.58 190.43 113.30 32.55 211.32 373.91 321.93 205.62 290.72 54.28 150.48 94.91 41.02 220.41 40.77 283.10 67.74 184.50 118.27 282.48 143.31 155.16 438.45 67.03 346.21 182.23 150.76 101.50 91.21 224.95 72.53 83.40 192.88 212.03 163.21 178.44 103.33 179.90 433.87 185.47 186.42 71.31 117.14 186.40 109.78 133.80 99.14 91.06 39.63 252.89 209.09 163.91 50.28 113.80 198.30 113.88 187.76 53.41 39.62 197.15 201.86 277.24 189.92 203.90 48.41 147.13 186.32 121.97 388.89 233.78 81.59 136.80 186.90 111.16 235.02 392.21 121.58 182.88 189.68 130.24 291.10 246.79 167.79 195.22 314.92 237.83 339.92 195.83
857.49 247.12 447.69 175.62 121.56 208.05 230.40 237.97 134.06 145.15 116.35 190.91 42.85 254.19 198.34 140.63 266.37 418.88 255.90 250.93 163.01 375.10 63.46 248.75 215.18 69.16 138.24 154.19 301.37 148.17 91.84 332.95 422.15 147.66 101.13 163.51 247.58 245.88 359.07 234.63 247.80 201.91 319.83 23.61 259.50 251.88 335.17 200.72 185.52 380.33 151.85 192.85 122.94 131.34 412.87 227.37 160.83 243.75 14.94 169.96 188.83 257.12 124.26 120.78 184.57 270.65 224.88 199.56 183.15 154.43 290.02 192.06 94.67 236.34 145.32 0.00 155.90 167.17 215.01 166.53 227.52 125.49 75.31 214.92 178.81 190.85 281.71 232.48 105.74 144.22 349.31 284.29 199.42 87.24 133.60 227.38 177.87 66.00 315.91 242.18 179.90 309.92 164.61 151.31 98.64 186.34 344.26 186.09 220.41 213.06 210.81 242.01 414.30 162.92 298.24 334.54 209.83 274.24 107.75 295.31 240.20 231.60 184.50 217.15 216.18 209.25 204.66 286.32 181.02 248.65 91.72 412.38 134.40 177.04 216.63 123.20 177.29 132.73 279.12 222.08 127.22 184.61 115.25 172.88 299.11 131.36 259.12 197.03 253.33 195.99 196.11 177.31 214.43 347.18 250.62 325.34 174.37 193.73 292.45 151.23 248.47 378.58 138.25 190.48 231.32 201.63 256.48 89.70 452.15 241.66 189.91 44.36 138.90 164.47 357.01 22.47 271.81 271.25 92.51 325.14 149.09
808.35 312.40 349.75 78.93 140.19 125.95 271.71 245.88 52.93 203.16 164.61 242.43 169.95 151.09 94.22 151.83 333.50 409.55 137.57 172.89 39.47 264.21 119.79 287.50 273.54 108.01 59.71 195.57 289.66 91.69 64.06 328.63 367.53 133.30 131.85 101.98 173.75 167.88 339.23 268.14 162.50 62.88 291.04 150.55 301.60 322.03 359.04 180.56 145.35 351.36 161.56 121.34 102.41 151.64 319.66 199.03 259.71 246.05 159.22 239.93 302.88 213.98 89.42 125.74 52.31 326.32 69.38 264.92 134.01 45.37 229.94 149.41 174.68 294.42 246.64 155.90 0.00 167.94 116.65 143.41 314.88 63.97 93.94 259.06 157.55 98.62 312.31 301.97 95.13 249.78 307.51 321.50 267.51 90.29 113.42 233.26 261.30 89.90 233.66 165.86 103.23 229.82 254.94 134.99 178.16 252.83 338.43 249.57 107.06 270.85 190.54 267.10 355.78 118.04 291.30 258.28 261.81 174.18 97.56 287.28 252.58 231.33 66.17 259.72 247.76 137.28 93.51 252.12 134.71 284.97 81.53 314.44 105.46 124.50 275.80 159.78 107.51 169.90 281.36 206.44 235.30 228.29 139.94 93.78 312.37 197.45 285.35 125.52 304.43 174.15 263.99 250.03 166.71 367.92 116.18 297.25 112.84 285.35 341.59 105.20 296.85 239.55 30.79 257.79 225.49 161.86 284.45 199.87 415.97 321.78 139.92 168.37 142.50 88.21 328.21 169.73 324.60 136.24 178.69 271.27 92.23
870.99 361.95 517.69 246.87 180.31 247.26 306.87 350.73 220.87 247.15 254.67 302.39 165.60 319.03 262.16 199.38 241.13 540.18 305.51 324.19 207.41 432.15 180.32 346.44 318.58 199.69 198.94 238.11 397.91 245.49 149.90 446.08 517.80 235.25 137.20 268.68 313.12 335.82 466.00 335.74 316.53 230.82 419.93 145.75 358.34 389.63 460.47 300.82 277.44 480.59 244.12 259.62 225.18 243.88 483.57 349.30 299.58 369.83 152.23 288.91 312.78 364.25 213.40 230.08 220.25 384.34 237.32 318.12 196.65 213.31 356.71 282.04 115.08 280.13 284.07 167.17 167.94 0.00 221.11 279.35 300.81 231.91 185.62 320.08 277.81 254.23 403.81 365.43 196.92 200.01 446.25 386.66 233.55 157.53 237.40 335.62 314.13 136.29 374.26 300.33 253.50 396.29 270.80 246.19 232.89 311.84 440.35 289.69 275.00 337.52 303.51 352.38 514.38 250.51 398.17 207.51 304.35 311.10 209.40 407.54 320.18 311.58 234.11 322.75 336.83 276.02 261.45 377.48 272.90 337.36 206.35 482.38 243.09 258.50 335.19 250.61 234.28 271.05 390.18 325.93 249.97 293.10 114.86 261.72 392.62 278.23 355.30 263.80 339.59 320.86 306.53 293.77 313.83 446.02 284.12 427.52 257.82 326.91 402.61 254.25 330.81 388.37 182.40 243.49 338.25 302.58 350.27 86.77 544.23 321.12 257.00 123.33 222.64 170.57 456.01 145.22 287.34 292.45 74.66 424.00 260.17
730.69 390.51 396.44 195.58 212.39 207.29 385.77 349.14 157.38 279.23 244.85 314.63 243.41 260.85 183.18 231.46 385.85 470.55 247.33 258.00 128.43 354.94 191.99 372.97 348.07 180.21 137.15 270.19 389.05 208.34 133.30 434.28 477.44 249.95 158.62 201.37 259.82 270.68 438.61 367.82 267.16 172.93 375.47 191.40 390.42 421.71 459.36 284.29 246.56 440.45 251.77 224.10 187.88 235.71 398.33 308.94 335.44 353.12 200.07 317.10 373.96 313.68 172.46 203.85 148.94 415.89 152.59 351.00 56.35 93.75 318.72 251.05 137.45 371.59 319.93 215.01 116.65 221.11 0.00 232.37 392.05 179.22 166.14 350.50 265.97 198.94 396.38 388.11 175.41 307.85 388.85 418.74 332.35 156.94 196.46 337.83 333.50 159.14 219.56 160.03 213.14 318.78 332.07 241.81 247.40 325.03 423.67 320.11 186.64 369.60 283.29 362.16 472.43 234.69 384.05 201.49 336.43 170.80 196.37 392.93 352.26 339.75 182.82 351.70 362.62 218.62 174.85 367.37 225.81 369.44 189.43 361.13 217.16 234.79 359.74 238.00 218.89 261.23 374.20 312.91 314.23 317.25 145.96 193.74 395.17 269.65 387.38 219.92 418.49 263.11 338.61 325.85 283.36 450.96 222.94 397.04 207.90 358.99 425.26 206.41 398.95 331.33 107.96 329.99 332.11 278.51 382.35 194.61 522.72 396.40 243.90 240.57 221.97 50.54 427.59 235.03 402.04 168.52 177.87 364.91 184.98
860.87 225.19 333.87 74.97 99.04 87.31 247.22 147.26 107.49 115.83 75.41 162.55 182.21 141.70 103.88 107.17 256.62 328.49 134.55 119.74 103.94 259.48 146.22 160.80 199.09 122.20 105.10 118.75 211.71 59.99 155.58 232.74 307.64 44.10 183.15 44.68 122.74 149.52 225.13 168.63 126.03 142.62 161.99 160.26 183.68 203.04 252.98 73.39 18.99 260.67 72.36 55.17 71.27 64.31 273.52 112.86 172.49 166.37 151.59 157.77 263.93 123.91 69.79 78.55 134.43 228.45 181.67 183.47 202.47 169.18 151.54 41.51 217.13 233.47 173.31 166.53 143.41 279.35 232.37 0.00 240.63 85.65 136.27 182.97 80.73 67.04 224.98 220.80 100.16 256.71 227.13 244.68 208.82 138.58 60.76 117.21 166.19 157.71 200.60 203.35 58.38 177.27 187.87 40.05 150.18 157.72 210.19 152.58 124.79 194.03 99.39 136.86 275.81 41.22 194.49 359.29 183.63 211.15 93.70 200.70 175.67 125.38 80.49 164.78 170.94 56.90 65.87 159.26 14.91 175.50 102.33 298.56 47.90 23.27 196.62 71.78 47.09 87.64 181.97 132.33 173.66 188.31 197.65 68.93 206.42 156.49 176.51 50.99 214.50 83.86 178.05 165.90 69.75 252.95 125.35 183.56 43.00 192.12 251.86 59.14 272.36 281.91 141.47 203.67 140.00 62.81 188.41 248.16 332.20 244.96 25.42 210.70 63.60 191.71 214.11 189.00 302.83 171.43 208.53 194.79 68.20
1017.60 126.40 536.84 297.97 188.38 286.87 43.53 176.10 287.26 158.34 194.94 147.11 203.19 340.18 320.89 169.31 128.87 331.43 339.15 313.50 278.38 457.99 242.14 171.07 88.25 235.33 291.69 156.79 217.21 262.83 292.21 255.01 450.82 196.53 292.24 269.21 321.44 366.74 267.26 146.25 323.89 328.86 262.47 233.64 145.77 183.99 282.86 238.22 231.79 297.77 181.52 248.93 251.20 190.78 483.46 285.15 101.68 205.61 242.31 129.49 124.78 318.46 256.38 220.15 315.90 108.87 363.20 109.29 343.26 320.27 359.97 218.37 312.25 39.51 117.19 227.52 314.88 300.81 392.05 240.63 0.00 267.42 228.84 119.34 215.21 278.18 165.29 140.92 226.01 231.47 332.35 151.78 67.26 284.40 233.25 171.63 122.43 293.52 441.23 424.52 271.20 359.11 62.91 218.05 185.65 113.96 301.36 134.41 345.97 109.30 246.50 169.92 351.68 211.79 206.61 491.60 128.64 414.69 245.61 213.66 133.81 167.79 285.21 133.29 120.26 259.87 298.89 268.06 255.54 124.79 240.03 501.53 252.79 253.21 92.22 198.92 266.13 178.56 211.81 198.45 118.82 89.56 314.58 277.22 215.37 125.33 155.36 249.50 76.25 224.70 130.56 130.93 257.36 233.45 329.25 252.18 271.22 126.26 171.73 262.44 57.07 475.06 284.09 77.20 211.36 245.75 137.70 290.94 430.57 86.38 244.14 198.35 212.02 341.51 278.28 220.24 90.30 394.65 300.72 405.77 264.08
823.76 269.74 352.76 68.96 106.95 95.91 278.23 215.78 21.84 158.56 107.74 196.02 137.87 164.69 72.85 98.11 300.41 361.53 151.17 147.58 50.79 295.68 97.83 223.53 267.57 71.31 47.92 164.75 234.17 78.12 106.90 289.70 347.02 101.70 129.67 46.49 154.28 160.35 289.66 223.92 157.97 103.10 247.64 119.22 252.31 276.97 334.07 129.22 99.69 293.71 111.46 83.01 38.44 111.36 287.38 152.24 205.87 210.71 110.55 175.96 266.18 158.80 25.45 91.74 74.69 281.93 133.35 229.50 149.42 109.34 191.21 113.57 151.41 265.80 200.60 125.49 63.97 231.91 179.22 85.65 267.42 0.00 85.38 214.14 132.69 96.10 264.87 238.00 50.63 227.89 257.15 300.88 223.01 122.89 49.45 169.29 221.64 106.67 268.19 171.86 86.25 217.36 233.98 89.25 146.65 222.19 279.68 208.41 118.38 237.67 133.21 219.99 361.46 97.73 233.97 302.14 224.05 194.27 49.36 248.35 218.91 190.79 79.77 213.98 227.45 99.41 90.40 188.15 70.74 231.33 36.61 326.85 72.94 79.91 240.79 114.59 80.89 124.12 254.03 142.47 184.92 224.08 152.01 64.73 267.93 176.71 239.24 87.19 295.20 120.70 209.39 201.83 144.59 303.95 131.57 257.30 57.35 238.25 296.67 69.90 297.46 279.77 84.29 219.05 189.11 139.14 244.24 208.57 377.02 286.98 94.69 159.81 90.12 132.07 295.04 147.96 312.81 172.90 164.19 240.64 34.90
844.40 243.50 413.39 132.67 46.25 153.02 219.63 216.67 94.75 113.09 107.89 148.49 96.17 211.70 156.09 65.32 239.56 393.06 198.18 196.19 123.36 346.72 25.85 213.54 202.01 14.07 91.22 104.05 273.59 97.82 65.73 294.00 400.01 101.19 98.56 124.24 214.07 215.96 291.34 201.68 206.58 141.25 278.31 56.61 224.28 255.57 326.41 159.20 146.65 325.24 110.06 137.76 79.99 92.90 372.76 205.23 169.30 233.38 65.28 154.69 208.94 217.85 70.15 100.06 146.25 249.75 163.32 186.52 170.06 139.31 235.91 139.40 123.90 220.37 153.79 75.31 93.94 185.62 166.14 136.27 228.84 85.38 0.00 186.02 136.19 143.57 253.57 221.97 51.00 171.95 316.94 252.60 173.79 59.98 84.37 173.59 167.36 81.22 269.39 244.23 140.63 274.62 165.93 96.22 95.96 158.89 283.98 155.63 190.95 203.46 157.70 196.02 371.63 113.17 242.95 307.38 170.29 219.15 61.55 252.65 186.12 195.09 145.23 185.56 202.77 154.16 150.19 228.57 125.93 203.30 48.77 378.08 95.13 137.77 193.60 101.04 134.02 123.90 264.12 146.77 152.13 156.76 112.76 119.72 272.23 103.51 221.24 141.94 252.35 176.47 172.47 159.71 171.48 311.96 210.12 281.58 117.14 192.85 268.55 111.96 232.81 317.92 113.51 163.85 193.41 170.80 216.21 152.44 398.31 230.26 150.59 74.43 114.14 137.31 302.36 75.79 277.48 216.11 127.70 282.19 103.00
984.95 73.12 463.42 219.96 139.77 221.72 114.50 80.79 224.76 96.78 130.25 43.09 219.54 273.74 252.06 158.84 215.87 247.27 276.43 251.43 233.37 400.36 207.73 77.29 91.33 200.09 241.55 87.74 136.84 200.09 243.60 152.80 356.89 159.56 275.58 208.37 246.65 284.19 202.16 36.61 241.04 274.96 165.33 221.23 75.30 113.15 207.13 133.83 170.84 179.45 137.66 196.05 208.75 144.34 399.72 195.35 63.12 86.27 229.86 78.94 175.45 242.87 210.07 170.35 266.49 94.40 327.88 15.36 310.61 295.24 286.57 167.09 269.88 87.76 69.60 214.92 259.06 320.08 350.50 182.97 119.34 214.14 186.02 0.00 140.52 220.55 99.27 62.67 191.55 258.64 264.61 99.54 114.31 224.80 191.06 86.36 44.50 235.92 383.57 353.66 216.61 260.14 97.27 159.00 134.09 46.22 196.99 30.39 278.99 36.81 174.01 59.27 255.35 155.52 104.89 464.12 21.50 358.42 193.56 129.34 43.70 67.67 216.38 34.27 25.80 208.59 219.02 151.09 168.06 59.69 177.53 438.58 197.19 182.88 27.12 136.20 214.85 113.87 114.05 96.64 138.67 85.69 283.87 193.69 99.34 119.84 79.63 191.87 132.07 161.08 26.28 44.32 181.38 162.98 285.39 160.47 213.18 53.89 82.53 196.99 136.78 434.32 259.06 104.37 112.34 158.72 60.49 295.30 360.39 116.55 179.03 221.05 158.12 299.96 213.18 199.16 207.80 314.67 279.64 335.89 220.44
892.19 187.90 352.60 125.55 97.50 119.68 214.69 116.50 151.59 81.29 62.46 115.95 188.26 177.74 155.87 92.13 268.79 296.93 182.15 151.06 148.39 290.80 142.42 133.49 181.11 122.12 139.36 90.33 160.11 99.22 187.53 171.08 295.08 54.77 206.61 86.20 152.56 194.65 189.22 117.03 159.07 185.24 142.12 176.63 150.87 183.45 215.45 23.01 67.89 229.11 33.69 86.49 109.47 47.47 354.25 100.30 136.14 115.99 167.96 129.78 250.04 133.94 111.79 62.12 182.43 176.85 226.40 141.09 250.12 202.92 177.64 80.16 218.47 211.65 151.65 178.81 157.55 277.81 265.97 80.73 215.21 132.69 136.19 140.52 0.00 103.43 184.80 185.20 131.06 264.07 217.53 211.21 194.89 182.93 112.11 89.22 137.72 161.69 269.67 248.08 101.44 178.39 174.91 56.46 147.24 136.10 186.28 128.65 184.58 159.90 59.12 109.55 255.94 39.51 158.58 396.04 128.90 242.41 120.70 129.73 132.59 73.78 122.01 120.94 143.02 95.34 117.86 165.10 75.77 138.21 128.56 328.07 85.45 68.00 154.71 55.61 107.93 61.33 148.46 62.40 178.94 153.77 216.22 110.45 154.82 142.60 140.62 82.31 225.16 51.77 114.24 133.04 70.87 231.03 173.31 151.09 84.81 143.10 223.05 102.28 239.83 323.72 175.73 187.50 73.34 47.90 151.12 259.44 325.08 213.57 63.86 210.62 68.71 225.97 178.20 199.98 301.13 236.45 217.54 226.96 120.01
838.56 267.20 291.64 45.21 138.84 41.96 275.36 178.63 100.71 155.63 115.21 203.96 204.69 100.11 54.35 131.12 323.66 313.56 103.85 78.61 100.51 237.17 156.40 205.51 240.67 129.50 99.69 158.10 220.16 45.75 141.34 247.81 278.50 83.90 181.44 53.96 87.65 111.37 255.56 196.13 68.22 99.34 192.42 167.24 240.29 255.47 260.42 105.95 72.22 288.77 112.16 32.86 87.72 104.11 318.55 110.00 211.62 189.15 175.91 181.71 311.09 117.22 101.12 112.05 113.44 255.95 148.99 227.40 197.22 143.99 142.38 59.81 222.48 273.27 206.35 190.85 98.62 254.23 198.94 67.04 278.18 96.10 143.57 220.55 103.43 0.00 250.03 255.70 96.71 277.17 214.85 282.89 250.35 167.57 77.12 173.86 201.09 148.04 249.69 171.42 14.20 156.99 231.98 90.28 157.11 209.56 240.62 196.51 103.84 220.95 105.46 181.57 293.60 88.38 234.20 317.37 208.60 183.33 104.16 219.00 211.69 152.88 32.45 200.04 209.15 49.22 24.09 183.21 62.13 222.72 110.73 277.87 59.52 47.22 237.19 111.58 19.95 126.65 200.27 162.11 217.93 224.17 197.92 50.46 233.92 203.65 212.79 28.68 267.73 99.14 217.67 203.64 92.31 299.48 115.07 198.63 43.10 235.87 282.97 51.29 292.83 276.01 129.41 243.47 157.48 81.61 235.63 263.07 326.94 284.31 51.78 211.10 96.56 186.30 244.54 199.09 357.10 148.47 238.33 176.99 77.76
1041.67 65.59 501.15 263.31 223.50 264.76 133.97 116.61 265.75 176.02 175.66 123.87 292.58 321.74 304.38 204.43 265.12 229.33 309.04 309.22 272.84 442.00 276.66 90.35 147.22 239.50 274.16 166.98 118.58 232.72 300.73 110.90 351.26 180.88 323.99 251.90 299.93 340.98 187.27 77.71 313.56 298.75 154.74 302.39 47.14 29.83 201.54 195.35 213.88 198.79 181.18 249.34 255.89 160.67 497.65 204.01 147.71 129.57 293.72 151.22 274.72 288.67 246.58 192.53 318.60 56.50 356.82 107.08 374.17 346.71 297.14 233.04 331.67 152.48 151.97 281.71 312.31 403.81 396.38 224.98 165.29 264.87 253.57 99.27 184.80 250.03 0.00 77.93 255.11 330.92 298.49 36.63 186.59 296.13 251.40 137.51 128.89 274.89 425.58 393.05 235.83 266.81 171.47 202.15 233.36 120.42 202.94 124.03 322.34 87.79 207.76 103.73 244.38 194.98 99.39 527.68 113.22 397.88 233.90 115.82 83.63 120.96 272.89 106.62 103.70 260.81 268.78 174.53 228.71 68.12 247.86 474.40 222.79 243.62 96.84 168.81 255.05 191.67 117.80 122.40 223.25 158.73 338.19 261.27 107.38 192.12 74.64 245.16 137.62 211.02 98.56 117.36 217.20 134.82 320.32 153.55 255.57 119.57 40.79 237.99 146.48 442.98 310.53 176.65 148.94 196.45 68.38 371.41 342.71 121.47 233.52 294.09 181.91 360.77 198.29 272.20 241.69 373.61 347.95 328.25 264.43
1037.30 52.96 484.61 251.91 187.58 253.54 113.04 119.56 259.84 129.07 183.91 90.90 232.33 312.34 292.86 195.38 234.72 257.96 317.79 295.70 286.46 441.04 240.02 76.11 69.29 236.04 278.89 132.90 143.74 220.85 287.16 176.09 370.17 200.80 320.53 236.19 273.91 336.49 223.74 77.49 293.34 318.03 173.65 256.09 72.30 95.02 219.32 168.38 225.69 242.12 182.82 239.75 244.75 180.59 454.19 227.40 72.41 148.94 247.42 102.32 235.13 272.65 250.80 200.19 312.69 43.93 351.50 47.31 362.96 347.34 316.35 214.90 294.28 108.53 87.16 232.48 301.97 365.43 388.11 220.80 140.92 238.00 221.97 62.67 185.20 255.70 77.93 0.00 243.90 282.14 281.47 86.84 144.05 269.96 226.80 128.11 54.61 281.08 421.40 388.56 251.75 295.26 111.18 205.52 182.07 63.08 218.54 78.20 310.94 61.77 208.56 100.05 285.24 194.19 127.84 516.47 66.66 397.09 234.72 140.10 74.58 112.00 257.18 85.56 65.79 223.35 257.83 188.64 206.87 51.32 240.20 465.01 207.08 208.48 48.70 177.56 244.86 167.53 139.65 144.45 147.96 109.69 299.33 245.56 141.90 137.44 91.82 236.20 95.13 197.14 74.16 83.44 216.24 159.98 306.08 160.88 247.05 53.25 98.29 223.91 87.90 445.79 311.46 138.49 124.32 193.27 64.14 318.90 357.10 85.59 224.87 260.17 201.19 347.77 225.77 238.28 198.93 346.62 313.21 332.30 248.72
793.40 242.71 376.28 97.92 56.32 122.49 245.70 212.31 61.25 123.16 104.39 173.39 107.98 173.14 115.75 56.70 267.75 373.50 159.62 145.19 90.20 319.83 66.89 201.80 225.95 46.87 65.68 114.12 263.31 60.71 92.33 286.20 370.95 87.81 128.84 91.66 166.98 189.00 309.25 193.06 155.58 132.76 262.15 107.61 226.77 246.95 330.57 154.07 106.31 309.00 111.13 126.93 45.24 94.44 338.01 176.17 179.82 204.79 101.09 164.92 241.74 194.51 30.37 80.81 114.10 251.24 161.03 196.59 119.06 126.23 196.13 114.36 128.82 218.96 165.88 105.74 95.13 196.92 175.41 100.16 226.01 50.63 51.00 191.55 131.06 96.71 255.11 243.90 0.00 209.35 291.82 262.67 172.38 91.98 54.37 165.82 190.14 73.14 300.76 222.49 110.91 233.20 183.35 74.60 124.06 187.85 295.66 165.70 156.95 211.26 147.27 224.91 369.69 91.55 213.79 272.57 180.36 195.98 21.21 244.85 177.50 194.06 110.51 198.76 212.84 143.29 118.51 238.78 106.50 209.89 14.02 340.97 71.79 107.23 209.26 97.54 111.54 120.77 245.49 175.07 140.17 195.64 145.56 87.32 251.07 154.12 217.51 122.75 265.03 125.47 182.54 169.78 136.73 308.87 178.77 282.15 92.02 202.92 274.08 77.90 261.42 309.43 90.05 182.32 204.40 146.52 218.62 185.98 347.31 236.35 125.58 125.43 77.95 147.47 298.23 123.17 295.95 184.71 155.95 247.44 71.39
988.62 272.73 547.02 268.78 180.58 288.37 237.53 299.20 249.73 182.78 234.90 245.08 101.37 340.94 291.70 199.65 157.89 470.22 327.42 340.86 275.37 468.98 146.10 301.31 232.15 183.26 237.52 191.82 346.78 232.03 185.72 394.95 528.46 231.39 203.67 252.59 323.69 361.53 428.21 286.49 341.35 312.66 396.68 153.38 309.77 345.28 420.22 287.08 266.03 436.75 240.42 276.29 189.45 219.91 515.27 333.68 211.12 318.70 148.53 231.27 112.77 362.34 213.79 216.79 278.45 296.87 318.76 259.21 314.28 268.31 379.55 271.87 170.40 210.79 226.63 144.22 249.78 200.01 307.85 256.71 231.47 227.89 171.95 258.64 264.07 277.17 330.92 282.14 209.35 0.00 437.45 325.10 164.21 181.12 207.40 283.00 227.53 159.88 441.34 375.77 269.58 399.51 181.58 222.22 203.81 219.06 413.40 243.85 312.80 270.23 286.15 294.02 461.43 231.68 340.73 407.52 247.02 376.28 203.78 365.83 282.09 260.45 256.02 273.19 265.84 289.05 278.46 331.19 248.93 291.00 207.32 512.29 239.62 262.11 261.05 228.05 259.10 223.43 357.30 292.17 185.74 208.23 215.32 258.74 341.49 214.61 309.01 280.47 267.77 307.95 232.36 239.42 292.75 397.45 339.70 381.23 262.39 244.02 318.06 225.88 260.00 448.71 232.13 154.27 300.46 290.24 302.24 113.24 552.28 231.90 276.51 123.76 198.67 268.48 432.97 121.75 203.53 367.28 137.80 391.65 228.91
1000.65 298.93 279.85 244.33 282.88 212.70 314.43 242.81 278.99 269.51 271.35 251.17 347.22 236.18 252.01 301.95 418.53 179.67 249.70 217.26 282.26 292.18 328.83 260.98 278.36 310.32 276.67 273.48 181.87 231.11 324.15 208.41 186.08 265.66 358.42 210.66 215.35 227.10 111.22 243.34 221.31 290.75 150.90 372.77 253.31 268.66 167.70 240.54 220.94 120.52 251.22 186.63 269.83 265.00 199.16 166.23 245.68 198.93 364.25 266.66 417.13 161.47 275.32 274.83 299.54 303.16 349.16 267.10 373.50 347.72 205.17 211.73 401.81 296.56 259.41 349.31 307.51 446.25 388.85 227.13 332.35 257.15 316.94 264.61 217.53 214.85 298.49 281.47 291.82 437.45 0.00 313.33 306.69 350.38 255.85 231.38 226.86 333.66 412.51 366.12 208.90 196.57 269.44 266.90 337.00 218.39 102.70 244.48 301.05 252.68 213.76 240.89 153.21 257.04 209.25 519.43 254.91 372.07 289.52 201.20 258.90 200.09 241.34 247.25 269.33 170.23 214.00 134.11 212.39 274.29 287.01 302.47 239.77 227.30 260.38 264.50 211.97 278.86 201.48 239.78 321.23 280.12 380.76 226.74 200.35 309.69 259.90 190.77 323.77 235.56 240.25 238.75 217.24 229.97 278.80 160.36 199.80 252.79 318.24 236.31 339.57 390.35 313.04 296.75 215.64 234.59 277.16 439.01 195.71 315.89 201.71 348.73 262.65 349.36 122.24 326.84 408.00 307.27 407.32 254.49 244.47
1056.07 58.07 505.40 296.95 206.35 291.58 120.38 129.58 298.92 142.32 199.06 116.89 282.20 334.22 325.86 219.85 245.85 252.85 338.59 318.21 306.01 454.97 253.27 110.40 153.76 266.67 303.31 148.55 138.63 258.55 300.41 104.92 372.19 214.05 336.39 277.11 308.97 353.95 208.48 99.73 327.63 331.28 175.67 272.08 67.19 51.04 181.55 194.64 235.09 192.81 198.47 253.64 273.42 193.84 499.26 225.22 126.80 149.62 280.75 149.63 274.99 305.57 275.74 225.70 346.22 42.91 389.35 101.66 381.73 366.87 318.35 223.08 330.69 144.96 142.31 284.29 321.50 386.66 418.74 244.68 151.78 300.88 252.60 99.54 211.21 282.89 36.63 86.84 262.67 325.10 313.33 0.00 181.64 285.61 270.76 156.89 120.81 296.73 436.46 419.33 272.46 297.88 158.00 220.41 230.17 118.83 211.76 119.20 355.98 96.83 234.82 124.94 238.40 203.46 130.46 535.24 82.31 406.36 259.45 137.03 108.69 142.98 300.02 104.80 73.74 264.58 287.85 205.60 236.89 76.30 275.48 470.09 259.42 243.69 101.78 198.36 270.84 182.68 138.50 159.03 202.35 148.35 344.68 273.42 144.01 190.53 94.69 254.21 126.54 220.33 96.97 106.98 230.17 146.97 340.37 154.10 277.43 115.75 30.35 259.65 129.02 464.19 339.68 171.70 168.91 219.53 78.74 367.91 362.76 107.88 240.52 276.55 214.44 370.06 219.50 261.82 214.72 398.36 342.30 349.18 265.98
950.34 128.40 513.31 256.80 162.36 266.58 73.32 170.36 233.63 113.60 143.08 113.34 185.70 295.58 279.72 175.86 143.75 339.46 282.06 297.61 248.37 442.27 199.64 165.47 87.82 180.73 236.66 104.56 221.54 216.91 239.52 251.99 418.10 167.77 248.95 227.30 275.82 318.15 292.74 141.23 292.60 265.41 252.35 209.13 160.57 198.79 295.64 215.02 206.13 293.76 170.48 246.84 217.62 149.97 453.42 223.32 71.64 193.46 213.93 68.64 173.02 297.87 202.75 173.93 264.99 150.79 317.82 100.63 276.00 298.61 316.45 232.93 269.86 46.58 76.20 199.42 267.51 233.55 332.35 208.82 67.26 223.01 173.79 114.31 194.89 250.35 186.59 144.05 172.38 164.21 306.69 181.64 0.00 223.75 210.43 172.56 96.77 244.99 409.42 368.39 249.62 328.03 37.25 184.55 127.99 88.30 276.54 104.37 315.43 122.08 220.84 156.97 317.10 167.60 196.40 441.06 102.69 368.36 193.59 226.96 137.76 135.21 244.04 128.86 121.51 236.88 241.80 207.21 211.20 146.67 186.40 478.54 208.69 219.44 117.70 141.83 230.40 152.26 210.00 166.89 101.33 59.55 271.29 231.41 198.53 70.28 168.14 242.66 106.04 199.04 88.03 100.92 231.70 248.25 312.46 256.51 238.16 104.54 173.73 220.05 97.26 440.69 262.43 9.94 192.10 220.09 157.91 247.65 441.58 87.57 225.03 155.06 171.21 311.10 296.06 176.95 123.57 340.27 257.43 383.74 228.63
826.54 280.41 415.88 169.22 96.02 185.59 279.61 249.68 112.00 146.10 150.45 207.43 126.85 209.43 175.66 115.09 299.54 434.93 222.95 237.17 120.91 330.34 85.83 246.55 255.73 74.05 97.53 137.06 325.59 121.82 26.23 352.42 437.64 150.96 51.36 153.45 232.50 232.59 335.67 242.77 235.79 153.17 300.57 85.91 257.29 295.51 376.18 205.94 157.57 381.49 155.97 173.55 117.50 135.46 407.64 245.71 202.76 277.48 84.57 187.86 258.46 253.77 108.22 149.83 139.81 294.06 159.67 222.65 152.20 116.67 273.98 180.09 112.15 270.33 205.58 87.24 90.29 157.53 156.94 138.58 284.40 122.89 59.98 224.80 182.93 167.57 296.13 269.96 91.98 181.12 350.38 285.61 223.75 0.00 120.05 233.57 219.17 21.24 310.09 219.50 173.34 311.26 223.05 156.20 125.21 210.79 343.96 194.73 152.81 236.47 217.68 250.12 414.39 166.22 298.28 276.47 203.30 217.19 84.31 311.07 235.89 239.26 156.46 229.47 235.78 189.91 155.32 276.43 153.49 236.31 86.28 380.57 131.05 161.85 239.72 143.60 164.28 166.46 308.59 206.75 192.04 216.70 59.07 150.42 312.45 163.49 254.25 169.37 295.08 207.59 205.48 199.83 208.33 344.97 206.47 322.14 150.58 230.71 307.33 130.58 292.79 329.84 93.49 223.83 250.10 201.39 249.22 109.58 439.29 263.27 164.00 128.36 141.05 106.40 324.65 106.47 337.46 207.33 103.84 319.70 143.65
837.90 249.25 348.84 88.01 88.85 91.84 256.27 198.60 70.13 142.25 91.33 197.82 136.42 157.28 94.98 69.78 276.20 334.53 143.76 147.08 87.38 289.10 93.42 203.04 238.65 70.30 59.31 135.78 232.87 51.28 120.19 276.48 326.89 75.67 141.06 45.19 143.53 159.60 281.55 199.46 139.42 118.55 222.75 133.19 239.85 254.38 313.74 127.64 70.33 300.64 103.93 82.51 17.95 90.73 334.28 132.11 183.20 199.10 124.52 172.46 247.59 157.50 24.00 71.55 121.35 259.28 154.66 206.42 163.56 131.50 179.60 101.34 156.68 249.39 190.43 133.60 113.42 237.40 196.46 60.76 233.25 49.45 84.37 191.06 112.11 77.12 251.40 226.80 54.37 207.40 255.85 270.76 210.43 120.05 0.00 177.97 172.19 111.94 258.78 217.06 71.40 213.29 202.57 73.41 132.06 180.66 270.95 185.12 141.30 212.77 122.68 197.01 336.57 72.60 229.90 315.99 202.02 231.88 35.74 241.84 190.58 156.21 81.00 198.14 197.02 98.91 71.06 195.08 74.00 222.97 41.88 326.10 37.51 59.09 212.50 98.18 57.17 88.08 232.77 163.71 156.59 193.40 163.40 60.66 237.25 140.15 218.75 86.69 265.84 128.45 201.65 182.85 130.51 302.50 132.30 243.33 56.05 215.06 273.59 30.18 269.45 294.96 95.32 200.49 185.45 123.57 231.70 213.84 356.89 256.59 80.81 158.80 88.67 145.92 270.53 148.16 314.12 185.69 162.74 220.15 30.83
959.22 129.21 399.89 192.18 156.82 181.34 190.08 46.49 191.13 100.22 111.03 80.37 242.25 197.84 195.99 166.32 271.48 266.40 205.10 192.41 209.40 332.18 173.13 91.47 143.62 186.50 217.21 99.02 123.68 177.20 230.11 131.67 335.17 115.16 227.75 161.89 195.59 225.17 176.97 59.84 182.02 252.49 148.74 219.43 117.37 107.68 176.04 99.77 132.72 198.58 109.91 153.55 183.02 125.65 388.44 144.05 121.33 76.13 221.65 103.92 252.57 194.95 184.34 151.34 238.22 119.66 285.98 84.71 284.88 277.91 213.00 132.36 266.60 172.21 113.30 227.38 233.26 335.62 337.83 117.21 171.63 169.29 173.59 86.36 89.22 173.86 137.51 128.11 165.82 283.00 231.38 156.89 172.56 233.57 177.97 0.00 101.29 221.86 317.81 318.07 173.04 214.90 141.70 134.88 190.21 94.04 162.16 90.23 242.00 96.49 96.52 67.64 235.46 117.93 117.87 438.39 78.26 299.62 167.83 90.32 64.00 37.35 193.03 52.09 83.15 154.06 175.74 97.27 132.12 96.39 151.80 364.58 165.11 140.48 79.41 117.88 164.28 94.65 109.05 26.82 192.52 115.05 250.09 165.42 118.39 155.10 106.60 156.71 168.93 74.72 92.48 73.68 107.38 194.60 235.50 127.17 156.26 120.34 168.89 172.87 189.07 383.02 253.58 169.01 49.22 95.77 105.12 293.43 319.89 149.64 135.46 234.45 145.95 301.36 187.99 221.87 261.93 288.64 260.96 280.29 185.41
983.54 88.95 433.48 222.17 133.82 217.99 92.64 90.13 236.17 86.60 129.80 37.14 189.86 267.79 246.11 150.16 202.79 242.69 263.18 249.17 231.85 396.63 193.21 104.47 68.44 181.43 228.30 82.20 150.27 194.55 233.09 183.45 378.81 150.63 265.92 187.29 227.38 289.96 215.35 79.28 246.81 269.01 205.88 201.48 93.86 132.08 216.26 139.54 180.70 223.95 142.32 191.70 190.14 131.09 411.72 209.16 29.94 122.19 192.81 57.19 190.27 218.04 196.19 145.58 265.56 98.54 306.37 40.39 309.20 297.47 261.74 161.14 258.41 86.64 32.55 177.87 261.30 314.13 333.50 166.19 122.43 221.64 167.36 44.50 137.72 201.09 128.89 54.61 190.14 227.53 226.86 120.81 96.77 219.17 172.19 101.29 0.00 230.38 366.79 333.95 197.14 279.36 59.52 172.57 127.46 8.47 227.90 24.44 281.20 42.70 161.63 100.37 259.40 159.73 147.56 462.71 44.99 355.55 180.11 161.75 76.46 63.94 210.43 71.16 61.41 202.64 213.07 175.27 162.11 72.88 196.14 444.30 193.46 153.87 40.31 122.95 196.33 125.06 154.24 90.69 105.49 56.80 244.72 192.76 140.83 82.83 88.76 188.14 96.91 166.16 30.33 28.83 187.40 181.54 274.40 185.24 194.34 42.87 127.03 181.50 117.78 403.32 264.67 86.83 127.15 164.43 85.79 267.57 374.40 89.03 182.28 205.56 152.17 294.01 226.37 183.67 198.08 324.85 264.15 311.06 203.02
828.74 266.44 394.64 153.96 117.26 181.03 266.45 244.82 97.61 157.22 129.21 219.52 105.61 188.19 161.05 129.60 317.77 430.99 201.71 216.88 118.09 309.10 98.24 257.67 266.85 84.86 82.52 148.18 317.35 121.43 25.84 332.77 416.40 134.43 72.60 138.92 224.11 229.85 350.91 253.89 216.26 152.78 303.81 64.67 268.41 275.76 377.14 184.70 166.79 375.73 134.73 152.31 101.28 114.22 386.40 224.47 213.88 256.24 73.34 198.98 247.23 232.53 102.60 136.85 118.57 277.78 158.88 233.77 154.40 108.43 268.36 170.40 133.39 287.27 211.32 66.00 89.90 136.29 159.14 157.71 293.52 106.67 81.22 235.92 161.69 148.04 274.89 281.08 73.14 159.88 333.66 296.73 244.99 21.24 111.94 221.86 230.38 0.00 312.29 219.11 152.10 293.85 230.61 143.77 139.94 221.91 341.80 215.97 154.41 220.19 208.15 266.34 417.63 148.53 286.93 278.67 214.42 216.40 81.85 291.42 246.24 231.02 156.07 240.59 243.28 168.67 154.93 272.88 166.67 247.43 70.06 359.33 109.81 152.45 237.27 122.36 152.70 145.22 289.35 224.09 189.98 229.70 80.31 147.35 311.92 184.73 265.37 148.13 299.17 186.35 216.60 210.95 192.77 356.09 196.57 307.79 133.86 241.83 311.77 126.64 291.59 329.45 72.25 245.07 228.86 192.12 260.34 130.82 420.45 274.39 165.32 107.12 135.46 108.60 339.89 85.23 337.81 208.93 125.08 303.48 127.43
792.26 425.79 221.72 207.41 299.64 242.17 447.82 347.86 270.10 316.43 276.01 363.15 358.76 199.16 195.34 307.77 457.22 497.42 185.64 233.00 241.15 174.75 295.24 361.40 399.69 283.46 279.00 319.35 412.31 260.59 286.45 420.71 360.81 244.70 292.83 242.35 225.39 202.49 421.46 369.23 224.34 241.06 362.59 326.00 384.28 403.64 453.58 273.99 219.59 461.27 272.96 225.92 271.87 264.91 258.59 313.46 373.09 366.97 330.85 358.37 464.53 273.87 270.39 279.15 223.19 429.05 223.24 384.07 232.89 246.90 232.32 242.11 333.30 434.07 373.91 315.91 233.66 374.26 219.56 200.60 441.23 268.19 269.39 383.57 269.67 249.69 425.58 421.40 300.76 441.34 412.51 436.46 409.42 310.09 258.78 317.81 366.79 312.29 0.00 138.74 248.19 246.65 388.47 240.65 350.78 358.32 410.79 353.18 173.56 394.63 299.99 337.46 428.55 241.82 395.09 261.56 384.23 118.44 289.88 379.36 376.27 325.98 220.17 365.38 371.54 242.28 233.35 359.86 215.51 376.10 291.31 224.98 248.50 223.87 397.22 272.38 247.69 288.24 382.57 332.07 374.26 388.91 270.49 247.78 407.02 357.09 377.11 221.74 415.10 284.46 378.65 366.50 270.35 453.55 155.24 384.16 243.60 392.72 452.46 259.74 472.96 111.77 261.11 404.27 340.60 263.41 389.01 372.57 409.25 445.56 226.02 343.82 264.20 203.69 414.71 338.38 503.43 196.51 355.29 225.00 268.80
778.02 389.69 236.41 141.78 278.81 183.80 418.38 315.91 173.16 291.94 255.10 345.36 285.03 149.74 122.08 263.98 459.97 479.56 136.22 183.58 150.34 194.91 269.69 318.33 384.41 235.73 173.07 300.95 366.83 207.18 193.27 396.95 399.35 236.67 246.50 180.78 175.97 157.52 369.37 344.38 174.92 102.98 352.74 235.91 361.54 368.29 418.55 251.88 212.65 416.62 243.00 179.49 204.08 241.06 287.93 250.65 337.44 344.71 227.24 338.20 401.13 224.45 197.31 236.61 146.67 404.20 119.13 346.38 103.68 131.96 235.74 210.05 251.30 412.95 321.93 242.18 165.86 300.33 160.03 203.35 424.52 171.86 244.23 353.66 248.08 171.42 393.05 388.56 222.49 375.77 366.12 419.33 368.39 219.50 217.06 318.07 333.95 219.11 138.74 0.00 157.22 271.59 365.81 206.47 302.79 342.42 400.94 332.66 82.75 353.81 248.48 294.39 428.65 223.42 352.02 279.54 341.46 35.24 216.62 369.24 357.96 307.87 154.14 331.20 353.14 195.89 160.09 316.07 194.99 355.58 208.47 201.10 202.72 180.08 363.45 249.20 176.44 264.23 350.51 309.01 350.79 339.16 227.10 181.75 366.41 338.69 334.04 183.67 408.16 260.14 356.12 343.32 241.07 433.03 105.82 361.87 186.12 358.74 409.39 203.30 439.46 250.51 156.19 378.33 309.38 240.38 367.16 308.46 447.79 422.98 194.80 286.54 219.82 138.42 358.35 264.65 437.96 97.62 287.32 262.51 206.76
836.33 263.25 277.44 49.82 146.24 28.93 261.16 184.44 106.05 152.92 113.04 201.58 193.50 85.91 68.55 127.17 315.00 327.76 92.18 86.84 112.70 232.60 158.14 191.31 250.86 139.17 112.31 161.96 209.61 55.94 151.53 253.37 264.30 98.10 180.75 39.76 94.79 121.65 250.70 193.90 82.42 86.79 195.52 181.44 229.70 241.27 274.62 98.30 58.02 281.06 106.25 22.27 80.13 118.31 305.77 95.80 204.95 187.49 190.11 180.98 310.36 110.75 92.99 110.47 113.25 253.72 145.20 215.14 196.49 148.60 138.77 52.83 221.75 271.10 205.62 179.90 103.23 253.50 213.14 58.38 271.20 86.25 140.63 216.61 101.44 14.20 235.83 251.75 110.91 269.58 208.90 272.46 249.62 173.34 71.40 173.04 197.14 152.10 248.19 157.22 0.00 142.79 226.90 86.33 166.10 205.61 243.72 189.53 108.45 217.00 91.26 167.37 307.80 87.65 221.17 331.42 195.79 187.94 100.46 212.02 209.46 150.65 37.06 197.81 202.17 38.67 38.29 175.50 58.18 218.77 111.35 280.33 45.50 43.27 230.21 119.89 19.22 128.08 193.29 163.84 213.98 225.40 203.09 49.73 231.63 202.92 202.20 26.45 253.53 104.21 210.45 196.66 83.85 285.28 102.29 207.02 28.90 233.64 273.64 62.33 282.24 263.46 134.02 251.78 152.16 83.16 231.68 269.60 312.74 272.09 37.58 210.37 99.89 191.44 245.35 193.79 361.21 147.74 231.73 189.75 66.75
957.12 286.11 267.29 189.65 245.45 171.72 346.34 208.11 219.30 233.24 193.57 262.94 298.90 121.85 205.29 226.38 403.04 250.77 135.37 88.01 190.35 268.54 286.69 219.15 270.86 260.55 228.20 242.28 216.94 197.81 293.40 239.83 237.90 195.86 309.95 173.63 109.80 141.25 243.68 235.70 98.40 216.94 213.53 308.51 230.69 251.19 284.20 155.38 170.82 239.28 202.23 143.06 222.92 181.72 238.84 104.71 289.90 198.54 314.77 272.29 401.99 61.32 224.56 213.58 227.62 295.52 256.45 264.12 316.73 275.19 58.80 158.37 345.03 319.60 290.72 309.92 229.82 396.29 318.78 177.27 359.11 217.36 274.62 260.14 178.39 156.99 266.81 295.26 233.20 399.51 196.57 297.88 328.03 311.26 213.29 214.90 279.36 293.85 246.65 271.59 142.79 0.00 301.97 185.42 289.54 270.89 229.66 275.64 211.89 276.86 141.98 202.70 181.90 202.37 167.42 455.10 252.04 266.52 243.25 198.48 251.26 232.79 179.85 225.87 253.77 158.90 168.36 133.72 192.18 251.67 230.23 231.98 184.04 186.06 266.94 189.86 162.01 209.95 201.09 211.43 313.19 305.72 295.93 183.21 204.70 294.55 234.86 147.24 336.87 140.18 266.70 283.98 107.52 280.91 165.77 215.93 171.69 295.56 276.41 200.87 370.28 286.00 260.61 318.09 214.52 130.49 243.32 379.21 217.66 323.46 164.35 329.63 202.96 292.89 232.66 309.50 400.50 207.12 327.26 126.09 182.46
976.75 125.06 476.06 235.06 127.03 240.45 65.79 140.10 232.95 95.43 132.03 84.20 184.33 289.76 257.98 146.10 181.00 302.21 276.24 274.75 215.47 416.27 179.23 148.65 50.57 172.42 241.36 93.88 197.78 199.92 230.86 236.87 425.90 148.08 256.91 213.40 264.77 310.29 268.08 109.84 269.09 265.95 241.76 188.22 130.40 168.62 273.01 190.55 168.88 276.72 143.29 210.18 213.79 127.87 420.55 231.12 38.77 181.23 179.55 68.68 159.45 260.62 213.72 159.73 269.79 143.26 316.03 99.76 302.41 300.31 300.07 208.20 249.34 83.83 54.28 164.61 254.94 270.80 332.07 187.87 62.91 233.98 165.93 97.27 174.91 231.98 171.47 111.18 183.35 181.58 269.44 158.00 37.25 223.05 202.57 141.70 59.52 230.61 388.47 365.81 226.90 301.97 0.00 169.35 134.36 51.05 243.67 71.50 283.06 101.06 183.59 145.00 301.98 162.18 170.61 455.92 87.57 365.08 201.10 198.29 109.95 123.46 222.30 113.74 84.26 219.59 235.98 207.25 197.90 109.42 197.37 451.65 204.34 201.45 93.04 136.01 226.99 115.65 185.00 137.75 99.96 26.65 265.03 220.70 183.41 62.42 145.51 214.36 98.51 161.79 72.91 68.02 194.45 218.08 291.02 232.75 211.22 71.67 170.39 199.53 90.93 412.15 271.86 27.31 160.06 182.84 122.33 254.31 415.20 104.94 189.32 192.31 149.11 303.24 258.81 187.08 140.94 337.58 257.12 353.64 219.09
868.00 208.79 363.77 105.12 85.14 110.70 230.98 146.62 105.94 93.00 56.47 155.30 159.94 155.42 128.04 80.08 262.80 298.90 152.55 156.05 123.19 293.85 119.31 167.75 190.28 82.15 104.66 94.48 209.29 55.29 143.33 227.54 323.69 30.20 166.64 71.37 157.80 173.87 245.68 153.64 153.69 140.39 198.58 145.04 197.94 220.94 271.91 79.47 51.74 234.40 36.53 91.48 55.46 41.48 313.57 128.91 149.66 144.96 136.37 141.49 239.66 141.93 69.35 38.50 127.90 213.46 189.29 162.98 193.66 169.89 182.95 61.35 188.51 214.53 150.48 151.31 134.99 246.19 241.81 40.05 218.05 89.25 96.22 159.00 56.46 90.28 202.15 205.52 74.60 222.22 266.90 220.41 184.55 156.20 73.41 134.88 172.57 143.77 240.65 206.47 86.33 185.42 169.35 0.00 110.13 164.10 241.26 151.28 163.75 162.74 112.36 163.76 309.88 16.95 204.24 347.17 150.90 219.40 80.29 186.19 151.49 122.96 92.36 124.73 146.67 96.67 101.66 174.68 54.51 176.96 73.71 335.10 42.26 43.06 165.80 49.62 71.44 57.76 191.09 108.06 159.51 158.93 180.84 80.74 204.00 132.22 183.46 89.30 234.33 108.23 162.54 143.74 77.90 280.21 135.90 207.55 68.61 152.27 241.53 55.86 256.12 307.52 141.03 180.62 129.80 97.94 189.87 235.82 348.39 220.69 65.47 170.65 23.55 191.27 234.66 160.01 294.25 199.96 181.08 210.14 66.64
917.00 196.71 426.93 161.01 70.71 179.29 188.06 206.10 157.27 89.99 122.81 140.50 105.72 236.37 196.46 80.81 207.99 370.15 223.79 228.77 171.39 376.72 121.81 180.73 153.00 88.13 149.29 99.03 269.48 111.36 114.10 286.59 427.25 119.30 172.62 126.34 234.13 257.11 301.46 170.70 225.33 203.42 280.13 87.14 209.09 247.24 323.94 170.25 151.01 313.54 127.17 164.20 114.11 107.82 416.93 232.47 110.42 219.61 95.81 119.55 179.38 238.65 142.58 85.12 210.12 220.24 247.54 149.15 242.66 204.54 279.10 171.48 186.15 174.57 94.91 98.64 178.16 232.89 247.40 150.18 185.65 146.65 95.96 134.09 147.24 157.11 233.36 182.07 124.06 203.81 337.00 230.17 127.99 125.21 132.06 190.21 127.46 139.94 350.78 302.79 166.10 289.54 134.36 110.13 0.00 135.93 286.65 135.68 220.04 162.65 184.94 193.36 377.39 119.59 222.71 366.93 147.86 293.21 122.89 245.24 177.79 183.15 162.15 167.44 159.89 179.00 169.16 238.40 136.84 193.78 110.04 391.62 125.13 151.75 161.21 115.96 160.74 138.82 228.71 194.05 66.83 107.75 184.28 148.79 233.43 71.94 196.44 168.38 208.79 199.01 148.32 134.53 188.03 296.77 213.45 267.73 137.20 143.32 216.62 135.07 188.08 376.11 185.66 132.28 173.71 185.72 194.58 161.21 439.03 209.91 171.45 141.21 86.58 196.86 312.48 121.11 233.52 274.56 158.23 316.31 160.15
981.25 97.42 425.01 223.82 131.53 226.46 96.04 98.60 227.70 82.77 121.33 38.79 187.21 268.23 247.76 141.69 200.14 251.16 254.71 240.70 234.79 402.41 184.74 105.71 59.97 172.96 219.83 73.73 158.74 186.08 224.62 185.82 387.28 142.16 257.45 195.76 218.91 281.49 217.03 70.81 238.34 260.70 210.24 203.06 90.71 128.93 224.73 148.01 176.71 225.67 133.85 193.35 198.61 122.62 409.07 200.69 27.29 130.18 194.39 57.20 198.74 209.57 196.74 148.63 267.21 96.51 306.38 48.71 306.91 292.38 253.27 162.79 258.42 78.17 41.02 186.34 252.83 311.84 325.03 157.72 113.96 222.19 158.89 46.22 136.10 209.56 120.42 63.08 187.85 219.06 218.39 118.83 88.30 210.79 180.66 94.04 8.47 221.91 358.32 342.42 205.61 270.89 51.05 164.10 135.93 0.00 222.04 26.09 282.51 51.17 153.16 93.95 250.93 151.26 139.09 460.42 36.52 354.16 172.83 158.91 70.73 72.41 212.08 62.69 52.94 204.29 214.45 183.74 163.76 74.56 188.86 444.82 189.86 162.34 41.99 114.48 198.77 121.43 146.80 92.34 102.84 61.73 253.19 194.41 132.36 91.30 97.23 193.92 105.38 168.76 21.86 20.36 187.62 178.39 281.58 193.49 200.72 34.40 128.75 173.03 121.18 400.67 256.20 78.36 118.68 172.90 87.47 276.04 375.41 97.50 183.14 197.09 143.86 295.24 228.05 175.20 189.61 323.25 255.68 302.59 206.43
1035.47 228.04 382.55 279.15 270.88 247.52 286.22 157.56 301.52 230.62 231.51 190.76 342.17 279.16 286.83 272.24 354.86 118.30 292.68 245.32 314.13 394.88 309.83 163.55 247.17 298.05 307.10 235.31 92.63 266.60 337.49 106.84 189.89 235.33 379.38 254.87 243.73 278.08 34.10 187.63 234.93 325.57 48.20 340.59 164.07 173.11 72.81 167.31 205.84 50.48 207.07 221.45 256.37 227.58 301.86 168.88 204.90 131.89 341.67 234.51 365.37 253.54 279.98 235.83 321.28 225.06 382.67 207.72 401.16 374.15 232.23 217.61 398.46 280.41 220.41 344.26 338.43 440.35 423.67 210.19 301.36 279.68 283.98 196.99 186.28 240.62 202.94 218.54 295.66 413.40 102.70 211.76 276.54 343.96 270.95 162.16 227.90 341.80 410.79 400.94 243.72 229.66 243.67 241.26 286.65 222.04 0.00 203.46 320.72 199.44 207.49 166.97 118.52 225.79 119.35 554.25 202.75 400.45 274.45 112.32 191.78 178.69 272.26 176.58 197.12 205.05 248.82 95.94 225.10 185.05 283.66 377.78 258.09 231.93 209.14 235.72 246.79 234.71 113.78 137.21 280.45 242.18 389.93 261.56 97.65 257.93 169.47 225.59 278.21 196.07 208.15 220.01 206.62 171.04 300.32 57.66 248.18 237.01 228.34 245.99 303.03 407.85 343.47 270.98 112.94 192.20 178.07 403.82 238.33 250.33 226.28 343.68 217.71 384.18 45.12 321.79 360.12 342.82 391.25 221.71 272.81
959.10 87.87 451.10 197.73 109.38 203.49 114.05 83.68 223.89 73.17 117.52 12.70 191.77 243.35 221.67 128.45 185.48 267.13 250.90 231.83 228.65 376.32 181.48 90.66 83.17 169.70 216.02 79.32 150.11 178.54 213.21 183.19 372.36 138.35 246.09 177.98 242.76 285.01 217.42 67.00 242.22 244.57 195.72 202.93 90.83 128.15 225.90 139.20 156.26 209.84 130.04 167.26 196.77 118.81 414.51 199.14 32.73 116.66 201.03 62.64 192.47 234.38 192.40 142.38 241.12 109.93 302.51 30.89 284.76 288.57 274.12 136.70 263.86 104.26 40.77 186.09 249.57 289.69 320.11 152.58 134.41 208.41 155.63 30.39 128.65 196.51 124.03 78.20 165.70 243.85 244.48 119.20 104.37 194.73 185.12 90.23 24.44 215.97 353.18 332.66 189.53 275.64 71.50 151.28 135.68 26.09 203.46 0.00 256.76 52.34 151.61 85.99 254.54 153.12 135.28 438.27 36.89 336.87 169.02 155.18 67.39 63.78 185.99 49.77 56.19 178.20 188.63 162.11 137.67 80.53 179.72 419.86 186.05 152.58 47.96 110.67 184.46 120.92 144.44 66.25 108.28 57.92 253.80 168.32 129.73 91.05 98.40 167.83 111.80 154.87 25.47 16.55 170.16 178.51 265.09 180.18 185.56 54.33 112.92 169.22 139.19 406.11 252.39 98.81 104.82 157.21 89.28 275.79 359.32 113.47 162.47 193.28 127.73 269.57 228.44 171.39 212.44 311.28 251.87 327.40 196.83
804.63 306.94 291.10 59.03 207.67 120.01 348.85 272.05 96.54 224.98 172.35 269.46 241.59 90.04 80.53 201.75 381.41 401.69 76.52 123.88 67.59 234.03 202.30 277.93 301.66 177.22 105.44 234.02 289.53 126.56 128.57 343.59 347.42 168.89 187.19 101.85 124.04 105.59 286.62 281.49 122.99 77.24 286.78 219.08 300.66 327.83 335.80 177.57 143.78 333.87 193.55 124.90 123.35 174.10 257.37 204.25 281.64 270.55 227.75 261.32 372.09 164.75 140.75 153.86 89.47 341.31 101.48 263.63 130.29 141.11 176.04 147.32 226.17 330.41 283.10 220.41 107.06 275.00 186.64 124.79 345.97 118.38 190.95 278.99 184.58 103.84 322.34 310.94 156.95 312.80 301.05 355.98 315.43 152.81 141.30 242.00 281.20 154.41 173.56 82.75 108.45 211.89 283.06 163.75 220.04 282.51 320.72 256.76 0.00 285.08 199.71 253.99 361.00 161.11 311.62 295.01 282.41 117.99 144.62 302.24 295.65 250.17 71.39 287.75 290.83 131.34 87.57 269.62 119.09 279.68 142.93 255.79 121.49 133.63 280.70 179.20 99.56 188.73 286.58 236.49 286.87 256.41 173.17 99.00 307.89 270.15 293.64 129.08 339.29 189.12 282.23 273.31 181.03 357.13 53.89 302.47 112.71 307.64 352.27 125.13 362.45 253.91 135.79 310.37 230.71 168.07 292.59 262.39 373.03 355.90 124.20 243.10 152.86 170.13 275.60 221.21 370.33 54.52 243.20 210.58 124.14
1004.66 46.25 464.02 226.05 157.21 240.93 127.28 78.74 251.80 108.45 141.07 65.04 214.75 267.77 262.80 154.56 218.50 242.23 269.23 233.93 258.89 396.31 219.40 61.77 81.29 217.53 244.49 99.41 128.01 190.79 246.03 160.73 362.98 154.47 287.25 206.13 212.14 274.72 191.40 49.08 231.57 284.80 180.59 236.67 56.57 94.79 173.56 145.50 190.44 188.47 126.21 202.99 216.45 146.72 436.53 186.58 67.36 108.85 228.00 90.42 212.26 256.43 212.22 173.29 288.16 57.59 332.13 21.45 330.32 316.22 277.13 172.43 262.66 109.24 67.74 213.06 270.85 337.52 369.60 194.03 109.30 237.67 203.46 36.81 159.90 220.95 87.79 61.77 211.26 270.23 252.68 96.83 122.08 236.47 212.77 96.49 42.70 220.19 394.63 353.81 217.00 276.86 101.06 162.74 162.65 51.17 199.44 52.34 285.08 0.00 160.65 85.71 264.52 152.81 109.44 483.83 33.17 355.71 204.09 119.38 33.76 92.33 227.12 54.15 23.09 213.93 239.11 171.85 188.64 35.59 214.34 428.71 177.02 173.73 17.08 139.14 216.19 124.69 111.76 97.95 142.91 99.50 287.42 215.50 126.17 118.02 46.06 203.56 122.36 138.85 47.83 60.00 171.51 144.25 273.94 162.98 214.20 65.46 91.58 193.85 126.74 412.55 280.86 125.92 123.36 159.90 43.42 302.76 341.37 96.82 191.38 236.73 167.96 320.92 202.42 214.84 172.29 320.76 295.32 316.57 218.66
896.95 194.08 326.97 141.08 123.20 120.19 249.20 135.05 137.61 140.41 94.46 138.91 213.96 147.82 159.81 104.13 314.49 292.61 152.18 120.86 154.86 259.26 183.55 163.23 210.46 171.77 158.09 149.45 162.45 124.31 219.90 204.91 242.31 107.23 239.84 114.20 99.07 158.24 202.43 156.36 118.50 178.05 159.29 196.91 178.15 204.20 238.97 40.18 80.40 245.51 92.81 91.25 140.63 100.07 335.52 47.53 180.45 111.81 205.58 188.90 306.23 132.19 122.78 121.24 185.30 216.18 189.46 171.86 232.58 201.56 140.66 66.21 264.17 231.33 184.50 210.81 190.54 303.51 283.29 99.39 246.50 133.21 157.70 174.01 59.12 105.46 207.76 208.56 147.27 286.15 213.76 234.82 220.84 217.68 122.68 96.52 161.63 208.15 299.99 248.48 91.26 141.98 183.59 112.36 184.94 153.16 207.49 151.61 199.71 160.65 0.00 156.57 273.11 98.63 181.54 414.77 152.51 246.70 144.65 179.78 160.52 124.02 128.32 148.61 171.29 82.71 126.48 156.46 98.66 192.91 155.32 291.66 110.54 88.20 175.93 101.31 103.04 110.84 161.05 85.36 190.94 209.53 260.44 112.50 199.39 201.72 150.65 87.07 258.54 21.80 160.00 168.16 34.46 194.02 169.22 155.73 103.34 187.56 239.41 120.55 274.34 286.50 194.46 210.90 113.22 42.85 190.62 292.74 272.31 246.16 88.43 215.96 121.31 244.70 195.96 224.00 324.15 231.56 261.52 207.95 98.31
974.88 114.71 414.62 194.96 178.08 194.85 149.91 21.52 241.83 111.24 153.40 82.81 239.92 250.26 235.92 181.15 269.51 242.87 254.01 230.26 240.80 346.91 221.87 23.94 145.32 210.09 229.85 120.28 77.57 184.09 261.75 102.56 310.20 159.87 268.03 177.99 219.78 245.89 164.86 49.99 228.00 254.16 128.78 241.00 67.15 73.90 167.15 123.62 149.79 180.34 131.61 169.18 208.13 152.12 410.38 154.12 118.72 50.61 247.95 107.37 234.72 212.34 194.54 171.67 254.24 109.81 312.57 74.63 328.20 287.76 247.25 155.56 301.51 147.03 118.27 242.01 267.10 352.38 362.16 136.86 169.92 219.99 196.02 59.27 109.55 181.57 103.73 100.05 224.91 294.02 240.89 124.94 156.97 250.12 197.01 67.64 100.37 266.34 337.46 294.39 167.37 202.70 145.00 163.76 193.36 93.95 166.97 85.99 253.99 85.71 156.57 0.00 233.60 149.06 57.63 486.53 71.91 329.63 213.65 88.46 65.55 40.80 203.54 45.74 75.98 161.27 198.84 115.43 151.77 85.68 219.44 379.31 170.32 158.20 86.39 149.46 183.95 137.02 85.63 89.12 192.57 133.18 290.37 181.44 89.84 158.55 39.65 165.00 134.17 140.62 82.02 92.25 122.11 154.27 253.91 112.54 167.13 110.88 115.00 180.42 175.05 393.09 266.22 147.03 54.03 143.10 72.77 331.71 301.70 146.53 129.79 241.43 173.36 316.46 163.76 219.54 257.98 308.29 300.02 302.29 205.06
1101.09 283.70 433.06 302.37 353.44 313.14 346.97 227.98 374.44 306.53 297.95 254.38 421.67 303.75 306.57 348.07 417.84 68.87 317.27 269.91 361.32 445.39 397.48 209.66 295.94 378.06 377.11 297.49 170.36 332.22 411.52 133.48 249.85 308.19 452.01 320.49 291.70 323.15 84.42 244.48 280.30 356.50 113.82 424.37 235.18 214.55 160.98 232.93 271.46 131.67 289.63 287.07 347.08 303.41 352.37 239.32 278.22 197.51 415.70 281.73 426.76 243.22 345.60 309.86 365.66 278.16 414.91 255.92 462.70 401.15 240.70 294.41 467.66 329.10 282.48 414.30 355.78 514.38 472.43 275.81 351.68 361.46 371.63 255.35 255.94 293.60 244.38 285.24 369.69 461.43 153.21 238.40 317.10 414.39 336.57 235.46 259.40 417.63 428.55 428.65 307.80 181.90 301.98 309.88 377.39 250.93 118.52 254.54 361.00 264.52 273.11 233.60 0.00 292.93 176.20 599.07 243.73 440.49 348.48 145.14 241.87 255.76 289.61 252.68 262.55 270.67 314.44 192.49 290.72 234.01 357.69 413.88 323.71 299.08 259.46 304.80 312.41 281.57 163.87 251.02 353.77 289.24 463.96 317.22 175.14 322.63 225.37 291.21 339.99 261.69 229.07 247.87 256.94 207.88 347.67 135.39 313.80 257.93 268.75 311.61 357.22 467.90 386.57 307.16 212.17 257.82 221.10 504.00 201.41 327.51 291.90 424.60 291.74 429.00 95.44 402.71 420.79 389.02 465.28 287.33 338.43
884.95 199.06 365.09 102.08 70.20 116.58 222.99 153.61 119.57 85.83 46.57 144.66 160.96 172.37 136.69 78.97 251.32 315.85 169.50 156.14 137.40 298.64 129.14 173.00 183.53 99.10 99.85 77.53 199.62 72.24 152.79 210.59 327.74 15.26 181.60 85.90 154.79 170.86 228.73 150.10 150.68 149.85 181.63 161.99 187.91 203.99 254.96 62.52 50.27 251.35 43.52 91.57 69.96 34.31 314.74 139.81 141.67 128.01 153.32 128.33 222.71 158.88 72.28 51.13 144.85 208.28 187.42 146.88 210.61 163.41 182.82 78.30 203.85 204.63 143.31 162.92 118.04 250.51 234.69 41.22 211.79 97.73 113.17 155.52 39.51 88.38 194.98 194.19 91.55 231.68 257.04 203.46 167.60 166.22 72.60 117.93 159.73 148.53 241.82 223.42 87.65 202.37 162.18 16.95 119.59 151.26 225.79 153.12 161.11 152.81 98.63 149.06 292.93 0.00 187.29 356.53 143.77 202.90 89.75 169.24 134.54 113.29 109.31 141.68 129.72 89.88 98.68 181.67 47.72 166.93 89.05 331.54 59.21 60.01 157.76 42.45 68.43 51.86 184.46 91.11 165.78 153.91 197.79 97.69 194.33 115.27 167.31 90.15 231.82 91.28 145.95 136.57 94.85 270.54 152.85 190.60 84.22 169.22 233.81 72.81 244.57 323.13 136.22 174.34 112.85 87.41 175.66 248.45 355.38 203.74 66.64 187.60 33.01 186.46 217.71 176.96 287.97 196.95 198.03 227.09 83.59
1007.19 118.69 434.71 252.59 219.02 192.24 205.57 71.38 238.37 168.87 182.92 124.69 297.55 276.25 253.96 204.64 272.64 197.82 289.75 249.98 255.62 396.77 268.80 51.73 150.95 257.02 264.45 161.22 49.52 240.88 304.24 72.41 267.67 202.55 317.89 232.88 256.24 295.02 121.04 68.28 251.87 277.81 71.15 298.63 63.27 83.77 116.78 169.13 199.65 130.00 181.47 205.84 236.82 184.21 406.26 142.32 156.30 91.27 296.96 165.00 280.34 214.45 244.16 208.73 291.22 128.10 336.22 115.51 332.85 302.32 226.22 175.28 338.93 192.65 155.16 298.24 291.30 398.17 384.05 194.49 206.61 233.97 242.95 104.89 158.58 234.20 99.39 127.84 213.79 340.73 209.25 130.46 196.40 298.28 229.90 117.87 147.56 286.93 395.09 352.02 221.17 167.42 170.61 204.24 222.71 139.09 119.35 135.28 311.62 109.44 181.54 57.63 176.20 187.29 0.00 486.36 107.75 387.26 235.00 31.06 83.84 98.43 250.01 94.75 86.35 190.40 224.68 75.14 209.40 84.25 227.81 399.40 227.95 211.13 114.39 176.07 223.04 180.56 34.82 96.18 213.82 151.47 340.23 227.41 37.28 204.72 67.44 206.41 191.80 181.28 122.41 125.60 171.97 113.49 281.70 73.36 224.76 151.27 108.99 234.07 203.94 381.29 300.82 186.46 102.59 194.02 75.90 362.79 273.65 164.82 187.42 299.06 202.36 345.53 123.27 277.17 268.35 336.20 357.65 244.66 199.07
885.76 515.28 483.28 323.40 328.89 354.18 514.38 479.52 280.30 395.73 368.88 445.96 335.52 380.38 327.36 329.27 448.64 630.93 366.86 395.98 272.61 436.31 333.23 474.37 498.52 319.44 256.68 386.69 520.14 333.28 252.83 556.28 592.39 360.38 278.15 345.55 379.35 400.60 569.19 465.63 385.59 312.16 506.05 310.93 499.34 519.52 577.79 398.20 370.31 577.94 378.00 337.54 307.41 367.01 520.15 427.22 452.39 473.12 319.60 436.63 493.49 433.23 291.99 353.38 268.47 523.81 272.12 469.16 211.42 213.28 396.30 359.96 272.77 487.64 438.45 334.54 258.28 207.51 201.49 359.29 491.60 302.14 307.38 464.12 396.04 317.37 527.68 516.47 272.57 407.52 519.43 535.24 441.06 276.47 315.99 438.39 462.71 278.67 261.56 279.54 331.42 455.10 455.92 347.17 366.93 460.42 554.25 438.27 295.01 483.83 414.77 486.53 599.07 356.53 486.36 0.00 452.93 304.77 293.78 514.93 450.07 465.92 324.45 471.33 485.41 349.20 341.46 488.93 367.55 482.46 286.59 480.64 336.69 352.94 481.83 362.03 312.20 385.26 500.42 444.61 412.74 461.43 265.49 334.04 523.64 410.89 490.08 341.72 537.60 398.04 455.11 442.35 399.12 570.49 348.90 516.00 335.74 475.49 546.65 343.17 533.99 373.33 227.49 451.00 443.40 380.71 491.19 294.28 619.88 508.92 366.70 293.25 350.52 170.07 558.17 315.14 494.85 291.95 282.17 455.55 316.53
973.76 77.11 441.92 223.38 124.04 224.72 132.56 88.10 231.88 75.28 130.32 34.58 207.74 265.23 249.79 137.54 222.37 264.95 266.87 239.84 238.97 384.99 186.23 69.19 81.31 184.36 231.99 66.24 146.00 178.59 227.87 173.78 360.88 144.42 254.08 194.80 245.31 283.97 211.46 39.47 248.39 264.24 178.90 205.04 79.29 105.56 206.73 112.33 169.64 200.95 116.16 197.67 206.36 126.80 421.22 200.04 51.52 107.77 213.71 67.32 196.95 223.26 202.17 154.20 268.74 90.76 316.50 19.35 299.42 300.82 266.96 173.59 248.38 107.14 67.03 209.83 261.81 304.35 336.43 183.63 128.64 224.05 170.29 21.50 128.90 208.60 113.22 66.66 180.36 247.02 254.91 82.31 102.69 203.30 202.02 78.26 44.99 214.42 384.23 341.46 195.79 252.04 87.57 150.90 147.86 36.52 202.75 36.89 282.41 33.17 152.51 71.91 243.73 143.77 107.75 452.93 0.00 346.67 184.43 133.71 55.03 73.33 222.88 26.17 32.48 189.69 221.77 172.59 170.81 68.76 194.38 417.39 192.36 161.38 36.42 126.64 198.33 113.94 126.36 88.13 127.07 73.89 262.37 205.21 120.84 108.22 79.23 197.53 125.58 141.09 14.66 32.52 160.19 166.97 263.89 170.10 195.55 43.52 104.03 185.19 146.08 424.90 268.36 92.75 104.24 137.22 65.62 299.53 338.89 95.05 158.21 209.25 147.40 287.75 222.48 187.36 205.46 316.05 267.84 316.28 198.94
788.79 401.96 250.44 163.64 252.30 203.19 425.89 334.33 185.47 288.73 249.47 342.69 303.32 162.61 157.32 252.68 454.22 460.31 171.46 178.51 185.58 230.15 242.24 353.57 386.43 205.08 204.71 280.43 365.55 214.75 228.51 413.49 397.21 218.16 265.65 186.69 156.72 155.38 366.35 334.86 176.15 122.62 366.88 267.97 388.54 393.29 443.75 253.66 209.24 413.60 246.42 206.05 232.71 237.21 318.44 273.73 344.57 314.91 259.30 331.23 399.95 210.60 219.72 254.03 135.45 394.68 104.80 349.78 114.45 163.82 246.72 236.61 243.85 407.53 346.21 274.24 174.18 311.10 170.80 211.15 414.69 194.27 219.15 358.42 242.41 183.33 397.88 397.09 195.98 376.28 372.07 406.36 368.36 217.19 231.88 299.62 355.55 216.40 118.44 35.24 187.94 266.52 365.08 219.40 293.21 354.16 400.45 336.87 117.99 355.71 246.70 329.63 440.49 202.90 387.26 304.77 346.67 0.00 202.24 372.14 337.44 291.61 150.88 338.77 332.62 214.52 170.75 349.11 221.71 367.56 210.00 215.13 200.98 213.12 360.66 245.35 192.22 254.76 366.07 294.01 336.15 346.53 252.44 178.49 372.65 318.17 369.28 210.23 404.75 224.90 332.89 339.47 257.56 440.72 141.06 381.74 197.55 361.75 436.71 212.89 447.47 230.21 181.77 377.24 310.20 245.95 378.56 301.01 445.65 406.64 224.63 293.58 235.91 160.25 355.33 282.94 469.60 89.45 284.27 260.37 208.32
814.61 235.54 373.98 99.93 76.49 101.28 262.73 203.83 58.29 124.75 88.22 181.72 129.19 178.64 94.54 76.30 287.35 370.27 165.12 166.40 77.03 310.57 57.68 218.60 232.80 47.48 59.22 133.79 257.46 58.41 86.81 284.36 362.63 89.46 107.63 80.93 167.14 182.04 305.88 185.89 160.51 127.51 242.74 103.98 223.70 239.78 328.73 142.41 85.10 309.86 93.74 106.26 33.51 73.23 336.74 167.85 181.41 215.25 101.70 173.24 242.35 193.24 23.91 74.86 95.91 244.07 154.57 196.62 140.27 131.47 189.67 116.37 130.83 240.17 182.23 107.75 97.56 209.40 196.37 93.70 245.61 49.36 61.55 193.56 120.70 104.16 233.90 234.72 21.21 203.78 289.52 259.45 193.59 84.31 35.74 167.83 180.11 81.85 289.88 216.62 100.46 243.25 201.10 80.29 122.89 172.83 274.45 169.02 144.62 204.09 144.65 213.65 348.48 89.75 235.00 293.78 184.43 202.24 0.00 243.01 170.33 172.85 93.72 202.72 205.99 122.62 106.80 230.82 100.04 202.72 16.03 338.67 71.40 94.83 210.24 81.37 90.96 104.23 224.28 177.08 161.38 193.84 129.97 66.11 253.89 156.13 220.65 102.08 247.72 136.26 169.77 152.47 138.74 302.41 168.04 264.31 89.72 198.63 274.69 65.92 282.63 304.18 95.59 203.53 187.87 148.33 211.45 187.99 368.52 255.97 105.54 135.98 56.74 145.83 294.86 125.34 317.16 163.50 134.74 235.71 66.57
1000.20 138.56 451.28 243.61 227.23 216.78 227.73 82.84 269.43 183.05 178.96 144.61 276.53 263.30 249.42 217.53 272.70 176.08 276.82 248.91 278.12 398.81 263.45 64.52 158.81 251.85 269.09 174.01 33.37 224.79 306.05 41.35 260.64 184.50 318.07 215.93 240.15 302.15 89.98 99.34 259.30 293.43 64.12 288.27 90.04 85.99 85.72 152.74 182.89 108.26 163.42 189.75 239.20 177.20 400.36 173.38 164.96 75.18 292.61 175.40 302.94 213.02 241.52 191.85 279.83 155.20 341.22 134.35 361.90 332.65 256.72 159.19 348.20 207.55 150.76 295.31 287.28 407.54 392.93 200.70 213.66 248.35 252.65 129.34 129.73 219.00 115.82 140.10 244.85 365.83 201.20 137.03 226.96 311.07 241.84 90.32 161.75 291.42 379.36 369.24 212.02 198.48 198.29 186.19 245.24 158.91 112.32 155.18 302.24 119.38 179.78 88.46 145.14 169.24 31.06 514.93 133.71 372.14 243.01 0.00 96.73 111.04 230.85 107.54 117.41 174.31 218.08 86.10 205.50 88.87 242.12 415.97 215.18 197.73 121.44 185.34 206.95 162.58 18.73 105.88 240.51 182.53 340.41 226.29 30.00 201.04 80.23 190.32 195.01 162.95 140.50 156.66 183.43 106.21 294.49 68.34 214.54 169.36 140.05 217.70 212.08 412.35 305.46 217.52 71.53 177.63 75.96 372.49 257.50 182.37 184.96 302.27 186.27 353.44 101.00 280.38 288.45 335.47 347.27 237.63 230.13
970.90 65.21 438.08 236.62 139.87 212.86 135.99 44.98 228.62 100.46 149.23 69.46 230.63 261.84 259.99 120.80 237.86 220.00 268.33 251.76 247.36 370.37 211.41 52.02 99.88 200.19 229.55 100.38 121.54 202.10 220.40 138.08 333.66 149.80 277.96 195.20 237.79 269.35 186.71 15.56 246.02 282.57 147.11 230.22 53.37 69.45 175.13 147.13 156.68 204.99 155.07 187.19 203.84 151.98 443.42 152.82 95.97 99.48 234.60 88.59 219.15 234.01 194.24 171.64 260.77 73.74 302.79 55.21 296.56 297.95 245.95 181.75 287.17 131.46 101.50 240.20 252.58 320.18 352.26 175.67 133.81 218.91 186.12 43.70 132.59 211.69 83.63 74.58 177.50 282.09 258.90 108.69 137.76 235.89 190.58 64.00 76.46 246.24 376.27 357.96 209.46 251.26 109.95 151.49 177.79 70.73 191.78 67.39 295.65 33.76 160.52 65.55 241.87 134.54 83.84 450.07 55.03 337.44 170.33 96.73 0.00 58.81 231.01 32.39 39.46 203.55 232.07 145.37 182.26 32.39 186.36 402.77 188.33 189.25 41.59 155.63 202.97 132.85 78.00 90.82 161.10 98.75 294.96 218.98 103.39 139.77 50.32 183.01 130.00 138.72 49.73 63.57 145.57 139.42 281.99 134.12 199.02 78.59 110.54 196.83 148.18 391.79 265.92 127.82 89.60 159.77 41.12 326.05 338.17 85.64 177.12 234.69 167.55 303.16 190.99 218.41 206.05 331.49 293.89 313.24 218.13
934.08 120.96 407.00 192.38 158.21 154.05 156.58 42.72 210.46 93.16 115.25 51.08 248.97 219.63 207.23 140.35 249.26 251.63 225.97 192.95 215.69 332.69 204.11 64.74 121.00 195.63 212.32 102.20 86.33 143.29 238.88 134.50 331.40 128.55 264.77 158.63 178.98 241.56 173.62 43.25 198.41 237.44 141.94 222.92 96.93 114.70 196.76 96.79 141.67 189.10 107.47 128.38 174.16 116.80 398.90 167.33 93.88 58.25 231.59 66.57 225.19 175.20 177.01 135.90 232.97 103.07 286.53 83.03 303.08 274.41 218.90 138.89 267.79 150.58 91.21 231.60 231.33 311.58 339.75 125.38 167.79 190.79 195.09 67.67 73.78 152.88 120.96 112.00 194.06 260.45 200.09 142.98 135.21 239.26 156.21 37.35 63.94 231.02 325.98 307.87 150.65 232.79 123.46 122.96 183.15 72.41 178.69 63.78 250.17 92.33 124.02 40.80 255.76 113.29 98.43 465.92 73.33 291.61 172.85 111.04 58.81 0.00 179.62 47.16 69.24 144.74 176.97 111.33 140.29 75.95 188.88 382.47 129.52 141.78 88.23 108.66 153.72 98.87 106.83 48.32 169.43 114.69 287.11 160.17 81.04 117.75 80.45 124.20 160.85 102.22 69.56 80.33 125.27 157.25 245.74 121.30 158.59 82.99 150.20 146.35 181.72 379.39 238.72 145.15 86.57 102.30 88.86 314.93 310.46 139.79 137.64 227.39 135.81 296.14 172.52 235.17 250.64 282.24 270.84 268.22 171.16
847.43 273.37 310.67 12.76 151.94 59.78 285.76 203.94 84.83 161.63 100.96 198.69 198.10 84.92 35.68 135.52 320.99 346.01 71.40 110.49 84.71 231.61 151.40 227.48 240.90 131.19 104.82 165.04 223.49 63.87 130.23 272.20 301.36 106.36 184.21 35.81 107.58 108.86 287.07 215.45 100.67 66.89 224.87 189.76 254.39 273.06 292.87 127.34 89.01 292.94 128.89 55.17 90.81 115.95 305.28 132.86 212.46 205.22 185.41 202.48 326.06 147.81 93.79 105.67 94.77 275.27 125.30 216.88 173.09 111.54 163.77 85.73 211.29 259.02 224.95 184.50 66.17 234.11 182.82 80.49 285.21 79.77 145.23 216.38 122.01 32.45 272.89 257.18 110.51 256.02 241.34 300.02 244.04 156.46 81.00 193.03 210.43 156.07 220.17 154.14 37.06 179.85 222.30 92.36 162.15 212.08 272.26 185.99 71.39 227.12 128.32 203.54 289.61 109.31 250.01 324.45 222.88 150.88 93.72 230.85 231.01 179.62 0.00 217.09 226.28 71.11 27.34 198.23 72.82 233.41 96.49 275.36 50.10 62.24 233.95 107.81 41.34 117.34 215.19 168.75 222.33 195.65 190.29 27.61 247.66 221.15 234.14 59.35 284.52 118.31 211.46 201.93 116.75 310.86 101.80 231.08 46.67 240.32 287.31 66.13 301.69 243.56 96.96 239.70 159.32 109.85 246.32 266.04 349.80 289.86 73.75 206.37 106.59 154.38 276.99 184.48 353.33 125.91 225.49 209.44 57.44
981.24 84.06 446.65 229.85 142.44 201.21 148.77 61.93 230.67 99.37 130.09 37.07 231.20 249.93 248.08 153.19 235.25 252.39 257.19 240.11 243.55 378.94 207.00 43.02 105.28 199.63 228.59 92.41 123.31 180.02 246.27 148.30 350.61 144.56 279.84 196.10 226.14 277.26 197.52 28.91 234.11 265.12 165.90 210.88 77.01 101.84 186.23 138.50 161.56 213.72 142.33 175.54 180.19 131.38 433.99 185.21 77.69 96.35 202.21 76.73 209.72 222.36 194.08 157.39 252.63 88.73 308.38 38.25 317.82 274.65 265.09 180.40 274.55 122.03 72.53 217.15 259.72 322.75 351.70 164.78 133.29 213.98 185.56 34.27 120.94 200.04 106.62 85.56 198.76 273.19 247.25 104.80 128.86 229.47 198.14 52.09 71.16 240.59 365.38 331.20 197.81 225.87 113.74 124.73 167.44 62.69 176.58 49.77 287.75 54.15 148.61 45.74 252.68 141.68 94.75 471.33 26.17 338.77 202.72 107.54 32.39 47.16 217.09 0.00 31.06 191.90 223.21 149.36 179.24 56.03 198.44 411.34 166.99 167.79 41.07 123.24 196.17 140.00 100.19 78.91 146.83 100.06 288.54 205.47 108.92 122.81 58.73 171.36 151.75 126.81 40.83 58.69 154.14 164.69 260.63 156.31 193.34 69.69 116.80 168.20 150.73 424.18 264.96 118.92 78.07 147.86 68.94 306.71 347.44 118.03 175.53 233.60 148.28 304.65 208.54 213.53 213.06 324.69 279.78 315.38 191.37
990.35 69.34 448.94 231.80 156.52 217.84 140.30 55.84 237.84 107.76 125.32 67.06 214.09 271.15 260.27 160.26 228.21 247.33 264.85 244.47 244.93 381.23 218.71 64.39 92.25 211.59 229.57 98.72 113.52 184.81 248.61 158.76 344.52 144.98 286.56 205.63 235.23 280.21 200.81 25.99 254.66 270.84 157.50 237.52 61.67 99.89 196.65 144.81 179.99 205.25 136.58 179.90 199.68 132.76 425.52 192.28 69.95 110.34 231.12 97.09 201.25 244.44 202.00 158.77 272.48 80.68 317.14 29.16 331.90 293.13 285.41 149.34 273.62 113.56 83.40 216.18 247.76 336.83 362.62 170.94 120.26 227.45 202.77 25.80 143.02 209.15 103.70 65.79 212.84 265.84 269.33 73.74 121.51 235.78 197.02 83.15 61.41 243.28 371.54 353.14 202.17 253.77 84.26 146.67 159.89 52.94 197.12 56.19 290.83 23.09 171.29 75.98 262.55 129.72 86.35 485.41 32.48 332.62 205.99 117.41 39.46 69.24 226.28 31.06 0.00 190.84 224.59 161.49 177.44 56.94 203.33 413.63 188.93 189.73 28.04 124.62 197.10 108.94 117.46 107.44 134.26 98.29 294.85 199.68 123.63 133.68 69.15 180.47 136.04 157.87 47.14 56.92 156.43 149.35 282.57 148.49 212.45 73.17 104.09 199.26 129.87 431.25 265.94 111.57 100.46 169.70 48.27 305.88 337.65 108.29 175.11 215.60 154.00 316.18 199.71 193.71 182.00 325.62 274.19 331.01 213.31
830.42 252.44 276.97 74.10 150.37 42.47 270.51 177.99 121.25 146.82 121.53 190.90 212.00 88.99 81.78 139.34 313.52 323.35 102.51 80.97 112.03 229.03 172.00 185.21 247.27 140.09 106.44 154.02 170.94 82.58 172.86 215.66 285.14 95.43 188.19 70.26 65.84 128.42 219.99 187.99 85.27 120.52 156.85 202.98 223.73 234.76 247.84 88.76 50.71 255.53 116.62 16.40 99.60 113.66 317.95 90.36 198.15 169.35 194.31 168.24 311.59 116.21 118.29 104.60 129.31 247.81 178.93 209.04 203.27 178.99 100.10 41.50 244.27 273.66 192.88 209.25 137.28 276.02 218.62 56.90 259.87 99.41 154.16 208.59 95.34 49.22 260.81 223.35 143.29 289.05 170.23 264.58 236.88 189.91 98.91 154.06 202.64 168.67 242.28 195.89 38.67 158.90 219.59 96.67 179.00 204.29 205.05 178.20 131.34 213.93 82.71 161.27 270.67 89.88 190.40 349.20 189.69 214.52 122.62 174.31 203.55 144.74 71.11 191.90 190.84 0.00 43.77 169.63 42.16 202.75 130.82 241.66 83.46 57.07 218.88 114.68 41.74 133.44 155.58 157.74 226.15 202.02 210.53 56.51 193.92 204.15 196.33 20.54 246.22 79.34 203.67 185.33 77.40 270.13 132.91 178.42 59.40 227.73 265.72 70.05 276.37 256.75 142.81 246.57 146.06 64.36 215.66 290.56 315.14 267.25 31.48 224.01 92.42 179.13 208.97 202.12 350.17 170.26 241.14 167.39 86.34
857.99 261.24 311.33 30.33 124.60 32.44 289.66 202.72 97.39 159.63 106.82 201.33 205.51 95.93 38.01 140.84 313.15 333.42 88.70 83.15 80.51 226.02 164.48 222.78 252.72 141.36 118.36 167.13 214.71 57.80 129.09 259.43 302.59 107.74 196.88 43.91 98.30 109.52 263.76 220.22 92.31 76.75 200.62 191.33 232.53 259.44 284.51 109.44 75.39 265.60 125.42 50.70 89.01 108.11 311.57 134.09 216.29 198.87 195.58 187.39 318.65 138.94 95.06 90.97 97.10 279.25 135.16 219.52 183.65 138.88 143.87 81.26 226.62 264.88 212.03 204.66 93.51 261.45 174.85 65.87 298.89 90.40 150.19 219.02 117.86 24.09 268.78 257.83 118.51 278.46 214.00 287.85 241.80 155.32 71.06 175.74 213.07 154.93 233.35 160.09 38.29 168.36 235.98 101.66 169.16 214.45 248.82 188.63 87.57 239.11 126.48 198.84 314.44 98.68 224.68 341.46 221.77 170.75 106.80 218.08 232.07 176.97 27.34 223.21 224.59 43.77 0.00 201.86 50.96 211.55 112.94 276.02 71.57 65.87 236.59 99.97 44.04 123.20 199.35 148.92 226.94 222.99 186.09 53.07 220.32 211.21 230.63 52.77 270.90 114.59 212.89 194.09 112.28 289.00 112.34 222.19 33.05 233.18 301.55 56.99 306.50 253.42 124.30 231.86 181.57 105.70 224.46 264.90 351.03 276.24 69.05 207.02 101.22 181.72 252.74 185.13 345.49 132.70 233.80 201.08 58.09
967.29 193.83 401.01 210.96 197.17 194.78 240.84 119.32 209.99 148.41 173.65 149.41 280.18 208.68 233.91 203.32 325.80 173.38 222.20 174.84 238.94 346.98 254.42 126.87 207.20 237.49 236.07 139.37 113.54 182.51 278.10 127.45 276.33 166.41 313.88 169.41 196.63 228.08 113.23 143.42 185.23 262.29 79.81 278.17 138.41 155.34 152.74 157.80 154.47 105.56 138.15 153.23 208.65 158.66 333.27 110.09 168.48 64.82 271.38 138.57 297.19 194.75 213.60 165.54 250.42 186.04 294.39 166.45 337.49 297.49 180.37 173.03 329.66 238.85 163.21 286.32 252.12 377.48 367.37 159.26 268.06 188.15 228.57 151.09 165.10 183.21 174.53 188.64 238.78 331.19 134.11 205.60 207.21 276.43 195.08 97.27 175.27 272.88 359.86 316.07 175.50 133.72 207.25 174.68 238.40 183.74 95.94 162.11 269.62 171.85 156.46 115.43 192.49 181.67 75.14 488.93 172.59 349.11 230.82 86.10 145.37 111.33 198.23 149.36 161.49 169.63 201.86 0.00 150.90 159.39 224.76 365.70 178.63 135.99 176.68 166.80 178.45 164.69 67.37 105.67 244.03 186.69 319.64 193.38 105.71 189.75 125.79 157.41 243.65 154.83 173.14 170.95 122.18 181.92 252.60 91.57 176.46 194.32 184.13 181.96 260.07 349.06 272.44 217.15 91.76 145.15 151.04 362.86 324.77 231.01 164.40 282.64 179.90 320.22 106.89 293.96 330.78 303.74 320.96 233.62 203.22
855.81 210.28 319.13 60.06 113.95 82.55 251.72 157.29 92.58 122.38 86.49 150.37 186.65 131.15 88.97 98.81 271.53 324.28 139.66 114.68 105.91 254.42 131.31 175.71 214.00 111.86 111.44 125.25 213.10 48.43 144.02 235.74 317.67 59.01 192.11 40.31 108.00 156.16 240.04 183.54 119.01 127.71 176.90 174.75 181.57 213.07 267.89 58.48 29.02 256.46 74.46 50.11 77.96 71.50 288.43 122.89 170.40 151.46 166.08 170.87 270.43 138.82 76.13 68.38 129.34 228.29 173.31 168.56 208.39 154.27 142.26 56.42 222.15 241.93 178.44 181.02 134.71 272.90 225.81 14.91 255.54 70.74 125.93 168.06 75.77 62.13 228.71 206.87 106.50 248.93 212.39 236.89 211.20 153.49 74.00 132.12 162.11 166.67 215.51 194.99 58.18 192.18 197.90 54.51 136.84 163.76 225.10 137.67 119.09 188.64 98.66 151.77 290.72 47.72 209.40 367.55 170.81 221.71 100.04 205.50 182.26 140.29 72.82 179.24 177.44 42.16 50.96 150.90 0.00 160.59 107.35 283.82 56.86 14.91 185.63 79.64 57.37 91.28 196.88 131.43 185.62 194.86 210.55 64.56 221.33 162.99 191.42 45.93 224.53 87.24 163.14 154.22 84.66 238.04 127.42 186.56 47.89 192.00 250.59 60.88 276.86 286.80 147.81 211.53 149.11 77.72 173.50 263.07 323.84 251.14 35.54 200.36 50.26 197.48 229.02 189.72 317.74 173.61 214.87 209.55 74.12
1003.29 49.69 433.29 220.65 157.05 230.00 145.17 77.37 253.17 108.29 152.59 90.40 247.81 291.74 249.56 153.19 209.65 206.64 289.72 268.90 254.89 402.76 219.24 64.19 96.78 217.37 254.84 99.25 92.42 205.67 252.79 130.22 345.48 168.69 287.09 200.90 247.73 301.74 178.85 45.04 267.16 288.30 148.96 238.05 20.98 59.20 174.59 161.22 177.73 195.19 140.43 204.33 230.67 157.63 449.02 185.21 101.85 99.49 246.72 118.61 235.14 251.15 226.44 168.62 289.93 67.70 333.90 49.64 328.95 314.86 278.34 206.28 278.15 135.11 103.33 248.65 284.97 337.36 369.44 175.50 124.79 231.33 203.30 59.69 138.21 222.72 68.12 51.32 209.89 291.00 274.29 76.30 146.67 236.31 222.97 96.39 72.88 247.43 376.10 355.58 218.77 251.67 109.42 176.96 193.78 74.56 185.05 80.53 279.68 35.59 192.91 85.68 234.01 166.93 84.25 482.46 68.76 367.56 202.72 88.87 32.39 75.95 233.41 56.03 56.94 202.75 211.55 159.39 160.59 0.00 218.75 435.16 205.47 175.50 32.57 149.49 217.96 136.21 92.29 111.22 177.40 128.23 295.38 225.15 90.58 153.61 48.48 200.15 139.77 171.11 73.04 91.84 177.96 108.66 288.01 127.39 208.48 91.83 95.02 217.88 123.21 424.18 291.21 136.73 103.08 178.25 12.91 333.88 305.78 95.41 196.13 242.52 178.87 320.76 178.61 246.68 207.88 334.20 309.14 280.98 231.95
807.42 250.65 378.15 83.90 70.34 117.31 256.22 198.29 47.23 137.18 90.37 187.41 122.00 181.41 109.46 70.72 276.15 372.00 167.89 159.21 76.18 321.76 61.22 215.82 238.60 34.70 67.85 128.14 270.78 73.80 78.31 283.47 368.23 73.79 119.19 83.10 165.46 180.00 295.23 201.92 169.60 128.49 258.77 97.59 239.73 255.81 327.84 147.15 101.13 308.11 102.05 119.17 31.22 87.19 323.99 173.45 193.84 217.06 88.92 178.94 229.57 195.41 32.54 66.79 100.08 260.10 150.91 192.89 133.08 126.11 198.30 100.34 114.80 232.98 179.90 91.72 81.53 206.35 189.43 102.33 240.03 36.61 48.77 177.53 128.56 110.73 247.86 240.20 14.02 207.32 287.01 275.48 186.40 86.28 41.88 151.80 196.14 70.06 291.31 208.47 111.35 230.23 197.37 73.71 110.04 188.86 283.66 179.72 142.93 214.34 155.32 219.44 357.69 89.05 227.81 286.59 194.38 210.00 16.03 242.12 186.36 188.88 96.49 198.44 203.33 130.82 112.94 224.76 107.35 218.75 0.00 346.50 79.39 100.97 204.65 83.52 99.05 106.75 233.49 161.05 154.19 193.35 133.39 82.14 262.26 140.10 231.53 118.11 263.75 139.49 185.80 168.50 122.71 311.04 168.18 272.99 87.21 214.66 260.06 67.65 269.40 305.16 104.07 196.34 195.05 136.93 227.48 171.96 361.33 250.37 118.28 123.20 65.95 154.46 284.21 112.56 309.97 179.53 150.77 233.42 57.37
968.69 467.98 35.31 262.60 388.55 269.34 509.05 357.79 324.76 388.48 348.43 414.66 437.55 196.92 254.00 381.00 550.42 476.47 207.24 219.74 308.75 50.23 390.91 403.25 475.18 364.01 328.44 392.61 412.60 280.26 375.85 422.46 260.95 333.61 408.72 303.33 229.08 166.50 411.88 418.33 209.65 304.08 398.51 406.11 446.46 453.21 430.19 305.06 292.37 422.99 356.50 258.06 322.84 352.31 103.31 294.56 427.73 379.87 397.44 409.90 521.81 245.13 325.13 346.26 271.91 465.67 296.27 436.74 304.78 327.10 201.43 283.16 442.61 501.02 433.87 412.38 314.44 482.38 361.13 298.56 501.53 326.85 378.08 438.58 328.07 277.87 474.40 465.01 340.97 512.29 302.47 470.09 478.54 380.57 326.10 364.58 444.30 359.33 224.98 201.10 280.33 231.98 451.65 335.10 391.62 444.82 377.78 419.86 255.79 428.71 291.66 379.31 413.88 331.54 399.40 480.64 417.39 215.13 338.67 415.97 402.77 382.47 275.36 411.34 413.63 241.66 276.02 365.70 283.82 435.16 346.50 0.00 294.03 298.73 441.67 347.47 268.93 364.81 397.24 361.11 458.45 443.68 386.38 294.69 435.58 414.37 418.96 258.72 487.88 289.86 432.05 426.99 257.20 485.68 218.20 405.78 292.47 460.63 439.74 303.97 518.03 148.40 318.23 474.71 381.28 280.17 443.89 488.46 277.88 488.41 273.14 452.51 331.07 339.52 418.70 433.60 588.34 272.60 463.87 257.15 307.81
847.90 223.27 322.94 62.86 106.59 73.65 259.12 172.24 80.94 127.99 87.57 180.60 148.00 131.41 85.78 107.29 297.12 321.18 121.50 123.79 98.19 251.59 120.98 194.26 208.69 97.52 82.80 126.12 215.85 13.77 109.36 251.87 309.44 56.26 135.25 29.11 129.25 145.32 244.04 172.77 113.40 116.99 209.89 151.74 223.68 241.03 300.88 96.79 56.98 273.44 78.79 67.77 50.17 76.47 319.70 114.66 184.65 187.22 149.34 169.93 281.92 122.72 47.49 77.87 111.28 232.59 157.01 197.17 173.56 144.89 165.32 79.37 194.19 243.99 185.47 134.40 105.46 243.09 217.16 47.90 252.79 72.94 95.13 197.19 85.45 59.52 222.79 207.08 71.79 239.62 239.77 259.42 208.69 131.05 37.51 165.11 193.46 109.81 248.50 202.72 45.50 184.04 204.34 42.26 125.13 189.86 258.09 186.05 121.49 177.02 110.54 170.32 323.71 59.21 227.95 336.69 192.36 200.98 71.40 215.18 188.33 129.52 50.10 166.99 188.93 83.46 71.57 178.63 56.86 205.47 79.39 294.03 0.00 42.64 194.10 83.94 42.89 100.02 219.83 147.85 191.96 189.71 157.59 38.48 210.56 174.48 209.97 64.41 252.49 121.51 188.30 169.50 95.64 286.77 116.22 224.87 39.97 194.53 263.58 16.83 284.26 278.88 109.20 215.83 158.79 101.09 206.53 224.10 339.44 252.33 55.51 169.56 64.58 166.62 233.02 156.87 329.46 171.41 186.23 215.74 41.64
856.12 219.98 320.71 74.97 102.97 67.64 246.51 160.84 101.75 135.77 84.46 165.28 190.64 118.43 97.92 83.90 279.89 309.37 129.57 112.99 106.36 254.73 136.95 182.14 222.31 125.21 114.32 126.73 221.10 46.52 142.11 237.87 307.57 67.37 177.89 33.42 122.91 144.89 248.40 185.03 115.44 129.13 185.26 183.25 196.48 216.62 276.25 71.80 32.57 241.55 79.59 48.42 72.66 84.54 296.79 118.84 183.81 164.78 174.86 177.53 282.72 129.72 83.09 81.56 114.43 231.32 158.40 180.73 201.50 169.18 157.17 42.25 215.77 240.51 186.42 177.04 124.50 258.50 234.79 23.27 253.21 79.91 137.77 182.88 68.00 47.22 243.62 208.48 107.23 262.11 227.30 243.69 219.44 161.85 59.09 140.48 153.87 152.45 223.87 180.08 43.27 186.06 201.45 43.06 151.75 162.34 231.93 152.58 133.63 173.73 88.20 158.20 299.08 60.01 211.13 352.94 161.38 213.12 94.83 197.73 189.25 141.78 62.24 167.79 189.73 57.07 65.87 135.99 14.91 175.50 100.97 298.73 42.64 0.00 190.81 77.61 42.46 92.51 182.71 130.40 170.71 201.99 200.23 57.67 221.05 175.28 179.32 46.24 228.08 95.04 176.04 169.13 85.24 252.95 120.53 195.75 40.47 195.33 265.31 45.97 271.65 279.38 150.69 209.50 141.34 73.99 188.41 266.74 308.93 242.90 28.41 212.20 65.17 200.93 237.38 194.27 323.13 170.98 221.83 215.90 67.23
1002.66 63.33 465.86 221.67 157.34 242.28 130.20 83.88 251.88 111.70 153.36 60.66 229.20 277.25 269.06 152.56 221.09 239.21 284.51 251.01 260.49 409.27 219.45 78.85 64.21 207.67 253.08 102.66 124.99 207.87 259.33 162.79 358.60 171.55 290.50 223.21 229.22 291.80 175.04 54.03 248.65 287.49 170.25 240.24 53.55 91.77 190.64 148.75 197.96 205.55 143.29 207.94 202.35 160.80 426.84 192.93 69.28 113.39 231.57 86.04 202.57 251.56 229.30 175.28 289.08 74.67 335.22 17.07 328.32 315.72 286.06 177.38 245.58 104.86 71.31 216.63 275.80 335.19 359.74 196.62 92.22 240.79 193.60 27.12 154.71 237.19 96.84 48.70 209.26 261.05 260.38 101.78 117.70 239.72 212.50 79.41 40.31 237.27 397.22 363.45 230.21 266.94 93.04 165.80 161.21 41.99 209.14 47.96 280.70 17.08 175.93 86.39 259.46 157.76 114.39 481.83 36.42 360.66 210.24 121.44 41.59 88.23 233.95 41.07 28.04 218.88 236.59 176.68 185.63 32.57 204.65 441.67 194.10 190.81 0.00 152.66 225.14 136.98 119.59 106.23 144.83 97.11 285.03 216.28 123.15 121.59 63.14 208.51 114.77 154.13 40.47 59.27 184.47 141.23 291.02 159.96 231.28 59.26 108.66 209.27 109.66 429.63 286.18 118.56 119.14 173.64 45.48 302.74 338.35 113.90 194.63 236.00 170.65 317.53 186.06 214.11 182.52 316.38 286.00 313.55 232.44
890.94 185.39 382.78 120.57 70.30 132.41 191.65 138.74 113.22 59.66 6.85 121.96 161.06 153.75 137.98 51.23 213.18 337.47 140.23 161.38 120.31 300.44 118.64 166.26 169.29 86.97 105.35 67.16 194.99 80.19 148.20 226.69 316.64 27.68 171.46 85.47 139.59 180.97 244.83 150.61 159.02 146.22 197.73 144.81 156.34 194.56 271.06 78.62 85.23 269.65 28.65 106.75 102.80 8.14 345.30 121.86 116.32 134.25 138.14 108.15 228.41 174.77 89.14 34.15 164.71 196.73 204.29 139.77 216.60 177.90 213.86 102.45 162.86 164.91 117.14 123.20 159.78 250.61 238.00 71.78 198.92 114.59 101.04 136.20 55.61 111.58 168.81 177.56 97.54 228.05 264.50 198.36 141.83 143.60 98.18 117.88 122.95 122.36 272.38 249.20 119.89 189.86 136.01 49.62 115.96 114.48 235.72 110.67 179.20 139.14 101.31 149.46 304.80 42.45 176.07 362.03 126.64 245.35 81.37 185.34 155.63 108.66 107.81 123.24 124.62 114.68 99.97 166.80 79.64 149.49 83.52 347.47 83.94 77.61 152.66 0.00 110.88 23.23 183.27 118.01 126.97 127.31 185.66 109.72 189.61 120.97 181.97 102.57 189.37 86.49 112.92 94.12 109.01 244.02 170.63 206.70 96.33 141.78 209.60 83.82 206.53 322.89 141.72 131.89 122.78 86.04 162.40 212.90 340.51 193.37 83.20 167.56 29.38 191.96 233.81 145.67 245.52 221.08 189.57 259.76 113.32
839.40 262.44 296.66 40.53 138.63 48.15 264.03 186.38 97.11 154.26 115.00 197.16 190.89 105.13 73.46 126.36 303.71 333.51 111.40 89.91 95.82 238.01 144.32 207.89 246.18 119.95 107.87 145.96 212.68 54.85 147.89 248.30 283.52 83.69 178.14 34.40 86.36 102.43 259.44 196.97 82.25 106.01 198.59 182.84 230.77 242.16 280.37 86.00 58.11 284.01 107.97 25.34 69.65 102.74 320.61 115.02 191.67 178.98 174.17 161.76 291.14 129.97 81.17 109.94 94.03 256.79 155.42 215.31 177.27 149.22 122.43 47.76 202.53 267.18 186.40 177.29 107.51 234.28 218.89 47.09 266.13 80.89 134.02 214.85 107.93 19.95 255.05 244.86 111.54 259.10 211.97 270.84 230.40 164.28 57.17 164.28 196.33 152.70 247.69 176.44 19.22 162.01 226.99 71.44 160.74 198.77 246.79 184.46 99.56 216.19 103.04 183.95 312.41 68.43 223.04 312.20 198.33 192.22 90.96 206.95 202.97 153.72 41.34 196.17 197.10 41.74 44.04 178.45 57.37 217.96 99.05 268.93 42.89 42.46 225.14 110.88 0.00 120.29 188.22 158.95 213.17 209.88 200.48 30.51 226.56 183.70 205.27 29.52 253.62 89.56 209.93 191.59 86.92 295.41 121.51 214.08 23.54 223.71 269.87 59.72 283.26 262.45 136.44 240.34 158.32 68.51 230.87 259.69 331.96 266.73 54.50 191.15 94.99 192.43 248.42 184.85 349.92 128.52 219.91 189.72 57.81
912.57 170.94 400.12 130.10 90.74 155.64 176.44 115.55 136.08 56.74 16.38 119.04 175.58 176.98 153.02 71.67 236.41 338.07 163.46 170.91 143.17 323.67 128.17 157.19 161.58 109.83 128.58 47.70 185.20 103.05 171.06 203.93 339.87 45.69 194.32 102.19 149.12 198.31 246.45 134.93 168.55 169.08 194.71 156.34 157.19 195.41 248.30 84.34 97.14 270.25 27.64 124.76 98.14 31.00 361.16 145.09 95.12 111.02 147.67 85.14 225.49 194.94 98.67 57.38 174.24 182.28 227.15 129.23 238.23 201.13 212.85 111.98 186.09 170.63 109.78 132.73 169.90 271.05 261.23 87.64 178.56 124.12 123.90 113.87 61.33 126.65 191.67 167.53 120.77 223.43 278.86 182.68 152.26 166.46 88.08 94.65 125.06 145.22 288.24 264.23 128.08 209.95 115.65 57.76 138.82 121.43 234.71 120.92 188.73 124.69 110.84 137.02 281.57 51.86 180.56 385.26 113.94 254.76 104.23 162.58 132.85 98.87 117.34 140.00 108.94 133.44 123.20 164.69 91.28 136.21 106.75 364.81 100.02 92.51 136.98 23.23 120.29 0.00 167.47 117.79 150.20 116.33 208.52 126.44 179.91 118.05 164.89 120.58 205.72 96.02 116.12 110.47 128.68 244.87 175.37 212.42 113.05 128.02 196.40 93.35 201.58 345.75 164.95 142.96 121.77 108.90 149.12 222.43 339.50 173.91 106.43 177.09 52.24 215.19 235.43 155.20 255.51 243.25 202.53 267.90 118.91
981.47 135.28 432.55 227.95 217.87 198.05 209.00 64.11 273.19 178.46 183.85 135.09 295.26 244.57 230.69 198.80 291.33 194.81 258.09 235.59 263.08 380.08 281.96 63.54 177.54 253.96 261.06 173.03 46.17 206.06 287.32 60.08 265.63 195.34 310.62 214.43 221.42 284.00 108.71 91.71 240.85 276.10 69.11 294.33 71.31 87.97 104.45 149.43 186.67 126.99 174.20 171.02 246.55 175.13 400.64 164.27 146.23 56.45 285.66 158.44 289.50 194.29 232.21 185.66 261.10 151.53 322.49 129.41 343.17 316.29 237.99 140.46 346.13 201.81 133.80 279.12 281.36 390.18 374.20 181.97 211.81 254.03 264.12 114.05 148.46 200.27 117.80 139.65 245.49 357.30 201.48 138.50 210.00 308.59 232.77 109.05 154.24 289.35 382.57 350.51 193.29 201.09 185.00 191.09 228.71 146.80 113.78 144.44 286.58 111.76 161.05 85.63 163.87 184.46 34.82 500.42 126.36 366.07 224.28 18.73 78.00 106.83 215.19 100.19 117.46 155.58 199.35 67.37 196.88 92.29 233.49 397.24 219.83 182.71 119.59 183.27 188.22 167.47 0.00 124.61 221.78 173.43 332.96 207.56 38.34 184.08 79.25 171.59 176.28 146.46 124.94 141.57 164.70 114.55 276.08 56.12 203.57 153.80 143.81 216.86 205.48 403.24 297.43 203.03 90.26 167.51 94.59 368.82 270.30 163.64 166.23 301.50 167.54 334.71 112.99 279.61 284.05 316.74 341.08 242.62 233.89
938.29 144.20 396.42 179.25 145.62 181.36 180.30 73.31 164.31 109.39 124.86 53.55 236.38 224.66 186.93 154.53 251.73 255.51 219.00 203.92 193.26 320.35 172.62 91.80 125.10 160.84 190.39 100.35 134.65 158.57 212.50 147.23 327.10 106.37 242.17 148.60 182.13 227.69 171.31 81.45 195.92 225.67 162.23 203.38 132.20 134.50 191.60 72.95 130.26 187.69 90.15 148.89 161.07 109.87 402.34 132.89 98.98 88.74 212.05 108.22 252.59 168.13 163.39 124.52 217.16 141.27 274.82 97.14 263.95 251.81 211.83 134.43 270.67 163.18 99.14 222.08 206.44 325.93 312.91 132.33 198.45 142.47 146.77 96.64 62.40 162.11 122.40 144.45 175.07 292.17 239.78 159.03 166.89 206.75 163.71 26.82 90.69 224.09 332.07 309.01 163.84 211.43 137.75 108.06 194.05 92.34 137.21 66.25 236.49 97.95 85.36 89.12 251.02 91.11 96.18 444.61 88.13 294.01 177.08 105.88 90.82 48.32 168.75 78.91 107.44 157.74 148.92 105.67 131.43 111.22 161.05 361.11 147.85 130.40 106.23 118.01 158.95 117.79 124.61 0.00 174.53 124.17 253.55 172.85 125.46 149.42 107.51 144.71 178.05 88.62 78.86 82.80 103.91 201.67 211.61 140.66 147.21 107.72 163.19 163.92 205.44 371.86 226.76 156.95 46.64 97.84 124.13 266.61 293.07 167.54 126.26 219.95 124.12 274.54 182.33 222.56 254.74 281.62 274.47 261.15 174.70
933.57 161.84 491.42 227.84 105.88 225.61 124.37 190.10 201.42 120.31 133.82 120.98 84.37 265.92 251.57 86.81 198.24 348.18 267.20 283.70 223.92 412.61 129.31 187.77 142.13 154.96 205.85 129.35 247.78 178.19 180.93 281.86 433.25 151.68 186.67 186.71 266.56 307.58 309.24 145.54 285.99 266.45 271.92 136.38 193.55 228.26 309.79 201.95 192.65 318.12 151.98 219.13 170.28 131.47 447.18 238.47 75.55 224.94 142.16 105.46 169.63 297.57 170.54 137.65 233.40 191.89 280.70 139.17 259.23 266.40 295.01 212.96 198.33 122.55 91.06 127.22 235.30 249.97 314.23 173.66 118.82 184.92 152.13 138.67 178.94 217.93 223.25 147.96 140.17 185.74 321.23 202.35 101.33 192.04 156.59 192.52 105.49 189.98 374.26 350.79 213.98 313.19 99.96 159.51 66.83 102.84 280.45 108.28 286.87 142.91 190.94 192.57 353.77 165.78 213.82 412.74 127.07 336.15 161.38 240.51 161.10 169.43 222.33 146.83 134.26 226.15 226.94 244.03 185.62 177.40 154.19 458.45 191.96 170.71 144.83 126.97 213.17 150.20 221.78 174.53 0.00 112.83 209.01 194.72 235.20 62.19 182.29 216.95 146.91 212.74 124.70 118.84 213.70 281.23 273.82 275.51 197.57 108.45 207.17 182.13 121.25 436.48 230.22 111.23 181.49 209.37 182.53 182.05 463.25 169.42 194.67 126.64 149.61 263.69 320.26 104.75 166.69 324.88 185.23 362.30 180.85
989.04 123.57 478.99 208.41 139.32 229.22 92.44 122.90 217.77 72.48 120.46 70.62 195.15 280.57 231.33 152.82 156.43 299.49 267.05 261.49 188.82 414.78 152.58 126.02 45.25 170.83 226.67 81.52 200.99 193.87 221.85 223.88 411.58 144.21 252.65 186.75 253.20 301.12 272.15 83.19 270.78 261.44 222.62 194.89 146.96 168.20 257.45 176.78 195.53 265.14 143.97 215.76 202.63 124.00 419.06 226.88 37.28 168.49 199.55 48.12 160.69 271.30 202.75 155.86 243.14 143.01 289.38 87.02 314.70 273.66 302.12 185.20 222.69 92.14 39.63 184.61 228.29 293.10 317.25 188.31 89.56 224.08 156.76 85.69 153.77 224.17 158.73 109.69 195.64 208.23 280.12 148.35 59.55 216.70 193.40 115.05 56.80 229.70 388.91 339.16 225.40 305.72 26.65 158.93 107.75 61.73 242.18 57.92 256.41 99.50 209.53 133.18 289.24 153.91 151.47 461.43 73.89 346.53 193.84 182.53 98.75 114.69 195.65 100.06 98.29 202.02 222.99 186.69 194.86 128.23 193.35 443.68 189.71 201.99 97.11 127.31 209.88 116.33 173.43 124.17 112.83 0.00 255.86 194.05 170.67 53.25 129.95 216.33 124.95 188.44 60.17 41.37 207.84 227.79 273.86 213.82 197.61 70.18 148.12 172.88 106.04 410.66 257.26 53.96 158.57 201.67 126.65 268.96 412.78 110.52 187.82 179.99 144.60 291.36 274.74 186.26 167.59 310.93 258.24 364.32 196.14
813.14 333.67 421.69 177.53 155.09 193.28 318.73 268.85 130.17 205.17 192.51 261.25 124.64 235.61 160.33 174.16 316.74 460.67 236.84 258.70 105.58 381.58 122.41 305.62 301.11 98.69 104.09 196.13 366.20 171.36 75.88 381.76 467.03 197.73 22.34 178.52 259.14 247.83 394.74 301.84 265.29 137.16 354.11 108.98 316.36 354.58 426.13 239.23 196.47 409.86 198.03 194.13 154.82 177.52 402.09 272.25 261.83 318.00 100.31 246.93 274.20 280.31 139.40 154.10 159.90 343.26 147.64 281.72 138.80 135.24 305.16 208.22 80.73 317.87 252.89 115.25 139.94 114.86 145.96 197.65 314.58 152.01 112.76 283.87 216.22 197.92 338.19 299.33 145.56 215.32 380.76 344.68 271.29 59.07 163.40 250.09 244.72 80.31 270.49 227.10 203.09 295.93 265.03 180.84 184.28 253.19 389.93 253.80 173.17 287.42 260.44 290.37 463.96 197.79 340.23 265.49 262.37 252.44 129.97 340.41 294.96 287.11 190.29 288.54 294.85 210.53 186.09 319.64 210.55 295.38 133.39 386.38 157.59 200.23 285.03 185.66 200.48 208.52 332.96 253.55 209.01 255.86 0.00 170.89 366.04 202.61 313.32 197.07 308.08 240.26 264.55 258.90 239.28 404.04 224.15 366.20 189.38 287.59 366.40 156.32 330.26 313.83 140.46 262.95 282.36 228.03 308.29 102.08 492.87 322.34 182.45 116.23 172.22 95.42 383.72 133.84 342.53 212.02 84.80 352.82 162.13
821.10 256.19 327.17 40.37 126.98 35.17 282.37 200.19 69.13 153.49 115.49 181.02 177.25 112.53 60.59 107.91 295.34 339.43 99.01 104.72 65.31 244.46 123.79 205.38 232.35 105.65 77.36 149.78 211.93 37.43 133.02 267.64 314.03 94.74 159.11 24.25 101.03 132.94 272.12 203.42 94.40 94.50 213.36 168.54 234.03 255.34 304.35 112.37 72.09 297.10 117.27 40.15 74.95 109.48 314.84 145.53 201.05 180.71 159.87 192.27 300.52 136.56 66.18 85.57 72.80 263.24 134.19 199.21 146.76 127.99 150.08 67.10 196.94 267.65 209.09 172.88 93.78 261.72 193.74 68.93 277.22 64.73 119.72 193.69 110.45 50.46 261.27 245.56 87.32 258.74 226.74 273.42 231.41 150.42 60.66 165.42 192.76 147.35 247.78 181.75 49.73 183.21 220.70 80.74 148.79 194.41 261.56 168.32 99.00 215.50 112.50 181.44 317.22 97.69 227.41 334.04 205.21 178.49 66.11 226.29 218.98 160.17 27.61 205.47 199.68 56.51 53.07 193.38 64.56 225.15 82.14 294.69 38.48 57.67 216.28 109.72 30.51 126.44 207.56 172.85 194.72 194.05 170.89 0.00 241.21 200.81 206.53 35.97 267.60 90.70 193.79 184.87 99.60 302.60 111.36 234.93 31.62 222.65 276.22 38.52 300.09 270.53 113.73 221.47 164.77 97.23 230.19 254.10 362.47 274.81 51.65 178.76 88.24 163.97 261.10 156.87 335.10 153.52 197.88 203.17 29.83
1015.12 140.27 470.89 250.65 233.19 229.52 213.84 102.45 275.65 174.20 182.76 132.12 304.52 282.76 258.33 221.39 297.91 206.08 288.88 248.92 292.90 413.73 285.15 65.90 149.52 276.53 281.77 175.39 55.03 224.33 291.41 53.46 279.22 209.59 345.81 239.67 227.13 289.71 119.98 105.49 246.56 263.43 82.70 303.96 76.91 111.34 115.72 177.83 212.09 138.26 188.51 209.36 231.04 197.70 399.51 172.35 159.65 94.79 311.13 147.61 274.79 232.63 258.05 211.94 299.44 158.28 321.84 114.70 370.13 339.60 263.50 178.80 348.83 187.10 163.91 299.11 312.37 392.62 395.17 206.42 215.37 267.93 272.23 99.34 154.82 233.92 107.38 141.90 251.07 341.49 200.35 144.01 198.53 312.45 237.25 118.39 140.83 311.92 407.02 366.41 231.63 204.70 183.41 204.00 233.43 132.36 97.65 129.73 307.89 126.17 199.39 89.84 175.14 194.33 37.28 523.64 120.84 372.65 253.89 30.00 103.39 81.04 247.66 108.92 123.63 193.92 220.32 105.71 221.33 90.58 262.26 435.58 210.56 221.05 123.15 189.61 226.56 179.91 38.34 125.46 235.20 170.67 366.04 241.21 0.00 198.79 81.61 205.24 202.50 183.26 110.50 129.30 203.04 76.21 295.87 61.13 235.72 139.36 146.27 227.39 213.79 411.32 318.14 188.59 101.53 183.34 101.17 388.81 279.16 185.99 198.38 306.03 205.88 368.38 131.00 284.14 279.16 338.29 351.88 256.21 236.35
947.52 152.08 449.68 217.35 128.15 225.13 116.12 160.47 187.33 61.31 121.98 95.87 146.56 274.72 235.13 141.65 136.05 325.52 261.20 257.78 202.56 402.27 129.36 153.71 98.50 117.58 194.73 70.35 204.08 182.70 169.24 242.39 406.25 130.53 202.07 185.34 254.72 247.87 272.87 136.44 265.95 244.76 209.73 154.97 164.46 202.68 286.76 165.61 165.54 295.31 133.34 193.21 158.10 112.83 430.01 229.94 65.79 164.69 146.30 51.18 107.44 262.74 164.15 144.69 240.18 175.61 266.83 104.52 273.18 242.82 298.09 162.65 226.03 116.86 50.28 131.36 197.45 278.23 269.65 156.49 125.33 176.71 103.51 119.84 142.60 203.65 192.12 137.44 154.12 214.61 309.69 190.53 70.28 163.49 140.15 155.10 82.83 184.73 357.09 338.69 202.92 294.55 62.42 132.22 71.94 91.30 257.93 91.05 270.15 118.02 201.72 158.55 322.63 115.27 204.72 410.89 108.22 318.17 156.13 201.04 139.77 117.75 221.15 122.81 133.68 204.15 211.21 189.75 162.99 153.61 140.10 414.37 174.48 175.28 121.59 120.97 183.70 118.05 184.08 149.42 62.19 53.25 202.61 200.81 198.79 0.00 164.08 193.78 148.84 190.74 93.56 89.90 196.67 252.14 268.12 231.30 196.20 98.69 197.41 170.33 129.30 421.43 217.02 60.34 174.64 190.50 159.71 221.06 428.21 137.97 176.65 154.90 133.43 240.82 261.85 133.01 173.97 312.22 213.49 342.36 170.98
993.99 75.06 454.27 234.61 174.99 221.48 173.34 61.17 261.08 126.23 181.27 95.80 260.81 271.18 267.12 171.12 236.71 213.16 276.08 244.50 271.84 386.56 237.18 15.71 127.35 235.31 251.53 117.19 98.94 223.74 263.01 121.58 335.11 182.57 305.03 212.74 249.72 285.54 170.21 46.76 254.89 288.99 138.59 255.99 27.50 65.72 127.50 163.27 171.71 157.95 171.26 179.93 200.80 177.75 449.16 193.77 106.74 90.26 260.94 135.46 255.08 251.99 234.19 186.36 279.33 103.65 332.00 67.51 336.57 322.28 250.65 195.21 308.72 155.30 113.80 259.12 285.35 355.30 387.38 176.51 155.36 239.24 221.24 79.63 140.62 212.79 74.64 91.82 217.51 309.01 259.90 94.69 168.14 254.25 218.75 106.60 88.76 265.37 377.11 334.04 202.20 234.86 145.51 183.46 196.44 97.23 169.47 98.40 293.64 46.06 150.65 39.65 225.37 167.31 67.44 490.08 79.23 369.28 220.65 80.23 50.32 80.45 234.14 58.73 69.15 196.33 230.63 125.79 191.42 48.48 231.53 418.96 209.97 179.32 63.14 181.97 205.27 164.89 79.25 107.51 182.29 129.95 313.32 206.53 81.61 164.08 0.00 184.11 156.71 172.45 84.86 103.66 161.76 115.18 245.68 132.87 206.78 111.52 114.67 211.86 167.92 432.74 287.90 162.95 93.31 182.75 39.97 348.82 323.07 135.96 169.44 260.46 198.35 338.14 181.23 258.50 218.35 333.79 327.08 271.75 236.36
809.88 245.16 293.29 70.05 129.83 37.37 273.71 164.22 105.10 146.62 106.20 175.28 201.63 95.43 83.03 130.14 307.61 330.79 101.77 68.75 91.49 208.49 151.46 186.80 245.20 127.87 94.22 155.66 191.48 62.04 157.63 231.67 290.75 74.89 175.97 49.72 86.38 121.99 236.15 167.45 79.14 113.24 177.39 190.76 211.61 229.53 268.38 92.61 45.48 262.97 97.78 4.18 99.17 95.10 301.51 110.90 200.56 174.70 182.09 188.56 291.94 124.54 102.15 92.38 108.77 227.27 170.16 198.72 182.73 163.96 120.64 31.13 232.05 264.26 198.30 197.03 125.52 263.80 219.92 50.99 249.50 87.19 141.94 191.87 82.31 28.68 245.16 236.20 122.75 280.47 190.77 254.21 242.66 169.37 86.69 156.71 188.14 148.13 221.74 183.67 26.45 147.24 214.36 89.30 168.38 193.92 225.59 167.83 129.08 203.56 87.07 165.00 291.21 90.15 206.41 341.72 197.53 210.23 102.08 190.32 183.01 124.20 59.35 171.36 180.47 20.54 52.77 157.41 45.93 200.15 118.11 258.72 64.41 46.24 208.51 102.57 29.52 120.58 171.59 144.71 216.95 216.33 197.07 35.97 205.24 193.78 184.11 0.00 240.99 88.77 193.30 174.96 63.63 281.09 128.74 198.96 38.86 207.19 269.08 63.50 264.15 277.29 130.59 234.46 128.80 67.72 213.06 278.95 335.68 256.88 40.03 214.73 81.80 180.83 225.13 192.84 339.80 158.04 228.92 171.66 65.80
1050.87 95.17 523.19 281.12 208.71 267.08 32.72 155.69 301.78 167.06 196.22 124.50 231.28 328.06 308.91 216.58 205.12 339.60 329.60 301.38 309.07 449.48 273.39 141.00 79.70 266.42 294.72 158.02 211.74 259.37 308.53 231.46 441.91 217.05 311.48 248.71 312.06 354.62 277.37 140.90 311.77 321.40 245.39 276.94 159.14 161.88 273.39 236.45 195.51 303.27 208.74 236.81 272.09 197.51 488.02 269.42 114.04 184.78 268.27 134.99 201.03 314.95 271.63 223.52 310.95 83.63 372.34 116.71 382.04 349.80 328.06 239.08 336.21 59.46 113.88 253.33 304.43 339.59 418.49 214.50 76.25 295.20 252.35 132.07 225.16 267.73 137.62 95.13 265.03 267.77 323.77 126.54 106.04 295.08 265.84 168.93 96.91 299.17 415.10 408.16 253.53 336.87 98.51 234.33 208.79 105.38 278.21 111.80 339.29 122.36 258.54 134.17 339.99 231.82 191.80 537.60 125.58 404.75 247.72 195.01 130.00 160.85 284.52 151.75 136.04 246.22 270.90 243.65 224.53 139.77 263.75 487.88 252.49 228.08 114.77 189.37 253.62 205.72 176.28 178.05 146.91 124.95 308.08 267.60 202.50 148.84 156.71 240.99 0.00 243.65 110.92 95.25 256.28 246.82 335.82 232.40 237.85 82.06 140.50 235.66 57.86 476.76 323.09 113.50 188.20 261.34 147.27 328.96 435.87 44.36 215.95 261.10 218.75 379.53 266.35 250.09 166.55 382.14 321.98 395.35 262.48
889.47 185.10 325.17 130.09 144.68 106.62 227.58 121.21 142.54 129.43 79.64 142.17 209.92 143.90 143.55 125.93 299.67 302.68 130.38 117.69 134.68 257.46 191.43 160.42 212.36 172.34 168.06 138.47 140.65 112.85 205.89 194.70 264.11 89.74 222.98 92.40 120.87 150.45 205.18 134.56 107.30 185.20 147.87 175.11 172.44 182.40 238.86 28.76 70.09 234.86 85.46 87.55 135.80 94.63 313.72 69.33 186.09 90.01 183.78 168.79 298.18 127.07 144.58 113.89 163.50 194.38 211.26 159.43 215.13 218.69 138.28 57.64 249.35 211.16 187.76 195.99 174.15 320.86 263.11 83.86 224.70 120.70 176.47 161.08 51.77 99.14 211.02 197.14 125.47 307.95 235.56 220.33 199.04 207.59 128.45 74.72 166.16 186.35 284.46 260.14 104.21 140.18 161.79 108.23 199.01 168.76 196.07 154.87 189.12 138.85 21.80 140.62 261.69 91.28 181.28 398.04 141.09 224.90 136.26 162.95 138.72 102.22 118.31 126.81 157.87 79.34 114.59 154.83 87.24 171.11 139.49 289.86 121.51 95.04 154.13 86.49 89.56 96.02 146.46 88.62 212.74 188.44 240.26 90.70 183.26 190.74 172.45 88.77 243.65 0.00 155.75 148.40 32.66 215.82 160.78 156.84 81.54 184.61 222.41 110.24 252.72 308.30 204.43 189.10 91.42 21.05 179.84 270.94 294.11 224.36 66.63 220.19 115.87 237.22 194.16 218.46 302.73 218.08 246.20 205.57 118.80
975.94 84.61 446.87 223.20 126.22 219.72 117.90 82.33 226.14 77.46 119.77 25.31 194.02 255.96 247.14 137.71 210.95 269.73 253.15 249.55 233.23 399.21 188.41 83.85 66.87 186.54 218.27 68.42 155.89 180.77 230.05 163.96 368.38 137.54 256.26 198.39 240.77 293.89 212.05 54.13 259.94 259.14 191.61 207.22 86.79 119.18 212.36 126.99 168.87 205.73 130.82 192.73 203.28 121.06 426.00 202.55 49.15 108.32 211.05 52.66 197.69 231.43 193.68 147.07 265.68 97.71 301.84 26.85 301.60 290.82 275.13 162.17 253.88 100.03 53.41 196.11 263.99 306.53 338.61 178.05 130.56 209.39 172.47 26.28 114.24 217.67 98.56 74.16 182.54 232.36 240.25 96.97 88.03 205.48 201.65 92.48 30.33 216.60 378.65 356.12 210.45 266.70 72.91 162.54 148.32 21.86 208.15 25.47 282.23 47.83 160.00 82.02 229.07 145.95 122.41 455.11 14.66 332.89 169.77 140.50 49.73 69.56 211.46 40.83 47.14 203.67 212.89 173.14 163.14 73.04 185.80 432.05 188.30 176.04 40.47 112.92 209.93 116.12 124.94 78.86 124.70 60.17 264.55 193.79 110.50 93.56 84.86 193.30 110.92 155.75 0.00 18.80 174.85 174.47 278.55 171.63 199.05 28.86 108.81 171.47 143.04 422.53 254.64 78.09 118.90 151.88 69.88 285.81 353.55 109.71 172.87 195.53 142.30 289.93 223.07 173.64 191.72 301.39 254.12 324.45 201.12
963.18 103.41 445.37 214.28 113.46 212.33 116.40 81.53 207.34 71.81 100.97 29.25 175.22 247.87 232.10 121.33 197.80 271.52 234.35 238.96 214.43 383.45 182.76 100.15 80.33 173.78 199.47 62.77 166.66 174.31 213.28 182.76 370.21 121.80 250.61 179.59 233.71 275.09 230.85 57.32 249.35 240.34 196.75 200.77 105.59 133.02 231.16 144.85 172.81 223.77 113.49 174.39 185.98 102.26 429.43 215.69 47.65 127.12 192.25 62.05 178.89 229.93 176.38 128.27 248.38 116.51 292.85 45.65 288.84 272.02 273.63 143.83 252.42 98.53 39.62 177.31 250.03 293.77 325.85 165.90 130.93 201.83 159.71 44.32 133.04 203.64 117.36 83.44 169.78 239.42 238.75 106.98 100.92 199.83 182.85 73.68 28.83 210.95 366.50 343.32 196.66 283.98 68.02 143.74 134.53 20.36 220.01 16.55 273.31 60.00 168.16 92.25 247.87 136.57 125.60 442.35 32.52 339.47 152.47 156.66 63.57 80.33 201.93 58.69 56.92 185.33 194.09 170.95 154.22 91.84 168.50 426.99 169.50 169.13 59.27 94.12 191.59 110.47 141.57 82.80 118.84 41.37 258.90 184.87 129.30 89.90 103.66 174.96 95.25 148.40 18.80 0.00 181.06 193.27 261.22 187.95 189.18 47.66 126.85 152.67 141.54 417.01 235.84 95.33 121.37 169.45 85.28 267.01 371.41 117.86 169.60 176.73 123.50 284.28 241.87 154.84 208.96 315.20 235.32 322.95 187.67
873.51 210.78 292.51 122.00 143.28 96.86 260.24 100.59 166.43 135.36 112.30 157.46 191.38 147.62 145.47 126.89 322.19 274.52 134.10 116.28 155.12 224.80 179.17 146.05 229.01 157.41 151.62 144.40 173.31 109.41 201.02 211.41 245.79 88.34 216.94 105.03 125.32 123.78 172.52 161.13 105.89 170.64 166.97 200.99 189.26 196.01 245.47 47.86 77.27 219.77 104.56 61.58 133.36 100.87 317.82 51.01 192.02 122.67 209.66 183.85 304.11 128.26 139.54 116.40 172.40 208.47 223.92 179.54 246.36 212.08 140.33 50.85 237.51 243.82 197.15 214.43 166.71 313.83 283.36 69.75 257.36 144.59 171.48 181.38 70.87 92.31 217.20 216.24 136.73 292.75 217.24 230.17 231.70 208.33 130.51 107.38 187.40 192.77 270.35 241.07 83.85 107.52 194.45 77.90 188.03 187.62 206.62 170.16 181.03 171.51 34.46 122.11 256.94 94.85 171.97 399.12 160.19 257.56 138.74 183.43 145.57 125.27 116.75 154.14 156.43 77.40 112.28 122.18 84.66 177.96 122.71 257.20 95.64 85.24 184.47 109.01 86.92 128.68 164.70 103.91 213.70 207.84 239.28 99.60 203.04 196.67 161.76 63.63 256.28 32.66 174.85 181.06 0.00 228.48 164.50 162.23 94.17 203.71 224.33 107.46 285.38 289.98 187.99 221.76 124.08 22.97 186.69 289.06 275.79 231.21 56.83 222.11 101.45 238.23 161.50 211.76 335.39 215.44 258.98 207.62 129.43
1088.76 151.65 509.82 298.10 265.71 305.73 253.83 175.79 325.79 216.95 250.87 189.43 356.47 341.84 327.01 257.75 308.68 177.39 346.20 308.59 343.95 453.28 327.90 130.89 205.44 326.03 313.81 207.91 131.24 286.47 359.82 82.45 349.72 271.70 395.56 278.35 293.09 352.26 167.81 144.60 312.52 339.64 153.20 346.71 87.68 116.60 157.08 234.20 267.06 120.56 249.09 285.27 307.25 252.16 429.13 241.55 205.68 170.11 355.38 216.59 325.26 308.84 278.50 277.28 367.38 176.36 383.48 147.62 414.42 386.06 303.48 255.01 386.81 235.41 201.86 347.18 367.92 446.02 450.96 252.95 233.45 303.95 311.96 162.98 231.03 299.48 134.82 159.98 308.87 397.45 229.97 146.97 248.25 344.97 302.50 194.60 181.54 356.09 453.55 433.03 285.28 280.91 218.08 280.21 296.77 178.39 171.04 178.51 357.13 144.25 194.02 154.27 207.88 270.54 113.49 570.49 166.97 440.72 302.41 106.21 139.42 157.25 310.86 164.69 149.35 270.13 289.00 181.92 238.04 108.66 311.04 485.68 286.77 252.95 141.23 244.02 295.41 244.87 114.55 201.67 281.23 227.79 404.04 302.60 76.21 252.14 115.18 281.09 246.82 215.82 174.47 193.27 228.48 0.00 360.86 131.63 285.93 190.85 116.62 284.96 231.87 480.52 350.18 245.39 177.74 236.87 111.94 436.88 352.40 204.07 273.58 351.18 273.40 400.42 178.83 343.06 316.54 411.65 417.24 301.42 292.33
840.93 320.19 253.51 112.92 206.08 108.59 327.58 257.82 147.52 219.76 177.48 265.16 264.19 43.92 74.33 187.01 381.97 373.74 30.40 77.76 118.57 180.14 225.72 229.97 304.72 202.49 156.42 219.36 274.79 118.74 180.24 308.04 293.53 166.10 238.17 87.11 70.15 51.70 266.22 266.75 69.10 116.55 287.34 250.79 273.18 311.40 358.68 185.90 140.31 313.47 147.73 124.56 150.25 168.24 203.48 178.65 270.49 250.79 242.12 260.51 375.56 118.63 151.77 166.20 133.42 324.99 136.19 283.24 166.59 161.55 129.92 135.62 262.94 335.54 277.24 250.62 116.18 284.12 222.94 125.35 329.25 131.57 210.12 285.39 173.31 115.07 320.32 306.08 178.77 339.70 278.80 340.37 312.46 206.47 132.30 235.50 274.40 196.57 155.24 105.82 102.29 165.77 291.02 135.90 213.45 281.58 300.32 265.09 53.89 273.94 169.22 253.91 347.67 152.85 281.70 348.90 263.89 141.06 168.04 294.49 281.99 245.74 101.80 260.63 282.57 132.91 112.34 252.60 127.42 288.01 168.18 218.20 116.22 120.53 291.02 170.63 121.51 175.37 276.08 211.61 273.82 273.86 224.15 111.36 295.87 268.12 245.68 128.74 335.82 160.78 278.55 261.22 164.50 360.86 0.00 289.87 97.97 288.17 344.38 130.84 352.72 208.73 146.97 302.52 241.86 172.04 285.65 316.05 341.97 341.16 132.53 269.85 159.45 204.39 268.76 247.96 416.15 108.41 290.51 156.69 120.92
1008.84 170.38 418.42 243.84 247.21 220.89 244.87 120.23 279.14 198.45 212.45 172.38 323.25 265.00 239.79 243.22 327.41 156.23 278.52 231.16 287.50 368.49 293.51 119.66 210.65 267.51 281.85 189.41 34.97 227.37 322.96 49.18 218.09 205.86 348.91 222.65 228.23 263.92 84.71 130.63 220.77 293.81 21.57 312.73 106.41 130.25 83.24 128.08 179.21 108.14 184.78 194.82 241.77 198.56 359.52 111.22 202.35 105.26 319.05 187.87 335.92 195.88 253.35 213.21 294.65 167.40 345.19 166.35 371.97 334.92 204.35 189.56 369.56 239.54 189.92 325.34 297.25 427.52 397.04 183.56 252.18 257.30 281.58 160.47 151.09 198.63 153.55 160.88 282.15 381.23 160.36 154.10 256.51 322.14 243.33 127.17 185.24 307.79 384.16 361.87 207.02 215.93 232.75 207.55 267.73 193.49 57.66 180.18 302.47 162.98 155.73 112.54 135.39 190.60 73.36 516.00 170.10 381.74 264.31 68.34 134.12 121.30 231.08 156.31 148.49 178.42 222.19 91.57 186.56 127.39 272.99 405.78 224.87 195.75 159.96 206.70 214.08 212.42 56.12 140.66 275.51 213.82 366.20 234.93 61.13 231.30 132.87 198.96 232.40 156.84 171.63 187.95 162.23 131.63 289.87 0.00 221.55 200.49 182.35 219.36 245.37 350.19 318.22 249.72 94.02 152.97 130.67 407.27 259.10 192.67 188.80 324.76 219.80 357.55 73.69 302.87 302.46 316.19 368.63 195.08 246.18
848.74 258.17 306.34 53.68 129.63 57.83 270.57 170.61 79.19 146.42 103.18 185.90 187.94 114.81 71.06 110.76 299.62 340.86 118.07 107.61 83.80 247.35 141.96 191.07 226.23 115.06 105.27 143.66 198.54 31.31 124.35 255.89 293.20 74.69 175.22 10.86 96.93 125.97 263.12 190.50 105.79 109.80 199.98 173.75 226.68 226.39 290.97 98.06 42.34 282.02 102.95 43.04 72.94 94.90 299.55 124.70 203.08 171.55 167.90 185.30 303.64 123.17 75.52 89.95 104.42 250.32 163.56 214.90 178.38 147.92 145.97 63.11 202.01 261.24 203.90 174.37 112.84 257.82 207.90 43.00 271.22 57.35 117.14 213.18 84.81 43.10 255.57 247.05 92.02 262.39 199.80 277.43 238.16 150.58 56.05 156.26 194.34 133.86 243.60 186.12 28.90 171.69 211.22 68.61 137.20 200.72 248.18 185.56 112.71 214.20 103.34 167.13 313.80 84.22 224.76 335.74 195.55 197.55 89.72 214.54 199.02 158.59 46.67 193.34 212.45 59.40 33.05 176.46 47.89 208.48 87.21 292.47 39.97 40.47 231.28 96.33 23.54 113.05 203.57 147.21 197.57 197.61 189.38 31.62 235.72 196.20 206.78 38.86 237.85 81.54 199.05 189.18 94.17 285.93 97.97 221.55 0.00 220.88 282.13 36.51 295.71 238.91 141.64 228.22 151.92 81.79 221.39 259.17 341.64 243.19 37.34 191.57 82.12 186.34 252.10 171.71 341.85 152.06 214.26 206.98 44.67
996.32 72.50 459.41 248.61 146.60 237.04 95.07 111.19 246.16 89.56 144.40 54.17 192.82 284.82 271.19 164.95 203.44 285.56 282.01 275.10 253.25 410.40 200.51 112.71 38.01 206.92 225.64 93.65 169.32 193.72 247.65 192.82 385.54 161.29 281.49 223.64 253.31 315.89 234.30 82.99 272.74 278.52 215.68 217.34 103.17 131.82 239.02 155.85 197.73 233.34 155.66 211.37 207.73 141.08 414.68 231.41 32.90 137.18 208.67 62.81 206.13 243.97 221.62 172.94 280.17 97.18 311.99 44.01 321.98 298.19 287.67 191.03 264.03 86.75 48.41 193.73 285.35 326.91 358.99 192.12 126.26 238.25 192.85 53.89 143.10 235.87 119.57 53.25 202.92 244.02 252.79 115.75 104.54 230.71 215.06 120.34 42.87 241.83 392.72 358.74 233.64 295.56 71.67 152.27 143.32 34.40 237.01 54.33 307.64 65.46 187.56 110.88 257.93 169.22 151.27 475.49 43.52 361.75 198.63 169.36 78.59 82.99 240.32 69.69 73.17 227.73 233.18 194.32 192.00 91.83 214.66 460.63 194.53 195.33 59.26 141.78 223.71 128.02 153.80 107.72 108.45 70.18 287.59 222.65 139.36 98.69 111.52 207.19 82.06 184.61 28.86 47.66 203.71 190.85 288.17 200.49 220.88 0.00 117.83 200.33 120.21 406.28 262.01 97.41 147.76 180.74 98.74 283.43 382.41 104.74 200.27 223.79 161.68 312.25 245.32 202.50 167.65 330.25 281.93 336.99 213.22
1067.48 45.33 475.05 297.82 222.30 281.46 150.73 136.52 306.54 172.67 212.78 125.62 291.54 344.81 322.99 231.34 276.20 227.80 343.00 325.51 307.68 449.13 283.62 114.41 155.84 280.29 314.95 170.27 158.51 273.51 326.13 135.27 376.66 221.67 358.11 290.90 303.72 348.11 228.06 118.50 323.15 339.54 180.14 302.43 87.17 70.62 211.90 216.36 253.37 223.16 217.79 267.86 276.63 201.46 482.25 244.80 131.62 165.61 307.39 161.47 257.98 307.38 287.37 221.41 349.02 73.26 397.61 93.22 393.14 377.77 335.21 237.95 352.41 132.22 147.13 292.45 341.59 402.61 425.26 251.86 171.73 296.67 268.55 82.53 223.05 282.97 40.79 98.29 274.08 318.06 318.24 30.35 173.73 307.33 273.59 168.89 127.03 311.77 452.46 409.39 273.64 276.41 170.39 241.53 216.62 128.75 228.34 112.92 352.27 91.58 239.41 115.00 268.75 233.81 108.99 546.65 104.03 436.71 274.69 140.05 110.54 150.20 287.31 116.80 104.09 265.72 301.55 184.13 250.59 95.02 260.06 439.74 263.58 265.31 108.66 209.60 269.87 196.40 143.81 163.19 207.17 148.12 366.40 276.22 146.27 197.41 114.67 269.08 140.50 222.41 108.81 126.85 224.33 116.62 344.38 182.35 282.13 117.83 0.00 278.78 126.34 483.77 341.59 163.79 169.03 201.36 100.70 377.83 382.64 107.42 244.79 303.58 222.70 382.49 232.26 281.69 243.68 392.53 358.83 353.65 296.33
831.07 240.10 339.28 66.25 114.39 62.49 261.77 168.42 74.30 128.84 76.97 181.92 163.60 127.10 95.00 95.32 282.70 304.35 113.58 129.90 87.85 268.42 108.88 196.15 218.13 100.48 86.49 136.06 231.41 23.71 104.35 259.05 326.27 73.09 152.08 43.73 128.35 154.32 260.87 189.60 119.51 100.32 197.79 155.18 233.62 224.20 288.78 97.46 40.15 283.38 92.39 67.68 36.43 77.32 332.66 131.49 185.50 190.44 154.70 177.33 277.77 139.55 51.18 78.58 111.32 249.42 140.18 198.32 156.73 138.25 170.15 76.40 182.45 235.03 186.32 151.23 105.20 254.25 206.41 59.14 262.44 69.90 111.96 196.99 102.28 51.29 237.99 223.91 77.90 225.88 236.31 259.65 220.05 130.58 30.18 172.87 181.50 126.64 259.74 203.30 62.33 200.87 199.53 55.86 135.07 173.03 245.99 169.22 125.13 193.85 120.55 180.42 311.61 72.81 234.07 343.17 185.19 212.89 65.92 217.70 196.83 146.35 66.13 168.20 199.26 70.05 56.99 181.96 60.88 217.88 67.65 303.97 16.83 45.97 209.27 83.82 59.72 93.35 216.86 163.92 182.13 172.88 156.32 38.52 227.39 170.33 211.86 63.50 235.66 110.24 171.47 152.67 107.46 284.96 130.84 219.36 36.51 200.33 278.78 0.00 278.92 275.42 116.73 215.71 165.21 96.21 216.47 239.61 354.90 262.27 50.63 183.93 74.52 173.10 249.85 162.04 328.91 175.18 189.92 228.28 35.00
1004.05 130.54 546.19 314.45 217.96 301.52 25.14 185.71 316.63 163.12 208.74 151.89 205.62 351.22 337.37 208.06 185.94 329.85 346.76 324.54 294.86 472.64 250.56 152.21 99.42 246.88 311.88 172.16 210.40 280.90 286.21 233.94 458.07 234.21 307.92 292.00 338.88 377.17 283.72 149.80 334.93 352.08 261.55 257.63 144.19 168.23 295.42 256.28 253.37 313.17 229.22 259.97 276.01 214.64 488.24 300.26 106.46 211.20 263.41 121.50 147.23 330.75 291.03 240.68 349.16 89.98 366.23 126.73 373.26 342.22 374.45 275.44 304.54 50.68 121.97 248.47 296.85 330.81 398.95 272.36 57.07 297.46 232.81 136.78 239.83 292.83 146.48 87.90 261.42 260.00 339.57 129.02 97.26 292.79 269.45 189.07 117.78 291.59 472.96 439.46 282.24 370.28 90.93 256.12 188.08 121.18 303.03 139.19 362.45 126.74 274.34 175.05 357.22 244.57 203.94 533.99 146.08 447.47 282.63 212.08 148.18 181.72 301.69 150.73 129.87 276.37 306.50 260.07 276.86 123.21 269.40 518.03 284.26 271.65 109.66 206.53 283.26 201.58 205.48 205.44 121.25 106.04 330.26 300.09 213.79 129.30 167.92 264.15 57.86 252.72 143.04 141.54 285.38 231.87 352.72 245.37 295.71 120.21 126.34 278.92 0.00 479.84 314.31 107.20 212.22 273.77 136.12 303.30 428.99 62.54 273.81 247.89 235.24 368.97 272.70 226.00 147.37 411.78 264.12 401.15 281.39
904.03 457.00 183.71 248.29 364.17 262.24 454.70 390.57 257.93 365.63 329.74 418.81 392.69 244.86 241.98 349.67 536.07 484.05 239.13 222.20 257.33 98.17 343.77 417.03 443.13 309.42 258.76 374.67 385.16 270.22 303.61 399.37 308.89 313.60 336.17 249.77 200.41 230.74 393.87 407.35 219.84 176.67 371.76 372.31 430.48 413.15 433.43 326.68 281.25 441.12 335.26 273.15 277.10 314.75 191.19 238.97 373.38 348.05 363.64 403.29 504.29 254.29 280.27 311.63 220.36 465.53 235.08 434.00 293.25 275.55 227.20 298.25 394.56 448.89 388.89 378.58 239.55 388.37 331.33 281.91 475.06 279.77 317.92 434.32 323.72 276.01 442.98 445.79 309.43 448.71 390.35 464.19 440.69 329.84 294.96 383.02 403.32 329.45 111.77 250.51 263.46 286.00 412.15 307.52 376.11 400.67 407.85 406.11 253.91 412.55 286.50 393.09 467.90 323.13 381.29 373.33 424.90 230.21 304.18 412.35 391.79 379.39 243.56 424.18 431.25 256.75 253.42 349.06 286.80 424.18 305.16 148.40 278.88 279.38 429.63 322.89 262.45 345.75 403.24 371.86 436.48 410.66 313.83 270.53 411.32 421.43 432.74 277.29 476.76 308.30 422.53 417.01 289.98 480.52 208.73 350.19 238.91 406.28 483.77 275.42 479.84 0.00 266.68 430.75 390.83 312.95 432.91 414.65 357.33 477.43 276.25 383.16 293.51 315.46 399.02 374.53 523.65 251.53 398.63 220.73 283.58
777.56 318.40 353.54 95.91 146.37 148.90 290.37 267.78 62.45 201.38 148.57 262.00 172.52 152.89 105.41 146.75 327.31 421.08 139.37 173.65 70.26 268.00 136.60 272.19 300.02 99.44 36.37 204.17 313.75 122.48 94.85 346.81 398.32 151.48 118.12 130.78 151.86 180.11 353.24 279.29 171.29 90.01 297.00 136.92 298.06 335.37 387.99 190.14 156.88 357.63 157.69 126.41 87.10 149.86 350.45 223.86 239.05 250.97 145.59 209.14 294.31 205.74 71.68 149.57 46.32 338.45 86.63 274.42 103.22 36.18 237.44 156.97 178.91 263.63 233.78 138.25 30.79 182.40 107.96 141.47 284.09 84.29 113.51 259.06 175.73 129.41 310.53 311.46 90.05 232.13 313.04 339.68 262.43 93.49 95.32 253.58 264.67 72.25 261.11 156.19 134.02 260.61 271.86 141.03 185.66 256.20 343.47 252.39 135.79 280.86 194.46 266.22 386.57 136.22 300.82 227.49 268.36 181.77 95.59 305.46 265.92 238.72 96.96 264.96 265.94 142.81 124.30 272.44 147.81 291.21 104.07 318.23 109.20 150.69 286.18 141.72 136.44 164.95 297.43 226.76 230.22 257.26 140.46 113.73 318.14 217.02 287.90 130.59 323.09 204.43 254.64 235.84 187.99 350.18 146.97 318.22 141.64 262.01 341.59 116.73 314.31 266.68 0.00 263.09 249.07 192.65 304.12 203.07 437.36 310.50 161.08 174.03 136.35 57.42 342.22 152.14 301.26 144.60 187.77 280.06 101.75
960.28 118.46 503.37 252.46 154.34 256.64 83.26 160.42 237.61 121.65 138.74 103.40 188.39 285.64 269.87 173.41 153.69 329.52 272.12 293.05 242.78 432.33 189.70 161.94 77.88 177.92 226.72 114.50 224.60 212.08 229.58 242.05 408.16 159.57 258.89 217.36 271.48 308.21 290.14 132.22 282.66 275.35 242.41 213.94 157.71 191.01 290.45 205.08 196.19 283.82 160.54 237.49 218.44 140.03 447.86 213.38 66.08 186.41 205.42 78.58 163.08 287.93 212.69 166.04 274.93 142.60 327.17 104.94 285.94 299.27 306.51 222.99 265.59 56.52 81.59 190.48 257.79 243.49 329.99 203.67 77.20 219.05 163.85 104.37 187.50 243.47 176.65 138.49 182.32 154.27 296.75 171.70 9.94 223.83 200.49 169.01 86.83 245.07 404.27 378.33 251.78 318.09 27.31 180.62 132.28 78.36 270.98 98.81 310.37 125.92 210.90 147.03 307.16 174.34 186.46 451.00 92.75 377.24 203.53 217.52 127.82 145.15 239.70 118.92 111.57 246.57 231.86 217.15 211.53 136.73 196.34 474.71 215.83 209.50 118.56 131.89 240.34 142.96 203.03 156.95 111.23 53.96 262.95 221.47 188.59 60.34 162.95 234.46 113.50 189.10 78.09 95.33 221.76 245.39 302.52 249.72 228.22 97.41 163.79 215.71 107.20 430.75 263.09 0.00 187.37 210.15 147.97 257.59 431.64 77.63 215.09 165.00 161.27 301.16 286.12 168.01 113.63 350.21 248.49 373.80 231.32
938.68 152.77 416.59 172.08 157.94 166.17 202.61 44.62 210.95 117.68 118.57 100.19 229.23 224.23 195.00 159.30 286.91 229.99 221.80 197.55 214.53 335.48 215.76 77.97 156.84 193.47 212.70 126.72 104.90 166.40 254.70 112.88 302.83 122.39 274.69 159.54 211.90 241.87 127.75 104.02 198.72 226.21 115.59 242.77 101.80 127.93 157.25 96.35 135.02 163.42 94.13 132.98 182.81 114.64 405.14 154.98 121.29 45.90 234.10 123.46 282.08 207.28 180.14 128.26 237.57 163.34 284.62 116.32 306.55 270.86 229.70 140.35 285.64 196.80 136.80 231.32 225.49 338.25 332.11 140.00 211.36 189.11 193.41 112.34 73.34 157.48 148.94 124.32 204.40 300.46 215.64 168.91 192.10 250.10 185.45 49.22 127.15 228.86 340.60 309.38 152.16 214.52 160.06 129.80 173.71 118.68 112.94 104.82 230.71 123.36 113.22 54.03 212.17 112.85 102.59 443.40 104.24 310.20 187.87 71.53 89.60 86.57 159.32 78.07 100.46 146.06 181.57 91.76 149.11 103.08 195.05 381.28 158.79 141.34 119.14 122.78 158.32 121.77 90.26 46.64 181.49 158.57 282.36 164.77 101.53 174.64 93.31 128.80 188.20 91.42 118.90 121.37 124.08 177.74 241.86 94.02 151.92 147.76 169.03 165.21 212.22 390.83 249.07 187.37 0.00 112.47 90.17 313.25 329.03 175.24 114.58 230.74 135.88 299.31 138.77 208.85 282.46 285.23 283.68 275.24 193.35
877.60 206.15 304.70 109.04 141.63 103.99 248.63 123.56 160.98 129.19 92.89 144.51 188.87 143.45 122.50 122.56 299.22 297.49 141.64 127.85 155.73 247.77 190.32 167.04 216.06 156.73 156.54 138.23 161.70 102.19 197.78 202.15 259.04 92.04 205.69 92.65 130.20 146.75 195.49 145.55 128.35 169.95 144.00 178.02 193.49 203.45 234.99 24.89 66.02 230.99 81.59 66.50 132.64 77.90 334.77 73.98 184.04 111.06 186.69 168.87 297.94 106.02 124.42 109.76 162.54 205.37 223.93 156.57 236.18 207.23 149.72 36.59 248.90 232.21 186.90 201.63 161.86 302.58 278.51 62.81 245.75 139.14 170.80 158.72 47.90 81.61 196.45 193.27 146.52 290.24 234.59 219.53 220.09 201.39 123.57 95.77 164.43 192.12 263.41 240.38 83.16 130.49 182.84 97.94 185.72 172.90 192.20 157.21 168.07 159.90 42.85 143.10 257.82 87.41 194.02 380.71 137.22 245.95 148.33 177.63 159.77 102.30 109.85 147.86 169.70 64.36 105.70 145.15 77.72 178.25 136.93 280.17 101.09 73.99 173.64 86.04 68.51 108.90 167.51 97.84 209.37 201.67 228.03 97.23 183.34 190.50 182.75 67.72 261.34 21.05 151.88 169.45 22.97 236.87 172.04 152.97 81.79 180.74 201.36 96.21 273.77 312.95 192.65 210.15 112.47 0.00 191.16 273.85 298.76 232.27 45.58 199.14 99.14 243.15 184.47 209.25 323.78 197.03 249.11 184.76 126.32
1012.02 62.60 446.20 233.56 169.96 242.91 156.27 86.10 266.08 121.20 165.50 77.49 258.17 302.96 262.47 161.92 196.74 209.92 302.63 277.35 258.90 411.49 232.15 55.68 109.69 230.28 267.75 112.16 95.70 192.76 261.52 117.31 336.60 176.64 300.00 213.81 255.56 310.47 165.94 56.68 274.99 301.21 140.08 250.96 24.26 55.20 161.68 174.13 190.64 184.22 153.34 214.52 235.34 170.54 460.21 193.94 110.78 106.69 259.63 122.54 226.98 264.06 235.36 181.53 301.89 80.61 343.91 58.39 337.68 327.77 287.07 197.61 291.06 146.18 111.16 256.48 284.45 350.27 382.35 188.41 137.70 244.24 216.21 60.49 151.12 235.63 68.38 64.14 218.62 302.24 277.16 78.74 157.91 249.22 231.70 105.12 85.79 260.34 389.01 367.16 231.68 243.32 122.33 189.87 194.58 87.47 178.07 89.28 292.59 43.42 190.62 72.77 221.10 175.66 75.90 491.19 65.62 378.56 211.45 75.96 41.12 88.86 246.32 68.94 48.27 215.66 224.46 151.04 173.50 12.91 227.48 443.89 206.53 188.41 45.48 162.40 230.87 149.12 94.59 124.13 182.53 126.65 308.29 230.19 101.17 159.71 39.97 213.06 147.27 179.84 69.88 85.28 186.69 111.94 285.65 130.67 221.39 98.74 100.70 216.47 136.12 432.91 304.12 147.97 90.17 191.16 0.00 346.18 318.69 108.32 202.56 255.43 191.78 333.67 176.96 240.12 215.71 347.11 320.60 293.89 244.86
906.91 336.82 523.77 255.86 188.44 248.09 306.42 327.67 219.19 225.59 206.05 280.61 97.68 319.01 245.77 207.51 271.13 508.44 332.30 331.17 207.66 439.92 142.13 338.45 304.88 158.72 199.70 234.63 373.59 231.40 135.81 413.84 511.71 237.36 117.95 253.21 313.95 333.27 437.92 324.33 331.29 237.98 398.46 95.83 349.20 341.58 424.87 282.45 263.21 454.30 241.55 282.41 203.18 221.04 495.95 316.93 250.53 333.45 104.50 258.38 226.01 346.82 204.50 197.32 243.32 360.35 249.72 289.26 232.57 226.25 363.00 268.18 57.16 294.23 235.02 89.70 199.87 86.77 194.61 248.16 290.94 208.57 152.44 295.30 259.44 263.07 371.41 318.90 185.98 113.24 439.01 367.91 247.65 109.58 213.84 293.43 267.57 130.82 372.57 308.46 269.60 379.21 254.31 235.82 161.21 276.04 403.82 275.79 262.39 302.76 292.74 331.71 504.00 248.45 362.79 294.28 299.53 301.01 187.99 372.49 326.05 314.93 266.04 306.71 305.88 290.56 264.90 362.86 263.07 333.88 171.96 488.46 224.10 266.74 302.74 212.90 259.69 222.43 368.82 266.61 182.05 268.96 102.08 254.10 388.81 221.06 348.82 278.95 328.96 270.94 285.81 267.01 289.06 436.88 316.05 407.27 259.17 283.43 377.83 239.61 303.30 414.65 203.07 257.59 313.25 273.85 346.18 0.00 533.29 331.36 273.58 92.59 215.44 186.77 434.23 112.17 240.45 308.65 77.21 405.38 229.33
1140.71 355.47 303.47 362.56 375.67 341.67 450.95 323.22 398.86 383.89 347.36 346.62 455.29 331.93 353.35 376.44 515.43 270.28 331.01 304.44 408.01 259.16 414.20 322.02 402.56 394.18 412.99 383.49 224.13 353.21 439.64 269.95 48.44 340.12 474.69 342.35 313.48 290.27 234.32 341.93 294.05 399.53 244.96 445.88 295.57 333.79 304.95 312.49 318.65 281.57 311.86 331.54 374.84 332.37 222.78 224.78 390.41 317.55 437.21 377.03 533.15 278.30 377.68 364.23 412.44 373.48 453.72 355.42 466.37 461.34 252.57 326.64 476.13 440.89 392.21 452.15 415.97 544.23 522.72 332.20 430.57 377.02 398.31 360.39 325.08 326.94 342.71 357.10 347.31 552.28 195.71 362.76 441.58 439.29 356.89 319.89 374.40 420.45 409.25 447.79 312.74 217.66 415.20 348.39 439.03 375.41 238.33 359.32 373.03 341.37 272.31 301.70 201.41 355.38 273.65 619.88 338.89 445.65 368.52 257.50 338.17 310.46 349.80 347.44 337.65 315.14 351.03 324.77 323.84 305.78 361.33 277.88 339.44 308.93 338.35 340.51 331.96 339.50 270.30 293.07 463.25 412.78 492.87 362.47 279.16 428.21 323.07 335.68 435.87 294.11 353.55 371.41 275.79 352.40 341.97 259.10 341.64 382.41 382.64 354.90 428.99 357.33 437.36 431.64 329.03 298.76 318.69 533.29 0.00 401.19 332.62 472.74 353.61 494.27 223.30 470.48 513.66 422.65 503.26 185.28 370.62
1029.75 68.00 522.51 296.87 184.01 293.84 67.86 130.62 291.85 135.25 190.29 126.17 249.27 347.12 314.25 197.51 184.35 302.05 333.60 320.88 298.94 456.01 229.03 137.66 70.29 223.66 298.72 126.21 187.83 238.56 287.84 212.80 410.76 206.98 308.15 254.05 308.96 354.99 258.71 96.54 328.39 324.21 214.24 265.01 116.39 143.22 256.19 207.38 239.87 285.29 197.84 256.31 270.53 186.77 500.75 238.46 118.97 185.12 256.60 146.22 209.77 307.07 266.72 214.17 328.71 64.97 367.00 112.77 355.41 346.68 331.59 225.75 333.21 46.87 121.58 241.66 321.78 321.12 396.40 244.96 86.38 286.98 230.26 116.55 213.57 284.31 121.47 85.59 236.35 231.90 315.89 107.88 87.57 263.27 256.59 149.64 89.03 274.39 445.56 422.98 272.09 323.46 104.94 220.69 209.91 97.50 250.33 113.47 355.90 96.82 246.16 146.53 327.51 203.74 164.82 508.92 95.05 406.64 255.97 182.37 85.64 139.79 289.86 118.03 108.29 267.25 276.24 231.01 251.14 95.41 250.37 488.41 252.33 242.90 113.90 193.37 266.73 173.91 163.64 167.54 169.42 110.52 322.34 274.81 185.99 137.97 135.96 256.88 44.36 224.36 109.71 117.86 231.21 204.07 341.16 192.67 243.19 104.74 107.42 262.27 62.54 477.43 310.50 77.63 175.24 232.27 108.32 331.36 401.19 0.00 250.59 242.63 207.37 347.72 247.69 245.64 138.14 395.25 314.21 376.39 258.91
849.91 235.32 308.45 65.17 124.46 66.51 248.67 148.71 116.53 115.34 90.05 164.00 191.02 120.47 106.13 107.86 282.04 331.35 124.22 104.03 116.96 248.52 159.51 153.73 224.51 147.40 129.01 124.38 202.42 68.65 154.98 226.31 301.88 69.52 160.11 48.20 97.32 143.76 229.35 179.78 100.61 124.37 178.08 185.68 196.94 203.69 269.07 60.72 20.44 266.82 89.94 39.46 87.06 89.73 298.94 107.84 167.37 149.91 177.01 163.83 284.09 125.86 95.21 86.33 124.45 239.60 182.78 177.56 198.41 179.64 131.58 25.77 220.90 242.88 182.88 189.91 139.92 257.00 243.90 25.42 244.14 94.69 150.59 179.03 63.86 51.78 233.52 224.87 125.58 276.51 201.71 240.52 225.03 164.00 80.81 135.46 182.28 165.32 226.02 194.80 37.58 164.35 189.32 65.47 171.45 183.14 226.28 162.47 124.20 191.38 88.43 129.79 291.90 66.64 187.42 366.70 158.21 224.63 105.54 184.96 177.12 137.64 73.75 175.53 175.11 31.48 69.05 164.40 35.54 196.13 118.28 273.14 55.51 28.41 194.63 83.20 54.50 106.43 166.23 126.26 194.67 187.82 182.45 51.65 198.38 176.65 169.44 40.03 215.95 66.63 172.87 169.60 56.83 273.58 132.53 188.80 37.34 200.27 244.79 50.63 273.81 276.25 161.08 215.09 114.58 45.58 202.56 273.58 332.62 250.59 0.00 192.53 85.80 205.33 218.33 170.64 328.25 178.72 229.76 198.87 81.48
901.85 277.18 487.81 207.10 120.68 198.71 228.38 237.39 163.74 134.23 160.71 196.53 42.27 267.94 230.26 139.75 281.65 445.41 272.61 270.62 175.51 414.63 93.35 252.76 225.24 88.50 137.66 143.27 313.72 172.25 130.64 343.62 458.18 175.62 93.89 182.74 264.57 290.24 358.49 234.05 273.16 206.49 334.72 54.07 263.50 296.24 371.67 224.03 212.97 380.17 184.49 212.19 154.42 167.33 447.19 263.49 190.89 251.03 59.30 182.72 220.08 292.28 144.58 165.14 216.59 293.24 237.75 222.38 227.51 198.79 310.34 212.77 119.47 201.64 189.68 44.36 168.37 123.33 240.57 210.70 198.35 159.81 74.43 221.05 210.62 211.10 294.09 260.17 125.43 123.76 348.73 276.55 155.06 128.36 158.80 234.45 205.56 107.12 343.82 286.54 210.37 329.63 192.31 170.65 141.21 197.09 343.68 193.28 243.10 236.73 215.96 241.43 424.60 187.60 299.06 293.25 209.25 293.58 135.98 302.27 234.69 227.39 206.37 233.60 215.60 224.01 207.02 282.64 200.36 242.52 123.20 452.51 169.56 212.20 236.00 167.56 191.15 177.09 301.50 219.95 126.64 179.99 116.23 178.76 306.03 154.90 260.46 214.73 261.10 220.19 195.53 176.73 222.11 351.18 269.85 324.76 191.57 223.79 303.58 183.93 247.89 383.16 174.03 165.00 230.74 199.14 255.43 92.59 472.74 242.63 192.53 0.00 178.66 194.93 369.51 21.89 278.63 281.35 102.37 356.62 148.93
871.35 204.78 366.38 93.83 71.93 118.74 210.10 151.84 111.96 72.12 36.23 134.42 136.39 168.87 135.91 62.80 242.56 322.45 163.24 142.19 104.39 290.29 114.42 189.41 181.75 100.07 99.98 81.16 213.71 50.81 119.78 227.62 345.20 32.72 164.37 82.44 158.26 189.93 251.81 177.19 152.58 116.84 210.83 132.63 185.72 211.74 271.99 91.72 75.29 257.95 41.75 77.62 79.01 21.24 337.12 151.24 128.78 161.02 123.96 120.61 240.87 165.48 64.67 18.12 151.45 225.55 174.91 158.62 197.01 172.23 192.52 84.90 180.75 194.29 130.24 138.90 142.50 222.64 221.97 63.60 212.02 90.12 114.14 158.12 68.71 96.56 181.91 201.19 77.95 198.67 262.65 214.44 171.21 141.05 88.67 145.95 152.17 135.46 264.20 219.82 99.89 202.96 149.11 23.55 86.58 143.86 217.71 127.73 152.86 167.96 121.31 173.36 291.74 33.01 202.36 350.52 147.40 235.91 56.74 186.27 167.55 135.81 106.59 148.28 154.00 92.42 101.22 179.90 50.26 178.87 65.95 331.07 64.58 65.17 170.65 29.38 94.99 52.24 167.54 124.12 149.61 144.60 172.22 88.24 205.88 133.43 198.35 81.80 218.75 115.87 142.30 123.50 101.45 273.40 159.45 219.80 82.12 161.68 222.70 74.52 235.24 293.51 136.35 161.27 135.88 99.14 191.78 215.44 353.61 207.37 85.80 178.66 0.00 186.59 246.91 156.77 274.90 191.70 173.54 233.69 90.19
720.14 357.44 374.83 153.33 183.56 184.11 347.79 309.45 110.23 230.55 198.81 282.27 192.87 210.31 157.29 202.63 376.87 475.69 196.79 231.07 102.54 320.08 163.16 322.43 336.61 151.38 86.61 221.51 350.07 178.35 82.76 394.79 451.21 201.72 108.08 175.48 209.28 232.55 399.12 318.72 227.62 142.09 335.98 140.86 341.74 372.61 426.97 240.38 210.70 407.87 207.93 176.65 137.34 200.10 351.69 269.49 287.21 303.05 149.53 266.56 323.42 263.16 121.92 188.81 98.40 376.90 102.05 300.46 45.80 43.21 279.23 207.21 129.61 321.05 291.10 164.47 88.21 170.57 50.54 191.71 341.51 132.07 137.31 299.96 225.97 186.30 360.77 347.77 147.47 268.48 349.36 370.06 311.10 106.40 145.92 301.36 294.01 108.60 203.69 138.42 191.44 292.89 303.24 191.27 196.86 295.24 384.18 269.57 170.13 320.92 244.70 316.46 429.00 186.46 345.53 170.07 287.75 160.25 145.83 353.44 303.16 296.14 154.38 304.65 316.18 179.13 181.72 320.22 197.48 320.76 154.46 339.52 166.62 200.93 317.53 191.96 192.43 215.19 334.71 274.54 263.69 291.36 95.42 163.97 368.38 240.82 338.14 180.83 379.53 237.22 289.93 284.28 238.23 400.42 204.39 357.55 186.34 312.25 382.49 173.10 368.97 315.46 57.42 301.16 299.31 243.15 333.67 186.77 494.27 347.72 205.33 194.93 186.59 0.00 388.10 186.79 351.50 121.88 161.93 314.37 146.46
1035.01 221.60 402.09 283.07 275.70 251.44 260.19 177.10 305.08 255.30 240.66 223.60 352.88 254.24 270.74 270.33 358.78 126.09 260.36 220.40 316.62 386.30 320.62 165.52 250.27 300.32 313.12 246.26 86.19 246.79 342.38 122.87 235.01 232.97 368.27 258.79 198.61 261.19 11.02 191.55 218.04 329.49 52.12 354.83 157.63 168.46 105.45 171.23 209.76 58.27 211.89 223.08 283.19 225.67 321.40 165.92 250.02 135.81 346.16 239.09 363.64 224.27 280.51 240.32 325.20 182.72 361.69 203.13 400.05 369.03 259.05 212.35 396.67 286.93 246.79 357.01 328.21 456.01 427.59 214.11 278.28 295.04 302.36 213.18 178.20 244.54 198.29 225.77 298.23 432.97 122.24 219.50 296.06 324.65 270.53 187.99 226.37 339.89 414.71 358.35 245.35 232.66 258.81 234.66 312.48 228.05 45.12 228.44 275.60 202.42 195.96 163.76 95.44 217.71 123.27 558.17 222.48 355.33 294.86 101.00 190.99 172.52 276.99 208.54 199.71 208.97 252.74 106.89 229.02 178.61 284.21 418.70 233.02 237.38 186.06 233.81 248.42 235.43 112.99 182.33 320.26 274.74 383.72 261.10 131.00 261.85 181.23 225.13 266.35 194.16 223.07 241.87 161.50 178.83 268.76 73.69 252.10 245.32 232.26 249.85 272.70 399.02 342.22 286.12 138.77 184.47 176.96 434.23 223.30 247.69 218.33 369.51 246.91 388.10 0.00 347.62 368.58 330.12 395.74 225.63 265.78
879.96 258.25 468.91 194.84 111.14 188.05 229.12 215.50 141.85 156.12 138.82 184.09 20.38 247.29 208.37 119.87 269.06 426.36 255.88 261.59 153.62 393.98 71.46 243.48 231.51 77.86 115.77 165.16 297.11 153.34 108.75 321.73 444.62 166.08 111.50 160.85 253.91 268.35 336.60 212.16 251.27 197.86 312.83 45.93 255.38 274.35 357.64 222.99 191.08 372.27 174.32 197.02 143.78 153.81 435.34 249.84 180.30 229.14 37.41 184.19 198.19 273.16 132.80 143.25 194.70 271.35 238.77 200.49 205.62 176.90 298.56 190.88 97.58 223.53 167.79 22.47 169.73 145.22 235.03 189.00 220.24 147.96 75.79 199.16 199.98 199.09 272.20 238.28 123.17 121.75 326.84 261.82 176.95 106.47 148.16 221.87 183.67 85.23 338.38 264.65 193.79 309.50 187.08 160.01 121.11 175.20 321.79 171.39 221.21 214.84 224.00 219.54 402.71 176.96 277.17 315.14 187.36 282.94 125.34 280.38 218.41 235.17 184.48 213.53 193.71 202.12 185.13 293.96 189.72 246.68 112.56 433.60 156.87 194.27 214.11 145.67 184.85 155.20 279.61 222.56 104.75 186.26 133.84 156.87 284.14 133.01 258.50 192.84 250.09 218.46 173.64 154.84 211.76 343.06 247.96 302.87 171.71 202.50 281.69 162.04 226.00 374.53 152.14 168.01 208.85 209.25 240.12 112.17 470.48 245.64 170.64 21.89 156.77 186.79 347.62 0.00 271.44 272.72 80.48 345.98 127.04
1071.64 206.14 614.62 356.95 267.97 370.27 133.83 237.84 290.97 235.28 252.37 201.19 251.06 396.41 357.49 253.50 46.21 414.52 385.75 403.80 302.74 543.10 296.00 234.06 129.64 285.63 264.89 228.13 295.52 324.56 336.19 319.64 520.55 273.20 346.64 330.99 384.43 421.84 357.56 207.99 396.29 346.98 324.03 273.32 228.86 243.18 345.85 317.79 309.82 360.76 271.82 339.23 315.62 253.66 561.49 327.01 179.71 281.14 264.65 192.21 90.76 399.18 300.20 279.67 343.82 199.17 387.89 193.74 397.30 337.44 420.14 308.67 297.61 129.81 195.22 271.81 324.60 287.34 402.04 302.83 90.30 312.81 277.48 207.80 301.13 357.10 241.69 198.93 295.95 203.53 408.00 214.72 123.57 337.46 314.12 261.93 198.08 337.81 503.43 437.96 361.21 400.50 140.94 294.25 233.52 189.61 360.12 212.44 370.33 172.29 324.15 257.98 420.79 287.97 268.35 494.85 205.46 469.60 317.16 288.45 206.05 250.64 353.33 213.06 182.00 350.17 345.49 330.78 317.74 207.88 309.97 588.34 329.46 323.13 182.52 245.52 349.92 255.51 284.05 254.74 166.69 167.59 342.53 335.10 279.16 173.97 218.35 339.80 166.55 302.73 191.72 208.96 335.39 316.54 416.15 302.46 341.85 167.65 243.68 328.91 147.37 523.65 301.26 113.63 282.46 323.78 215.71 240.45 513.66 138.14 328.25 278.63 274.90 351.50 368.58 271.44 0.00 385.36 278.15 487.43 311.72
786.51 357.07 307.91 113.55 233.97 143.96 392.55 314.90 151.06 263.82 226.87 323.98 290.88 95.06 135.05 239.80 424.67 454.28 96.31 128.90 122.11 222.37 221.18 332.23 356.18 207.61 156.95 272.86 341.20 181.08 183.09 365.37 374.21 212.21 229.96 156.37 150.69 136.72 341.14 325.49 139.29 74.86 294.62 262.74 355.11 370.68 385.61 214.52 186.63 388.39 233.45 153.86 177.87 212.94 229.81 230.46 320.19 302.93 261.83 290.28 402.48 145.80 178.46 208.38 98.28 378.35 66.86 299.31 112.17 153.47 181.06 176.28 251.49 384.93 314.92 271.25 136.24 292.45 168.52 171.43 394.65 172.90 216.11 314.67 236.45 148.47 373.61 346.62 184.71 367.28 307.27 398.36 340.27 207.33 185.69 288.64 324.85 208.93 196.51 97.62 147.74 207.12 337.58 199.96 274.56 323.25 342.82 311.28 54.52 320.76 231.56 308.29 389.02 196.95 336.20 291.95 316.05 89.45 163.50 335.47 331.49 282.24 125.91 324.69 325.62 170.26 132.70 303.74 173.61 334.20 179.53 272.60 171.41 170.98 316.38 221.08 128.52 243.25 316.74 281.62 324.88 310.93 212.02 153.52 338.29 312.22 333.79 158.04 382.14 218.08 301.39 315.20 215.44 411.65 108.41 316.19 152.06 330.25 392.53 175.18 411.78 251.53 144.60 350.21 285.23 197.03 347.11 308.65 422.65 395.25 178.72 281.35 191.70 121.88 330.12 272.72 385.36 0.00 283.81 237.37 159.16
882.07 313.50 499.18 233.15 162.62 233.05 289.26 295.98 177.48 200.85 196.42 263.15 100.86 282.92 229.03 173.09 231.94 479.98 296.44 289.31 189.25 421.98 105.66 319.38 243.92 131.79 151.40 209.89 348.85 193.15 114.63 388.62 484.78 206.26 69.65 203.40 297.46 297.37 406.76 292.64 292.28 221.96 356.56 71.09 330.12 344.39 427.68 240.55 219.84 415.48 207.79 224.74 168.25 187.28 449.40 290.00 253.34 309.62 77.57 232.94 250.57 308.95 138.74 155.42 200.30 351.83 232.44 280.97 207.73 155.36 304.50 242.43 40.42 292.66 237.83 92.51 178.69 74.66 177.87 208.53 300.72 164.19 127.70 279.64 217.54 238.33 347.95 313.21 155.95 137.80 407.32 342.30 257.43 103.84 162.74 260.96 264.15 125.08 355.29 287.32 231.73 327.26 257.12 181.08 158.23 255.68 391.25 251.87 243.20 295.32 261.52 300.02 465.28 198.03 357.65 282.17 267.84 284.27 134.74 347.27 293.89 270.84 225.49 279.78 274.19 241.14 233.80 320.96 214.87 309.14 150.77 463.87 186.23 221.83 286.00 189.57 219.91 202.53 341.08 274.47 185.23 258.24 84.80 197.88 351.88 213.49 327.08 228.92 321.98 246.20 254.12 235.32 258.98 417.24 290.51 368.63 214.26 281.93 358.83 189.92 264.12 398.63 187.77 248.49 283.68 249.11 320.60 77.21 503.26 314.21 229.76 102.37 173.54 161.93 395.74 80.48 278.15 283.81 0.00 370.45 193.57
981.54 330.67 269.78 201.09 289.59 182.20 376.01 306.73 262.48 303.14 260.94 314.70 345.47 146.65 192.49 275.49 451.41 340.01 145.73 119.16 247.24 275.78 293.39 287.46 362.56 268.12 252.93 302.77 230.05 222.74 311.73 244.26 136.84 238.89 334.68 205.33 128.20 104.99 236.65 311.47 108.77 248.09 173.51 331.01 299.25 298.42 264.50 203.95 199.84 272.19 246.67 167.48 202.20 251.62 276.39 160.42 329.88 254.75 322.34 334.79 449.80 93.02 233.05 248.64 237.99 348.68 268.44 330.62 314.84 293.18 67.29 193.11 348.22 380.76 339.92 325.14 271.27 424.00 364.91 194.79 405.77 240.64 282.19 335.89 226.96 176.99 328.25 332.30 247.44 391.65 254.49 349.18 383.74 319.70 220.15 280.29 311.06 303.48 225.00 262.51 189.75 126.09 353.64 210.14 316.31 302.59 221.71 327.40 210.58 316.57 207.95 302.29 287.33 227.09 244.66 455.55 316.28 260.37 235.71 237.63 313.24 268.22 209.44 315.38 331.01 167.39 201.08 233.62 209.55 280.98 233.42 257.15 215.74 215.90 313.55 259.76 189.72 267.90 242.62 261.15 362.30 364.32 352.82 203.17 256.21 342.36 271.75 171.66 395.35 205.57 324.45 322.95 207.62 301.42 156.69 195.08 206.98 336.99 353.65 228.28 401.15 220.73 280.06 373.80 275.24 184.76 293.89 405.38 185.28 376.39 198.87 356.62 233.69 314.37 225.63 345.98 487.43 237.37 370.45 0.00 228.12
808.61 264.91 343.12 67.80 118.74 61.01 261.64 195.24 39.30 123.66 111.97 185.96 147.42 142.36 90.42 100.61 265.51 339.35 128.84 134.55 56.55 274.29 118.59 222.97 233.29 92.07 65.38 132.70 221.49 55.41 125.07 271.48 331.05 96.84 147.13 33.81 126.87 141.31 254.76 213.45 124.23 120.56 224.61 154.12 251.88 251.02 315.60 124.28 66.97 301.04 103.17 69.98 48.78 108.12 322.28 145.84 180.32 208.81 145.45 172.15 278.42 146.12 54.83 79.17 92.15 273.27 153.54 218.29 134.27 103.25 175.92 96.93 172.17 255.83 195.83 149.09 92.23 260.17 184.98 68.20 264.08 34.90 103.00 220.44 120.01 77.76 264.43 248.72 71.39 228.91 244.47 265.98 228.63 143.65 30.83 185.41 203.02 127.43 268.80 206.76 66.75 182.46 219.09 66.64 160.15 206.43 272.81 196.83 124.14 218.66 98.31 205.06 338.43 83.59 199.07 316.53 198.94 208.32 66.57 230.13 218.13 171.16 57.44 191.37 213.31 86.34 58.09 203.22 74.12 231.95 57.37 307.81 41.64 67.23 232.44 113.32 57.81 118.91 233.89 174.70 180.85 196.14 162.13 29.83 236.35 170.98 236.36 65.80 262.48 118.80 201.12 187.67 129.43 292.33 120.92 246.18 44.67 213.22 296.33 35.00 281.39 283.58 101.75 231.32 193.35 126.32 244.86 229.33 370.62 258.91 81.48 148.93 90.19 146.46 265.78 127.04 311.72 159.16 193.57 228.12 0.00
DEMAND_SECTION
1 0
2 24
3 34
4 44
5 74
6 98
7 51
8 65
9 20
10 25
11 66
12 75
13 87
14 57
15 45
16 59
17 76
18 64
19 63
20 30
21 26
22 33
23 58
24 9
25 92
26 72
27 67
28 43
29 3
30 79
31 55
32 13
33 95
34 69
35 63
36 42
37 70
38 24
39 16
40 74
41 33
42 63
43 89
44 85
45 9
46 62
47 38
48 11
49 65
50 79
51 83
52 83
53 36
54 35
55 83
56 53
57 31
58 83
59 43
60 92
61 29
62 36
63 99
64 61
65 71
66 48
67 92
68 8
69 4
70 10
71 37
72 100
73 22
74 77
75 22
76 94
77 98
78 42
79 14
80 22
81 76
82 7
83 47
84 19
85 8
86 23
87 1
88 10
89 64
90 14
91 69
92 22
93 74
94 77
95 35
96 14
97 79
98 6
99 73
100 47
101 32
102 30
103 18
104 2
105 12
106 96
107 42
108 77
109 75
110 17
111 25
112 32
113 42
114 86
115 21
116 67
117 35
118 44
119 99
120 91
121 54
122 16
123 38
124 6
125 27
126 62
127 53
128 27
129 32
130 8
131 78
132 10
133 76
134 75
135 56
136 100
137 34
138 90
139 70
140 65
141 85
142 47
143 76
144 70
145 28
146 90
147 3
148 29
149 73
150 67
151 6
152 11
153 88
154 6
155 28
156 50
157 45
158 35
159 27
160 46
161 73
162 33
163 90
164 11
165 22
166 22
167 82
168 66
169 37
170 26
171 95
172 95
173 71
174 14
175 78
176 86
177 42
178 97
179 48
180 71
181 33
DEPOT_SECTION
1
-1
EOF
