NAME: LDG115_1242_none_115_0181
COMMENT: CVRP with travel times.  rootPos=1,custPos=2,demandType=4,avgRouteSizeIndex=2,weather=none,lambda_cluster=1,lambda_random=4, T1=300,T2=700,beta=1, alpha(i,j) ~ U(0.8,1.2)
TYPE: CVRP
DIMENSION: 116
EDGE_WEIGHT_TYPE: EXPLICIT
EDGE_WEIGHT_FORMAT: FULL_MATRIX
CAPACITY: 392
NODE_COORD_SECTION
1 500 497
2 246 885
3 319 667
4 218 203
5 308 668
6 312 843
7 87 960
8 189 748
9 303 209
10 270 557
11 31 916
12 274 905
13 232 757
14 246 941
15 164 691
16 213 847
17 340 127
18 258 920
19 6 899
20 438 184
21 308 908
22 129 742
23 240 654
24 192 168
25 308 794
26 301 753
27 331 125
28 259 717
29 197 944
30 328 193
31 225 714
32 254 699
33 83 617
34 212 703
35 352 205
36 200 816
37 235 1000
38 206 770
39 112 872
40 464 144
41 248 883
42 266 698
43 72 869
44 237 760
45 373 815
46 389 288
47 15 995
48 52 590
49 206 709
50 292 715
51 236 835
52 209 891
53 437 143
54 370 257
55 291 939
56 213 855
57 107 168
58 309 477
59 225 736
60 198 195
61 186 815
62 391 895
63 133 719
64 375 219
65 217 824
66 131 836
67 205 691
68 430 478
69 465 225
70 352 191
71 4 998
72 183 674
73 174 837
74 313 282
75 304 784
76 4 948
77 224 930
78 314 796
79 314 82
80 174 987
81 267 672
82 292 748
83 281 712
84 402 137
85 92 972
86 282 382
87 210 957
88 218 810
89 128 664
90 26 937
91 227 774
92 293 176
93 401 71
94 366 164
95 241 847
96 259 756
97 274 734
98 324 569
99 200 631
100 253 735
101 274 744
102 347 182
103 263 882
104 6 1000
105 365 152
106 141 586
107 363 166
108 415 517
109 220 743
110 222 61
111 241 839
112 323 863
113 406 114
114 126 751
115 214 148
116 299 968
EDGE_WEIGHT_SECTION
0.00 475.74 246.24 506.39 274.55 443.76 593.07 403.85 448.46 260.73 616.23 471.64 389.41 518.27 439.63 458.32 466.80 507.30 628.34 385.56 499.03 459.60 394.42 505.66 386.83 344.05 478.52 357.56 536.84 425.83 374.69 354.12 452.27 397.73 409.10 427.96 573.41 408.15 561.32 464.36 466.99 331.24 574.35 396.80 468.42 347.05 652.40 474.57 400.11 331.73 437.79 503.59 426.31 327.77 518.71 468.86 538.16 227.61 395.19 473.56 457.18 550.73 443.35 367.04 423.47 516.38 398.06 130.09 451.86 399.77 670.66 427.46 480.81 390.64 365.20 635.35 520.07 393.81 528.48 606.57 335.06 353.35 349.61 466.75 618.78 346.98 555.59 445.46 461.92 643.33 404.55 489.71 543.05 426.23 454.20 353.27 358.52 332.14 371.10 348.98 371.79 408.30 436.28 681.61 451.69 364.24 432.60 163.61 367.64 547.10 438.97 470.42 479.09 451.38 543.19 550.92
475.74 0.00 236.27 690.86 246.32 71.52 233.58 184.64 630.56 323.09 231.93 34.00 142.97 72.46 207.46 85.15 721.28 45.01 279.24 670.27 94.89 169.25 254.94 660.98 128.45 173.23 733.99 194.74 106.08 649.44 176.98 176.58 321.50 198.65 645.43 100.91 158.45 138.14 191.80 694.39 8.75 198.43 226.20 128.14 156.22 597.41 295.00 340.30 185.57 184.05 67.42 54.79 732.44 595.94 100.70 58.52 649.50 374.86 149.57 681.85 126.41 181.84 190.77 635.21 59.04 151.95 212.85 446.50 634.12 676.97 313.26 224.54 119.06 552.43 128.96 263.91 71.45 142.65 732.58 157.28 214.04 158.83 201.12 738.64 222.40 462.92 123.49 94.36 253.60 259.03 120.80 679.46 771.22 694.55 51.01 146.00 173.17 298.69 263.04 162.20 164.80 670.95 39.46 308.06 699.12 333.20 680.03 382.45 149.74 773.69 60.93 101.93 727.68 190.64 660.18 129.78
246.24 236.27 0.00 490.53 28.31 197.52 346.83 157.61 449.39 138.71 369.99 270.27 143.17 272.03 210.06 212.08 545.32 272.10 396.96 551.67 272.25 213.36 148.18 567.53 140.59 121.51 560.36 111.32 324.46 519.09 128.45 107.88 296.17 151.49 489.86 181.72 327.17 161.91 315.08 595.83 239.17 85.00 328.11 150.56 229.34 487.44 406.16 302.74 153.87 85.49 191.55 257.35 564.37 421.03 308.23 222.62 630.08 284.92 148.95 529.29 210.94 304.56 197.11 460.30 177.23 270.14 151.82 318.61 561.77 486.08 424.42 181.22 234.57 413.61 118.96 425.41 285.18 147.57 613.68 362.01 88.82 107.11 103.37 558.58 372.54 307.35 309.35 199.22 216.95 397.09 158.31 544.79 534.95 512.54 207.96 107.03 112.28 118.94 135.03 102.74 125.55 501.56 248.12 435.37 540.61 229.58 524.29 230.11 121.40 650.37 192.73 224.18 585.17 220.00 585.60 304.68
506.39 690.86 490.53 0.00 518.84 682.23 780.74 585.86 146.19 391.05 756.95 716.76 558.62 731.47 553.59 648.79 204.45 727.82 756.25 268.58 676.85 557.90 504.19 77.65 630.18 608.78 189.41 555.72 743.12 184.17 517.51 537.56 568.65 496.06 151.10 616.30 806.50 573.84 672.11 281.47 685.74 541.58 683.76 562.72 623.58 211.77 806.55 608.37 512.27 555.32 655.44 675.57 243.42 178.62 731.30 673.10 181.08 401.02 544.92 38.76 629.90 705.89 590.58 139.35 631.82 671.16 478.01 428.73 257.05 182.64 824.81 517.47 669.83 203.98 608.55 788.99 722.00 637.16 229.94 802.98 565.30 594.38 537.44 208.22 797.23 281.65 748.64 617.60 557.59 784.05 577.50 120.29 305.54 208.89 646.83 575.73 567.21 462.46 501.42 556.04 587.44 179.57 674.74 835.76 206.81 516.64 195.25 434.05 562.62 208.58 641.98 707.27 252.96 579.29 95.07 772.94
274.55 246.32 28.31 518.84 0.00 209.11 362.41 169.58 421.08 146.24 362.12 280.32 115.21 281.04 197.75 210.16 517.01 243.79 378.81 567.13 273.74 203.89 119.87 575.06 152.18 115.86 532.05 83.08 296.22 496.69 123.79 79.57 296.14 146.83 479.96 190.73 337.61 151.43 310.93 580.02 254.08 103.76 300.15 130.04 224.34 459.13 434.47 274.43 163.04 88.14 178.90 260.11 541.97 398.63 306.04 231.88 658.39 292.45 130.64 557.60 188.08 306.65 168.80 437.90 197.11 278.88 128.99 290.30 555.60 469.77 452.73 168.45 237.58 441.92 147.27 405.38 282.99 166.38 585.37 349.36 115.99 109.07 80.23 530.27 371.20 314.88 315.96 184.93 216.92 389.22 139.18 516.48 563.26 496.23 195.31 116.04 123.03 147.25 162.50 119.15 97.24 479.16 256.52 451.75 522.55 257.05 503.46 201.80 136.98 627.97 190.54 237.01 562.77 225.28 563.17 328.56
443.76 71.52 197.52 682.23 209.11 0.00 264.47 200.27 614.53 294.86 285.43 85.94 145.90 143.98 206.30 121.12 684.00 111.09 328.40 639.29 88.29 218.89 240.14 667.10 56.93 111.07 669.65 148.04 162.54 629.92 171.99 166.20 294.52 195.03 627.90 124.90 229.97 154.71 236.18 640.93 80.27 186.07 249.74 138.30 84.70 550.71 350.86 349.45 204.18 130.59 90.96 126.31 678.98 571.32 142.74 107.53 680.00 386.58 169.99 643.47 154.12 121.08 231.17 610.59 127.28 195.74 209.10 399.43 638.18 616.97 360.68 234.75 164.36 597.99 78.56 335.43 142.97 71.13 727.59 223.36 176.44 125.47 148.47 677.27 289.98 463.50 175.43 111.73 274.93 312.53 130.59 693.80 732.47 643.43 83.37 128.07 163.39 227.17 216.18 166.26 146.87 599.43 110.98 357.07 648.66 310.73 629.57 310.93 167.67 748.24 77.50 43.19 715.34 217.38 649.80 195.86
593.07 233.58 346.83 780.74 362.41 264.47 0.00 261.64 730.38 432.11 116.99 227.55 247.20 195.96 316.88 217.67 820.48 226.26 121.29 789.08 268.86 238.47 349.20 736.67 274.80 299.04 833.19 290.41 183.72 748.64 271.07 308.57 398.82 291.99 771.47 217.16 186.79 256.09 162.35 813.94 236.82 324.96 112.61 262.03 349.17 693.08 107.95 396.63 303.89 303.60 200.43 196.26 851.99 725.86 252.52 239.99 718.72 527.99 254.93 757.61 187.94 323.19 242.38 765.13 202.49 109.58 302.73 546.76 777.57 779.07 126.21 263.27 174.30 701.62 253.17 86.31 162.13 281.78 826.67 113.99 326.23 313.44 285.72 839.57 25.71 588.96 170.39 212.93 330.41 89.89 245.26 786.39 881.78 798.78 203.42 272.67 302.66 407.46 357.33 305.65 290.66 789.83 206.11 137.16 803.35 391.47 784.26 512.81 225.43 865.64 186.97 287.15 851.83 235.32 774.20 269.57
403.85 184.64 157.61 585.86 169.58 200.27 261.64 0.00 579.17 242.89 255.30 195.79 54.37 202.27 91.15 127.87 618.41 166.66 239.35 611.33 240.53 83.78 159.87 547.45 143.34 138.05 633.45 101.19 231.06 583.07 81.85 118.90 231.18 89.80 594.04 83.73 255.44 52.92 221.33 624.72 178.91 113.62 185.44 69.20 169.58 503.86 306.71 234.37 73.59 114.38 143.59 174.12 662.77 537.00 200.63 129.14 564.03 332.04 65.71 569.87 93.08 251.89 118.87 576.27 125.60 166.96 107.85 357.54 565.39 608.68 324.97 144.61 137.26 516.63 134.73 290.67 168.44 157.54 637.45 270.41 149.82 128.07 96.50 650.04 276.20 411.53 250.19 114.05 151.96 272.15 78.34 524.75 692.56 605.95 146.58 105.94 115.65 276.55 167.35 93.47 101.44 617.53 196.49 335.92 610.52 231.06 591.43 323.59 36.21 678.92 130.13 208.11 663.09 62.39 584.98 251.43
448.46 630.56 449.39 146.19 421.08 614.53 730.38 579.17 0.00 336.28 685.30 664.56 536.29 684.22 515.18 613.25 115.72 664.46 732.61 149.62 679.58 557.67 501.79 156.92 573.26 532.21 127.61 493.71 706.85 79.30 522.64 475.55 480.48 524.20 63.69 605.38 749.08 562.56 640.15 185.72 639.31 474.29 671.48 551.12 618.63 163.01 782.32 485.39 540.41 483.94 583.09 655.11 147.67 129.86 685.13 622.65 280.28 287.01 531.76 167.74 609.16 629.37 522.58 90.59 593.09 620.80 506.15 362.43 202.91 48.69 794.70 530.49 556.08 101.88 558.04 747.45 662.08 586.65 164.29 695.17 438.09 530.15 482.67 109.19 756.09 167.64 706.64 590.73 537.47 712.40 560.26 95.40 191.97 75.15 586.08 535.05 501.00 407.69 446.65 511.69 518.32 66.23 647.29 783.75 103.22 491.75 86.90 390.25 542.96 215.04 569.63 657.72 153.93 579.06 173.76 734.46
260.73 323.09 138.71 391.05 146.24 294.86 432.11 242.89 336.28 0.00 446.83 357.09 228.45 367.58 178.90 300.57 446.30 360.05 446.75 474.04 360.08 252.84 189.98 428.82 239.29 217.73 445.49 164.67 377.81 389.04 194.47 146.51 280.41 187.92 351.15 276.34 425.87 238.80 377.09 486.93 331.84 150.53 378.70 238.29 290.50 378.18 501.49 315.25 204.13 164.27 289.93 340.92 448.88 305.54 391.68 309.44 519.60 146.21 202.72 411.53 305.12 372.81 217.75 344.81 264.05 350.31 169.87 192.08 434.26 382.69 519.75 204.55 328.05 303.13 226.26 483.93 384.16 253.49 500.57 447.54 174.25 203.33 146.39 445.47 457.82 168.64 391.92 278.92 201.19 473.93 247.04 431.68 525.97 409.15 306.34 206.01 189.19 71.41 110.37 185.31 196.39 379.62 334.94 530.70 414.39 204.92 395.30 257.83 206.68 528.43 291.71 330.10 469.68 269.79 466.35 411.98
616.23 231.93 369.99 756.95 362.12 285.43 116.99 255.30 685.30 446.83 0.00 265.93 246.91 267.37 279.53 258.23 795.32 276.94 47.31 717.22 241.02 199.05 342.52 757.08 335.88 309.69 794.51 304.22 170.92 738.06 283.96 322.38 324.86 307.00 700.17 192.55 239.27 283.13 127.08 833.88 223.18 342.25 73.19 261.74 370.13 706.89 105.03 336.69 303.73 326.76 231.97 252.96 797.90 654.56 295.47 232.74 679.30 507.12 278.09 718.19 216.60 388.87 234.14 693.83 234.42 205.56 290.50 569.92 765.76 731.71 109.40 264.15 188.59 652.15 316.75 62.15 233.54 333.12 839.56 206.53 356.55 311.73 308.88 794.49 118.25 517.66 201.75 234.01 245.64 27.10 256.01 748.40 874.99 758.17 248.38 267.24 309.40 438.18 336.46 293.84 286.04 728.64 253.89 98.45 763.41 352.05 744.32 535.97 248.59 780.87 245.43 328.62 818.70 220.44 794.61 291.21
471.64 34.00 270.27 716.76 280.32 85.94 227.55 195.79 664.56 357.09 265.93 0.00 176.97 67.08 241.46 114.87 755.28 39.74 300.90 700.02 60.89 203.25 288.94 694.98 142.87 197.01 755.59 223.73 120.32 683.44 210.98 210.58 355.50 220.70 679.43 112.06 152.42 163.13 220.89 726.87 42.75 232.43 252.22 162.14 170.64 626.40 264.92 374.30 204.49 216.53 101.42 69.92 764.92 629.94 66.70 92.52 683.50 408.86 183.57 700.77 141.28 147.84 224.77 669.21 93.04 185.95 238.75 459.37 668.12 702.91 283.18 258.54 136.82 586.43 162.96 279.04 65.42 157.07 766.58 141.34 237.17 192.83 234.41 763.21 216.37 496.92 89.49 128.36 287.60 293.03 154.80 713.46 805.22 728.55 85.01 180.00 207.17 313.11 296.23 196.20 198.80 685.37 42.02 294.13 733.12 348.07 714.03 396.87 183.74 807.69 94.93 93.86 761.68 224.64 694.18 124.28
389.41 142.97 143.17 558.62 115.21 145.90 247.20 54.37 536.29 228.45 246.91 176.97 0.00 190.62 103.42 111.17 608.59 179.93 263.60 556.96 198.96 112.27 111.97 533.01 88.97 88.10 616.60 86.75 195.24 536.75 63.85 94.72 208.19 62.56 563.96 85.92 263.59 36.22 206.44 609.99 151.72 118.91 184.94 14.83 177.82 489.42 348.61 263.12 66.75 99.65 104.61 144.90 624.10 482.63 206.65 119.57 561.51 296.44 51.27 563.03 104.37 260.13 111.70 521.90 83.93 176.84 80.61 343.10 537.23 566.74 350.62 117.50 122.37 462.26 80.36 290.17 183.60 103.17 619.45 245.96 128.41 73.70 82.06 595.67 263.91 397.09 200.75 69.72 137.52 274.01 23.97 579.12 668.40 551.58 107.60 55.70 70.92 230.54 140.11 65.31 56.73 563.16 154.82 339.67 556.15 216.62 537.06 309.15 21.77 664.48 91.15 153.74 622.83 110.96 570.54 255.98
518.27 72.46 272.03 731.47 281.04 143.98 195.96 202.27 684.22 367.58 267.37 67.08 190.62 0.00 272.81 146.81 787.43 42.77 266.21 712.01 101.91 241.71 302.59 680.09 200.91 206.34 779.91 233.83 96.45 715.59 214.49 224.50 363.82 235.41 710.78 173.37 90.65 203.49 207.07 713.65 81.21 248.69 224.72 200.60 228.68 636.50 242.33 412.76 241.14 203.31 137.10 86.92 751.70 665.17 87.85 130.98 721.96 423.51 192.18 718.98 183.79 212.09 258.78 698.12 131.50 192.86 253.46 481.78 677.69 732.91 260.59 277.25 128.14 624.89 201.42 276.34 33.83 209.12 769.24 139.24 249.16 209.49 221.19 786.29 183.09 528.27 66.90 160.51 284.60 271.67 193.26 727.02 806.98 742.20 123.47 165.00 207.16 371.15 291.22 205.77 183.80 729.38 96.52 271.54 746.77 363.70 727.68 448.28 168.85 811.56 126.28 142.72 752.78 255.08 708.10 86.56
439.63 207.46 210.06 553.59 197.75 206.30 316.88 91.15 515.18 178.90 279.53 241.46 103.42 272.81 0.00 163.80 610.82 241.36 267.85 608.86 274.42 111.01 127.60 591.13 192.39 161.86 616.34 131.60 269.00 538.98 90.89 118.18 189.03 72.40 530.05 152.01 325.98 88.85 223.87 658.04 216.21 142.37 236.87 88.59 251.58 534.27 335.21 229.03 56.19 147.70 159.99 226.14 627.78 484.44 262.03 190.43 591.26 305.74 105.15 552.47 155.64 327.38 99.04 523.71 157.69 207.30 75.58 370.98 590.66 561.59 353.47 53.61 205.54 482.03 172.86 330.16 238.98 189.24 646.49 291.17 146.01 147.46 129.82 624.37 338.76 347.54 274.51 143.48 109.81 306.63 115.27 602.86 626.33 588.05 162.98 132.12 144.68 227.64 135.08 118.74 119.81 558.52 218.66 364.42 593.29 213.16 574.20 332.02 125.19 645.04 146.53 245.04 642.17 90.89 553.60 311.36
458.32 85.15 212.08 648.79 210.16 121.12 217.67 127.87 613.25 300.57 258.23 114.87 111.17 146.81 163.80 0.00 679.44 104.04 263.70 647.75 135.60 171.08 222.80 638.46 136.32 145.62 692.15 166.33 116.28 607.60 157.68 154.06 290.41 152.73 628.12 78.39 184.40 74.95 153.71 680.25 76.40 163.22 185.04 105.62 162.70 566.09 249.41 322.50 163.88 169.91 31.26 71.61 716.76 573.42 139.90 26.63 600.24 374.29 135.13 660.16 79.86 214.98 168.25 612.69 36.52 108.09 170.78 437.86 600.83 657.53 267.67 195.55 69.64 553.20 134.69 280.73 124.70 132.41 713.28 159.47 191.52 131.22 167.83 706.84 200.30 445.61 147.11 52.52 211.19 285.33 112.16 647.57 747.03 662.75 45.92 115.78 142.25 331.02 224.68 128.91 134.58 648.79 72.85 276.17 667.32 286.65 648.23 394.92 127.22 746.42 43.62 140.39 703.56 149.69 637.66 188.58
466.80 721.28 545.32 204.45 517.01 684.00 820.48 618.41 115.72 446.30 795.32 755.28 608.59 787.43 610.82 679.44 0.00 755.98 826.83 152.66 758.73 649.20 587.13 144.98 627.07 630.11 15.04 553.72 752.44 71.84 580.46 571.88 578.04 603.50 96.52 665.39 813.65 634.79 755.87 154.73 730.03 586.42 748.17 593.76 730.76 199.50 857.69 600.34 602.12 599.66 674.61 741.37 116.68 140.76 776.65 706.07 278.54 390.44 607.87 183.87 681.89 739.39 638.30 127.08 662.24 710.90 596.67 416.46 186.52 67.03 839.43 557.21 671.80 190.36 648.70 853.40 753.60 641.27 71.52 810.89 553.81 615.71 591.62 71.47 846.19 277.66 779.68 626.92 640.10 822.42 620.44 93.66 101.09 75.84 677.60 631.38 594.70 517.71 556.67 591.14 614.25 84.57 733.13 828.48 72.44 490.01 79.36 401.15 618.70 154.49 661.15 717.88 76.97 670.59 145.50 825.98
507.30 45.01 272.10 727.82 243.79 111.09 226.26 166.66 664.46 360.05 276.94 39.74 179.93 42.77 241.36 104.04 755.98 0.00 261.16 707.23 73.87 214.26 265.64 697.94 168.02 163.57 768.69 231.70 125.34 684.14 221.99 213.54 358.46 235.61 679.33 137.87 133.42 172.04 233.85 739.23 53.76 237.73 267.07 165.10 195.79 634.37 285.10 381.98 228.07 228.89 108.29 81.76 770.67 632.90 64.06 103.53 694.51 419.87 194.58 724.35 164.75 187.58 227.73 666.60 96.00 188.91 249.81 491.51 671.08 710.87 271.90 261.50 157.79 597.44 173.97 290.88 76.60 166.35 777.59 112.27 251.00 177.97 234.91 773.65 200.55 496.82 109.67 129.06 290.56 291.70 165.81 691.41 807.05 731.51 96.02 180.53 218.18 338.26 300.00 199.16 199.33 707.80 71.02 282.85 736.08 371.54 716.99 422.02 186.70 810.65 94.83 118.92 768.31 229.05 697.14 84.77
628.34 279.24 396.96 756.25 378.81 328.40 121.29 239.35 732.61 446.75 47.31 300.90 263.60 266.21 267.85 263.70 826.83 261.16 0.00 764.53 288.33 198.35 341.82 756.38 343.60 315.16 839.54 323.97 218.23 754.99 283.26 342.13 372.17 300.58 747.48 239.86 286.58 251.70 132.55 859.41 270.49 339.97 78.66 278.43 408.93 726.64 133.33 376.33 284.37 353.73 237.44 271.43 821.36 701.87 325.22 261.49 672.59 510.36 305.06 717.49 222.07 422.91 233.44 741.14 258.50 165.59 289.80 588.27 792.82 779.02 151.59 269.62 194.06 699.46 334.49 62.31 269.55 338.59 838.86 217.36 356.36 329.56 335.85 841.80 129.08 564.97 249.06 247.96 292.95 74.41 286.65 753.87 894.18 805.48 253.85 314.55 334.52 443.65 349.30 320.90 320.33 775.95 292.68 145.76 810.72 357.52 791.63 562.94 275.56 828.18 250.90 355.07 858.18 176.96 793.91 338.52
385.56 670.27 551.67 268.58 567.13 639.29 789.08 611.33 149.62 474.04 717.22 700.02 556.96 712.01 608.86 647.75 152.66 707.23 764.53 0.00 704.34 644.09 526.55 267.85 604.43 556.97 152.16 518.47 722.54 158.14 559.18 500.31 595.59 564.46 130.96 625.68 790.89 583.16 749.08 116.66 679.02 499.05 741.90 542.13 643.39 198.47 822.25 632.12 568.32 508.70 634.85 689.74 84.37 168.50 735.04 656.62 357.31 350.50 556.52 301.23 651.31 725.70 636.23 129.23 611.23 679.50 577.79 415.43 66.30 100.93 826.62 555.25 667.21 242.13 582.80 779.37 713.84 611.41 218.25 792.27 462.85 571.37 526.58 81.19 814.79 305.40 728.05 597.02 611.98 744.32 568.81 172.43 198.67 101.33 637.84 559.81 525.76 525.02 521.16 536.45 551.62 116.95 682.12 815.67 105.90 542.64 86.81 368.92 578.73 265.76 621.39 682.48 109.11 642.25 230.32 768.52
499.03 94.89 272.25 676.85 273.74 88.29 268.86 240.53 679.58 360.08 241.02 60.89 198.96 101.91 274.42 135.60 758.73 73.87 288.33 704.34 0.00 239.55 250.86 731.97 131.66 157.88 744.38 219.56 181.21 701.44 238.34 237.72 370.75 216.89 702.63 171.37 192.56 210.55 245.44 706.15 93.46 227.09 276.77 202.74 172.99 622.23 325.81 413.25 225.22 195.81 140.37 130.81 744.20 659.61 54.45 142.81 719.80 429.00 234.28 715.61 200.59 147.85 265.37 660.91 133.64 222.26 198.84 487.72 689.65 691.70 344.07 238.30 161.37 647.32 153.29 303.17 126.31 145.86 790.69 186.14 241.49 172.28 213.69 752.00 274.42 528.72 150.38 168.96 291.53 268.12 209.85 749.24 807.20 718.16 123.96 202.80 178.58 315.46 258.34 217.73 205.25 674.16 62.75 339.47 723.39 352.89 704.30 399.22 220.73 822.97 140.41 101.43 774.23 260.94 721.32 112.03
459.60 169.25 213.36 557.90 203.89 218.89 238.47 83.78 557.67 252.84 199.05 203.25 112.27 241.71 111.01 171.08 649.20 214.26 198.35 644.09 239.55 0.00 143.47 558.03 176.78 188.25 650.33 125.62 257.83 577.36 84.91 143.78 191.53 107.95 603.99 151.76 326.18 96.13 158.35 661.06 160.50 162.26 125.86 114.98 253.36 528.29 248.65 189.34 112.23 181.40 172.01 209.23 623.01 558.38 269.95 183.90 480.25 312.01 112.32 519.14 149.33 332.72 35.09 597.65 152.58 139.34 91.45 395.87 600.06 606.36 266.91 91.99 143.46 555.97 180.14 231.09 240.70 178.97 640.51 282.55 181.24 173.85 163.52 666.86 239.33 421.48 288.66 147.94 114.96 226.15 88.30 608.53 737.34 632.82 177.72 139.58 166.60 262.04 150.95 131.34 156.88 617.88 191.21 277.86 636.34 245.50 644.57 377.57 119.99 650.19 161.27 218.07 675.79 21.39 595.56 299.03
394.42 254.94 148.18 504.19 119.87 240.14 349.20 159.87 501.79 189.98 342.52 288.94 111.97 302.59 127.60 222.80 587.13 265.64 341.82 526.55 250.86 143.47 0.00 581.84 183.51 129.37 589.30 119.32 307.21 528.50 91.52 101.16 223.93 70.07 490.61 190.31 370.09 147.85 258.97 587.17 259.75 92.79 269.33 126.80 237.13 488.49 392.12 257.93 86.28 109.55 216.58 249.58 549.12 494.49 305.31 231.54 581.76 269.06 118.93 542.95 170.04 319.44 164.59 504.92 195.90 239.62 52.02 271.53 557.11 522.15 407.79 91.48 174.90 470.41 175.24 374.56 295.57 197.71 646.34 313.99 63.70 114.97 123.39 593.37 353.16 358.62 312.72 181.69 144.71 369.62 135.94 577.57 652.55 548.61 219.57 149.74 124.19 118.57 98.40 130.05 147.94 519.08 248.75 396.84 553.85 181.22 534.76 234.10 133.74 667.89 203.12 265.71 601.90 164.86 584.76 342.52
505.66 660.98 567.53 77.65 575.06 667.10 736.67 547.45 156.92 428.82 757.08 694.98 533.01 680.09 591.13 638.46 144.98 697.94 756.38 267.85 731.97 558.03 581.84 0.00 610.17 608.18 129.94 530.84 718.46 197.76 556.88 521.13 568.78 551.38 169.91 617.70 770.74 569.23 672.24 271.12 669.73 545.32 683.89 547.84 687.41 289.23 806.68 559.13 535.17 586.62 634.21 674.32 258.45 251.24 736.25 647.33 186.29 401.15 540.74 38.89 637.38 743.51 593.12 216.81 601.94 694.85 555.66 375.57 301.42 177.85 824.94 595.12 652.64 239.05 613.37 789.12 713.20 595.97 196.15 756.24 558.59 593.78 568.74 214.33 762.38 281.78 733.76 592.94 557.72 784.18 554.24 145.06 246.07 200.68 637.20 580.63 571.82 500.23 539.19 568.26 576.47 195.39 672.83 835.89 190.39 541.41 203.69 464.07 511.24 131.47 620.75 672.58 221.95 579.42 37.53 766.65
386.83 128.45 140.59 630.18 152.18 56.93 274.80 143.34 573.26 239.29 335.88 142.87 88.97 200.91 192.39 136.32 627.07 168.02 343.60 604.43 131.66 176.78 183.51 610.17 0.00 54.14 612.72 91.11 219.47 572.99 115.06 109.27 280.97 138.10 570.97 145.83 186.58 105.64 245.76 606.07 137.20 129.14 264.94 103.80 105.64 493.78 366.82 332.24 147.25 95.73 106.16 138.42 644.12 544.83 186.11 138.68 630.93 329.65 113.06 643.53 170.09 178.01 200.67 557.17 133.10 190.53 152.17 379.49 581.25 560.04 375.88 177.82 164.78 542.42 21.63 342.52 185.15 14.20 670.66 259.73 141.58 68.54 92.90 620.34 300.51 407.93 225.24 126.93 226.49 362.98 104.87 636.87 675.54 586.50 109.15 71.14 106.46 259.53 197.36 109.33 89.94 542.50 133.40 386.83 591.73 291.91 572.64 319.99 110.74 691.31 92.70 90.81 658.41 180.38 592.87 207.35
344.05 173.23 121.51 608.78 115.86 111.07 299.04 138.05 532.21 217.73 309.69 197.01 88.10 206.34 161.86 145.62 630.11 163.57 315.16 556.97 157.88 188.25 129.37 608.18 54.14 0.00 642.00 91.02 253.68 561.82 110.83 87.05 266.63 131.87 564.49 133.58 240.72 111.76 263.90 575.66 164.48 95.65 236.50 73.27 140.92 493.69 392.88 289.67 117.66 65.32 143.41 179.31 607.10 514.49 212.33 164.75 637.05 287.08 83.42 613.94 162.80 223.23 191.77 503.03 142.37 214.77 149.66 386.93 571.53 563.08 395.36 172.93 187.11 520.86 45.87 341.73 228.80 68.34 632.81 275.84 94.12 14.40 71.34 638.16 292.84 386.37 249.48 128.16 217.59 321.34 99.95 612.49 656.46 589.54 128.18 58.89 60.46 240.45 185.11 99.61 47.37 571.98 183.93 392.69 611.13 274.96 592.04 298.43 101.84 684.16 144.59 144.95 616.35 186.50 570.65 231.59
478.52 733.99 560.36 189.41 532.05 669.65 833.19 633.45 127.61 445.49 794.51 755.59 616.60 779.91 616.34 692.15 15.04 768.69 839.54 152.16 744.38 650.33 589.30 129.94 612.72 642.00 0.00 566.43 765.15 84.55 565.42 584.59 576.35 588.46 98.69 678.10 799.30 647.50 767.76 141.18 733.65 587.97 760.88 606.47 718.36 211.39 842.65 603.57 604.67 609.76 687.32 751.14 129.60 150.75 789.36 711.17 293.58 376.09 592.83 168.83 694.60 738.58 650.19 138.97 674.95 723.61 604.92 402.84 171.48 78.92 824.39 569.92 683.69 184.60 634.35 856.66 766.31 626.92 66.21 822.78 565.70 627.60 591.88 84.39 858.90 276.85 792.39 639.63 628.11 821.61 633.15 108.70 116.13 70.74 690.31 634.60 607.41 516.90 546.75 603.85 615.80 70.22 745.84 813.44 60.45 505.05 79.54 411.14 611.06 139.45 673.86 703.53 92.01 671.72 160.54 820.07
357.56 194.74 111.32 555.72 83.08 148.04 290.41 101.19 493.71 164.67 304.22 223.73 86.75 233.83 131.60 166.33 553.72 231.70 323.97 518.47 219.56 125.62 119.32 530.84 91.11 91.02 566.43 0.00 213.14 481.88 40.71 18.16 222.13 63.75 515.82 111.67 277.69 102.62 249.27 566.12 203.49 38.03 251.48 97.07 182.01 402.67 374.27 266.22 79.96 55.78 162.18 203.30 579.16 470.21 274.01 174.91 605.87 256.45 66.34 569.73 140.89 255.94 154.91 475.09 135.70 228.05 80.21 353.49 509.34 535.14 392.53 103.47 165.20 467.80 112.74 335.72 255.81 105.31 596.31 282.87 55.62 90.81 37.90 583.48 316.12 333.31 243.97 130.71 155.51 331.32 82.37 545.76 646.27 561.60 178.59 77.66 40.98 230.26 139.71 37.42 66.07 523.07 206.59 398.07 567.94 222.97 553.21 264.99 64.98 615.27 163.36 166.59 585.07 147.01 501.76 294.36
536.84 106.08 324.46 743.12 296.22 162.54 183.72 231.06 706.85 377.81 170.92 120.32 195.24 96.45 269.00 116.28 752.44 125.34 218.23 722.54 181.21 257.83 307.21 718.46 219.47 253.68 765.15 213.14 0.00 680.60 230.68 231.30 346.63 247.06 718.49 166.98 68.35 186.65 171.00 753.80 97.33 251.17 224.89 180.41 247.24 615.81 206.26 401.56 239.73 243.46 142.85 82.04 791.55 648.21 153.01 127.02 711.94 424.72 208.13 736.01 139.82 268.16 254.06 687.48 152.80 200.48 265.11 510.57 709.36 732.32 224.52 293.44 185.92 653.59 217.54 204.81 62.62 233.67 786.28 69.73 268.76 239.28 251.04 788.57 158.01 544.09 30.83 125.52 267.41 198.02 185.16 742.96 853.53 746.82 151.07 217.71 215.25 389.71 297.68 237.44 222.31 721.79 128.04 235.47 749.05 346.61 732.30 473.47 207.22 802.64 155.07 180.82 783.79 261.39 714.90 151.13
425.83 649.44 519.09 184.17 496.69 629.92 748.64 583.07 79.30 389.04 738.06 683.44 536.75 715.59 538.98 607.60 71.84 684.14 754.99 158.14 701.44 577.36 528.50 197.76 572.99 561.82 84.55 481.88 680.60 0.00 522.59 500.04 510.27 540.31 37.89 593.55 748.95 562.95 714.61 194.02 658.19 519.91 676.33 521.92 663.89 131.21 826.01 547.12 556.52 537.66 602.77 669.53 155.97 98.06 704.81 634.23 248.76 339.77 548.22 208.16 610.05 682.13 601.88 58.79 590.40 639.06 524.83 344.76 176.49 57.58 841.51 485.37 630.54 118.52 594.62 781.56 681.76 587.19 143.36 750.33 517.39 547.42 519.78 119.03 774.35 220.40 707.84 555.08 589.49 765.16 548.60 63.88 172.93 84.04 605.76 559.54 522.86 460.45 499.41 519.30 547.95 41.19 661.29 836.51 86.06 460.23 71.33 358.45 546.86 190.00 589.31 648.47 103.19 598.75 171.41 754.14
374.69 176.98 128.45 517.51 123.79 171.99 271.07 81.85 522.64 194.47 283.96 210.98 63.85 214.49 90.89 157.68 580.46 221.99 283.26 559.18 238.34 84.91 91.52 556.88 115.06 110.83 565.42 40.71 230.68 522.59 0.00 58.87 181.42 23.04 545.62 143.28 299.03 100.07 218.75 602.08 168.23 78.74 210.77 63.05 220.21 443.38 333.56 225.51 39.25 96.49 152.85 208.15 619.87 500.01 254.89 163.17 565.16 269.66 27.41 535.53 146.98 286.99 117.56 515.80 132.15 216.45 39.50 343.92 518.35 571.33 351.82 62.76 152.74 492.03 118.84 316.00 231.84 129.26 555.60 290.64 96.33 96.43 78.61 624.19 296.78 363.11 240.39 105.16 132.19 311.06 87.82 578.61 663.40 597.79 155.84 69.33 81.69 210.09 99.00 46.43 88.13 563.78 198.94 362.77 593.99 182.26 589.77 305.70 45.64 655.98 139.39 205.87 625.78 106.30 542.47 255.43
354.12 176.58 107.88 537.56 79.57 166.20 308.57 118.90 475.55 146.51 322.38 210.58 94.72 224.50 118.18 154.06 571.88 213.54 342.13 500.31 237.72 143.78 101.16 521.13 109.27 87.05 584.59 18.16 231.30 500.04 58.87 0.00 216.57 81.91 497.66 129.83 295.85 109.73 255.39 584.28 185.33 24.19 266.15 98.29 168.53 420.83 392.43 271.50 83.79 73.94 144.02 194.41 584.68 452.05 260.70 162.93 624.03 242.61 56.21 558.04 158.61 250.84 164.69 491.32 117.54 210.45 93.38 338.59 500.96 524.24 410.69 92.06 181.54 449.64 109.01 353.88 237.65 123.47 614.47 301.03 37.46 72.65 56.06 581.50 330.23 315.15 262.13 138.82 137.35 349.48 100.53 563.92 642.83 550.70 160.43 59.50 59.14 217.92 152.88 55.58 68.34 526.13 188.43 412.47 560.90 218.30 541.81 281.37 83.14 597.11 145.20 184.75 593.32 165.17 483.60 284.23
452.27 321.50 296.17 568.65 296.14 294.52 398.82 231.18 480.48 280.41 324.86 355.50 208.19 363.82 189.03 290.41 578.04 358.46 372.17 595.59 370.75 191.53 223.93 568.78 280.97 266.63 576.35 222.13 346.63 510.27 181.42 216.57 0.00 189.96 495.35 276.91 414.98 215.46 268.42 549.27 330.25 234.58 317.39 193.36 356.35 487.69 388.06 54.93 186.98 271.55 286.08 302.91 511.22 449.74 388.12 307.85 608.22 340.70 208.83 529.89 270.68 415.60 156.44 489.01 262.46 289.24 171.91 414.96 564.37 526.89 369.80 191.85 317.88 391.75 259.34 375.72 356.00 287.95 636.40 416.36 244.11 252.23 255.26 556.43 405.06 312.84 377.46 242.42 79.22 351.96 220.04 484.38 606.07 553.35 289.07 209.83 249.45 282.91 170.04 227.85 228.63 513.46 333.35 380.75 558.59 88.03 539.50 420.41 194.97 614.45 272.62 337.71 564.00 212.92 567.27 436.85
397.73 198.65 151.49 496.06 146.83 195.03 291.99 89.80 524.20 187.92 307.00 220.70 62.56 235.41 72.40 152.73 603.50 235.61 300.58 564.46 216.89 107.95 70.07 551.38 138.10 131.87 588.46 63.75 247.06 540.31 23.04 81.91 189.96 0.00 539.07 120.24 312.94 77.78 195.71 616.41 191.27 88.84 233.81 70.51 232.30 466.42 337.88 202.47 16.21 106.07 163.23 203.15 619.19 493.46 261.11 177.82 583.49 248.21 50.45 512.49 145.93 307.91 94.52 532.73 139.61 208.63 18.05 322.47 536.26 551.30 356.14 54.94 173.77 491.05 141.88 339.04 225.94 149.26 578.64 306.92 101.61 117.47 88.19 612.06 317.70 356.56 256.43 121.54 110.74 318.28 82.22 555.57 680.68 577.76 150.77 92.37 104.73 188.64 77.55 69.47 111.17 554.08 178.68 367.09 572.54 159.22 583.22 304.17 66.56 645.97 149.77 211.99 639.22 123.62 565.51 278.47
409.10 645.43 489.86 151.10 479.96 627.90 771.47 594.04 63.69 351.15 700.17 679.43 563.96 710.78 530.05 628.12 96.52 679.33 747.48 130.96 702.63 603.99 490.61 169.91 570.97 564.49 98.69 515.82 718.49 37.89 545.62 497.66 495.35 539.07 0.00 627.49 757.55 581.90 703.84 168.57 654.18 493.63 714.22 549.13 637.97 124.15 805.20 509.23 555.28 515.42 597.96 669.98 130.52 81.33 700.00 637.52 286.65 301.88 553.87 170.27 647.94 644.24 568.90 61.46 615.20 676.95 521.02 341.11 179.16 31.54 809.57 523.26 619.77 116.28 577.41 762.32 676.95 585.17 164.90 758.86 501.78 550.09 497.54 102.76 797.18 182.51 709.88 592.97 552.34 727.27 575.81 101.77 174.82 58.00 600.95 557.16 540.34 422.56 461.52 536.46 541.59 28.47 662.16 798.62 63.24 498.12 44.15 341.72 557.83 177.28 584.50 661.78 129.92 620.94 207.44 749.33
427.96 100.91 181.72 616.30 190.73 124.90 217.16 83.73 605.38 276.34 192.55 112.06 85.92 173.37 152.01 78.39 665.39 137.87 239.86 625.68 171.37 151.76 190.31 617.70 145.83 133.58 678.10 111.67 166.98 593.55 143.28 129.83 276.91 120.24 627.49 0.00 235.33 92.33 137.60 646.75 109.66 149.70 164.59 83.55 206.68 514.34 279.77 297.71 111.18 136.41 73.67 108.22 664.94 551.35 178.76 63.24 617.62 333.20 116.61 607.46 29.22 245.98 143.46 586.76 41.87 118.25 138.29 389.16 573.21 635.46 295.27 170.05 53.53 548.18 124.20 254.70 150.56 152.81 678.93 186.68 167.29 119.18 134.55 681.59 212.34 444.98 197.81 41.46 204.66 219.65 63.46 608.48 716.67 637.50 82.60 74.69 116.85 276.17 184.17 101.29 93.49 631.88 112.76 291.00 642.07 236.01 622.98 361.64 106.46 726.94 75.69 168.09 662.47 146.12 613.43 222.64
573.41 158.45 327.17 806.50 337.61 229.97 186.79 255.44 749.08 425.87 239.27 152.42 263.59 90.65 325.98 184.40 813.65 133.42 286.58 790.89 192.56 326.18 370.09 770.74 186.58 240.72 799.30 277.69 68.35 748.95 299.03 295.85 414.98 312.94 757.55 235.33 0.00 255.00 195.68 792.65 165.68 304.12 249.57 248.76 292.22 680.36 245.08 469.91 303.86 282.31 192.91 130.93 830.70 716.56 140.36 175.91 780.29 480.08 276.48 800.14 208.17 220.93 322.41 743.75 211.05 249.37 328.49 534.95 748.18 746.62 263.34 361.79 212.24 702.48 208.21 273.10 87.00 200.78 825.81 73.15 328.16 255.12 279.48 806.92 161.43 581.44 69.65 193.87 335.76 252.58 251.86 780.19 862.12 773.08 187.62 255.65 267.21 446.11 366.03 276.26 240.37 729.08 141.39 266.47 778.31 414.96 759.22 506.57 259.50 870.99 179.45 210.85 809.35 317.83 779.45 82.78
408.15 138.14 161.91 573.84 151.43 154.71 256.09 52.92 562.56 238.80 283.13 163.13 36.22 203.49 88.85 74.95 634.79 172.04 251.70 583.16 210.55 96.13 147.85 569.23 105.64 111.76 647.50 102.62 186.65 562.95 100.07 109.73 215.46 77.78 581.90 92.33 255.00 0.00 182.60 624.85 146.89 88.27 211.56 41.03 196.06 505.29 319.06 270.39 93.99 120.54 90.67 146.56 652.17 508.83 192.71 101.58 525.29 306.69 82.76 590.27 68.15 262.72 124.96 548.10 94.33 167.07 95.83 367.33 541.12 592.94 337.32 132.72 123.80 498.48 84.01 263.50 169.66 112.62 655.67 234.42 124.47 99.90 108.12 631.89 251.27 399.39 214.22 61.13 136.24 304.60 41.63 577.67 696.86 587.80 93.66 84.56 97.12 266.42 155.33 69.20 82.93 589.36 147.80 331.82 592.37 237.00 573.28 335.21 57.99 671.47 77.21 171.40 651.91 74.74 593.33 242.04
561.32 191.80 315.08 672.11 310.93 236.18 162.35 221.33 640.15 377.09 127.08 220.89 206.44 207.07 223.87 153.71 755.87 233.85 132.55 749.08 245.44 158.35 258.97 672.24 245.76 263.90 767.76 249.27 171.00 714.61 218.75 255.39 268.42 195.71 703.84 137.60 195.68 182.60 0.00 758.92 183.05 269.94 53.89 206.95 305.88 651.94 142.17 323.35 211.92 248.58 169.22 178.26 734.79 674.75 265.12 133.28 638.60 443.92 209.40 633.35 139.72 321.87 193.44 714.02 137.85 78.48 213.76 508.17 710.81 688.84 160.43 232.17 84.07 659.85 247.38 159.12 201.95 231.56 774.35 212.51 292.85 256.78 230.70 749.34 136.64 545.73 140.17 159.53 273.31 142.03 182.47 729.10 832.12 715.30 152.81 212.29 249.26 376.36 273.26 238.89 231.09 706.38 182.69 171.38 743.37 332.75 727.05 457.79 225.47 803.71 169.26 247.04 787.57 179.74 709.77 278.46
464.36 694.39 595.83 281.47 580.02 640.93 813.94 624.72 185.72 486.93 833.88 726.87 609.99 713.65 658.04 680.25 154.73 739.23 859.41 116.66 706.15 661.06 587.17 271.12 606.07 575.66 141.18 566.12 753.80 194.02 602.08 584.28 549.27 616.41 168.57 646.75 792.65 624.85 758.92 0.00 685.64 560.50 786.92 595.16 672.33 197.89 901.09 604.20 603.00 510.34 656.58 724.24 38.05 181.39 760.60 696.59 394.18 371.78 598.18 270.96 674.79 754.64 669.04 142.12 658.81 732.14 601.94 394.66 83.73 137.03 919.07 636.62 700.28 255.02 584.44 888.35 738.44 613.05 172.78 823.53 556.19 578.05 528.22 83.26 839.65 318.29 762.26 650.05 628.49 860.98 618.54 209.30 139.56 110.57 672.99 572.06 566.70 547.10 542.44 555.65 553.26 154.57 716.35 930.02 122.78 560.07 125.09 441.78 588.51 280.63 657.76 684.12 90.83 682.45 271.38 770.16
466.99 8.75 239.17 685.74 254.08 80.27 236.82 178.91 639.31 331.84 223.18 42.75 151.72 81.21 216.21 76.40 730.03 53.76 270.49 679.02 93.46 160.50 259.75 669.73 137.20 164.48 733.65 203.49 97.33 658.19 168.23 185.33 330.25 191.27 654.18 109.66 165.68 146.89 183.05 685.64 0.00 189.68 225.71 136.89 164.97 589.23 286.25 349.05 189.78 175.30 75.18 49.57 723.69 604.69 109.45 49.77 640.75 383.61 140.82 679.64 119.33 190.59 195.59 638.71 67.79 160.70 207.73 455.25 638.80 685.72 304.51 230.33 110.31 561.18 120.21 258.69 80.20 148.82 723.83 166.03 221.15 150.08 193.18 747.39 220.12 471.67 128.16 103.11 262.35 250.28 129.55 670.71 774.12 703.30 59.76 154.75 164.42 307.44 260.02 166.88 173.55 679.70 30.71 299.31 707.87 326.12 688.78 391.20 158.49 782.44 69.68 110.68 736.43 181.89 668.93 138.53
331.24 198.43 85.00 541.58 103.76 186.07 324.96 113.62 474.29 150.53 342.25 232.43 118.91 248.69 142.37 163.22 586.42 237.73 339.97 499.05 227.09 162.26 92.79 545.32 129.14 95.65 587.97 38.03 251.17 519.91 78.74 24.19 234.58 88.84 493.63 149.70 304.12 88.27 269.94 560.50 189.68 0.00 288.12 104.60 144.34 440.70 407.33 272.59 105.05 57.12 168.21 218.60 583.42 448.02 280.98 187.12 613.56 218.42 73.53 554.01 156.42 226.65 183.36 487.29 141.73 234.64 106.89 342.61 476.77 522.98 405.87 116.25 198.86 445.61 131.22 351.77 257.93 143.34 634.34 320.90 36.20 96.18 39.24 580.24 339.54 311.12 260.80 138.24 155.36 369.35 106.30 569.69 619.95 549.44 181.93 83.69 48.51 195.66 135.05 54.19 75.35 522.10 212.62 394.92 542.75 217.04 537.78 266.33 99.53 621.30 165.48 204.62 604.23 163.01 507.79 301.55
574.35 226.20 328.11 683.76 300.15 249.74 112.61 185.44 671.48 378.70 73.19 252.22 184.94 224.72 236.87 185.04 748.17 267.07 78.66 741.90 276.77 125.86 269.33 683.89 264.94 236.50 760.88 251.48 224.89 676.33 210.77 266.15 317.39 233.81 714.22 164.59 249.57 211.56 53.89 786.92 225.71 288.12 0.00 199.77 334.44 654.15 176.25 315.20 231.30 284.59 158.78 227.81 748.87 667.57 281.28 182.83 606.11 437.87 236.21 645.00 143.41 344.25 160.95 706.84 191.74 132.37 217.31 509.61 722.17 720.17 182.59 190.96 115.40 647.20 262.21 105.23 190.89 259.93 766.37 201.75 283.36 250.90 267.00 780.61 113.47 547.34 194.06 169.30 240.82 100.29 208.91 675.21 849.26 736.52 175.19 239.28 255.86 364.99 276.81 250.25 241.67 717.52 214.02 171.64 741.09 278.86 722.00 494.09 206.71 776.05 172.24 276.41 779.52 147.25 721.42 308.59
396.80 128.14 150.56 562.72 130.04 138.30 262.03 69.20 551.12 238.29 261.74 162.14 14.83 200.60 88.59 105.62 593.76 165.10 278.43 542.13 202.74 114.98 126.80 547.84 103.80 73.27 606.47 97.07 180.41 521.92 63.05 98.29 193.36 70.51 549.13 83.55 248.76 41.03 206.95 595.16 136.89 104.60 199.77 0.00 162.99 499.74 349.12 248.29 81.58 84.82 92.72 147.61 611.14 467.80 194.76 114.49 566.32 281.61 42.08 577.86 109.18 245.30 126.53 507.07 69.10 162.01 84.71 352.38 533.36 551.91 341.32 124.17 125.08 477.09 93.04 304.53 171.71 117.35 618.65 250.14 119.00 58.87 91.90 610.50 278.74 400.98 185.92 54.89 152.35 288.84 26.68 585.80 683.23 566.41 95.71 43.53 56.09 245.37 134.90 61.44 41.90 548.33 139.99 342.38 570.98 229.45 551.89 318.99 36.60 679.31 79.26 156.45 610.88 115.77 581.89 244.09
468.42 156.22 229.34 623.58 224.34 84.70 349.17 169.58 618.63 290.50 370.13 170.64 177.82 228.68 251.58 162.70 730.76 195.79 408.93 643.39 172.99 253.36 237.13 687.41 105.64 140.92 718.36 182.01 247.24 663.89 220.21 168.53 356.35 232.30 637.97 206.68 292.22 196.06 305.88 672.33 164.97 144.34 334.44 162.99 0.00 584.68 412.11 403.95 224.49 161.99 175.66 211.01 710.38 592.36 206.55 189.33 721.35 362.76 205.07 662.34 220.19 82.31 288.45 631.63 199.22 270.79 247.70 459.70 621.11 665.68 430.37 260.59 232.34 589.95 120.05 420.13 227.67 91.44 771.62 308.06 180.54 155.32 144.11 724.58 363.00 455.46 260.13 165.22 299.70 397.23 182.11 694.33 764.29 692.14 168.07 169.56 176.66 273.19 279.39 183.03 186.18 648.14 191.60 438.87 687.09 361.38 678.28 371.20 199.59 761.88 162.20 125.79 748.57 231.97 652.13 220.46
347.05 597.41 487.44 211.77 459.13 550.71 693.08 503.86 163.01 378.18 706.89 626.40 489.42 636.50 534.27 566.09 199.50 634.37 726.64 198.47 622.23 528.29 488.49 289.23 493.78 493.69 211.39 402.67 615.81 131.21 443.38 420.83 487.69 466.42 124.15 514.34 680.36 505.29 651.94 197.89 589.23 440.70 654.15 499.74 584.68 0.00 776.94 536.26 482.63 458.45 564.85 584.44 176.49 72.64 676.68 539.46 312.41 251.81 469.01 250.53 543.56 658.61 549.07 72.42 538.37 630.72 481.97 216.96 132.17 132.47 775.37 506.14 567.87 95.94 515.41 738.39 637.53 507.98 233.86 685.54 458.29 493.48 440.57 180.81 718.79 209.54 646.64 533.38 513.29 733.99 485.04 190.56 270.53 158.93 576.03 480.33 443.65 443.75 422.47 440.09 468.74 141.37 609.26 764.42 180.52 486.61 161.43 257.33 467.65 290.18 566.03 569.26 189.57 549.68 262.12 697.03
652.40 295.00 406.16 806.55 434.47 350.86 107.95 306.71 782.32 501.49 105.03 264.92 348.61 242.33 335.21 249.41 857.69 285.10 133.33 822.25 325.81 248.65 392.12 806.68 366.82 392.88 842.65 374.27 206.26 826.01 333.56 392.43 388.06 337.88 805.20 279.77 245.08 319.06 142.17 901.09 286.25 407.33 176.25 349.12 412.11 776.94 0.00 437.99 351.73 390.75 260.66 266.89 871.66 759.59 330.18 275.45 728.90 560.66 351.57 767.79 281.89 412.76 283.74 798.86 280.02 217.53 340.10 639.06 848.71 831.01 18.26 340.64 226.24 757.18 361.12 71.02 250.99 361.81 889.16 188.32 423.72 380.63 372.87 891.51 100.04 622.69 175.43 301.70 350.67 93.67 324.64 831.46 930.29 857.47 277.07 345.18 387.34 471.30 394.14 378.32 363.98 833.67 306.94 29.21 868.44 455.11 849.35 599.96 333.38 885.90 274.12 358.78 923.73 244.32 844.21 327.86
474.57 340.30 302.74 608.37 274.43 349.45 396.63 234.37 485.39 315.25 336.69 374.30 263.12 412.76 229.03 322.50 600.34 381.98 376.33 632.12 413.25 189.34 257.93 559.13 332.24 289.67 603.57 266.22 401.56 547.12 225.51 271.50 54.93 202.47 509.23 297.71 469.91 270.39 323.35 604.20 349.05 272.59 315.20 248.29 403.95 536.26 437.99 0.00 218.68 285.22 305.70 347.51 566.15 463.62 408.28 325.86 663.15 341.25 252.92 569.61 268.49 458.35 154.25 502.89 285.98 287.05 220.52 449.80 586.67 534.08 424.73 246.78 320.99 446.68 310.61 398.84 389.91 337.04 649.68 430.32 282.38 275.27 270.10 594.58 422.34 326.72 432.39 297.35 134.15 363.79 274.97 506.68 661.00 560.54 289.29 261.10 269.14 337.84 204.88 238.24 242.30 537.70 350.50 435.14 572.47 110.33 553.38 442.71 244.18 663.32 305.74 382.07 618.93 210.73 549.81 465.86
400.11 185.57 153.87 512.27 163.04 204.18 303.89 73.59 540.41 204.13 303.73 204.49 66.75 241.14 56.19 163.88 602.12 228.07 284.37 568.32 225.22 112.23 86.28 535.17 147.25 117.66 604.67 79.96 239.73 556.52 39.25 83.79 186.98 16.21 555.28 111.18 303.86 93.99 211.92 603.00 189.78 105.05 231.30 81.58 224.49 482.63 351.73 218.68 0.00 122.28 150.97 203.59 631.89 509.67 244.90 171.13 592.48 264.42 48.96 496.28 140.40 299.90 80.90 548.94 132.07 213.70 34.26 338.68 552.47 535.09 369.99 71.15 164.71 507.26 140.39 336.53 235.18 133.05 594.85 297.86 105.47 117.98 104.40 614.91 323.52 372.77 267.50 114.21 107.76 302.07 90.72 554.45 664.47 561.55 134.56 90.88 120.94 204.85 93.76 85.68 109.68 552.63 162.47 373.42 588.75 158.10 573.30 320.38 78.46 642.99 148.44 209.66 655.43 107.41 567.39 276.98
331.73 184.05 85.49 555.32 88.14 130.59 303.60 114.38 483.94 164.27 326.76 216.53 99.65 203.31 147.70 169.91 599.66 228.89 353.73 508.70 195.81 181.40 109.55 586.62 95.73 65.32 609.76 55.78 243.46 537.66 96.49 73.94 271.55 106.07 515.42 136.41 282.31 120.54 248.58 510.34 175.30 57.12 284.59 84.82 161.99 458.45 390.75 285.22 122.28 0.00 146.24 213.90 548.39 469.81 250.26 186.25 645.83 275.54 87.84 575.80 164.45 244.30 168.10 509.08 148.68 221.80 124.12 329.19 523.26 532.63 409.01 138.25 189.94 467.40 74.10 381.48 228.10 102.71 628.36 313.19 45.85 67.71 17.88 589.89 329.31 332.91 257.95 139.71 193.92 353.86 111.50 579.34 620.44 559.09 162.65 61.72 56.36 204.43 155.80 51.34 42.92 543.89 206.01 419.96 578.66 226.69 559.57 244.97 78.17 635.65 147.42 173.78 601.17 176.77 557.54 259.82
437.79 67.42 191.55 655.44 178.90 90.96 200.43 143.59 583.09 289.93 231.97 101.42 104.61 137.10 159.99 31.26 674.61 108.29 237.44 634.85 140.37 172.01 216.58 634.21 106.16 143.41 687.32 162.18 142.85 602.77 152.85 144.02 286.08 163.23 597.96 73.67 192.91 90.67 169.22 656.58 75.18 168.21 158.78 92.72 175.66 564.85 260.66 305.70 150.97 146.24 0.00 85.44 694.63 552.35 128.96 52.98 615.96 343.03 126.44 647.25 86.10 185.47 159.56 591.62 36.32 123.68 177.43 409.41 597.21 629.50 278.92 176.08 97.40 541.63 103.43 264.01 105.91 101.15 688.76 170.46 181.48 129.01 143.54 692.28 223.02 415.45 150.47 47.69 210.89 259.07 83.71 666.65 726.50 655.96 16.41 84.52 126.68 310.49 210.74 125.29 103.32 626.43 77.62 289.87 660.76 292.89 641.67 370.63 122.97 741.13 13.46 117.63 672.30 153.34 627.62 167.34
503.59 54.79 257.35 675.57 260.11 126.31 196.26 174.12 655.11 340.92 252.96 69.92 144.90 86.92 226.14 71.61 741.37 81.76 271.43 689.74 130.81 209.23 249.58 674.32 138.42 179.31 751.14 203.30 82.04 669.53 208.15 194.41 302.91 203.15 669.98 108.22 130.93 146.56 178.26 724.24 49.57 218.60 227.81 147.61 211.01 584.44 266.89 347.51 203.59 213.90 85.44 0.00 757.61 615.41 136.62 44.98 671.85 394.07 180.74 699.87 112.72 187.22 193.26 653.54 80.12 118.44 197.56 446.63 655.20 698.46 273.07 237.02 112.41 571.55 160.05 209.12 53.09 152.62 756.42 151.77 231.87 164.91 212.04 740.57 170.55 487.47 91.46 115.44 274.68 250.22 120.93 665.92 792.30 696.48 69.03 152.18 194.34 353.48 257.06 183.28 170.98 680.92 70.70 284.02 701.05 319.51 681.96 437.24 163.08 791.52 85.48 156.72 739.96 219.34 678.01 156.72
426.31 732.44 564.37 243.42 541.97 678.98 851.99 662.77 147.67 448.88 797.90 764.92 624.10 751.70 627.78 716.76 116.68 770.67 821.36 84.37 744.20 623.01 549.12 258.45 644.12 607.10 129.60 579.16 791.55 155.97 619.87 584.68 511.22 619.19 130.52 664.94 830.70 652.17 734.79 38.05 723.69 583.42 748.87 611.14 710.38 176.49 871.66 566.15 631.89 548.39 694.63 757.61 0.00 143.34 797.73 715.95 356.13 399.61 636.23 282.18 694.16 741.97 658.10 104.07 680.24 762.35 601.14 381.24 117.24 98.98 881.02 639.62 703.75 216.97 622.49 854.10 774.68 651.10 161.92 842.84 547.22 592.70 566.27 45.21 862.34 280.24 795.77 666.03 590.44 825.00 637.82 171.25 158.75 72.52 698.68 610.11 604.75 520.29 559.25 589.16 591.31 116.52 751.13 891.97 84.73 567.60 87.04 403.73 626.56 263.65 682.23 722.17 52.78 644.40 253.20 808.21
327.77 595.94 421.03 178.62 398.63 571.32 725.86 537.00 129.86 305.54 654.56 629.94 482.63 665.17 484.44 573.42 140.76 632.90 701.87 168.50 659.61 558.38 494.49 251.24 544.83 514.49 150.75 470.21 648.21 98.06 500.01 452.05 449.74 493.46 81.33 551.35 716.56 508.83 674.75 181.39 604.69 448.02 667.57 467.80 592.36 72.64 759.59 463.62 509.67 469.81 552.35 615.41 143.34 0.00 654.39 582.29 285.32 256.27 508.26 217.38 576.98 598.63 523.29 39.27 536.90 629.81 475.41 289.60 156.97 84.11 763.96 510.09 592.88 73.63 531.80 716.71 631.34 559.03 200.71 717.94 479.79 507.70 451.93 158.37 746.54 136.90 653.72 522.69 506.73 681.66 494.48 161.94 227.39 110.57 555.34 511.33 494.73 376.95 415.91 490.85 495.87 80.53 607.79 753.01 123.92 469.67 104.83 260.39 504.40 229.34 538.89 614.51 164.14 575.33 269.47 703.72
518.71 100.70 308.23 731.30 306.04 142.74 252.52 200.63 685.13 391.68 295.47 66.70 206.65 87.85 262.03 139.90 776.65 64.06 325.22 735.04 54.45 269.95 305.31 736.25 186.11 212.33 789.36 274.01 153.01 704.81 254.89 260.70 388.12 261.11 700.00 178.76 140.36 192.71 265.12 760.60 109.45 280.98 281.28 194.76 206.55 676.68 330.18 408.28 244.90 250.26 128.96 136.62 797.73 654.39 0.00 155.56 718.00 451.97 232.34 741.18 201.33 124.24 269.17 693.66 153.32 233.74 253.29 526.07 713.89 731.54 335.96 292.75 181.05 643.67 205.74 332.90 90.39 177.13 805.44 176.33 295.94 226.73 261.06 794.32 241.34 517.49 154.75 149.73 312.93 321.69 203.74 725.38 843.18 758.00 118.99 201.20 233.03 369.91 281.31 241.97 220.00 728.47 82.43 346.91 762.80 375.86 743.71 453.67 225.01 848.16 115.50 155.88 788.98 255.38 744.30 57.58
468.86 58.52 222.62 673.10 231.88 107.53 239.99 129.14 622.65 309.44 232.74 92.52 119.57 130.98 190.43 26.63 706.07 103.53 261.49 656.62 142.81 183.90 231.54 647.33 138.68 164.75 711.17 174.91 127.02 634.23 163.17 162.93 307.85 177.82 637.52 63.24 175.91 101.58 133.28 696.59 49.77 187.12 182.83 114.49 189.33 539.46 275.45 325.86 171.13 186.25 52.98 44.98 715.95 582.29 155.56 0.00 626.87 349.09 135.76 667.41 92.46 203.46 177.12 611.88 45.39 132.15 195.09 421.30 618.86 666.40 260.49 210.89 67.43 526.57 130.90 254.10 98.07 137.93 718.77 186.10 200.39 157.85 168.76 711.64 215.53 455.01 136.44 79.15 237.82 259.84 95.60 620.94 757.57 667.55 36.57 124.53 166.69 334.70 247.41 146.94 143.33 654.96 80.06 249.54 672.12 299.25 653.03 395.85 136.09 755.40 53.02 113.76 701.82 176.32 646.53 188.30
538.16 649.50 630.08 181.08 658.39 680.00 718.72 564.03 280.28 519.60 679.30 683.50 561.51 721.96 591.26 600.24 278.54 694.51 672.59 357.31 719.80 480.25 581.76 186.29 630.93 637.05 293.58 605.87 711.94 248.76 565.16 624.03 608.22 583.49 286.65 617.62 780.29 525.29 638.60 394.18 640.75 613.56 606.11 566.32 721.35 312.41 728.90 663.15 592.48 645.83 615.96 671.85 356.13 285.32 718.00 626.87 0.00 470.33 592.57 147.40 593.44 788.01 515.34 307.55 619.62 619.59 571.70 408.07 423.61 306.34 747.16 572.24 623.71 216.47 609.30 711.34 694.95 637.91 323.84 759.71 600.54 625.19 633.41 310.92 719.58 350.96 739.51 586.42 580.74 706.40 566.92 184.88 269.01 302.03 618.95 609.85 622.41 591.01 629.97 594.49 608.22 289.95 671.46 758.11 271.40 581.23 290.49 496.57 583.28 274.47 602.50 696.69 323.22 501.64 166.73 767.33
227.61 374.86 284.92 401.02 292.45 386.58 527.99 332.04 287.01 146.21 507.12 408.86 296.44 423.51 305.74 374.29 390.44 419.87 510.36 350.50 429.00 312.01 269.06 401.15 329.65 287.08 376.09 256.45 424.72 339.77 269.66 242.61 340.70 248.21 301.88 333.20 480.08 306.69 443.92 371.78 383.61 218.42 437.87 281.61 362.76 251.81 560.66 341.25 264.42 275.54 343.03 394.07 399.61 256.27 451.97 349.09 470.33 0.00 289.86 362.26 361.24 445.07 297.26 295.54 345.47 418.53 230.16 216.77 288.05 323.41 578.92 264.84 386.73 253.86 308.02 543.10 436.66 334.45 442.30 494.45 235.64 272.68 257.66 363.85 529.24 119.37 455.55 336.50 261.48 534.22 308.29 382.41 452.38 349.87 359.44 258.51 266.55 203.52 170.66 272.61 239.71 305.87 414.32 589.87 324.33 265.21 336.01 128.27 302.56 454.68 344.21 379.48 391.01 333.40 438.68 493.74
395.19 149.57 148.95 544.92 130.64 169.99 254.93 65.71 531.76 202.72 278.09 183.57 51.27 192.18 105.15 135.13 607.87 194.58 305.06 556.52 234.28 112.32 118.93 540.74 113.06 83.42 592.83 66.34 208.13 548.22 27.41 56.21 208.83 50.45 553.87 116.61 276.48 82.76 209.40 598.18 140.82 73.53 236.21 42.08 205.07 469.01 351.57 252.92 48.96 87.84 126.44 180.74 636.23 508.26 232.34 135.76 592.57 289.86 0.00 545.24 137.58 270.85 119.43 541.43 111.18 190.05 66.91 350.83 541.81 580.45 367.07 89.51 125.33 505.85 91.43 340.24 209.29 120.04 583.01 264.42 93.67 69.02 69.96 637.71 280.64 371.36 228.00 82.61 145.25 305.19 68.76 590.46 683.90 602.85 133.29 41.92 84.08 237.50 119.20 69.89 60.72 582.34 171.53 376.54 607.42 207.06 588.33 297.05 29.50 653.32 116.84 196.65 629.70 128.10 539.81 228.02
473.56 681.85 529.29 38.76 557.60 643.47 757.61 569.87 167.74 411.53 718.19 700.77 563.03 718.98 552.47 660.16 183.87 724.35 717.49 301.23 715.61 519.14 542.95 38.89 643.53 613.94 168.83 569.73 736.01 208.16 535.53 558.04 529.89 512.49 170.27 607.46 800.14 590.27 633.35 270.96 679.64 554.01 645.00 577.86 662.34 250.53 767.79 569.61 496.28 575.80 647.25 699.87 282.18 217.38 741.18 667.41 147.40 362.26 545.24 0.00 636.68 704.62 554.23 178.11 628.35 658.48 516.77 414.46 295.81 201.81 786.05 556.23 660.99 200.16 636.67 750.23 731.46 629.33 235.04 794.14 585.78 614.26 557.92 246.98 758.47 242.89 763.78 610.49 518.83 745.29 587.00 154.28 284.96 228.27 630.84 587.16 600.72 482.94 521.90 581.96 601.97 198.74 658.75 797.00 229.28 550.63 214.42 472.81 550.13 170.36 644.72 686.66 260.84 540.53 76.42 773.26
457.18 126.41 210.94 629.90 188.08 154.12 187.94 93.08 609.16 305.12 216.60 141.28 104.37 183.79 155.64 79.86 681.89 164.75 222.07 651.31 200.59 149.33 170.04 637.38 170.09 162.80 694.60 140.89 139.82 610.05 146.98 158.61 270.68 145.93 647.94 29.22 208.17 68.15 139.72 674.79 119.33 156.42 143.41 109.18 220.19 543.56 281.89 268.49 140.40 164.45 86.10 112.72 694.16 576.98 201.33 92.46 593.44 361.24 137.58 636.68 0.00 263.58 114.24 615.98 68.75 98.92 151.89 418.38 602.43 657.85 274.62 191.35 55.65 566.63 152.16 248.64 165.81 155.89 702.58 194.74 192.62 148.40 163.77 700.04 183.12 467.54 170.65 54.97 202.27 243.70 92.68 603.14 745.89 655.95 94.52 103.91 144.70 288.61 211.39 130.51 121.53 651.24 139.64 263.67 660.52 206.79 641.43 389.88 126.14 737.50 85.83 190.12 690.51 142.89 642.21 225.27
550.73 181.84 304.56 705.89 306.65 121.08 323.19 251.89 629.37 372.81 388.87 147.84 260.13 212.09 327.38 214.98 739.39 187.58 422.91 725.70 147.85 332.72 319.44 743.51 178.01 223.23 738.58 255.94 268.16 682.13 286.99 250.84 415.60 307.91 644.24 245.98 220.93 262.72 321.87 754.64 190.59 226.65 344.25 245.30 82.31 658.61 412.76 458.35 299.90 244.30 185.47 187.22 741.97 598.63 124.24 203.46 788.01 445.07 270.85 704.62 263.58 0.00 331.28 637.90 221.79 292.42 304.16 497.27 703.42 675.78 431.02 336.96 250.05 596.22 199.64 396.34 213.26 173.75 793.66 289.18 262.85 237.63 226.42 738.56 348.90 461.73 237.33 219.74 357.10 402.26 244.42 724.77 819.06 702.24 169.06 249.15 214.96 348.25 337.26 254.11 241.80 672.71 189.86 441.97 707.48 431.81 688.39 408.77 241.35 821.52 185.51 164.27 762.77 314.28 734.44 138.15
443.35 190.77 197.11 590.58 168.80 231.17 242.38 118.87 522.58 217.75 234.14 224.77 111.70 258.78 99.04 168.25 638.30 227.73 233.44 636.23 265.37 35.09 164.59 593.12 200.67 191.77 650.19 154.91 254.06 601.88 117.56 164.69 156.44 94.52 568.90 143.46 322.41 124.96 193.44 669.04 195.59 183.36 160.95 126.53 288.45 549.07 283.74 154.25 80.90 168.10 159.56 193.26 658.10 523.29 269.17 177.12 515.34 297.26 119.43 554.23 114.24 331.28 0.00 562.56 131.73 132.80 112.57 371.52 585.31 571.27 302.00 127.08 166.74 520.88 192.06 266.18 246.12 213.95 673.16 276.07 173.38 185.40 150.22 631.77 268.09 386.39 284.72 148.66 88.03 261.24 123.39 617.50 714.55 597.73 170.12 159.66 169.37 268.08 126.60 163.99 155.16 588.81 202.62 312.95 621.59 221.15 609.48 370.60 89.93 623.26 153.67 253.16 676.51 56.48 630.65 312.50
367.04 635.21 460.30 139.35 437.90 610.59 765.13 576.27 90.59 344.81 693.83 669.21 521.90 698.12 523.71 612.69 127.08 666.60 741.14 129.23 660.91 597.65 504.92 216.81 557.17 503.03 138.97 475.09 687.48 58.79 515.80 491.32 489.01 532.73 61.46 586.76 743.75 548.10 714.02 142.12 638.71 487.29 706.84 507.07 631.63 72.42 798.86 502.89 548.94 509.08 591.62 653.54 104.07 39.27 693.66 611.88 307.55 295.54 541.43 178.11 615.98 637.90 562.56 0.00 576.17 669.08 514.68 289.38 117.70 60.05 803.23 544.16 632.15 112.90 548.90 755.98 670.61 571.37 161.44 757.21 519.06 488.63 491.20 139.87 785.81 176.17 692.99 561.96 546.00 720.93 533.75 122.67 198.11 86.51 594.61 533.12 516.07 416.22 455.18 512.51 521.60 68.95 647.06 792.28 108.10 508.94 89.01 299.66 540.07 217.76 578.16 641.68 124.87 614.60 230.20 716.18
423.47 59.04 177.23 631.82 197.11 127.28 202.49 125.60 593.09 264.05 234.42 93.04 83.93 131.50 157.69 36.52 662.24 96.00 258.50 611.23 133.64 152.58 195.90 601.94 133.10 142.37 674.95 135.70 152.80 590.40 132.15 117.54 262.46 139.61 615.20 41.87 211.05 94.33 137.85 658.81 67.79 141.73 191.74 69.10 199.22 538.37 280.02 285.98 132.07 148.68 36.32 80.12 680.24 536.90 153.32 45.39 619.62 345.47 111.18 628.35 68.75 221.79 131.73 576.17 0.00 92.91 153.81 401.91 575.08 621.01 298.28 165.50 79.36 546.19 118.86 277.89 130.49 118.90 687.75 195.99 155.00 127.97 142.08 679.60 228.20 432.69 171.58 35.32 194.56 261.52 76.21 650.35 712.18 635.51 52.73 86.96 125.05 296.17 204.00 103.16 105.76 617.43 70.89 294.93 640.08 275.54 620.99 369.17 90.70 714.65 49.78 150.59 674.74 139.22 601.14 180.77
516.38 151.95 270.14 671.16 278.88 195.74 109.58 166.96 620.80 350.31 205.56 185.95 176.84 192.86 207.30 108.09 710.90 188.91 165.59 679.50 222.26 139.34 239.62 694.85 190.53 214.77 723.61 228.05 200.48 639.06 216.45 210.45 289.24 208.63 676.95 118.25 249.37 167.07 78.48 732.14 160.70 234.64 132.37 162.01 270.79 630.72 217.53 287.05 213.70 221.80 123.68 118.44 762.35 629.81 233.74 132.15 619.59 418.53 190.05 658.48 98.92 292.42 132.80 669.08 92.91 0.00 193.15 488.82 667.99 669.49 235.79 153.69 64.72 624.26 168.90 184.98 171.53 197.51 767.08 203.81 216.65 214.61 203.92 729.99 135.29 518.95 189.29 128.23 220.83 199.47 163.12 691.71 805.09 695.95 123.36 179.87 208.48 297.88 247.87 196.07 181.64 680.25 159.51 226.24 724.02 305.71 707.70 431.01 183.61 756.06 118.24 212.61 742.25 125.74 694.05 273.68
398.06 212.85 151.82 478.01 128.99 209.10 302.73 107.85 506.15 169.87 290.50 238.75 80.61 253.46 75.58 170.78 596.67 249.81 289.80 577.79 198.84 91.45 52.02 555.66 152.17 149.66 604.92 80.21 265.11 524.83 39.50 93.38 171.91 18.05 521.02 138.29 328.49 95.83 213.76 601.94 207.73 106.89 217.31 84.71 247.70 481.97 340.10 220.52 34.26 124.12 177.43 197.56 601.14 475.41 253.29 195.09 571.70 230.16 66.91 516.77 151.89 304.16 112.57 514.68 153.81 193.15 0.00 304.42 518.21 552.56 358.36 39.46 191.82 473.00 130.54 322.54 243.99 159.15 595.10 324.97 114.94 135.52 106.24 594.01 328.44 338.51 270.63 139.59 92.69 317.60 99.49 550.40 682.54 579.02 168.82 97.72 89.20 170.59 59.50 78.03 116.04 536.03 196.73 369.31 554.49 154.05 565.17 286.12 84.61 627.92 163.97 229.26 621.17 112.84 573.08 294.93
130.09 446.50 318.61 428.73 290.30 399.43 546.76 357.54 362.43 192.08 569.92 459.37 343.10 481.78 370.98 437.86 416.46 491.51 588.27 415.43 487.72 395.87 271.53 375.57 379.49 386.93 402.84 353.49 510.57 344.76 343.92 338.59 414.96 322.47 341.11 389.16 534.95 367.33 508.17 394.66 455.25 342.61 509.61 352.38 459.70 216.96 639.06 449.80 338.68 329.19 409.41 446.63 381.24 289.60 526.07 421.30 408.07 216.77 350.83 414.46 418.38 497.27 371.52 289.38 401.91 488.82 304.42 0.00 349.13 349.43 652.35 339.10 424.10 260.55 401.12 614.84 447.95 393.69 450.47 563.19 335.23 372.53 315.59 397.77 572.47 223.56 527.34 385.34 335.74 597.02 325.70 407.52 487.49 375.89 425.82 371.14 358.39 263.49 244.92 354.51 365.59 358.33 464.77 641.40 397.48 339.47 378.39 88.50 321.33 417.01 413.94 442.62 406.53 417.26 413.10 565.65
451.86 634.12 561.77 257.05 555.60 638.18 777.57 565.39 202.91 434.26 765.76 668.12 537.23 677.69 590.66 600.83 186.52 671.08 792.82 66.30 689.65 600.06 557.11 301.42 581.25 571.53 171.48 509.34 709.36 176.49 518.35 500.96 564.37 536.26 179.16 573.21 748.18 541.12 710.81 83.73 638.80 476.77 722.17 533.36 621.11 132.17 848.71 586.67 552.47 523.26 597.21 655.20 117.24 156.97 713.89 618.86 423.61 288.05 541.81 295.81 602.43 703.42 585.31 117.70 575.08 667.99 518.21 349.13 0.00 154.22 861.46 552.89 626.74 228.11 559.62 804.62 690.84 588.23 237.69 750.87 512.97 557.18 510.84 147.49 775.99 293.87 678.53 588.25 549.53 792.86 534.81 238.73 223.29 145.05 613.62 512.69 511.07 491.57 458.71 471.92 524.93 171.76 645.97 850.51 172.20 476.34 153.11 389.50 559.00 298.43 598.39 664.58 170.02 615.86 296.62 745.34
399.77 676.97 486.08 182.64 469.77 616.97 779.07 608.68 48.69 382.69 731.71 702.91 566.74 732.91 561.59 657.53 67.03 710.87 779.02 100.93 691.70 606.36 522.15 177.85 560.04 563.08 78.92 535.14 732.32 57.58 571.33 524.24 526.89 551.30 31.54 635.46 746.62 592.94 688.84 137.03 685.72 522.98 720.17 551.91 665.68 132.47 831.01 534.08 535.09 532.63 629.50 698.46 98.98 84.11 731.54 666.40 306.34 323.41 580.45 201.81 657.85 675.78 571.27 60.05 621.01 669.49 552.56 349.43 154.22 0.00 841.11 542.95 604.77 147.82 581.67 793.86 708.49 574.24 138.55 743.86 486.78 548.68 529.08 79.82 804.78 214.05 737.83 606.80 583.88 758.81 578.59 121.46 143.28 26.46 632.49 581.92 549.69 454.10 493.06 560.38 563.12 17.54 691.90 830.16 54.53 517.81 38.21 344.50 588.51 166.35 616.04 650.85 121.21 627.75 204.37 767.39
670.66 313.26 424.42 824.81 452.73 360.68 126.21 324.97 794.70 519.75 109.40 283.18 350.62 260.59 353.47 267.67 839.43 271.90 151.59 826.62 344.07 266.91 407.79 824.94 375.88 395.36 824.39 392.53 224.52 841.51 351.82 410.69 369.80 356.14 809.57 295.27 263.34 337.32 160.43 919.07 304.51 405.87 182.59 341.32 430.37 775.37 18.26 424.73 369.99 409.01 278.92 273.07 881.02 763.96 335.96 260.49 747.16 578.92 367.07 786.05 274.62 431.02 302.00 803.23 298.28 235.79 358.36 652.35 861.46 841.11 0.00 358.90 241.74 761.55 379.38 89.28 253.47 380.07 890.60 190.80 439.07 389.24 391.13 903.89 102.52 627.06 193.69 286.43 355.04 82.30 326.65 849.72 940.52 867.57 295.33 363.44 376.16 489.56 412.40 389.54 382.24 838.04 325.20 10.95 872.81 457.83 853.72 618.22 351.64 890.27 283.18 374.25 916.40 262.58 862.47 346.12
427.46 224.54 181.22 517.47 168.45 234.75 263.27 144.61 530.49 204.55 264.15 258.54 117.50 277.25 53.61 195.55 557.21 261.50 269.62 555.25 238.30 91.99 91.48 595.12 177.82 172.93 569.92 103.47 293.44 485.37 62.76 92.06 191.85 54.94 523.26 170.05 361.79 132.72 232.17 636.62 230.33 116.25 190.96 124.17 260.59 506.14 340.64 246.78 71.15 138.25 176.08 237.02 639.62 510.09 292.75 210.89 572.24 264.84 89.51 556.23 191.35 336.96 127.08 544.16 165.50 153.69 39.46 339.10 552.89 542.95 358.90 0.00 214.84 507.68 170.00 296.19 280.88 192.02 618.36 344.78 92.40 158.53 137.25 604.40 288.98 373.19 303.15 167.92 112.63 291.25 137.16 549.25 658.30 569.41 192.49 131.43 122.00 174.03 94.18 109.19 148.84 526.56 233.62 362.60 571.43 188.73 556.70 325.58 108.40 607.06 189.54 264.46 588.56 113.38 575.66 317.53
480.81 119.06 234.57 669.83 237.58 164.36 174.30 137.26 556.08 328.05 188.59 136.82 122.37 128.14 205.54 69.64 671.80 157.79 194.06 667.21 161.37 143.46 174.90 652.64 164.78 187.11 683.69 165.20 185.92 630.54 152.74 181.54 317.88 173.77 619.77 53.53 212.24 123.80 84.07 700.28 110.31 198.86 115.40 125.08 232.34 567.87 226.24 320.99 164.71 189.94 97.40 112.41 703.75 592.88 181.05 67.43 623.71 386.73 125.33 660.99 55.65 250.05 166.74 632.15 79.36 64.72 191.82 424.10 626.74 604.77 241.74 214.84 0.00 584.63 177.73 220.63 153.69 157.74 708.34 139.09 219.00 172.71 188.08 665.27 200.01 496.69 195.04 75.46 238.66 215.69 98.40 651.48 748.05 631.23 80.99 128.22 165.19 293.47 237.70 154.82 147.02 622.31 98.62 252.69 659.30 262.44 642.98 409.00 141.40 771.12 97.44 181.19 710.01 126.94 665.14 214.35
390.64 552.43 413.61 203.98 441.92 597.99 701.62 516.63 101.88 303.13 652.15 586.43 462.26 624.89 482.03 553.20 190.36 597.44 699.46 242.13 647.32 555.97 470.41 239.05 542.42 520.86 184.60 467.80 653.59 118.52 492.03 449.64 391.75 491.05 116.28 548.18 702.48 498.48 659.85 255.02 561.18 445.61 647.20 477.09 589.95 95.94 757.18 446.68 507.26 467.40 541.63 571.55 216.97 73.63 643.67 526.57 216.47 253.86 505.85 200.16 566.63 596.22 520.88 112.90 546.19 624.26 473.00 260.55 228.11 147.82 761.55 507.68 584.63 0.00 529.39 714.30 620.62 556.62 250.81 708.22 477.38 506.46 449.52 211.07 726.17 134.49 663.01 531.98 470.97 679.25 486.23 161.17 281.22 168.21 544.62 509.14 492.32 374.54 413.50 488.44 493.57 144.75 591.89 750.60 179.52 467.26 160.43 334.02 484.03 293.56 528.17 613.00 175.25 572.92 243.73 682.21
365.20 128.96 118.96 608.55 147.27 78.56 253.17 134.73 558.04 226.26 316.75 162.96 80.36 201.42 172.86 134.69 648.70 173.97 334.49 582.80 153.29 180.14 175.24 613.37 21.63 45.87 634.35 112.74 217.54 594.62 118.84 109.01 259.34 141.88 577.41 124.20 208.21 84.01 247.38 584.44 120.21 131.22 262.21 93.04 120.05 515.41 361.12 310.61 140.39 74.10 103.43 160.05 622.49 531.80 205.74 130.90 609.30 308.02 91.43 636.67 152.16 199.64 192.06 548.90 118.86 168.90 130.54 401.12 559.62 581.67 379.38 170.00 177.73 529.39 0.00 339.48 200.41 28.61 653.75 273.89 119.95 60.27 91.98 641.97 278.88 394.90 203.61 125.06 217.88 343.06 100.79 653.44 653.91 608.13 115.39 49.51 84.83 237.90 175.73 87.70 68.31 564.13 138.06 380.44 613.36 270.28 594.27 319.07 102.13 706.12 114.33 105.22 637.29 158.75 592.61 185.72
635.35 263.91 425.41 788.99 405.38 335.43 86.31 290.67 747.45 483.93 62.15 279.04 290.17 276.34 330.16 280.73 853.40 290.88 62.31 779.37 303.17 231.09 374.56 789.12 342.52 341.73 856.66 335.72 204.81 781.56 316.00 353.88 375.72 339.04 762.32 254.70 273.10 263.50 159.12 888.35 258.69 351.77 105.23 304.53 420.13 738.39 71.02 398.84 336.53 381.48 264.01 209.12 854.10 716.71 332.90 254.10 711.34 543.10 340.24 750.23 248.64 396.34 266.18 755.98 277.89 184.98 322.54 614.84 804.62 793.86 89.28 296.19 220.63 714.30 339.48 0.00 242.51 356.72 871.60 200.30 387.97 348.04 371.03 856.64 112.02 579.81 235.64 274.53 307.79 41.10 305.13 780.44 859.27 820.32 278.15 329.39 360.62 470.22 382.04 332.70 338.56 790.79 279.82 100.23 825.56 384.09 806.47 598.12 310.74 843.02 273.28 365.84 880.85 239.27 826.65 305.21
520.07 71.45 285.18 722.00 282.99 142.97 162.13 168.44 662.08 384.16 233.54 65.42 183.60 33.83 238.98 124.70 753.60 76.60 269.55 713.84 126.31 240.70 295.57 713.20 185.15 228.80 766.31 255.81 62.62 681.76 231.84 237.65 356.00 225.94 676.95 150.56 87.00 169.66 201.95 738.44 80.20 257.93 190.89 171.71 227.67 637.53 250.99 389.91 235.18 228.10 105.91 53.09 774.68 631.34 90.39 98.07 694.95 436.66 209.29 731.46 165.81 213.26 246.12 670.61 130.49 171.53 243.99 447.95 690.84 708.49 253.47 280.88 153.69 620.62 200.41 242.51 0.00 199.35 782.39 132.35 273.95 218.00 238.01 771.27 150.95 494.44 81.75 126.68 289.88 242.10 174.02 693.19 820.13 734.95 100.62 178.15 216.41 370.14 298.84 218.92 196.95 705.42 83.79 264.42 739.75 372.60 720.66 453.90 201.96 825.11 92.45 140.75 765.93 230.83 721.25 117.70
393.81 142.65 147.57 637.16 166.38 71.13 281.78 157.54 586.65 253.49 333.12 157.07 103.17 209.12 189.24 132.41 641.27 166.35 338.59 611.41 145.86 178.97 197.71 595.97 14.20 68.34 626.92 105.31 233.67 587.19 129.26 123.47 287.95 149.26 585.17 152.81 200.78 112.62 231.56 613.05 148.82 143.34 259.93 117.35 91.44 507.98 361.81 337.04 133.05 102.71 101.15 152.62 651.10 559.03 177.13 137.93 637.91 334.45 120.04 629.33 155.89 173.75 213.95 571.37 118.90 197.51 159.15 393.69 588.23 574.24 380.07 192.02 157.74 556.62 28.61 356.72 199.35 0.00 680.18 271.61 148.56 82.74 107.10 634.54 307.49 422.13 232.22 141.13 240.69 360.22 90.67 651.07 682.52 600.70 101.36 78.12 113.44 266.51 204.34 116.31 94.74 556.70 126.69 387.47 605.93 291.15 586.84 334.19 124.94 705.51 106.90 76.61 663.72 187.36 607.07 214.33
528.48 732.58 613.68 229.94 585.37 727.59 826.67 637.45 164.29 500.57 839.56 766.58 619.45 769.24 646.49 713.28 71.52 777.59 838.86 218.25 790.69 640.51 646.34 196.15 670.66 632.81 66.21 596.31 786.28 143.36 555.60 614.47 636.40 578.64 164.90 678.93 825.81 655.67 774.35 172.78 723.83 634.34 766.37 618.65 771.62 233.86 889.16 649.68 594.85 628.36 688.76 756.42 161.92 200.71 805.44 718.77 323.84 442.30 583.01 235.04 702.58 793.66 673.16 161.44 687.75 767.08 595.10 450.47 237.69 138.55 890.60 618.36 708.34 250.81 653.75 871.60 782.39 680.18 0.00 846.24 602.38 618.41 634.21 142.99 852.38 331.93 795.99 660.76 684.91 866.66 643.42 152.02 172.61 119.89 705.17 604.24 612.28 527.77 610.94 602.03 585.44 136.43 754.54 879.65 126.66 548.37 134.41 461.10 601.24 149.68 689.94 725.21 109.14 661.90 217.02 811.03
606.57 157.28 362.01 802.98 349.36 223.36 113.99 270.41 695.17 447.54 206.53 141.34 245.96 139.24 291.17 159.47 810.89 112.27 217.36 792.27 186.14 282.55 313.99 756.24 259.73 275.84 822.78 282.87 69.73 750.33 290.64 301.03 416.36 306.92 758.86 186.68 73.15 234.42 212.51 823.53 166.03 320.90 201.75 250.14 308.06 685.54 188.32 430.32 297.86 313.19 170.46 151.77 842.84 717.94 176.33 186.10 759.71 494.45 264.42 794.14 194.74 289.18 276.07 757.21 195.99 203.81 324.97 563.19 750.87 743.86 190.80 344.78 139.09 708.22 273.89 200.30 132.35 271.61 846.24 0.00 338.49 290.24 305.29 804.36 88.28 585.91 72.34 195.25 337.14 179.43 237.49 790.57 887.14 770.32 186.14 254.98 284.74 432.56 367.41 278.95 273.78 761.40 183.29 201.75 798.39 401.53 782.07 532.38 245.00 872.37 183.92 231.19 829.54 266.03 784.63 155.93
335.06 214.04 88.82 565.30 115.99 176.44 326.23 149.82 438.09 174.25 356.55 237.17 128.41 249.16 146.01 191.52 553.81 251.00 356.36 462.85 241.49 181.24 63.70 558.59 141.58 94.12 565.70 55.62 268.76 517.39 96.33 37.46 244.11 101.61 501.78 167.29 328.16 124.47 292.85 556.19 221.15 36.20 283.36 119.00 180.54 458.29 423.72 282.38 105.47 45.85 181.48 231.87 547.22 479.79 295.94 200.39 600.54 235.64 93.67 585.78 192.62 262.85 173.38 519.06 155.00 216.65 114.94 335.23 512.97 486.78 439.07 92.40 219.00 477.38 119.95 387.97 273.95 148.56 602.38 338.49 0.00 108.52 63.73 544.04 351.94 342.89 280.21 152.64 164.89 383.65 127.17 533.49 623.77 513.24 197.89 96.96 62.91 182.27 122.40 73.60 88.77 504.32 225.89 431.12 541.31 180.84 524.99 290.82 120.60 634.57 182.66 219.63 568.03 179.40 521.06 305.67
353.35 158.83 107.11 594.38 109.07 125.47 313.44 128.07 530.15 203.33 311.73 192.83 73.70 209.49 147.46 131.22 615.71 177.97 329.56 571.37 172.28 173.85 114.97 593.78 68.54 14.40 627.60 90.81 239.28 547.42 96.43 72.65 252.23 117.47 550.09 119.18 255.12 99.90 256.78 578.05 150.08 96.18 250.90 58.87 155.32 493.48 380.63 275.27 117.98 67.71 129.01 164.91 592.70 507.70 226.73 157.85 625.19 272.68 69.02 614.26 148.40 237.63 185.40 488.63 127.97 214.61 135.52 372.53 557.18 548.68 389.24 158.53 172.71 506.46 60.27 348.04 218.00 82.74 618.41 290.24 108.52 0.00 56.94 628.50 307.24 371.97 244.79 113.76 210.00 306.94 85.55 598.09 642.06 575.14 142.58 44.49 52.06 226.05 170.71 85.26 32.97 557.58 180.79 378.29 596.73 265.26 577.64 284.03 95.47 669.76 130.19 159.35 601.95 174.64 556.25 227.55
349.61 201.12 103.37 537.44 80.23 148.47 285.72 96.50 482.67 146.39 308.88 234.41 82.06 221.19 129.82 167.83 591.62 234.91 335.85 526.58 213.69 163.52 123.39 568.74 92.90 71.34 591.88 37.90 251.04 519.78 78.61 56.06 255.26 88.19 497.54 134.55 279.48 108.12 230.70 528.22 193.18 39.24 267.00 91.90 144.11 440.57 372.87 270.10 104.40 17.88 143.54 212.04 566.27 451.93 261.06 168.76 633.41 257.66 69.96 557.92 163.77 226.42 150.22 491.20 142.08 203.92 106.24 315.59 510.84 529.08 391.13 137.25 188.08 449.52 91.98 371.03 238.01 107.10 634.21 305.29 63.73 56.94 0.00 591.86 311.43 315.03 245.53 132.53 176.04 335.98 101.81 578.07 638.32 555.54 159.95 59.86 42.80 217.80 165.74 38.92 50.00 526.01 212.97 402.08 560.78 244.57 541.69 227.09 60.29 617.77 145.56 183.71 616.07 158.89 539.66 277.70
466.75 738.64 558.58 208.22 530.27 677.27 839.57 650.04 109.19 445.47 794.49 763.21 595.67 786.29 624.37 706.84 71.47 773.65 841.80 81.19 752.00 666.86 593.37 214.33 620.34 638.16 84.39 583.48 788.57 119.03 624.19 581.50 556.43 612.06 102.76 681.59 806.92 631.89 749.34 83.26 747.39 580.24 780.61 610.50 724.58 180.81 891.51 594.58 614.91 589.89 692.28 740.57 45.21 158.37 794.32 711.64 310.92 363.85 637.71 246.98 700.04 738.56 631.77 139.87 679.60 729.99 594.01 397.77 147.49 79.82 903.89 604.40 665.27 211.07 641.97 856.64 771.27 634.54 142.99 804.36 544.04 628.50 591.86 0.00 859.58 276.83 786.31 665.39 607.18 821.59 619.64 126.04 117.48 53.36 695.27 622.36 606.95 497.34 534.51 617.64 603.56 77.84 750.49 892.94 39.52 522.39 58.61 418.76 617.44 218.44 678.82 711.15 44.74 688.25 216.97 827.69
618.78 222.40 372.54 797.23 371.20 289.98 25.71 276.20 756.09 457.82 118.25 216.37 263.91 183.09 338.76 200.30 846.19 200.55 129.08 814.79 274.42 239.33 353.16 762.38 300.51 292.84 858.90 316.12 158.01 774.35 296.78 330.23 405.06 317.70 797.18 212.34 161.43 251.27 136.64 839.65 220.12 339.54 113.47 278.74 363.00 718.79 100.04 422.34 323.52 329.31 223.02 170.55 862.34 746.54 241.34 215.53 719.58 529.24 280.64 758.47 183.12 348.90 268.09 785.81 228.20 135.29 328.44 572.47 775.99 804.78 102.52 288.98 200.01 726.17 278.88 112.02 150.95 307.49 852.38 88.28 351.94 307.24 311.43 859.58 0.00 614.67 144.68 238.09 354.29 91.15 270.97 786.26 907.49 815.49 206.61 270.73 299.66 433.17 383.04 304.07 289.53 815.54 231.82 113.47 820.06 389.91 800.97 538.52 251.14 889.52 212.68 291.70 858.51 259.84 799.91 244.21
346.98 462.92 307.35 281.65 314.88 463.50 588.96 411.53 167.64 168.64 517.66 496.92 397.09 528.27 347.54 445.61 277.66 496.82 564.97 305.40 528.72 421.48 358.62 281.78 407.93 386.37 276.85 333.31 544.09 220.40 363.11 315.15 312.84 356.56 182.51 444.98 581.44 399.39 545.73 318.29 471.67 311.12 547.34 400.98 455.46 209.54 622.69 326.72 372.77 332.91 415.45 487.47 280.24 136.90 517.49 455.01 350.96 119.37 371.36 242.89 467.54 461.73 386.39 176.17 432.69 518.95 338.51 223.56 293.87 214.05 627.06 373.19 496.69 134.49 394.90 579.81 494.44 422.13 331.93 585.91 342.89 371.97 315.03 276.83 614.67 0.00 539.00 436.22 369.83 544.76 415.68 263.04 357.33 240.51 418.44 374.65 357.83 240.05 279.01 353.95 359.08 210.98 479.65 616.11 245.75 332.77 226.66 247.64 375.32 359.79 401.99 498.74 301.04 438.43 319.31 566.82
555.59 123.49 309.35 748.64 315.96 175.43 170.39 250.19 706.64 391.92 201.75 89.49 200.75 66.90 274.51 147.11 779.68 109.67 249.06 728.05 150.38 288.66 312.72 733.76 225.24 249.48 792.39 243.97 30.83 707.84 240.39 262.13 377.46 256.43 709.88 197.81 69.65 214.22 140.17 762.26 128.16 260.80 194.06 185.92 260.13 646.64 175.43 432.39 267.50 257.95 150.47 91.46 795.77 653.72 154.75 136.44 739.51 455.55 228.00 763.78 170.65 237.33 284.72 692.99 171.58 189.29 270.63 527.34 678.53 737.83 193.69 303.15 195.04 663.01 203.61 235.64 81.75 232.22 795.99 72.34 280.21 244.79 245.53 786.31 144.68 539.00 0.00 156.35 298.24 204.77 201.64 757.38 844.30 742.22 153.46 222.71 242.01 402.60 319.46 206.61 227.82 734.25 131.51 204.64 746.79 377.44 727.70 472.62 222.52 833.47 137.01 183.35 796.80 273.86 745.73 152.43
445.46 94.36 199.22 617.60 184.93 111.73 212.93 114.05 590.73 278.92 234.01 128.36 69.72 160.51 143.48 52.52 626.92 129.06 247.96 597.02 168.96 147.94 181.69 592.94 126.93 128.16 639.63 130.71 125.52 555.08 105.16 138.82 242.42 121.54 592.97 41.46 193.87 61.13 159.53 650.05 103.11 138.24 169.30 54.89 165.22 533.38 301.70 297.35 114.21 139.71 47.69 115.44 666.03 522.69 149.73 79.15 586.42 336.50 82.61 610.49 54.97 219.74 148.66 561.96 35.32 128.23 139.59 385.34 588.25 606.80 286.43 167.92 75.46 531.98 125.06 274.53 126.68 141.13 660.76 195.25 152.64 113.76 132.53 665.39 238.09 436.22 156.35 0.00 163.20 257.33 59.64 618.96 728.01 621.30 50.68 92.19 89.73 300.26 172.16 116.33 96.79 596.27 106.21 297.38 625.87 261.76 606.78 359.62 81.70 698.43 34.23 135.15 658.27 135.87 622.42 199.06
461.92 253.60 216.95 557.59 216.92 274.93 330.41 151.96 537.47 201.19 245.64 287.60 137.52 284.60 109.81 211.19 640.10 290.56 292.95 611.98 291.53 114.96 144.71 557.72 226.49 217.59 628.11 155.51 267.41 589.49 132.19 137.35 79.22 110.74 552.34 204.66 335.76 136.24 273.31 628.49 262.35 155.36 240.82 152.35 299.70 513.29 350.67 134.15 107.76 193.92 210.89 274.68 590.44 506.73 312.93 237.82 580.74 261.48 145.25 518.83 202.27 357.10 88.03 546.00 194.56 220.83 92.69 335.74 549.53 583.88 355.04 112.63 238.66 470.97 217.88 307.79 289.88 240.69 684.91 337.14 164.89 210.00 176.04 607.18 354.29 369.83 298.24 163.20 0.00 272.74 158.75 561.02 685.29 598.29 213.88 185.48 181.89 263.28 90.82 170.72 180.98 567.35 265.45 344.09 567.66 164.67 586.75 375.20 115.75 535.23 197.43 288.52 634.34 136.35 595.25 362.26
643.33 259.03 397.09 784.05 389.22 312.53 89.89 272.15 712.40 473.93 27.10 293.03 274.01 271.67 306.63 285.33 822.42 291.70 74.41 744.32 268.12 226.15 369.62 784.18 362.98 321.34 821.61 331.32 198.02 765.16 311.06 349.48 351.96 318.28 727.27 219.65 252.58 304.60 142.03 860.98 250.28 369.35 100.29 288.84 397.23 733.99 93.67 363.79 302.07 353.86 259.07 250.22 825.00 681.66 321.69 259.84 706.40 534.22 305.19 745.29 243.70 402.26 261.24 720.93 261.52 199.47 317.60 597.02 792.86 758.81 82.30 291.25 215.69 679.25 343.06 41.10 242.10 360.22 866.66 179.43 383.65 306.94 335.98 821.59 91.15 544.76 204.77 257.33 272.74 0.00 277.13 775.50 900.37 785.27 275.48 294.34 336.50 465.28 363.56 320.94 313.14 755.74 280.99 71.35 790.51 379.15 771.42 563.07 275.69 807.97 272.53 353.47 845.80 247.54 821.71 264.11
404.55 120.80 158.31 577.50 139.18 130.59 245.26 78.34 560.26 247.04 256.01 154.80 23.97 193.26 115.27 112.16 620.44 165.81 286.65 568.81 209.85 88.30 135.94 554.24 104.87 99.95 633.15 82.37 185.16 548.60 87.82 100.53 220.04 82.22 575.81 63.46 251.86 41.63 182.47 618.54 129.55 106.30 208.91 26.68 182.11 485.04 324.64 274.97 90.72 111.50 83.71 120.93 637.82 494.48 203.74 95.60 566.92 308.29 68.76 587.00 92.68 244.42 123.39 533.75 76.21 163.12 99.49 325.70 534.81 578.59 326.65 137.16 98.40 486.23 100.79 305.13 174.02 90.67 643.42 237.49 127.17 85.55 101.81 619.64 270.97 415.68 201.64 59.64 158.75 277.13 0.00 603.09 692.37 575.55 100.12 51.28 82.77 254.51 158.99 62.89 68.58 575.01 147.10 315.70 580.12 237.85 561.03 328.90 43.00 685.71 88.24 129.77 637.56 109.69 584.13 250.58
489.71 679.46 544.79 120.29 516.48 693.80 786.39 524.75 95.40 431.68 748.40 713.46 579.12 727.02 602.86 647.57 93.66 691.41 753.87 172.43 749.24 608.53 577.57 145.06 636.87 612.49 108.70 545.76 742.96 63.88 578.61 563.92 484.38 555.57 101.77 608.48 780.19 577.67 729.10 209.30 670.71 569.69 675.21 585.80 694.33 190.56 831.46 506.68 554.45 579.34 666.65 665.92 171.25 161.94 725.38 620.94 184.88 382.41 590.46 154.28 603.14 724.77 617.50 122.67 650.35 691.71 550.40 407.52 238.73 121.46 849.72 549.25 651.48 161.17 653.44 780.44 693.19 651.07 152.02 790.57 533.49 598.09 578.07 126.04 786.26 263.04 757.38 618.96 561.02 775.50 603.09 0.00 194.75 117.15 657.51 617.12 586.74 503.09 490.90 583.18 611.83 105.07 701.00 846.85 86.52 396.35 105.61 422.33 560.96 214.45 653.19 712.35 138.34 587.14 107.53 776.18
543.05 771.22 534.95 305.54 563.26 732.47 881.78 692.56 191.97 525.97 874.99 805.22 668.40 806.98 626.33 747.03 101.09 807.05 894.18 198.67 807.20 737.34 652.55 246.07 675.54 656.46 116.13 646.27 853.53 172.93 663.40 642.83 606.07 680.68 174.82 716.67 862.12 696.86 832.12 139.56 774.12 619.95 849.26 683.23 764.29 270.53 930.29 661.00 664.47 620.44 726.50 792.30 158.75 227.39 843.18 757.57 269.01 452.38 683.90 284.96 745.89 819.06 714.55 198.11 712.18 805.09 682.54 487.49 223.29 143.28 940.52 658.30 748.05 281.22 653.91 859.27 820.13 682.52 172.61 887.14 623.77 642.06 638.32 117.48 907.49 357.33 844.30 728.01 685.29 900.37 692.37 194.75 0.00 116.82 742.91 641.98 647.23 570.07 623.04 637.69 660.50 160.82 783.07 929.57 128.05 591.10 131.34 487.78 656.35 255.58 727.68 759.13 105.97 717.22 218.54 839.63
426.23 694.55 512.54 208.89 496.23 643.43 798.78 605.95 75.15 409.15 758.17 728.55 551.58 742.20 588.05 662.75 75.84 731.51 805.48 101.33 718.16 632.82 548.61 200.68 586.50 589.54 70.74 561.60 746.82 84.04 597.79 550.70 553.35 577.76 58.00 637.50 773.08 587.80 715.30 110.57 703.30 549.44 736.52 566.41 692.14 158.93 857.47 560.54 561.55 559.09 655.96 696.48 72.52 110.57 758.00 667.55 302.03 349.87 602.85 228.27 655.95 702.24 597.73 86.51 635.51 695.95 579.02 375.89 145.05 26.46 867.57 569.41 631.23 168.21 608.13 820.32 734.95 600.70 119.89 770.32 513.24 575.14 555.54 53.36 815.49 240.51 742.22 621.30 598.29 785.27 575.55 117.15 116.82 0.00 658.95 607.28 576.15 453.25 519.52 586.84 589.58 44.00 706.40 856.62 30.63 513.50 14.52 370.96 573.35 192.81 642.50 677.31 97.31 654.21 180.68 793.85
454.20 51.01 207.96 646.83 195.31 83.37 203.42 146.58 586.08 306.34 248.38 85.01 107.60 123.47 162.98 45.92 677.60 96.02 253.85 637.84 123.96 177.72 219.57 637.20 109.15 128.18 690.31 178.59 151.07 605.76 155.84 160.43 289.07 150.77 600.95 82.60 187.62 93.66 152.81 672.99 59.76 181.93 175.19 95.71 168.07 576.03 277.07 289.29 134.56 162.65 16.41 69.03 698.68 555.34 118.99 36.57 618.95 359.44 133.29 630.84 94.52 169.06 170.12 594.61 52.73 123.36 168.82 425.82 613.62 632.49 295.33 192.49 80.99 544.62 115.39 278.15 100.62 101.36 705.17 186.14 197.89 142.58 159.95 695.27 206.61 418.44 153.46 50.68 213.88 275.48 100.12 657.51 742.91 658.95 0.00 100.93 140.41 310.54 222.84 141.70 119.73 629.42 61.21 286.11 663.75 292.66 644.66 387.04 125.96 749.11 16.45 126.56 688.71 156.33 644.03 176.57
353.27 146.00 107.03 575.73 116.04 128.07 272.67 105.94 535.05 206.01 267.24 180.00 55.70 165.00 132.12 115.78 631.38 180.53 314.55 559.81 202.80 139.58 149.74 580.63 71.14 58.89 634.60 77.66 217.71 559.54 69.33 59.50 209.83 92.37 557.16 74.69 255.65 84.56 212.29 572.06 154.75 83.69 239.28 43.53 169.56 480.33 345.18 261.10 90.88 61.72 84.52 152.18 610.11 511.33 201.20 124.53 609.85 258.51 41.92 587.16 103.91 249.15 159.66 533.12 86.96 179.87 97.72 371.14 512.69 581.92 363.44 131.43 128.22 509.14 49.51 329.39 178.15 78.12 604.24 254.98 96.96 44.49 59.86 622.36 270.73 374.65 222.71 92.19 185.48 294.34 51.28 617.12 641.98 607.28 100.93 0.00 42.16 225.97 126.22 40.77 18.80 564.38 157.85 365.69 582.84 220.77 592.76 286.95 69.73 656.61 85.70 154.73 587.78 159.30 543.10 235.23
358.52 173.17 112.28 567.21 123.03 163.39 302.66 115.65 501.00 189.19 309.40 207.17 70.92 207.16 144.68 142.25 594.70 218.18 334.52 525.76 178.58 166.60 124.19 571.82 106.46 60.46 607.41 40.98 215.25 522.86 81.69 59.14 249.45 104.73 540.34 116.85 267.21 97.12 249.26 566.70 164.42 48.51 255.86 56.09 176.66 443.65 387.34 269.14 120.94 56.36 126.68 194.34 604.75 494.73 233.03 166.69 622.41 266.55 84.08 600.72 144.70 214.96 169.37 516.07 125.05 208.48 89.20 358.39 511.07 549.69 376.16 122.00 165.19 492.32 84.83 360.62 216.41 113.44 612.28 284.74 62.91 52.06 42.80 606.95 299.66 357.83 242.01 89.73 181.89 336.50 82.77 586.74 647.23 576.15 140.41 42.16 0.00 231.22 148.70 39.15 26.84 564.05 195.13 387.11 590.88 243.25 584.49 269.89 79.44 656.25 123.96 166.61 595.82 171.86 542.74 270.55
332.14 298.69 118.94 462.46 147.25 227.17 407.46 276.55 407.69 71.41 438.18 313.11 230.54 371.15 227.64 331.02 517.71 338.26 443.65 525.02 315.46 262.04 118.57 500.23 259.53 240.45 516.90 230.26 389.71 460.45 210.09 217.92 282.91 188.64 422.56 276.17 446.11 266.42 376.36 547.10 307.44 195.66 364.99 245.37 273.19 443.75 471.30 337.84 204.85 204.43 310.49 353.48 520.29 376.95 369.91 334.70 591.01 203.52 237.50 482.94 288.61 348.25 268.08 416.22 296.17 297.88 170.59 263.49 491.57 454.10 489.56 174.03 293.47 374.54 237.90 470.22 370.14 266.51 527.77 432.56 182.27 226.05 217.80 497.34 433.17 240.05 402.60 300.26 263.28 465.28 254.51 503.09 570.07 453.25 310.54 225.97 231.22 0.00 181.78 221.68 244.49 451.03 338.15 500.51 457.82 276.33 438.73 186.42 240.34 599.84 304.67 270.36 524.50 283.43 537.76 423.03
371.10 263.04 135.03 501.42 162.50 216.18 357.33 167.35 446.65 110.37 336.46 296.23 140.11 291.22 135.08 224.68 556.67 300.00 349.30 521.16 258.34 150.95 98.40 539.19 197.36 185.11 546.75 139.71 297.68 499.41 99.00 152.88 170.04 77.55 461.52 184.17 366.03 155.33 273.26 542.44 260.02 135.05 276.81 134.90 279.39 422.47 394.14 204.88 93.76 155.80 210.74 257.06 559.25 415.91 281.31 247.41 629.97 170.66 119.20 521.90 211.39 337.26 126.60 455.18 204.00 247.87 59.50 244.92 458.71 493.06 412.40 94.18 237.70 413.50 175.73 382.04 298.84 204.34 610.94 367.41 122.40 170.71 165.74 534.51 383.04 279.01 319.46 172.16 90.82 363.56 158.99 490.90 623.04 519.52 222.84 126.22 148.70 181.78 0.00 137.53 145.02 476.53 256.23 423.35 494.99 94.55 505.67 298.93 131.90 625.34 206.39 259.37 561.67 172.34 576.72 338.89
348.98 162.20 102.74 556.04 119.15 166.26 305.65 93.47 511.69 185.31 293.84 196.20 65.31 205.77 118.74 128.91 591.14 199.16 320.90 536.45 217.73 131.34 130.05 568.26 109.33 99.61 603.85 37.42 237.44 519.30 46.43 55.58 227.85 69.47 536.46 101.29 276.26 69.20 238.89 555.65 166.88 54.19 250.25 61.44 183.03 440.09 378.32 238.24 85.68 51.34 125.29 183.28 589.16 490.85 241.97 146.94 594.49 272.61 69.89 581.96 130.51 254.11 163.99 512.51 103.16 196.07 78.03 354.51 471.92 560.38 389.54 109.19 154.82 488.44 87.70 332.70 218.92 116.31 602.03 278.95 73.60 85.26 38.92 617.64 304.07 353.95 206.61 116.33 170.72 320.94 62.89 583.18 637.69 586.84 141.70 40.77 39.15 221.68 137.53 0.00 53.01 560.49 174.05 378.59 596.94 228.69 580.61 266.01 87.08 652.69 126.47 192.66 621.99 143.94 539.18 273.42
371.79 164.80 125.55 587.44 97.24 146.87 290.66 101.44 518.32 196.39 286.04 198.80 56.73 183.80 119.81 134.58 614.25 199.33 320.33 551.62 205.25 156.88 147.94 576.47 89.94 47.37 615.80 66.07 222.31 547.95 88.13 68.34 228.63 111.17 541.59 93.49 240.37 82.93 231.09 553.26 173.55 75.35 241.67 41.90 186.18 468.74 363.98 242.30 109.68 42.92 103.32 170.98 591.31 495.87 220.00 143.33 608.22 239.71 60.72 601.97 121.53 241.80 155.16 521.60 105.76 181.64 116.04 365.59 524.93 563.12 382.24 148.84 147.02 493.57 68.31 338.56 196.95 94.74 585.44 273.78 88.77 32.97 50.00 603.56 289.53 359.08 227.82 96.79 180.98 313.14 68.58 611.83 660.50 589.58 119.73 18.80 26.84 244.49 145.02 53.01 0.00 545.58 176.65 384.28 564.04 239.57 575.72 277.09 65.23 665.45 104.50 139.77 568.98 146.43 551.94 254.03
408.30 670.95 501.56 179.57 479.16 599.43 789.83 617.53 66.23 379.62 728.64 685.37 563.16 729.38 558.52 648.79 84.57 707.80 775.95 116.95 674.16 617.88 519.08 195.39 542.50 571.98 70.22 523.07 721.79 41.19 563.78 526.13 513.46 554.08 28.47 631.88 729.08 589.36 706.38 154.57 679.70 522.10 717.52 548.33 648.14 141.37 833.67 537.70 552.63 543.89 626.43 680.92 116.52 80.53 728.47 654.96 289.95 305.87 582.34 198.74 651.24 672.71 588.81 68.95 617.43 680.25 536.03 358.33 171.76 17.54 838.04 526.56 622.31 144.75 564.13 790.79 705.42 556.70 136.43 761.40 504.32 557.58 526.01 77.84 815.54 210.98 734.25 596.27 567.35 755.74 575.01 105.07 160.82 44.00 629.42 564.38 564.05 451.03 476.53 560.49 545.58 0.00 675.90 827.09 49.23 501.42 30.14 340.92 584.93 148.81 612.97 633.31 115.91 639.27 196.30 749.85
436.28 39.46 248.12 674.74 256.52 110.98 206.11 196.49 647.29 334.94 253.89 42.02 154.82 96.52 218.66 72.85 733.13 71.02 292.68 682.12 62.75 191.21 248.75 672.83 133.40 183.93 745.84 206.59 128.04 661.29 198.94 188.43 333.35 178.68 662.16 112.76 141.39 147.80 182.69 716.35 30.71 212.62 214.02 139.99 191.60 609.26 306.94 350.50 162.47 206.01 77.62 70.70 751.13 607.79 82.43 80.06 671.46 414.32 171.53 658.75 139.64 189.86 202.62 647.06 70.89 159.51 196.73 464.77 645.97 691.90 325.20 233.62 98.62 591.89 138.06 279.82 83.79 126.69 754.54 183.29 225.89 180.79 212.97 750.49 231.82 479.65 131.51 106.21 265.45 280.99 147.10 701.00 783.07 706.40 61.21 157.85 195.13 338.15 256.23 174.05 176.65 675.90 0.00 329.60 710.97 320.57 691.88 421.91 161.59 785.54 77.66 135.88 745.63 210.11 672.03 115.73
681.61 308.06 435.37 835.76 451.75 357.07 137.16 335.92 783.75 530.70 98.45 294.13 339.67 271.54 364.42 276.17 828.48 282.85 145.76 815.67 339.47 277.86 396.84 835.89 386.83 392.69 813.44 398.07 235.47 836.51 362.77 412.47 380.75 367.09 798.62 291.00 266.47 331.82 171.38 930.02 299.31 394.92 171.64 342.38 438.87 764.42 29.21 435.14 373.42 419.96 289.87 284.02 891.97 753.01 346.91 249.54 758.11 589.87 376.54 797.00 263.67 441.97 312.95 792.28 294.93 226.24 369.31 641.40 850.51 830.16 10.95 362.60 252.69 750.60 380.44 100.23 264.42 387.47 879.65 201.75 431.12 378.29 402.08 892.94 113.47 616.11 204.64 297.38 344.09 71.35 315.70 846.85 929.57 856.62 286.11 365.69 387.11 500.51 423.35 378.59 384.28 827.09 329.60 0.00 861.86 450.50 842.77 629.17 347.04 879.32 294.13 363.30 905.45 273.53 873.42 335.46
451.69 699.12 540.61 206.81 522.55 648.66 803.35 610.52 103.22 414.39 763.41 733.12 556.15 746.77 593.29 667.32 72.44 736.08 810.72 105.90 723.39 636.34 553.85 190.39 591.73 611.13 60.45 567.94 749.05 86.06 593.99 560.90 558.59 572.54 63.24 642.07 778.31 592.37 743.37 122.78 707.87 542.75 741.09 570.98 687.09 180.52 868.44 572.47 588.75 578.66 660.76 701.05 84.73 123.92 762.80 672.12 271.40 324.33 607.42 229.28 660.52 707.48 621.59 108.10 640.08 724.02 554.49 397.48 172.20 54.53 872.81 571.43 659.30 179.52 613.36 825.56 739.75 605.93 126.66 798.39 541.31 596.73 560.78 39.52 820.06 245.75 746.79 625.87 567.66 790.51 580.12 86.52 128.05 30.63 663.75 582.84 590.88 457.82 494.99 596.94 564.04 49.23 710.97 861.86 0.00 482.87 19.09 384.31 577.92 178.92 647.30 682.54 66.68 657.73 185.25 799.08
364.24 333.20 229.58 516.64 257.05 310.73 391.47 231.06 491.75 204.92 352.05 348.07 216.62 363.70 213.16 286.65 490.01 371.54 357.52 542.64 352.89 245.50 181.22 541.41 291.91 274.96 505.05 222.97 346.61 460.23 182.26 218.30 88.03 159.22 498.12 236.01 414.96 237.00 332.75 560.07 326.12 217.04 278.86 229.45 361.38 486.61 455.11 110.33 158.10 226.69 292.89 319.51 567.60 469.67 375.86 299.25 581.23 265.21 207.06 550.63 206.79 431.81 221.15 508.94 275.54 305.71 154.05 339.47 476.34 517.81 457.83 188.73 262.44 467.26 270.28 384.09 372.60 291.15 548.37 401.53 180.84 265.26 244.57 522.39 389.91 332.77 377.44 261.76 164.67 379.15 237.85 396.35 591.10 513.50 292.66 220.77 243.25 276.33 94.55 228.69 239.57 501.42 320.57 450.50 482.87 0.00 501.96 332.38 194.85 610.80 292.62 353.92 534.69 265.51 503.88 432.06
432.60 680.03 524.29 195.25 503.46 629.57 784.26 591.43 86.90 395.30 744.32 714.03 537.06 727.68 574.20 648.23 79.36 716.99 791.63 86.81 704.30 644.57 534.76 203.69 572.64 592.04 79.54 553.21 732.30 71.33 589.77 541.81 539.50 583.22 44.15 622.98 759.22 573.28 727.05 125.09 688.78 537.78 722.00 551.89 678.28 161.43 849.35 553.38 573.30 559.57 641.67 681.96 87.04 104.83 743.71 653.03 290.49 336.01 588.33 214.42 641.43 688.39 609.48 89.01 620.99 707.70 565.17 378.39 153.11 38.21 853.72 556.70 642.98 160.43 594.27 806.47 720.66 586.84 134.41 782.07 524.99 577.64 541.69 58.61 800.97 226.66 727.70 606.78 586.75 771.42 561.03 105.61 131.34 14.52 644.66 592.76 584.49 438.73 505.67 580.61 575.72 30.14 691.88 842.77 19.09 501.96 0.00 365.22 558.83 178.95 628.21 663.45 85.77 648.02 166.16 779.99
163.61 382.45 230.11 434.05 201.80 310.93 512.81 323.59 390.25 257.83 535.97 396.87 309.15 448.28 332.02 394.92 401.15 422.02 562.94 368.92 399.22 377.57 234.10 464.07 319.99 298.43 411.14 264.99 473.47 358.45 305.70 281.37 420.41 304.17 341.72 361.64 506.57 335.21 457.79 441.78 391.20 266.33 494.09 318.99 371.20 257.33 599.96 442.71 320.38 244.97 370.63 437.24 403.73 260.39 453.67 395.85 496.57 128.27 297.05 472.81 389.88 408.77 370.60 299.66 369.17 431.01 286.12 88.50 389.50 344.50 618.22 325.58 409.00 334.02 319.07 598.12 453.90 334.19 461.10 532.38 290.82 284.03 227.09 418.76 538.52 247.64 472.62 359.62 375.20 563.07 328.90 422.33 487.78 370.96 387.04 286.95 269.89 186.42 298.93 266.01 277.09 340.92 421.91 629.17 384.31 332.38 365.22 0.00 287.38 468.60 372.65 354.12 424.53 385.98 501.60 504.79
367.64 149.74 121.40 562.62 136.98 167.67 225.43 36.21 542.96 206.68 248.59 183.74 21.77 168.85 125.19 127.22 618.70 186.70 275.56 578.73 220.73 119.99 133.74 511.24 110.74 101.84 611.06 64.98 207.22 546.86 45.64 83.14 194.97 66.56 557.83 106.46 259.50 57.99 225.47 588.51 158.49 99.53 206.71 36.60 199.59 467.65 333.38 244.18 78.46 78.17 122.97 163.08 626.56 504.40 225.01 136.09 583.28 302.56 29.50 550.13 126.14 241.35 89.93 540.07 90.70 183.61 84.61 321.33 559.00 588.51 351.64 108.40 141.40 484.03 102.13 310.74 201.96 124.94 601.24 245.00 120.60 95.47 60.29 617.44 251.14 375.32 222.52 81.70 115.75 275.69 43.00 560.96 656.35 573.35 125.96 69.73 79.44 240.34 131.90 87.08 65.23 584.93 161.59 347.04 577.92 194.85 558.83 287.38 0.00 642.71 109.51 172.77 634.21 98.60 548.77 255.41
547.10 773.69 650.37 208.58 627.97 748.24 865.64 678.92 215.04 528.43 780.87 807.69 664.48 811.56 645.04 746.42 154.49 810.65 828.18 265.76 822.97 650.19 667.89 131.47 691.31 684.16 139.45 615.27 802.64 190.00 655.98 597.11 614.45 645.97 177.28 726.94 870.99 671.47 803.71 280.63 782.44 621.30 776.05 679.31 761.88 290.18 885.90 663.32 642.99 635.65 741.13 791.52 263.65 229.34 848.16 755.40 274.47 454.68 653.32 170.36 737.50 821.52 623.26 217.76 714.65 756.06 627.92 417.01 298.43 166.35 890.27 607.06 771.12 293.56 706.12 843.02 825.11 705.51 149.68 872.37 634.57 669.76 617.77 218.44 889.52 359.79 833.47 698.43 535.23 807.97 685.71 214.45 255.58 192.81 749.11 656.61 656.25 599.84 625.34 652.69 665.45 148.81 785.54 879.32 178.92 610.80 178.95 468.60 642.71 0.00 732.66 752.57 231.46 671.58 113.51 881.34
438.97 60.93 192.73 641.98 190.54 77.50 186.97 130.13 569.63 291.71 245.43 94.93 91.15 126.28 146.53 43.62 661.15 94.83 250.90 621.39 140.41 161.27 203.12 620.75 92.70 144.59 673.86 163.36 155.07 589.31 139.39 145.20 272.62 149.77 584.50 75.69 179.45 77.21 169.26 657.76 69.68 165.48 172.24 79.26 162.20 566.03 274.12 305.74 148.44 147.42 13.46 85.48 682.23 538.89 115.50 53.02 602.50 344.21 116.84 644.72 85.83 185.51 153.67 578.16 49.78 118.24 163.97 413.94 598.39 616.04 283.18 189.54 97.44 528.17 114.33 273.28 92.45 106.90 689.94 183.92 182.66 130.19 145.56 678.82 212.68 401.99 137.01 34.23 197.43 272.53 88.24 653.19 727.68 642.50 16.45 85.70 123.96 304.67 206.39 126.47 104.50 612.97 77.66 294.13 647.30 292.62 628.21 372.65 109.51 732.66 0.00 120.69 673.48 139.88 628.80 164.83
470.42 101.93 224.18 707.27 237.01 43.19 287.15 208.11 657.72 330.10 328.62 93.86 153.74 142.72 245.04 140.39 717.88 118.92 355.07 682.48 101.43 218.07 265.71 672.58 90.81 144.95 703.53 166.59 180.82 648.47 205.87 184.75 337.71 211.99 661.78 168.09 210.85 171.40 247.04 684.12 110.68 204.62 276.41 156.45 125.79 569.26 358.78 382.07 209.66 173.78 117.63 156.72 722.17 614.51 155.88 113.76 696.69 379.48 196.65 686.66 190.12 164.27 253.16 641.68 150.59 212.61 229.26 442.62 664.58 650.85 374.25 264.46 181.19 613.00 105.22 365.84 140.75 76.61 725.21 231.19 219.63 159.35 183.71 711.15 291.70 498.74 183.35 135.15 288.52 353.47 129.77 712.35 759.13 677.31 126.56 154.73 166.61 270.36 259.37 192.66 139.77 633.31 135.88 363.30 682.54 353.92 663.45 354.12 172.77 752.57 120.69 0.00 708.75 239.46 668.35 177.88
479.09 727.68 585.17 252.96 562.77 715.34 851.83 663.09 153.93 469.68 818.70 761.68 622.83 752.78 642.17 703.56 76.97 768.31 858.18 109.11 774.23 675.79 601.90 221.95 658.41 616.35 92.01 585.07 783.79 103.19 625.78 593.32 564.00 639.22 129.92 662.47 809.35 651.91 787.57 90.83 736.43 604.23 779.52 610.88 748.57 189.57 923.73 618.93 655.43 601.17 672.30 739.96 52.78 164.14 788.98 701.82 323.22 391.01 629.70 260.84 690.51 762.77 676.51 124.87 674.74 742.25 621.17 406.53 170.02 121.21 916.40 588.56 710.01 175.25 637.29 880.85 765.93 663.72 109.14 829.54 568.03 601.95 616.07 44.74 858.51 301.04 796.80 658.27 634.34 845.80 637.56 138.34 105.97 97.31 688.71 587.78 595.82 524.50 561.67 621.99 568.98 115.91 745.63 905.45 66.68 534.69 85.77 424.53 634.21 231.46 673.48 708.75 0.00 697.18 222.47 823.01
451.38 190.64 220.00 579.29 225.28 217.38 235.32 62.39 579.06 269.79 220.44 224.64 110.96 255.08 90.89 149.69 670.59 229.05 176.96 642.25 260.94 21.39 164.86 579.42 180.38 186.50 671.72 147.01 261.39 598.75 106.30 165.17 212.92 123.62 620.94 146.12 317.83 74.74 179.74 682.45 181.89 163.01 147.25 115.77 231.97 549.68 244.32 210.73 107.41 176.77 153.34 219.34 644.40 575.33 255.38 176.32 501.64 333.40 128.10 540.53 142.89 314.28 56.48 614.60 139.22 125.74 112.84 417.26 615.86 627.75 262.58 113.38 126.94 572.92 158.75 239.27 230.83 187.36 661.90 266.03 179.40 174.64 158.89 688.25 259.84 438.43 273.86 135.87 136.35 247.54 109.69 587.14 717.22 654.21 156.33 159.30 171.86 283.43 172.34 143.94 146.43 639.27 210.11 273.53 657.73 265.51 648.02 385.98 98.60 671.58 139.88 239.46 697.18 0.00 616.95 304.71
543.19 660.18 585.60 95.07 563.17 649.80 774.20 584.98 173.76 466.35 794.61 694.18 570.54 708.10 553.60 637.66 145.50 697.14 793.91 230.32 721.32 595.56 584.76 37.53 592.87 570.65 160.54 501.76 714.90 171.41 542.47 483.60 567.27 565.51 207.44 613.43 779.45 593.33 709.77 271.38 668.93 507.79 721.42 581.89 652.13 262.12 844.21 549.81 567.39 557.54 627.62 678.01 253.20 269.47 744.30 646.53 166.73 438.68 539.81 76.42 642.21 734.44 630.65 230.20 601.14 694.05 573.08 413.10 296.62 204.37 862.47 575.66 665.14 243.73 592.61 826.65 721.25 607.07 217.02 784.63 521.06 556.25 539.66 216.97 799.91 319.31 745.73 622.42 595.25 821.71 584.13 107.53 218.54 180.68 644.03 543.10 542.74 537.76 576.72 539.18 551.94 196.30 672.03 873.42 185.25 503.88 166.16 501.60 548.77 113.51 628.80 668.35 222.47 616.95 0.00 767.83
550.92 129.78 304.68 772.94 328.56 195.86 269.57 251.43 734.46 411.98 291.21 124.28 255.98 86.56 311.36 188.58 825.98 84.77 338.52 768.52 112.03 299.03 342.52 766.65 207.35 231.59 820.07 294.36 151.13 754.14 255.43 284.23 436.85 278.47 749.33 222.64 82.78 242.04 278.46 770.16 138.53 301.55 308.59 244.09 220.46 697.03 327.86 465.86 276.98 259.82 167.34 156.72 808.21 703.72 57.58 188.30 767.33 493.74 228.02 773.26 225.27 138.15 312.50 716.18 180.77 273.68 294.93 565.65 745.34 767.39 346.12 317.53 214.35 682.21 185.72 305.21 117.70 214.33 811.03 155.93 305.67 227.55 277.70 827.69 244.21 566.82 152.43 199.06 362.26 264.11 250.58 776.18 839.63 793.85 176.57 235.23 270.55 423.03 338.89 273.42 254.03 749.85 115.73 335.46 799.08 432.06 779.99 504.79 255.41 881.34 164.83 177.88 823.01 304.71 767.83 0.00
DEMAND_SECTION
1 0
2 77
3 100
4 20
5 68
6 89
7 20
8 88
9 48
10 67
11 65
12 70
13 49
14 50
15 87
16 4
17 2
18 75
19 98
20 7
21 10
22 97
23 98
24 93
25 75
26 96
27 70
28 64
29 93
30 15
31 50
32 61
33 13
34 75
35 81
36 54
37 3
38 78
39 26
40 50
41 77
42 86
43 62
44 100
45 62
46 4
47 18
48 55
49 38
50 89
51 99
52 69
53 39
54 48
55 18
56 15
57 35
58 39
59 39
60 53
61 99
62 98
63 87
64 76
65 91
66 93
67 90
68 22
69 100
70 58
71 41
72 76
73 37
74 97
75 7
76 52
77 90
78 47
79 27
80 22
81 42
82 87
83 74
84 37
85 21
86 46
87 33
88 14
89 55
90 96
91 65
92 59
93 49
94 40
95 85
96 25
97 20
98 11
99 88
100 96
101 77
102 49
103 77
104 95
105 73
106 2
107 52
108 44
109 51
110 28
111 5
112 4
113 65
114 49
115 12
116 78
DEPOT_SECTION
1
-1
EOF
