NAME: LDG125_1372_snow_125_0012
COMMENT: CVRP with travel times.  rootPos=1,custPos=3,demandType=7,avgRouteSizeIndex=2,weather=snow,lambda_cluster=1,lambda_random=4, T1=300,T2=700,beta=1, alpha(i,j) ~ U(0.8,1.2)
TYPE: CVRP
DIMENSION: 126
EDGE_WEIGHT_TYPE: EXPLICIT
EDGE_WEIGHT_FORMAT: FULL_MATRIX
CAPACITY: 130
NODE_COORD_SECTION
1 686 909
2 858 226
3 574 118
4 203 418
5 970 216
6 283 992
7 482 66
8 362 414
9 405 523
10 389 901
11 393 349
12 119 499
13 598 487
14 831 433
15 927 334
16 996 379
17 984 847
18 42 516
19 308 438
20 595 519
21 878 938
22 813 917
23 630 138
24 742 398
25 772 650
26 584 775
27 894 113
28 536 972
29 181 454
30 227 876
31 251 660
32 747 477
33 443 410
34 581 935
35 142 816
36 166 607
37 951 791
38 817 959
39 16 803
40 180 719
41 560 489
42 831 948
43 529 518
44 626 523
45 850 532
46 980 296
47 579 514
48 841 874
49 549 469
50 932 410
51 54 490
52 351 396
53 287 217
54 128 783
55 332 301
56 373 96
57 574 212
58 975 900
59 939 231
60 645 456
61 120 439
62 322 39
63 981 488
64 661 721
65 865 883
66 854 880
67 990 783
68 118 167
69 614 489
70 826 190
71 223 462
72 950 417
73 953 559
74 556 502
75 651 818
76 912 195
77 255 362
78 819 327
79 229 314
80 410 579
81 53 383
82 420 455
83 897 946
84 770 435
85 260 116
86 665 776
87 955 414
88 876 381
89 846 906
90 684 504
91 937 775
92 921 433
93 294 466
94 916 31
95 917 805
96 933 421
97 986 351
98 810 904
99 531 345
100 445 443
101 596 3
102 752 756
103 10 652
104 827 904
105 981 402
106 851 902
107 451 664
108 125 12
109 830 778
110 823 546
111 793 954
112 212 423
113 263 283
114 448 596
115 343 380
116 525 601
117 308 615
118 993 381
119 634 418
120 633 551
121 652 333
122 372 30
123 582 92
124 720 356
125 568 477
126 834 760
EDGE_WEIGHT_SECTION
0.00 878.42 986.54 859.01 959.25 522.43 1116.49 756.81 613.81 472.95 796.59 971.06 578.91 658.69 763.35 739.60 438.11 1031.80 770.03 566.10 344.35 238.58 900.15 649.24 433.80 215.98 1055.23 220.74 851.00 702.81 751.08 613.61 723.76 134.73 726.29 914.13 382.53 185.92 918.15 760.76 569.70 213.54 627.85 533.67 586.27 845.15 573.16 248.26 595.04 696.73 1014.82 782.15 1006.53 761.66 912.71 1144.79 914.81 427.54 908.58 617.04 941.49 1202.55 697.86 271.62 276.05 270.32 436.23 1203.66 596.86 934.47 849.78 663.43 636.74 590.97 166.43 939.45 912.28 813.35 906.98 525.88 1093.72 638.01 319.24 683.88 1157.26 162.58 647.32 776.96 264.84 472.16 365.14 713.69 822.00 1127.92 311.15 686.65 750.10 218.90 752.75 698.32 1191.27 290.24 951.95 255.04 712.50 275.85 557.14 1356.17 249.84 551.77 195.23 888.23 934.53 581.03 819.26 478.02 710.47 733.89 649.19 498.02 769.47 1150.72 1010.24 720.66 570.40 288.14
878.42 0.00 537.03 840.42 207.24 1195.03 550.17 654.80 738.39 1018.66 536.18 962.57 478.16 381.87 291.61 250.49 848.63 1096.52 740.65 502.43 979.85 947.57 436.26 304.04 653.39 727.95 176.81 981.21 842.51 1174.90 924.04 378.16 645.74 945.14 1122.54 960.15 822.49 973.63 1235.88 1099.00 503.44 946.01 561.59 480.47 484.27 244.25 499.08 913.93 510.24 340.71 1079.51 629.46 780.94 1147.62 652.30 713.33 396.56 940.33 146.38 438.51 950.10 776.01 440.22 606.80 920.53 894.29 773.90 971.60 431.40 73.71 787.72 332.58 506.48 524.71 726.08 97.98 729.35 149.64 807.37 733.50 1010.60 660.77 961.13 370.11 881.60 715.84 331.35 263.79 896.58 481.12 786.20 359.19 762.38 286.45 840.19 325.17 254.23 944.82 519.55 656.45 471.88 700.16 1185.47 921.32 283.51 885.57 741.14 1083.68 824.23 486.25 993.54 832.42 765.70 678.90 654.17 620.00 868.41 244.78 408.55 556.47 286.08 742.87 544.53 290.12 467.64 785.93
986.54 537.03 0.00 706.43 589.17 1234.84 263.99 574.93 618.28 964.37 456.89 833.59 540.95 564.28 561.08 688.78 1060.09 856.65 608.04 566.01 1096.11 1069.94 123.99 414.78 775.76 888.04 469.83 1116.71 763.22 1181.56 890.85 500.53 446.64 1034.66 1080.15 897.76 968.51 1107.18 1202.69 993.66 497.36 1103.17 530.11 570.35 663.98 660.14 549.77 1030.00 460.95 640.65 897.96 549.59 474.82 1051.38 462.01 337.54 140.47 1132.65 641.02 477.77 827.60 440.15 777.36 784.37 1034.18 1007.94 1015.66 757.63 528.17 463.32 708.43 644.89 754.38 518.63 877.97 573.67 650.06 496.22 562.45 701.00 859.30 534.69 1126.50 480.85 500.68 823.96 661.00 554.70 1018.95 577.22 932.22 626.11 636.98 608.24 986.21 621.67 658.80 1067.19 291.65 487.92 207.31 889.02 1107.12 1037.78 669.34 1007.94 686.96 707.58 885.09 700.92 1115.91 735.65 564.67 703.18 512.48 670.69 817.43 694.49 451.37 610.55 325.34 444.43 55.72 328.72 500.54 923.39
859.01 840.42 706.43 0.00 977.67 782.68 648.04 258.43 335.02 657.97 322.92 196.75 521.56 807.10 904.28 956.03 1133.43 295.05 180.31 518.94 1069.38 966.00 747.75 756.33 769.13 643.03 998.20 766.33 76.69 692.55 383.14 710.31 379.47 852.34 612.24 288.38 1041.85 1018.66 628.93 513.27 471.75 1034.57 498.26 563.09 816.21 1003.34 469.25 987.25 501.90 968.10 263.37 283.77 260.95 573.20 244.42 546.58 624.43 1179.08 986.80 605.25 121.17 570.48 1005.63 715.52 991.43 965.19 1107.03 344.65 536.93 914.13 99.05 967.93 961.47 450.48 805.41 938.40 132.29 806.13 171.54 333.13 280.17 365.21 1060.46 747.38 473.94 700.39 963.23 918.67 994.70 628.31 1051.73 917.67 181.22 1047.82 1016.50 951.69 1002.00 936.65 496.70 373.02 751.46 828.05 429.03 972.79 919.20 1004.87 454.01 607.69 900.12 813.19 1047.55 29.22 220.48 406.11 275.87 495.00 299.84 957.93 634.09 544.39 554.34 653.47 678.27 671.92 507.55 938.42
959.25 207.24 589.17 977.67 0.00 1367.65 757.41 815.75 824.89 1150.28 743.42 1147.00 596.79 376.48 195.90 299.51 855.79 1237.48 901.60 634.05 936.81 853.08 590.49 387.13 683.74 879.90 239.41 1179.99 1026.94 1305.70 1059.01 515.25 849.48 1093.98 1290.19 1129.71 795.46 905.74 1370.85 1245.54 656.98 921.65 690.61 638.55 523.30 179.56 599.39 904.27 679.80 334.68 1196.17 790.41 951.40 1282.59 859.54 734.27 603.80 947.49 73.46 538.21 1098.84 844.86 388.50 814.04 878.32 882.21 781.06 1137.02 583.57 280.95 992.02 328.04 471.39 658.86 925.52 109.26 936.59 339.35 1014.61 833.81 1171.55 803.62 955.10 424.22 902.54 862.45 311.93 258.21 853.54 564.21 819.36 372.08 923.33 297.73 866.84 338.06 244.97 885.58 694.49 822.08 679.12 806.02 1310.88 878.28 332.53 842.53 841.45 1235.59 814.97 547.06 914.14 949.08 972.94 831.07 827.52 720.31 1014.95 293.80 551.78 645.21 461.02 841.16 613.61 343.44 637.20 776.67
522.43 1195.03 1234.84 782.68 1367.65 0.00 1275.87 807.85 659.99 392.77 858.73 725.12 820.57 1078.28 1246.70 1171.79 898.90 743.93 777.99 788.83 715.86 705.78 1217.23 1040.09 806.67 683.02 1371.84 301.69 738.42 180.38 566.87 966.83 788.20 387.70 310.29 494.30 864.12 694.87 487.87 478.17 794.76 709.45 736.61 834.35 994.16 1301.12 768.26 727.24 809.94 1154.54 728.11 804.53 1021.58 359.55 892.94 1108.25 1126.25 891.65 1326.95 904.26 811.58 1243.52 1172.15 588.23 730.59 744.91 915.33 1068.89 835.94 1268.74 683.63 1185.86 1110.11 784.39 556.82 1293.01 856.53 1195.35 939.30 533.84 882.40 700.15 757.31 976.19 1105.42 646.73 1169.75 1147.48 694.22 889.28 831.89 1172.44 816.02 1454.26 833.58 1173.52 1226.33 705.62 943.19 784.34 1423.05 714.77 600.07 669.48 1172.03 705.23 610.83 1331.93 772.27 942.16 642.72 753.46 942.49 606.82 767.42 731.97 573.09 1177.50 887.09 755.20 1030.14 1215.14 1282.74 1024.21 803.42 810.57
1116.49 550.17 263.99 648.04 757.41 1275.87 0.00 535.76 655.94 1107.00 417.14 761.94 595.78 740.50 779.34 800.66 1158.07 895.89 612.73 643.34 1157.13 1124.85 263.66 678.77 899.01 948.20 644.65 1179.07 698.56 1142.39 913.50 659.73 520.96 1118.98 1084.84 858.01 1102.49 1177.51 1220.52 982.75 571.68 1151.52 608.60 630.51 838.05 770.67 647.71 1040.02 535.27 746.06 879.88 510.42 430.97 1125.57 423.54 189.05 326.34 1254.40 696.55 580.80 769.21 225.84 897.68 858.69 1082.00 1062.08 1156.19 552.98 602.49 623.88 668.68 779.36 948.90 592.95 952.29 648.15 600.68 635.89 476.50 742.03 815.45 575.72 1129.77 675.37 357.32 953.91 795.47 750.04 1073.86 672.25 1085.10 795.36 643.34 654.79 1031.11 761.34 804.40 1116.18 365.97 562.24 198.69 826.25 1050.90 1092.44 828.43 1084.87 761.28 616.57 985.50 860.12 1137.23 661.17 520.82 696.12 517.17 709.74 855.09 794.95 488.91 674.27 511.21 192.70 290.98 592.71 577.87 947.20
756.81 654.80 574.93 258.43 815.75 807.85 535.76 0.00 173.35 655.81 118.62 351.12 348.50 590.12 691.15 833.20 997.01 485.07 85.85 375.88 929.79 863.06 554.58 583.27 626.13 571.18 831.61 744.75 231.06 657.31 377.74 551.81 187.22 721.63 624.42 365.60 916.28 903.80 689.58 446.99 330.48 876.18 327.43 425.85 664.40 790.21 326.25 861.68 294.07 738.77 484.21 25.34 316.61 589.81 187.97 403.28 435.04 992.67 784.76 432.19 338.65 538.55 762.44 589.95 865.86 839.62 922.28 457.32 390.90 728.51 176.27 747.30 797.43 351.75 702.47 706.49 208.76 547.70 208.59 274.01 406.48 122.02 958.18 606.11 400.45 597.45 756.84 661.85 846.52 455.25 908.73 697.04 126.82 894.96 873.50 731.06 788.87 852.34 283.28 152.39 682.94 698.89 583.40 870.90 796.37 835.51 371.04 657.78 764.67 629.48 942.91 246.10 231.04 280.54 62.45 278.79 372.50 834.13 464.72 401.39 440.43 510.17 630.65 558.01 334.36 758.28
613.81 738.39 618.28 335.02 824.89 659.99 655.94 173.35 0.00 482.46 238.80 410.82 260.23 594.74 713.81 798.46 839.28 544.77 259.20 254.25 805.00 711.49 633.53 495.00 547.07 397.83 872.21 571.40 290.76 591.86 313.81 463.54 171.64 548.28 533.52 425.30 747.70 764.15 625.65 429.74 248.40 760.58 194.35 317.97 607.86 756.15 301.60 693.10 267.68 684.92 543.91 198.69 483.56 537.39 354.92 576.63 524.37 885.88 859.04 343.92 398.35 656.38 756.87 421.37 697.28 671.04 812.88 621.23 306.99 743.20 235.97 718.22 739.62 242.13 540.65 836.37 298.47 627.58 381.94 126.15 543.95 116.45 789.60 524.03 573.80 493.41 734.33 695.32 721.73 366.98 783.99 678.21 232.67 922.34 791.44 703.90 811.53 678.99 326.63 188.61 803.12 547.91 643.10 715.13 767.29 710.72 202.46 831.13 659.24 581.00 796.00 305.80 404.39 111.96 235.80 274.99 199.15 792.75 373.03 322.33 496.35 683.52 674.00 481.45 284.20 668.86
472.95 1018.66 964.37 657.97 1150.28 392.77 1107.00 655.81 482.46 0.00 721.26 701.34 580.77 907.39 1039.20 1067.06 731.30 722.59 741.66 516.23 716.43 641.01 1019.99 801.88 664.07 584.66 1152.48 315.32 581.28 374.55 606.76 759.69 618.24 401.33 388.59 472.96 675.72 588.35 594.34 566.02 556.55 602.93 498.40 573.62 817.68 1086.03 565.92 687.26 571.73 978.06 763.90 681.15 918.92 437.85 830.01 1041.04 888.04 800.78 1156.06 664.46 688.87 1102.98 1023.02 533.73 661.31 665.20 729.42 974.57 587.26 1023.47 636.07 1011.36 933.63 546.18 570.45 1092.26 762.21 961.89 803.34 525.53 756.98 593.67 721.67 805.30 1056.26 487.74 1027.47 953.96 633.16 687.52 658.33 974.36 715.13 1230.49 604.34 997.04 1107.40 673.51 741.03 671.07 1159.28 615.40 619.64 657.90 1060.43 625.52 425.59 1209.54 687.47 765.68 536.20 659.14 878.45 452.55 718.26 546.73 450.64 1061.35 686.14 584.31 784.46 1073.36 969.67 806.84 581.70 725.77
796.59 536.18 456.89 322.92 743.42 858.73 417.14 118.62 238.80 721.26 0.00 426.39 361.88 648.76 758.21 786.67 929.77 560.34 204.47 386.94 962.07 892.00 448.37 586.26 555.44 634.79 712.99 761.93 306.33 725.25 496.36 565.19 109.56 787.08 684.79 440.87 874.19 921.04 803.38 565.61 315.28 941.50 321.30 413.02 676.41 780.43 362.81 851.29 278.87 762.09 543.33 93.28 244.76 708.43 116.12 387.54 316.42 1029.23 682.56 435.18 413.92 466.70 799.00 602.29 899.59 873.35 907.08 435.42 405.52 609.89 251.54 761.92 792.36 336.55 666.89 634.16 193.17 666.32 271.19 324.89 474.42 158.58 991.91 546.67 447.88 634.01 778.03 660.89 880.44 468.63 838.04 711.66 226.20 784.19 802.81 745.68 790.41 891.84 264.55 167.01 564.32 699.00 658.67 855.70 774.80 891.45 441.26 698.46 773.73 624.41 973.19 296.24 229.52 350.76 117.99 397.41 437.95 780.96 449.52 437.95 460.81 494.43 512.61 525.85 321.47 735.43
971.06 962.57 833.59 196.75 1147.00 725.12 761.94 351.12 410.82 701.34 426.39 0.00 634.47 882.90 1042.27 1063.97 1119.91 133.95 330.10 631.85 1127.66 1078.05 874.76 869.24 882.04 755.08 1113.38 885.65 120.06 544.74 391.71 823.22 455.27 959.10 501.05 241.43 1064.33 1119.67 562.48 449.05 595.59 1098.71 600.89 689.00 982.59 1120.33 582.16 1042.18 632.00 978.24 155.06 358.22 457.70 451.79 441.17 661.94 742.81 1206.42 1108.95 718.16 122.78 687.21 1090.67 759.50 1050.87 1024.63 1118.03 445.50 649.84 994.53 174.85 978.07 1073.01 616.86 878.78 1039.37 300.99 898.82 342.12 445.18 216.65 454.79 1143.19 871.22 542.91 812.44 994.18 1001.17 1044.39 741.22 1046.94 927.81 290.39 1210.58 992.95 961.83 1096.96 1089.81 541.94 503.51 948.21 886.04 399.30 1061.91 1027.14 1033.38 473.98 708.54 927.46 955.24 1067.52 197.92 374.39 465.55 321.11 538.37 404.74 1064.90 659.63 657.30 751.09 735.44 848.85 838.11 631.39 889.16
578.91 478.16 540.95 521.56 596.79 820.57 595.78 348.50 260.23 580.77 361.88 634.47 0.00 334.51 485.71 553.76 660.88 727.01 411.50 64.54 700.39 633.27 480.17 234.77 352.19 395.04 611.98 651.83 550.99 747.67 511.93 203.31 290.17 565.82 718.00 532.92 611.64 685.93 823.77 689.97 60.19 678.30 118.34 77.35 372.77 544.74 52.31 555.62 83.01 463.96 746.06 373.84 606.64 735.51 478.00 632.76 400.48 769.69 601.74 83.69 642.73 754.36 565.34 339.19 603.92 577.68 661.85 797.30 46.76 482.97 496.20 468.20 488.72 81.46 458.47 576.14 517.43 398.88 557.09 286.73 748.21 226.48 691.07 296.88 659.16 416.33 484.31 437.09 617.12 106.75 595.01 417.98 397.18 699.93 599.56 444.98 583.43 631.78 252.31 285.27 657.92 387.55 758.24 613.38 517.27 606.11 294.37 790.02 490.73 320.77 698.53 549.18 544.03 284.45 410.95 173.23 459.38 548.05 143.48 127.45 236.12 655.86 539.13 253.35 40.41 506.51
658.69 381.87 564.28 807.10 376.48 1078.28 740.50 590.12 594.74 907.39 648.76 882.90 334.51 0.00 200.93 259.00 606.84 970.12 675.97 391.16 659.98 660.46 583.07 168.16 327.66 593.03 558.68 819.49 762.84 1042.23 789.75 181.29 539.20 793.28 1013.96 867.43 515.26 712.20 1101.59 880.11 377.72 684.58 435.87 355.31 146.82 288.50 386.82 606.02 414.13 166.88 928.81 564.78 760.61 1013.33 723.60 780.39 451.12 649.85 346.16 300.68 870.43 892.58 230.83 528.81 610.20 583.96 553.91 1029.14 352.21 455.58 708.05 182.83 345.64 396.52 564.36 424.43 762.90 232.23 798.71 604.84 945.92 560.99 618.53 102.09 939.89 496.11 166.72 118.27 634.65 227.76 478.97 190.86 697.70 578.44 532.96 185.86 269.50 657.73 448.24 562.11 771.59 471.22 1073.35 659.39 231.90 623.64 628.78 1124.53 540.94 179.02 731.61 777.88 770.48 593.75 601.89 507.64 649.52 253.29 251.59 323.08 353.14 820.97 620.00 235.56 374.92 502.64
763.35 291.61 561.08 904.28 195.90 1246.70 779.34 691.15 713.81 1039.20 758.21 1042.27 485.71 200.93 0.00 152.26 678.82 1154.81 777.00 522.97 774.41 769.33 515.68 307.56 528.59 793.96 362.18 984.09 922.21 1194.62 947.93 371.97 710.16 898.08 1179.11 1018.63 646.39 770.39 1259.77 1081.04 545.90 784.97 585.90 526.64 347.75 99.06 488.31 751.09 568.72 165.44 1113.50 716.49 868.92 1171.51 858.30 777.19 534.81 770.52 145.23 430.09 1025.45 933.92 239.43 717.90 763.17 737.78 604.09 1025.94 472.49 287.75 867.42 132.14 304.53 547.78 763.16 223.50 899.91 143.45 899.74 722.73 1097.63 654.58 785.86 303.02 945.46 697.04 116.03 146.30 757.77 428.69 652.50 182.40 817.97 393.08 706.49 155.36 97.72 769.17 583.41 652.71 592.55 672.15 1202.76 733.03 179.04 768.78 730.37 1268.66 667.72 377.82 718.24 877.30 870.96 719.99 753.60 609.23 850.45 146.55 440.70 491.50 349.94 851.13 616.80 232.36 526.12 629.42
739.60 250.49 688.78 956.03 299.51 1171.79 800.66 833.20 798.46 1067.06 786.67 1063.97 553.76 259.00 152.26 0.00 621.88 1182.91 873.52 596.40 775.41 763.02 606.46 355.31 495.16 688.75 423.38 907.17 1021.84 1156.26 938.90 350.83 738.26 874.33 1183.50 1071.43 600.50 766.76 1250.74 1139.11 612.15 739.14 658.79 538.46 249.38 129.33 574.31 708.58 621.52 113.54 1141.60 823.78 912.28 1162.48 850.97 810.89 605.78 713.58 236.71 470.07 1075.44 967.62 193.54 583.56 712.76 686.52 547.15 1171.03 525.37 324.20 967.05 85.90 308.35 615.11 652.04 305.25 979.84 295.71 1027.48 808.65 1204.92 765.00 733.96 336.52 979.16 642.52 92.28 200.32 737.21 479.06 601.33 136.16 910.66 484.18 655.32 108.78 54.54 732.09 668.39 680.81 701.31 638.72 1242.74 761.95 36.83 726.20 755.81 1230.20 624.54 301.38 805.87 985.25 964.37 735.67 853.18 695.23 908.52 5.71 474.35 543.44 444.12 917.78 633.06 377.45 578.92 586.24
438.11 848.63 1060.09 1133.43 855.79 898.90 1158.07 997.01 839.28 731.30 929.77 1119.91 660.88 606.84 678.82 621.88 0.00 1253.86 1029.76 661.74 183.04 274.59 1021.14 691.45 374.33 550.52 973.38 616.13 1125.42 973.74 1012.09 608.37 820.21 572.06 1019.49 1114.32 91.58 311.83 1225.24 1123.96 695.14 313.67 731.18 598.02 479.82 681.96 674.21 235.58 702.94 542.44 1254.18 1010.70 1174.53 1068.75 1045.89 1243.01 974.41 142.51 789.34 668.05 1148.95 1304.95 498.54 479.10 187.28 213.52 74.73 1365.19 661.21 922.34 1075.25 546.68 384.40 683.40 523.34 834.70 1051.62 729.15 1129.98 800.30 1307.95 878.44 224.49 625.38 1250.99 453.60 562.79 615.00 223.60 596.47 127.87 544.20 1058.06 1023.17 126.96 523.46 665.57 281.65 872.24 877.66 1200.52 352.56 1309.27 248.34 595.75 212.59 764.62 1450.90 253.87 427.82 320.56 1145.08 1096.09 727.32 976.97 769.42 893.37 626.53 736.82 599.07 820.48 1275.03 1114.59 731.37 696.17 289.93
1031.80 1096.52 856.65 295.05 1237.48 743.93 895.89 485.07 544.77 722.59 560.34 133.95 727.01 970.12 1154.81 1182.91 1253.86 0.00 429.20 688.84 1214.69 1159.16 965.99 901.83 946.87 889.03 1227.42 957.16 254.01 566.55 423.79 868.73 500.99 992.63 436.64 249.63 1198.28 1183.22 518.75 444.75 729.54 1155.60 677.14 752.56 1021.08 1239.27 674.70 1102.79 706.40 1097.18 41.31 492.17 553.47 462.80 536.18 795.89 853.72 1295.57 1242.90 810.42 173.88 821.16 1200.95 816.39 1106.97 1080.73 1251.98 496.60 740.61 1128.48 308.80 1097.01 1137.03 713.85 935.67 1173.32 385.02 1011.36 444.69 579.13 195.60 586.29 1199.29 938.10 661.12 893.55 1113.12 1088.39 1131.42 833.76 1180.89 1046.75 424.34 1314.06 1126.90 1080.77 1215.90 1154.50 655.98 502.10 947.11 942.93 265.35 1144.86 1146.08 1120.41 607.93 647.50 1061.41 969.08 1201.47 288.40 494.45 566.05 455.06 553.78 493.00 1183.84 718.53 749.84 820.58 799.72 912.37 926.87 742.14 1023.11
770.03 740.65 608.04 180.31 901.60 777.99 612.73 85.85 259.20 741.66 204.47 330.10 411.50 675.97 777.00 873.52 1029.76 429.20 0.00 368.02 982.79 877.02 640.43 607.78 660.84 554.05 887.83 772.40 210.04 692.79 455.67 605.34 250.16 776.90 591.26 344.58 952.87 929.68 707.09 413.83 416.33 945.59 367.75 431.74 721.80 876.06 364.28 898.27 379.92 787.79 402.66 111.19 343.83 556.65 218.35 436.39 520.89 1055.67 870.61 456.70 257.10 568.93 825.44 607.68 902.45 876.21 1008.13 510.33 431.22 768.98 155.25 787.62 837.75 415.53 716.43 792.34 156.45 633.55 208.93 244.15 336.71 185.02 994.55 657.09 433.56 611.41 803.73 747.70 926.90 518.25 943.44 737.36 57.15 980.81 908.21 771.38 874.72 909.52 316.39 192.71 768.79 691.03 527.29 913.32 836.69 915.89 407.63 658.12 799.38 669.80 965.26 194.90 291.47 317.13 95.56 325.04 331.30 874.45 513.04 436.10 526.28 543.28 606.28 579.61 397.36 804.53
566.10 502.43 566.01 518.94 634.05 788.83 643.34 375.88 254.25 516.23 386.94 631.85 64.54 391.16 522.97 596.40 661.74 688.84 368.02 0.00 642.38 599.30 544.71 295.91 292.82 381.41 636.25 638.20 519.85 720.45 480.19 256.59 298.47 552.19 704.94 557.98 593.65 630.06 792.03 670.53 95.62 633.69 113.80 63.72 399.07 569.80 49.69 536.78 108.07 521.69 701.81 384.59 599.82 703.77 471.18 657.82 425.54 710.32 639.83 148.23 625.12 783.21 600.18 294.48 566.89 540.65 645.84 772.90 71.03 507.24 465.06 510.50 485.37 81.44 413.76 600.41 524.47 445.66 576.95 254.99 704.73 253.86 626.53 289.07 684.22 403.52 526.61 444.06 570.62 171.29 575.42 471.26 425.17 724.20 540.19 505.28 610.24 612.94 277.37 241.02 722.46 323.01 783.30 589.20 559.57 580.33 256.20 854.56 431.36 347.07 633.99 534.89 539.49 250.43 421.70 135.06 439.94 598.30 169.91 68.08 300.66 691.29 565.56 290.61 65.47 443.96
344.35 979.85 1096.11 1069.38 936.81 715.86 1157.13 929.79 805.00 716.43 962.07 1127.66 700.39 659.98 774.41 775.41 183.04 1214.69 982.79 642.38 0.00 105.77 1051.36 727.12 429.31 468.30 1067.48 474.16 1048.22 831.77 960.85 601.69 875.19 474.06 951.95 1001.60 235.20 158.43 1139.26 1031.94 710.98 167.25 737.49 653.45 526.93 839.35 649.44 156.02 683.20 661.87 1223.62 946.45 1099.13 1001.21 1078.19 1232.95 1010.08 178.04 919.64 744.49 1154.25 1323.76 642.16 457.22 128.61 133.96 257.77 1348.77 664.88 938.47 993.43 695.17 567.44 689.71 383.70 954.13 1099.69 830.21 1124.25 738.64 1301.41 846.81 41.45 661.05 1259.35 371.38 711.28 772.39 83.27 680.96 271.49 705.21 981.18 1142.60 254.36 680.85 774.02 132.73 852.50 849.99 1268.81 330.88 1205.37 106.37 744.24 94.28 653.68 1414.33 211.02 571.44 180.23 1040.16 1141.40 693.04 983.56 695.36 834.70 769.70 759.66 574.30 859.51 1306.65 1151.83 773.50 707.85 249.32
238.58 947.57 1069.94 966.00 853.08 705.78 1124.85 863.06 711.49 641.01 892.00 1078.05 633.27 660.46 769.33 763.02 274.59 1159.16 877.02 599.30 105.77 0.00 1003.18 694.84 373.52 362.53 1092.49 404.09 957.99 760.95 858.07 569.41 819.40 368.29 873.25 931.53 241.63 52.66 1041.08 931.71 649.54 68.57 686.46 610.37 513.64 831.95 606.36 94.06 613.13 686.08 1117.85 888.40 1066.85 922.51 1008.12 1162.88 977.80 258.47 914.56 682.53 1048.48 1223.53 634.63 351.45 97.41 101.68 306.81 1248.54 602.92 967.78 907.92 696.67 599.52 646.63 277.93 962.34 1009.96 797.93 1018.48 632.87 1207.48 741.04 146.11 628.77 1189.28 265.61 694.46 752.34 50.99 575.19 266.22 678.18 925.03 1150.81 222.08 673.45 741.74 32.50 782.43 806.69 1213.02 298.60 1106.94 36.30 745.74 62.00 621.40 1382.05 239.83 557.82 104.81 939.93 1041.52 660.76 925.51 663.08 803.50 757.31 716.58 531.22 816.43 1245.21 1112.23 741.22 650.23 244.87
900.15 436.26 123.99 747.75 590.49 1217.23 263.66 554.58 633.53 1019.99 448.37 874.76 480.17 583.07 515.68 606.46 1021.14 965.99 640.43 544.71 1051.36 1003.18 0.00 447.31 788.91 823.84 449.70 1080.63 754.70 1161.21 873.24 533.06 465.00 994.62 1122.99 849.61 988.65 1055.84 1185.08 1001.57 527.82 1049.14 521.59 506.15 665.86 614.74 532.48 971.05 534.62 516.66 983.24 529.24 486.80 1096.82 511.96 387.23 131.95 1112.84 517.03 396.48 840.85 489.50 653.37 741.90 922.75 948.99 946.41 642.99 476.09 368.81 699.91 520.90 723.90 516.90 842.59 498.51 641.54 372.23 616.82 683.39 871.28 517.08 1015.07 480.98 555.50 737.57 537.01 486.38 969.55 574.60 952.36 531.70 662.16 525.14 1006.35 497.68 613.40 1020.00 365.50 522.45 299.70 865.23 1107.04 983.86 569.97 958.54 701.15 761.95 937.30 652.41 1066.51 744.61 576.65 694.66 566.35 653.40 785.48 600.75 400.85 585.30 316.82 456.36 110.09 361.25 492.02 935.84
649.24 304.04 414.78 756.33 387.13 1040.09 678.77 583.27 495.00 801.88 586.26 869.24 234.77 168.16 307.56 355.31 691.45 901.83 607.78 295.91 727.12 694.84 447.31 0.00 381.69 578.44 480.85 793.52 784.31 960.74 723.33 132.23 501.25 749.22 952.77 757.30 599.87 692.42 1035.17 890.38 294.96 693.78 303.48 260.75 249.20 385.82 287.08 615.22 307.39 241.77 920.19 608.61 684.08 934.16 555.44 619.97 388.51 764.01 416.83 151.08 850.87 724.42 393.39 478.13 619.40 593.16 649.27 879.64 230.69 377.75 730.97 275.07 339.60 316.23 538.39 402.02 746.37 164.11 751.85 506.25 944.49 461.25 711.72 66.07 788.24 486.66 291.18 231.77 643.85 177.08 574.29 292.20 615.09 590.49 628.28 260.75 357.99 666.93 437.11 466.08 622.09 525.25 923.75 668.59 324.14 632.84 529.14 1005.02 583.27 301.20 740.81 767.09 668.84 476.55 645.72 408.00 659.79 349.60 242.97 287.06 203.64 726.86 470.50 86.06 264.79 544.97
433.80 653.39 775.76 769.13 683.74 806.67 899.01 626.13 547.07 664.07 555.44 882.04 352.19 327.66 528.59 495.16 374.33 946.87 660.84 292.82 429.31 373.52 788.91 381.69 0.00 304.08 744.97 582.61 781.09 873.39 737.51 275.23 445.88 523.98 884.99 739.99 318.75 418.62 991.80 859.43 361.42 418.53 387.93 303.89 305.78 553.74 299.88 295.85 397.83 472.56 964.12 636.37 800.20 917.00 671.56 868.68 694.82 474.00 610.28 405.29 888.68 930.62 444.97 218.44 344.15 317.91 353.02 990.86 334.31 727.10 726.30 476.80 330.16 340.15 327.48 688.55 748.61 503.75 755.65 512.31 997.55 504.11 436.47 374.28 940.64 271.22 492.91 445.93 368.60 359.32 282.60 484.06 688.10 877.02 247.37 453.58 445.96 341.02 548.34 503.33 839.50 143.56 1027.71 353.61 525.87 357.59 476.33 1142.21 218.29 312.59 454.54 796.13 784.96 439.33 602.64 420.80 628.84 494.79 410.10 224.74 509.95 957.09 805.75 447.04 358.29 179.99
215.98 727.95 888.04 643.03 879.90 683.02 948.20 571.18 397.83 584.66 634.79 755.08 395.04 593.03 793.96 688.75 550.52 889.03 554.05 381.41 468.30 362.53 823.84 578.44 304.08 0.00 904.76 382.13 635.02 652.18 535.10 510.56 564.26 350.71 741.55 698.15 458.94 401.90 846.94 629.82 408.79 429.52 435.30 317.69 520.61 806.66 422.69 438.35 444.57 698.92 871.07 596.52 790.55 758.68 722.60 946.71 747.57 575.61 806.44 427.36 725.51 1040.75 632.20 121.15 449.16 445.17 524.12 987.68 380.88 801.66 633.80 703.16 571.08 387.52 201.94 825.93 696.30 739.08 762.98 309.90 877.74 476.21 508.64 568.54 943.88 96.92 719.27 694.89 413.52 406.50 484.03 698.89 611.20 1014.40 482.02 679.94 731.87 381.80 613.87 560.40 984.50 224.58 926.61 398.83 702.61 424.53 406.67 1156.19 296.65 515.47 411.21 672.25 718.55 382.88 605.88 496.35 526.25 683.04 459.29 347.55 562.70 1004.46 854.94 621.01 419.93 334.95
1055.23 176.81 469.83 998.20 239.41 1371.84 644.65 831.61 872.21 1152.48 712.99 1113.38 611.98 558.68 362.18 423.38 973.38 1227.42 887.83 636.25 1067.48 1092.49 449.70 480.85 744.97 904.76 0.00 1104.12 1004.40 1328.40 1057.86 554.97 726.43 1116.88 1294.66 1136.96 910.14 1132.57 1369.70 1232.82 657.75 1120.91 707.62 628.41 583.15 294.05 632.90 1040.82 634.29 430.94 1228.50 806.27 737.25 1253.84 829.11 745.78 451.86 1044.73 216.95 615.32 1111.99 754.14 576.68 783.61 1043.58 1020.29 898.65 1001.41 565.22 129.01 964.53 464.24 658.45 679.02 902.89 138.68 906.16 326.45 901.55 867.32 1121.73 814.48 1051.36 519.70 848.10 892.65 478.21 440.60 1066.03 657.93 873.85 481.37 926.57 190.76 927.84 449.92 401.83 1085.99 571.44 767.71 603.72 865.50 1356.74 1090.77 419.97 1055.02 874.96 1065.97 906.12 573.90 1080.42 1009.23 816.19 812.72 792.27 753.82 1002.23 417.67 585.36 690.29 462.89 655.57 414.11 466.93 644.45 897.52
220.74 981.21 1116.71 766.33 1179.99 301.69 1179.07 744.75 571.40 315.32 761.93 885.65 651.83 819.49 984.09 907.17 616.13 957.16 772.40 638.20 474.16 404.09 1080.63 793.52 582.61 382.13 1104.12 0.00 814.97 482.07 533.37 767.35 743.04 86.01 590.18 707.53 562.43 393.18 697.41 562.23 619.35 407.76 645.86 574.48 692.47 1030.33 657.55 425.55 655.76 852.85 984.20 770.09 1006.69 540.92 878.05 1148.03 980.20 589.96 1127.59 684.15 887.50 1227.78 880.32 374.41 428.90 443.22 613.64 1052.54 637.67 975.11 806.94 884.17 808.42 598.08 255.13 1079.19 840.18 957.63 922.95 618.76 1010.64 687.85 515.61 821.80 1145.20 345.04 868.06 937.76 392.53 654.62 530.20 870.75 804.07 1192.07 531.89 871.83 957.90 403.93 825.06 760.01 1241.29 439.05 731.21 367.79 870.34 403.54 518.58 1315.58 470.58 640.47 341.03 737.11 975.20 608.52 807.20 569.59 765.96 909.07 716.08 600.81 819.49 1215.02 1111.73 877.80 655.15 508.88
851.00 842.51 763.22 76.69 1026.94 738.42 698.56 231.06 290.76 581.28 306.33 120.06 550.99 762.84 922.21 1021.84 1125.42 254.01 210.04 519.85 1048.22 957.99 754.70 784.31 781.09 635.02 1004.40 814.97 0.00 664.80 314.20 754.30 335.21 839.04 535.55 244.12 1033.84 1010.65 606.63 469.01 538.98 1026.56 480.83 583.57 892.90 1021.27 539.23 979.24 525.13 929.72 253.15 256.40 337.64 528.86 321.11 623.27 622.75 1155.62 988.89 634.68 107.59 567.15 978.06 707.51 983.42 957.18 1099.02 393.29 590.88 875.39 54.79 945.67 996.62 527.17 797.40 937.55 180.93 778.76 222.06 325.12 253.19 337.64 1075.74 772.32 522.58 692.38 929.56 881.11 966.59 657.74 1060.78 928.10 226.68 1090.52 1028.46 948.70 1019.93 969.75 490.20 383.45 828.15 820.04 352.34 941.85 994.74 977.60 488.60 628.26 876.66 860.54 1046.23 77.86 297.17 398.10 293.51 418.31 284.68 1016.13 663.79 587.93 631.03 665.72 728.79 748.61 549.98 897.80
702.81 1174.90 1181.56 692.55 1305.70 180.38 1142.39 657.31 591.86 374.55 725.25 544.74 747.67 1042.23 1194.62 1156.26 973.74 566.55 692.79 720.45 831.77 760.95 1161.21 960.74 873.39 652.18 1328.40 482.07 664.80 0.00 402.75 892.86 763.50 568.08 129.91 510.00 939.88 708.29 307.49 307.34 741.75 722.87 690.56 699.99 1025.86 1205.98 706.31 783.16 749.86 1066.46 607.86 631.97 914.50 179.17 794.60 1009.91 1041.67 920.72 1303.97 809.66 631.20 1145.18 1056.80 711.21 786.51 800.83 1005.06 953.92 763.18 1199.39 622.60 1070.70 1076.33 738.34 660.12 1272.88 766.40 1121.38 812.33 590.47 761.39 708.31 841.61 953.21 1007.08 602.17 1086.81 1080.33 750.14 850.59 972.73 1081.50 635.64 1369.47 918.74 1047.48 1189.59 761.54 889.91 769.94 1273.71 729.83 419.69 725.40 1119.77 761.15 607.99 1190.61 801.90 1045.46 656.14 663.33 837.67 517.49 669.08 585.39 392.71 1150.55 841.59 779.14 945.00 1116.80 1231.58 962.26 707.26 840.20
751.08 924.04 890.85 383.14 1059.01 566.87 913.50 377.74 313.81 606.76 496.36 391.71 511.93 789.75 947.93 938.90 1012.09 423.79 455.67 480.19 960.85 858.07 873.24 723.33 737.51 535.10 1057.86 533.37 314.20 402.75 0.00 700.53 444.21 619.38 272.84 174.16 933.92 910.73 311.84 232.88 486.12 926.64 427.97 528.17 841.48 999.11 459.62 875.37 501.30 825.36 454.64 403.08 644.09 223.58 541.96 781.02 793.07 1071.15 1038.42 572.25 421.79 827.40 976.98 592.69 870.65 857.26 937.36 690.88 492.64 928.85 305.62 858.66 906.20 475.75 696.07 1022.02 478.52 867.29 536.26 225.20 567.39 356.16 962.97 687.66 778.19 592.46 874.77 858.95 877.58 618.68 970.21 875.79 398.52 1145.62 955.07 844.34 954.70 890.57 599.20 440.35 1060.68 719.23 406.46 894.37 907.73 866.57 307.17 942.46 792.19 808.74 874.40 375.45 603.62 298.18 440.19 428.31 249.14 933.19 578.45 534.76 721.50 780.01 946.57 715.57 494.78 830.49
613.61 378.16 500.53 710.31 515.25 966.83 659.73 551.81 463.54 759.69 565.19 823.22 203.31 181.29 371.97 350.83 608.37 868.73 605.34 256.59 601.69 569.41 533.06 132.23 275.23 510.56 554.97 767.35 754.30 892.86 700.53 0.00 481.63 681.34 832.67 736.23 516.79 606.65 981.67 875.49 263.50 633.05 321.65 192.87 178.32 407.19 241.06 569.15 286.32 265.10 827.42 577.15 748.98 881.93 672.99 687.20 444.82 671.22 449.81 178.77 831.48 823.24 377.53 432.54 543.20 547.09 563.94 965.39 207.89 451.87 699.51 264.93 368.34 284.77 518.38 476.14 720.74 228.52 739.79 475.48 933.14 429.79 635.52 99.05 845.84 472.38 281.04 270.34 518.42 177.21 480.50 214.67 600.49 664.61 522.60 248.69 383.82 566.66 326.64 446.40 681.75 418.79 951.44 543.16 314.00 507.41 483.12 993.33 493.52 200.39 615.38 739.53 690.94 455.39 547.47 361.98 644.90 351.76 270.66 211.63 259.95 724.67 556.25 171.81 243.72 455.22
723.76 645.74 446.64 379.47 849.48 788.20 520.96 187.22 171.64 618.24 109.56 455.27 290.17 539.20 710.16 738.26 820.21 500.99 250.16 298.47 875.19 819.40 465.00 501.25 445.88 564.26 726.43 743.04 335.21 763.50 444.21 481.63 0.00 719.92 693.96 469.75 764.63 811.48 756.05 601.38 229.98 839.10 211.74 327.72 586.54 770.11 292.28 741.73 261.75 652.53 518.24 190.49 354.32 667.79 225.68 422.80 352.73 919.88 787.87 372.45 442.80 484.74 728.47 564.56 790.03 763.79 798.90 544.98 295.96 675.58 280.42 652.36 702.49 251.25 557.33 743.72 302.73 566.71 309.77 254.36 571.63 88.05 882.35 437.11 494.76 563.48 668.47 608.40 814.48 391.80 728.48 602.10 262.01 820.50 693.25 636.12 758.28 786.90 154.99 57.45 653.95 589.44 687.55 799.49 701.43 803.47 374.10 730.14 664.17 534.54 863.63 350.25 339.08 283.60 156.76 331.64 370.79 739.19 351.64 366.55 388.46 529.69 502.36 506.04 265.78 625.87
134.73 945.14 1034.66 852.34 1093.98 387.70 1118.98 721.63 548.28 401.33 787.08 959.10 565.82 793.28 898.08 874.33 572.06 992.63 776.90 552.19 474.06 368.29 994.62 749.22 523.98 350.71 1116.88 86.01 839.04 568.08 619.38 681.34 719.92 0.00 676.19 793.54 480.48 320.65 783.42 648.24 586.21 348.27 644.36 488.47 646.46 979.88 595.31 382.99 622.62 831.46 1033.94 746.97 1031.25 626.93 903.20 1124.91 894.19 562.27 1043.31 598.14 946.63 1204.66 832.59 406.35 410.78 394.73 527.63 1138.55 551.66 987.87 784.25 798.16 771.47 601.08 301.16 1043.12 846.75 898.69 930.22 532.75 1092.23 664.73 453.97 741.69 1122.08 297.31 782.05 868.81 399.57 606.89 444.19 824.74 780.95 1204.83 445.88 821.38 884.83 353.63 788.18 736.89 1155.28 380.42 817.22 389.77 847.23 410.58 540.54 1355.84 384.57 686.50 329.96 823.12 941.40 522.51 784.08 612.75 712.02 868.62 630.07 567.62 733.48 1181.88 1025.72 791.79 604.22 422.87
726.29 1122.54 1080.15 612.24 1290.19 310.29 1084.84 624.42 533.52 388.59 684.79 501.05 718.00 1013.96 1179.11 1183.50 1019.49 436.64 591.26 704.94 951.95 873.25 1122.99 952.77 884.99 741.55 1294.66 590.18 535.55 129.91 272.84 832.67 693.96 676.19 0.00 380.09 1024.67 838.20 205.75 177.43 657.81 852.78 684.32 749.15 948.08 1197.94 690.80 907.08 660.37 1097.77 477.95 604.78 821.83 49.26 693.19 908.50 1001.21 1050.63 1268.92 801.69 501.29 1043.77 1186.71 714.60 915.48 906.96 1071.82 824.01 750.34 1165.65 569.42 1097.60 1148.61 636.54 595.32 1220.52 716.48 1061.19 757.61 498.04 632.24 605.91 971.52 931.72 905.67 700.34 1113.71 1103.01 868.68 824.75 988.38 1047.34 534.11 1329.94 992.93 1081.36 1216.49 867.49 788.50 690.10 1249.11 741.43 289.78 855.31 1146.67 879.69 580.01 1060.70 900.07 980.66 786.05 613.41 770.06 526.93 567.67 569.88 408.02 1184.43 831.02 751.95 836.46 1015.39 1135.87 946.75 693.61 862.38
914.13 960.15 897.76 288.38 1129.71 494.30 858.01 365.60 425.30 472.96 440.87 241.43 532.92 867.43 1018.63 1071.43 1114.32 249.63 344.58 557.98 1001.60 931.53 849.61 757.30 739.99 698.15 1136.96 707.53 244.12 510.00 174.16 736.23 469.75 793.54 380.09 0.00 1058.74 967.78 362.51 224.89 528.31 985.61 586.46 610.27 905.69 996.84 562.35 952.99 535.11 985.70 290.94 390.94 544.96 367.71 446.24 748.40 757.29 1117.40 1104.22 606.22 351.71 796.82 1098.13 742.29 949.46 970.66 1093.01 574.59 579.68 1015.89 189.33 985.53 1021.64 549.58 803.39 1058.13 362.23 913.30 445.00 388.25 445.23 487.62 1041.78 775.86 703.88 755.51 1001.64 947.15 919.97 639.67 1022.59 935.27 333.31 1202.25 987.36 966.91 1097.03 931.37 624.74 517.99 1005.19 868.83 438.99 895.23 1034.60 930.98 481.33 837.63 955.24 853.69 1009.16 259.16 492.63 432.88 428.05 595.96 243.37 1069.98 659.71 626.06 758.65 855.29 886.58 786.27 492.51 919.98
382.53 822.49 968.51 1041.85 795.46 864.12 1102.49 916.28 747.70 675.72 874.19 1064.33 611.64 515.26 646.39 600.50 91.58 1198.28 952.87 593.65 235.20 241.63 988.65 599.87 318.75 458.94 910.14 562.43 1033.84 939.88 933.92 516.79 764.63 480.48 1024.67 1058.74 0.00 294.29 1230.42 1033.22 623.33 292.40 681.48 553.95 388.24 672.41 600.71 213.84 659.74 532.89 1197.36 941.62 1118.95 1073.93 990.31 1164.53 882.83 164.14 779.79 622.43 1057.37 1249.37 406.96 422.28 218.02 191.78 65.18 1309.61 617.14 842.38 983.67 517.15 374.85 640.98 467.04 825.15 960.04 681.16 1074.40 708.72 1216.37 804.94 276.65 533.80 1206.92 362.02 533.26 605.45 190.64 504.89 36.29 534.65 980.37 981.44 71.38 513.91 621.40 248.69 811.17 801.26 1142.57 295.74 1224.12 215.38 563.67 201.65 673.83 1396.41 162.29 336.24 287.60 1053.50 1052.02 635.74 921.39 677.84 825.25 602.40 645.24 525.57 737.28 1183.45 1024.23 639.79 652.05 198.35
185.92 973.63 1107.18 1018.66 905.74 694.87 1177.51 903.80 764.15 588.35 921.04 1119.67 685.93 712.20 770.39 766.76 311.83 1183.22 929.68 630.06 158.43 52.66 1055.84 692.42 418.62 401.90 1132.57 393.18 1010.65 708.29 910.73 606.65 811.48 320.65 838.20 967.78 294.29 0.00 988.42 932.59 679.27 27.62 725.17 641.13 565.38 869.45 637.12 146.72 665.79 717.29 1141.91 878.46 1104.09 887.46 1037.16 1215.54 975.38 269.91 915.62 712.16 1101.14 1276.19 671.87 366.83 135.03 128.24 342.11 1301.20 655.58 1017.04 960.58 708.11 595.58 677.39 276.00 993.89 1062.62 835.17 1016.55 685.53 1259.60 793.70 133.32 626.35 1241.22 318.27 724.22 778.90 103.65 627.85 302.63 715.80 975.46 1163.47 248.64 726.11 768.30 85.16 835.09 754.03 1258.12 351.26 1124.39 88.96 757.18 99.24 645.69 1408.61 245.70 562.25 52.15 992.59 1084.16 676.24 915.57 663.94 836.02 761.05 747.34 561.98 847.19 1274.94 1142.99 778.46 665.61 238.63
918.15 1235.88 1202.69 628.93 1370.85 487.87 1220.52 689.58 625.65 594.34 803.38 562.48 823.77 1101.59 1259.77 1250.74 1225.24 518.75 707.09 792.03 1139.26 1041.08 1185.08 1035.17 991.80 846.94 1369.70 697.41 606.63 307.49 311.84 981.67 756.05 783.42 205.75 362.51 1230.42 988.42 0.00 299.31 797.96 1016.04 739.81 840.01 1153.32 1310.95 771.46 1090.65 813.14 1137.20 477.44 714.92 889.88 156.49 808.75 1092.86 1104.91 1228.21 1350.26 884.09 507.76 1139.24 1288.82 866.95 1094.00 1108.32 1231.54 830.48 804.48 1240.69 551.84 1170.50 1180.46 787.59 801.07 1333.86 724.74 1179.13 800.47 537.04 631.73 668.00 1121.74 999.50 1066.39 904.30 1186.61 1170.79 1057.63 930.52 1194.13 1187.63 655.99 1457.46 1198.68 1156.18 1266.54 1069.03 911.04 739.67 1367.70 947.18 397.01 1032.89 1219.57 1068.64 581.43 1083.63 1092.97 1120.58 963.63 621.67 849.41 610.02 752.03 702.57 529.90 1245.03 890.29 846.60 1033.34 1091.85 1249.09 1027.41 806.62 1068.13
760.76 1099.00 993.66 513.27 1245.54 478.17 982.75 446.99 429.74 566.02 565.61 449.05 689.97 880.11 1081.04 1139.11 1123.96 444.75 413.83 670.53 1031.94 931.71 1001.57 890.38 859.43 629.82 1232.82 562.23 469.01 307.34 232.88 875.49 601.38 648.24 177.43 224.89 1033.22 932.59 299.31 0.00 644.36 960.21 586.90 724.60 1000.41 1168.61 646.15 903.92 649.71 1046.99 486.06 472.33 718.71 142.82 624.73 840.04 882.03 1118.30 1187.98 747.21 405.39 897.42 1110.94 729.51 936.68 925.98 1098.40 728.11 667.60 1103.81 414.22 1062.94 1044.87 634.68 656.59 1153.48 570.28 994.69 622.76 458.08 564.39 540.67 1029.00 911.76 834.19 671.20 1046.83 998.38 954.76 796.72 1058.31 1070.97 356.68 1318.30 1046.38 1046.99 1149.61 899.21 711.81 586.53 1129.93 798.86 296.79 930.02 1112.01 965.66 445.84 991.15 870.93 983.70 903.26 484.05 628.86 420.10 499.21 566.98 230.59 1133.40 802.77 717.66 887.42 946.93 1020.11 902.10 680.16 909.23
569.70 503.44 497.36 471.75 656.98 794.76 571.68 330.48 248.40 556.55 315.28 595.59 60.19 377.72 545.90 612.15 695.14 729.54 416.33 95.62 710.98 649.54 527.82 294.96 361.42 408.79 657.75 619.35 538.98 741.75 486.12 263.50 229.98 586.21 657.81 528.31 623.33 679.27 797.96 644.36 0.00 673.79 58.15 97.74 387.00 540.13 80.74 601.39 36.41 512.29 693.81 341.55 560.04 701.93 431.40 586.16 395.87 778.92 626.39 143.88 592.92 694.24 608.55 334.58 635.49 609.25 657.24 750.70 92.53 528.74 484.37 528.39 547.92 21.27 403.27 601.42 508.45 459.07 539.07 260.92 722.69 248.14 713.16 275.63 612.56 443.62 544.44 446.92 637.98 166.94 615.40 478.17 426.67 673.94 608.79 505.17 596.80 643.59 205.71 233.19 704.67 418.63 753.63 613.24 577.46 632.89 314.76 850.21 499.96 380.96 729.61 500.97 483.84 224.26 378.66 198.00 413.77 608.24 203.00 136.68 296.31 595.67 553.08 313.54 35.80 538.26
213.54 946.01 1103.17 1034.57 921.65 709.45 1151.52 876.18 760.58 602.93 941.50 1098.71 678.30 684.58 784.97 739.14 313.67 1155.60 945.59 633.69 167.25 68.57 1049.14 693.78 418.53 429.52 1120.91 407.76 1026.56 722.87 926.64 633.05 839.10 348.27 852.78 985.61 292.40 27.62 1016.04 960.21 673.79 0.00 728.80 635.56 537.76 848.46 640.75 122.68 662.63 713.79 1114.29 850.84 1130.49 902.04 1013.47 1212.38 976.74 268.84 930.20 684.54 1117.05 1292.10 679.90 339.21 126.39 100.62 314.49 1317.11 631.54 991.90 976.49 680.49 610.16 681.02 303.62 1006.05 1048.96 857.89 1044.17 701.44 1231.98 809.61 132.25 627.71 1225.95 334.18 696.60 751.28 114.63 640.26 275.01 707.16 947.84 1178.05 221.02 703.71 740.68 101.07 831.93 781.65 1258.03 325.27 1138.97 90.38 729.56 125.64 624.73 1380.99 218.08 574.96 66.73 1008.50 1056.54 648.62 887.95 691.56 831.85 733.43 750.97 565.61 836.97 1269.46 1146.62 779.84 637.99 256.38
627.85 561.59 530.11 498.26 690.61 736.61 608.60 327.43 194.35 498.40 321.30 600.89 118.34 435.87 585.90 658.79 731.18 677.14 367.75 113.80 737.49 686.46 521.59 303.48 387.93 435.30 707.62 645.86 480.83 690.56 427.97 321.65 211.74 644.36 684.32 586.46 681.48 725.17 739.81 586.90 58.15 728.80 0.00 155.89 413.51 598.28 107.25 650.58 73.33 545.25 635.83 322.65 510.50 650.74 381.86 623.08 389.64 805.43 675.68 202.03 588.42 696.48 666.70 389.59 662.00 635.76 701.54 756.72 150.68 578.61 430.32 578.55 578.44 47.78 461.42 659.57 485.63 467.59 515.68 202.77 703.79 259.23 740.33 333.78 649.48 474.23 592.28 505.07 674.90 225.09 670.53 536.32 404.89 732.09 635.30 563.32 647.67 670.10 242.63 175.04 737.42 436.81 761.45 650.16 627.62 675.44 263.57 900.67 526.47 410.49 747.79 500.15 425.69 173.07 359.76 168.80 356.31 653.08 243.98 163.19 354.46 653.82 585.83 353.54 93.95 557.76
533.67 480.47 570.35 563.09 638.55 834.35 630.51 425.85 317.97 573.62 413.02 689.00 77.35 355.31 526.64 538.46 598.02 752.56 431.74 63.72 653.45 610.37 506.15 260.75 303.89 317.69 628.41 574.48 583.57 699.99 528.17 192.87 327.72 488.47 749.15 610.27 553.95 641.13 840.01 724.60 97.74 635.56 155.89 0.00 371.19 550.57 106.84 557.00 134.15 457.97 762.49 439.29 587.92 751.75 529.14 672.26 429.88 718.09 603.98 109.67 684.26 779.62 570.40 305.55 561.18 534.94 601.10 836.62 63.19 499.40 528.78 457.80 518.58 112.61 424.83 578.45 588.19 421.39 570.29 302.97 768.45 303.83 653.50 253.22 652.97 384.50 473.91 380.34 585.63 150.60 517.66 407.54 474.53 716.36 551.26 441.56 562.72 579.52 299.71 301.70 666.81 386.73 835.59 610.37 504.51 574.62 319.92 867.37 442.43 364.62 682.59 592.31 498.07 310.69 476.40 198.78 500.20 543.24 141.60 79.15 245.01 693.41 537.25 303.32 117.76 480.73
586.27 484.27 663.98 816.21 523.30 994.16 838.05 664.40 607.86 817.68 676.41 982.59 372.77 146.82 347.75 249.38 479.82 1021.08 721.80 399.07 526.93 513.64 665.86 249.20 305.78 520.61 583.15 692.47 892.90 1025.86 841.48 178.32 586.54 646.46 948.08 905.69 388.24 565.38 1153.32 1000.41 387.00 537.76 413.51 371.19 0.00 367.29 419.38 459.20 397.54 228.71 989.88 679.35 833.29 997.34 704.65 776.29 533.91 522.83 474.67 338.19 937.38 933.02 285.58 446.32 463.38 437.14 435.39 1111.83 363.71 454.14 840.67 228.54 219.95 365.73 437.34 473.89 839.68 379.05 872.99 616.28 1058.51 599.25 555.70 248.91 944.56 423.69 244.65 265.09 487.83 266.02 351.95 178.28 701.79 662.36 405.94 212.30 292.50 510.91 504.96 529.09 770.84 449.34 1110.86 512.57 277.61 476.82 655.27 1162.79 410.43 52.00 584.79 845.43 818.05 586.58 702.89 534.13 769.82 243.67 398.41 370.35 349.04 883.18 719.70 335.26 413.18 372.13
845.15 244.25 660.14 1003.34 179.56 1301.12 770.67 790.21 756.15 1086.03 780.43 1120.33 544.74 288.50 99.06 129.33 681.96 1239.27 876.06 569.80 839.35 831.95 614.74 385.82 553.74 806.66 294.05 1030.33 1021.27 1205.98 999.11 407.19 770.11 979.88 1197.94 996.84 672.41 869.45 1310.95 1168.61 540.13 848.46 598.28 550.57 367.29 0.00 574.17 769.90 546.93 177.48 1197.96 815.55 892.85 1207.82 817.57 860.86 600.01 773.66 107.38 519.79 1123.60 874.35 314.19 712.89 773.29 747.84 607.23 1125.00 560.56 277.16 966.48 181.72 364.40 561.40 775.20 185.65 973.60 242.51 927.96 773.91 1193.92 716.67 797.90 338.80 1029.13 768.04 197.83 170.23 798.53 516.26 689.81 192.52 900.66 374.12 732.31 158.50 107.78 799.45 682.47 737.17 571.98 697.30 1222.16 823.27 162.35 787.52 816.23 1265.08 665.74 389.86 817.30 976.36 930.97 764.39 852.66 695.09 938.02 123.62 539.76 559.79 449.00 878.27 708.16 331.42 504.33 639.48
573.16 499.08 549.77 469.25 599.39 768.26 647.71 326.25 301.60 565.92 362.81 582.16 52.31 386.82 488.31 574.31 674.21 674.70 364.28 49.69 649.44 606.36 532.48 287.08 299.88 422.69 632.90 657.55 539.23 706.31 459.62 241.06 292.28 595.31 690.80 562.35 600.71 637.12 771.46 646.15 80.74 640.75 107.25 106.84 419.38 574.17 0.00 569.77 112.44 506.16 716.01 351.59 607.57 683.20 478.93 662.19 409.30 717.38 633.54 136.00 590.42 768.77 617.65 301.54 573.95 547.71 652.90 783.57 67.68 503.89 491.21 505.99 523.07 59.47 420.82 597.06 520.73 451.19 534.84 234.42 700.99 204.23 666.27 296.13 688.59 410.58 522.10 458.01 598.40 159.06 582.48 455.73 388.22 686.00 547.25 489.75 586.03 621.48 281.74 282.29 710.23 372.70 787.67 623.14 537.48 587.39 242.06 842.33 438.42 373.08 679.36 498.47 532.94 233.94 388.70 120.92 415.56 576.21 164.84 75.14 288.43 676.41 560.49 255.95 69.84 476.72
248.26 913.93 1030.00 987.25 904.27 727.24 1040.02 861.68 693.10 687.26 851.29 1042.18 555.62 606.02 751.09 708.58 235.58 1102.79 898.27 536.78 156.02 94.06 971.05 615.22 295.85 438.35 1040.82 425.55 979.24 783.16 875.37 569.15 741.73 382.99 907.08 952.99 213.84 146.72 1090.65 903.92 601.39 122.68 650.58 557.00 459.20 769.90 569.77 0.00 634.59 633.51 1115.39 882.13 1066.59 956.34 967.41 1145.06 898.18 214.38 877.28 588.47 1069.73 1225.29 557.22 340.31 48.30 22.06 258.92 1286.71 508.86 913.34 929.07 649.63 534.51 610.04 311.76 925.77 987.79 764.29 1051.50 654.12 1228.73 774.00 140.62 549.15 1209.97 341.43 635.06 672.72 72.75 575.48 196.45 629.07 869.28 1114.24 142.46 652.49 662.12 76.16 745.38 747.37 1135.35 213.77 1150.60 57.76 698.70 61.74 568.20 1302.43 172.26 496.40 169.71 983.59 1029.50 581.14 898.49 670.63 753.29 702.87 679.99 494.63 740.90 1197.06 1075.64 701.28 596.03 191.14
595.04 510.24 460.95 501.90 679.80 809.94 535.27 294.07 267.68 571.73 278.87 632.00 83.01 414.13 568.72 621.52 702.94 706.40 379.92 108.07 683.20 613.13 534.62 307.39 397.83 444.57 634.29 655.76 525.13 749.86 501.30 286.32 261.75 622.62 660.37 535.11 659.74 665.79 813.14 649.71 36.41 662.63 73.33 134.15 397.54 546.93 112.44 634.59 0.00 535.79 665.09 319.41 523.63 709.63 394.99 549.75 402.67 757.93 654.31 156.31 623.07 706.48 628.30 323.42 637.94 645.66 628.21 714.29 128.94 505.28 470.34 535.62 513.49 57.68 439.68 608.22 472.04 471.50 502.66 276.10 700.55 218.48 724.65 312.04 576.15 432.46 551.73 483.33 601.57 189.76 645.49 485.36 390.26 710.35 645.20 517.00 633.21 612.97 169.30 204.30 668.26 431.08 760.43 576.83 584.69 612.58 336.90 873.03 536.37 345.54 698.53 531.12 499.02 246.40 356.52 233.36 419.12 620.07 170.65 173.09 308.74 632.08 516.67 336.36 42.60 552.03
696.73 340.71 640.65 968.10 334.68 1154.54 746.06 738.77 684.92 978.06 762.09 978.24 463.96 166.88 165.44 113.54 542.44 1097.18 787.79 521.69 661.87 686.08 516.66 241.77 472.56 698.92 430.94 852.85 929.72 1066.46 825.36 265.10 652.53 831.46 1097.77 985.70 532.89 717.29 1137.20 1046.99 512.29 713.79 545.25 457.97 228.71 177.48 506.16 633.51 535.79 0.00 1055.87 731.66 833.14 1048.94 797.21 861.74 608.29 634.14 284.86 380.27 985.64 935.65 151.62 606.70 631.20 655.57 467.71 1118.60 459.88 414.42 874.93 33.30 245.20 533.56 597.72 292.26 905.67 191.07 941.75 718.85 1112.80 679.27 620.42 259.26 1028.21 652.40 49.41 110.52 635.09 394.64 512.33 50.43 824.93 480.73 566.32 18.98 129.34 659.93 591.74 595.08 696.04 593.82 1152.94 659.83 82.37 624.08 712.94 1246.79 516.96 212.38 732.05 944.76 910.61 645.87 763.38 625.16 816.40 107.83 418.47 476.73 445.41 938.76 620.82 327.83 493.19 478.66
1014.82 1079.51 897.96 263.37 1196.17 728.11 879.88 484.21 543.91 763.90 543.33 155.06 746.06 928.81 1113.50 1141.60 1254.18 41.31 402.66 701.81 1223.62 1117.85 983.24 920.19 964.12 871.07 1228.50 984.20 253.15 607.86 454.64 827.42 518.24 1033.94 477.95 290.94 1197.36 1141.91 477.44 486.06 693.81 1114.29 635.83 762.49 989.88 1197.96 716.01 1115.39 665.09 1055.87 0.00 505.23 524.32 504.11 507.79 803.91 859.75 1329.77 1225.89 769.11 145.56 820.30 1159.64 775.08 1148.28 1122.04 1244.51 468.28 699.30 1126.83 307.94 1055.70 1105.83 672.54 894.36 1177.49 350.16 970.05 403.38 561.17 154.29 544.98 1205.14 926.47 665.25 852.24 1071.81 1047.08 1149.23 795.14 1161.07 1005.44 399.09 1311.19 1148.01 1039.46 1174.59 1150.35 657.06 460.79 988.42 901.62 306.66 1138.24 1104.77 1160.24 629.04 606.19 1051.97 937.88 1181.02 247.09 483.85 607.36 476.17 595.09 516.12 1142.53 677.22 769.89 817.71 758.41 910.11 885.56 707.69 1022.57
782.15 629.46 549.59 283.77 790.41 804.53 510.42 25.34 198.69 681.15 93.28 358.22 373.84 564.78 716.49 823.78 1010.70 492.17 111.19 384.59 946.45 888.40 529.24 608.61 636.37 596.52 806.27 770.09 256.40 631.97 403.08 577.15 190.49 746.97 604.78 390.94 941.62 878.46 714.92 472.33 341.55 850.84 322.65 439.29 679.35 815.55 351.59 882.13 319.41 731.66 505.23 0.00 291.27 615.15 162.63 377.94 409.70 1018.01 759.42 457.53 363.99 513.21 787.78 615.29 891.20 864.96 947.62 482.66 388.77 703.17 201.61 745.17 795.30 347.66 727.81 681.15 198.12 573.04 233.93 299.35 381.14 147.36 983.09 617.18 375.11 622.79 731.50 683.05 863.18 480.59 918.97 694.91 132.92 869.62 883.74 728.93 814.21 877.68 257.94 150.26 657.60 707.60 603.06 887.92 794.24 860.85 396.38 680.68 789.23 627.35 917.57 271.44 205.70 305.88 37.11 304.13 397.84 818.07 454.59 426.73 451.92 484.83 605.31 569.50 359.70 783.62
1006.53 780.94 474.82 260.95 951.40 1021.58 430.97 316.61 483.56 918.92 244.76 457.70 606.64 760.61 868.92 912.28 1174.53 553.47 343.83 599.82 1099.13 1066.85 486.80 684.08 800.20 790.55 737.25 1006.69 337.64 914.50 644.09 748.98 354.32 1031.25 821.83 544.96 1118.95 1104.09 889.88 718.71 560.04 1130.49 510.50 587.92 833.29 892.85 607.57 1066.59 523.63 833.14 524.32 291.27 0.00 834.15 128.64 355.82 424.06 1259.37 879.04 679.94 382.12 309.53 969.85 847.05 1040.64 1044.53 1151.84 384.20 612.26 746.91 356.54 837.38 932.05 558.28 904.85 875.93 224.87 817.36 164.30 498.50 384.48 403.34 1132.96 658.52 350.42 865.76 853.49 722.62 1015.86 708.10 1082.80 848.18 362.03 891.83 1047.57 814.16 905.00 1073.91 422.34 373.75 490.51 922.83 689.98 1040.60 886.45 1004.85 636.38 474.57 1008.91 850.84 1112.82 286.71 89.85 545.88 254.16 572.96 557.33 906.57 618.99 645.63 608.93 408.10 507.60 726.51 566.23 980.19
761.66 1147.62 1051.38 573.20 1282.59 359.55 1125.57 589.81 537.39 437.85 708.43 451.79 735.51 1013.33 1171.51 1162.48 1068.75 462.80 556.65 703.77 1001.21 922.51 1096.82 934.16 917.00 758.68 1253.84 540.92 528.86 179.17 223.58 881.93 667.79 626.93 49.26 367.71 1073.93 887.46 156.49 142.82 701.93 902.04 650.74 751.75 997.34 1207.82 683.20 956.34 709.63 1048.94 504.11 615.15 834.15 0.00 742.45 957.76 1016.65 1099.89 1251.32 795.83 452.03 1040.24 1200.56 763.86 964.74 956.22 1121.08 774.75 716.22 1152.43 529.20 1082.24 1129.78 685.80 644.58 1245.60 702.10 1090.87 744.74 448.78 611.03 579.74 1020.78 911.24 954.93 749.60 1098.35 1082.53 917.94 842.26 1037.64 1096.60 499.50 1369.20 1042.19 1067.92 1178.28 916.75 820.67 663.93 1258.69 790.69 240.52 904.57 1131.31 928.95 530.75 1037.79 949.33 1029.92 835.31 599.03 771.68 477.67 616.93 619.14 373.41 1156.77 802.03 758.34 885.72 1003.59 1107.10 939.15 703.49 911.64
912.71 652.30 462.01 244.42 859.54 892.94 423.54 187.97 354.92 830.01 116.12 441.17 478.00 723.60 858.30 850.97 1045.89 536.18 218.35 471.18 1078.19 1008.12 511.96 555.44 671.56 722.60 829.11 878.05 321.11 794.60 541.96 672.99 225.68 903.20 693.19 446.24 990.31 1037.16 808.75 624.73 431.40 1013.47 381.86 529.14 704.65 817.57 478.93 967.41 394.99 797.21 507.79 162.63 128.64 742.45 0.00 302.16 380.01 1145.35 798.68 551.30 365.59 350.58 915.12 718.41 1015.71 989.47 1023.20 425.70 521.64 702.86 272.11 830.51 895.04 429.64 783.01 750.28 248.42 719.55 196.41 412.70 453.06 274.70 1097.71 621.51 331.76 750.13 846.62 777.01 996.56 584.75 954.16 827.78 271.54 847.78 918.93 816.19 905.51 1007.96 346.35 283.13 619.15 794.19 673.45 971.82 879.58 1007.57 557.38 588.38 880.27 740.53 1080.20 273.64 113.40 466.88 125.52 466.76 464.01 856.68 543.00 516.99 564.88 409.05 517.73 625.94 437.59 851.55
1144.79 713.33 337.54 546.58 734.27 1108.25 189.05 403.28 576.63 1041.04 387.54 661.94 632.76 780.39 777.19 810.89 1243.01 795.89 436.39 657.82 1232.95 1162.88 387.23 619.97 868.68 946.71 745.78 1148.03 623.27 1009.91 781.02 687.20 422.80 1124.91 908.50 748.40 1164.53 1215.54 1092.86 840.04 586.16 1212.38 623.08 672.26 776.29 860.86 662.19 1145.06 549.75 861.74 803.91 377.94 355.82 957.76 302.16 0.00 370.32 1299.12 753.48 579.68 667.75 156.73 948.57 873.17 1169.31 1143.07 1177.96 425.22 636.20 693.17 574.27 852.25 925.85 607.43 980.13 811.31 470.62 706.48 443.76 636.81 649.62 510.85 1261.63 686.04 168.27 982.21 836.14 798.64 1151.32 739.51 1128.24 840.32 493.54 747.77 1116.05 874.34 865.43 1162.72 555.02 480.25 377.24 980.83 963.68 1126.58 834.54 1162.33 774.32 511.96 1075.74 828.29 1248.28 573.69 367.04 683.82 340.83 682.07 766.17 816.60 570.30 712.46 427.25 106.89 331.67 544.83 592.35 1048.67
914.81 396.56 140.47 624.43 603.80 1126.25 326.34 435.04 524.37 888.04 316.42 742.81 400.48 451.12 534.81 605.78 974.41 853.72 520.89 425.54 1010.08 977.80 131.95 388.51 694.82 747.57 451.86 980.20 622.75 1041.67 793.07 444.82 352.73 894.19 1001.21 757.29 882.83 975.38 1104.91 882.03 395.87 976.74 389.64 429.88 533.91 600.01 409.30 898.18 402.67 608.29 859.75 409.70 424.06 1016.65 380.01 370.32 0.00 1046.97 542.94 337.30 730.34 468.42 675.17 658.85 902.36 876.12 932.23 751.84 416.91 322.85 567.96 609.56 622.56 417.14 778.13 494.54 509.59 464.10 520.15 592.41 770.27 436.91 994.68 349.03 538.59 752.23 593.76 520.32 926.81 442.65 857.25 578.42 542.62 467.77 911.24 611.86 632.53 949.89 233.55 410.18 347.78 748.55 975.09 951.55 592.16 915.80 628.86 848.05 833.36 585.91 1023.77 612.66 493.41 562.71 434.41 530.22 723.52 600.07 327.92 470.08 184.87 369.85 196.19 302.45 360.07 860.51
427.54 940.33 1132.65 1179.08 947.49 891.65 1254.40 992.67 885.88 800.78 1029.23 1206.42 769.69 649.85 770.52 713.58 142.51 1295.57 1055.67 710.32 178.04 258.47 1112.84 764.01 474.00 575.61 1044.73 589.96 1155.62 920.72 1071.15 671.22 919.88 562.27 1050.63 1117.40 164.14 269.91 1228.21 1118.30 778.92 268.84 805.43 718.09 522.83 773.66 717.38 214.38 757.93 634.14 1329.77 1018.01 1259.37 1099.89 1145.35 1299.12 1046.97 0.00 881.04 757.02 1221.51 1404.62 571.10 554.69 225.91 214.84 166.43 1449.99 723.24 976.97 1100.83 638.38 476.10 757.65 526.14 926.40 1124.18 815.75 1201.26 845.95 1380.51 870.65 136.59 697.94 1334.08 478.69 654.49 706.70 246.91 669.03 200.43 635.90 1054.64 1114.87 226.63 615.16 757.27 258.31 927.23 917.93 1159.80 428.15 1187.34 222.17 687.45 254.52 782.58 1495.21 278.96 470.83 264.58 1165.74 1216.16 773.92 1055.12 796.75 932.00 718.23 809.38 642.24 871.87 1347.59 1188.37 803.93 775.79 317.26
908.58 146.38 641.02 986.80 73.46 1326.95 696.55 784.76 859.04 1156.06 682.56 1108.95 601.74 346.16 145.23 236.71 789.34 1242.90 870.61 639.83 919.64 914.56 517.03 416.83 610.28 806.44 216.95 1127.59 988.89 1303.97 1038.42 449.81 787.87 1043.31 1268.92 1104.22 779.79 915.62 1350.26 1187.98 626.39 930.20 675.68 603.98 474.67 107.38 633.54 877.28 654.31 284.86 1225.89 759.42 879.04 1251.32 798.68 753.48 542.94 881.04 0.00 518.05 1096.48 910.21 384.66 753.18 880.67 855.22 714.61 1117.98 577.78 220.09 934.10 277.37 449.76 647.66 872.46 78.27 875.73 284.23 953.75 847.91 1140.56 782.78 905.28 350.76 921.75 842.27 261.26 230.64 903.00 573.92 797.19 299.90 892.34 266.74 839.69 265.88 215.16 906.83 665.93 793.49 618.26 753.84 1290.72 878.26 269.73 894.90 875.60 1230.06 773.12 497.24 863.47 978.80 912.08 825.28 796.53 754.46 957.39 231.00 554.93 571.75 432.46 860.37 627.12 377.59 611.71 746.86
617.04 438.51 477.77 605.25 538.21 904.26 580.80 432.19 343.92 664.46 435.18 718.16 83.69 300.68 430.09 470.07 668.05 810.42 456.70 148.23 744.49 682.53 396.48 151.08 405.29 427.36 615.32 684.15 634.68 809.66 572.25 178.77 372.45 598.14 801.69 606.22 622.43 712.16 884.09 747.21 143.88 684.54 202.03 109.67 338.19 519.79 136.00 588.47 156.31 380.27 769.11 457.53 679.94 795.83 551.30 579.68 337.30 757.02 518.05 0.00 713.80 670.67 516.98 345.42 636.77 610.53 669.58 870.60 79.61 512.22 579.89 384.51 454.14 165.15 464.70 536.49 595.29 315.19 640.78 370.42 793.41 310.17 729.09 217.15 732.46 454.46 400.62 382.85 661.22 190.44 586.14 393.44 464.01 645.91 640.13 361.29 503.40 664.63 288.54 315.00 574.23 471.24 772.67 646.23 433.58 650.21 378.06 873.71 552.10 286.19 751.27 616.01 607.74 327.11 494.64 256.92 516.62 464.36 91.89 188.82 152.43 686.57 487.54 197.73 113.71 539.36
941.49 950.10 827.60 121.17 1098.84 811.58 769.21 338.65 398.35 688.87 413.92 122.78 642.73 870.43 1025.45 1075.44 1148.95 173.88 257.10 625.12 1154.25 1048.48 840.85 850.87 888.68 725.51 1111.99 887.50 107.59 631.20 421.79 831.48 442.80 946.63 501.29 351.71 1057.37 1101.14 507.76 405.39 592.92 1117.05 588.42 684.26 937.38 1123.60 590.42 1069.73 623.07 985.64 145.56 363.99 382.12 452.03 365.59 667.75 730.34 1221.51 1096.48 713.80 0.00 674.74 1082.54 798.00 1073.91 1047.67 1122.55 322.72 658.10 982.98 162.38 989.88 1058.33 571.65 887.89 1045.14 253.46 886.35 292.71 415.61 159.00 442.12 1166.23 784.80 579.67 782.87 1005.99 956.09 1074.18 749.48 1093.66 994.46 302.39 1168.99 1115.73 966.66 1105.97 1057.82 572.01 449.81 872.63 910.53 439.23 1049.44 1038.95 1085.19 575.18 585.76 982.60 926.90 1136.72 150.39 341.65 488.59 351.18 525.90 370.56 1069.73 712.31 665.56 675.51 726.31 799.44 793.09 628.72 1005.39
1202.55 776.01 440.15 570.48 844.86 1243.52 225.84 538.55 656.38 1102.98 466.70 687.21 754.36 892.58 933.92 967.62 1304.95 821.16 568.93 783.21 1323.76 1223.53 489.50 724.42 930.62 1040.75 754.14 1227.78 567.15 1145.18 827.40 823.24 484.74 1204.66 1043.77 796.82 1249.37 1276.19 1139.24 897.42 694.24 1292.10 696.48 779.62 933.02 874.35 768.77 1225.29 706.48 935.65 820.30 513.21 309.53 1040.24 350.58 156.73 468.42 1404.62 910.21 670.67 674.74 0.00 1072.36 1016.09 1273.59 1247.35 1283.64 428.22 716.43 791.27 621.94 939.89 1064.02 715.51 1042.07 873.99 534.40 861.73 473.83 730.85 682.23 564.54 1346.51 790.49 171.27 1039.97 956.00 955.37 1249.08 777.13 1213.22 950.69 540.74 749.87 1177.99 916.67 982.13 1191.03 591.81 542.19 404.86 1052.09 913.51 1227.17 988.96 1260.09 858.84 390.73 1148.91 956.86 1328.34 596.24 399.38 768.34 476.10 808.13 814.59 973.33 714.75 830.92 583.98 98.57 488.40 701.56 730.04 1110.61
697.86 440.22 777.36 1005.63 388.50 1172.15 897.68 762.44 756.87 1023.02 799.00 1090.67 565.34 230.83 239.43 193.54 498.54 1200.95 825.44 600.18 642.16 634.63 653.37 393.39 444.97 632.20 576.68 880.32 978.06 1056.80 976.98 377.53 728.47 832.59 1186.71 1098.13 406.96 671.87 1288.82 1110.94 608.55 679.90 666.70 570.40 285.58 314.19 617.65 557.22 628.30 151.62 1159.64 787.78 969.85 1200.56 915.12 948.57 675.17 571.10 384.66 516.98 1082.54 1072.36 0.00 583.92 605.52 579.28 424.48 1219.76 570.20 513.33 938.71 178.91 114.81 627.35 640.30 438.00 971.20 342.69 971.03 806.73 1162.15 640.42 682.86 332.92 1116.84 535.28 195.02 247.23 583.64 458.59 443.25 162.86 824.41 574.48 478.34 155.69 214.44 633.38 679.07 707.51 831.98 526.95 1243.15 608.38 156.71 572.63 713.84 1355.36 546.41 282.76 658.24 976.41 993.48 782.58 824.89 735.24 880.35 195.44 482.42 553.91 564.00 1045.02 733.25 466.39 605.62 508.11
271.62 606.80 784.37 715.52 814.04 588.23 858.69 589.95 421.37 533.73 602.29 759.50 339.19 528.81 717.90 583.56 479.10 816.39 607.68 294.48 457.22 351.45 741.90 478.13 218.44 121.15 783.61 374.41 707.51 711.21 592.69 432.54 564.56 406.35 714.60 742.29 422.28 366.83 866.95 729.51 334.58 339.21 389.59 305.55 446.32 712.89 301.54 340.31 323.42 606.70 775.08 615.29 847.05 763.86 718.41 873.17 658.85 554.69 753.18 345.42 798.00 1016.09 583.92 0.00 382.29 362.37 469.43 1037.71 351.47 680.51 657.34 640.00 538.68 341.81 119.28 704.78 716.06 642.24 798.54 382.39 929.37 505.77 430.06 447.39 899.57 109.04 656.11 573.74 374.15 301.05 385.99 624.60 654.04 893.25 416.79 625.68 638.10 383.95 492.72 527.72 919.65 126.54 897.79 363.16 620.39 385.16 285.52 1129.21 285.79 394.32 405.94 727.17 765.44 309.41 652.40 406.66 498.92 589.27 411.76 226.40 497.85 930.25 807.41 543.15 298.78 247.49
276.05 920.53 1034.18 991.43 878.32 730.59 1082.00 865.86 697.28 661.31 899.59 1050.87 603.92 610.20 763.17 712.76 187.28 1106.97 902.45 566.89 128.61 97.41 922.75 619.40 344.15 449.16 1043.58 428.90 983.42 786.51 870.65 543.20 790.03 410.78 915.48 949.46 218.02 135.03 1094.00 936.68 635.49 126.39 662.00 561.18 463.38 773.29 573.95 48.30 637.94 631.20 1148.28 891.20 1040.64 964.74 1015.71 1169.31 902.36 225.91 880.67 636.77 1073.91 1273.59 605.52 382.29 0.00 26.24 262.01 1292.14 557.16 917.52 933.25 631.03 548.60 614.22 336.06 923.46 991.97 771.72 1074.45 658.30 1232.91 778.18 92.32 553.33 1214.09 363.02 647.14 676.90 46.80 579.66 200.63 580.77 873.46 1111.93 146.64 614.79 666.30 97.25 793.68 795.67 1183.65 255.75 1160.11 61.11 680.10 35.79 595.19 1306.61 193.53 500.58 143.76 976.71 1033.68 585.32 928.31 658.89 706.09 707.05 684.17 498.81 784.02 1231.16 1032.84 705.46 632.36 210.24
270.32 894.29 1007.94 965.19 882.21 744.91 1062.08 839.62 671.04 665.20 873.35 1024.63 577.68 583.96 737.78 686.52 213.52 1080.73 876.21 540.65 133.96 101.68 948.99 593.16 317.91 445.17 1020.29 443.22 957.18 800.83 857.26 547.09 763.79 394.73 906.96 970.66 191.78 128.24 1108.32 925.98 609.25 100.62 635.76 534.94 437.14 747.84 547.71 22.06 645.66 655.57 1122.04 864.96 1044.53 956.22 989.47 1143.07 876.12 214.84 855.22 610.53 1047.67 1247.35 579.28 362.37 26.24 0.00 236.86 1289.81 530.92 891.28 907.01 627.57 522.36 587.98 311.64 911.03 965.73 757.27 1048.21 632.06 1206.67 751.94 118.56 527.09 1187.91 348.25 643.68 650.66 50.69 553.42 174.39 607.01 847.22 1099.50 120.40 641.03 640.06 73.77 767.44 769.43 1157.41 235.83 1147.46 75.43 676.64 39.68 590.26 1280.37 167.29 474.34 147.65 976.84 1007.44 559.08 902.07 662.78 731.23 680.81 657.93 472.57 757.78 1204.92 1053.58 679.22 606.12 205.59
436.23 773.90 1015.66 1107.03 781.06 915.33 1156.19 922.28 812.88 729.42 907.08 1118.03 661.85 553.91 604.09 547.15 74.73 1251.98 1008.13 645.84 257.77 306.81 946.41 649.27 353.02 524.12 898.65 613.64 1099.02 1005.06 937.36 563.94 798.90 527.63 1071.82 1093.01 65.18 342.11 1231.54 1098.40 657.24 314.49 701.54 601.10 435.39 607.23 652.90 258.92 628.21 467.71 1244.51 947.62 1151.84 1121.08 1023.20 1177.96 932.23 166.43 714.61 669.58 1122.55 1283.64 424.48 469.43 262.01 236.86 0.00 1342.50 664.29 847.61 1048.85 471.95 309.67 678.51 526.81 759.97 1025.22 654.42 1108.67 773.90 1281.55 833.78 287.28 583.20 1204.36 427.20 488.06 540.27 255.82 570.07 83.44 469.47 1017.77 948.44 125.08 448.73 590.84 310.63 797.51 832.51 1125.79 342.89 1289.30 280.56 521.02 266.83 739.01 1438.29 227.47 383.39 352.78 1118.68 1099.17 700.92 955.66 719.72 890.43 551.80 710.42 577.76 784.43 1248.63 1039.86 686.94 621.44 240.23
1203.66 971.60 757.63 344.65 1137.02 1068.89 552.98 457.32 621.23 974.57 435.42 445.50 797.30 1029.14 1025.94 1171.03 1365.19 496.60 510.33 772.90 1348.77 1248.54 642.99 879.64 990.86 987.68 1001.41 1052.54 393.29 953.92 690.88 965.39 544.98 1138.55 824.01 574.59 1309.61 1301.20 830.48 728.11 750.70 1317.11 756.72 836.62 1111.83 1125.00 783.57 1286.71 714.29 1118.60 468.28 482.66 384.20 774.75 425.70 425.22 751.84 1449.99 1117.98 870.60 322.72 428.22 1219.76 1037.71 1292.14 1289.81 1342.50 0.00 840.94 1011.80 385.26 1085.30 1219.24 760.82 1102.31 1069.58 418.50 990.21 392.86 677.78 377.52 579.34 1346.67 945.71 256.95 1045.04 1101.41 1047.39 1274.09 904.05 1273.46 1114.62 467.43 1076.50 1238.23 1108.52 1123.66 1216.04 699.97 602.43 620.40 1095.91 745.63 1252.18 1134.20 1285.10 798.66 263.04 1204.26 1059.83 1353.35 315.43 349.44 733.19 487.73 736.11 586.05 1172.49 884.94 840.98 852.47 403.59 753.08 793.58 756.89 1170.85
596.86 431.40 528.17 536.93 583.57 835.94 602.49 390.90 306.99 587.26 405.52 649.84 46.76 352.21 472.49 525.37 661.21 740.61 431.22 71.03 664.88 602.92 476.09 230.69 334.31 380.88 565.22 637.67 590.88 763.18 492.64 207.89 295.96 551.66 750.34 579.68 617.14 655.58 804.48 667.60 92.53 631.54 150.68 63.19 363.71 560.56 67.68 508.86 128.94 459.88 699.30 388.77 612.26 716.22 521.64 636.20 416.91 723.24 577.78 79.61 658.10 716.43 570.20 351.47 557.16 530.92 664.29 840.94 0.00 436.21 536.09 439.47 455.39 113.80 470.75 529.38 549.10 394.80 585.18 302.10 725.25 271.91 649.48 250.12 705.09 445.21 455.58 390.33 581.61 135.63 580.85 422.56 418.23 653.17 581.68 440.90 558.36 585.02 236.52 238.51 653.84 394.04 805.00 566.62 488.54 570.60 309.74 836.78 488.35 316.10 678.57 539.85 561.26 247.50 423.92 188.60 437.01 527.27 171.50 125.07 232.04 688.20 567.15 240.13 87.17 459.75
934.47 73.71 463.32 914.13 280.95 1268.74 623.88 728.51 743.20 1023.47 609.89 994.53 482.97 455.58 287.75 324.20 922.34 1128.48 768.98 507.24 938.47 967.78 368.81 377.75 727.10 801.66 129.01 975.11 875.39 1199.39 928.85 451.87 675.58 987.87 1165.65 1015.89 842.38 1017.04 1240.69 1103.81 528.74 991.90 578.61 499.40 454.14 277.16 503.89 913.34 505.28 414.42 1126.83 703.17 746.91 1152.43 702.86 693.17 322.85 976.97 220.09 512.22 982.98 791.27 513.33 680.51 917.52 891.28 847.61 1011.80 436.21 0.00 861.43 405.69 580.19 550.01 799.79 171.69 803.06 223.35 843.00 738.31 1084.31 708.12 979.92 390.69 861.44 771.89 403.78 337.50 941.97 554.83 806.09 404.26 826.13 216.96 860.08 398.88 327.94 965.05 556.40 666.04 545.59 773.87 1227.73 966.71 356.62 930.96 745.95 1130.76 864.57 506.14 1005.99 906.13 816.26 683.71 673.42 624.81 873.22 318.49 481.01 561.28 359.79 692.70 478.90 363.83 523.38 826.27
849.78 787.72 708.43 99.05 992.02 683.63 668.68 176.27 235.97 636.07 251.54 174.85 496.20 708.05 867.42 967.05 1075.25 308.80 155.25 465.06 993.43 907.92 699.91 730.97 726.30 633.80 964.53 806.94 54.79 622.60 305.62 699.51 280.42 784.25 569.42 189.33 983.67 960.58 551.84 414.22 484.37 976.49 430.32 528.78 840.67 966.48 491.21 929.07 470.34 874.93 307.94 201.61 356.54 529.20 272.11 574.27 567.96 1100.83 934.10 579.89 162.38 621.94 938.71 657.34 933.25 907.01 1048.85 385.26 536.09 861.43 0.00 890.88 941.83 478.10 776.62 882.76 172.90 723.97 255.67 330.49 307.98 298.29 1025.57 717.53 514.55 697.75 874.77 826.32 911.80 602.95 1005.99 873.31 171.89 1035.73 973.67 893.91 965.14 914.96 435.41 328.66 815.86 783.88 407.13 887.06 939.95 922.81 438.43 648.30 821.87 805.75 1008.76 69.83 303.30 347.93 238.72 455.06 229.89 961.34 609.00 533.14 616.70 681.16 761.53 717.42 510.63 860.17
663.43 332.58 644.89 967.93 328.04 1185.86 779.36 747.30 718.22 1011.36 761.92 978.07 468.20 182.83 132.14 85.90 546.68 1097.01 787.62 510.50 695.17 696.67 520.90 275.07 476.80 703.16 464.24 884.17 945.67 1070.70 858.66 264.93 652.36 798.16 1097.60 985.53 517.15 708.11 1170.50 1062.94 528.39 680.49 578.55 457.80 228.54 181.72 505.99 649.63 535.62 33.30 1055.70 745.17 837.38 1082.24 830.51 852.25 609.56 638.38 277.37 384.51 989.88 939.89 178.91 640.00 631.03 627.57 471.95 1085.30 439.47 405.69 890.88 0.00 249.44 549.66 631.02 325.56 905.50 224.37 941.58 723.09 1124.33 679.10 653.72 260.53 1020.52 652.23 16.11 114.76 668.39 402.89 545.63 50.26 824.76 514.03 588.53 23.22 118.89 664.17 591.57 594.91 700.28 560.52 1157.18 692.14 49.07 657.38 679.64 1258.22 550.26 245.68 747.22 960.71 927.23 650.11 767.62 626.91 832.35 87.80 434.42 476.56 425.00 959.14 620.65 361.13 493.02 511.96
636.74 506.48 754.38 961.47 471.39 1110.11 948.90 797.43 739.62 933.63 792.36 1073.01 488.72 345.64 304.53 308.35 384.40 1137.03 837.75 485.37 567.44 599.52 723.90 339.60 330.16 571.08 658.45 808.42 996.62 1076.33 906.20 368.34 702.49 771.47 1148.61 1021.64 374.85 595.58 1180.46 1044.87 547.92 610.16 578.44 518.58 219.95 364.40 523.07 534.51 513.49 245.20 1105.83 795.30 932.05 1129.78 895.04 925.85 622.56 476.10 449.76 454.14 1058.33 1064.02 114.81 538.68 548.60 522.36 309.67 1219.24 455.39 580.19 941.83 249.44 0.00 530.66 553.29 528.03 955.63 392.68 991.71 740.36 1174.46 715.20 568.05 273.53 1089.64 474.16 265.55 317.76 565.49 381.97 347.97 260.24 873.62 689.29 401.96 226.22 305.93 567.02 682.79 645.04 897.08 412.14 1226.81 590.23 271.52 562.04 599.03 1278.74 431.60 167.95 543.43 932.25 1001.00 689.53 830.45 620.43 879.04 310.25 526.44 486.30 543.24 992.41 810.10 425.66 529.13 393.30
590.97 524.71 518.63 450.48 658.86 784.39 592.95 351.75 242.13 546.18 336.55 616.86 81.46 396.52 547.78 615.11 683.40 713.85 415.53 81.44 689.71 646.63 516.90 316.23 340.15 387.52 679.02 598.08 527.17 738.34 475.75 284.77 251.25 601.08 636.54 549.58 640.98 677.39 787.59 634.68 21.27 681.02 47.78 112.61 365.73 561.40 59.47 610.04 57.68 533.56 672.54 347.66 558.28 685.80 429.64 607.43 417.14 757.65 647.66 165.15 571.65 715.51 627.35 341.81 614.22 587.98 678.51 760.82 113.80 550.01 478.10 549.66 530.66 0.00 424.54 622.69 529.72 480.34 560.34 250.55 728.80 249.95 706.54 296.90 633.83 450.85 544.50 468.19 638.67 188.21 622.75 499.44 433.94 695.21 587.52 526.44 599.89 622.32 226.98 222.82 725.94 404.45 774.90 634.51 596.95 627.66 301.53 871.48 478.69 362.71 715.43 479.70 473.47 220.85 384.77 180.39 404.09 609.40 205.34 115.41 315.38 616.94 574.35 315.42 57.07 516.99
166.43 726.08 877.97 805.41 925.52 556.82 952.29 702.47 540.65 570.45 666.89 878.78 458.47 564.36 763.16 652.04 523.34 935.67 716.43 413.76 383.70 277.93 842.59 538.39 327.48 201.94 902.89 255.13 797.40 660.12 696.07 518.38 557.33 301.16 595.32 803.39 467.04 276.00 801.07 656.59 403.27 303.62 461.42 424.83 437.34 775.20 420.82 311.76 439.68 597.72 894.36 727.81 904.85 644.58 783.01 980.13 778.13 526.14 872.46 464.70 887.89 1042.07 640.30 119.28 336.06 311.64 526.81 1102.31 470.75 799.79 776.62 631.02 553.29 424.54 0.00 824.06 835.34 702.50 740.55 472.28 1038.38 580.45 409.32 566.67 1015.83 105.02 647.13 682.63 328.92 414.60 443.37 615.62 764.44 1012.53 432.04 616.70 702.77 272.17 586.32 614.78 1038.93 183.92 885.10 308.31 615.21 339.93 404.80 1189.74 304.75 385.34 328.15 830.64 830.54 428.69 714.09 424.31 560.02 653.94 531.04 345.68 617.13 998.94 926.69 624.45 418.06 304.87
939.45 97.98 573.67 938.40 109.26 1293.01 648.15 706.49 836.37 1092.26 634.16 1039.37 576.14 424.43 223.50 305.25 834.70 1173.32 792.34 600.41 954.13 962.34 498.51 402.02 688.55 825.93 138.68 1079.19 937.55 1272.88 1022.02 476.14 743.72 1043.12 1220.52 1058.13 825.15 993.89 1333.86 1153.48 601.42 1006.05 659.57 578.45 473.89 185.65 597.06 925.77 608.22 292.26 1177.49 681.15 875.93 1245.60 750.28 811.31 494.54 926.40 78.27 536.49 1045.14 873.99 438.00 704.78 923.46 911.03 759.97 1069.58 529.38 171.69 882.76 325.56 528.03 622.69 824.06 0.00 827.33 247.62 905.35 831.48 1062.29 758.75 912.68 429.03 979.58 776.87 339.53 308.91 927.35 527.83 804.59 342.69 814.07 188.47 858.58 311.24 293.43 952.19 607.80 754.43 569.86 798.14 1283.45 952.09 281.29 916.34 839.12 1181.66 809.22 504.64 941.74 930.40 863.68 776.88 718.26 717.98 966.39 309.27 506.53 650.02 384.06 794.25 552.79 388.10 565.62 770.92
912.28 729.35 650.06 132.29 936.59 856.53 600.68 208.76 298.47 762.21 193.17 300.99 517.43 762.90 899.91 979.84 1051.62 385.02 156.45 524.47 1099.69 1009.96 641.54 746.37 748.61 696.30 906.16 840.18 180.93 766.40 478.52 720.74 302.73 846.75 716.48 362.23 960.04 1062.62 724.74 570.28 508.45 1048.96 485.63 588.19 839.68 973.60 520.73 987.79 472.04 905.67 350.16 198.12 224.87 702.10 248.42 470.62 509.59 1124.18 875.73 595.29 253.46 534.40 971.20 716.06 991.97 965.73 1025.22 418.50 549.10 803.06 172.90 905.50 955.63 529.72 835.34 827.33 0.00 756.46 124.18 396.88 293.81 330.78 1084.29 739.84 395.59 764.14 921.61 854.06 1016.42 624.18 996.33 855.24 213.60 977.36 995.98 889.26 983.58 977.46 453.00 310.59 715.38 842.60 533.27 1013.60 954.57 1005.41 497.15 573.37 949.56 787.68 1090.69 103.07 135.02 406.65 232.17 481.49 373.69 974.13 642.69 592.55 649.19 577.51 630.91 719.02 481.58 928.60
813.35 149.64 496.22 806.13 339.35 1195.35 635.89 547.70 627.58 961.89 666.32 898.82 398.88 232.23 143.45 295.71 729.15 1011.36 633.55 445.66 830.21 797.93 372.23 164.11 503.75 739.08 326.45 957.63 778.76 1121.38 867.29 228.52 566.71 898.69 1061.19 913.30 681.16 835.17 1179.13 994.69 459.07 857.89 467.59 421.39 379.05 242.51 451.19 764.29 471.50 191.07 970.05 573.04 817.36 1090.87 719.55 706.48 464.10 815.75 284.23 315.19 886.35 861.73 342.69 642.24 771.72 757.27 654.42 990.21 394.80 223.35 723.97 224.37 392.68 480.34 702.50 247.62 756.46 0.00 756.29 667.05 954.18 511.13 811.49 230.18 874.75 650.77 240.48 114.15 746.94 341.19 644.87 237.04 674.52 436.09 698.86 205.69 241.17 795.18 512.70 509.26 621.52 550.52 1087.86 771.68 273.44 735.93 693.25 1134.18 706.84 344.92 843.90 793.80 727.51 640.66 610.15 572.11 823.90 290.00 404.97 440.15 279.23 813.37 482.32 196.63 428.90 668.54
906.98 807.37 562.45 171.54 1014.61 939.30 476.50 208.59 381.94 803.34 271.19 342.12 557.09 798.71 899.74 1027.48 1129.98 444.69 208.93 576.95 1124.25 1018.48 616.82 751.85 755.65 762.98 901.55 922.95 222.06 812.33 536.26 739.79 309.77 930.22 757.61 445.00 1074.40 1016.55 800.47 622.76 539.07 1044.17 515.68 570.29 872.99 927.96 534.84 1051.50 502.66 941.75 403.38 233.93 164.30 744.74 196.41 443.76 520.15 1201.26 953.75 640.78 292.71 473.83 971.03 798.54 1074.45 1048.21 1108.67 392.86 585.18 843.00 255.67 941.58 991.71 560.34 740.55 905.35 124.18 756.29 0.00 453.08 374.04 330.61 1149.87 746.88 350.56 806.04 957.69 870.44 1055.11 663.84 1038.25 891.32 266.08 987.92 1003.02 925.34 997.46 1012.72 464.76 346.67 654.81 899.21 574.40 1048.86 990.65 1044.10 579.63 449.19 973.26 823.76 1068.70 185.84 89.99 489.13 270.86 487.38 419.62 1028.41 661.41 609.98 649.02 543.09 506.73 766.60 542.95 935.64
525.88 733.50 701.00 333.13 833.81 533.84 742.03 274.01 126.15 525.53 324.89 445.18 286.73 604.84 722.73 808.65 800.30 579.13 244.15 254.99 738.64 632.87 683.39 506.25 512.31 309.90 867.32 618.76 325.12 590.47 225.20 475.48 254.36 532.75 498.04 388.25 708.72 685.53 537.04 458.08 260.92 701.44 202.77 302.97 616.28 773.91 234.42 654.12 276.10 718.85 561.17 299.35 498.50 448.78 412.70 636.81 592.41 845.95 847.91 370.42 415.61 730.85 806.73 382.39 658.30 632.06 773.90 677.78 302.10 738.31 330.49 723.09 740.36 250.55 472.28 831.48 396.88 667.05 453.08 0.00 574.61 166.31 750.62 530.55 633.98 367.26 739.20 683.31 682.75 393.48 745.01 690.15 301.30 920.42 752.36 699.87 820.45 665.37 409.35 250.50 889.21 494.92 631.66 669.17 771.90 671.74 163.48 846.29 566.99 602.06 721.11 362.35 408.65 72.98 295.98 236.01 233.05 802.94 353.25 309.56 496.30 743.70 748.90 490.37 269.58 605.29
1093.72 1010.60 859.30 280.17 1171.55 882.40 815.45 406.48 543.95 756.98 474.42 216.65 748.21 945.92 1097.63 1204.92 1307.95 195.60 336.71 704.73 1301.41 1207.48 871.28 944.49 997.55 877.74 1121.73 1010.64 253.19 761.39 567.39 933.14 571.63 1092.23 632.24 445.23 1216.37 1259.60 631.73 564.39 722.69 1231.98 703.79 768.45 1058.51 1193.92 700.99 1228.73 700.55 1112.80 154.29 381.14 384.48 611.03 453.06 649.62 770.27 1380.51 1140.56 793.41 159.00 682.23 1162.15 929.37 1232.91 1206.67 1281.55 377.52 725.25 1084.31 307.98 1124.33 1174.46 728.80 1038.38 1062.29 293.81 954.18 374.04 574.61 0.00 521.73 1304.77 943.80 510.96 941.87 1112.64 1023.69 1219.78 854.96 1252.66 1074.07 393.86 1238.04 1209.60 1108.09 1195.35 1180.96 639.08 529.42 874.99 1027.74 397.53 1195.04 1173.40 1230.79 687.83 640.56 1129.85 1006.51 1281.37 273.53 339.66 647.59 418.25 661.75 529.25 1199.21 828.22 772.81 833.06 703.49 880.77 916.32 734.07 1105.81
638.01 660.77 534.69 365.21 803.62 700.15 575.72 122.02 116.45 593.67 158.58 454.79 226.48 560.99 654.58 765.00 878.44 586.29 185.02 253.86 846.81 741.04 517.08 461.25 504.11 476.21 814.48 687.85 337.64 708.31 356.16 429.79 88.05 664.73 605.91 487.62 804.94 793.70 668.00 540.67 248.14 809.61 259.23 303.83 599.25 716.67 204.23 774.00 218.48 679.27 544.98 147.36 403.34 579.74 274.70 510.85 436.91 870.65 782.78 310.17 442.12 564.54 640.42 505.77 778.18 751.94 833.78 579.34 271.91 708.12 298.29 679.10 715.20 249.95 580.45 758.75 330.78 511.13 330.61 166.31 521.73 0.00 870.50 500.36 522.47 475.43 695.21 625.28 792.03 333.23 786.71 628.84 183.99 890.23 751.48 662.86 752.30 773.54 243.04 84.19 722.90 576.87 654.13 777.34 728.17 791.62 305.21 779.80 642.65 547.25 833.24 335.99 353.06 214.71 184.47 243.59 315.60 765.93 369.07 279.37 454.56 617.74 590.41 460.18 212.34 680.95
319.24 961.13 1126.50 1060.46 955.10 757.31 1129.77 958.18 789.60 721.67 991.91 1143.19 691.07 618.53 785.86 733.96 224.49 1199.29 994.55 626.53 41.45 146.11 1015.07 711.72 436.47 508.64 1051.36 515.61 1075.74 841.61 962.97 635.52 882.35 453.97 971.52 1041.78 276.65 133.32 1121.74 1029.00 713.16 132.25 740.33 653.50 555.70 797.90 666.27 140.62 724.65 620.42 1205.14 983.09 1132.96 1020.78 1097.71 1261.63 994.68 136.59 905.28 729.09 1166.23 1346.51 682.86 430.06 92.32 118.56 287.28 1346.67 649.48 979.92 1025.57 653.72 568.05 706.54 409.32 912.68 1084.29 811.49 1149.87 750.62 1304.77 870.50 0.00 645.65 1300.80 411.72 669.83 730.94 124.72 671.98 292.95 670.85 965.78 1101.15 238.96 639.40 749.76 155.48 886.00 867.55 1275.97 303.52 1229.92 147.82 702.79 128.11 687.51 1398.93 252.47 587.28 185.47 1031.24 1126.00 677.64 1020.20 736.81 798.41 728.25 776.49 591.13 858.33 1308.83 1125.16 797.78 692.00 263.66
683.88 370.11 480.85 747.38 424.22 976.19 675.37 606.11 524.03 805.30 546.67 871.22 296.88 102.09 303.02 336.52 625.38 938.10 657.09 289.07 661.05 628.77 480.98 66.07 374.28 568.54 519.70 821.80 772.32 953.21 687.66 99.05 437.11 741.69 931.72 775.86 533.80 626.35 999.50 911.76 275.63 627.71 333.78 253.22 248.91 338.80 296.13 549.15 312.04 259.26 926.47 617.18 658.52 911.24 621.51 686.04 349.03 697.94 350.76 217.15 784.80 790.49 332.92 447.39 553.33 527.09 583.20 945.71 250.12 390.69 717.53 260.53 273.53 296.90 566.67 429.03 739.84 230.18 746.88 530.55 943.80 500.36 645.65 0.00 854.31 521.30 268.81 171.29 577.78 243.15 508.22 229.39 668.35 607.65 562.21 262.83 321.17 600.86 425.69 488.63 688.16 517.84 989.82 602.52 309.60 566.77 538.19 1071.09 565.59 281.11 674.74 776.60 734.91 491.66 593.87 417.05 681.17 342.23 252.91 220.99 269.71 718.88 536.57 152.13 311.43 527.29
1157.26 881.60 500.68 473.94 902.54 1105.42 357.32 400.45 573.80 1056.26 447.88 542.91 659.16 939.89 945.46 979.16 1250.99 661.12 433.56 684.22 1259.35 1189.28 555.50 788.24 940.64 943.88 848.10 1145.20 522.58 1007.08 778.19 845.84 494.76 1122.08 905.67 703.88 1206.92 1241.22 1066.39 834.19 612.56 1225.95 649.48 652.97 944.56 1029.13 688.59 1209.97 576.15 1028.21 665.25 375.11 350.42 954.93 331.76 168.27 538.59 1334.08 921.75 732.46 579.67 171.27 1116.84 899.57 1214.09 1187.91 1204.36 256.95 705.09 861.44 514.55 1020.52 1089.64 633.83 1015.83 979.58 395.59 874.75 350.56 633.98 510.96 522.47 1300.80 854.31 0.00 997.90 1004.41 917.69 1177.72 765.91 1170.63 1008.59 477.51 916.04 1188.01 1009.23 1033.70 1189.12 529.25 487.19 498.82 1007.23 798.89 1152.98 1002.81 1188.73 771.49 343.69 1095.40 921.69 1274.68 444.72 260.57 680.99 338.00 679.24 715.34 984.87 725.90 732.12 595.52 192.53 499.94 713.10 618.75 1120.63
162.58 715.84 823.96 700.39 862.45 646.73 953.91 597.45 493.41 487.74 634.01 812.44 416.33 496.11 697.04 642.52 453.60 893.55 611.41 403.52 371.38 265.61 737.57 486.66 271.22 96.92 892.65 345.04 692.38 602.17 592.46 472.38 563.48 297.31 700.34 755.51 362.02 318.27 904.30 671.20 443.62 334.18 474.23 384.50 423.69 768.04 410.58 341.43 432.46 652.40 852.24 622.79 865.76 749.60 750.13 982.21 752.23 478.69 842.27 454.46 782.87 1039.97 535.28 109.04 363.02 348.25 427.20 1045.04 445.21 771.89 697.75 652.23 474.16 450.85 105.02 776.87 764.14 650.77 806.04 367.26 941.87 475.43 411.72 521.30 997.90 0.00 662.83 614.38 316.60 309.58 387.11 601.97 659.42 965.34 385.10 635.99 693.25 298.11 601.76 559.62 1028.69 127.66 967.99 301.91 605.69 327.61 394.56 1206.35 199.73 444.80 357.81 729.61 775.91 418.45 659.90 399.43 547.89 644.42 486.61 335.44 606.89 988.14 847.66 558.08 407.82 238.03
647.32 331.35 661.00 963.23 311.93 1169.75 795.47 756.84 734.33 1027.47 778.03 994.18 484.31 166.72 116.03 92.28 562.79 1113.12 803.73 526.61 711.28 694.46 537.01 291.18 492.91 719.27 478.21 868.06 929.56 1086.81 874.77 281.04 668.47 782.05 1113.71 1001.64 533.26 724.22 1186.61 1046.83 544.44 696.60 592.28 473.91 244.65 197.83 522.10 635.06 551.73 49.41 1071.81 731.50 853.49 1098.35 846.62 836.14 593.76 654.49 261.26 400.62 1005.99 956.00 195.02 656.11 647.14 643.68 488.06 1101.41 455.58 403.78 874.77 16.11 265.55 544.50 647.13 339.53 921.61 240.48 957.69 739.20 1112.64 695.21 669.83 268.81 1004.41 662.83 0.00 130.87 684.50 386.78 561.74 66.37 840.87 509.11 604.64 39.33 102.78 680.28 607.68 611.02 708.58 576.63 1173.29 692.82 65.18 673.49 663.53 1274.33 566.37 261.79 763.33 944.60 937.20 666.22 768.61 643.02 816.24 86.57 418.31 461.10 408.89 943.03 636.76 348.39 509.13 528.07
776.96 263.79 554.70 918.67 258.21 1147.48 750.04 661.85 695.32 953.96 660.89 1001.17 437.09 118.27 146.30 200.32 615.00 1088.39 747.70 444.06 772.39 752.34 486.38 231.77 445.93 694.89 440.60 937.76 881.11 1080.33 858.95 270.34 608.40 868.81 1103.01 947.15 605.45 778.90 1170.79 998.38 446.92 751.28 505.07 380.34 265.09 170.23 458.01 672.72 483.33 110.52 1047.08 683.05 722.62 1082.53 777.01 798.64 520.32 706.70 230.64 382.85 956.09 955.37 247.23 573.74 676.90 650.66 540.27 1047.39 390.33 337.50 826.32 114.76 317.76 468.19 682.63 308.91 854.06 114.15 870.44 683.31 1023.69 625.28 730.94 171.29 917.69 614.38 130.87 0.00 701.35 346.03 597.24 125.56 787.63 497.38 651.23 91.54 182.38 724.43 517.27 623.41 735.67 547.81 1155.52 726.09 163.83 690.34 700.07 1197.19 627.48 297.29 798.31 896.15 812.47 637.83 720.16 578.93 767.79 194.61 369.86 392.28 371.39 890.17 596.47 253.81 477.50 589.18
264.84 896.58 1018.95 994.70 853.54 694.22 1073.86 846.52 721.73 633.16 880.44 1044.39 617.12 634.65 757.77 737.21 223.60 1131.42 926.90 570.62 83.27 50.99 969.55 643.85 368.60 413.52 1066.03 392.53 966.59 750.14 877.58 518.42 814.48 399.57 868.68 919.97 190.64 103.65 1057.63 954.76 637.98 114.63 674.90 585.63 487.83 798.53 598.40 72.75 601.57 635.09 1149.23 863.18 1015.86 917.94 996.56 1151.32 926.81 246.91 903.00 661.22 1074.18 1249.08 583.64 374.15 46.80 50.69 255.82 1274.09 581.61 941.97 911.80 668.39 565.49 638.67 328.92 927.35 1016.42 746.94 1055.11 682.75 1219.78 792.03 124.72 577.78 1177.72 316.60 684.50 701.35 0.00 604.11 225.08 627.57 897.91 1115.82 171.09 654.07 690.75 58.05 770.87 799.54 1200.17 247.61 1123.74 24.74 717.46 11.01 570.41 1331.06 189.05 525.03 96.96 965.48 1058.13 609.77 900.29 612.09 752.89 731.50 708.62 523.26 778.37 1233.65 1074.67 690.23 636.09 215.74
472.16 481.12 577.22 628.31 564.21 889.28 672.25 455.25 366.98 687.52 468.63 741.22 106.75 227.76 428.69 479.06 596.47 833.76 518.25 171.29 680.96 575.19 574.60 177.08 359.32 406.50 657.93 654.62 657.74 850.59 618.68 177.21 391.80 606.89 824.75 639.67 504.89 627.85 930.52 796.72 166.94 640.26 225.09 150.60 266.02 516.26 159.06 575.48 189.76 394.64 795.14 480.59 708.10 842.26 584.75 739.51 442.65 669.03 573.92 190.44 749.48 777.13 458.59 301.05 579.66 553.42 570.07 904.05 135.63 554.83 602.95 402.89 381.97 188.21 414.60 527.83 624.18 341.19 663.84 393.48 854.96 333.23 671.98 243.15 765.91 309.58 386.78 346.03 604.11 0.00 513.97 391.88 503.93 716.30 567.96 413.62 489.56 607.69 306.28 334.35 764.67 427.59 864.99 611.49 451.96 593.10 401.12 896.77 497.86 214.02 667.39 655.93 648.67 383.13 517.70 279.98 566.13 473.35 235.14 134.58 342.87 678.56 630.79 248.50 147.16 536.16
365.14 786.20 932.22 1051.73 819.36 831.89 1085.10 908.73 783.99 658.33 838.04 1046.94 595.01 478.97 652.50 601.33 127.87 1180.89 943.44 575.42 271.49 266.22 952.36 574.29 282.60 484.03 873.85 530.20 1060.78 972.73 970.21 480.50 728.48 444.19 988.38 1022.59 36.29 302.63 1194.13 1058.31 615.40 275.01 670.53 517.66 351.95 689.81 582.48 196.45 645.49 512.33 1161.07 918.97 1082.80 1037.64 954.16 1128.24 857.25 200.43 797.19 586.14 1093.66 1213.22 443.25 385.99 200.63 174.39 83.44 1273.46 580.85 806.09 1005.99 545.63 347.97 622.75 443.37 804.59 996.33 644.87 1038.25 745.01 1252.66 786.71 292.95 508.22 1170.63 387.11 561.74 597.24 225.08 513.97 0.00 530.23 970.70 993.06 53.99 531.31 641.67 248.16 807.14 777.04 1106.28 259.45 1260.41 247.33 594.70 214.07 671.51 1385.03 198.58 299.95 322.04 1075.82 1015.73 672.03 885.24 703.40 861.54 595.62 659.26 507.34 700.99 1192.53 987.94 603.50 635.42 234.64
713.69 359.19 626.11 917.67 372.08 1172.44 795.36 697.04 678.21 974.36 711.66 927.81 417.98 190.86 182.40 136.16 544.20 1046.75 737.36 471.26 705.21 678.18 531.70 292.20 484.06 698.89 481.37 870.75 928.10 1081.50 875.79 214.67 602.10 824.74 1047.34 935.27 534.65 715.80 1187.63 1070.97 478.17 707.16 536.32 407.54 178.28 192.52 455.73 629.07 485.36 50.43 1005.44 694.91 848.18 1096.60 827.78 840.32 578.42 635.90 299.90 393.44 994.46 950.69 162.86 624.60 580.77 607.01 469.47 1114.62 422.56 404.26 873.31 50.26 260.24 499.44 615.62 342.69 855.24 237.04 891.32 690.15 1074.07 628.84 670.85 229.39 1008.59 601.97 66.37 125.56 627.57 391.88 530.23 0.00 774.50 531.16 584.22 34.02 169.15 674.97 541.31 544.65 690.99 566.81 1160.59 641.88 99.33 616.56 697.79 1208.00 567.39 230.28 724.53 926.50 900.61 660.91 730.06 576.65 840.38 137.09 398.11 426.30 413.07 939.34 570.39 321.04 442.76 529.09
822.00 762.38 636.98 181.22 923.33 816.02 643.34 126.82 232.67 715.13 226.20 290.39 397.18 697.70 817.97 910.66 1058.06 424.34 57.15 425.17 981.18 925.03 662.16 615.09 688.10 611.20 926.57 804.07 226.68 635.64 398.52 600.49 262.01 780.95 534.11 333.31 980.37 975.46 655.99 356.68 426.67 947.84 404.89 474.53 701.79 900.66 388.22 869.28 390.26 824.93 399.09 132.92 362.03 499.50 271.54 493.54 542.62 1054.64 892.34 464.01 302.39 540.74 824.41 654.04 873.46 847.22 1017.77 467.43 418.23 826.13 171.89 824.76 873.62 433.94 764.44 814.07 213.60 674.52 266.08 301.30 393.86 183.99 965.78 668.35 477.51 659.42 840.87 787.63 897.91 503.93 970.70 774.50 0.00 1002.54 935.47 808.52 869.27 911.66 355.13 229.85 790.52 748.18 470.14 922.65 873.83 886.90 384.20 715.27 826.64 706.94 977.74 152.00 272.18 344.63 152.71 382.19 274.15 911.59 540.63 463.36 567.25 600.43 663.43 636.76 396.33 848.62
1127.92 286.45 608.24 1047.82 297.73 1454.26 654.79 894.96 922.34 1230.49 784.19 1210.58 699.93 578.44 393.08 484.18 1023.17 1314.06 980.81 724.20 1142.60 1150.81 525.14 590.49 877.02 1014.40 190.76 1192.07 1090.52 1369.47 1145.62 664.61 820.50 1204.83 1329.94 1202.25 981.44 1163.47 1457.46 1318.30 673.94 1178.05 732.09 716.36 662.36 374.12 686.00 1114.24 710.35 480.73 1311.19 869.62 891.83 1369.20 847.78 747.77 467.77 1114.87 266.74 645.91 1168.99 749.87 574.48 893.25 1111.93 1099.50 948.44 1076.50 653.17 216.96 1035.73 514.03 689.29 695.21 1012.53 188.47 977.36 436.09 987.92 920.42 1238.04 890.23 1101.15 607.65 916.04 965.34 509.11 497.38 1115.82 716.30 993.06 531.16 1002.54 0.00 1047.05 499.71 481.90 1140.66 701.32 863.85 456.10 986.61 1418.58 1126.11 469.76 1104.81 928.06 1140.60 997.69 693.11 1111.32 1070.36 961.18 898.20 890.38 806.92 1087.71 489.89 636.53 761.14 493.48 762.39 604.87 576.57 709.74 959.39
311.15 840.19 986.21 1016.50 866.84 833.58 1031.11 873.50 791.44 604.34 802.81 992.95 599.56 532.96 706.49 655.32 126.96 1126.90 908.21 540.19 254.36 222.08 1006.35 628.28 247.37 482.02 927.84 531.89 1028.46 918.74 955.07 522.60 693.25 445.88 992.93 987.36 71.38 248.64 1198.68 1046.38 608.79 221.02 635.30 551.26 405.94 732.31 547.25 142.46 645.20 566.32 1148.01 883.74 1047.57 1042.19 918.93 1116.05 911.24 226.63 839.69 640.13 1115.73 1177.99 478.34 416.79 146.64 120.40 125.08 1238.23 581.68 860.08 973.67 588.53 401.96 587.52 432.04 858.58 995.98 698.86 1003.02 752.36 1209.60 751.48 238.96 562.21 1188.01 385.10 604.64 651.23 171.09 567.96 53.99 584.22 935.47 1047.05 0.00 573.81 692.78 194.17 795.71 750.70 1086.87 290.25 1223.98 193.34 635.05 160.08 647.90 1385.32 185.37 353.94 268.05 1043.50 1032.33 679.48 850.01 666.75 851.63 649.61 636.27 472.11 754.98 1204.46 1031.92 657.49 605.66 187.26
686.65 325.17 621.67 951.69 338.06 1173.52 761.34 731.06 703.90 997.04 745.68 961.83 444.98 185.86 155.36 108.78 523.46 1080.77 771.38 505.28 680.85 673.45 497.68 260.75 453.58 679.94 449.92 871.83 948.70 1047.48 844.34 248.69 636.12 821.38 1081.36 966.91 513.91 726.11 1156.18 1046.99 505.17 703.71 563.32 441.56 212.30 158.50 489.75 652.49 517.00 18.98 1039.46 728.93 814.16 1067.92 816.19 874.34 611.86 615.16 265.88 361.29 966.66 916.67 155.69 625.68 614.79 641.03 448.73 1108.52 440.90 398.88 893.91 23.22 226.22 526.44 616.70 311.24 889.26 205.69 925.34 699.87 1108.09 662.86 639.40 262.83 1009.23 635.99 39.33 91.54 654.07 413.62 531.31 34.02 808.52 499.71 573.81 0.00 142.11 640.95 575.33 578.67 677.06 583.74 1133.96 675.90 72.29 643.06 702.86 1235.00 535.94 231.36 732.08 960.52 904.01 626.89 744.40 606.18 816.40 103.07 432.13 460.32 447.09 949.93 604.41 345.35 474.40 497.64
750.10 254.23 658.80 1002.00 244.97 1226.33 804.40 788.87 811.53 1107.40 790.41 1096.96 583.43 269.50 97.72 54.54 665.57 1215.90 874.72 610.24 774.02 741.74 613.40 357.99 445.96 731.87 401.83 957.90 1019.93 1189.59 954.70 383.82 758.28 884.83 1216.49 1097.03 621.40 768.30 1266.54 1149.61 596.80 740.68 647.67 562.72 292.50 107.78 586.03 662.12 633.21 129.34 1174.59 814.21 905.00 1178.28 905.51 865.43 632.53 757.27 215.16 503.40 1105.97 982.13 214.44 638.10 666.30 640.06 590.84 1123.66 558.36 327.94 965.14 118.89 305.93 599.89 702.77 293.43 983.58 241.17 997.46 820.45 1195.35 752.30 749.76 321.17 1033.70 693.25 102.78 182.38 690.75 489.56 641.67 169.15 869.27 481.90 692.78 142.11 0.00 713.83 681.13 713.80 679.76 589.52 1276.07 715.49 87.56 679.74 766.31 1175.66 570.00 341.72 787.71 975.02 968.68 769.00 851.32 706.95 919.02 48.83 521.09 542.16 447.66 948.85 687.60 330.08 611.91 531.70
218.90 944.82 1067.19 936.65 885.58 705.62 1116.18 852.34 678.99 673.51 891.84 1089.81 631.78 657.73 769.17 732.09 281.65 1154.50 909.52 612.94 132.73 32.50 1020.00 666.93 341.02 381.80 1085.99 403.93 969.75 761.54 890.57 566.66 786.90 353.63 867.49 931.37 248.69 85.16 1069.03 899.21 643.59 101.07 670.10 579.52 510.91 799.45 621.48 76.16 612.97 659.93 1150.35 877.68 1073.91 916.75 1007.96 1162.72 949.89 258.31 906.83 664.63 1057.82 1191.03 633.38 383.95 97.25 73.77 310.63 1216.04 585.02 965.05 914.96 664.17 567.02 622.32 272.17 952.19 977.46 795.18 1012.72 665.37 1180.96 773.54 155.48 600.86 1189.12 298.11 680.28 724.43 58.05 607.69 248.16 674.97 911.66 1140.66 194.17 640.95 713.83 0.00 782.27 817.27 1180.52 289.93 1074.44 36.14 713.24 69.06 628.46 1354.14 207.33 548.11 137.31 907.43 1074.02 632.85 914.79 670.14 803.34 726.38 721.12 546.34 817.06 1239.26 1116.77 738.47 655.57 244.71
752.75 519.55 291.65 496.70 694.49 943.19 365.97 283.28 326.63 741.03 264.55 541.94 252.31 448.24 583.41 668.39 872.24 655.98 316.39 277.37 852.50 782.43 365.50 437.11 548.34 613.87 571.44 825.06 490.20 889.91 599.20 326.64 154.99 788.18 788.50 624.74 811.17 835.09 911.04 711.81 205.71 831.93 242.63 299.71 504.96 682.47 281.74 745.38 169.30 591.74 657.06 257.94 422.34 820.67 346.35 555.02 233.55 927.23 665.93 288.54 572.01 591.81 679.07 492.72 793.68 767.44 797.51 699.97 236.52 556.40 435.41 591.57 682.79 226.98 586.32 607.80 453.00 512.70 464.76 409.35 639.08 243.04 886.00 425.69 529.25 601.76 607.68 517.27 770.87 306.28 807.14 541.31 355.13 701.32 795.71 575.33 681.13 782.27 0.00 196.27 498.96 600.38 825.27 746.13 634.17 781.88 395.31 872.94 679.96 514.84 867.83 474.87 423.22 415.70 220.83 402.66 525.78 672.90 196.65 342.39 233.47 558.67 347.37 351.05 211.90 641.66
698.32 656.45 487.92 373.02 822.08 784.34 562.24 152.39 188.61 671.07 167.01 503.51 285.27 562.11 652.71 680.81 877.66 502.10 192.71 241.02 849.99 806.69 522.45 466.08 503.33 560.40 767.71 760.01 383.45 769.94 440.35 446.40 57.45 736.89 690.10 517.99 801.26 754.03 739.67 586.53 233.19 781.65 175.04 301.70 529.09 737.17 282.29 747.37 204.30 595.08 460.79 150.26 373.75 663.93 283.13 480.25 410.18 917.93 793.49 315.00 449.81 542.19 707.51 527.72 795.67 769.43 832.51 602.43 238.51 666.04 328.66 594.91 645.04 222.82 614.78 754.43 310.59 509.26 346.67 250.50 529.42 84.19 867.55 488.63 487.19 559.62 611.02 623.41 799.54 334.35 777.04 544.65 229.85 863.85 750.70 578.67 713.80 817.27 196.27 0.00 695.23 564.03 699.99 781.13 643.98 788.53 342.95 757.51 638.97 477.09 806.18 381.85 355.96 252.45 185.41 327.78 387.76 681.74 336.32 309.10 370.37 587.14 543.64 478.64 246.90 649.79
1191.27 471.88 207.31 751.46 679.12 1423.05 198.69 682.94 803.12 1159.28 564.32 948.21 657.92 771.59 592.55 701.31 1200.52 947.11 768.79 722.46 1268.81 1213.02 299.70 622.09 839.50 984.50 603.72 1241.29 828.15 1273.71 1060.68 681.75 653.95 1155.28 1249.11 1005.19 1142.57 1258.12 1367.70 1129.93 704.67 1258.03 737.42 666.81 770.84 571.98 710.23 1135.35 668.26 696.04 988.42 657.60 490.51 1258.69 619.15 377.24 347.78 1159.80 618.26 574.23 872.63 404.86 831.98 919.65 1183.65 1157.41 1125.79 620.40 653.84 545.59 815.86 700.28 897.08 725.94 1038.93 569.86 715.38 621.52 654.81 889.21 874.99 722.90 1275.97 688.16 498.82 1028.69 708.58 735.67 1200.17 764.67 1106.28 690.99 790.52 456.10 1086.87 677.06 679.76 1180.52 498.96 695.23 0.00 983.06 1180.49 1193.11 734.33 1189.16 894.27 795.59 1057.79 806.33 1294.04 777.22 580.36 894.81 682.31 774.05 1002.27 695.60 564.85 707.01 421.80 306.29 189.61 536.03 687.94 1019.49
290.24 700.16 889.02 828.05 806.02 714.77 826.25 698.89 547.91 615.40 699.00 886.04 387.55 471.22 672.15 638.72 352.56 942.93 691.03 323.01 330.88 298.60 865.23 525.25 143.56 224.58 865.50 439.05 820.04 729.83 719.23 418.79 589.44 380.42 741.43 868.83 295.74 351.26 947.18 798.86 418.63 325.27 436.81 386.73 449.34 697.30 372.70 213.77 431.08 593.82 901.62 707.60 922.83 790.69 794.19 980.83 748.55 428.15 753.84 471.24 910.53 1052.09 526.95 126.54 255.75 235.83 342.89 1095.91 394.04 773.87 783.88 560.52 412.14 404.45 183.92 798.14 842.60 550.52 899.21 494.92 1027.74 576.87 303.52 517.84 1007.23 127.66 576.63 547.81 247.61 427.59 259.45 566.81 748.18 986.61 290.25 583.74 589.52 289.93 600.38 564.03 983.06 0.00 1024.33 266.19 609.59 258.62 412.06 1177.57 159.25 444.57 310.98 853.71 862.50 435.95 744.71 458.07 625.46 638.35 485.46 352.94 623.67 1014.30 881.11 590.60 388.48 120.95
951.95 1185.47 1107.12 429.03 1310.88 600.07 1050.90 583.40 643.10 619.64 658.67 399.30 758.24 1073.35 1202.76 1242.74 1309.27 265.35 527.29 783.30 1205.37 1106.94 1107.04 923.75 1027.71 926.61 1356.74 731.21 352.34 419.69 406.46 951.44 687.55 817.22 289.78 438.99 1224.12 1124.39 397.01 296.79 753.63 1138.97 761.45 835.59 1110.86 1222.16 787.67 1150.60 760.43 1152.94 306.66 603.06 689.98 240.52 673.45 963.68 975.09 1187.34 1290.72 772.67 439.23 913.51 1243.15 897.79 1160.11 1147.46 1289.30 745.63 805.00 1227.73 407.13 1157.18 1226.81 774.90 885.10 1283.45 533.27 1087.86 574.40 631.66 397.53 654.13 1229.92 989.82 798.89 967.99 1173.29 1155.52 1123.74 864.99 1260.41 1160.59 470.14 1418.58 1223.98 1133.96 1276.07 1074.44 825.27 699.99 1180.49 1024.33 0.00 1099.00 1206.25 1134.75 678.88 912.85 1167.72 1058.86 1072.24 430.20 649.51 588.38 622.85 751.46 527.38 1237.03 864.56 851.38 925.10 991.42 1081.13 970.40 717.83 1145.28
255.04 921.32 1037.78 972.79 878.28 669.48 1092.44 870.90 715.13 657.90 855.70 1061.91 613.38 659.39 733.03 761.95 248.34 1144.86 913.32 589.20 106.37 36.30 983.86 668.59 353.61 398.83 1090.77 367.79 941.85 725.40 894.37 543.16 799.49 389.77 855.31 895.23 215.38 88.96 1032.89 930.02 613.24 90.38 650.16 610.37 512.57 823.27 623.14 57.76 576.83 659.83 1138.24 887.92 1040.60 904.57 971.82 1126.58 951.55 222.17 878.26 646.23 1049.44 1227.17 608.38 363.16 61.11 75.43 280.56 1252.18 566.62 966.71 887.06 692.14 590.23 634.51 308.31 952.09 1013.60 771.68 1048.86 669.17 1195.04 777.34 147.82 602.52 1152.98 301.91 692.82 726.09 24.74 611.49 247.33 641.88 922.65 1126.11 193.34 675.90 715.49 36.14 746.13 781.13 1193.11 266.19 1099.00 0.00 741.21 35.75 595.15 1355.80 206.46 532.19 121.70 943.57 1075.85 634.51 925.03 636.83 767.20 756.24 733.36 548.00 798.66 1208.91 1093.50 714.97 619.43 208.57
712.50 283.51 669.34 919.20 332.53 1172.03 828.43 796.37 767.29 1060.43 774.80 1027.14 517.27 231.90 179.04 36.83 595.75 1146.08 836.69 559.57 744.24 745.74 569.97 324.14 525.87 702.61 419.97 870.34 994.74 1119.77 907.73 314.00 701.43 847.23 1146.67 1034.60 563.67 757.18 1219.57 1112.01 577.46 729.56 627.62 504.51 277.61 162.35 537.48 698.70 584.69 82.37 1104.77 794.24 886.45 1131.31 879.58 834.54 592.16 687.45 269.73 433.58 1038.95 988.96 156.71 620.39 680.10 676.64 521.02 1134.20 488.54 356.62 939.95 49.07 271.52 596.95 615.21 281.29 954.57 273.44 990.65 771.90 1173.40 728.17 702.79 309.60 1002.81 605.69 65.18 163.83 717.46 451.96 594.70 99.33 873.83 469.76 635.05 72.29 87.56 713.24 634.17 643.98 734.33 609.59 1206.25 741.21 0.00 706.45 728.71 1263.22 599.33 294.75 796.29 948.42 976.30 699.18 816.69 658.40 881.42 38.73 437.52 506.61 407.29 941.43 669.72 340.62 542.09 561.03
275.85 885.57 1007.94 1004.87 842.53 705.23 1084.87 835.51 710.72 625.52 891.45 1033.38 606.11 623.64 768.78 726.20 212.59 1120.41 915.89 580.33 94.28 62.00 958.54 632.84 357.59 424.53 1055.02 403.54 977.60 761.15 866.57 507.41 803.47 410.58 879.69 930.98 201.65 99.24 1068.64 965.66 632.89 125.64 675.44 574.62 476.82 787.52 587.39 61.74 612.58 624.08 1160.24 860.85 1004.85 928.95 1007.57 1162.33 915.80 254.52 894.90 650.21 1085.19 1260.09 572.63 385.16 35.79 39.68 266.83 1285.10 570.60 930.96 922.81 657.38 562.04 627.66 339.93 916.34 1005.41 735.93 1044.10 671.74 1230.79 791.62 128.11 566.77 1188.73 327.61 673.49 690.34 11.01 593.10 214.07 616.56 886.90 1104.81 160.08 643.06 679.74 69.06 781.88 788.53 1189.16 258.62 1134.75 35.75 706.45 0.00 559.40 1320.05 178.04 514.02 107.97 976.49 1047.12 598.76 897.96 623.10 741.88 720.49 697.61 512.25 767.36 1228.56 1063.66 679.22 645.80 204.73
557.14 741.14 686.96 454.01 841.45 610.83 761.28 371.04 202.46 425.59 441.26 473.98 294.37 628.78 730.37 755.81 764.62 607.93 407.63 256.20 653.68 621.40 701.15 529.14 476.33 406.67 874.96 518.58 488.60 607.99 307.17 483.12 374.10 540.54 580.01 481.33 673.83 645.69 581.43 445.84 314.76 624.73 263.57 319.92 655.27 816.23 242.06 568.20 336.90 712.94 629.04 396.38 636.38 530.75 557.38 774.32 628.86 782.58 875.60 378.06 575.18 858.84 713.84 285.52 595.19 590.26 739.01 798.66 309.74 745.95 438.43 679.64 599.03 301.53 404.80 839.12 497.15 693.25 579.63 163.48 687.83 305.21 687.51 538.19 771.49 394.56 663.53 700.07 570.41 401.12 671.51 697.79 384.20 928.06 647.90 702.86 766.31 628.46 395.31 342.95 894.27 412.06 678.88 595.15 728.71 559.40 0.00 1009.77 511.54 603.27 593.54 483.23 546.53 90.50 433.49 121.14 280.01 750.10 406.90 317.20 530.49 881.21 742.68 498.01 311.90 533.01
1356.17 1083.68 707.58 607.69 1235.59 1331.93 616.57 657.78 831.13 1209.54 698.46 708.54 790.02 1124.53 1268.66 1230.20 1450.90 647.50 658.12 854.56 1414.33 1382.05 761.95 1005.02 1142.21 1156.19 1065.97 1315.58 628.26 1190.61 942.46 993.33 730.14 1355.84 1060.70 837.63 1396.41 1408.61 1083.63 991.15 850.21 1380.99 900.67 867.37 1162.79 1265.08 842.33 1302.43 873.03 1246.79 606.19 680.68 474.57 1037.79 588.38 511.96 848.05 1495.21 1230.06 873.71 585.76 390.73 1355.36 1129.21 1306.61 1280.37 1438.29 263.04 836.78 1130.76 648.30 1258.22 1278.74 871.48 1189.74 1181.66 573.37 1134.18 449.19 846.29 640.56 779.80 1398.93 1071.09 343.69 1206.35 1274.33 1197.19 1331.06 896.77 1385.03 1208.00 715.27 1140.60 1385.32 1235.00 1175.66 1354.14 872.94 757.51 795.59 1177.57 912.85 1355.80 1263.22 1320.05 1009.77 0.00 1236.36 1110.79 1428.02 578.47 474.98 919.27 677.37 936.57 849.09 1224.49 894.38 917.47 939.21 489.30 651.86 1036.30 830.43 1198.06
249.84 824.23 885.09 900.12 814.97 772.27 985.50 764.67 659.24 687.47 773.73 927.46 490.73 540.94 667.72 624.54 253.87 1061.41 799.38 431.36 211.02 239.83 937.30 583.27 218.29 296.65 906.12 470.58 876.66 801.90 792.19 493.52 664.17 384.57 900.07 955.24 162.29 245.70 1092.97 870.93 499.96 218.08 526.47 442.43 410.43 665.74 438.42 172.26 536.37 516.96 1051.97 789.23 1008.91 949.33 880.27 1075.74 833.36 278.96 773.12 552.10 982.60 1148.91 546.41 285.79 193.53 167.29 227.47 1204.26 488.35 864.57 821.87 550.26 431.60 478.69 304.75 809.22 949.56 706.84 973.26 566.99 1129.85 642.65 252.47 565.59 1095.40 199.73 566.37 627.48 189.05 497.86 198.58 567.39 826.64 997.69 185.37 535.94 570.00 207.33 679.96 638.97 1057.79 159.25 1167.72 206.46 599.33 178.04 511.54 1236.36 0.00 361.92 240.94 891.70 940.50 595.20 820.93 517.79 747.62 618.83 548.64 363.28 648.49 1095.63 940.81 665.33 496.83 38.30
551.77 486.25 700.92 813.19 547.06 942.16 860.12 629.48 581.00 765.68 624.41 955.24 320.77 179.02 377.82 301.38 427.82 969.08 669.80 347.07 571.44 557.82 652.41 301.20 312.59 515.47 573.90 640.47 860.54 1045.46 808.74 200.39 534.54 686.50 980.66 853.69 336.24 562.25 1120.58 983.70 380.96 574.96 410.49 364.62 52.00 389.86 373.08 496.40 345.54 212.38 937.88 627.35 850.84 1029.92 740.53 828.29 585.91 470.83 497.24 286.19 926.90 956.86 282.76 394.32 500.58 474.34 383.39 1059.83 316.10 506.14 805.75 245.68 167.95 362.71 385.34 504.64 787.68 344.92 823.76 602.06 1006.51 547.25 587.28 281.11 921.69 444.80 261.79 297.29 525.03 214.02 299.95 230.28 706.94 693.11 353.94 231.36 341.72 548.11 514.84 477.09 806.33 444.57 1058.86 532.19 294.75 514.02 603.27 1110.79 361.92 0.00 552.88 842.41 833.05 563.60 662.50 482.13 753.11 295.67 378.08 318.35 401.04 892.58 756.64 372.20 361.18 323.62
195.23 993.54 1115.91 1047.55 914.14 642.72 1137.23 942.91 796.00 536.20 973.19 1067.52 698.53 731.61 718.24 805.87 320.56 1201.47 965.26 633.99 180.23 104.81 1066.51 740.81 454.54 411.21 1080.42 341.03 1046.23 656.14 874.40 615.38 863.63 329.96 786.05 1009.16 287.60 52.15 963.63 903.26 729.61 66.73 747.79 682.59 584.79 817.30 679.36 169.71 698.53 732.05 1181.02 917.57 1112.82 835.31 1080.20 1248.28 1023.77 264.58 863.47 751.27 1136.72 1328.34 658.24 405.94 143.76 147.65 352.78 1353.35 678.57 1005.99 1008.76 747.22 543.43 715.43 328.15 941.74 1090.69 843.90 1068.70 721.11 1281.37 833.24 185.47 674.74 1274.68 357.81 763.33 798.31 96.96 667.39 322.04 724.53 977.74 1111.32 268.05 732.08 787.71 137.31 867.83 806.18 1294.04 310.98 1072.24 121.70 796.29 107.97 593.54 1428.02 240.94 552.88 0.00 1044.74 1123.27 684.04 954.68 673.25 849.85 800.16 789.58 604.22 875.33 1325.28 1171.63 787.19 699.46 279.24
888.23 832.42 735.65 29.22 949.08 753.46 661.17 246.10 305.80 659.14 296.24 197.92 549.18 777.88 877.30 985.25 1145.08 288.40 194.90 534.89 1040.16 939.93 744.61 767.09 796.13 672.25 1009.23 737.11 77.86 663.33 375.45 739.53 350.25 823.12 613.41 259.16 1053.50 992.59 621.67 484.05 500.97 1008.50 500.15 592.31 845.43 976.36 498.47 983.59 531.12 944.76 247.09 271.44 286.71 599.03 273.64 573.69 612.66 1165.74 978.80 616.01 150.39 596.24 976.41 727.17 976.71 976.84 1118.68 315.43 539.85 906.13 69.83 960.71 932.25 479.70 830.64 930.40 103.07 793.80 185.84 362.35 273.53 335.99 1031.24 776.60 444.72 729.61 944.60 896.15 965.48 655.93 1075.82 926.50 152.00 1070.36 1043.50 960.52 975.02 907.43 474.87 381.85 777.22 853.71 430.20 943.57 948.42 976.49 483.23 578.47 891.70 842.41 1044.74 0.00 238.09 417.76 254.04 495.43 270.62 987.15 613.97 573.61 583.56 637.25 692.57 701.14 536.77 930.00
934.53 765.70 564.67 220.48 972.94 942.49 520.82 231.04 404.39 878.45 229.52 374.39 544.03 770.48 870.96 964.37 1096.09 494.45 291.47 539.49 1141.40 1041.52 576.65 668.84 784.96 718.55 816.19 975.20 297.17 837.67 603.62 690.94 339.08 941.40 770.06 492.63 1052.02 1084.16 849.41 628.86 483.84 1056.54 425.69 498.07 818.05 930.97 532.94 1029.50 499.02 910.61 483.85 205.70 89.85 771.68 113.40 367.04 493.41 1216.16 912.08 607.74 341.65 399.38 993.48 765.44 1033.68 1007.44 1099.17 349.44 561.26 816.26 303.30 927.23 1001.00 473.47 830.54 863.68 135.02 727.51 89.99 408.65 339.66 353.06 1126.00 734.91 260.57 775.91 937.20 812.47 1058.13 648.67 1015.73 900.61 272.18 961.18 1032.33 904.01 968.68 1074.02 423.22 355.96 580.36 862.50 649.51 1075.85 976.30 1047.12 546.53 474.98 940.50 833.05 1123.27 238.09 0.00 456.03 202.39 509.83 508.71 970.08 619.87 577.22 656.69 453.10 596.72 739.34 519.64 964.95
581.03 678.90 703.18 406.11 831.07 606.82 696.12 280.54 111.96 452.55 350.76 465.55 284.45 593.75 719.99 735.67 727.32 566.05 317.13 250.43 693.04 660.76 694.66 476.55 439.33 382.88 812.72 608.52 398.10 517.49 298.18 455.39 283.60 522.51 526.93 432.88 635.74 676.24 610.02 420.10 224.26 648.62 173.07 310.69 586.58 764.39 233.94 581.14 246.40 645.87 607.36 305.88 545.88 477.67 466.88 683.82 562.71 773.92 825.28 327.11 488.59 768.34 782.58 309.41 585.32 559.08 700.92 733.19 247.50 683.71 347.93 650.11 689.53 220.85 428.69 776.88 406.65 640.66 489.13 72.98 647.59 214.71 677.64 491.66 680.99 418.45 666.22 637.83 609.77 383.13 672.03 660.91 344.63 898.20 679.48 626.89 769.00 632.85 415.70 252.45 894.81 435.95 588.38 634.51 699.18 598.76 90.50 919.27 595.20 563.60 684.04 417.76 456.03 0.00 342.99 163.08 189.51 729.96 398.78 297.56 479.54 790.71 758.90 487.63 260.06 556.90
819.26 654.17 512.48 275.87 827.52 767.42 517.17 62.45 235.80 718.26 117.99 321.11 410.95 601.89 753.60 853.18 976.97 455.06 95.56 421.70 983.56 925.51 566.35 645.72 602.64 605.88 792.27 807.20 293.51 669.08 440.19 547.47 156.76 784.08 567.67 428.05 921.39 915.57 752.03 499.21 378.66 887.95 359.76 476.40 702.89 852.66 388.70 898.49 356.52 763.38 476.17 37.11 254.16 616.93 125.52 340.83 434.41 1055.12 796.53 494.64 351.18 476.10 824.89 652.40 928.31 902.07 955.66 487.73 423.92 673.42 238.72 767.62 830.45 384.77 714.09 718.26 232.17 610.15 270.86 295.98 418.25 184.47 1020.20 593.87 338.00 659.90 768.61 720.16 900.29 517.70 885.24 730.06 152.71 890.38 850.01 744.40 851.32 914.79 220.83 185.41 682.31 744.71 622.85 925.03 816.69 897.96 433.49 677.37 820.93 662.50 954.68 254.04 202.39 342.99 0.00 341.24 426.86 847.47 417.48 463.84 454.30 447.72 568.20 571.88 396.81 782.63
478.02 620.00 670.69 495.00 720.31 731.97 709.74 278.79 274.99 546.73 397.41 538.37 173.23 507.64 609.23 695.23 769.42 553.78 325.04 135.06 695.36 663.08 653.40 408.00 420.80 496.35 753.82 569.59 418.31 585.39 428.31 361.98 331.64 612.75 569.88 595.96 677.84 663.94 702.57 566.98 198.00 691.56 168.80 198.78 534.13 695.09 120.92 670.63 233.36 625.16 595.09 304.13 572.96 619.14 466.76 682.07 530.22 796.75 754.46 256.92 525.90 808.13 735.24 406.66 658.89 662.78 719.72 736.11 188.60 624.81 455.06 626.91 620.43 180.39 424.31 717.98 481.49 572.11 487.38 236.01 661.75 243.59 736.81 417.05 679.24 399.43 643.02 578.93 612.09 279.98 703.40 576.65 382.19 806.92 666.75 606.18 706.95 670.14 402.66 327.78 774.05 458.07 751.46 636.83 658.40 623.10 121.14 936.57 517.79 482.13 673.25 495.43 509.83 163.08 341.24 0.00 352.59 697.13 285.76 196.06 409.35 779.73 646.19 376.87 190.76 479.49
710.47 868.41 817.43 299.84 1014.95 573.09 855.09 372.50 199.15 450.64 437.95 404.74 459.38 649.52 850.45 908.52 893.37 493.00 331.30 439.94 834.70 803.50 785.48 659.79 628.84 526.25 1002.23 765.96 284.68 392.71 249.14 644.90 370.79 712.02 408.02 243.37 825.25 836.02 529.90 230.59 413.77 831.85 356.31 500.20 769.82 938.02 415.56 753.29 419.12 816.40 516.12 397.84 557.33 373.41 464.01 766.17 723.52 932.00 957.39 516.62 370.56 814.59 880.35 498.92 706.09 731.23 890.43 586.05 437.01 873.22 229.89 832.35 879.04 404.09 560.02 966.39 373.69 823.90 419.62 233.05 529.25 315.60 798.41 681.17 715.34 547.89 816.24 767.79 752.89 566.13 861.54 840.38 274.15 1087.71 851.63 816.40 919.02 803.34 525.78 387.76 1002.27 625.46 527.38 767.20 881.42 741.88 280.01 849.09 747.62 753.11 849.85 270.62 508.71 189.51 426.86 352.59 0.00 902.81 572.18 487.07 663.18 873.06 873.15 671.51 449.57 746.41
733.89 244.78 694.49 957.93 293.80 1177.50 794.95 834.13 792.75 1061.35 780.96 1064.90 548.05 253.29 146.55 5.71 626.53 1183.84 874.45 598.30 769.70 757.31 600.75 349.60 494.79 683.04 417.67 909.07 1016.13 1150.55 933.19 351.76 739.19 868.62 1184.43 1069.98 602.40 761.05 1245.03 1133.40 608.24 733.43 653.08 543.24 243.67 123.62 576.21 702.87 620.07 107.83 1142.53 818.07 906.57 1156.77 856.68 816.60 600.07 718.23 231.00 464.36 1069.73 973.33 195.44 589.27 707.05 680.81 551.80 1172.49 527.27 318.49 961.34 87.80 310.25 609.40 653.94 309.27 974.13 290.00 1028.41 802.94 1199.21 765.93 728.25 342.23 984.87 644.42 86.57 194.61 731.50 473.35 595.62 137.09 911.59 489.89 649.61 103.07 48.83 726.38 672.90 681.74 695.60 638.35 1237.03 756.24 38.73 720.49 750.10 1224.49 618.83 295.67 800.16 987.15 970.08 729.96 847.47 697.13 902.81 0.00 476.25 545.34 446.02 923.49 638.77 378.91 577.47 580.53
649.19 408.55 451.37 634.09 551.78 887.09 488.91 464.72 373.03 686.14 449.52 659.63 143.48 251.59 440.70 474.35 736.82 718.53 513.04 169.91 759.66 716.58 400.85 242.97 410.10 459.29 585.36 716.08 663.79 841.59 578.45 270.66 351.64 630.07 831.02 659.71 645.24 747.34 890.29 802.77 203.00 750.97 243.98 141.60 398.41 539.76 164.84 679.99 170.65 418.47 677.22 454.59 618.99 802.03 543.00 570.30 327.92 809.38 554.93 91.89 712.31 714.75 482.42 411.76 684.17 657.93 710.42 884.94 171.50 481.01 609.00 434.42 526.44 205.34 531.04 506.53 642.69 404.97 661.41 353.25 828.22 369.07 776.49 252.91 725.90 486.61 418.31 369.86 708.62 235.14 659.26 398.11 540.63 636.53 636.27 432.13 521.09 721.12 196.65 336.32 564.85 485.46 864.56 733.36 437.52 697.61 406.90 894.38 548.64 378.08 789.58 613.97 619.87 398.78 417.48 285.76 572.18 476.25 0.00 185.36 143.05 623.02 395.65 208.34 167.20 586.94
498.02 556.47 610.55 544.39 645.21 755.20 674.27 401.39 322.33 584.31 437.95 657.30 127.45 323.08 491.50 543.44 599.07 749.84 436.10 68.08 574.30 531.22 585.30 287.06 224.74 347.55 690.29 600.81 587.93 779.14 534.76 211.63 366.55 567.62 751.95 626.06 525.57 561.98 846.60 717.66 136.68 565.61 163.19 79.15 370.35 559.79 75.14 494.63 173.09 476.73 769.89 426.73 645.63 758.34 516.99 712.46 470.08 642.24 571.75 188.82 665.56 830.92 553.91 226.40 498.81 472.57 577.76 840.98 125.07 561.28 533.14 476.56 486.30 115.41 345.68 650.02 592.55 440.15 609.98 309.56 772.81 279.37 591.13 220.99 732.12 335.44 461.10 392.28 523.26 134.58 507.34 426.30 463.36 761.14 472.11 460.32 542.16 546.34 342.39 309.10 707.01 352.94 851.38 548.00 506.61 512.25 317.20 917.47 363.28 318.35 604.22 573.61 577.22 297.56 463.84 196.06 487.07 545.34 185.36 0.00 285.21 732.35 581.01 331.09 133.55 401.58
769.47 286.08 325.34 554.34 461.02 1030.14 511.21 440.43 496.35 784.46 460.81 751.09 236.12 353.14 349.94 444.12 820.48 820.58 526.28 300.66 859.51 816.43 316.82 203.64 509.95 562.70 462.89 819.49 631.03 945.00 721.50 259.95 388.46 733.48 836.46 758.65 737.28 847.19 1033.34 887.42 296.31 836.97 354.46 245.01 349.04 449.00 288.43 740.90 308.74 445.41 817.71 451.92 608.93 885.72 564.88 427.25 184.87 871.87 432.46 152.43 675.51 583.98 564.00 497.85 784.02 757.78 784.43 852.47 232.04 359.79 616.70 425.00 543.24 315.38 617.13 384.06 649.19 279.23 649.02 496.30 833.06 454.56 858.33 269.71 595.52 606.89 408.89 371.39 778.37 342.87 700.99 413.07 567.25 493.48 754.98 447.09 447.66 817.06 233.47 370.37 421.80 623.67 925.10 798.66 407.29 767.36 530.49 939.21 648.49 401.04 875.33 583.56 656.69 479.54 454.30 409.35 663.18 446.02 143.05 285.21 0.00 534.14 381.06 117.58 266.14 675.64
1150.72 742.87 444.43 653.47 841.16 1215.14 192.70 510.17 683.52 1073.36 494.43 735.44 655.86 820.97 851.13 917.78 1275.03 799.72 543.28 691.29 1306.65 1245.21 456.36 726.86 957.09 1004.46 655.57 1215.02 665.72 1116.80 780.01 724.67 529.69 1181.88 1015.39 855.29 1183.45 1274.94 1091.85 946.93 595.67 1269.46 653.82 693.41 883.18 878.27 676.41 1197.06 632.08 938.76 758.41 484.83 408.10 1003.59 409.05 106.89 369.85 1347.59 860.37 686.57 726.31 98.57 1045.02 930.25 1231.16 1204.92 1248.63 403.59 688.20 692.70 681.16 959.14 992.41 616.94 998.94 794.25 577.51 813.37 543.09 743.70 703.49 617.74 1308.83 718.88 192.53 988.14 943.03 890.17 1233.65 678.56 1192.53 939.34 600.43 762.39 1204.46 949.93 948.85 1239.26 558.67 587.14 306.29 1014.30 991.42 1208.91 941.43 1228.56 881.21 489.30 1095.63 892.58 1325.28 637.25 453.10 790.71 447.72 779.73 873.06 923.49 623.02 732.35 534.14 0.00 405.53 651.72 631.47 1133.93
1010.24 544.53 55.72 678.27 613.61 1282.74 290.98 630.65 674.00 969.67 512.61 848.85 539.13 620.00 616.80 633.06 1114.59 912.37 606.28 565.56 1151.83 1112.23 110.09 470.50 805.75 854.94 414.11 1111.73 728.79 1231.58 946.57 556.25 502.36 1025.72 1135.87 886.58 1024.23 1142.99 1249.09 1020.11 553.08 1146.62 585.83 537.25 719.70 708.16 560.49 1075.64 516.67 620.82 910.11 605.31 507.60 1107.10 517.73 331.67 196.19 1188.37 627.12 487.54 799.44 488.40 733.25 807.41 1032.84 1053.58 1039.86 753.08 567.15 478.90 761.53 620.65 810.10 574.35 926.69 552.79 630.91 482.32 506.73 748.90 880.77 590.41 1125.16 536.57 499.94 847.66 636.76 596.47 1074.67 630.79 987.94 570.39 663.43 604.87 1031.92 604.41 687.60 1116.77 347.37 543.64 189.61 881.11 1081.13 1093.50 669.72 1063.66 742.68 651.86 940.81 756.64 1171.63 692.57 596.72 758.90 568.20 646.19 873.15 638.77 395.65 581.01 381.06 405.53 0.00 384.44 556.26 979.11
720.66 290.12 328.72 671.92 343.44 1024.21 592.71 558.01 481.45 806.84 525.85 838.11 253.35 235.56 232.36 377.45 731.37 926.87 579.61 290.61 773.50 741.22 361.25 86.06 447.04 621.01 466.93 877.80 748.61 962.26 715.57 171.81 506.04 791.79 946.75 786.27 639.79 778.46 1027.41 902.10 313.54 779.84 353.54 303.32 335.26 331.42 255.95 701.28 336.36 327.83 885.56 569.50 726.51 939.15 625.94 544.83 302.45 803.93 377.59 197.73 793.09 701.56 466.39 543.15 705.46 679.22 686.94 793.58 240.13 363.83 717.42 361.13 425.66 315.42 624.45 388.10 719.02 196.63 766.60 490.37 916.32 460.18 797.78 152.13 713.10 558.08 348.39 253.81 690.23 248.50 603.50 321.04 636.76 576.57 657.49 345.35 330.08 738.47 351.05 478.64 536.03 590.60 970.40 714.97 340.62 679.22 498.01 1036.30 665.33 372.20 787.19 701.14 739.34 487.63 571.88 376.87 671.51 378.91 208.34 331.09 117.58 651.72 384.44 0.00 293.76 627.03
570.40 467.64 500.54 507.55 637.20 803.42 577.87 334.36 284.20 581.70 321.47 631.39 40.41 374.92 526.12 578.92 696.17 742.14 397.36 65.47 707.85 650.23 492.02 264.79 358.29 419.93 644.45 655.15 549.98 707.26 494.78 243.72 265.78 604.22 693.61 492.51 652.05 665.61 806.62 680.16 35.80 637.99 93.95 117.76 413.18 504.33 69.84 596.03 42.60 493.19 707.69 359.70 566.23 703.49 437.59 592.35 360.07 775.79 611.71 113.71 628.72 730.04 605.62 298.78 632.36 606.12 621.44 756.89 87.17 523.38 510.63 493.02 529.13 57.07 418.06 565.62 481.58 428.90 542.95 269.58 734.07 212.34 692.00 311.43 618.75 407.82 509.13 477.50 636.09 147.16 635.42 442.76 396.33 709.74 605.66 474.40 611.91 655.57 211.90 246.90 687.94 388.48 717.83 619.43 542.09 645.80 311.90 830.43 496.83 361.18 699.46 536.77 519.64 260.06 396.81 190.76 449.57 577.47 167.20 133.55 266.14 631.47 556.26 293.76 0.00 509.43
288.14 785.93 923.39 938.42 776.67 810.57 947.20 758.28 668.86 725.77 735.43 889.16 506.51 502.64 629.42 586.24 289.93 1023.11 804.53 443.96 249.32 244.87 935.84 544.97 179.99 334.95 897.52 508.88 897.80 840.20 830.49 455.22 625.87 422.87 862.38 919.98 198.35 238.63 1068.13 909.23 538.26 256.38 557.76 480.73 372.13 639.48 476.72 191.14 552.03 478.66 1022.57 783.62 980.19 911.64 851.55 1048.67 860.51 317.26 746.86 539.36 1005.39 1110.61 508.11 247.49 210.24 205.59 240.23 1170.85 459.75 826.27 860.17 511.96 393.30 516.99 304.87 770.92 928.60 668.54 935.64 605.29 1105.81 680.95 263.66 527.29 1120.63 238.03 528.07 589.18 215.74 536.16 234.64 529.09 848.62 959.39 187.26 497.64 531.70 244.71 641.66 649.79 1019.49 120.95 1145.28 208.57 561.03 204.73 533.01 1198.06 38.30 323.62 279.24 930.00 964.95 556.90 782.63 479.49 746.41 580.53 586.94 401.58 675.64 1133.93 979.11 627.03 509.43 0.00
DEMAND_SECTION
1 0
2 94
3 58
4 87
5 59
6 57
7 64
8 95
9 57
10 59
11 81
12 84
13 98
14 57
15 66
16 59
17 61
18 79
19 62
20 60
21 65
22 87
23 58
24 76
25 96
26 71
27 63
28 67
29 3
30 1
31 7
32 3
33 3
34 9
35 9
36 5
37 3
38 1
39 9
40 3
41 2
42 2
43 1
44 1
45 10
46 4
47 5
48 4
49 8
50 1
51 6
52 2
53 6
54 9
55 9
56 10
57 6
58 8
59 2
60 3
61 2
62 8
63 5
64 2
65 3
66 1
67 4
68 6
69 10
70 7
71 5
72 4
73 6
74 8
75 2
76 9
77 2
78 2
79 5
80 6
81 8
82 7
83 4
84 10
85 7
86 3
87 3
88 9
89 10
90 2
91 2
92 6
93 9
94 8
95 1
96 6
97 8
98 6
99 1
100 5
101 10
102 5
103 4
104 4
105 1
106 8
107 7
108 4
109 4
110 2
111 3
112 5
113 5
114 6
115 10
116 1
117 3
118 5
119 8
120 8
121 9
122 3
123 5
124 10
125 5
126 3
DEPOT_SECTION
1
-1
EOF
