NAME: LDG110_1165_rain_110_0248
COMMENT: CVRP with travel times.  rootPos=1,custPos=1,demandType=6,avgRouteSizeIndex=5,weather=rain,lambda_cluster=1,lambda_random=4, T1=300,T2=700,beta=1, alpha(i,j) ~ U(0.8,1.2)
TYPE: CVRP
DIMENSION: 111
EDGE_WEIGHT_TYPE: EXPLICIT
EDGE_WEIGHT_FORMAT: FULL_MATRIX
CAPACITY: 988
NODE_COORD_SECTION
1 665 330
2 281 636
3 729 546
4 742 485
5 815 326
6 344 722
7 789 397
8 762 967
9 110 450
10 460 617
11 881 694
12 935 415
13 196 570
14 326 108
15 139 911
16 99 616
17 298 967
18 258 851
19 480 951
20 807 384
21 633 43
22 522 256
23 865 914
24 165 625
25 133 334
26 201 564
27 616 529
28 239 616
29 71 444
30 611 793
31 873 922
32 353 129
33 561 970
34 188 771
35 448 179
36 168 46
37 447 375
38 122 934
39 602 138
40 604 530
41 147 880
42 802 611
43 841 265
44 474 447
45 580 496
46 283 331
47 978 212
48 370 560
49 330 563
50 18 437
51 568 921
52 474 777
53 904 396
54 879 697
55 756 539
56 745 505
57 501 530
58 837 316
59 156 32
60 554 793
61 531 453
62 528 494
63 554 633
64 845 150
65 550 545
66 334 842
67 701 501
68 7 705
69 274 106
70 105 388
71 163 410
72 313 658
73 347 358
74 848 475
75 724 367
76 128 630
77 497 155
78 915 383
79 471 690
80 195 763
81 20 64
82 234 904
83 637 1000
84 442 323
85 873 396
86 780 707
87 909 710
88 941 312
89 315 325
90 136 770
91 480 766
92 505 303
93 205 11
94 283 365
95 37 516
96 646 560
97 232 415
98 698 559
99 850 794
100 199 978
101 374 236
102 982 758
103 623 190
104 696 363
105 872 301
106 433 946
107 934 335
108 37 797
109 320 480
110 67 436
111 535 965
EDGE_WEIGHT_SECTION
0.00 516.14 251.47 188.66 157.81 504.16 178.01 638.85 603.22 365.97 425.56 303.26 559.18 458.09 783.45 686.14 704.46 712.83 649.93 169.70 337.30 220.65 588.06 594.64 541.51 574.21 204.00 562.89 611.75 495.05 569.21 453.74 657.56 674.03 345.15 628.07 292.28 820.89 250.58 217.82 760.68 329.44 239.83 239.64 194.04 380.03 366.88 438.87 414.43 614.14 646.73 495.15 276.99 434.88 246.65 202.04 260.73 198.08 623.25 486.17 222.99 215.35 334.65 264.49 261.62 625.84 179.71 806.63 516.29 577.74 504.05 489.82 378.28 210.82 78.20 648.25 293.74 297.67 409.85 654.71 718.34 749.54 711.80 323.07 234.83 374.47 427.95 307.48 326.64 678.08 476.97 241.61 650.59 413.17 690.44 217.08 482.79 249.95 439.69 837.76 336.02 535.16 224.52 52.16 250.12 662.52 281.41 815.74 465.28 625.39 627.80
516.14 0.00 458.20 462.83 625.53 157.08 564.21 617.67 262.83 304.51 655.54 703.32 146.43 628.80 323.01 181.10 424.54 260.50 382.40 580.08 709.66 468.42 657.68 140.92 398.24 147.99 336.02 61.98 286.86 396.47 658.44 613.49 465.26 228.61 547.71 646.28 333.12 360.45 584.60 322.20 282.11 549.34 644.19 299.31 370.88 364.77 754.06 164.55 124.88 340.89 382.09 270.05 673.30 661.28 494.62 492.49 255.41 585.26 672.28 359.28 358.31 300.79 313.99 779.98 321.20 258.75 469.50 354.19 580.07 339.71 303.24 47.84 326.79 587.61 536.52 194.53 583.34 698.43 258.25 247.93 637.45 322.90 509.11 403.43 656.95 571.98 713.08 720.84 378.43 244.08 251.87 427.04 720.94 347.51 295.83 392.42 290.81 443.23 677.44 404.71 443.82 732.07 606.85 505.51 637.30 426.49 692.31 299.60 202.25 293.41 437.54
251.47 458.20 0.00 62.81 237.45 431.58 164.19 489.00 634.68 284.15 228.44 259.33 523.75 588.66 725.74 596.22 583.52 596.33 519.78 180.06 472.74 395.65 398.03 558.73 625.44 538.78 149.60 479.79 682.46 355.18 379.18 555.82 504.06 632.99 447.23 775.88 394.54 759.45 454.73 136.00 728.11 104.47 319.47 301.09 195.30 501.10 427.22 387.33 432.40 709.09 454.24 355.19 249.91 237.76 36.42 69.69 237.91 261.51 798.70 279.47 241.69 247.83 237.46 413.55 202.18 549.62 110.05 734.60 634.21 649.38 578.80 467.00 463.77 169.59 207.28 612.34 511.41 267.95 370.50 631.89 851.09 667.66 527.81 409.32 256.93 158.74 273.23 306.77 482.79 655.26 340.86 372.26 776.46 481.50 709.97 110.96 537.15 44.88 313.56 717.77 521.65 310.19 375.22 199.31 274.21 520.42 333.65 757.80 429.07 668.82 474.30
188.66 462.83 62.81 0.00 178.14 436.21 101.38 485.75 637.41 288.78 254.25 241.46 581.78 561.18 736.10 632.33 611.87 659.14 552.78 117.25 478.07 340.70 460.84 563.45 627.81 573.90 154.45 519.92 663.46 362.58 441.99 546.72 566.87 637.62 438.13 753.04 369.06 773.54 433.92 140.63 732.74 167.28 257.63 273.83 168.04 460.28 367.50 391.96 437.03 697.95 486.01 418.00 210.47 263.57 65.49 30.73 283.51 198.70 757.17 342.28 194.23 238.13 264.16 350.74 206.81 586.36 47.24 763.67 611.37 586.57 566.71 494.47 416.31 125.75 174.88 617.06 448.60 243.29 370.02 642.11 788.28 672.35 579.33 363.39 194.12 221.55 313.95 270.37 435.33 664.00 403.67 325.95 734.93 418.69 722.01 121.32 498.19 107.69 375.26 746.12 475.34 364.58 400.33 136.50 211.40 583.23 280.62 762.43 433.70 649.82 537.11
157.81 625.53 237.45 178.14 0.00 576.21 76.76 663.89 748.78 466.92 392.40 187.43 654.33 526.27 889.04 778.45 790.01 824.23 680.92 74.62 380.46 350.11 568.52 724.59 667.88 669.36 327.62 673.51 761.54 519.15 587.37 541.47 721.25 788.73 445.28 726.14 427.81 926.48 310.92 318.77 872.74 282.31 82.02 397.45 323.99 506.40 209.07 552.27 519.17 740.51 664.15 570.90 148.67 401.72 213.83 208.87 389.78 40.27 746.19 516.92 372.37 344.40 410.40 177.23 365.76 726.36 203.81 911.37 584.47 707.42 653.84 618.87 504.65 177.57 107.53 755.73 361.92 157.75 526.59 783.76 867.07 842.94 655.32 416.82 142.88 396.19 392.83 164.30 453.01 789.39 552.72 335.36 723.60 539.54 809.55 274.26 607.25 274.05 496.60 924.26 484.75 488.03 231.41 145.91 92.31 738.27 147.32 905.06 543.17 770.67 703.94
504.16 157.08 431.58 436.21 576.21 0.00 537.59 564.98 403.94 147.43 563.86 657.16 247.56 655.04 337.43 280.60 316.31 248.02 311.20 553.46 714.70 489.89 606.69 250.55 461.19 262.59 309.40 197.93 411.51 333.54 625.54 626.79 392.18 212.52 579.93 749.59 344.48 359.81 595.96 295.58 296.53 536.05 604.61 344.21 358.90 431.80 785.28 244.73 187.00 450.02 372.52 173.19 622.02 554.54 468.00 465.87 244.15 616.48 775.59 262.42 329.44 288.81 253.20 702.42 296.23 150.15 436.83 436.86 627.34 394.07 417.84 109.24 363.27 561.96 517.27 213.89 594.70 620.09 200.61 231.84 785.05 292.67 431.34 414.79 576.61 458.39 607.37 691.38 414.91 232.22 155.01 438.40 767.61 439.52 407.18 365.80 420.23 404.91 596.03 350.22 480.30 669.01 600.20 478.89 635.95 269.41 685.79 385.10 238.73 425.15 362.42
178.01 564.21 164.19 101.38 76.76 537.59 0.00 587.13 717.95 390.16 355.63 182.03 577.57 585.98 812.28 733.71 713.25 755.43 630.35 33.77 448.00 347.12 562.22 652.24 719.52 592.60 253.90 621.06 757.57 449.26 543.37 553.14 668.25 726.32 444.55 759.14 409.40 849.72 378.46 242.01 812.97 268.66 158.78 366.16 269.42 558.04 284.02 475.51 466.72 785.50 587.39 494.14 143.27 364.95 137.07 132.11 313.02 115.22 744.18 443.66 295.61 267.64 333.64 253.99 308.19 677.70 133.92 835.25 631.53 687.95 668.09 542.11 517.69 113.72 116.34 684.04 428.48 161.74 456.70 707.00 834.58 766.18 666.01 413.83 110.64 322.93 351.98 168.99 504.65 730.37 475.96 332.37 684.48 520.07 732.79 197.50 576.46 204.16 455.75 847.50 452.26 465.31 298.95 142.92 167.10 661.51 179.24 863.81 518.67 743.93 638.49
638.85 617.67 489.00 485.75 663.89 564.98 587.13 0.00 858.52 569.23 337.59 574.66 717.90 924.72 631.43 794.09 534.02 511.11 341.18 596.10 935.20 806.29 168.34 731.32 928.59 702.87 582.67 658.52 801.46 318.58 149.49 961.51 241.09 640.48 866.31 1074.12 745.40 668.87 871.78 584.99 598.44 420.81 736.48 675.56 614.74 848.04 795.10 564.40 622.13 860.95 235.58 428.15 613.42 330.72 499.63 455.02 575.50 677.55 1096.94 402.65 669.74 620.88 514.15 829.59 547.16 468.43 504.37 775.21 932.45 888.56 827.53 569.83 765.74 540.87 612.13 778.87 917.00 611.73 537.23 652.58 1203.78 518.30 146.04 684.47 629.07 369.93 277.89 686.42 817.38 642.64 409.97 794.35 1074.70 855.23 889.88 526.27 779.97 463.96 220.41 597.66 821.46 290.22 839.83 604.90 697.15 342.92 677.43 779.07 679.08 815.10 270.85
603.22 262.83 634.68 637.41 748.78 403.94 717.95 858.52 0.00 443.24 805.24 840.09 156.38 453.47 506.76 262.99 614.41 451.26 645.23 730.67 729.14 500.63 894.47 231.05 135.41 155.65 512.50 240.75 67.93 621.32 913.32 431.30 671.57 354.64 514.29 463.83 383.88 533.87 635.36 498.68 480.90 739.15 799.66 363.58 469.37 290.18 905.27 320.29 301.13 93.98 644.92 531.70 812.75 795.92 671.10 645.17 411.26 770.46 470.03 622.11 445.63 450.31 547.34 835.87 515.31 521.58 595.82 246.62 491.22 76.88 128.99 310.67 292.21 724.38 676.97 220.49 573.77 817.99 483.57 361.72 518.23 512.77 712.48 447.70 792.19 727.80 847.28 858.18 303.30 379.36 514.70 449.14 487.13 244.76 136.41 568.90 194.80 604.29 874.76 562.41 410.40 910.39 623.27 638.59 777.84 654.64 853.60 347.14 205.61 54.29 700.37
365.97 304.51 284.15 288.78 466.92 147.43 390.16 569.23 443.24 0.00 460.49 509.73 302.62 527.75 468.46 343.55 463.74 395.45 355.84 406.03 567.27 424.12 523.80 274.67 517.16 287.59 161.97 328.38 484.00 250.65 542.65 490.96 402.97 348.84 528.94 689.80 356.84 505.90 568.30 148.15 443.96 388.62 518.86 245.99 214.99 356.45 656.28 152.97 205.21 480.49 390.01 232.92 474.59 460.44 320.57 318.44 172.53 487.48 712.62 215.24 182.01 189.96 105.77 628.77 148.80 297.58 295.45 512.15 548.13 478.91 416.10 256.67 349.68 414.53 369.84 328.28 544.01 472.66 94.86 368.16 802.50 383.57 467.40 300.15 429.18 366.22 513.27 557.11 386.74 379.65 222.12 387.71 674.43 311.03 433.23 218.37 368.54 269.18 496.20 471.79 437.14 574.91 488.79 331.46 488.52 361.00 538.36 521.42 267.65 497.53 410.07
425.56 655.54 228.44 254.25 392.40 563.86 355.63 337.59 805.24 460.49 0.00 356.47 648.86 802.47 770.31 753.36 633.09 628.77 491.74 342.11 701.18 556.91 252.35 695.90 833.39 663.89 347.16 681.73 830.24 372.78 260.87 769.63 464.21 673.74 661.04 971.98 570.34 800.11 670.82 333.34 741.59 124.15 451.57 449.15 343.36 694.67 505.36 565.77 540.34 856.79 402.91 446.55 331.82 9.32 255.69 223.52 420.83 392.64 977.12 336.55 426.02 387.13 370.74 569.63 370.75 509.94 272.87 916.44 830.31 838.58 764.89 632.40 626.09 264.25 380.63 749.51 685.50 340.55 412.35 693.06 999.67 652.46 435.84 582.33 322.61 110.29 59.70 384.91 667.12 753.77 428.37 545.90 971.83 672.94 835.08 299.35 690.98 273.32 131.35 740.68 695.29 123.79 592.04 373.40 421.97 535.17 406.25 846.32 626.41 843.88 434.45
303.26 703.32 259.33 241.46 187.43 657.16 182.03 574.66 840.09 509.73 356.47 0.00 698.68 662.60 931.82 828.42 808.93 855.66 726.79 161.04 521.86 452.25 539.78 773.35 819.36 713.71 392.12 706.81 853.88 483.38 548.94 629.76 716.17 858.57 521.17 849.82 536.67 969.26 452.32 382.09 890.92 283.68 173.45 497.59 409.50 624.87 220.44 599.92 636.70 906.61 671.28 602.21 38.76 349.60 222.91 216.00 469.90 167.76 870.31 538.80 426.40 449.67 458.91 303.71 404.90 799.97 265.35 921.09 708.15 816.41 789.39 698.99 648.48 115.71 225.06 826.21 549.35 37.07 578.54 848.88 973.18 855.40 672.91 525.41 84.17 389.82 296.77 111.76 629.90 887.25 591.21 452.89 815.03 660.15 884.90 359.37 683.46 291.90 419.42 860.65 590.86 427.47 372.81 263.44 140.11 767.44 102.77 901.82 645.90 840.24 686.41
559.18 146.43 523.75 581.78 654.33 247.56 577.57 717.90 156.38 302.62 648.86 698.68 0.00 507.72 357.19 179.18 458.03 294.88 524.29 611.34 669.56 476.76 804.11 74.67 260.49 15.03 446.01 101.04 181.38 542.90 794.11 483.93 603.14 216.95 428.53 569.74 331.35 394.63 582.83 441.15 324.52 628.22 736.35 378.72 413.92 252.96 852.01 202.48 144.75 207.93 519.97 398.53 696.42 639.54 547.86 568.79 358.73 692.71 543.74 483.23 401.35 343.83 406.72 740.47 382.12 381.58 549.11 287.52 452.26 233.26 170.28 189.73 277.62 680.92 556.39 127.53 512.37 661.61 342.95 205.34 606.18 356.39 571.86 401.66 688.21 644.99 692.37 746.56 277.60 229.79 380.35 425.27 594.51 207.54 186.22 494.76 191.72 478.87 759.90 406.03 394.65 754.01 597.57 594.77 725.31 498.26 727.31 341.72 153.08 195.02 575.42
458.09 628.80 588.66 561.18 526.27 655.04 585.98 924.72 453.47 527.75 802.47 662.60 507.72 0.00 849.78 626.79 879.72 770.04 883.59 559.06 334.63 274.78 924.90 582.39 332.68 499.70 527.67 576.29 467.49 777.42 906.05 36.79 861.18 670.79 141.43 199.87 310.56 850.02 287.26 513.85 808.88 686.24 564.53 373.43 459.11 270.81 691.21 523.61 518.80 511.18 841.77 680.82 623.84 811.79 612.77 585.86 473.49 537.99 219.92 693.35 387.57 445.09 606.70 546.15 510.15 776.09 536.51 700.09 58.20 399.80 433.74 601.22 322.27 644.90 479.18 609.30 164.35 658.65 553.07 673.65 364.69 824.70 886.71 240.25 625.73 717.54 855.00 665.48 270.63 723.41 680.33 282.96 200.45 300.18 557.69 538.61 398.76 543.78 788.05 874.34 210.89 891.96 360.40 443.06 590.03 848.19 631.43 762.20 446.81 473.33 888.18
783.45 323.01 725.74 736.10 889.04 337.43 812.28 631.43 506.76 468.46 770.31 931.82 357.19 849.78 0.00 323.38 212.87 149.39 411.01 846.05 975.81 739.71 731.21 290.75 565.79 351.11 630.43 356.59 486.79 541.38 750.06 812.99 464.62 178.99 785.72 824.87 638.16 37.44 889.64 616.61 40.90 710.45 939.19 616.12 638.19 596.05 1049.06 440.16 429.92 530.54 452.78 457.20 893.06 773.17 750.34 736.14 522.72 880.26 850.87 466.25 590.55 568.10 515.97 930.58 578.55 260.37 696.38 293.20 809.45 573.89 506.36 364.65 630.22 837.39 817.52 289.17 869.56 915.52 373.60 190.01 884.61 117.85 485.39 708.47 847.65 776.42 784.22 977.35 613.68 127.40 449.46 732.08 899.53 550.63 449.31 614.78 499.20 682.25 674.56 110.29 742.12 814.22 878.14 798.08 932.30 308.75 971.43 192.68 505.68 500.43 436.07
686.14 181.10 596.22 632.33 778.45 280.60 733.71 794.09 262.99 343.55 753.36 828.42 179.18 626.79 323.38 0.00 487.87 324.72 563.50 749.58 782.54 551.41 838.51 104.51 332.04 179.21 505.52 183.45 233.13 565.36 823.95 603.19 601.25 246.79 552.83 602.41 484.34 360.82 722.70 491.70 319.06 677.86 788.99 480.41 505.11 355.98 935.16 345.65 305.98 223.94 558.51 443.33 818.14 744.04 620.33 643.95 427.21 766.36 628.41 481.29 463.15 472.59 412.56 871.44 492.35 426.13 621.58 187.82 585.74 274.72 324.26 228.94 398.63 712.71 670.92 66.71 636.67 816.21 341.01 235.18 636.12 386.23 685.53 517.45 772.73 673.01 795.84 875.70 373.31 195.98 432.97 499.92 677.07 326.80 126.58 555.40 228.03 551.34 794.38 388.24 501.75 858.51 658.84 675.01 818.40 518.81 873.41 278.88 332.26 219.49 571.49
704.46 424.54 583.52 611.87 790.01 316.31 713.25 534.02 614.41 463.74 633.09 808.93 458.03 879.72 212.87 487.87 0.00 172.97 208.66 729.12 955.37 724.24 639.25 383.36 668.93 473.06 565.48 423.75 627.78 388.12 658.10 861.14 308.75 272.01 814.28 965.86 578.83 217.86 830.31 567.85 191.02 647.79 847.57 581.72 588.48 608.91 979.37 396.47 454.20 619.09 318.52 274.33 813.93 623.77 586.02 630.63 528.36 810.57 944.63 304.05 626.10 573.74 434.83 949.61 524.38 193.40 654.88 478.65 861.88 657.82 584.13 376.70 597.81 719.19 690.68 430.16 829.05 817.55 379.24 252.69 1020.03 101.64 387.98 649.14 768.52 606.43 676.60 882.24 649.45 304.50 292.51 672.75 1000.64 654.33 541.92 577.67 591.81 584.64 658.35 134.25 722.99 738.24 859.98 652.30 823.27 310.92 883.25 378.13 511.15 615.15 278.99
712.83 260.50 596.33 659.14 824.23 248.02 755.43 511.11 451.26 395.45 628.77 855.66 294.88 770.04 149.39 324.72 172.97 0.00 279.88 776.39 908.21 677.08 581.82 220.21 505.78 309.91 557.42 299.15 459.39 400.93 600.67 744.06 363.20 129.37 714.05 807.48 531.67 171.34 783.15 543.60 132.36 660.60 852.63 474.48 535.98 547.84 976.29 381.16 323.43 460.00 350.15 332.15 846.24 638.09 632.75 666.02 452.10 807.49 781.48 316.86 555.00 497.48 469.84 950.44 544.25 118.83 621.51 372.07 711.84 517.51 443.82 223.01 501.96 765.92 735.07 273.82 781.89 864.28 393.61 141.47 879.72 71.33 365.07 601.98 816.23 663.42 681.59 903.10 499.41 131.53 327.52 625.59 841.18 502.42 378.77 599.03 428.66 641.21 628.04 159.55 618.99 752.56 808.87 726.91 855.20 206.12 914.54 301.95 377.42 445.75 333.44
649.93 382.40 519.78 552.78 680.92 311.20 630.35 341.18 645.23 355.84 491.74 726.79 524.29 883.59 411.01 563.50 208.66 279.88 0.00 664.12 923.11 733.97 430.59 500.09 686.75 509.26 489.25 423.25 639.25 243.41 449.44 846.80 100.09 409.25 824.01 1001.43 643.66 426.52 886.18 480.31 386.78 520.83 762.94 551.51 536.33 682.04 889.99 455.53 435.42 675.34 109.86 244.12 717.98 482.42 556.20 522.05 500.04 721.19 1027.43 240.31 537.85 533.36 396.44 858.15 494.49 161.05 558.75 570.36 863.43 654.43 664.51 334.56 613.51 658.35 605.21 509.19 838.78 748.08 358.47 421.35 1019.85 297.40 195.14 655.99 738.56 397.77 535.25 799.34 651.00 411.41 262.30 682.48 1005.68 662.70 658.65 432.85 563.93 500.32 528.28 342.91 730.54 596.89 821.59 643.59 764.18 102.26 807.05 491.44 488.97 652.89 70.33
169.70 580.08 180.06 117.25 74.62 553.46 33.77 596.10 730.67 406.03 342.11 161.04 611.34 559.06 846.05 749.58 729.12 776.39 664.12 0.00 449.80 334.08 561.22 680.70 711.21 626.37 271.70 637.17 780.71 472.75 551.50 537.84 684.12 754.87 429.25 757.90 375.63 883.49 380.26 257.88 846.74 284.53 140.38 377.72 285.29 529.69 250.25 509.21 500.49 783.84 603.26 527.91 122.28 332.79 170.84 147.98 346.79 81.45 750.55 459.53 311.48 301.41 367.41 233.49 324.06 660.21 157.41 869.02 616.23 703.82 673.75 575.88 515.24 147.49 91.50 717.81 394.71 127.97 480.19 740.77 851.04 789.60 689.50 400.79 76.87 338.80 318.21 175.49 496.34 764.14 509.73 319.33 718.25 535.94 766.56 231.27 591.22 224.94 421.98 863.37 468.72 447.26 300.75 129.88 133.49 695.28 164.53 879.68 525.06 767.07 654.36
337.30 709.66 472.74 478.07 380.46 714.70 448.00 935.20 729.14 567.27 701.18 521.86 669.56 334.63 975.81 782.54 955.37 908.21 923.11 449.80 0.00 271.60 870.77 744.23 593.73 684.59 483.33 678.04 728.54 746.17 851.92 297.84 896.50 862.93 241.03 500.73 376.54 1013.25 212.99 497.15 970.41 577.21 424.44 436.53 467.92 498.64 496.79 617.09 584.78 756.52 839.46 720.98 527.63 710.50 509.16 480.18 488.16 415.10 485.77 730.33 385.26 442.78 574.20 361.65 489.04 864.85 430.83 957.08 382.50 660.85 655.64 685.64 480.89 548.12 376.75 797.09 214.07 521.78 632.12 843.61 667.89 950.84 962.92 395.57 482.22 631.48 745.97 503.33 469.02 855.03 702.80 282.62 426.07 512.59 806.78 527.27 554.51 501.07 776.99 980.51 344.92 782.93 149.05 389.46 418.74 888.35 494.50 1009.26 554.81 728.32 894.91
220.65 468.42 395.65 340.70 350.11 489.89 347.12 806.29 500.63 424.12 556.91 452.25 476.76 274.78 739.71 551.41 724.24 677.08 733.97 334.08 271.60 0.00 711.27 485.38 436.56 491.79 277.89 406.44 544.69 571.31 692.42 237.99 701.35 624.73 157.33 464.32 145.41 746.31 217.94 280.39 698.81 473.24 399.47 205.40 213.55 274.89 503.07 389.19 353.65 555.87 689.18 489.85 432.28 566.23 371.10 351.27 305.46 360.94 482.71 535.31 257.19 274.79 379.18 351.03 281.13 640.04 387.94 698.65 322.65 477.35 439.41 454.51 272.23 427.11 242.58 538.99 207.79 454.74 454.58 605.41 543.89 729.57 788.06 123.97 386.87 471.98 616.61 464.99 268.37 635.63 471.67 51.49 464.90 309.47 575.65 317.03 323.38 384.50 622.89 749.38 161.57 678.96 138.43 204.20 380.40 657.22 456.16 768.02 323.68 540.60 690.37
588.06 657.68 398.03 460.84 568.52 606.69 562.22 168.34 894.47 523.80 252.35 539.78 804.11 924.90 731.21 838.51 639.25 581.82 430.59 561.22 870.77 711.27 0.00 738.29 951.32 805.67 452.22 719.66 944.54 273.15 18.85 899.63 361.68 711.19 815.40 1074.30 708.81 753.16 838.64 466.04 714.18 362.35 587.18 603.51 497.72 830.40 655.81 644.91 702.64 978.08 400.19 433.50 565.53 243.03 434.45 455.05 562.97 528.25 1097.12 357.22 561.75 546.75 468.72 722.97 500.65 591.64 488.05 901.47 932.63 895.77 850.26 655.71 783.83 505.99 605.31 791.90 853.49 576.85 497.50 723.29 1159.29 653.15 298.28 684.65 574.96 239.29 243.01 535.36 802.85 713.35 451.68 697.19 1074.88 831.14 896.85 395.82 855.57 417.81 148.37 700.69 821.64 196.18 773.25 597.34 580.29 474.13 575.11 800.95 688.86 948.76 360.26
594.64 140.92 558.73 563.45 724.59 250.55 652.24 731.32 231.05 274.67 695.90 773.35 74.67 582.39 290.75 104.51 383.36 220.21 500.09 680.70 744.23 485.38 738.29 0.00 285.57 89.70 436.64 78.94 245.43 499.17 719.44 558.60 572.77 142.28 503.20 587.27 406.02 321.51 657.50 422.82 249.85 646.99 785.11 377.25 400.60 327.63 894.98 271.49 213.76 239.79 501.88 338.82 749.26 686.58 582.84 580.95 396.33 726.18 561.27 423.47 456.68 412.84 380.44 815.14 392.05 339.04 570.12 237.48 526.93 297.30 223.61 167.63 352.29 670.04 625.40 53.61 587.04 736.28 369.53 130.67 659.51 281.72 585.28 446.12 703.85 640.89 739.41 821.23 352.27 215.38 357.00 480.34 620.97 282.21 158.56 493.04 208.45 513.85 689.87 331.36 469.32 801.05 623.81 606.13 759.61 426.33 801.98 314.86 227.75 231.79 553.65
541.51 398.24 625.44 627.81 667.88 461.19 719.52 928.59 135.41 517.16 833.39 819.36 260.49 332.68 565.79 332.04 668.93 505.78 686.75 711.21 593.73 436.56 951.32 285.57 0.00 252.16 542.64 338.17 134.81 689.74 932.47 295.89 786.84 427.85 378.88 328.42 348.55 603.23 507.13 528.82 535.42 717.58 711.23 440.83 530.22 194.49 825.58 364.19 405.24 178.50 755.14 575.60 816.55 824.07 661.86 651.54 492.92 708.15 354.42 678.66 455.97 504.29 560.69 747.44 462.64 525.70 673.07 382.03 380.55 67.12 101.06 420.89 243.60 752.33 619.71 276.62 462.72 825.63 580.08 416.24 391.80 567.29 808.99 359.27 776.34 725.51 876.90 812.18 214.87 438.39 571.25 424.38 388.07 209.12 228.69 599.04 218.96 649.85 829.38 616.93 274.99 923.30 534.84 593.67 760.19 711.90 815.20 482.55 295.93 140.65 757.08
574.21 147.99 538.78 573.90 669.36 262.59 592.60 702.87 155.65 287.59 663.89 713.71 15.03 499.70 351.11 179.21 473.06 309.91 509.26 626.37 684.59 491.79 805.67 89.70 252.16 0.00 447.09 86.01 196.41 538.24 806.43 475.91 592.12 231.98 443.56 572.32 346.38 388.55 597.86 433.27 339.55 622.03 751.38 393.75 428.95 244.94 867.04 217.51 159.78 192.90 508.95 383.50 711.45 654.57 562.89 555.99 373.76 707.74 558.77 468.20 416.38 358.86 391.69 725.44 367.09 375.62 564.14 272.49 467.29 228.94 155.25 174.70 289.01 677.11 571.42 112.50 527.40 676.64 327.92 220.37 591.15 371.42 556.83 406.97 703.24 629.96 707.40 761.59 262.57 223.71 365.32 440.30 609.54 199.52 200.11 503.49 206.75 493.90 774.93 421.06 391.01 769.04 582.54 586.94 740.34 513.29 742.34 326.69 168.11 209.94 564.40
204.00 336.02 149.60 154.45 327.62 309.40 253.90 582.67 512.50 161.97 347.16 392.12 446.01 527.67 630.43 505.52 565.48 557.42 489.25 271.70 483.33 277.89 452.22 436.64 542.64 447.09 0.00 393.11 564.32 322.83 471.07 506.93 453.56 510.81 398.34 684.68 256.59 667.87 454.58 13.82 605.93 254.07 372.42 186.45 80.66 408.75 521.95 265.15 301.26 586.38 442.73 291.15 364.92 356.48 169.21 184.11 141.19 353.15 708.01 282.17 140.10 102.18 130.65 468.49 80.00 459.55 161.12 674.12 567.61 530.31 456.62 367.66 362.18 280.20 235.51 490.25 459.98 390.05 256.83 515.30 714.72 545.54 539.58 319.63 348.57 263.60 406.86 422.78 381.20 516.58 272.97 329.38 648.31 414.08 595.20 56.40 411.00 123.87 362.26 633.76 400.75 459.79 413.57 197.13 353.17 458.52 414.35 635.62 306.89 566.79 423.80
562.89 61.98 479.79 519.92 673.51 197.93 621.06 658.52 240.75 328.38 681.73 706.81 101.04 576.29 356.59 183.45 423.75 299.15 423.25 637.17 678.04 406.44 719.66 78.94 338.17 86.01 393.11 0.00 224.88 458.45 720.42 561.92 506.11 218.29 514.00 658.33 346.81 339.87 598.29 379.29 328.79 568.05 706.17 323.25 380.69 330.95 816.04 212.07 154.34 278.91 422.94 310.90 729.70 674.54 503.90 502.01 317.39 647.24 640.21 400.13 405.30 353.42 310.99 757.47 313.11 289.61 505.15 292.21 518.09 304.96 241.26 88.69 293.08 591.10 565.98 132.55 574.64 728.04 318.39 198.97 677.16 336.37 549.96 417.12 701.07 571.44 727.37 770.91 344.72 229.19 292.72 440.73 660.34 285.53 237.50 449.51 228.83 434.91 701.42 399.66 410.11 772.92 544.87 532.96 699.28 467.34 754.29 361.58 168.54 231.43 478.39
611.75 286.86 682.46 663.46 761.54 411.51 757.57 801.46 67.93 484.00 830.24 853.88 181.38 467.49 486.79 233.13 627.78 459.39 639.25 780.71 728.54 544.69 944.54 245.43 134.81 196.41 564.32 224.88 0.00 683.33 939.11 430.70 730.99 387.71 500.93 455.38 426.28 524.23 629.18 550.50 495.28 786.93 772.68 430.93 534.87 272.22 939.27 357.21 299.48 59.49 647.82 535.78 873.93 820.92 682.49 637.88 444.55 770.47 429.38 625.01 512.98 489.93 535.87 829.88 537.99 508.45 663.17 278.83 484.43 87.10 107.70 313.57 302.76 789.21 689.95 197.62 584.32 842.99 523.90 376.10 477.58 527.15 753.24 420.72 846.58 793.30 873.75 873.63 308.53 359.39 517.60 497.50 489.08 244.77 106.55 611.70 225.61 637.58 897.62 565.04 397.04 935.39 617.28 663.91 822.51 665.51 877.52 379.35 273.54 13.64 703.27
495.05 396.47 355.18 362.58 519.15 333.54 449.26 318.58 621.32 250.65 372.78 483.38 542.90 777.42 541.38 565.36 388.12 400.93 243.41 472.75 746.17 571.31 273.15 499.17 689.74 538.24 322.83 458.45 683.33 0.00 292.00 741.61 290.03 502.81 675.44 937.63 520.11 520.96 700.23 336.65 512.91 327.76 589.59 440.38 357.76 607.10 694.28 371.76 429.49 715.30 225.57 160.35 522.14 382.10 318.76 363.37 373.47 554.20 963.27 84.07 394.42 336.90 195.57 689.35 290.18 387.29 315.34 688.18 798.78 622.62 634.89 382.56 540.25 414.94 507.11 521.53 710.13 520.45 224.35 483.49 949.44 423.53 216.75 550.80 511.71 262.49 432.48 594.75 591.89 500.57 178.53 553.83 925.08 561.68 657.73 338.41 587.33 385.58 319.20 511.75 657.28 458.86 620.72 499.08 523.91 327.72 586.15 667.36 415.71 675.61 278.90
569.21 658.44 379.18 441.99 587.37 625.54 543.37 149.49 913.32 542.65 260.87 548.94 794.11 906.05 750.06 823.95 658.10 600.67 449.44 551.50 851.92 692.42 18.85 719.44 932.47 806.43 471.07 720.42 939.11 292.00 0.00 880.78 380.53 730.04 796.55 1055.45 718.86 772.01 819.79 470.22 733.03 343.50 606.03 584.66 478.87 830.18 674.66 663.76 721.49 959.23 385.07 452.35 574.05 251.55 415.60 436.20 581.82 547.10 1078.27 376.07 561.53 548.96 480.89 741.82 483.31 610.49 469.20 920.32 913.78 905.10 831.41 674.56 776.90 515.15 586.46 773.05 862.95 586.01 510.42 742.14 1161.50 667.79 295.53 665.80 583.48 220.44 252.17 554.21 802.63 732.20 470.53 716.04 1056.03 812.29 878.00 414.67 857.78 398.96 129.52 681.84 802.79 177.33 754.40 578.49 599.14 455.28 593.96 819.80 707.71 951.23 379.11
453.74 613.49 555.82 546.72 541.47 626.79 553.14 961.51 431.30 490.96 769.63 629.76 483.93 36.79 812.99 603.19 861.14 744.06 846.80 537.84 297.84 237.99 899.63 558.60 295.89 475.91 506.93 561.92 430.70 741.61 880.78 0.00 893.93 634.00 108.59 226.33 282.31 813.23 278.46 493.11 772.09 653.40 527.74 368.46 426.27 266.58 670.00 497.63 490.55 474.39 864.42 675.74 591.00 778.95 579.93 553.02 443.35 501.20 249.15 698.29 424.36 465.52 591.90 537.35 493.85 750.11 503.67 677.92 84.66 363.01 396.95 565.65 296.29 608.11 446.34 572.51 192.43 625.81 585.82 653.32 401.48 804.37 923.50 277.04 592.89 684.70 822.16 628.69 244.65 699.62 657.56 246.26 226.91 276.39 524.58 529.75 375.16 510.94 751.26 854.01 174.10 859.12 327.56 410.22 553.24 843.11 608.25 725.41 411.24 436.54 893.12
657.56 465.26 504.06 566.87 721.25 392.18 668.25 241.09 671.57 402.97 464.21 716.17 603.14 861.18 464.62 601.25 308.75 363.20 100.09 684.12 896.50 701.35 361.68 572.77 786.84 592.12 453.56 506.11 730.99 290.03 380.53 893.93 0.00 492.57 791.39 1052.44 636.93 477.79 844.62 439.74 423.72 438.94 752.64 541.34 506.58 718.40 874.83 445.36 503.09 758.20 83.17 233.95 677.41 454.89 540.48 538.45 457.23 707.43 1036.78 224.59 511.24 453.72 380.72 873.86 478.77 261.14 587.04 665.97 910.77 748.45 708.49 417.42 646.70 622.88 661.43 606.07 806.16 695.72 308.11 504.67 1066.26 397.49 95.05 674.52 697.99 438.23 471.19 759.09 698.34 479.91 252.13 649.86 1053.02 714.00 690.85 508.19 660.93 544.26 461.50 411.82 781.09 531.31 765.11 623.05 686.96 157.08 761.42 565.45 560.04 725.86 29.76
674.03 228.61 632.99 637.62 788.73 212.52 726.32 640.48 354.64 348.84 673.74 858.57 216.95 670.79 178.99 246.79 272.01 129.37 409.25 754.87 862.93 624.73 711.19 142.28 427.85 231.98 510.81 218.29 387.71 502.81 730.04 634.00 492.57 0.00 645.48 729.55 494.76 179.23 746.24 496.99 138.09 694.93 817.13 437.13 484.92 469.91 938.94 269.47 286.52 382.07 479.52 342.46 823.43 664.42 669.41 652.20 413.30 770.14 703.55 446.23 501.30 458.68 454.61 907.58 464.49 248.20 644.29 242.70 666.75 431.52 365.77 185.66 464.61 757.32 698.16 195.89 729.32 821.50 358.57 19.32 801.67 170.37 494.44 565.07 778.02 670.91 717.25 866.30 494.55 80.03 341.57 580.31 763.25 424.49 300.84 567.21 350.73 606.33 727.08 220.01 581.64 778.89 763.16 680.30 822.18 335.49 877.19 172.58 340.07 374.07 462.81
345.15 547.71 447.23 438.13 445.28 579.93 444.55 866.31 514.29 528.94 661.04 521.17 428.53 141.43 785.72 552.83 814.28 714.05 824.01 429.25 241.03 157.33 815.40 503.20 378.88 443.56 398.34 514.00 500.93 675.44 796.55 108.59 791.39 645.48 0.00 328.65 235.45 823.16 169.87 384.52 753.05 544.81 496.90 295.44 317.68 257.61 580.80 441.20 443.69 519.83 779.22 579.89 482.41 670.36 471.34 444.43 395.50 474.07 351.47 639.44 346.93 387.77 483.31 428.76 385.26 693.68 395.08 716.05 186.98 439.44 414.61 499.87 239.86 509.45 337.75 556.06 83.84 517.22 544.62 633.87 486.21 774.93 886.44 240.88 484.30 576.11 713.57 563.07 232.33 658.32 561.71 141.53 329.23 271.56 580.20 421.16 370.33 402.35 683.38 834.56 103.89 750.53 218.97 301.63 522.91 747.26 550.92 770.25 345.46 487.29 794.50
628.07 646.28 775.88 753.04 726.14 749.59 759.14 1074.12 463.83 689.80 971.98 849.82 569.74 199.87 824.87 602.41 965.86 807.48 1001.43 757.90 500.73 464.32 1074.30 587.27 328.42 572.32 684.68 658.33 455.38 937.63 1055.45 226.33 1052.44 729.55 328.65 0.00 428.09 862.31 487.13 686.63 837.12 873.46 716.24 522.83 628.62 407.49 859.57 607.08 566.01 506.92 1001.12 818.49 811.06 981.30 795.15 773.08 622.89 727.53 26.00 880.94 582.59 611.30 756.10 718.40 671.92 854.12 723.73 706.93 141.67 395.54 417.07 666.87 405.74 834.44 666.40 535.70 364.22 845.87 752.94 717.94 230.45 868.99 1086.58 389.65 812.14 871.76 1006.53 817.19 354.10 697.47 836.67 457.22 74.66 414.12 534.65 688.01 452.20 731.00 977.59 918.63 316.52 1078.74 505.80 630.28 779.57 985.86 831.30 782.29 521.92 441.74 1033.02
292.28 333.12 394.54 369.06 427.81 344.48 409.40 745.40 383.88 356.84 570.34 536.67 331.35 310.56 638.16 484.34 578.83 531.67 643.66 375.63 376.54 145.41 708.81 406.02 348.55 346.38 256.59 346.81 426.28 520.11 718.86 282.31 636.93 494.76 235.45 428.09 0.00 673.99 251.48 258.54 615.23 493.28 418.01 134.20 239.99 154.06 567.76 265.97 208.24 467.56 627.62 441.59 497.91 561.02 418.67 374.06 228.59 457.08 454.09 452.85 174.83 183.21 355.47 496.44 257.42 494.63 343.55 600.44 318.29 356.18 318.58 309.10 139.61 494.81 321.75 458.88 250.22 503.60 377.71 476.88 526.48 584.16 731.98 70.31 452.50 498.42 611.51 515.46 191.25 510.76 457.42 93.92 460.54 188.30 430.24 312.99 270.44 379.57 618.85 672.38 144.16 650.65 283.84 283.37 444.88 584.71 520.64 632.72 178.27 419.43 647.68
820.89 360.45 759.45 773.54 926.48 359.81 849.72 668.87 533.87 505.90 800.11 969.26 394.63 850.02 37.44 360.82 217.86 171.34 426.52 883.49 1013.25 746.31 753.16 321.51 603.23 388.55 667.87 339.87 524.23 520.96 772.01 813.23 477.79 179.23 823.16 862.31 673.99 0.00 925.47 654.05 78.34 747.89 964.42 616.36 664.15 633.49 1086.50 448.70 465.75 545.93 490.22 478.55 930.50 809.43 787.78 773.58 560.16 917.70 882.78 479.98 627.99 605.54 553.41 968.02 615.99 290.17 733.82 327.49 845.98 601.55 543.80 364.89 632.95 874.83 854.96 326.61 907.00 952.96 411.04 198.55 885.65 155.29 522.83 744.30 885.09 783.45 821.66 1014.79 651.12 164.84 486.90 759.54 936.97 588.07 439.98 652.22 529.96 719.69 712.00 117.28 749.98 851.66 884.74 835.52 969.74 346.19 1008.87 230.12 508.41 532.89 473.51
250.58 584.60 454.73 433.92 310.92 595.96 378.46 871.78 635.36 568.30 670.82 452.32 582.83 287.26 889.64 722.70 830.31 783.15 886.18 380.26 212.99 217.94 838.64 657.50 507.13 597.86 454.58 598.29 629.18 700.23 819.79 278.46 844.62 746.24 169.87 487.13 251.48 925.47 0.00 468.40 866.71 559.20 392.94 334.67 431.49 385.86 410.93 517.45 459.72 648.08 816.74 642.06 459.59 662.23 491.15 447.30 434.73 345.56 489.33 660.79 407.06 390.90 504.66 258.89 419.50 746.11 430.29 851.92 345.46 574.25 542.86 560.58 384.00 461.40 307.21 704.69 176.69 440.52 583.85 728.36 614.46 835.64 916.98 321.79 422.96 613.47 678.53 415.17 360.58 762.24 646.98 269.43 487.71 429.81 681.72 467.66 510.32 499.61 690.27 923.86 232.14 764.92 79.51 297.42 397.60 809.43 432.66 884.20 429.75 615.54 855.62
217.82 322.20 136.00 140.63 318.77 295.58 242.01 584.99 498.68 148.15 333.34 382.09 441.15 513.85 616.61 491.70 567.85 543.60 480.31 257.88 497.15 280.39 466.04 422.82 528.82 433.27 13.82 379.29 550.50 336.65 470.22 493.11 439.74 496.99 384.52 686.63 258.54 654.05 468.40 0.00 592.11 240.47 378.58 172.63 66.84 394.93 508.13 251.33 296.40 573.09 443.12 293.52 351.10 342.66 172.42 170.29 155.01 339.33 712.63 268.35 126.28 116.00 144.47 480.62 66.18 445.73 147.30 660.30 553.79 516.49 442.80 353.84 348.36 266.38 221.69 476.43 446.16 376.23 243.01 501.48 728.54 531.72 534.79 305.81 334.75 249.78 393.04 408.96 367.38 527.80 275.34 326.54 662.13 400.26 581.38 70.22 424.82 121.03 376.08 619.94 402.70 446.19 406.17 183.31 352.03 460.89 421.25 621.80 293.07 552.97 409.98
760.68 282.11 728.11 732.74 872.74 296.53 812.97 598.44 480.90 443.96 741.59 890.92 324.52 808.88 40.90 319.06 191.02 132.36 386.78 846.74 970.41 698.81 714.18 249.85 535.42 339.55 605.93 328.79 495.28 512.91 733.03 772.09 423.72 138.09 753.05 837.12 615.23 78.34 866.71 592.11 0.00 751.35 901.14 575.22 615.42 577.48 1036.17 399.26 406.99 489.64 466.80 428.73 852.16 732.27 721.87 762.40 499.95 867.37 811.12 449.22 602.85 545.33 549.73 971.48 592.76 231.90 733.36 287.63 776.78 547.15 473.46 323.75 600.60 854.14 794.75 303.46 836.89 874.62 414.50 149.11 843.71 89.38 461.64 669.79 806.75 754.92 768.74 936.45 602.12 163.89 420.99 709.15 870.82 532.06 408.41 655.68 458.30 692.98 646.09 122.60 719.17 785.75 837.24 775.42 919.41 324.78 930.53 187.11 477.60 481.64 452.10
329.44 549.34 104.47 167.28 282.31 536.05 268.66 420.81 739.15 388.62 124.15 283.68 628.22 686.24 710.45 677.86 647.79 660.60 520.83 284.53 577.21 473.24 362.35 646.99 717.58 622.03 254.07 568.05 786.93 327.76 343.50 653.40 438.94 694.93 544.81 873.46 493.28 747.89 559.20 240.47 751.35 0.00 327.42 381.97 299.77 605.57 437.29 449.96 507.69 813.56 478.12 459.66 291.59 133.47 140.89 174.16 342.38 268.49 852.97 343.74 346.16 339.06 341.93 459.54 254.94 611.63 149.73 837.63 731.79 753.85 683.27 509.27 548.57 183.94 311.75 699.19 578.05 256.78 336.85 676.10 951.60 695.18 423.34 513.44 293.91 123.06 168.76 320.15 587.26 742.88 445.33 421.75 874.04 585.97 804.44 215.43 636.28 149.35 230.75 772.16 571.14 205.72 479.69 303.78 320.53 517.42 322.48 793.33 533.54 773.29 468.70
239.83 644.19 319.47 257.63 82.02 604.61 158.78 736.48 799.66 518.86 451.57 173.45 736.35 564.53 939.19 788.99 847.57 852.63 762.94 140.38 424.44 399.47 587.18 785.11 711.23 751.38 372.42 706.17 772.68 589.59 606.03 527.74 752.64 817.13 496.90 716.24 418.01 964.42 392.94 378.58 901.14 327.42 0.00 459.22 406.01 530.63 221.40 609.00 601.19 783.86 743.64 652.92 134.69 457.19 295.85 288.36 471.80 58.93 701.28 598.94 377.17 426.42 492.42 170.16 415.12 754.76 285.83 976.81 599.94 740.53 695.15 643.41 548.00 228.28 189.55 805.09 443.94 161.66 608.61 836.45 871.27 897.28 737.34 351.96 161.54 450.48 458.59 100.95 496.36 836.83 634.74 384.72 641.58 572.65 848.25 356.28 638.04 356.07 558.17 954.83 488.95 533.14 313.43 195.27 65.68 820.29 140.70 943.79 596.28 786.32 782.34
239.64 299.31 301.09 273.83 397.45 344.21 366.16 675.56 363.58 245.99 449.15 497.59 378.72 373.43 616.12 480.41 581.72 474.48 551.51 377.72 436.53 205.40 603.51 377.25 440.83 393.75 186.45 323.25 430.93 440.38 584.66 368.46 541.34 437.13 295.44 522.83 134.20 616.36 334.67 172.63 575.22 381.97 459.22 0.00 105.79 270.65 606.52 221.93 248.72 454.18 495.96 307.39 469.69 458.47 318.06 281.59 100.06 437.72 545.65 389.46 82.05 103.48 252.87 504.13 173.37 462.38 232.24 610.20 381.16 440.46 392.92 251.47 197.23 399.58 317.84 430.86 310.21 496.48 249.18 456.45 652.49 526.53 620.97 133.18 428.61 364.22 483.70 494.60 239.09 507.48 323.22 153.91 523.41 286.72 494.31 209.27 385.49 262.26 515.13 614.75 270.17 570.92 343.83 291.80 464.80 474.76 521.05 598.91 225.64 417.87 551.41
194.04 370.88 195.30 168.04 323.99 358.90 269.42 614.74 469.37 214.99 343.36 409.50 413.92 459.11 638.19 505.11 588.48 535.98 536.33 285.29 467.92 213.55 497.72 400.60 530.22 428.95 80.66 380.69 534.87 357.76 478.87 426.27 506.58 484.92 317.68 628.62 239.99 664.15 431.49 66.84 615.42 299.77 406.01 105.79 0.00 351.31 533.06 254.01 269.17 559.97 477.71 323.33 378.51 352.68 231.72 198.77 115.47 364.26 651.44 321.76 82.66 70.09 165.63 458.53 67.58 509.05 214.14 638.08 486.95 501.30 481.44 344.56 298.03 293.79 254.51 454.21 401.52 411.33 264.59 504.16 682.63 570.29 574.51 238.97 362.16 258.43 403.06 438.41 323.76 532.82 307.95 259.70 629.20 333.42 559.16 103.48 378.91 170.95 409.34 658.51 375.12 467.15 351.98 216.13 359.01 477.10 434.77 657.50 303.82 523.66 476.82
380.03 364.77 501.10 460.28 506.40 431.80 558.04 848.04 290.18 356.45 694.67 624.87 252.96 270.81 596.05 355.98 608.91 547.84 682.04 529.69 498.64 274.89 830.40 327.63 194.49 244.94 408.75 330.95 272.22 607.10 830.18 266.58 718.40 469.91 257.61 407.49 154.06 633.49 385.86 394.93 577.48 605.57 530.63 270.65 351.31 0.00 704.31 283.64 264.58 324.68 681.73 484.45 651.97 687.61 525.77 491.01 314.25 546.67 430.31 571.69 268.65 309.80 462.22 585.96 391.23 536.12 497.61 517.43 265.82 213.30 164.52 347.48 82.30 586.03 458.23 357.44 341.45 644.16 451.31 458.30 515.27 609.35 798.03 197.79 606.56 609.74 738.10 631.58 53.39 468.65 466.27 247.98 391.73 45.42 369.46 434.58 127.95 502.05 740.44 658.99 153.72 777.24 373.36 432.19 596.31 651.82 653.72 570.35 193.07 276.55 715.36
366.88 754.06 427.22 367.50 209.07 785.28 284.02 795.10 905.27 656.28 505.36 220.44 852.01 691.21 1049.06 935.16 979.37 976.29 889.99 250.25 496.79 503.07 655.81 894.98 825.58 867.04 521.95 816.04 939.27 694.28 674.66 670.00 874.83 938.94 580.80 859.57 567.76 1086.50 410.93 508.13 1036.17 437.29 221.40 606.52 533.06 704.31 0.00 737.08 716.76 949.58 829.54 759.49 217.13 514.68 418.87 374.26 585.88 168.80 833.57 706.69 533.00 540.50 617.17 152.04 563.16 910.46 378.94 1108.25 747.44 862.38 842.52 753.28 702.45 300.26 305.12 948.59 550.75 190.40 701.72 958.26 932.91 1028.34 855.23 573.36 250.15 560.35 517.21 120.45 662.08 998.14 751.44 532.95 862.98 694.50 998.00 481.52 793.27 449.18 622.17 1039.02 550.59 605.14 364.64 343.50 187.87 924.72 127.69 1053.66 746.03 925.63 864.41
438.87 164.55 387.33 391.96 552.27 244.73 475.51 564.40 320.29 152.97 565.77 599.92 202.48 523.61 440.16 345.65 396.47 381.16 455.53 509.21 617.09 389.19 644.91 271.49 364.19 217.51 265.15 212.07 357.21 371.76 663.76 497.63 445.36 269.47 441.20 607.08 265.97 448.70 517.45 251.33 399.26 449.96 609.00 221.93 254.01 283.64 737.08 0.00 57.73 400.08 447.10 211.41 602.43 556.45 423.75 383.92 178.14 589.57 629.90 316.83 231.83 223.52 258.03 703.36 195.02 369.50 398.63 449.93 465.41 336.82 263.13 158.59 201.34 487.85 453.25 301.25 482.90 609.95 241.01 250.15 661.00 378.76 524.99 336.28 582.15 457.89 609.28 638.54 252.98 349.50 229.59 337.70 607.66 290.83 388.70 321.55 215.57 371.17 594.93 450.84 353.20 655.68 527.62 414.87 553.95 378.78 609.39 442.05 114.68 346.76 442.82
414.43 124.88 432.40 437.03 519.17 187.00 466.72 622.13 301.13 205.21 540.34 636.70 144.75 518.80 429.92 305.98 454.20 323.43 435.42 500.49 584.78 353.65 702.64 213.76 405.24 159.78 301.26 154.34 299.48 429.49 721.49 490.55 503.09 286.52 443.69 566.01 208.24 465.75 459.72 296.40 406.99 507.69 601.19 248.72 269.17 264.58 716.76 57.73 0.00 352.68 435.11 269.14 609.99 549.66 468.82 441.65 235.87 547.96 592.01 374.56 256.60 199.08 273.34 678.92 252.75 311.77 412.13 392.20 523.14 378.01 306.80 100.86 259.07 536.17 411.64 267.37 458.46 628.46 298.74 268.64 704.71 375.92 562.13 278.55 577.36 515.62 600.04 619.13 310.71 302.52 287.32 302.16 640.67 273.59 330.97 350.01 233.23 417.43 652.66 464.14 344.40 664.13 492.08 450.02 600.00 436.51 645.96 424.48 158.39 313.12 490.56
614.14 340.89 709.09 697.95 740.51 450.02 785.50 860.95 93.98 480.49 856.79 906.61 207.93 511.18 530.54 223.94 619.09 460.00 675.34 783.84 756.52 555.87 978.08 239.79 178.50 192.90 586.38 278.91 59.49 715.30 959.23 474.39 758.20 382.07 519.83 506.92 467.56 545.93 648.08 573.09 489.64 813.56 783.86 454.18 559.97 324.68 949.58 400.08 352.68 0.00 675.03 562.99 889.18 847.47 741.98 697.37 504.04 780.78 488.87 652.22 528.60 544.29 584.59 820.07 559.99 533.42 686.42 278.23 463.05 111.38 167.19 340.78 339.14 818.36 692.34 257.11 603.67 869.54 520.82 370.46 458.28 517.45 749.73 431.90 848.97 818.40 900.30 884.81 287.50 416.61 544.81 514.34 521.63 279.26 105.95 642.78 242.45 686.80 897.02 571.15 415.94 961.94 607.47 666.30 832.82 666.12 887.83 378.75 299.59 73.13 730.48
646.73 382.09 454.24 486.01 664.15 372.52 587.39 235.58 644.92 390.01 402.91 671.28 519.97 841.77 452.78 558.51 318.52 350.15 109.86 603.26 839.46 689.18 400.19 501.88 755.14 508.95 442.73 422.94 647.82 225.57 385.07 864.42 83.17 479.52 779.22 1001.12 627.62 490.22 816.74 443.12 466.80 478.12 743.64 495.96 477.71 681.73 829.54 447.10 435.11 675.03 0.00 235.69 694.68 393.59 490.66 455.28 455.25 684.71 1027.12 174.77 454.20 473.03 312.08 836.75 410.13 234.90 504.63 644.01 877.12 688.02 664.20 334.25 613.20 611.76 612.39 555.49 781.62 666.11 315.05 487.07 1019.54 377.42 127.02 629.14 680.13 355.06 446.42 756.38 664.84 466.86 217.51 637.69 1017.54 689.45 660.44 454.92 651.77 499.12 455.99 398.77 730.23 508.06 737.23 601.57 697.41 144.03 731.81 543.49 488.66 654.37 55.45
495.15 270.05 355.19 418.00 570.90 173.19 494.14 428.15 531.70 232.92 446.55 602.21 398.53 680.82 457.20 443.33 274.33 332.15 244.12 527.91 720.98 489.85 433.50 338.82 575.60 383.50 291.15 310.90 535.78 160.35 452.35 675.74 233.95 342.46 579.89 818.49 441.59 478.55 642.06 293.52 428.73 459.66 652.92 307.39 323.33 484.45 759.49 211.41 269.14 562.99 235.69 0.00 605.10 437.23 379.30 402.92 255.92 600.82 841.31 125.24 358.82 301.30 160.50 739.96 258.55 226.94 380.55 576.30 676.82 548.23 474.54 222.21 412.75 512.47 515.21 387.08 594.66 610.83 138.06 323.14 872.41 339.35 313.58 440.57 576.92 358.69 490.06 661.96 464.39 405.41 18.18 438.36 819.07 502.24 497.38 303.34 426.98 310.31 459.20 408.58 564.61 551.70 585.65 476.83 629.40 167.37 673.38 507.01 326.09 542.33 263.71
276.99 673.30 249.91 210.47 148.67 622.02 143.27 613.42 812.75 474.59 331.82 38.76 696.42 623.84 893.06 818.14 813.93 846.24 717.98 122.28 527.63 432.28 565.53 749.26 816.55 711.45 364.92 729.70 873.93 522.14 574.05 591.00 677.41 823.43 482.41 811.06 497.91 930.50 459.59 351.10 852.16 291.59 134.69 469.69 378.51 651.97 217.13 602.43 609.99 889.18 694.68 605.10 0.00 322.50 245.77 241.20 456.29 129.00 831.55 529.38 387.64 410.91 449.63 264.95 417.28 772.17 241.78 943.95 669.39 797.04 777.18 685.38 609.72 154.47 198.79 802.87 510.59 34.81 564.56 842.75 949.24 858.16 699.64 486.65 45.41 408.65 335.53 109.91 601.68 854.24 590.77 417.53 776.27 629.16 852.43 331.79 680.01 294.79 444.53 821.89 566.92 436.97 380.08 228.08 137.18 770.33 89.44 940.58 607.14 860.29 647.65
434.88 661.28 237.76 263.57 401.72 554.54 364.95 330.72 795.92 460.44 9.32 349.60 639.54 811.79 773.17 744.04 623.77 638.09 482.42 332.79 710.50 566.23 243.03 686.58 824.07 654.57 356.48 674.54 820.92 382.10 251.55 778.95 454.89 664.42 670.36 981.30 561.02 809.43 662.23 342.66 732.27 133.47 457.19 458.47 352.68 687.61 514.68 556.45 549.66 847.47 393.59 437.23 322.50 0.00 246.37 232.84 423.19 401.96 986.44 345.87 435.33 377.81 377.31 566.28 361.43 519.26 282.19 907.12 839.63 829.26 755.57 623.08 635.41 273.57 389.95 740.19 694.82 349.87 403.03 683.74 990.35 661.78 428.97 591.65 331.93 119.61 52.83 394.23 676.43 744.45 419.05 555.22 981.15 682.26 825.76 308.67 686.63 282.64 122.03 750.00 704.61 114.47 582.72 382.72 412.65 528.30 411.94 837.00 628.84 834.56 425.13
246.65 494.62 36.42 65.49 213.83 468.00 137.07 499.63 671.10 320.57 255.69 222.91 547.86 612.77 750.34 620.33 586.02 632.75 556.20 170.84 509.16 371.10 434.45 582.84 661.86 562.89 169.21 503.90 682.49 318.76 415.60 579.93 540.48 669.41 471.34 795.15 418.67 787.78 491.15 172.42 721.87 140.89 295.85 318.06 231.72 525.77 418.87 423.75 468.82 741.98 490.66 379.30 245.77 246.37 0.00 44.61 262.02 252.29 769.15 315.89 259.72 271.39 261.57 391.06 233.51 577.06 89.28 698.18 658.32 652.06 615.22 491.11 481.80 133.17 201.72 636.45 494.23 231.53 394.61 656.00 853.77 632.49 535.51 426.67 224.84 195.16 269.01 306.06 500.82 679.37 368.30 337.93 792.92 484.18 734.08 136.46 512.07 68.99 335.96 720.27 487.32 328.24 411.64 194.49 276.89 544.53 297.23 794.22 465.49 668.85 510.72
202.04 492.49 69.69 30.73 208.87 465.87 132.11 455.02 645.17 318.44 223.52 216.00 568.79 585.86 736.14 643.95 630.63 666.02 522.05 147.98 480.18 351.27 455.05 580.95 651.54 555.99 184.11 502.01 637.88 363.37 436.20 553.02 538.45 652.20 444.43 773.08 374.06 773.58 447.30 170.29 762.40 174.16 288.36 281.59 198.77 491.01 374.26 383.92 441.65 697.37 455.28 402.92 241.20 232.84 44.61 0.00 285.64 229.43 770.55 349.16 224.96 262.40 242.91 381.47 188.90 593.99 49.35 742.79 631.41 617.30 587.06 514.73 447.04 156.48 157.11 633.15 461.98 226.03 362.54 632.88 819.01 677.10 580.12 394.12 224.85 215.76 283.22 301.10 466.06 694.73 385.23 339.33 748.31 449.42 717.15 152.05 467.46 92.61 354.87 764.88 488.72 333.85 384.81 149.88 242.13 568.15 291.73 792.09 463.36 624.24 510.73
260.73 255.41 237.91 283.51 389.78 244.15 313.02 575.50 411.26 172.53 420.83 469.90 358.73 473.49 522.72 427.21 528.36 452.10 500.04 346.79 488.16 305.46 562.97 396.33 492.92 373.76 141.19 317.39 444.55 373.47 581.82 443.35 457.23 413.30 395.50 622.89 228.59 560.16 434.73 155.01 499.95 342.38 471.80 100.06 115.47 314.25 585.88 178.14 235.87 504.04 455.25 255.92 456.29 423.19 262.02 285.64 0.00 428.24 645.71 289.40 102.90 45.38 185.92 525.22 106.71 394.30 258.43 562.23 481.22 467.38 438.19 229.09 297.29 354.19 294.80 449.94 410.27 474.76 149.12 393.98 657.92 504.15 552.28 233.24 423.66 369.58 457.93 465.43 278.05 417.35 237.74 253.97 623.47 300.36 523.82 167.15 354.20 193.03 473.01 592.37 370.23 512.82 356.77 312.89 474.48 423.29 492.26 555.01 205.65 430.91 484.23
198.08 585.26 261.51 198.70 40.27 616.48 115.22 677.55 770.46 487.48 392.64 167.76 692.71 537.99 880.26 766.36 810.57 807.49 721.19 81.45 415.10 360.94 528.25 726.18 708.15 707.74 353.15 647.24 770.47 554.20 547.10 501.20 707.43 770.14 474.07 727.53 457.08 917.70 345.56 339.33 867.37 268.49 58.93 437.72 364.26 546.67 168.80 589.57 547.96 780.78 684.71 600.82 129.00 401.96 252.29 229.43 428.24 0.00 750.35 540.98 392.93 382.86 448.86 194.72 394.55 741.66 238.86 939.45 585.86 693.58 673.72 584.48 544.92 169.35 136.32 779.79 402.19 147.92 561.64 789.46 856.62 859.54 691.83 410.89 102.61 391.55 399.66 136.63 493.28 829.34 582.64 364.15 700.51 525.70 848.01 312.72 624.47 306.39 499.24 944.82 474.30 474.21 266.05 174.70 52.04 768.19 107.05 884.86 583.44 756.83 735.81
623.25 672.28 798.70 757.17 746.19 775.59 744.18 1096.94 470.03 712.62 977.12 870.31 543.74 219.92 850.87 628.41 944.63 781.48 1027.43 750.55 485.77 482.71 1097.12 561.27 354.42 558.77 708.01 640.21 429.38 963.27 1078.27 249.15 1036.78 703.55 351.47 26.00 454.09 882.78 489.33 712.63 811.12 852.97 701.28 545.65 651.44 430.31 833.57 629.90 592.01 488.87 1027.12 841.31 831.55 986.44 769.15 770.55 645.71 750.35 0.00 906.94 605.41 637.30 778.92 744.40 694.74 880.12 746.55 680.93 164.49 421.54 443.07 692.87 428.56 834.07 659.05 561.70 384.27 854.01 772.99 691.94 204.45 842.99 1106.63 412.47 786.14 894.58 999.42 802.23 376.92 723.47 851.40 431.22 59.70 440.12 508.65 710.83 478.20 753.82 1000.41 892.63 342.52 1058.69 531.80 620.67 766.96 987.60 841.98 781.45 547.92 415.74 1007.02
486.17 359.28 279.47 342.28 516.92 262.42 443.66 402.65 622.11 215.24 336.55 538.80 483.23 693.35 466.25 481.29 304.05 316.86 240.31 459.53 730.33 535.31 357.22 423.47 678.66 468.20 282.17 400.13 625.01 84.07 376.07 698.29 224.59 446.23 639.44 880.94 452.85 479.98 660.79 268.35 449.22 343.74 598.94 389.46 321.76 571.69 706.69 316.83 374.56 652.22 174.77 125.24 529.38 345.87 315.89 349.16 289.40 540.98 906.94 0.00 355.78 298.26 156.13 693.02 254.18 316.17 389.52 604.11 751.55 635.46 577.60 311.44 518.17 449.06 486.75 437.46 670.69 547.42 140.28 448.38 910.80 388.19 300.82 515.39 536.40 346.56 396.25 586.24 567.45 448.39 107.41 514.39 889.67 526.27 582.03 298.97 532.40 324.35 403.27 438.30 597.01 460.34 581.28 451.66 553.68 292.61 613.12 596.76 431.51 631.56 194.83
222.99 358.31 241.69 194.23 372.37 329.44 295.61 669.74 445.63 182.01 426.02 426.40 401.35 387.57 590.55 463.15 626.10 555.00 537.85 311.48 385.26 257.19 561.75 456.68 455.97 416.38 140.10 405.30 512.98 394.42 561.53 424.36 511.24 501.30 346.93 582.59 174.83 627.99 407.06 126.28 602.85 346.16 377.17 82.05 82.66 268.65 533.00 231.83 256.60 528.60 454.20 358.82 387.64 435.33 259.72 224.96 102.90 392.93 605.41 355.78 0.00 57.52 220.63 487.48 122.58 479.59 241.47 648.80 440.92 479.45 433.17 331.99 222.08 319.98 272.11 510.29 362.00 422.45 246.86 481.98 670.06 565.58 581.22 192.94 388.35 341.09 485.72 412.55 241.10 469.77 340.64 205.70 583.17 311.57 576.36 165.93 366.34 233.40 471.79 646.38 318.99 524.96 368.91 251.03 405.63 511.39 452.30 657.91 307.69 499.92 509.65
215.35 300.79 247.83 238.13 344.40 288.81 267.64 620.88 450.31 189.96 387.13 449.67 343.83 445.09 568.10 472.59 573.74 497.48 533.36 301.41 442.78 274.79 546.75 412.84 504.29 358.86 102.18 353.42 489.93 336.90 548.96 465.52 453.72 458.68 387.77 611.30 183.21 605.54 390.90 116.00 545.33 339.06 426.42 103.48 70.09 309.80 540.50 223.52 199.08 544.29 473.03 301.30 410.91 377.81 271.39 262.40 45.38 382.86 637.30 298.26 57.52 0.00 190.87 479.84 92.82 438.96 213.05 591.28 484.64 489.87 428.42 274.47 279.60 363.88 249.42 466.45 413.69 429.38 194.50 439.36 612.54 549.53 548.77 236.66 378.28 328.52 428.30 420.05 298.62 462.73 283.12 257.39 626.89 345.74 530.05 150.93 308.82 218.40 456.79 637.75 327.37 467.44 311.39 267.51 429.10 453.87 446.88 600.39 251.03 476.29 483.48
334.65 313.99 237.46 264.16 410.40 253.20 333.64 514.15 547.34 105.77 370.74 458.91 406.72 606.70 515.97 412.56 434.83 469.84 396.44 367.41 574.20 379.18 468.72 380.44 560.69 391.69 130.65 310.99 535.87 195.57 480.89 591.90 380.72 454.61 483.31 756.10 355.47 553.41 504.66 144.47 549.73 341.93 492.42 252.87 165.63 462.22 617.17 258.03 273.34 584.59 312.08 160.50 449.63 377.31 261.57 242.91 185.92 448.86 778.92 156.13 220.63 190.87 0.00 579.46 98.05 351.08 249.99 600.38 614.43 584.68 521.16 278.70 420.96 389.91 356.28 434.05 514.56 468.94 142.37 473.93 803.41 473.93 412.32 366.45 444.28 260.45 430.14 502.63 461.73 485.42 142.32 358.26 756.68 416.80 524.71 142.84 459.72 192.58 390.43 562.15 499.63 491.78 425.15 317.90 475.56 327.87 512.88 598.85 372.71 542.42 350.96
264.49 779.98 413.55 350.74 177.23 702.42 253.99 829.59 835.87 628.77 569.63 303.71 740.47 546.15 930.58 871.44 949.61 950.44 858.15 233.49 361.65 351.03 722.97 815.14 747.44 725.44 468.49 757.47 829.88 689.35 741.82 537.35 873.86 907.58 428.76 718.40 496.44 968.02 258.89 480.62 971.48 459.54 170.16 504.13 458.53 585.96 152.04 703.36 678.92 820.07 836.75 739.96 264.95 566.28 391.06 381.47 525.22 194.72 744.40 693.02 487.48 479.84 579.46 0.00 517.16 852.57 381.04 997.93 604.35 786.98 733.40 754.31 584.21 354.80 284.76 837.94 398.71 289.37 674.34 919.20 872.28 995.09 832.55 475.00 288.79 572.29 551.70 257.35 532.57 934.64 721.78 402.52 746.60 619.10 896.37 451.49 643.41 451.28 655.47 1040.87 489.96 665.26 212.60 297.31 187.23 907.33 223.67 1052.13 674.71 843.52 844.10
261.62 321.20 202.18 206.81 365.76 296.23 308.19 547.16 515.31 148.80 370.75 404.90 382.12 510.15 578.55 492.35 524.38 544.25 494.49 324.06 489.04 281.13 500.65 392.05 462.64 367.09 80.00 313.11 537.99 290.18 483.31 493.85 478.77 464.49 385.26 671.92 257.42 615.99 419.50 66.18 592.76 254.94 415.12 173.37 67.58 391.23 563.16 195.02 252.75 559.99 410.13 258.55 417.28 361.43 233.51 188.90 106.71 394.55 694.74 254.18 122.58 92.82 98.05 517.16 0.00 446.38 213.48 605.32 530.25 512.08 458.15 335.80 344.66 332.56 258.23 444.25 433.23 414.93 204.95 445.17 705.36 530.69 506.93 282.27 400.93 262.87 414.26 475.14 363.68 524.06 240.37 276.93 672.50 401.00 550.61 136.40 381.34 187.21 417.69 618.91 401.58 460.66 339.99 219.85 418.21 425.92 453.62 620.80 309.70 537.62 449.01
625.84 258.75 549.62 586.36 726.36 150.15 677.70 468.43 521.58 297.58 509.94 799.97 381.58 776.09 260.37 426.13 193.40 118.83 161.05 660.21 864.85 640.04 591.64 339.04 525.70 375.62 459.55 289.61 508.45 387.29 610.49 750.11 261.14 248.20 693.68 854.12 494.63 290.17 746.11 445.73 231.90 611.63 754.76 462.38 509.05 536.12 910.46 369.50 311.77 533.42 234.90 226.94 772.17 519.26 577.06 593.99 394.30 741.66 880.12 316.17 479.59 438.96 351.08 852.57 446.38 0.00 586.98 409.31 717.89 493.38 530.87 210.91 453.82 710.23 667.42 359.42 694.37 770.24 274.78 260.30 896.20 142.52 322.39 564.94 726.76 558.82 569.64 835.70 505.46 250.36 208.76 588.55 860.14 503.77 497.60 480.20 518.44 537.25 616.39 230.74 605.68 633.73 750.35 629.04 786.10 205.33 824.74 395.05 365.32 494.81 231.38
179.71 469.50 110.05 47.24 203.81 436.83 133.92 504.37 595.82 295.45 272.87 265.35 549.11 536.51 696.38 621.58 654.88 621.51 558.75 157.41 430.83 387.94 488.05 570.12 673.07 564.14 161.12 505.15 663.17 315.34 469.20 503.67 587.04 644.29 395.08 723.73 343.55 733.82 430.29 147.30 733.36 149.73 285.83 232.24 214.14 497.61 378.94 398.63 412.13 686.42 504.63 380.55 241.78 282.19 89.28 49.35 258.43 238.86 746.55 389.52 241.47 213.05 249.99 381.04 213.48 586.98 0.00 787.46 582.06 633.81 590.10 483.71 429.47 172.99 206.46 597.32 473.45 264.24 322.78 648.78 825.59 679.02 532.09 365.42 196.37 248.76 318.49 302.91 471.33 669.05 392.31 373.19 724.31 465.93 707.68 137.71 516.81 70.24 351.27 767.24 445.70 355.45 404.23 183.74 258.64 545.78 313.16 769.10 440.37 650.11 557.28
806.63 354.19 734.60 763.67 911.37 436.86 835.25 775.21 246.62 512.15 916.44 921.09 287.52 700.09 293.20 187.82 478.65 372.07 570.36 869.02 957.08 698.65 901.47 237.48 382.03 272.49 674.12 292.21 278.83 688.18 920.32 677.92 665.97 242.70 716.05 706.93 600.44 327.49 851.92 660.30 287.63 837.63 976.81 610.20 638.08 517.43 1108.25 449.93 392.20 278.23 644.01 576.30 943.95 907.12 698.18 742.79 562.23 939.45 680.93 604.11 648.80 591.28 600.38 997.93 605.32 409.31 787.46 0.00 671.77 323.50 375.61 380.90 538.83 831.35 803.84 222.97 791.98 929.71 528.83 262.02 729.13 377.01 629.17 670.75 923.02 806.19 956.65 1004.24 535.06 260.61 579.95 687.74 733.75 472.01 172.28 658.05 415.85 725.52 834.00 373.70 648.59 973.66 837.08 825.17 975.07 578.19 995.41 100.52 440.60 265.19 640.69
516.29 580.07 634.21 611.37 584.47 627.34 631.53 932.45 491.22 548.13 830.31 708.15 452.26 58.20 809.45 585.74 861.88 711.84 863.43 616.23 382.50 322.65 932.63 526.93 380.55 467.29 567.61 518.09 484.43 798.78 913.78 84.66 910.77 666.75 186.98 141.67 318.29 845.98 345.46 553.79 776.78 731.79 599.94 381.16 486.95 265.82 747.44 465.41 523.14 463.05 877.12 676.82 669.39 839.63 658.32 631.41 481.22 585.86 164.49 751.55 440.92 484.64 614.43 604.35 530.25 717.89 582.06 671.77 0.00 414.34 376.73 543.02 264.07 692.77 524.73 579.79 222.55 704.20 611.27 647.43 321.05 783.17 944.91 247.98 671.28 730.09 864.86 700.89 212.43 682.05 695.00 328.51 142.25 298.96 499.49 546.34 368.58 589.33 835.92 848.12 196.85 937.51 405.95 488.61 637.90 844.19 689.63 772.29 388.61 487.87 908.23
577.74 339.71 649.38 586.57 707.42 394.07 687.95 888.56 76.88 478.91 838.58 816.41 233.26 399.80 573.89 274.72 657.82 517.51 654.43 703.82 660.85 477.35 895.77 297.30 67.12 228.94 530.31 304.96 87.10 622.62 905.10 363.01 748.45 431.52 439.44 395.54 356.18 601.55 574.25 516.49 547.15 753.85 740.53 440.46 501.30 213.30 862.38 336.82 378.01 111.38 688.02 548.23 797.04 829.26 652.06 617.30 467.38 693.58 421.54 635.46 479.45 489.87 584.68 786.98 512.08 493.38 633.81 323.50 414.34 0.00 73.69 353.77 257.37 712.32 653.69 284.72 523.28 779.34 552.92 427.97 458.92 556.18 785.77 398.81 780.69 759.73 882.09 830.21 254.41 446.49 543.88 425.86 410.25 167.88 161.57 586.71 181.05 637.52 892.57 628.66 342.11 943.73 574.38 615.31 745.62 663.48 800.63 424.02 261.73 73.53 724.76
504.05 303.24 578.80 566.71 653.84 417.84 668.09 827.53 128.99 416.10 764.89 789.39 170.28 433.74 506.36 324.26 584.13 443.82 664.51 673.75 655.64 439.41 850.26 223.61 101.06 155.25 456.62 241.26 107.70 634.89 831.41 396.95 708.49 365.77 414.61 417.07 318.58 543.80 542.86 442.80 473.46 683.27 695.15 392.92 481.44 164.52 842.52 263.13 306.80 167.19 664.20 474.54 777.18 755.57 615.22 587.06 438.19 673.72 443.07 577.60 433.17 428.42 521.16 733.40 458.15 530.87 590.10 375.61 376.73 73.69 0.00 329.95 237.51 692.46 582.25 257.55 485.89 801.72 483.17 354.28 435.90 482.49 712.08 345.23 738.88 692.58 808.40 796.10 200.83 378.96 470.19 391.49 483.94 148.02 214.25 513.02 119.60 563.83 818.88 554.97 310.72 870.04 520.80 556.21 725.76 641.91 780.77 405.83 232.54 121.34 705.95
489.82 47.84 467.00 494.47 618.87 109.24 542.11 569.83 310.67 256.67 632.40 698.99 189.73 601.22 364.65 228.94 376.70 223.01 334.56 575.88 685.64 454.51 655.71 167.63 420.89 174.70 367.66 88.69 313.57 382.56 674.56 565.65 417.42 185.66 499.87 666.87 309.10 364.89 560.58 353.84 323.75 509.27 643.41 251.47 344.56 347.48 753.28 158.59 100.86 340.78 334.25 222.21 685.38 623.08 491.11 514.73 229.09 584.48 692.87 311.44 331.99 274.47 278.70 754.31 335.80 210.91 483.71 380.90 543.02 353.77 329.95 0.00 278.95 583.28 512.50 221.24 559.32 703.85 229.70 204.98 685.29 275.06 461.27 379.41 652.75 539.15 675.91 694.52 330.59 256.01 204.03 403.02 683.29 355.20 326.19 396.24 317.52 422.12 629.60 363.28 395.98 684.23 585.86 537.15 636.52 378.65 691.53 347.44 154.41 320.12 389.70
378.28 326.79 463.77 416.31 504.65 363.27 517.69 765.74 292.21 349.68 626.09 648.48 277.62 322.27 630.22 398.63 597.81 501.96 613.51 515.24 480.89 272.23 783.83 352.29 243.60 289.01 362.18 293.08 302.76 540.25 776.90 296.29 646.70 464.61 239.86 405.74 139.61 632.95 384.00 348.36 600.60 548.57 548.00 197.23 298.03 82.30 702.45 201.34 259.07 339.14 613.20 412.75 609.72 635.41 481.80 447.04 297.29 544.92 428.56 518.17 222.08 279.60 420.96 584.21 344.66 453.82 429.47 538.83 264.07 257.37 237.51 278.95 0.00 542.06 448.57 355.81 281.56 643.21 442.35 451.49 534.18 554.01 726.33 196.04 592.11 556.46 680.93 634.63 51.64 507.41 430.93 220.74 406.32 89.49 409.31 388.01 188.26 455.48 693.87 614.94 151.86 747.04 371.61 410.19 584.49 580.12 651.97 615.70 124.54 316.40 644.16
210.82 587.61 169.59 125.75 177.57 561.96 113.72 540.87 724.38 414.53 264.25 115.71 680.92 644.90 837.39 712.71 719.19 765.92 658.35 147.49 548.12 427.11 505.99 670.04 752.33 677.11 280.20 591.10 789.21 414.94 515.15 608.11 622.88 757.32 509.45 834.44 494.81 874.83 461.40 266.38 854.14 183.94 228.28 399.58 293.79 586.03 300.26 487.85 536.17 818.36 611.76 512.47 154.47 273.57 133.17 156.48 354.19 169.35 834.07 449.06 319.98 363.88 389.91 354.80 332.56 710.23 172.99 831.35 692.77 712.32 692.46 583.28 542.06 0.00 199.53 723.65 504.56 152.78 495.77 738.00 914.03 765.66 607.28 489.14 109.97 307.00 262.98 179.81 537.46 771.54 501.47 412.36 798.20 544.44 828.60 247.07 623.94 202.16 385.63 853.44 546.84 388.04 408.98 222.91 221.39 677.70 218.48 887.21 559.45 775.57 643.89
78.20 536.52 207.28 174.88 107.53 517.27 116.34 612.13 676.97 369.84 380.63 225.06 556.39 479.18 817.52 670.92 690.68 735.07 605.21 91.50 376.75 242.58 605.31 625.40 619.71 571.42 235.51 565.98 689.95 507.11 586.46 446.34 661.43 698.16 337.75 666.40 321.75 854.96 307.21 221.69 794.75 311.75 189.55 317.84 254.51 458.23 305.12 453.25 411.64 692.34 612.39 515.21 198.79 389.95 201.72 157.11 294.80 136.32 659.05 486.75 272.11 249.42 356.28 284.76 258.23 667.42 206.46 803.84 524.73 653.69 582.25 512.50 448.57 199.53 0.00 648.20 350.48 219.47 443.92 680.28 759.54 753.41 723.86 309.29 167.89 366.02 409.71 229.28 404.84 712.15 497.03 227.83 636.81 485.81 742.61 232.21 499.72 239.52 506.89 824.93 377.22 490.96 227.70 38.38 188.36 682.58 243.37 836.12 500.02 703.59 631.67
648.25 194.53 612.34 617.06 755.73 213.89 684.04 778.87 220.49 328.28 749.51 826.21 127.53 609.30 289.17 66.71 430.16 273.82 509.19 717.81 797.09 538.99 791.90 53.61 276.62 112.50 490.25 132.55 197.62 521.53 773.05 572.51 606.07 195.89 556.06 535.70 458.88 326.61 704.69 476.43 303.46 699.19 805.09 430.86 454.21 357.44 948.59 301.25 267.37 257.11 555.49 387.08 802.87 740.19 636.45 633.15 449.94 779.79 561.70 437.46 510.29 466.45 434.05 837.94 444.25 359.42 597.32 222.97 579.79 284.72 257.55 221.24 355.81 723.65 648.20 0.00 637.37 789.14 407.72 184.28 668.42 335.33 638.89 499.73 757.46 672.28 756.41 853.03 375.07 161.77 368.90 533.95 610.36 312.02 193.29 546.65 262.06 567.46 743.48 384.97 503.51 854.66 677.42 609.82 813.22 479.94 854.84 262.72 280.61 211.26 576.31
293.74 583.34 511.41 448.60 361.92 594.70 428.48 917.00 573.77 544.01 685.50 549.35 512.37 164.35 869.56 636.67 829.05 781.89 838.78 394.71 214.07 207.79 853.49 587.04 462.72 527.40 459.98 574.64 584.32 710.13 862.95 192.43 806.16 729.32 83.84 364.22 250.22 907.00 176.69 446.16 836.89 578.05 443.94 310.21 401.52 341.45 550.75 482.90 458.46 603.67 781.62 594.66 510.59 694.82 494.23 461.98 410.27 402.19 384.27 670.69 362.00 413.69 514.56 398.71 433.23 694.37 473.45 791.98 222.55 523.28 485.89 559.32 281.56 504.56 350.48 637.37 0.00 519.67 559.39 717.29 529.04 834.38 901.21 250.65 471.58 659.95 712.92 506.83 316.17 742.16 576.48 156.30 364.80 355.40 619.70 457.67 428.19 486.19 733.43 854.19 187.73 783.77 238.29 312.10 439.07 762.03 467.08 854.09 406.10 571.13 816.73
297.67 698.43 267.95 243.29 157.75 620.09 161.74 611.73 817.99 472.66 340.55 37.07 661.61 658.65 915.52 816.21 817.55 864.28 748.08 127.97 521.78 454.74 576.85 736.28 825.63 676.64 390.05 728.04 842.99 520.45 586.01 625.81 695.72 821.50 517.22 845.87 503.60 952.96 440.52 376.23 874.62 256.78 161.66 496.48 411.33 644.16 190.40 609.95 628.46 869.54 666.11 610.83 34.81 349.87 231.53 226.03 474.76 147.92 854.01 547.42 422.45 429.38 468.94 289.37 414.93 770.24 264.24 929.71 704.20 779.34 801.72 703.85 643.21 152.78 219.47 789.14 519.67 0.00 567.52 840.82 936.11 856.23 664.83 512.86 67.87 379.84 333.84 91.54 610.76 852.31 599.83 439.99 803.24 661.98 847.83 359.24 693.49 300.52 456.49 856.70 553.79 424.04 389.16 250.54 103.04 774.20 65.70 938.89 617.75 850.27 682.46
409.85 258.25 370.50 370.02 526.59 200.61 456.70 537.23 483.57 94.86 412.35 578.54 342.95 553.07 373.60 341.01 379.24 393.61 358.47 480.19 632.12 454.58 497.50 369.53 580.08 327.92 256.83 318.39 523.90 224.35 510.42 585.82 308.11 358.57 544.62 752.94 377.71 411.04 583.85 243.01 414.50 336.85 608.61 249.18 264.59 451.31 701.72 241.01 298.74 520.82 315.05 138.06 564.56 403.03 394.61 362.54 149.12 561.64 772.99 140.28 246.86 194.50 142.37 674.34 204.95 274.78 322.78 528.83 611.27 552.92 483.17 229.70 442.35 495.77 443.92 407.72 559.39 567.52 0.00 339.25 807.04 358.33 403.16 382.36 519.15 402.82 454.83 614.55 427.17 406.03 127.26 403.09 753.52 405.89 467.59 285.21 456.58 325.62 509.37 446.55 478.28 517.50 505.89 424.80 581.42 305.43 633.22 456.48 354.77 516.31 335.11
654.71 247.93 631.89 642.11 783.76 231.84 707.00 652.58 361.72 368.16 693.06 848.88 205.34 673.65 190.01 235.18 252.69 141.47 421.35 740.77 843.61 605.41 723.29 130.67 416.24 220.37 515.30 198.97 376.10 483.49 742.14 653.32 504.67 19.32 633.87 717.94 476.88 198.55 728.36 501.48 149.11 676.10 836.45 456.45 504.16 458.30 958.26 250.15 268.64 370.46 487.07 323.14 842.75 683.74 656.00 632.88 393.98 789.46 691.94 448.38 481.98 439.36 473.93 919.20 445.17 260.30 648.78 262.02 647.43 427.97 354.28 204.98 451.49 738.00 680.28 184.28 717.29 840.82 339.25 0.00 790.18 151.05 506.54 547.19 797.34 681.83 736.57 846.98 482.94 99.35 341.32 560.99 751.64 412.88 289.23 561.13 339.12 587.01 707.76 200.69 599.99 777.00 743.84 665.02 804.10 347.59 859.54 191.90 358.42 362.46 474.91
718.34 637.45 851.09 788.28 867.07 785.05 834.58 1203.78 518.23 802.50 999.67 973.18 606.18 364.69 884.61 636.12 1020.03 879.72 1019.85 851.04 667.89 543.89 1159.29 659.51 391.80 591.15 714.72 677.16 477.58 949.44 1161.50 401.48 1066.26 801.67 486.21 230.45 526.48 885.65 614.46 728.54 843.71 951.60 871.27 652.49 682.63 515.27 932.91 661.00 704.71 458.28 1019.54 872.41 949.24 990.35 853.77 819.01 657.92 856.62 204.45 910.80 670.06 612.54 803.41 872.28 705.36 896.20 825.59 729.13 321.05 458.92 435.90 685.29 534.18 914.03 759.54 668.42 529.04 936.11 807.04 790.18 0.00 918.39 1146.56 519.31 903.83 941.06 1040.84 953.25 510.76 814.86 889.32 531.71 241.82 544.98 556.85 763.47 555.50 830.94 1069.33 966.31 382.32 1079.98 659.68 721.16 908.66 1039.78 963.67 829.65 546.32 463.94 1074.99
749.54 322.90 667.66 672.35 842.94 292.67 766.18 518.30 512.77 383.57 652.46 855.40 356.39 824.70 117.85 386.23 101.64 71.33 297.40 789.60 950.84 729.57 653.15 281.72 567.29 371.42 545.54 336.37 527.15 423.53 667.79 804.37 397.49 170.37 774.93 868.99 584.16 155.29 835.64 531.72 89.38 695.18 897.28 526.53 570.29 609.35 1028.34 378.76 375.92 517.45 377.42 339.35 858.16 661.78 632.49 677.10 504.15 859.54 842.99 388.19 565.58 549.53 473.93 995.09 530.69 142.52 679.02 377.01 783.17 556.18 482.49 275.06 554.01 765.66 753.41 335.33 834.38 856.23 358.33 151.05 918.39 0.00 372.26 654.47 812.75 686.02 679.36 935.17 570.74 202.86 331.61 678.08 902.69 563.93 440.28 601.94 490.17 649.66 556.71 88.22 671.04 696.37 860.92 715.03 872.09 272.67 921.93 276.49 429.47 513.51 367.73
711.80 509.11 527.81 579.33 655.32 431.34 666.01 146.04 712.48 467.40 435.84 672.91 571.86 886.71 485.39 685.53 387.98 365.07 195.14 689.50 962.92 788.06 298.28 585.28 808.99 556.83 539.58 549.96 753.24 216.75 295.53 923.50 95.05 494.44 886.44 1086.58 731.98 522.83 916.98 534.79 461.64 423.34 737.34 620.97 574.51 798.03 855.23 524.99 562.13 749.73 127.02 313.58 699.64 428.97 535.51 580.12 552.28 691.83 1106.63 300.82 581.22 548.77 412.32 832.55 506.93 322.39 532.09 629.17 944.91 785.77 712.08 461.27 726.33 607.28 723.86 638.89 901.21 664.83 403.16 506.54 1146.56 372.26 0.00 754.15 717.25 446.15 376.14 743.49 777.97 496.60 331.76 744.91 1087.16 756.35 743.84 555.16 740.56 572.69 366.45 451.62 857.25 436.26 837.47 715.83 740.66 196.88 730.53 648.75 615.68 766.77 124.81
323.07 403.43 409.32 363.39 416.82 414.79 413.83 684.47 447.70 300.15 582.33 525.41 401.66 240.25 708.47 517.45 649.14 601.98 655.99 400.79 395.57 123.97 684.65 446.12 359.27 406.97 319.63 417.12 420.72 550.80 665.80 277.04 674.52 565.07 240.88 389.65 70.31 744.30 321.79 305.81 669.79 513.44 351.96 133.18 238.97 197.79 573.36 336.28 278.55 431.90 629.14 440.57 486.65 591.65 426.67 394.12 233.24 410.89 412.47 515.39 192.94 236.66 366.45 475.00 282.27 564.94 365.42 670.75 247.98 398.81 345.23 379.41 196.04 489.14 309.29 499.73 250.65 512.86 382.36 547.19 519.31 654.47 754.15 0.00 453.58 497.40 616.88 452.91 144.40 581.07 456.40 138.18 390.23 230.93 500.55 298.36 289.42 365.83 604.22 728.98 136.99 704.10 262.40 270.91 417.64 607.94 492.66 703.03 248.58 434.36 684.59
234.83 656.95 256.93 194.12 142.88 576.61 110.64 629.07 792.19 429.18 322.61 84.17 688.21 625.73 847.65 772.73 768.52 816.23 738.56 76.87 482.22 386.87 574.96 703.85 776.34 703.24 348.57 701.07 846.58 511.71 583.48 592.89 697.99 778.02 484.30 812.14 452.50 885.09 422.96 334.75 806.75 293.91 161.54 428.61 362.16 606.56 250.15 582.15 577.36 848.97 680.13 576.92 45.41 331.93 224.84 224.85 423.66 102.61 786.14 536.40 388.35 378.28 444.28 288.79 400.93 726.76 196.37 923.02 671.28 780.69 738.88 652.75 592.11 109.97 167.89 757.46 471.58 67.87 519.15 797.34 903.83 812.75 717.25 453.58 0.00 415.67 351.18 129.70 561.47 808.83 582.46 372.12 781.10 612.81 843.43 308.14 634.60 266.61 453.96 867.30 521.51 446.40 368.66 182.67 154.65 742.15 123.78 950.60 601.93 843.94 668.23
374.47 571.98 158.74 221.55 396.19 458.39 322.93 369.93 727.80 366.22 110.29 389.82 644.99 717.54 776.42 673.01 606.43 663.42 397.77 338.80 631.48 471.98 239.29 640.89 725.51 629.96 263.60 571.44 793.30 262.49 220.44 684.70 438.23 670.91 576.11 871.76 498.42 783.45 613.47 249.78 754.92 123.06 450.48 364.22 258.43 609.74 560.35 457.89 515.62 818.40 355.06 358.69 408.65 119.61 195.16 215.76 369.58 391.55 894.58 346.56 341.09 328.52 260.45 572.29 262.87 558.82 248.76 806.19 730.09 759.73 692.58 539.15 556.46 307.00 366.02 672.28 659.95 379.84 402.82 681.83 941.06 686.02 446.15 497.40 415.67 0.00 169.99 443.21 582.19 690.61 376.87 518.13 872.34 591.85 785.16 245.99 637.34 178.52 154.82 740.68 633.55 234.08 533.96 358.05 432.95 499.09 445.54 799.98 542.85 782.09 410.51
427.95 713.08 273.23 313.95 392.83 607.37 351.98 277.89 847.28 513.27 59.70 296.77 692.37 855.00 784.22 795.84 676.60 681.59 535.25 318.21 745.97 616.61 243.01 739.41 876.90 707.40 406.86 727.37 873.75 432.48 252.17 822.16 471.19 717.25 713.57 1006.53 611.51 821.66 678.53 393.04 768.74 168.76 458.59 483.70 403.06 738.10 517.21 609.28 600.04 900.30 446.42 490.06 335.53 52.83 269.01 283.22 457.93 399.66 999.42 396.25 485.72 428.30 430.14 551.70 414.26 569.64 318.49 956.65 864.86 882.09 808.40 675.91 680.93 262.98 409.71 756.41 712.92 333.84 454.83 736.57 1040.84 679.36 376.14 616.88 351.18 169.99 0.00 408.53 722.79 797.28 471.88 590.51 1007.11 732.64 878.59 359.05 737.12 318.11 122.65 730.21 739.90 130.70 618.96 433.10 436.88 475.47 399.54 889.83 663.58 887.39 477.96
307.48 720.84 306.77 270.37 164.30 691.38 168.99 686.42 858.18 557.11 384.91 111.76 746.56 665.48 977.35 875.70 882.24 903.10 799.34 175.49 503.33 464.99 535.36 821.23 812.18 761.59 422.78 770.91 873.63 594.75 554.21 628.69 759.09 866.30 563.07 817.19 515.46 1014.79 415.17 408.96 936.45 320.15 100.95 494.60 438.41 631.58 120.45 638.54 619.13 884.81 756.38 661.96 109.91 394.23 306.06 301.10 465.43 136.63 802.23 586.24 412.55 420.05 502.63 257.35 475.14 835.70 302.91 1004.24 700.89 830.21 796.10 694.52 634.63 179.81 229.28 853.03 506.83 91.54 614.55 846.98 953.25 935.17 743.49 452.91 129.70 443.21 408.53 0.00 597.31 882.32 644.95 421.54 742.53 662.33 901.78 366.49 693.43 351.65 516.26 931.80 570.93 508.70 392.90 267.66 84.59 827.19 39.75 1013.58 654.38 887.27 757.56
326.64 378.43 482.79 435.33 453.01 414.91 504.65 817.38 303.30 386.74 667.12 629.90 277.60 270.63 613.68 373.31 649.45 499.41 651.00 496.34 469.02 268.37 802.85 352.27 214.87 262.57 381.20 344.72 308.53 591.89 802.63 244.65 698.34 494.55 232.33 354.10 191.25 651.12 360.58 367.38 602.12 587.26 496.36 239.09 323.76 53.39 662.08 252.98 310.71 287.50 664.84 464.39 601.68 676.43 500.82 466.06 278.05 493.28 376.92 567.45 241.10 298.62 461.73 532.57 363.68 505.46 471.33 535.06 212.43 254.41 200.83 330.59 51.64 537.46 404.84 375.07 316.17 610.76 427.17 482.94 510.76 570.74 777.97 144.40 561.47 582.19 722.79 597.31 0.00 486.28 482.57 253.55 354.68 86.53 363.80 407.03 156.15 471.08 712.89 658.96 128.44 766.06 319.97 378.80 545.32 631.76 600.33 589.26 176.18 317.66 695.80
678.08 244.08 655.26 664.00 789.39 232.22 730.37 642.64 379.36 379.65 753.77 887.25 229.79 723.41 127.40 195.98 304.50 131.53 411.41 764.14 855.03 635.63 713.35 215.38 438.39 223.71 516.58 229.19 359.39 500.57 732.20 699.62 479.91 80.03 658.32 697.47 510.76 164.84 762.24 527.80 163.89 742.88 836.83 507.48 532.82 468.65 998.14 349.50 302.52 416.61 466.86 405.41 854.24 744.45 679.37 694.73 417.35 829.34 723.47 448.39 469.77 462.73 485.42 934.64 524.06 250.36 669.05 260.61 682.05 446.49 378.96 256.01 507.41 771.54 712.15 161.77 742.16 852.31 406.03 99.35 814.86 202.86 496.60 581.07 808.83 690.61 797.28 882.32 486.28 0.00 387.23 604.68 772.13 423.23 322.56 572.98 413.63 610.38 759.57 237.69 614.72 858.92 774.06 711.11 868.17 322.83 909.61 205.53 382.87 373.03 450.15
476.97 251.87 340.86 403.67 552.72 155.01 475.96 409.97 514.70 222.12 428.37 591.21 380.35 680.33 449.46 432.97 292.51 327.52 262.30 509.73 702.80 471.67 451.68 357.00 571.25 365.32 272.97 292.72 517.60 178.53 470.53 657.56 252.13 341.57 561.71 836.67 457.42 486.90 646.98 275.34 420.99 445.33 634.74 323.22 307.95 466.27 751.44 229.59 287.32 544.81 217.51 18.18 590.77 419.05 368.30 385.23 237.74 582.64 851.40 107.41 340.64 283.12 142.32 721.78 240.37 208.76 392.31 579.95 695.00 543.88 470.19 204.03 430.93 501.47 497.03 368.90 576.48 599.83 127.26 341.32 889.32 331.61 331.76 456.40 582.46 376.87 471.88 644.95 482.57 387.23 0.00 420.18 837.25 511.69 515.56 285.16 445.16 328.49 441.02 419.83 569.57 533.52 567.47 458.65 615.07 185.55 655.20 514.15 344.27 524.15 249.09
241.61 427.04 372.26 325.95 335.36 438.40 332.37 794.35 449.14 387.71 545.90 452.89 425.27 282.96 732.08 499.92 672.75 625.59 682.48 319.33 282.62 51.49 697.19 480.34 424.38 440.30 329.38 440.73 497.50 553.83 716.04 246.26 649.86 580.31 141.53 457.22 93.92 759.54 269.43 326.54 709.15 421.75 384.72 153.91 259.70 247.98 532.95 337.70 302.16 514.34 637.69 438.36 417.53 555.22 337.93 339.33 253.97 364.15 431.22 514.39 205.70 257.39 358.26 402.52 276.93 588.55 373.19 687.74 328.51 425.86 391.49 403.02 220.74 412.36 227.83 533.95 156.30 439.99 403.09 560.99 531.71 678.08 744.91 138.18 372.12 518.13 590.51 421.54 253.55 604.68 420.18 0.00 470.76 257.98 524.16 301.37 271.89 368.84 607.23 697.89 149.39 627.47 189.92 189.45 416.19 605.73 461.29 726.64 272.19 489.11 660.43
650.59 720.94 776.46 734.93 723.60 767.61 684.48 1074.70 487.13 674.43 971.83 815.03 594.51 200.45 899.53 677.07 1000.64 841.18 1005.68 718.25 426.07 464.90 1074.88 620.97 388.07 609.54 648.31 660.34 489.08 925.08 1056.03 226.91 1053.02 763.25 329.23 74.66 460.54 936.97 487.71 662.13 870.82 874.04 641.58 523.41 629.20 391.73 862.98 607.66 640.67 521.63 1017.54 819.07 776.27 981.15 792.92 748.31 623.47 700.51 59.70 889.67 583.17 626.89 756.68 746.60 672.50 860.14 724.31 733.75 142.25 410.25 483.94 683.29 406.32 798.20 636.81 610.36 364.80 803.24 753.52 751.64 241.82 902.69 1087.16 390.23 781.10 872.34 1007.11 742.53 354.68 772.13 837.25 470.76 0.00 437.15 568.35 688.59 508.47 731.58 978.17 952.33 339.10 1079.76 548.20 598.43 707.26 986.44 782.28 834.27 528.88 475.44 1050.48
413.17 347.51 481.50 418.69 539.54 439.52 520.07 855.23 244.76 311.03 672.94 660.15 207.54 300.18 550.63 326.80 654.33 502.42 662.70 535.94 512.59 309.47 831.14 282.21 209.12 199.52 414.08 285.53 244.77 561.68 812.29 276.39 714.00 424.49 271.56 414.12 188.30 588.07 429.81 400.26 532.06 585.97 572.65 286.72 333.42 45.42 694.50 290.83 273.59 279.26 689.45 502.24 629.16 682.26 484.18 449.42 300.36 525.70 440.12 526.27 311.57 345.74 416.80 619.10 401.00 503.77 465.93 472.01 298.96 167.88 148.02 355.20 89.49 544.44 485.81 312.02 355.40 661.98 405.89 412.88 544.98 563.93 756.35 230.93 612.81 591.85 732.64 662.33 86.53 423.23 511.69 257.98 437.15 0.00 324.04 436.90 98.77 493.39 742.76 613.57 197.67 783.27 406.50 447.43 577.74 669.61 632.75 526.21 200.79 231.13 721.10
690.44 295.83 709.97 722.01 809.55 407.18 732.79 889.88 136.41 433.23 835.08 884.90 186.22 557.69 449.31 126.58 541.92 378.77 658.65 766.56 806.78 575.65 896.85 158.56 228.69 200.11 595.20 237.50 106.55 657.73 878.00 524.58 690.85 300.84 580.20 534.65 430.24 439.98 681.72 581.38 408.41 804.44 848.25 494.31 559.16 369.46 998.00 388.70 330.97 105.95 660.44 497.38 852.43 825.76 734.08 717.15 523.82 848.01 508.65 582.03 576.36 530.05 524.71 896.37 550.61 497.60 707.68 172.28 499.49 161.57 214.25 326.19 409.31 828.60 742.61 193.29 619.70 847.83 467.59 289.23 556.85 440.28 743.84 500.55 843.43 785.16 878.59 901.78 363.80 322.56 515.56 524.16 568.35 324.04 0.00 651.60 312.92 665.09 791.07 480.31 476.31 930.73 683.77 713.61 869.27 584.89 912.03 272.80 339.30 92.91 698.07
217.08 392.42 110.96 121.32 274.26 365.80 197.50 526.27 568.90 218.37 299.35 359.37 494.76 538.61 614.78 555.40 577.67 599.03 432.85 231.27 527.27 317.03 395.82 493.04 599.04 503.49 56.40 449.51 611.70 338.41 414.67 529.75 508.19 567.21 421.16 688.01 312.99 652.22 467.66 70.22 655.68 215.43 356.28 209.27 103.48 434.58 481.52 321.55 350.01 642.78 454.92 303.34 331.79 308.67 136.46 152.05 167.15 312.72 710.83 298.97 165.93 150.93 142.84 451.49 136.40 480.20 137.71 658.05 546.34 586.71 513.02 396.24 388.01 247.07 232.21 546.65 457.67 359.24 285.21 561.13 763.47 601.94 555.16 298.36 308.14 245.99 359.05 366.49 407.03 572.98 285.16 301.37 688.59 436.90 651.60 0.00 459.75 67.47 305.86 690.16 435.35 421.15 441.60 237.48 332.72 470.71 376.74 692.02 363.29 598.06 478.43
482.79 290.81 537.15 498.19 607.25 420.23 576.46 779.97 194.80 368.54 690.98 683.46 191.72 398.76 499.20 228.03 591.81 428.66 563.93 591.22 554.51 323.38 855.57 208.45 218.96 206.75 411.00 228.83 225.61 587.33 857.78 375.16 660.93 350.73 370.33 452.20 270.44 529.96 510.32 424.82 458.30 636.28 638.04 385.49 378.91 127.95 793.27 215.57 233.23 242.45 651.77 426.98 680.01 686.63 512.07 467.46 354.20 624.47 478.20 532.40 366.34 308.82 459.72 643.41 381.34 518.44 516.81 415.85 368.58 181.05 119.60 317.52 188.26 623.94 499.72 262.06 428.19 693.49 456.58 339.12 555.50 490.17 740.56 289.42 634.60 637.34 737.12 693.43 156.15 413.63 445.16 271.89 508.47 98.77 312.92 459.75 0.00 527.22 765.61 539.81 281.67 776.26 430.81 461.34 676.51 594.35 679.84 506.91 200.90 235.70 634.26
249.95 443.23 44.88 107.69 274.05 404.91 204.16 463.96 604.29 269.18 273.32 291.90 478.87 543.78 682.25 551.34 584.64 641.21 500.32 224.94 501.07 384.50 417.81 513.85 649.85 493.90 123.87 434.91 637.58 385.58 398.96 510.94 544.26 606.33 402.35 731.00 379.57 719.69 499.61 121.03 692.98 149.35 356.07 262.26 170.95 502.05 449.18 371.17 417.43 686.80 499.12 310.31 294.79 282.64 68.99 92.61 193.03 306.39 753.82 324.35 233.40 218.40 192.58 451.28 187.21 537.25 70.24 725.52 589.33 637.52 563.83 422.12 455.48 202.16 239.52 567.46 486.19 300.52 325.62 587.01 830.94 649.66 572.69 365.83 266.61 178.52 318.11 351.65 471.08 610.38 328.49 368.84 731.58 493.39 665.09 67.47 527.22 0.00 281.03 718.89 502.82 355.07 420.10 242.49 319.09 475.54 366.22 742.83 398.68 623.94 519.18
439.69 677.44 313.56 375.26 496.60 596.03 455.75 220.41 874.76 496.20 131.35 419.42 759.90 788.05 674.56 794.38 658.35 628.04 528.28 421.98 776.99 622.89 148.37 689.87 829.38 774.93 362.26 701.42 897.62 319.20 129.52 751.26 461.50 727.08 683.38 977.59 618.85 712.00 690.27 376.08 646.09 230.75 558.17 515.13 409.34 740.44 622.17 594.93 652.66 897.02 455.99 459.20 444.53 122.03 335.96 354.87 473.01 499.24 1000.41 403.27 471.79 456.79 390.43 655.47 417.69 616.39 351.27 834.00 835.92 892.57 818.88 629.60 693.87 385.63 506.89 743.48 733.43 456.49 509.37 707.76 1069.33 556.71 366.45 604.22 453.96 154.82 122.65 516.26 712.89 759.57 441.02 607.23 978.17 742.76 791.07 305.86 765.61 281.03 0.00 644.93 741.21 139.66 664.21 491.85 534.68 439.61 522.19 833.20 669.15 883.98 457.95
837.76 404.71 717.77 746.12 924.26 350.22 847.50 597.66 562.41 471.79 740.68 860.65 406.03 874.34 110.29 388.24 134.25 159.55 342.91 863.37 980.51 749.38 700.69 331.36 616.93 421.06 633.76 399.66 565.04 511.75 681.84 854.01 411.82 220.01 834.56 918.63 672.38 117.28 923.86 619.94 122.60 772.16 954.83 614.75 658.51 658.99 1039.02 450.84 464.14 571.15 398.77 408.58 821.89 750.00 720.27 764.88 592.37 944.82 892.63 438.30 646.38 637.75 562.15 1040.87 618.91 230.74 767.24 373.70 848.12 628.66 554.97 363.28 614.94 853.44 824.93 384.97 854.19 856.70 446.55 200.69 966.31 88.22 451.62 728.98 867.30 740.68 730.21 931.80 658.96 237.69 419.83 697.89 952.33 613.57 480.31 690.16 539.81 718.89 644.93 0.00 759.26 784.59 887.81 786.55 957.52 254.74 911.33 302.97 517.69 563.15 382.06
336.02 443.82 521.65 475.34 484.75 480.30 452.26 821.46 410.40 437.14 695.29 590.86 394.65 210.89 742.12 501.75 722.99 618.99 730.54 468.72 344.92 161.57 821.64 469.32 274.99 391.01 400.75 410.11 397.04 657.28 802.79 174.10 781.09 581.64 103.89 316.52 144.16 749.98 232.14 402.70 719.17 571.14 488.95 270.17 375.12 153.72 550.59 353.20 344.40 415.94 730.23 564.61 566.92 704.61 487.32 488.72 370.23 474.30 342.52 597.01 318.99 327.37 499.63 489.96 401.58 605.68 445.70 648.59 196.85 342.11 310.72 395.98 151.86 546.84 377.22 503.51 187.73 553.79 478.28 599.99 382.32 671.04 857.25 136.99 521.51 633.55 739.90 570.93 128.44 614.72 569.57 149.39 339.10 197.67 476.31 435.35 281.67 502.82 741.21 759.26 0.00 776.86 277.36 338.84 526.34 728.87 581.35 709.68 241.57 383.40 785.68
535.16 732.07 310.19 364.58 488.03 669.01 465.31 290.22 910.39 574.91 123.79 427.47 754.01 891.96 814.22 858.51 738.24 752.56 596.89 447.26 782.93 678.96 196.18 801.05 923.30 769.04 459.79 772.92 935.39 458.86 177.33 859.12 531.31 778.89 750.53 1078.74 650.65 851.66 764.92 446.19 785.75 205.72 533.14 570.92 467.15 777.24 605.14 655.68 664.13 961.94 508.06 551.70 436.97 114.47 328.24 333.85 512.82 474.21 1058.69 460.34 524.96 467.44 491.78 665.26 460.66 633.73 355.45 973.66 937.51 943.73 870.04 684.23 747.04 388.04 490.96 854.66 783.77 424.04 517.50 777.00 1079.98 696.37 436.26 704.10 446.40 234.08 130.70 508.70 766.06 858.92 533.52 627.47 1079.76 783.27 930.73 421.15 776.26 355.07 139.66 784.59 776.86 0.00 685.41 483.73 514.12 579.27 489.74 951.47 718.47 943.73 539.60
224.52 606.85 375.22 400.33 231.41 600.20 298.95 839.83 623.27 488.79 592.04 372.81 597.57 360.40 878.14 658.84 859.98 808.87 821.59 300.75 149.05 138.43 773.25 623.81 534.84 582.54 413.57 544.87 617.28 620.72 754.40 327.56 765.11 763.16 218.97 505.80 283.84 884.74 79.51 406.17 837.24 479.69 313.43 343.83 351.98 373.36 364.64 527.62 492.08 607.47 737.23 585.65 380.08 582.72 411.64 384.81 356.77 266.05 531.80 581.28 368.91 311.39 425.15 212.60 339.99 750.35 404.23 837.08 405.95 574.38 520.80 585.86 371.61 408.98 227.70 677.42 238.29 389.16 505.89 743.84 659.68 860.92 837.47 262.40 368.66 533.96 618.96 392.90 319.97 774.06 567.47 189.92 548.20 406.50 683.77 441.60 430.81 420.10 664.21 887.81 277.36 685.41 0.00 266.08 318.09 753.02 353.15 906.45 462.11 630.92 776.11
52.16 505.51 199.31 136.50 145.91 478.89 142.92 604.90 638.59 331.46 373.40 263.44 594.77 443.06 798.08 675.01 652.30 726.91 643.59 129.88 389.46 204.20 597.34 606.13 593.67 586.94 197.13 532.96 663.91 499.08 578.49 410.22 623.05 680.30 301.63 630.28 283.37 835.52 297.42 183.31 775.42 303.78 195.27 291.80 216.13 432.19 343.50 414.87 450.02 666.30 601.57 476.83 228.08 382.72 194.49 149.88 312.89 174.70 620.67 451.66 251.03 267.51 317.90 297.31 219.85 629.04 183.74 825.17 488.61 615.31 556.21 537.15 410.19 222.91 38.38 609.82 312.10 250.54 424.80 665.02 721.16 715.03 715.83 270.91 182.67 358.05 433.10 267.66 378.80 711.11 458.65 189.45 598.43 447.43 713.61 237.48 461.34 242.49 491.85 786.55 338.84 483.73 266.08 0.00 226.74 644.20 281.75 805.11 461.64 677.55 593.29
250.12 637.30 274.21 211.40 92.31 635.95 167.10 697.15 777.84 488.52 421.97 140.11 725.31 590.03 932.30 818.40 823.27 855.20 764.18 133.49 418.74 380.40 580.29 759.61 760.19 740.34 353.17 699.28 822.51 523.91 599.14 553.24 686.96 822.18 522.91 779.57 444.88 969.74 397.60 352.03 919.41 320.53 65.68 464.80 359.01 596.31 187.87 553.95 600.00 832.82 697.41 629.40 137.18 412.65 276.89 242.13 474.48 52.04 766.96 553.68 405.63 429.10 475.56 187.23 418.21 786.10 258.64 975.07 637.90 745.62 725.76 636.52 584.49 221.39 188.36 813.22 439.07 103.04 581.42 804.10 908.66 872.09 740.66 417.64 154.65 432.95 436.88 84.59 545.32 868.17 615.07 416.19 707.26 577.74 869.27 332.72 676.51 319.09 534.68 957.52 526.34 514.12 318.09 226.74 0.00 794.63 75.76 936.90 572.23 808.87 716.72
662.52 426.49 520.42 583.23 738.27 269.41 661.51 342.92 654.64 361.00 535.17 767.44 498.26 848.19 308.75 518.81 310.92 206.12 102.26 695.28 888.35 657.22 474.13 426.33 711.90 513.29 458.52 467.34 665.51 327.72 455.28 843.11 157.08 335.49 747.26 985.86 584.71 346.19 809.43 460.89 324.78 517.42 820.29 474.76 477.10 651.82 924.72 378.78 436.51 666.12 144.03 167.37 770.33 528.30 544.53 568.15 423.29 768.19 987.60 292.61 511.39 453.87 327.87 907.33 425.92 205.33 545.78 578.19 844.19 663.48 641.91 378.65 580.12 677.70 682.58 479.94 762.03 774.20 305.43 347.59 1039.78 272.67 196.88 607.94 742.15 499.09 475.47 827.19 631.76 322.83 185.55 605.73 986.44 669.61 584.89 470.71 594.35 475.54 439.61 254.74 728.87 579.27 753.02 644.20 794.63 0.00 839.90 501.43 493.46 651.87 127.32
281.41 692.31 333.65 280.62 147.32 685.79 179.24 677.43 853.60 538.36 406.25 102.77 727.31 631.43 971.43 873.41 883.25 914.54 807.05 164.53 494.50 456.16 575.11 801.98 815.20 742.34 414.35 754.29 877.52 586.15 593.96 608.25 761.42 877.19 550.92 831.30 520.64 1008.87 432.66 421.25 930.53 322.48 140.70 521.05 434.77 653.72 127.69 609.39 645.96 887.83 731.81 673.38 89.44 411.94 297.23 291.73 492.26 107.05 841.98 613.12 452.30 446.88 512.88 223.67 453.62 824.74 313.16 995.41 689.63 800.63 780.77 691.53 651.97 218.48 243.37 854.84 467.08 65.70 633.22 859.54 963.67 921.93 730.53 492.66 123.78 445.54 399.54 39.75 600.33 909.61 655.20 461.29 782.28 632.75 912.03 376.74 679.84 366.22 522.19 911.33 581.35 489.74 353.15 281.75 75.76 839.90 0.00 991.91 647.99 863.88 736.72
815.74 299.60 757.80 762.43 905.06 385.10 863.81 779.07 347.14 521.42 846.32 901.82 341.72 762.20 192.68 278.88 378.13 301.95 491.44 879.68 1009.26 768.02 800.95 314.86 482.55 326.69 635.62 361.58 379.35 667.36 819.80 725.41 565.45 172.58 770.25 782.29 632.72 230.12 884.20 621.80 187.11 793.33 943.79 598.91 657.50 570.35 1053.66 442.05 424.48 378.75 543.49 507.01 940.58 837.00 794.22 792.09 555.01 884.86 781.45 596.76 657.91 600.39 598.85 1052.13 620.80 395.05 769.10 100.52 772.29 424.02 405.83 347.44 615.70 887.21 836.12 262.72 854.09 938.89 456.48 191.90 829.65 276.49 648.75 703.03 950.60 799.98 889.83 1013.58 589.26 205.53 514.15 726.64 834.27 526.21 272.80 692.02 506.91 742.83 833.20 302.97 709.68 951.47 906.45 805.11 936.90 501.43 991.91 0.00 494.80 365.71 561.77
465.28 202.25 429.07 433.70 543.17 238.73 518.67 679.08 205.61 267.65 626.41 645.90 153.08 446.81 505.68 332.26 511.15 377.42 488.97 525.06 554.81 323.68 688.86 227.75 295.93 168.11 306.89 168.54 273.54 415.71 707.71 411.24 560.04 340.07 345.46 521.92 178.27 508.41 429.75 293.07 477.60 533.54 596.28 225.64 303.82 193.07 746.03 114.68 158.39 299.59 488.66 326.09 607.14 628.84 465.49 463.36 205.65 583.44 547.92 431.51 307.69 251.03 372.71 674.71 309.70 365.32 440.37 440.60 388.61 261.73 232.54 154.41 124.54 559.45 500.02 280.61 406.10 617.75 354.77 358.42 546.32 429.47 615.68 248.58 601.93 542.85 663.58 654.38 176.18 382.87 344.27 272.19 528.88 200.79 339.30 363.29 200.90 398.68 669.15 517.69 241.57 718.47 462.11 461.64 572.23 493.46 647.99 494.80 0.00 259.90 544.11
625.39 293.41 668.82 649.82 770.67 425.15 743.93 815.10 54.29 497.53 843.88 840.24 195.02 473.33 500.43 219.49 615.15 445.75 652.89 767.07 728.32 540.60 948.76 231.79 140.65 209.94 566.79 231.43 13.64 675.61 951.23 436.54 725.86 374.07 487.29 441.74 419.43 532.89 615.54 552.97 481.64 773.29 786.32 417.87 523.66 276.55 925.63 346.76 313.12 73.13 654.37 542.33 860.29 834.56 668.85 624.24 430.91 756.83 415.74 631.56 499.92 476.29 542.42 843.52 537.62 494.81 650.11 265.19 487.87 73.53 121.34 320.12 316.40 775.57 703.59 211.26 571.13 850.27 516.31 362.46 463.94 513.51 766.77 434.36 843.94 782.09 887.39 887.27 317.66 373.03 524.15 489.11 475.44 231.13 92.91 598.06 235.70 623.94 883.98 563.15 383.40 943.73 630.92 677.55 808.87 651.87 863.88 365.71 259.90 0.00 709.82
627.80 437.54 474.30 537.11 703.94 362.42 638.49 270.85 700.37 410.07 434.45 686.41 575.42 888.18 436.07 571.49 278.99 333.44 70.33 654.36 894.91 690.37 360.26 553.65 757.08 564.40 423.80 478.39 703.27 278.90 379.11 893.12 29.76 462.81 794.50 1033.02 647.68 473.51 855.62 409.98 452.10 468.70 782.34 551.41 476.82 715.36 864.41 442.82 490.56 730.48 55.45 263.71 647.65 425.13 510.72 510.73 484.23 735.81 1007.02 194.83 509.65 483.48 350.96 844.10 449.01 231.38 557.28 640.69 908.23 724.76 705.95 389.70 644.16 643.89 631.67 576.31 816.73 682.46 335.11 474.91 1074.99 367.73 124.81 684.59 668.23 410.51 477.96 757.56 695.80 450.15 249.09 660.43 1050.48 721.10 698.07 478.43 634.26 519.18 457.95 382.06 785.68 539.60 776.11 593.29 716.72 127.32 736.72 561.77 544.11 709.82 0.00
DEMAND_SECTION
1 0
2 39
3 79
4 36
5 50
6 49
7 40
8 66
9 57
10 42
11 94
12 21
13 26
14 85
15 24
16 44
17 21
18 31
19 15
20 12
21 18
22 40
23 77
24 32
25 63
26 49
27 84
28 16
29 79
30 62
31 63
32 61
33 75
34 7
35 73
36 98
37 91
38 45
39 35
40 78
41 5
42 72
43 20
44 61
45 16
46 62
47 36
48 6
49 6
50 79
51 84
52 49
53 25
54 96
55 88
56 84
57 68
58 36
59 82
60 93
61 24
62 35
63 97
64 9
65 56
66 42
67 93
68 6
69 58
70 94
71 83
72 11
73 98
74 5
75 40
76 12
77 75
78 29
79 4
80 14
81 57
82 13
83 70
84 67
85 45
86 56
87 51
88 47
89 70
90 3
91 5
92 11
93 91
94 91
95 36
96 52
97 79
98 86
99 97
100 43
101 92
102 54
103 44
104 45
105 27
106 25
107 16
108 50
109 100
110 57
111 81
DEPOT_SECTION
1
-1
EOF
