NAME: LDG100_3352_fog_100_0136
COMMENT: CVRP with travel times.  rootPos=3,custPos=3,demandType=5,avgRouteSizeIndex=2,weather=fog,lambda_cluster=1,lambda_random=4, T1=300,T2=700,beta=1, alpha(i,j) ~ U(0.8,1.2)
TYPE: CVRP
DIMENSION: 101
EDGE_WEIGHT_TYPE: EXPLICIT
EDGE_WEIGHT_FORMAT: FULL_MATRIX
CAPACITY: 529
NODE_COORD_SECTION
1 0 0
2 722 761
3 674 414
4 903 693
5 482 630
6 851 884
7 910 128
8 254 884
9 283 67
10 632 925
11 254 580
12 892 643
13 960 134
14 769 694
15 610 944
16 170 411
17 960 545
18 278 670
19 957 443
20 376 818
21 142 310
22 265 742
23 57 564
24 113 387
25 454 483
26 883 524
27 577 351
28 394 31
29 605 987
30 280 989
31 339 13
32 916 581
33 160 196
34 256 850
35 864 549
36 871 182
37 869 524
38 858 353
39 845 157
40 764 617
41 522 794
42 264 340
43 161 165
44 310 239
45 170 169
46 85 152
47 824 591
48 266 988
49 826 639
50 218 602
51 557 263
52 708 388
53 797 378
54 821 592
55 740 814
56 189 460
57 970 228
58 913 562
59 914 262
60 396 951
61 489 102
62 595 968
63 873 284
64 93 935
65 371 688
66 614 957
67 910 156
68 871 667
69 919 354
70 601 51
71 220 280
72 945 436
73 92 631
74 490 457
75 155 344
76 829 62
77 700 783
78 878 148
79 838 654
80 881 474
81 758 915
82 720 593
83 251 891
84 674 817
85 97 241
86 820 162
87 388 990
88 295 198
89 452 439
90 259 685
91 413 269
92 900 296
93 860 128
94 668 224
95 761 731
96 385 756
97 808 149
98 617 604
99 840 284
100 913 652
101 334 738
EDGE_WEIGHT_SECTION
0.00 1243.23 936.96 1291.99 879.49 1231.74 1099.14 995.97 471.92 1305.35 812.05 1290.07 1172.67 1179.92 1244.29 561.40 1204.22 790.14 1205.55 1044.47 448.94 846.95 752.97 481.09 739.55 1152.18 872.02 555.24 1304.63 1156.40 608.88 1205.09 273.45 942.45 1167.93 1001.31 1152.52 1060.74 1058.66 1122.39 1086.79 565.31 328.13 476.99 306.34 241.34 1206.57 1171.55 1251.25 813.03 787.82 931.02 1052.36 1215.59 1314.77 542.94 1179.79 1220.67 1105.25 1184.91 706.90 1295.54 1046.00 1138.71 932.00 1261.92 1080.43 1242.51 1150.38 834.75 404.39 1194.94 803.13 730.43 513.83 998.49 1228.71 1044.62 1250.07 1075.02 1321.17 1048.32 1013.04 1226.61 392.50 1032.97 1187.62 414.23 785.99 746.24 601.96 1113.34 1092.64 929.55 1243.13 953.21 1023.08 1030.13 999.86 1300.36 929.00
1243.23 0.00 500.57 313.12 534.15 317.99 760.65 612.39 1002.63 279.61 644.94 282.63 812.27 136.66 307.78 813.34 398.56 544.70 492.82 392.58 949.59 567.08 865.61 893.65 521.24 334.85 611.54 952.35 308.59 628.55 1014.44 341.32 969.78 577.43 318.85 714.84 354.98 553.95 734.92 270.76 342.00 715.64 935.31 766.24 937.32 1030.49 248.10 633.06 171.37 699.55 757.91 440.27 493.39 243.02 86.40 807.89 706.81 345.04 599.54 456.62 800.69 323.81 624.46 722.35 579.56 290.19 716.23 258.72 526.35 954.17 856.40 465.71 766.74 561.51 886.76 806.19 52.24 734.95 188.61 380.25 276.15 302.08 615.86 113.67 981.64 764.11 513.02 835.61 575.36 588.60 641.27 599.82 782.97 732.47 95.33 511.94 794.89 347.87 621.43 284.55 497.90
936.96 500.57 0.00 491.18 496.82 689.44 432.70 811.62 726.44 626.83 608.87 380.78 506.23 442.30 687.89 643.32 413.91 616.53 353.40 622.41 655.42 680.24 673.74 714.77 293.75 325.15 179.95 661.97 721.60 947.40 622.04 366.40 663.51 773.19 371.43 334.87 350.09 255.30 392.22 325.07 599.10 563.27 692.64 583.12 684.98 786.39 336.12 968.32 412.85 656.02 326.32 60.30 167.51 349.87 579.10 740.89 390.22 393.64 364.52 844.37 510.31 712.51 336.15 969.45 582.20 678.89 423.50 448.55 321.35 490.52 532.57 326.29 812.04 281.10 664.96 426.22 552.81 378.18 397.24 284.71 638.21 251.00 829.89 554.13 777.95 426.84 802.89 535.95 359.61 660.43 469.53 323.99 395.76 231.90 457.75 609.18 448.15 310.54 321.64 427.26 668.18
1291.99 313.12 491.18 0.00 598.30 305.97 653.32 779.39 1089.27 503.39 762.47 111.88 676.69 190.91 495.88 907.19 192.12 773.47 342.19 664.26 1021.15 761.15 1048.49 987.50 637.57 227.52 627.53 966.08 520.96 911.91 1012.20 124.78 1018.54 780.85 199.12 601.84 252.46 470.61 628.94 267.23 486.80 835.84 968.78 852.88 990.57 1063.96 170.39 916.42 141.75 818.26 715.62 470.93 463.77 184.14 348.52 856.79 542.69 173.69 492.21 739.98 847.02 511.87 517.13 977.11 684.19 478.25 608.90 54.40 399.96 887.96 955.39 315.08 974.28 608.59 981.04 730.89 339.14 645.15 137.38 292.03 422.55 299.84 762.68 397.11 1056.74 594.32 751.19 922.25 618.54 771.48 813.33 467.00 656.96 659.87 227.17 668.38 625.10 419.11 528.56 65.40 670.02
879.49 534.15 496.82 598.30 0.00 612.21 808.92 445.13 795.15 530.83 294.21 510.36 874.13 447.38 496.40 542.80 576.15 338.68 547.75 225.32 663.39 299.62 627.54 606.29 220.87 535.70 449.17 778.60 475.20 536.65 809.84 494.40 606.04 410.17 489.42 711.09 533.95 645.65 768.44 333.87 311.46 663.22 661.38 558.76 654.72 664.03 430.71 565.80 462.73 350.00 595.54 436.52 557.86 444.46 514.69 531.00 766.44 543.31 764.29 460.26 704.95 445.15 705.04 606.43 203.81 478.77 799.72 543.90 680.59 773.10 556.03 574.86 506.02 290.98 652.36 754.64 481.91 754.40 492.72 582.33 441.68 331.05 432.78 501.52 692.35 739.84 454.43 628.13 254.15 350.53 433.79 726.78 802.42 636.46 482.09 256.57 770.62 186.28 658.90 556.84 289.79
1231.74 317.99 689.44 305.97 612.21 0.00 862.35 783.91 1204.55 371.88 858.45 401.51 913.97 271.58 374.03 1000.37 498.09 758.21 523.13 597.71 1107.44 749.68 1079.12 1080.68 719.50 449.74 737.30 1088.71 434.37 754.11 1150.80 430.75 1018.26 769.37 455.21 837.00 424.80 685.73 858.94 424.25 508.51 929.15 1073.60 968.16 1066.94 1152.15 372.12 753.13 295.39 872.75 883.67 657.33 617.41 367.04 258.45 1006.18 808.51 456.50 701.24 644.83 937.05 425.28 739.35 965.63 705.01 391.66 817.93 360.37 650.37 1090.53 1054.66 550.24 980.25 652.47 1100.27 979.56 265.75 858.97 320.39 504.27 218.88 438.44 802.18 274.32 1137.31 888.13 588.43 1037.53 711.72 802.11 959.26 702.16 881.49 876.87 231.69 595.11 918.91 425.93 763.72 371.37 658.55
1099.14 760.65 432.70 653.32 808.92 862.35 0.00 1130.19 757.13 958.74 951.12 607.68 73.53 710.67 970.11 893.74 493.92 953.44 395.13 1023.65 941.15 1030.71 1048.50 974.05 674.21 425.80 445.91 657.62 995.19 1224.79 682.41 528.54 825.69 1076.67 472.08 97.83 450.74 291.23 135.16 623.73 897.28 819.88 841.60 725.84 842.62 936.78 550.31 1198.90 604.66 994.25 478.25 372.40 342.76 542.47 803.87 964.16 161.89 494.29 161.11 1111.72 527.53 986.10 227.10 1272.93 896.34 952.48 44.42 644.95 266.42 402.81 869.90 368.02 1150.27 619.33 937.14 117.21 803.14 89.08 572.04 412.52 939.62 636.72 1147.26 843.39 944.74 148.97 1162.86 684.91 706.54 965.89 664.11 216.10 118.52 345.82 682.52 1006.24 179.75 622.64 249.80 609.16 982.32
995.97 612.39 811.62 779.39 445.13 783.91 1130.19 0.00 1006.86 462.86 393.87 756.72 1144.73 615.43 429.08 570.00 846.31 293.63 940.89 219.81 706.25 178.86 509.01 650.31 532.96 799.43 684.28 1085.82 407.88 204.73 1088.33 815.41 824.21 53.52 775.74 1062.17 774.49 980.32 1108.46 684.81 397.27 697.68 879.55 770.47 872.89 883.62 772.05 175.58 695.32 350.82 830.12 802.22 892.53 761.38 652.87 579.49 1132.14 804.07 1052.72 262.04 982.52 377.83 932.90 197.87 312.34 411.45 1085.77 726.55 977.00 1092.84 794.59 939.80 368.27 603.07 721.86 1168.14 649.40 1105.48 662.70 868.65 604.01 698.14 18.27 590.33 828.78 1073.84 259.58 831.04 558.70 249.73 774.11 1000.24 1136.48 883.48 552.22 202.44 1104.62 612.34 979.04 758.64 269.98
471.92 1002.63 726.44 1089.27 795.15 1204.55 757.13 1006.86 0.00 1135.72 669.49 1081.49 808.75 1068.02 1074.66 483.48 991.58 755.33 879.68 921.51 347.23 849.01 663.37 476.14 622.19 970.10 658.78 220.06 1132.87 1139.99 136.96 964.49 294.96 968.01 973.63 713.00 995.04 809.86 770.35 923.39 907.52 426.87 268.07 236.39 246.28 347.69 969.62 1110.84 1046.35 656.04 533.47 764.19 831.91 983.37 1089.03 494.00 857.71 920.90 783.17 1090.35 317.62 1125.91 723.92 1067.89 714.64 1092.29 712.71 1088.13 746.84 496.49 383.05 883.62 721.69 552.08 368.10 727.94 1054.87 756.31 1051.07 892.94 1236.83 849.32 1025.13 1109.25 393.20 740.89 1114.92 190.49 611.31 771.80 361.36 748.47 803.53 634.03 1022.98 824.54 710.11 822.94 677.78 1090.76 800.62
1305.35 279.61 626.83 503.39 530.83 371.88 958.74 462.86 1135.72 0.00 638.80 473.06 1010.36 339.43 61.06 907.87 596.65 632.91 690.91 426.99 1006.76 557.24 870.19 908.25 653.00 532.94 647.93 1133.24 94.77 512.39 1181.43 539.41 1031.90 480.59 499.74 928.23 557.88 713.02 955.55 412.23 252.63 890.77 1068.06 899.33 1080.58 1152.61 496.05 512.14 419.32 630.78 794.30 687.13 741.34 490.97 293.84 819.73 904.90 543.13 797.63 386.53 981.58 85.68 798.96 641.65 503.25 52.06 914.32 474.59 738.75 985.51 988.16 663.80 786.80 643.93 948.89 1053.05 227.37 915.46 386.70 592.65 217.29 469.07 444.59 165.94 1129.29 964.10 346.71 968.70 718.86 593.18 815.85 797.91 963.48 847.13 276.22 423.76 994.88 450.21 845.10 482.64 490.41
812.05 644.94 608.87 762.47 294.21 858.45 951.12 393.87 669.49 638.80 0.00 759.62 971.13 677.31 605.34 332.88 870.36 100.24 841.96 386.86 369.18 234.60 352.55 387.73 315.12 826.91 543.42 768.58 584.14 501.55 806.45 788.61 538.60 340.35 783.63 853.29 801.97 801.29 910.64 628.08 386.17 374.00 545.18 433.10 524.92 626.33 724.92 530.70 731.96 55.79 689.79 655.84 713.50 732.43 641.77 269.11 916.09 837.52 843.84 517.72 626.70 554.09 724.02 479.83 226.09 587.71 941.92 708.07 853.91 805.57 426.45 869.07 211.81 385.23 417.92 958.83 592.70 896.60 764.58 807.22 688.98 625.26 410.94 591.17 491.71 880.22 461.32 502.47 380.98 144.14 558.07 791.36 932.31 730.71 726.70 267.50 849.44 480.49 770.16 765.92 285.59
1290.07 282.63 380.78 111.88 510.36 401.51 607.68 756.72 1081.49 473.06 759.62 0.00 659.30 193.12 478.37 870.71 173.20 714.60 326.21 675.21 1005.90 713.39 996.17 951.02 588.29 193.73 549.56 912.81 502.04 837.48 962.92 118.04 1032.41 783.06 147.45 563.62 211.26 430.90 610.02 176.49 500.17 782.57 982.15 846.14 983.73 1077.33 117.12 863.52 113.39 815.41 672.26 359.05 435.41 130.87 257.50 803.52 553.85 160.59 458.42 739.25 803.46 494.36 471.15 954.59 630.92 460.74 563.26 67.77 341.26 786.13 906.11 299.10 960.59 568.45 937.68 711.97 334.87 603.97 94.02 240.36 393.84 250.56 774.99 307.12 1020.26 575.40 707.83 915.51 582.06 719.16 768.28 428.78 638.04 612.68 204.50 640.82 606.18 390.75 502.62 46.48 626.66
1172.67 812.27 506.23 676.69 874.13 913.97 73.53 1144.73 808.75 1010.36 971.13 659.30 0.00 762.29 1022.39 945.36 502.43 996.89 446.75 950.12 950.04 1082.33 1100.12 1025.67 725.83 477.42 497.53 709.24 1047.47 1276.41 734.03 551.91 899.22 1126.49 523.70 171.36 502.36 333.05 187.44 675.35 944.78 864.18 903.80 734.73 893.20 994.61 601.93 1251.18 656.28 1026.92 495.85 445.93 415.75 594.09 795.45 1037.69 230.14 545.91 212.73 1184.71 581.13 1038.38 247.11 1253.70 947.96 1004.76 96.04 687.00 318.04 460.21 921.52 419.64 1182.94 670.95 1010.67 190.74 854.76 141.36 623.66 464.14 981.44 678.54 1163.00 904.08 1018.27 166.57 1179.23 758.44 758.16 1038.20 681.71 267.72 129.80 390.12 734.14 942.29 188.64 696.17 293.25 629.15 1033.94
1179.92 136.66 442.30 190.91 447.38 271.58 710.67 615.43 1068.02 339.43 677.31 193.12 762.29 0.00 400.49 792.80 301.70 624.47 396.02 529.24 929.05 630.72 857.58 873.11 556.43 284.87 579.42 920.23 404.58 721.00 931.06 219.95 1005.19 589.94 271.31 664.91 280.16 449.70 692.23 173.43 431.76 811.63 1021.35 852.28 1039.99 938.58 179.19 725.51 138.90 712.88 725.79 502.60 460.92 168.20 176.16 840.85 656.83 268.86 549.56 549.07 768.57 419.80 535.64 786.20 587.37 386.18 666.25 197.72 463.08 870.79 874.25 410.25 851.53 536.59 963.90 797.79 148.23 666.04 171.52 347.78 372.14 218.70 633.70 209.66 981.44 700.78 589.91 921.65 543.24 580.57 777.93 549.84 714.06 674.20 63.21 477.47 695.45 302.85 581.78 234.09 539.59
1244.29 307.78 687.89 495.88 496.40 374.03 970.11 429.08 1074.66 61.06 605.34 478.37 1022.39 400.49 0.00 846.81 651.57 598.48 657.75 419.96 974.52 509.55 866.48 873.82 673.45 567.81 700.52 1134.37 60.34 477.96 1170.14 571.82 970.84 419.53 560.80 899.38 592.75 774.08 927.11 444.00 257.16 918.94 1007.00 838.27 1019.52 1091.55 513.90 477.71 479.15 569.72 846.89 639.39 745.03 527.65 232.78 862.99 939.77 604.19 832.50 352.10 1042.64 51.25 857.42 607.22 473.12 17.63 926.35 535.65 788.15 1046.57 1003.32 684.86 725.74 663.52 953.42 1005.31 255.54 881.03 447.76 642.05 203.09 457.78 447.35 206.14 1089.89 961.73 312.28 907.64 711.47 597.71 820.38 832.78 929.05 899.72 337.28 389.33 992.51 389.15 861.77 524.85 478.71
561.40 813.34 643.32 907.19 542.80 1000.37 893.74 570.00 483.48 907.87 332.88 870.71 945.36 792.80 846.81 0.00 945.74 369.97 945.23 637.88 136.25 458.35 212.16 80.31 354.51 841.96 543.44 578.92 907.15 737.20 612.94 870.02 287.95 524.08 795.68 920.81 862.11 827.08 863.46 766.31 668.42 160.12 312.25 266.98 334.04 329.90 796.83 708.05 854.73 277.09 538.64 665.37 752.89 783.08 847.16 110.43 995.29 851.31 944.38 740.38 609.01 886.97 906.06 685.81 513.63 864.44 849.32 852.79 906.73 731.26 259.10 918.12 339.61 375.86 171.10 920.61 761.10 894.64 879.16 838.52 984.48 692.24 588.27 810.38 258.78 843.85 683.98 336.35 288.65 327.87 391.95 889.39 906.49 634.18 768.68 579.12 813.07 610.97 859.92 910.64 549.48
1204.22 398.56 413.91 192.12 576.15 498.09 493.92 846.31 991.58 596.65 870.36 173.20 502.43 301.70 651.57 945.74 0.00 839.27 153.01 791.14 1025.16 789.60 1067.32 1004.73 643.57 184.49 561.21 896.65 654.38 902.77 979.75 81.75 1013.39 891.64 150.06 412.66 199.89 334.38 470.01 242.28 616.97 858.78 978.92 809.85 1000.71 1074.10 193.33 931.92 242.57 926.15 685.96 391.89 273.25 207.08 430.70 857.29 385.76 130.66 332.81 850.77 744.99 664.82 345.16 1044.18 707.13 633.94 449.50 184.57 244.74 773.81 946.48 125.90 1040.83 573.46 1006.10 605.62 398.03 455.97 209.95 129.20 483.87 316.35 864.58 459.46 1098.87 480.17 823.76 879.22 660.67 795.37 801.12 277.82 503.99 532.71 320.43 770.00 510.95 473.78 339.38 126.72 710.52
790.14 544.70 616.53 773.47 338.68 758.21 953.44 293.63 755.33 632.91 100.24 714.60 996.89 624.47 598.48 369.97 839.27 0.00 886.43 328.51 469.42 169.27 320.91 450.28 415.36 748.86 643.66 854.42 577.84 416.27 856.87 794.32 633.66 240.11 738.06 868.11 744.15 802.67 874.95 669.90 384.45 404.05 606.77 518.94 584.98 616.98 645.94 445.42 631.72 154.85 705.69 593.54 714.88 632.19 578.52 369.35 883.57 785.86 809.03 474.96 726.94 573.75 749.78 436.37 159.61 580.85 909.68 719.07 865.00 905.81 526.69 859.53 310.87 485.47 518.16 959.46 492.46 864.36 664.34 781.06 716.37 621.13 310.70 553.89 591.95 909.57 499.53 588.31 481.22 43.90 643.91 817.12 912.38 772.74 626.46 209.15 940.35 428.44 703.64 760.28 232.98
1205.55 492.82 353.40 342.19 547.75 523.13 395.13 940.89 879.68 690.91 841.96 326.21 446.75 396.02 657.75 945.23 153.01 886.43 0.00 773.07 1008.82 847.37 1027.14 1025.54 633.82 178.63 483.61 797.86 718.09 975.87 880.96 217.41 966.46 957.92 223.16 313.87 203.57 212.63 371.22 325.96 763.20 866.93 939.57 796.38 917.78 1019.19 308.42 1005.02 336.83 897.75 596.28 293.10 246.10 295.30 507.60 858.62 286.97 168.50 234.02 945.09 646.20 709.00 243.29 1138.76 751.56 675.38 350.71 335.73 132.84 675.02 885.97 27.11 1053.77 569.37 966.29 506.83 533.69 357.18 304.21 130.53 636.88 376.27 922.62 577.21 1085.51 381.38 918.02 826.22 656.58 883.59 702.33 179.03 405.20 472.56 414.69 804.32 412.16 514.11 240.59 279.73 794.86
1044.47 392.58 622.41 664.26 225.32 597.71 1023.65 219.81 921.51 426.99 386.86 675.21 950.12 529.24 419.96 637.88 791.14 328.51 773.07 0.00 677.19 197.52 588.18 692.74 446.19 727.43 674.49 898.93 398.76 326.93 868.52 719.72 799.12 184.85 711.43 936.41 747.56 819.77 993.76 559.19 177.46 732.56 809.48 731.38 802.50 862.72 640.68 356.08 563.95 423.83 747.04 661.84 731.98 635.60 433.06 605.11 991.76 737.62 923.16 234.94 930.27 368.71 875.13 381.11 229.26 402.33 1002.65 609.86 780.65 998.42 734.67 800.18 546.95 516.30 608.97 979.96 430.08 979.72 581.19 736.69 623.05 556.37 223.28 425.95 799.72 965.16 229.11 731.02 479.47 328.00 659.11 868.17 1018.17 842.39 487.91 119.36 995.94 411.60 828.99 667.71 210.06
448.94 949.59 655.42 1021.15 663.39 1107.44 941.15 706.25 347.23 1006.76 369.18 1005.90 950.04 929.05 974.52 136.25 1025.16 469.42 1008.82 677.19 0.00 594.60 348.41 143.54 458.01 978.21 624.03 442.67 953.32 836.99 484.19 943.41 220.34 660.33 931.93 871.76 981.30 799.06 826.80 852.47 755.35 260.56 176.00 215.31 197.79 271.18 903.43 844.30 938.22 413.34 526.14 715.72 769.83 889.68 983.41 217.03 993.38 987.56 929.18 839.30 557.34 923.27 885.00 768.01 595.27 956.89 918.20 989.04 888.70 600.68 122.85 981.71 421.81 464.00 68.22 868.94 897.35 872.88 911.88 940.13 1058.16 778.40 724.52 902.67 122.53 792.18 820.23 284.68 424.90 464.12 340.28 899.84 854.82 715.32 904.93 613.65 761.40 681.51 870.31 1007.82 518.44
846.95 567.08 680.24 761.15 299.62 749.68 1030.71 178.86 849.01 557.24 234.60 713.39 1082.33 630.72 509.55 458.35 789.60 169.27 847.37 197.52 594.60 0.00 407.49 538.66 414.50 699.19 642.80 955.32 501.61 327.13 973.72 716.34 729.73 164.39 688.39 959.24 694.48 832.66 1005.67 633.49 328.91 573.32 729.50 636.49 707.71 764.37 596.27 354.44 638.99 226.58 680.45 684.67 752.04 582.52 584.51 460.24 1014.59 736.19 958.88 397.07 803.66 471.56 899.63 360.65 134.37 505.18 986.29 711.66 880.16 914.87 615.74 858.88 382.60 483.44 609.05 1050.59 514.84 1002.55 623.77 755.82 611.32 627.12 197.13 475.36 717.13 971.05 340.67 705.86 480.36 130.48 730.31 933.44 1030.52 747.50 579.48 186.34 998.94 434.43 853.49 719.71 91.13
752.97 865.61 673.74 1048.49 627.54 1079.12 1048.50 509.01 663.37 870.19 352.55 996.17 1100.12 857.58 866.48 212.16 1067.32 320.91 1027.14 588.18 348.41 407.49 0.00 292.47 522.34 981.97 750.64 738.99 846.58 598.73 797.96 1018.53 479.52 473.22 944.19 1008.61 977.26 929.04 1065.96 930.83 617.56 372.28 475.92 479.14 454.13 542.06 879.05 569.58 936.95 296.76 750.80 734.04 841.25 865.30 873.16 210.03 1063.96 999.82 1038.26 716.31 801.21 850.22 990.45 486.94 428.35 857.09 1004.08 1002.09 995.09 943.42 471.26 1000.03 140.74 588.02 358.84 1057.14 813.37 1049.40 914.20 938.12 1018.81 860.07 527.28 874.80 461.13 1056.01 735.01 472.88 500.81 277.01 604.11 997.73 1069.50 846.34 920.79 530.06 1025.23 749.35 995.38 1010.14 498.62
481.09 893.65 714.77 987.50 606.29 1080.68 974.05 650.31 476.14 908.25 387.73 951.02 1025.67 873.11 873.82 80.31 1004.73 450.28 1025.54 692.74 143.54 538.66 292.47 0.00 434.82 900.95 601.14 586.21 852.62 693.45 585.02 929.01 207.64 604.39 854.67 935.50 921.10 907.39 934.84 846.62 748.73 217.82 262.98 347.29 256.32 341.53 855.85 722.60 913.75 331.94 570.94 745.68 833.20 842.10 927.47 169.45 1052.73 910.30 1023.01 811.42 600.55 822.57 963.76 668.24 570.39 856.19 929.63 933.10 987.04 724.39 182.20 998.43 322.04 456.17 108.04 932.68 841.41 974.95 946.37 897.54 973.54 772.55 668.58 890.69 265.46 900.22 764.29 348.42 368.96 408.18 385.08 969.70 962.86 691.88 848.99 576.98 893.38 691.28 917.62 990.95 629.79
739.55 521.24 293.75 637.57 220.87 719.50 674.21 532.96 622.19 653.00 315.12 588.29 725.83 556.43 673.45 354.51 643.57 415.36 633.82 446.19 458.01 414.50 522.34 434.82 0.00 565.57 228.30 672.07 681.98 693.39 588.97 572.33 466.10 479.44 551.55 615.29 540.63 486.17 640.67 411.80 478.96 442.35 521.44 385.80 514.78 599.99 495.98 708.54 522.44 370.91 374.67 340.72 398.38 509.73 607.64 447.14 641.86 607.18 616.29 633.38 538.23 666.02 567.02 675.70 288.45 691.08 629.79 583.17 552.22 648.45 335.16 606.71 526.93 70.11 431.49 706.64 548.49 658.60 539.48 578.46 662.55 337.73 550.03 487.06 504.06 617.86 667.18 455.17 65.86 459.26 315.81 586.95 617.19 415.59 544.48 376.80 648.64 293.57 544.78 607.50 374.43
1152.18 334.85 325.15 227.52 535.70 449.74 425.80 799.43 970.10 532.94 826.91 193.73 477.42 284.87 567.81 841.96 184.49 748.86 178.63 727.43 978.21 699.19 981.97 900.95 565.57 0.00 474.69 853.95 621.58 798.99 937.05 102.74 919.80 852.95 46.28 399.81 24.94 243.09 457.16 201.83 611.71 768.37 892.91 826.84 871.12 972.53 130.42 828.14 178.86 837.27 582.18 366.90 270.53 116.67 378.07 789.32 371.96 68.49 264.69 791.47 702.29 618.62 289.61 997.30 644.22 585.00 381.38 219.15 223.26 712.58 857.72 197.08 975.92 519.79 938.13 543.01 377.34 426.70 146.24 77.16 540.51 227.84 817.70 426.66 1034.37 467.32 760.05 861.10 607.00 704.96 732.97 264.97 455.00 529.99 256.72 706.29 498.10 370.00 335.75 183.36 678.88
872.02 611.54 179.95 627.53 449.17 737.30 445.91 684.28 658.78 647.93 543.42 549.56 497.53 579.42 700.52 543.44 561.21 643.66 483.61 674.49 624.03 642.80 750.64 601.14 228.30 474.69 0.00 545.42 674.32 844.71 628.52 502.75 599.23 630.76 428.41 465.08 494.84 375.75 424.18 505.02 582.27 383.32 543.89 422.39 565.68 639.07 459.03 859.86 535.76 548.34 146.37 190.51 287.96 472.78 637.56 653.87 496.41 484.04 421.87 736.69 393.76 704.37 362.62 827.02 516.75 699.99 401.49 601.28 421.35 420.15 548.74 456.50 704.36 173.42 555.81 523.60 607.00 446.81 527.45 464.66 818.16 430.95 701.35 668.43 649.32 389.56 793.09 491.76 260.63 653.34 332.23 429.96 452.20 199.20 516.21 605.10 420.34 311.37 316.48 596.04 557.46
555.24 952.35 661.97 966.08 778.60 1088.71 657.62 1085.82 220.06 1133.24 768.58 912.81 709.24 920.23 1134.37 578.92 896.65 854.42 797.86 898.93 442.67 955.32 738.99 586.21 672.07 853.95 545.42 0.00 1113.17 1143.04 83.10 873.90 393.94 1043.63 807.67 621.47 874.10 715.34 609.55 869.53 986.04 525.96 367.05 335.48 345.26 446.67 795.69 1172.19 853.59 735.00 399.05 601.67 692.30 781.94 978.37 569.62 763.19 824.99 673.82 1133.87 151.66 1083.12 629.40 1204.43 837.60 1116.74 613.20 921.10 706.35 330.53 458.67 770.75 858.23 618.51 510.89 561.98 991.02 655.63 886.21 852.45 1192.45 795.46 1104.09 976.23 512.99 574.93 1128.04 266.11 624.03 847.42 422.82 618.83 637.57 468.07 857.02 902.80 544.15 851.91 583.26 947.66 911.79
1304.63 308.59 721.60 520.96 475.20 434.37 995.19 407.88 1132.87 94.77 584.14 502.04 1047.47 404.58 60.34 907.15 654.38 577.84 718.09 398.76 953.32 501.61 846.58 852.62 681.98 621.58 674.32 1113.17 0.00 456.76 1193.95 572.63 1031.18 461.40 588.38 949.42 629.90 807.79 952.19 446.17 282.24 919.75 1067.34 898.61 1079.86 1139.23 531.69 456.51 479.96 630.06 820.69 699.73 788.33 517.94 276.08 841.79 993.54 621.54 886.27 330.90 1068.08 30.05 893.73 605.75 418.23 42.71 951.43 522.01 815.58 1080.28 1010.59 745.20 776.15 691.09 960.66 1055.76 256.35 906.11 475.34 681.29 263.43 498.05 426.15 194.92 1075.85 986.81 291.08 967.98 729.35 603.99 845.46 886.55 954.13 873.52 364.86 414.41 1017.59 449.49 922.11 548.52 504.21
1156.40 628.55 947.40 911.91 536.65 754.11 1224.79 204.73 1139.99 512.39 501.55 837.48 1276.41 721.00 477.96 737.20 902.77 416.27 975.87 326.93 836.99 327.13 598.73 693.45 693.39 798.99 844.71 1143.04 456.76 0.00 1165.94 827.05 901.09 213.95 752.71 1182.28 819.14 1028.68 1185.05 762.85 449.30 713.12 956.43 903.60 949.77 1033.25 819.37 29.15 799.92 527.27 965.90 962.65 940.89 805.62 621.14 677.36 1094.54 808.34 1063.68 171.93 1128.25 426.71 1088.60 309.91 448.12 460.33 1180.37 867.38 991.72 1195.96 875.65 948.76 573.00 735.20 801.49 1288.62 591.79 1138.97 779.49 845.62 563.40 717.57 223.00 530.36 958.91 1179.57 165.68 972.97 717.62 410.16 934.54 1063.96 1186.99 1043.91 700.30 338.22 1210.35 722.93 1095.02 875.43 400.31
608.88 1014.44 622.04 1012.20 809.84 1150.80 682.41 1088.33 136.96 1181.43 806.45 962.92 734.03 931.06 1170.14 612.94 979.75 856.87 880.96 868.52 484.19 973.72 797.96 585.02 588.97 937.05 628.52 83.10 1193.95 1165.94 0.00 946.96 377.38 1053.37 890.77 704.57 915.26 798.44 692.65 786.43 1044.48 452.82 322.04 373.35 343.83 417.22 870.61 1136.79 915.29 793.00 482.15 682.34 758.16 865.04 1040.46 629.14 786.75 908.09 754.68 1103.46 234.76 1163.90 712.50 1134.33 851.60 1187.77 637.99 957.80 789.45 413.63 508.32 853.85 858.65 659.08 505.06 645.08 1053.11 683.31 914.11 906.75 1136.35 712.36 1091.80 1015.49 496.43 658.03 1097.63 325.63 654.83 900.77 498.32 701.93 720.67 498.70 919.11 961.50 627.25 786.74 666.36 991.31 937.58
1205.09 341.32 366.40 124.78 494.40 430.75 528.54 815.41 964.49 539.41 788.61 118.04 551.91 219.95 571.82 870.02 81.75 794.32 217.41 719.72 943.41 716.34 1018.53 929.01 572.33 102.74 502.75 873.90 572.63 827.05 946.96 0.00 931.64 809.89 74.34 477.06 127.68 345.83 534.41 160.53 611.58 813.83 897.17 728.10 918.96 992.35 148.38 856.20 185.03 844.40 608.99 391.65 355.00 162.13 375.54 834.78 450.16 48.91 367.43 769.02 722.24 587.85 392.35 1006.15 662.18 554.23 484.12 179.18 275.18 785.29 890.15 190.30 998.93 552.49 983.59 645.75 316.28 520.37 152.71 167.25 483.42 234.60 827.07 377.71 1042.96 544.57 766.52 797.47 638.19 750.42 757.26 342.22 557.74 535.09 263.19 695.59 575.35 398.06 403.78 126.27 685.35
273.45 969.78 663.51 1018.54 606.04 1018.26 825.69 824.21 294.96 1031.90 538.60 1032.41 899.22 1005.19 970.84 287.95 1013.39 633.66 966.46 799.12 220.34 729.73 479.52 207.64 466.10 919.80 599.23 393.94 1031.18 901.09 377.38 931.64 0.00 795.46 961.29 727.86 894.86 787.29 785.21 860.56 874.67 296.36 55.34 203.54 48.68 133.89 944.74 917.70 988.54 539.58 514.37 673.36 794.70 942.14 1045.82 269.49 906.34 980.55 831.80 911.46 480.33 1022.09 772.55 873.65 705.66 988.47 806.98 969.72 876.93 561.30 130.94 939.35 529.68 519.23 255.85 725.04 959.76 771.17 988.24 948.22 1047.72 786.49 842.48 953.16 119.05 775.31 967.86 140.78 512.54 599.25 328.51 839.89 819.19 656.10 992.57 679.76 749.63 759.67 726.41 1027.57 655.55
942.45 577.43 773.19 780.85 410.17 769.37 1076.67 53.52 968.01 480.59 340.35 783.06 1126.49 589.94 419.53 524.08 891.64 240.11 957.92 184.85 660.33 164.39 473.22 604.39 479.44 852.95 630.76 1043.63 461.40 213.95 1053.37 809.89 795.46 0.00 829.26 1008.65 828.01 957.83 1054.94 737.13 347.45 644.16 836.33 748.17 825.09 830.10 760.66 229.10 728.84 328.52 777.13 748.70 870.04 746.91 603.05 525.97 1078.62 857.59 999.20 314.36 967.05 431.35 879.38 196.26 298.76 437.16 1032.25 778.87 965.50 1050.91 741.07 984.21 365.98 549.55 674.78 1114.62 614.93 1051.96 716.22 920.21 550.49 741.22 70.59 600.69 782.86 1020.32 313.10 777.52 545.30 196.21 720.59 946.72 1082.96 829.96 605.74 255.96 1051.10 596.45 925.52 812.16 216.46
1167.93 318.85 371.43 199.12 489.42 455.21 472.08 775.74 973.63 499.74 783.63 147.45 523.70 271.31 560.80 795.68 150.06 738.06 223.16 711.43 931.93 688.39 944.19 854.67 551.55 46.28 428.41 807.67 588.38 752.71 890.77 74.34 961.29 829.26 0.00 446.09 66.43 289.37 503.44 155.55 565.43 757.57 934.40 802.44 912.61 1014.02 92.12 781.86 168.85 800.41 535.90 398.37 291.25 105.87 344.87 778.52 411.84 55.63 310.97 775.47 656.01 585.42 335.89 973.61 605.92 551.80 427.66 172.87 239.01 710.95 869.37 196.05 942.67 531.71 927.33 589.29 357.52 472.98 144.42 92.91 505.47 213.82 794.01 393.46 1023.57 513.60 758.23 871.81 617.41 694.16 721.76 311.25 501.28 541.81 223.52 690.61 524.75 323.72 375.55 180.84 677.06
1001.31 714.84 334.87 601.84 711.09 837.00 97.83 1062.17 713.00 928.23 853.29 563.62 171.36 664.91 899.38 920.81 412.66 868.11 313.87 936.41 871.76 959.24 1008.61 935.50 615.29 399.81 465.08 621.47 949.42 1182.28 704.57 477.06 727.86 1008.65 446.09 0.00 424.75 215.21 57.35 598.84 799.45 789.58 743.77 656.45 744.79 838.95 506.25 1153.13 566.95 909.08 421.25 274.57 244.93 516.48 757.18 866.33 200.00 428.15 143.28 1013.89 515.24 940.33 129.27 1204.91 837.40 906.71 88.63 595.38 222.36 385.61 779.64 286.76 1065.10 615.97 839.31 192.96 710.99 43.31 546.05 368.46 863.60 560.70 1079.24 772.42 846.91 91.97 1070.29 587.08 632.16 868.06 607.11 134.84 91.33 315.52 656.53 912.97 122.75 524.81 175.41 539.38 905.84
1152.52 354.98 350.09 252.46 533.95 424.80 450.74 774.49 995.04 557.88 801.97 211.26 502.36 280.16 592.75 862.11 199.89 744.15 203.57 747.56 981.30 694.48 977.26 921.10 540.63 24.94 494.84 874.10 629.90 819.14 915.26 127.68 894.86 828.01 66.43 424.75 0.00 268.03 456.74 221.98 631.86 763.66 867.97 833.00 846.18 947.59 125.71 848.29 183.61 832.56 602.33 341.96 245.59 111.96 403.01 784.61 396.90 93.43 289.63 811.19 722.44 643.56 314.55 972.36 639.51 609.94 406.32 239.30 248.20 737.52 858.45 222.02 971.21 520.79 933.42 567.95 402.28 451.64 171.18 102.10 555.15 202.90 792.76 451.60 1013.91 491.36 754.79 886.04 606.49 700.25 708.03 289.91 479.94 505.05 281.66 711.04 522.14 390.15 360.69 198.00 703.82
1060.74 553.95 255.30 470.61 645.65 685.73 291.23 980.32 809.86 713.02 801.29 430.90 333.05 449.70 774.08 827.08 334.38 802.67 212.63 819.77 799.06 832.66 929.04 907.39 486.17 243.09 375.75 715.34 807.79 1028.68 798.44 345.83 787.29 957.83 289.37 215.21 268.03 0.00 242.53 393.02 642.31 718.69 752.82 583.75 774.61 848.00 326.89 1033.19 391.98 854.15 504.37 209.13 87.79 320.33 597.17 928.94 237.39 311.58 130.12 856.75 563.68 798.70 85.94 1154.09 698.29 765.08 246.81 453.23 89.64 544.72 787.87 226.42 1010.17 479.23 867.28 387.46 597.93 258.52 365.34 235.74 648.39 345.49 962.05 644.27 898.61 251.08 897.38 653.12 538.43 846.57 618.36 100.78 306.49 347.25 475.82 787.13 281.86 459.37 132.08 426.45 748.70
1058.66 734.92 392.22 628.94 768.44 858.94 135.16 1108.46 770.35 955.55 910.64 610.02 187.44 692.23 927.11 863.46 470.01 874.95 371.22 993.76 826.80 1005.67 1065.96 934.84 640.67 457.16 424.18 609.55 952.19 1185.05 692.65 534.41 785.21 1054.94 503.44 57.35 456.74 242.53 0.00 588.84 822.84 732.23 780.56 611.49 761.25 862.66 532.93 1155.90 563.55 956.85 363.90 331.92 298.96 546.68 811.21 923.68 202.77 485.50 200.63 1067.92 457.89 943.10 186.62 1251.20 871.30 909.48 91.40 621.39 277.28 328.26 836.99 344.11 1112.87 597.60 895.02 144.93 768.34 46.08 596.17 423.38 890.92 588.02 1125.53 829.77 904.26 34.62 1048.51 644.43 574.81 918.85 549.76 192.19 63.96 258.17 706.65 970.32 65.40 582.16 171.31 563.54 933.67
1122.39 270.76 325.07 267.23 333.87 424.25 623.73 684.81 923.39 412.23 628.08 176.49 675.35 173.43 444.00 766.31 242.28 669.90 325.96 559.19 852.47 633.49 930.83 846.62 411.80 201.83 505.02 869.53 446.17 762.85 786.43 160.53 860.56 737.13 155.55 598.84 221.98 393.02 588.84 0.00 504.95 762.29 876.72 707.65 898.51 971.90 96.84 734.84 128.86 683.87 651.39 378.71 408.50 110.59 307.57 783.24 567.39 209.44 462.62 682.36 811.56 459.99 473.50 882.68 537.68 426.37 579.31 216.21 376.48 726.16 729.62 350.83 839.89 391.96 843.29 733.34 280.94 583.69 160.15 248.46 349.92 74.07 666.54 251.25 915.86 623.46 625.96 777.02 477.66 653.82 727.61 464.00 631.71 556.97 229.44 535.06 654.24 241.46 504.56 222.97 623.66
1086.79 342.00 599.10 486.80 311.46 508.51 897.28 397.27 907.52 252.63 386.17 500.17 944.78 431.76 257.16 668.42 616.97 384.45 763.20 177.46 755.35 328.91 617.56 748.73 478.96 611.71 582.27 986.04 282.24 449.30 1044.48 611.58 874.67 347.45 565.43 799.45 631.86 642.31 822.84 504.95 0.00 752.85 840.20 671.13 861.99 935.38 536.72 453.81 513.37 441.96 728.64 538.80 554.52 550.47 255.60 655.28 831.46 599.63 756.92 277.37 834.38 273.15 697.67 543.71 250.62 239.53 857.57 432.40 708.36 902.53 762.39 736.09 597.98 408.85 696.26 904.72 341.66 812.25 487.43 658.34 460.25 481.25 400.74 398.59 877.88 801.45 319.05 740.50 496.06 340.55 563.22 743.09 860.27 728.75 376.95 296.82 832.23 288.56 651.53 490.25 237.78
565.31 715.64 563.27 835.84 663.22 929.15 819.88 697.68 426.87 890.77 374.00 782.57 864.18 811.63 918.94 160.12 858.78 404.05 866.93 732.56 260.56 573.32 372.28 217.82 442.35 768.37 383.32 525.96 919.75 713.12 452.82 813.83 296.36 644.16 757.57 789.58 763.66 718.69 732.23 762.29 752.85 0.00 249.94 190.48 271.73 323.97 665.45 683.97 723.35 429.79 408.38 573.83 630.90 651.70 749.46 270.55 879.73 805.37 805.19 860.41 532.51 928.09 745.94 840.42 563.66 901.35 784.81 790.86 784.74 595.07 165.42 839.82 499.73 505.12 275.57 834.18 663.40 778.31 755.97 816.66 887.31 780.08 714.75 724.83 266.00 697.61 835.32 259.85 433.96 447.95 292.90 809.00 760.25 474.06 797.40 613.20 725.50 694.69 699.80 817.42 637.03
328.13 935.31 692.64 968.78 661.38 1073.60 841.60 879.55 268.07 1068.06 545.18 982.15 903.80 1021.35 1007.00 312.25 978.92 606.77 939.57 809.48 176.00 729.50 475.92 262.98 521.44 892.91 543.89 367.05 1067.34 956.43 322.04 897.17 55.34 836.33 934.40 743.77 867.97 752.82 780.56 876.72 840.20 249.94 0.00 169.07 21.79 95.18 915.39 933.91 973.29 588.72 479.90 646.47 767.81 901.64 999.40 324.83 922.25 946.08 847.71 966.80 492.66 1058.25 788.46 900.30 671.19 1024.63 822.89 914.38 842.46 616.64 186.28 912.46 554.10 484.76 200.51 740.95 913.34 787.08 983.41 966.15 1103.06 802.65 897.82 974.77 174.39 745.94 995.31 156.69 543.99 640.12 294.04 853.60 808.58 669.08 1009.40 704.93 715.16 784.46 742.32 972.23 694.44
476.99 766.24 583.12 852.88 558.76 968.16 725.84 770.47 236.39 899.33 433.10 846.14 734.73 852.28 838.27 266.98 809.85 518.94 796.38 731.38 215.31 636.49 479.14 347.29 385.80 826.84 422.39 335.48 898.61 903.60 373.35 728.10 203.54 748.17 802.44 656.45 833.00 583.75 611.49 707.65 671.13 190.48 169.07 0.00 190.86 264.25 791.83 874.45 836.51 419.65 310.83 534.20 655.54 805.58 852.64 372.88 799.85 777.01 713.87 877.83 342.03 889.52 669.69 912.93 502.12 855.90 702.89 859.59 673.39 464.28 246.78 781.12 575.67 315.69 283.53 653.63 818.48 657.57 835.33 819.49 1000.44 633.58 788.74 872.86 314.86 576.87 894.42 69.37 374.92 551.96 124.97 684.53 639.51 500.01 840.33 612.02 546.09 615.39 655.00 854.37 588.10
306.34 937.32 684.98 990.57 654.72 1066.94 842.62 872.89 246.28 1080.58 524.92 983.73 893.20 1039.99 1019.52 334.04 1000.71 584.98 917.78 802.50 197.79 707.71 454.13 256.32 514.78 871.12 565.68 345.26 1079.86 949.77 343.83 918.96 48.68 825.09 912.61 744.79 846.18 774.61 761.25 898.51 861.99 271.73 21.79 190.86 0.00 101.41 937.18 955.70 994.24 580.71 492.40 624.68 746.02 923.43 1021.19 318.17 923.27 939.61 848.73 948.95 470.87 1070.77 789.48 922.09 692.98 1037.15 823.91 936.17 864.25 609.98 179.62 890.67 575.89 506.55 222.30 741.97 935.13 788.10 961.62 944.36 1096.40 824.44 891.16 996.56 167.73 726.63 973.52 157.71 556.49 628.88 306.54 856.82 789.27 681.58 1031.19 683.14 736.95 806.25 743.34 994.02 704.23
241.34 1030.49 786.39 1063.96 664.03 1152.15 936.78 883.62 347.69 1152.61 626.33 1077.33 994.61 938.58 1091.55 329.90 1074.10 616.98 1019.19 862.72 271.18 764.37 542.06 341.53 599.99 972.53 639.07 446.67 1139.23 1033.25 417.22 992.35 133.89 830.10 1014.02 838.95 947.59 848.00 862.66 971.90 935.38 323.97 95.18 264.25 101.41 0.00 989.42 1007.94 1047.32 606.99 575.08 726.09 847.43 975.67 1073.43 403.38 1017.43 1041.02 942.89 1009.17 572.28 1109.18 883.64 917.72 766.37 1109.18 918.07 1009.56 937.64 695.19 264.83 992.08 616.88 579.94 272.49 836.13 987.37 882.26 1063.03 1045.77 1105.71 897.83 900.69 1048.80 163.12 828.04 1013.88 251.87 601.32 633.89 389.22 948.78 890.68 764.26 1001.79 743.36 810.34 850.31 837.50 1067.41 737.13
1206.57 248.10 336.12 170.39 430.71 372.12 550.31 772.05 969.62 496.05 724.92 117.12 601.93 179.19 513.90 796.83 193.33 645.94 308.42 640.68 903.43 596.27 879.05 855.85 495.98 130.42 459.03 795.69 531.69 819.37 870.61 148.38 944.74 760.66 92.12 506.25 125.71 326.89 532.93 96.84 536.72 665.45 915.39 791.83 937.18 989.42 0.00 831.68 76.73 734.35 596.38 362.83 342.17 13.75 281.12 686.40 496.48 139.92 395.11 704.72 748.13 556.83 412.83 956.92 513.80 523.21 505.89 152.91 283.89 803.07 813.80 281.31 850.55 476.14 835.21 636.50 300.34 486.85 109.35 185.03 446.76 158.25 763.38 348.09 931.45 567.55 710.14 861.20 561.84 602.04 772.06 371.41 534.87 568.02 219.83 604.16 598.33 338.30 445.25 163.60 599.78
1171.55 633.06 968.32 916.42 565.80 753.13 1198.90 175.58 1110.84 512.14 530.70 863.52 1251.18 725.51 477.71 708.05 931.92 445.42 1005.02 356.08 844.30 354.44 569.58 722.60 708.54 828.14 859.86 1172.19 456.51 29.15 1136.79 856.20 917.70 229.10 781.86 1153.13 848.29 1033.19 1155.90 734.84 453.81 683.97 933.91 874.45 955.70 1007.94 831.68 0.00 804.43 498.12 995.05 977.80 945.40 834.77 606.02 648.21 1123.69 837.49 1092.83 176.44 1157.40 426.46 1108.48 339.06 477.27 460.08 1155.14 867.13 1020.87 1225.11 849.39 977.91 543.85 739.71 797.02 1259.47 620.94 1109.82 779.24 874.77 534.25 717.32 193.85 559.51 949.97 1179.32 165.43 943.82 734.28 425.31 949.69 1093.11 1157.84 1059.06 727.37 367.37 1210.10 742.37 1099.53 868.49 429.46
1251.25 171.37 412.85 141.75 462.73 295.39 604.66 695.32 1046.35 419.32 731.96 113.39 656.28 138.90 479.15 854.73 242.57 631.72 336.83 563.95 938.22 638.99 936.95 913.75 522.44 178.86 535.76 853.59 479.96 799.92 915.29 185.03 988.54 728.84 168.85 566.95 183.61 391.98 563.55 128.86 513.37 723.35 973.29 836.51 994.24 1047.32 76.73 804.43 0.00 754.05 610.86 369.56 322.02 71.65 257.77 744.30 550.82 189.05 443.55 627.99 819.57 495.18 468.47 893.19 590.53 461.56 560.24 87.35 354.98 840.10 857.60 309.72 910.07 520.82 876.28 708.48 223.61 563.58 32.62 208.88 447.52 202.93 713.59 285.04 989.35 592.74 646.43 905.88 582.15 659.94 778.79 442.50 611.60 581.48 143.10 527.43 623.52 277.36 476.15 128.56 565.26
813.03 699.55 656.02 818.26 350.00 872.75 994.25 350.82 656.04 630.78 55.79 815.41 1026.92 712.88 569.72 277.09 926.15 154.85 897.75 423.83 413.34 226.58 296.76 331.94 370.91 837.27 548.34 735.00 630.06 527.27 793.00 844.40 539.58 328.52 800.41 909.08 832.56 854.15 956.85 683.87 441.96 429.79 588.72 419.65 580.71 606.99 734.35 498.12 754.05 0.00 659.97 711.63 766.36 720.60 697.56 309.96 971.88 856.04 889.89 570.28 682.49 609.88 779.81 500.38 238.45 587.35 949.83 763.86 909.70 861.36 482.24 917.18 156.02 374.92 439.98 1014.62 647.31 952.39 756.27 859.90 744.77 669.38 369.09 598.43 535.87 922.23 517.11 489.02 388.79 132.31 544.62 847.15 922.00 734.77 768.37 304.47 905.23 476.69 825.95 821.71 317.71
787.82 757.91 326.32 715.62 595.54 883.67 478.25 830.12 533.47 794.30 689.79 672.26 495.85 725.79 846.89 538.64 685.96 705.69 596.28 747.04 526.14 680.45 750.80 570.94 374.67 582.18 146.37 399.05 820.69 965.90 482.15 608.99 514.37 777.13 535.90 421.25 602.33 504.37 363.90 651.39 728.64 408.38 479.90 310.83 492.40 575.08 596.38 995.05 610.86 659.97 0.00 336.88 425.60 610.13 783.93 588.21 546.73 560.08 477.68 883.06 247.39 850.74 418.43 973.39 546.08 846.36 455.30 666.13 533.65 388.33 557.61 585.77 815.99 319.79 580.82 441.55 753.37 409.98 578.24 611.03 964.53 577.32 847.72 814.80 592.32 329.28 918.06 380.20 407.00 731.84 185.86 485.77 391.92 189.18 662.58 627.68 360.06 457.74 372.29 674.18 632.06
931.02 440.27 60.30 470.93 436.52 657.33 372.40 802.22 764.19 687.13 655.84 359.05 445.93 502.60 639.39 665.37 391.89 593.54 293.10 661.84 715.72 684.67 734.04 745.68 340.72 366.90 190.51 601.67 699.73 962.65 682.34 391.65 673.36 748.70 398.37 274.57 341.96 209.13 331.92 378.71 538.80 573.83 646.47 534.20 624.68 726.09 362.83 977.80 369.56 711.63 336.88 0.00 121.34 376.58 526.67 775.80 329.92 342.74 339.25 816.17 450.01 690.64 289.98 944.96 562.83 657.02 363.20 424.83 275.18 542.41 592.87 265.99 867.65 341.40 725.26 365.92 492.51 317.88 336.94 319.68 698.51 304.64 819.29 553.94 792.41 366.54 856.53 596.25 376.72 637.44 409.23 309.91 365.90 292.20 447.42 638.40 397.32 250.24 275.47 405.53 648.81
1052.36 493.39 167.51 463.77 557.86 617.41 342.76 892.53 831.91 741.34 713.50 435.41 415.75 460.92 745.03 752.89 273.25 714.88 246.10 731.98 769.83 752.04 841.25 833.20 398.38 270.53 287.96 692.30 788.33 940.89 758.16 355.00 794.70 870.04 291.25 244.93 245.59 87.79 298.96 408.50 554.52 630.90 767.81 655.54 746.02 847.43 342.17 945.40 322.02 766.36 425.60 121.34 0.00 328.42 512.25 845.52 325.18 339.02 217.91 768.96 540.64 796.28 168.64 1066.30 684.17 762.66 333.56 409.37 153.84 518.08 700.08 218.99 922.38 391.44 829.87 407.29 545.63 288.24 354.64 198.34 655.19 334.43 874.26 607.06 892.36 270.72 825.36 703.46 464.24 758.78 530.57 188.57 333.36 259.46 465.12 756.12 301.50 371.58 154.13 399.97 660.91
1215.59 243.02 349.87 184.14 444.46 367.04 542.47 761.38 983.37 490.97 732.43 130.87 594.09 168.20 527.65 783.08 207.08 632.19 295.30 635.60 889.68 582.52 865.30 842.10 509.73 116.67 472.78 781.94 517.94 805.62 865.04 162.13 942.14 746.91 105.87 516.48 111.96 320.33 546.68 110.59 550.47 651.70 901.64 805.58 923.43 975.67 13.75 834.77 71.65 720.60 610.13 376.58 328.42 0.00 294.87 672.65 488.63 153.67 381.36 699.64 761.88 547.99 406.27 943.17 527.55 533.21 498.05 139.16 297.64 816.82 817.12 295.06 859.25 489.89 821.46 650.25 295.26 500.60 104.27 193.83 460.51 172.00 777.13 356.69 917.70 571.41 718.08 868.33 575.59 588.29 785.81 381.64 548.62 581.77 214.75 599.08 602.19 349.01 452.41 165.72 613.53
1314.77 86.40 579.10 348.52 514.69 258.45 803.87 652.87 1089.03 293.84 641.77 257.50 795.45 176.16 232.78 847.16 430.70 578.52 507.60 433.06 983.41 584.51 873.16 927.47 607.64 378.07 637.56 978.37 276.08 621.14 1040.46 375.54 1045.82 603.05 344.87 757.18 403.01 597.17 811.21 307.57 255.60 749.46 999.40 852.64 1021.19 1073.43 281.12 606.02 257.77 697.56 783.93 526.67 512.25 294.87 0.00 894.29 740.35 388.26 642.76 485.37 826.71 284.03 667.68 799.31 506.22 250.41 759.45 314.95 565.01 980.19 914.88 480.49 800.56 628.11 920.58 892.59 86.06 767.97 231.83 437.78 244.87 328.10 656.34 142.99 1015.46 782.97 541.77 922.01 601.38 596.15 727.67 632.41 815.99 771.71 121.35 551.91 813.75 328.41 666.38 303.98 493.38
542.94 807.89 740.89 856.79 531.00 1006.18 964.16 579.49 494.00 819.73 269.11 803.52 1037.69 840.85 862.99 110.43 857.29 369.35 858.62 605.11 217.03 460.24 210.03 169.45 447.14 789.32 653.87 569.62 841.79 677.36 629.14 834.78 269.49 525.97 778.52 866.33 784.61 928.94 923.68 783.24 655.28 270.55 324.83 372.88 318.17 403.38 686.40 648.21 744.30 309.96 588.21 775.80 845.52 672.65 894.29 0.00 990.42 826.32 883.15 641.97 641.32 811.74 895.50 696.97 437.46 845.36 954.96 811.81 874.19 741.66 277.88 848.01 350.77 486.29 148.81 887.77 860.13 909.64 776.92 728.09 958.09 784.87 596.56 860.28 339.56 893.85 698.37 303.51 399.08 329.76 402.35 828.16 909.39 744.61 879.11 485.75 863.07 717.28 852.20 838.37 523.44
1179.79 706.81 390.22 542.69 766.44 808.51 161.89 1132.14 857.71 904.90 916.09 553.85 230.14 656.83 939.77 995.29 385.76 883.57 286.97 991.76 993.38 1014.59 1063.96 1052.73 641.86 371.96 496.41 763.19 993.54 1094.54 786.75 450.16 906.34 1078.62 411.84 200.00 396.90 237.39 202.77 567.39 831.46 879.73 922.25 799.85 923.27 1017.43 496.48 1123.69 550.82 971.88 546.73 329.92 325.18 488.63 740.35 990.42 0.00 401.25 107.27 1094.14 611.53 990.58 226.07 1274.88 892.75 956.96 168.27 566.09 212.59 524.19 870.53 259.86 1127.90 669.83 1016.29 279.10 749.30 156.69 518.20 358.69 869.63 582.88 1149.21 798.62 1025.39 237.39 1052.88 765.56 706.64 927.47 674.88 162.26 204.71 460.94 628.68 968.32 268.17 580.16 179.93 512.48 942.29
1220.67 345.04 393.64 173.69 543.31 456.50 494.29 804.07 920.90 543.13 837.52 160.59 545.91 268.86 604.19 851.31 130.66 785.86 168.50 737.62 987.56 736.19 999.82 910.30 607.18 68.49 484.04 824.99 621.54 808.34 908.09 48.91 980.55 857.59 55.63 428.15 93.43 311.58 485.50 209.44 599.63 805.37 946.08 777.01 939.61 1041.02 139.92 837.49 189.05 856.04 560.08 342.74 339.02 153.67 388.26 826.32 401.25 0.00 333.18 801.66 673.33 628.81 358.10 1001.94 653.72 595.19 449.87 167.23 253.18 744.80 925.00 141.39 990.47 587.34 975.13 611.50 365.19 471.46 156.43 145.65 529.21 269.45 822.34 426.62 1071.37 495.66 770.24 846.38 673.04 741.96 708.35 293.31 519.48 486.18 266.91 716.48 526.44 379.35 354.87 172.06 689.07
1105.25 599.54 364.52 492.21 764.29 701.24 161.11 1052.72 783.17 797.63 843.84 458.42 212.73 549.56 832.50 944.38 332.81 809.03 234.02 923.16 929.18 958.88 1038.26 1023.01 616.29 264.69 421.87 673.82 886.27 1063.68 754.68 367.43 831.80 999.20 310.97 143.28 289.63 130.12 200.63 462.62 756.92 805.19 847.71 713.87 848.73 942.89 395.11 1092.83 443.55 889.89 477.68 339.25 217.91 381.36 642.76 883.15 107.27 333.18 0.00 986.87 522.16 883.31 119.82 1195.46 828.41 849.69 116.69 483.84 142.51 528.89 883.58 206.91 1045.91 583.74 943.25 278.32 642.03 162.01 410.93 288.06 778.51 475.61 1069.79 691.35 944.03 235.25 1024.74 691.02 655.73 852.93 663.54 54.99 190.31 389.93 521.41 917.25 266.03 578.01 105.39 448.05 867.75
1184.91 456.62 844.37 739.98 460.26 644.83 1111.72 262.04 1090.35 386.53 517.72 739.25 1184.71 549.07 352.10 740.38 850.77 474.96 945.09 234.94 839.30 397.07 716.31 811.42 633.38 791.47 736.69 1133.87 330.90 171.93 1103.46 769.02 911.46 314.36 775.47 1013.89 811.19 856.75 1067.92 682.36 277.37 860.41 966.80 877.83 948.95 1009.17 704.72 176.44 627.99 570.28 883.06 816.17 768.96 699.64 485.37 641.97 1094.14 801.66 986.87 0.00 1080.99 300.85 937.60 459.91 375.71 334.47 1102.52 709.77 922.80 1156.21 845.47 922.33 630.31 563.27 790.78 1157.17 508.86 1057.20 645.23 836.87 487.63 608.29 243.77 513.35 961.83 1039.68 56.40 945.48 650.48 439.30 840.59 957.53 1102.32 923.12 551.95 265.81 1070.46 565.93 923.09 741.17 320.86
706.90 800.69 510.31 847.02 704.95 937.05 527.53 982.52 317.62 981.58 626.70 803.46 581.13 768.57 1042.64 609.01 744.99 726.94 646.20 930.27 557.34 803.66 801.21 600.55 538.23 702.29 393.76 151.66 1068.08 1128.25 234.76 722.24 480.33 967.05 656.01 515.24 722.44 563.68 457.89 811.56 834.38 532.51 492.66 342.03 470.87 572.28 748.13 1157.40 819.57 682.49 247.39 450.01 540.64 761.88 826.71 641.32 611.53 673.33 522.16 1080.99 0.00 1067.26 477.74 1106.53 793.47 1033.64 549.29 828.88 554.69 178.87 532.11 619.09 838.51 559.58 492.51 410.32 839.36 503.97 786.95 700.79 1040.79 754.65 1000.79 875.30 599.38 423.27 1088.02 339.55 472.37 770.84 271.16 467.17 485.91 316.41 705.36 855.34 392.49 700.25 431.60 836.85 760.13
1295.54 323.81 712.51 511.87 445.15 425.28 986.10 377.83 1125.91 85.68 554.09 494.36 1038.38 419.80 51.25 886.97 664.82 573.75 709.00 368.71 923.27 471.56 850.22 822.57 666.02 618.62 704.37 1083.12 30.05 426.71 1163.90 587.85 1022.09 431.35 585.42 940.33 643.56 798.70 943.10 459.99 273.15 928.09 1058.25 889.52 1070.77 1109.18 556.83 426.46 495.18 609.88 850.74 690.64 796.28 547.99 284.03 811.74 990.58 628.81 883.31 300.85 1067.26 0.00 883.01 575.70 421.87 33.62 942.34 518.27 824.43 1071.19 980.54 736.11 746.10 682.00 930.61 1046.67 271.57 897.02 472.38 678.33 254.34 509.03 396.10 212.50 1045.80 977.72 261.03 958.89 699.30 602.04 836.37 883.59 945.04 903.57 361.90 405.32 1008.50 440.40 913.02 540.84 500.53
1046.00 624.46 336.15 517.13 705.04 739.35 227.10 932.90 723.92 798.96 724.02 471.15 247.11 535.64 857.42 906.06 345.16 749.78 243.29 875.13 885.00 899.63 990.45 963.76 567.02 289.61 362.62 629.40 893.73 1088.60 712.50 392.35 772.55 879.38 335.89 129.27 314.55 85.94 186.62 473.50 697.67 745.94 788.46 669.69 789.48 883.64 412.83 1108.48 468.47 779.81 418.43 289.98 168.64 406.27 667.68 895.50 226.07 358.10 119.82 937.60 477.74 883.01 0.00 1075.64 784.23 851.02 217.90 508.76 129.89 482.75 824.33 219.26 935.83 536.04 884.00 322.23 666.95 172.58 435.85 272.86 734.33 431.43 949.97 716.27 891.60 193.57 983.32 631.77 623.25 793.68 604.29 67.34 220.60 399.71 546.33 873.07 224.35 518.76 46.14 471.88 808.50
1138.71 722.35 969.45 977.11 606.43 965.63 1272.93 197.87 1067.89 641.65 479.83 954.59 1253.70 786.20 607.22 685.81 1044.18 436.37 1138.76 381.11 768.01 360.65 486.94 668.24 675.70 997.30 827.02 1204.43 605.75 309.91 1134.33 1006.15 873.65 196.26 973.61 1204.91 972.36 1154.09 1251.20 882.68 543.71 840.42 900.30 912.93 922.09 917.72 956.92 339.06 893.19 500.38 973.39 944.96 1066.30 943.17 799.31 696.97 1274.88 1001.94 1195.46 459.91 1106.53 575.70 1075.64 0.00 495.02 589.59 1228.51 924.42 1161.76 1247.17 845.55 1137.67 346.20 745.81 699.79 1310.88 774.59 1248.22 860.57 1066.52 746.75 896.01 216.14 788.20 754.60 1216.58 457.45 938.32 741.56 392.47 916.85 1142.98 1279.22 1026.22 750.09 400.31 1247.36 792.71 1121.78 956.51 412.72
932.00 579.56 582.20 684.19 203.81 705.01 896.34 312.34 714.64 503.25 226.09 630.92 947.96 587.37 473.12 513.63 707.13 159.61 751.56 229.26 595.27 134.37 428.35 570.39 288.45 644.22 516.75 837.60 418.23 448.12 851.60 662.18 705.66 298.76 605.92 837.40 639.51 698.29 871.30 537.68 250.62 563.66 671.19 502.12 692.98 766.37 513.80 477.27 590.53 238.45 546.08 562.83 684.17 527.55 506.22 437.46 892.75 653.72 828.41 375.71 793.47 421.87 784.23 495.02 0.00 455.49 851.92 666.71 767.55 780.50 610.59 741.37 394.47 358.56 586.27 928.75 531.64 880.71 618.62 621.45 645.49 534.86 325.87 470.21 717.80 836.68 400.28 571.49 354.31 185.76 604.26 799.07 899.32 613.13 627.57 109.90 864.57 390.09 830.37 677.40 85.98
1261.92 290.19 678.89 478.25 478.77 391.66 952.48 411.45 1092.29 52.06 587.71 460.74 1004.76 386.18 17.63 864.44 633.94 580.85 675.38 402.33 956.89 505.18 857.09 856.19 691.08 585.00 699.99 1116.74 42.71 460.33 1187.77 554.23 988.47 437.16 551.80 906.71 609.94 765.08 909.48 426.37 239.53 901.35 1024.63 855.90 1037.15 1109.18 523.21 460.08 461.56 587.35 846.36 657.02 762.66 533.21 250.41 845.36 956.96 595.19 849.69 334.47 1033.64 33.62 851.02 589.59 455.49 0.00 908.72 526.65 790.81 1037.57 991.52 702.49 740.10 648.38 935.79 1013.05 237.95 863.40 438.76 644.71 220.72 475.41 429.72 218.00 1079.42 944.10 294.65 925.27 729.10 580.08 802.75 849.97 911.42 899.19 328.28 371.70 974.88 406.78 879.40 507.22 466.91
1080.43 716.23 423.50 608.90 799.72 817.93 44.42 1085.77 712.71 914.32 941.92 563.26 96.04 666.25 926.35 849.32 449.50 909.68 350.71 1002.65 918.20 986.29 1004.08 929.63 629.79 381.38 401.49 613.20 951.43 1180.37 637.99 484.12 806.98 1032.25 427.66 88.63 406.32 246.81 91.40 579.31 857.57 784.81 822.89 702.89 823.91 918.07 505.89 1155.14 560.24 949.83 455.30 363.20 333.56 498.05 759.45 954.96 168.27 449.87 116.69 1102.52 549.29 942.34 217.90 1228.51 851.92 908.72 0.00 600.53 222.00 419.66 825.48 323.60 1105.85 574.91 918.43 161.63 758.72 45.32 527.62 368.10 895.20 592.30 1102.84 808.04 926.03 126.02 1139.91 666.20 662.12 953.58 641.16 171.68 93.34 311.45 638.10 961.82 156.80 613.44 206.04 564.74 937.90
1242.51 258.72 448.55 54.40 543.90 360.37 644.95 726.55 1088.13 474.59 708.07 67.77 687.00 197.72 535.65 852.79 184.57 719.07 335.73 609.86 989.04 711.66 1002.09 933.10 583.17 219.15 601.28 921.10 522.01 867.38 957.80 179.18 969.72 778.87 172.87 595.38 239.30 453.23 621.39 216.21 432.40 790.86 914.38 859.59 936.17 1009.56 152.91 867.13 87.35 763.86 666.13 424.83 409.37 139.16 314.95 811.81 566.09 167.23 483.84 709.77 828.88 518.27 508.76 924.42 666.71 526.65 600.53 0.00 400.77 853.90 900.99 308.62 919.88 554.19 931.55 723.34 310.96 638.69 87.89 265.78 415.00 245.44 708.28 368.31 1002.34 586.77 701.70 928.96 564.14 725.08 805.78 460.54 649.41 653.41 198.37 614.78 617.55 364.71 522.10 57.85 620.53
1150.38 526.35 321.35 399.96 680.59 650.37 266.42 977.00 746.84 738.75 853.91 341.26 318.04 463.08 788.15 906.73 244.74 865.00 132.84 780.65 888.70 880.16 995.09 987.04 552.22 223.26 421.35 706.35 815.58 991.72 789.45 275.18 876.93 965.50 239.01 222.36 248.20 89.64 277.28 376.48 708.36 784.74 842.46 673.39 864.25 937.64 283.89 1020.87 354.98 909.70 533.65 275.18 153.84 297.64 565.01 874.19 212.59 253.18 142.51 922.80 554.69 824.43 129.89 1161.76 767.55 790.81 222.00 400.77 0.00 583.51 853.92 136.78 1065.72 545.28 956.92 383.63 578.59 265.67 369.50 146.10 726.40 435.13 958.73 627.73 988.25 289.87 979.20 742.76 618.08 885.93 684.41 87.52 313.69 413.30 462.53 876.77 320.65 525.42 161.36 371.46 814.75
834.75 954.17 490.52 887.96 773.10 1090.53 402.81 1092.84 496.49 985.51 805.57 786.13 460.21 870.79 1046.57 731.26 773.81 905.81 675.02 998.42 600.68 914.87 943.42 724.39 648.45 712.58 420.15 330.53 1080.28 1195.96 413.63 785.29 561.30 1050.91 710.95 385.61 737.52 544.72 328.26 726.16 902.53 595.07 616.64 464.28 609.98 695.19 803.07 1225.11 840.10 861.36 388.33 542.41 518.08 816.82 980.19 741.66 524.19 744.80 528.89 1156.21 178.87 1071.19 482.75 1247.17 780.50 1037.57 419.66 853.90 583.51 0.00 692.24 647.91 1017.38 593.57 668.90 285.60 940.45 374.34 853.84 716.42 1076.08 652.09 1106.37 955.22 680.35 293.64 1121.66 518.42 589.26 949.71 339.31 495.99 356.28 258.62 858.84 890.40 324.42 731.52 499.57 822.56 866.48
404.39 856.40 532.57 955.39 556.03 1054.66 869.90 794.59 383.05 988.16 426.45 906.11 921.52 874.25 1003.32 259.10 946.48 526.69 885.97 734.67 122.85 615.74 471.26 182.20 335.16 857.72 548.74 458.67 1010.59 875.65 508.32 890.15 130.94 741.07 869.37 779.64 858.45 787.87 836.99 729.62 762.39 165.42 186.28 246.78 179.62 264.83 813.80 849.39 857.60 482.24 557.61 592.87 700.08 817.12 914.88 277.88 870.53 925.00 883.58 845.47 532.11 980.54 824.33 845.55 610.59 991.52 825.48 900.99 853.92 692.24 0.00 858.86 499.35 405.27 145.76 776.82 828.82 822.95 857.30 817.28 997.71 655.55 811.66 822.22 245.38 808.00 887.77 192.56 381.60 570.59 371.75 856.56 870.64 639.48 861.63 619.82 792.87 628.73 778.19 934.50 524.61
1194.94 465.71 326.29 315.08 574.86 550.24 368.02 939.80 883.62 663.80 869.07 299.10 419.64 410.25 684.86 918.12 125.90 859.53 27.11 800.18 981.71 858.88 1000.03 998.43 606.71 197.08 456.50 770.75 745.20 948.76 853.85 190.30 939.35 984.21 196.05 286.76 222.02 226.42 344.11 350.83 736.09 839.82 912.46 781.12 890.67 992.08 281.31 977.91 309.72 917.18 585.77 265.99 218.99 295.06 480.49 848.01 259.86 141.39 206.91 922.33 619.09 736.11 219.26 1137.67 741.37 702.49 323.60 308.62 136.78 647.91 858.86 0.00 1073.20 542.26 939.18 479.72 506.58 330.07 277.10 119.92 609.77 403.38 949.73 557.52 1058.40 354.27 890.91 799.11 629.47 883.35 675.22 151.92 378.09 478.45 387.58 831.43 385.05 487.00 213.48 252.62 767.75
803.13 766.74 812.04 974.28 506.02 980.25 1150.27 368.27 721.69 786.80 211.81 960.59 1182.94 851.53 725.74 339.61 1040.83 310.87 1053.77 546.95 421.81 382.60 140.74 322.04 526.93 975.92 704.36 858.23 776.15 573.00 858.65 998.93 529.68 365.98 942.67 1065.10 971.21 1010.17 1112.87 839.89 597.98 499.73 554.10 575.67 575.89 616.88 850.55 543.85 910.07 156.02 815.99 867.65 922.38 859.25 800.56 350.77 1127.90 990.47 1045.91 630.31 838.51 746.10 935.83 346.20 394.47 740.10 1105.85 919.88 1065.72 1017.38 499.35 1073.20 0.00 530.94 353.59 1073.47 714.50 1108.41 908.15 1015.92 900.79 825.40 386.54 754.45 544.34 1078.25 627.85 592.12 544.81 270.96 700.64 1003.17 1078.02 890.79 848.50 427.59 1061.25 632.71 981.97 914.11 473.73
730.43 561.51 281.10 608.59 290.98 652.47 619.33 603.07 552.08 643.93 385.23 568.45 670.95 536.59 663.52 375.86 573.46 485.47 569.37 516.30 464.00 483.44 588.02 456.17 70.11 519.79 173.42 618.51 691.09 735.20 659.08 552.49 519.23 549.55 531.71 615.97 520.79 479.23 597.60 391.96 408.85 505.12 484.76 315.69 506.55 579.94 476.14 739.71 520.82 374.92 319.79 341.40 391.44 489.89 628.11 486.29 669.83 587.34 583.74 563.27 559.58 682.00 536.04 745.81 358.56 648.38 574.91 554.19 545.28 593.57 405.27 542.26 530.94 0.00 501.60 648.71 595.33 595.10 519.64 565.81 687.47 317.89 620.14 557.17 525.41 562.98 619.67 385.06 87.21 479.92 337.16 580.01 547.08 359.85 524.64 446.91 593.76 299.70 489.90 596.84 444.54
513.83 886.76 664.96 981.04 652.36 1100.27 937.14 721.86 368.10 948.89 417.92 937.68 1010.67 963.90 953.42 171.10 1006.10 518.16 966.29 608.97 68.22 609.05 358.84 108.04 431.49 938.13 555.81 510.89 960.66 801.49 505.06 983.59 255.85 674.78 927.33 839.31 933.42 867.28 895.02 843.29 696.26 275.57 200.51 283.53 222.30 272.49 835.21 797.02 876.28 439.98 580.82 725.26 829.87 821.46 920.58 148.81 1016.29 975.13 943.25 790.78 492.51 930.61 884.00 699.79 586.27 935.79 918.43 931.55 956.92 668.90 145.76 939.18 353.59 501.60 0.00 836.49 834.52 882.62 843.66 876.90 1058.43 769.22 740.13 895.95 190.75 860.40 838.08 252.23 459.75 478.57 408.50 951.34 923.04 749.63 939.78 634.56 829.62 725.06 837.86 939.60 586.66
998.49 806.19 426.22 730.89 754.64 979.56 117.21 1168.14 727.94 1053.05 958.83 711.97 190.74 797.79 1005.31 920.61 605.62 959.46 506.83 979.96 868.94 1050.59 1057.14 932.68 706.64 543.01 523.60 561.98 1055.76 1288.62 645.08 645.75 725.04 1114.62 589.29 192.96 567.95 387.46 144.93 733.34 904.72 834.18 740.95 653.63 741.97 836.13 636.50 1259.47 708.48 1014.62 441.55 365.92 407.29 650.25 892.59 887.77 279.10 611.50 278.32 1157.17 410.32 1046.67 322.23 1310.88 928.75 1013.05 161.63 723.34 383.63 285.60 776.82 479.72 1073.47 648.71 836.49 0.00 858.43 149.65 689.25 529.73 1022.64 670.56 1185.21 919.86 844.09 136.57 1150.46 584.26 692.88 1003.36 624.91 327.80 101.63 360.12 799.73 1004.32 109.39 616.16 310.37 665.49 1014.73
1228.71 52.24 552.81 339.14 481.91 265.75 803.14 649.40 1054.87 227.37 592.70 334.87 854.76 148.23 255.54 761.10 398.03 492.46 533.69 430.08 897.35 514.84 813.37 841.41 548.49 377.34 607.00 991.02 256.35 591.79 1053.11 316.28 959.76 614.93 357.52 710.99 402.28 597.93 768.34 280.94 341.66 663.40 913.34 818.48 935.13 987.37 300.34 620.94 223.61 647.31 753.37 492.51 545.63 295.26 86.06 860.13 749.30 365.19 642.03 508.86 839.36 271.57 666.95 774.59 531.64 237.95 758.72 310.96 578.59 940.45 828.82 506.58 714.50 595.33 834.52 858.43 0.00 754.30 240.85 432.49 223.91 340.75 653.36 61.43 929.40 780.65 522.15 887.85 547.19 536.36 693.51 642.31 802.32 784.71 134.00 470.35 811.43 295.63 673.67 336.79 445.66
1044.62 734.95 378.18 645.15 754.40 858.97 89.08 1105.48 756.31 915.46 896.60 603.97 141.36 666.04 881.03 894.64 455.97 864.36 357.18 979.72 872.88 1002.55 1049.40 974.95 658.60 426.70 446.81 655.63 906.11 1138.97 683.31 520.37 771.17 1051.96 472.98 43.31 451.64 258.52 46.08 583.69 812.25 778.31 787.08 657.57 788.10 882.26 486.85 1109.82 563.58 952.39 409.98 317.88 288.24 500.60 767.97 909.64 156.69 471.46 162.01 1057.20 503.97 897.02 172.58 1248.22 880.71 863.40 45.32 638.69 265.67 374.34 822.95 330.07 1108.41 595.10 882.62 149.65 754.30 0.00 572.94 411.77 906.91 604.01 1122.55 815.73 890.22 80.70 1094.59 630.39 620.89 908.26 595.84 178.15 48.02 304.25 683.42 956.28 111.48 568.12 160.72 582.69 923.08
1250.07 188.61 397.24 137.38 492.72 320.39 572.04 662.70 1051.07 386.70 764.58 94.02 623.66 171.52 447.76 879.16 209.95 664.34 304.21 581.19 911.88 623.77 914.20 946.37 539.48 146.24 527.45 886.21 475.34 779.49 914.11 152.71 988.24 716.22 144.42 546.05 171.18 365.34 596.17 160.15 487.43 755.97 983.41 835.33 961.62 1063.03 109.35 779.24 32.62 756.27 578.24 336.94 354.64 104.27 231.83 776.92 518.20 156.43 410.93 645.23 786.95 472.38 435.85 860.57 618.62 438.76 527.62 87.89 369.50 853.84 857.30 277.10 908.15 519.64 843.66 689.25 240.85 572.94 0.00 223.40 445.91 201.75 680.97 280.42 958.28 613.56 613.81 904.70 590.51 637.19 746.17 411.21 601.24 614.10 110.48 560.05 644.34 309.98 481.99 95.94 532.64
1075.02 380.25 284.71 292.03 582.33 504.27 412.52 868.65 892.94 592.65 807.22 240.36 464.14 347.78 642.05 838.52 129.20 781.06 130.53 736.69 940.13 755.82 938.12 897.54 578.46 77.16 464.66 852.45 681.29 845.62 906.75 167.25 948.22 920.21 92.91 368.46 102.10 235.74 423.38 248.46 658.34 816.66 966.15 819.49 944.36 1045.77 185.03 874.77 208.88 859.90 611.03 319.68 198.34 193.83 437.78 728.09 358.69 145.65 288.06 836.87 700.79 678.33 272.86 1066.52 621.45 644.71 368.10 265.78 146.10 716.42 817.28 119.92 1015.92 565.81 876.90 529.73 432.49 411.77 223.40 0.00 598.38 305.00 886.92 486.37 1062.66 435.97 837.21 820.66 644.32 782.12 728.91 233.62 459.79 457.80 316.43 731.35 431.84 416.63 282.64 255.92 707.43
1321.17 276.15 638.21 422.55 441.68 218.88 939.62 604.01 1236.83 217.29 688.98 393.84 981.44 372.14 203.09 984.48 483.87 716.37 636.88 623.05 1058.16 611.32 1018.81 973.54 662.55 540.51 818.16 1192.45 263.43 563.40 1136.35 483.42 1047.72 550.49 505.47 863.60 555.15 648.39 890.92 349.92 460.25 887.31 1103.06 1000.44 1096.40 1105.71 446.76 534.25 447.52 744.77 964.53 698.51 655.19 460.51 244.87 958.09 869.63 529.21 778.51 487.63 1040.79 254.34 734.33 746.75 645.49 220.72 895.20 415.00 726.40 1076.08 997.71 609.77 900.79 687.47 1058.43 1022.64 223.91 906.91 445.91 598.38 0.00 423.99 621.08 285.34 1075.25 886.07 431.23 1069.81 695.83 741.80 875.47 749.17 948.71 870.11 335.43 592.42 916.85 519.54 753.50 357.15 669.57
1048.32 302.08 251.00 299.84 331.05 438.44 636.72 698.14 849.32 469.07 625.26 250.56 678.54 218.70 457.78 692.24 316.35 621.13 376.27 556.37 778.40 627.12 860.07 772.55 337.73 227.84 430.95 795.46 498.05 717.57 712.36 234.60 786.49 741.22 213.82 560.70 202.90 345.49 588.02 74.07 481.25 780.08 802.65 633.58 824.44 897.83 158.25 717.32 202.93 669.38 577.32 304.64 334.43 172.00 328.10 784.87 582.88 269.45 475.61 608.29 754.65 509.03 431.43 896.01 534.86 475.41 592.30 245.44 435.13 652.09 655.55 403.38 825.40 317.89 769.22 670.56 340.75 604.01 201.75 305.00 423.99 0.00 716.41 303.13 841.79 596.57 551.89 702.95 403.59 665.03 653.54 446.27 646.76 482.90 206.75 519.18 627.35 192.69 470.75 278.95 614.39
1013.04 615.86 829.89 762.68 432.78 802.18 1147.26 18.27 1025.13 444.59 410.94 774.99 1163.00 633.70 447.35 588.27 864.58 310.70 922.62 223.28 724.52 197.13 527.28 668.58 550.03 817.70 701.35 1104.09 426.15 223.00 1091.80 827.07 842.48 70.59 794.01 1079.24 792.76 962.05 1125.53 666.54 400.74 714.75 897.82 788.74 891.16 900.69 763.38 193.85 713.59 369.09 847.72 819.29 874.26 777.13 656.34 596.56 1149.21 822.34 1069.79 243.77 1000.79 396.10 949.97 216.14 325.87 429.72 1102.84 708.28 958.73 1106.37 811.66 949.73 386.54 620.14 740.13 1185.21 653.36 1122.55 680.97 886.92 621.08 716.41 0.00 608.60 847.05 1090.91 277.85 848.11 576.97 266.80 791.18 1017.31 1153.55 900.55 570.49 220.71 1121.69 619.06 996.11 766.13 287.05
1226.61 113.67 554.13 397.11 501.52 274.32 843.39 590.33 1109.25 165.94 591.17 307.12 904.08 209.66 206.14 810.38 459.46 553.89 577.21 425.95 902.67 475.36 874.80 890.69 487.06 426.66 668.43 976.23 194.92 530.36 1015.49 377.71 953.16 600.69 393.46 772.42 451.60 644.27 829.77 251.25 398.59 724.83 974.77 872.86 996.56 1048.80 348.09 559.51 285.04 598.43 814.80 553.94 607.06 356.69 142.99 860.28 798.62 426.62 691.35 513.35 875.30 212.50 716.27 788.20 470.21 218.00 808.04 368.31 627.73 955.22 822.22 557.52 754.45 557.17 895.95 919.86 61.43 815.73 280.42 486.37 285.34 303.13 608.60 0.00 990.83 842.08 460.72 942.23 552.92 597.79 754.94 691.63 863.75 786.03 169.94 408.92 872.86 357.06 735.10 353.60 384.23
392.50 981.64 777.95 1056.74 692.35 1137.31 944.74 828.78 393.20 1129.29 491.71 1020.26 1018.27 981.44 1089.89 258.78 1098.87 591.95 1085.51 799.72 122.53 717.13 461.13 265.46 504.06 1034.37 649.32 512.99 1075.85 958.91 496.43 1042.96 119.05 782.86 1023.57 846.91 1013.91 898.61 904.26 915.86 877.88 266.00 174.39 314.86 167.73 163.12 931.45 949.97 989.35 535.87 592.32 792.41 892.36 917.70 1015.46 339.56 1025.39 1071.37 944.03 961.83 599.38 1045.80 891.60 754.60 717.80 1079.42 926.03 1002.34 988.25 680.35 245.38 1058.40 544.34 525.41 190.75 844.09 929.40 890.22 958.28 1062.66 1075.25 841.79 847.05 990.83 0.00 888.19 942.76 259.83 438.20 586.65 406.46 958.94 938.24 740.06 918.23 736.18 860.95 760.52 845.46 1054.22 640.97
1032.97 764.11 426.84 594.32 739.84 888.13 148.97 1073.84 740.89 964.10 880.22 575.40 166.57 700.78 961.73 843.85 480.17 909.57 381.38 965.16 792.18 971.05 1056.01 900.22 617.86 467.32 389.56 574.93 986.81 1179.57 658.03 544.57 775.31 1020.32 513.60 91.97 491.36 251.08 34.62 623.46 801.45 697.61 745.94 576.87 726.63 828.04 567.55 1179.32 592.74 922.23 329.28 366.54 270.72 571.41 782.97 893.85 237.39 495.66 235.25 1039.68 423.27 977.72 193.57 1216.58 836.68 944.10 126.02 586.77 289.87 293.64 808.00 354.27 1078.25 562.98 860.40 136.57 780.65 80.70 613.56 435.97 886.07 596.57 1090.91 842.08 888.19 0.00 1013.89 646.24 609.43 953.47 515.14 202.35 62.64 223.55 724.04 946.58 30.78 616.78 205.93 528.92 922.66
1187.62 513.02 802.89 751.19 454.43 588.43 1162.86 259.58 1114.92 346.71 461.32 707.83 1179.23 589.91 312.28 683.98 823.76 499.53 918.02 229.11 820.23 340.67 735.01 764.29 667.18 760.05 793.09 1128.04 291.08 165.68 1097.63 766.52 967.86 313.10 758.23 1070.29 754.79 897.38 1048.51 625.96 319.05 835.32 995.31 894.42 973.52 1013.88 710.14 165.43 646.43 517.11 918.06 856.53 825.36 718.08 541.77 698.37 1052.88 770.24 1024.74 56.40 1088.02 261.03 983.32 457.45 400.28 294.65 1139.91 701.70 979.20 1121.66 887.77 890.91 627.85 619.67 838.08 1150.46 522.15 1094.59 613.81 837.21 431.23 551.89 277.85 460.72 942.76 1013.89 0.00 960.13 706.88 471.15 882.27 998.16 1076.53 979.52 608.35 290.38 1044.67 607.61 970.58 709.75 377.26
414.23 835.61 535.95 922.25 628.13 1037.53 684.91 831.04 190.49 968.70 502.47 915.51 758.44 921.65 907.64 336.35 879.22 588.31 826.22 731.02 284.68 705.86 472.88 348.42 455.17 861.10 491.76 266.11 967.98 972.97 325.63 797.47 140.78 777.52 871.81 587.08 886.04 653.12 644.43 777.02 740.50 259.85 156.69 69.37 157.71 251.87 861.20 943.82 905.88 489.02 380.20 596.25 703.46 868.33 922.01 303.51 765.56 846.38 691.02 945.48 339.55 958.89 631.77 938.32 571.49 925.27 666.20 928.96 742.76 518.42 192.56 799.11 592.12 385.06 252.23 584.26 887.85 630.39 904.70 820.66 1069.81 702.95 848.11 942.23 259.83 646.24 960.13 0.00 444.29 581.31 194.34 699.11 678.41 547.73 909.70 681.39 615.46 684.76 585.63 923.74 657.47
785.99 575.36 359.61 618.54 254.15 711.72 706.54 558.70 611.31 718.86 380.98 582.06 758.16 543.24 711.47 288.65 660.67 481.22 656.58 479.47 424.90 480.36 500.81 368.96 65.86 607.00 260.63 624.03 729.35 717.62 654.83 638.19 512.54 545.30 617.41 632.16 606.49 538.43 574.81 477.66 496.06 433.96 543.99 374.92 556.49 601.32 561.84 734.28 582.15 388.79 407.00 376.72 464.24 575.59 601.38 399.08 706.64 673.04 655.73 650.48 472.37 699.30 623.25 741.56 354.31 729.10 662.12 564.14 618.08 589.26 381.60 629.47 544.81 87.21 459.75 692.88 547.19 620.89 590.51 644.32 695.83 403.59 576.97 552.92 438.20 609.43 706.88 444.29 0.00 521.10 249.95 600.74 634.29 403.27 480.03 442.66 583.49 322.32 577.11 621.99 440.29
746.24 588.60 660.43 771.48 350.53 802.11 965.89 249.73 771.80 593.18 144.14 719.16 1038.20 580.57 597.71 327.87 795.37 43.90 883.59 328.00 464.12 130.48 277.01 408.18 459.26 704.96 653.34 847.42 603.99 410.16 900.77 750.42 599.25 196.21 694.16 868.06 700.25 846.57 918.85 653.82 340.55 447.95 640.12 551.96 628.88 633.89 602.04 425.31 659.94 132.31 731.84 637.44 758.78 588.29 596.15 329.76 927.47 741.96 852.93 439.30 770.84 602.04 793.68 392.47 185.76 580.08 953.58 725.08 885.93 949.71 570.59 883.35 270.96 479.92 478.57 1003.36 536.36 908.26 637.19 782.12 741.80 665.03 266.80 597.79 586.65 953.47 471.15 581.31 521.10 0.00 676.93 861.02 908.40 798.89 643.78 253.05 984.25 472.34 747.54 733.13 221.61
601.96 641.27 469.53 813.33 433.79 959.26 664.11 774.11 361.36 815.85 558.07 768.28 681.71 777.93 820.38 391.95 801.12 643.91 702.33 659.11 340.28 730.31 604.11 385.08 315.81 732.97 332.23 422.82 845.46 934.54 498.32 757.26 328.51 720.59 721.76 607.11 708.03 618.36 549.76 727.61 563.22 292.90 294.04 124.97 306.54 389.22 772.06 949.69 778.79 544.62 185.86 409.23 530.57 785.81 727.67 402.35 674.88 708.35 663.54 840.59 271.16 836.37 604.29 916.85 604.26 802.75 641.16 805.78 684.41 339.31 371.75 675.22 700.64 337.16 408.50 624.91 693.51 595.84 746.17 728.91 875.47 653.54 791.18 754.94 406.46 515.14 882.27 194.34 249.95 676.93 0.00 671.63 577.78 375.04 729.98 690.36 545.92 572.27 558.15 747.93 690.24
1113.34 599.82 323.99 467.00 726.78 702.16 216.10 1000.24 748.47 797.91 791.36 428.78 267.72 549.84 832.78 889.39 277.82 817.12 179.03 868.17 899.84 933.44 997.73 969.70 586.95 264.97 429.96 618.83 886.55 1063.96 701.93 342.22 839.89 946.72 311.25 134.84 289.91 100.78 192.19 464.00 743.09 809.00 853.60 684.53 856.82 948.78 371.41 1093.11 442.50 847.15 485.77 309.91 188.57 381.64 632.41 828.16 162.26 293.31 54.99 957.53 467.17 883.59 67.34 1142.98 799.07 849.97 171.68 460.54 87.52 495.99 856.56 151.92 1003.17 580.01 951.34 327.80 642.31 178.15 411.21 233.62 749.17 446.27 1017.31 691.63 958.94 202.35 998.16 699.11 600.74 861.02 671.63 0.00 226.17 334.94 521.69 887.91 233.13 560.15 113.48 404.54 849.48
1092.64 782.97 395.76 656.96 802.42 881.49 118.52 1136.48 803.53 963.48 932.31 638.04 129.80 714.06 929.05 906.49 503.99 912.38 405.20 1018.17 854.82 1030.52 1069.50 962.86 617.19 455.00 452.20 637.57 954.13 1186.99 720.67 557.74 819.19 1082.96 501.28 91.33 479.94 306.49 63.96 631.71 860.27 760.25 808.58 639.51 789.27 890.68 534.87 1157.84 611.60 922.00 391.92 365.90 333.36 548.62 815.99 909.39 204.71 519.48 190.31 1102.32 485.91 945.04 220.60 1279.22 899.32 911.42 93.34 649.41 313.69 356.28 870.64 378.09 1078.02 547.08 923.04 101.63 802.32 48.02 601.24 459.79 948.71 646.76 1153.55 863.75 938.24 62.64 1076.53 678.41 634.29 908.40 577.78 226.17 0.00 286.19 711.72 993.99 93.42 616.14 208.74 591.56 971.10
929.55 732.47 231.90 659.87 636.46 876.87 345.82 883.48 634.03 847.13 730.71 612.68 390.12 674.20 899.72 634.18 532.71 772.74 472.56 842.39 715.32 747.50 846.34 691.88 415.59 529.99 199.20 468.07 873.52 1043.91 498.70 535.09 656.10 829.96 541.81 315.52 505.05 347.25 258.17 556.97 728.75 474.06 669.08 500.01 681.58 764.26 568.02 1059.06 581.48 734.77 189.18 292.20 259.46 581.77 771.71 744.61 460.94 486.18 389.93 923.12 316.41 903.57 399.71 1026.22 613.13 899.19 311.45 653.41 413.30 258.62 639.48 478.45 890.79 359.85 749.63 360.12 784.71 304.25 614.10 457.80 870.11 482.90 900.55 786.03 740.06 223.55 979.52 547.73 403.27 798.89 375.04 334.94 286.19 0.00 689.65 723.03 251.44 510.57 353.57 658.24 699.11
1243.13 95.33 457.75 227.17 482.09 231.69 682.52 552.22 1022.98 276.22 726.70 204.50 734.14 63.21 337.28 768.68 320.43 626.46 414.69 487.91 904.93 579.48 920.79 848.99 544.48 256.72 516.21 857.02 364.86 700.30 919.11 263.19 992.57 605.74 223.52 656.53 281.66 475.82 706.65 229.44 376.95 797.40 1009.40 840.33 1031.19 1001.79 219.83 727.37 143.10 768.37 662.58 447.42 465.12 214.75 121.35 879.11 628.68 266.91 521.41 551.95 705.36 361.90 546.33 750.09 627.57 328.28 638.10 198.37 462.53 858.84 861.63 387.58 848.50 524.64 939.78 799.73 134.00 683.42 110.48 316.43 335.43 206.75 570.49 169.94 918.23 724.04 608.35 909.70 480.03 643.78 729.98 521.69 711.72 689.65 0.00 540.68 748.27 366.06 592.47 206.42 554.17
953.21 511.94 609.18 668.38 256.57 595.11 1006.24 202.44 824.54 423.76 267.50 640.82 942.29 477.47 389.33 579.12 770.00 209.15 804.32 119.36 613.65 186.34 530.06 576.98 376.80 706.29 605.10 902.80 414.41 338.22 961.50 695.59 679.76 255.96 690.61 912.97 711.04 787.13 970.32 535.06 296.82 613.20 704.93 612.02 683.14 743.36 604.16 367.37 527.43 304.47 627.68 638.40 756.12 599.08 551.91 485.75 968.32 716.48 917.25 265.81 855.34 405.32 873.07 400.31 109.90 371.70 961.82 614.78 876.77 890.40 619.82 831.43 427.59 446.91 634.56 1004.32 470.35 956.28 560.05 731.35 592.42 519.18 220.71 408.92 736.18 946.58 290.38 681.39 442.66 253.05 690.36 887.91 993.99 723.03 540.68 0.00 974.47 409.90 857.57 655.99 95.21
1023.08 794.89 448.15 625.10 770.62 918.91 179.75 1104.62 710.11 994.88 849.44 606.18 188.64 695.45 992.51 813.07 510.95 940.35 412.16 995.94 761.40 998.94 1025.23 893.38 648.64 498.10 420.34 544.15 1017.59 1210.35 627.25 575.35 749.63 1051.10 524.75 122.75 522.14 281.86 65.40 654.24 832.23 725.50 715.16 546.09 736.95 810.34 598.33 1210.10 623.52 905.23 360.06 397.32 301.50 602.19 813.75 863.07 268.17 526.44 266.03 1070.46 392.49 1008.50 224.35 1247.36 864.57 974.88 156.80 617.55 320.65 324.42 792.87 385.05 1061.25 593.76 829.62 109.39 811.43 111.48 644.34 431.84 916.85 627.35 1121.69 872.86 860.95 30.78 1044.67 615.46 583.49 984.25 545.92 233.13 93.42 251.44 748.27 974.47 0.00 647.56 236.71 559.70 950.55
1030.13 347.87 310.54 419.11 186.28 425.93 622.64 612.34 822.94 450.21 480.49 390.75 696.17 302.85 389.15 610.97 473.78 428.44 514.11 411.60 681.51 434.43 749.35 691.28 293.57 370.00 311.37 851.91 449.49 722.93 786.74 398.06 759.67 596.45 323.72 524.81 390.15 459.37 582.16 241.46 288.56 694.69 784.46 615.39 806.25 850.31 338.30 742.37 277.36 476.69 457.74 250.24 371.58 349.01 328.41 717.28 580.16 379.35 578.01 565.93 700.25 440.40 518.76 792.71 390.09 406.78 613.44 364.71 525.42 731.52 628.73 487.00 632.71 299.70 725.06 616.16 295.63 568.12 309.98 416.63 519.54 192.69 619.06 357.06 760.52 616.78 607.61 684.76 322.32 472.34 572.27 560.15 616.14 510.57 366.06 409.90 647.56 0.00 472.62 405.92 476.07
999.86 621.43 321.64 528.56 658.90 763.72 249.80 979.04 677.78 845.10 770.16 502.62 293.25 581.78 861.77 859.92 339.38 703.64 240.59 828.99 870.31 853.49 995.38 917.62 544.78 335.75 316.48 583.26 922.11 1095.02 666.36 403.78 726.41 925.52 375.55 175.41 360.69 132.08 171.31 504.56 651.53 699.80 742.32 655.00 743.34 837.50 445.25 1099.53 476.15 825.95 372.29 275.47 154.13 452.41 666.38 852.20 179.93 354.87 105.39 923.09 431.60 913.02 46.14 1121.78 830.37 879.40 206.04 522.10 161.36 499.57 778.19 213.48 981.97 489.90 837.86 310.37 673.67 160.72 481.99 282.64 753.50 470.75 996.11 735.10 845.46 205.93 970.58 585.63 577.11 747.54 558.15 113.48 208.74 353.57 592.47 857.57 236.71 472.62 0.00 466.10 762.36
1300.36 284.55 427.26 65.40 556.84 371.37 609.16 758.64 1090.76 482.64 765.92 46.48 629.15 234.09 524.85 910.64 126.72 760.28 279.73 667.71 1007.82 719.71 1010.14 990.95 607.50 183.36 596.04 947.66 548.52 875.43 991.31 126.27 1027.57 812.16 180.84 539.38 198.00 426.45 563.54 222.97 490.25 817.42 972.23 854.37 994.02 1067.41 163.60 868.49 128.56 821.71 674.18 405.53 399.97 165.72 303.98 838.37 512.48 172.06 448.05 741.17 836.85 540.84 471.88 956.51 677.40 507.22 564.74 57.85 371.46 822.56 934.50 252.62 914.11 596.84 939.60 665.49 336.79 582.69 95.94 255.92 357.15 278.95 766.13 353.60 1054.22 528.92 709.75 923.74 621.99 733.13 747.93 404.54 591.56 658.24 206.42 655.99 559.70 405.92 466.10 0.00 628.58
929.00 497.90 668.18 670.02 289.79 658.55 982.32 269.98 800.62 490.41 285.59 626.66 1033.94 539.59 478.71 549.48 710.52 232.98 794.86 210.06 518.44 91.13 498.62 629.79 374.43 678.88 557.46 911.79 504.21 400.31 937.58 685.35 655.55 216.46 677.06 905.84 703.82 748.70 933.67 623.66 237.78 637.03 694.44 588.10 704.23 737.13 599.78 429.46 565.26 317.71 632.06 648.81 660.91 613.53 493.38 523.44 942.29 689.07 867.75 320.86 760.13 500.53 808.50 412.72 85.98 466.91 937.90 620.53 814.75 866.48 524.61 767.75 473.73 444.54 586.66 1014.73 445.66 923.08 532.64 707.43 669.57 614.39 287.05 384.23 640.97 922.66 377.26 657.47 440.29 221.61 690.24 849.48 971.10 699.11 554.17 95.21 950.55 476.07 762.36 628.58 0.00
DEMAND_SECTION
1 0
2 66
3 84
4 79
5 68
6 99
7 51
8 58
9 76
10 84
11 77
12 59
13 83
14 55
15 87
16 78
17 98
18 64
19 80
20 67
21 69
22 72
23 96
24 50
25 83
26 65
27 56
28 83
29 53
30 72
31 52
32 63
33 85
34 67
35 70
36 64
37 73
38 80
39 51
40 53
41 98
42 97
43 83
44 86
45 100
46 56
47 53
48 52
49 60
50 97
51 63
52 69
53 77
54 84
55 87
56 53
57 100
58 76
59 88
60 77
61 89
62 74
63 55
64 87
65 98
66 84
67 57
68 80
69 50
70 95
71 93
72 58
73 50
74 95
75 82
76 72
77 53
78 65
79 80
80 67
81 52
82 50
83 75
84 57
85 67
86 72
87 68
88 87
89 77
90 72
91 53
92 64
93 57
94 50
95 72
96 82
97 87
98 94
99 53
100 63
101 51
DEPOT_SECTION
1
-1
EOF
