NAME: LDG115_3324_fog_115_0117
COMMENT: CVRP with travel times.  rootPos=3,custPos=3,demandType=2,avgRouteSizeIndex=4,weather=fog,lambda_cluster=1,lambda_random=4, T1=300,T2=700,beta=1, alpha(i,j) ~ U(0.8,1.2)
TYPE: CVRP
DIMENSION: 116
EDGE_WEIGHT_TYPE: EXPLICIT
EDGE_WEIGHT_FORMAT: FULL_MATRIX
CAPACITY: 70
NODE_COORD_SECTION
1 0 0
2 754 94
3 485 847
4 817 737
5 285 387
6 126 488
7 288 155
8 986 656
9 716 761
10 408 54
11 889 747
12 309 821
13 967 641
14 982 721
15 127 478
16 156 496
17 0 520
18 518 226
19 319 956
20 298 290
21 814 496
22 386 172
23 607 416
24 779 78
25 31 963
26 457 39
27 634 678
28 418 349
29 332 800
30 340 490
31 966 508
32 474 992
33 622 420
34 470 504
35 379 113
36 932 725
37 250 467
38 648 645
39 882 647
40 394 810
41 534 867
42 159 974
43 128 524
44 965 586
45 248 904
46 230 493
47 631 983
48 88 277
49 69 890
50 267 492
51 694 785
52 555 337
53 324 156
54 983 664
55 951 586
56 160 483
57 883 639
58 98 693
59 285 807
60 533 369
61 110 391
62 270 292
63 575 983
64 908 697
65 234 508
66 751 391
67 792 327
68 59 560
69 572 483
70 505 396
71 501 862
72 590 316
73 887 592
74 635 57
75 212 664
76 745 810
77 933 720
78 448 736
79 363 591
80 956 436
81 141 519
82 632 35
83 408 222
84 981 607
85 222 596
86 795 708
87 994 604
88 71 174
89 509 320
90 713 374
91 812 466
92 74 402
93 693 412
94 419 138
95 555 351
96 369 331
97 952 631
98 365 442
99 573 682
100 261 901
101 595 735
102 598 914
103 249 650
104 983 817
105 479 736
106 584 779
107 583 260
108 606 232
109 173 347
110 57 574
111 129 592
112 153 956
113 618 55
114 11 395
115 356 44
116 301 472
EDGE_WEIGHT_SECTION
0.00 941.94 1177.84 1266.25 618.71 630.72 647.36 1339.80 1221.61 595.32 1267.52 1043.86 1277.00 1388.07 634.54 585.92 743.18 678.95 1176.98 524.06 1094.26 494.32 898.73 999.26 1170.15 665.79 1125.19 724.82 1014.28 744.89 1256.58 1245.18 917.39 788.39 599.17 1344.75 649.49 1098.70 1248.18 1085.59 1207.84 1160.24 684.57 1267.17 1109.16 599.31 1338.94 464.13 1050.31 656.62 1275.49 757.51 640.24 1326.93 1279.04 616.37 1235.30 809.59 1037.84 754.57 508.60 475.13 1274.00 1332.31 627.90 992.61 1001.27 614.55 909.61 781.67 1152.91 780.42 1171.89 818.15 854.01 1287.59 1355.43 1011.39 803.68 1227.01 644.08 835.24 545.80 1303.34 764.58 1225.06 1314.74 387.85 723.75 927.40 1045.81 575.79 954.47 549.71 773.57 637.45 1305.23 712.08 1100.09 1100.71 1155.40 1262.73 802.38 1461.58 1059.76 1152.37 666.82 758.75 546.55 637.52 690.69 1117.71 787.17 596.99 507.20 705.25
941.94 0.00 969.64 801.26 707.13 848.42 582.88 717.85 795.80 468.39 745.87 977.79 720.64 767.82 846.94 825.49 1010.75 353.84 1137.26 635.69 468.14 447.62 530.07 57.32 1342.23 397.92 733.79 519.32 977.51 661.90 630.46 1151.57 506.28 599.71 497.69 757.58 755.74 727.33 689.02 916.36 1000.38 1237.58 821.34 638.86 1121.66 705.56 1097.41 819.72 1198.42 762.87 855.18 405.79 531.54 728.85 663.30 795.04 668.79 1008.02 1025.13 449.93 850.34 666.04 1057.63 678.62 734.15 377.15 362.62 942.18 603.62 496.83 1006.73 369.31 616.10 136.58 946.38 889.35 754.39 807.81 707.71 533.89 841.57 177.81 465.30 650.05 898.03 778.17 668.60 842.39 417.73 445.56 419.69 876.68 442.22 463.51 421.85 608.27 708.04 678.48 746.30 1111.68 841.86 1047.52 878.99 888.07 855.41 828.35 280.25 370.34 799.18 965.15 885.59 1256.98 167.56 916.79 480.75 718.15
1177.84 969.64 0.00 425.78 667.69 596.32 824.79 680.79 339.19 949.12 558.65 233.27 661.77 643.67 597.53 596.44 719.11 767.44 241.80 687.45 534.16 841.26 519.60 1022.16 563.62 962.15 235.85 624.77 198.90 530.70 696.48 201.03 504.08 432.77 855.99 588.62 535.68 296.83 535.90 154.49 91.17 455.14 578.77 688.25 294.54 578.53 224.32 830.05 539.86 521.22 313.58 615.35 773.45 670.93 663.81 613.45 556.13 551.27 286.96 542.25 718.44 736.38 171.57 570.48 575.67 592.49 716.74 641.71 480.40 589.15 41.99 638.55 596.62 943.09 485.42 401.39 580.22 170.84 380.05 726.28 538.28 960.18 751.02 669.84 470.04 468.74 661.41 973.58 645.21 583.62 582.61 744.98 527.42 853.92 609.50 583.03 644.16 499.43 264.88 319.17 246.60 143.86 441.70 673.72 136.77 157.98 711.93 746.61 732.83 618.74 581.52 429.86 912.11 789.46 947.96 572.56
1266.25 801.26 425.78 0.00 792.05 867.38 973.95 255.01 221.93 894.15 132.93 630.53 245.26 218.94 868.59 866.38 990.17 708.69 623.16 806.68 337.32 884.58 482.58 858.58 967.72 926.02 305.80 719.98 603.00 621.36 349.70 500.37 444.89 477.86 926.99 162.84 740.36 344.01 156.90 553.01 438.72 836.50 849.83 274.78 720.32 766.94 441.77 1062.98 937.12 724.50 205.53 623.80 927.02 245.15 250.34 856.42 136.67 845.93 685.48 585.57 923.96 855.61 382.19 144.70 778.95 466.89 547.69 942.90 430.53 576.92 383.79 581.86 200.08 877.92 770.97 175.49 154.44 444.76 622.44 393.52 809.34 892.43 794.34 305.23 743.96 69.84 286.68 1104.06 685.29 458.02 385.77 909.82 401.82 912.11 607.74 693.29 224.70 623.79 310.14 737.17 292.29 361.31 743.18 261.39 438.25 380.91 628.08 720.01 863.31 965.87 855.44 855.64 846.94 1076.26 973.90 696.95
618.71 707.13 667.69 792.05 0.00 260.16 350.98 864.04 750.41 475.31 861.12 568.88 857.64 917.82 248.05 237.23 422.49 423.23 675.32 141.38 582.85 343.71 380.51 673.64 755.67 488.34 543.71 220.55 512.62 211.98 745.17 754.29 418.20 314.19 382.18 907.58 155.03 576.10 803.73 600.86 696.32 740.73 279.44 808.09 597.34 172.33 819.27 368.92 629.66 165.30 752.89 369.71 299.64 883.15 832.53 206.78 783.50 444.60 546.51 305.97 272.71 180.09 839.26 828.62 144.05 580.20 630.86 361.15 405.46 259.07 688.27 364.82 803.52 570.55 342.19 810.61 919.37 519.87 330.98 774.97 263.48 587.64 370.09 804.35 314.36 741.07 822.90 410.00 362.30 544.22 614.09 338.31 545.99 413.56 373.22 131.60 865.72 168.26 608.77 621.97 622.28 782.63 311.49 1038.07 536.95 533.66 459.62 506.94 169.25 384.12 336.98 688.03 539.57 455.72 454.69 113.96
630.72 848.42 596.32 867.38 260.16 0.00 395.90 1012.27 785.84 622.91 918.14 497.55 964.33 961.89 25.85 46.55 224.33 531.62 625.97 322.57 772.79 523.56 524.59 905.74 630.78 635.94 637.64 427.34 474.91 288.44 935.11 726.09 562.28 412.15 529.78 951.65 149.65 633.12 930.71 530.45 668.47 616.10 57.27 954.50 482.78 142.86 799.57 333.25 498.60 185.88 797.62 542.04 447.24 1014.26 966.37 53.38 922.63 257.78 415.78 546.18 122.12 273.64 767.89 872.69 138.59 724.28 761.32 124.29 578.19 519.23 613.54 600.99 859.22 789.93 227.63 868.89 963.44 459.70 307.19 958.68 58.04 807.02 439.13 990.67 160.50 827.41 1001.89 466.33 537.64 684.82 799.69 161.31 690.07 587.73 533.22 362.38 992.56 315.73 587.11 507.41 646.34 740.18 291.50 1082.14 520.49 660.08 645.78 661.19 225.58 147.26 135.35 618.10 758.95 221.63 559.26 237.22
647.36 582.88 824.79 973.95 350.98 395.90 0.00 955.57 940.29 227.01 989.14 797.02 966.47 1041.70 421.75 442.45 620.23 312.76 981.34 209.60 674.38 155.08 532.54 604.18 1026.68 240.04 765.10 358.63 818.64 471.92 836.70 1000.81 565.42 543.55 133.88 993.78 453.17 704.12 895.26 847.72 880.37 1012.00 453.17 899.62 878.68 503.35 1010.93 339.52 882.59 478.55 880.91 391.32 51.34 974.68 924.06 449.28 875.03 653.68 715.25 388.38 446.27 227.78 996.36 954.42 495.03 621.68 651.08 520.19 543.42 435.28 839.34 450.27 905.21 446.30 623.53 948.57 1006.39 748.81 569.68 856.08 453.94 487.53 179.61 895.88 556.40 904.11 914.43 259.51 378.49 601.40 696.50 494.65 582.61 191.83 407.38 322.99 957.25 397.62 745.38 888.85 841.63 930.47 577.23 1141.07 688.02 859.86 426.92 408.56 391.03 543.16 531.25 962.18 447.93 564.61 163.36 427.21
1339.80 717.85 680.79 255.01 864.04 1012.27 955.57 0.00 348.49 978.26 180.99 809.86 62.80 101.27 1025.65 983.13 1185.40 731.39 878.17 922.08 281.19 865.17 560.94 775.17 1098.18 947.07 463.69 813.32 830.97 814.00 188.04 739.63 551.59 710.69 949.69 100.65 862.62 424.47 173.04 732.64 596.51 1017.96 1014.34 103.97 829.94 898.56 584.11 1188.97 1116.45 841.25 384.66 632.30 976.69 23.29 98.02 973.75 152.81 977.37 828.19 637.76 1046.22 949.50 637.20 139.58 895.70 440.33 450.74 1112.98 514.98 661.37 638.80 666.89 167.91 854.43 909.40 345.84 100.57 624.09 794.14 264.39 1027.02 865.87 844.01 67.80 923.29 275.28 70.40 1215.08 687.59 471.72 329.64 1105.28 496.82 924.65 616.24 808.69 64.78 799.94 515.58 805.31 494.41 561.23 879.67 189.85 574.74 550.96 672.98 693.26 989.30 1090.01 1034.77 965.26 831.00 1097.78 983.36 892.59
1221.61 795.80 339.19 221.93 750.41 785.84 940.29 348.49 0.00 977.40 248.20 511.91 396.71 312.42 811.69 804.00 890.58 694.64 542.32 795.41 327.66 887.49 490.45 853.12 869.74 911.97 206.70 705.15 522.16 633.32 457.32 414.35 528.14 510.52 912.94 260.53 690.98 236.17 323.92 434.69 248.02 755.66 793.06 399.49 601.50 725.80 354.31 1019.77 818.50 668.49 59.38 617.24 888.95 352.74 423.93 773.55 341.61 764.11 518.80 588.48 874.58 746.48 396.00 314.34 722.94 451.36 538.03 816.55 447.00 553.20 302.95 608.47 345.07 834.17 640.05 93.55 247.92 326.14 537.15 519.78 752.57 851.26 797.25 392.58 625.34 152.09 374.03 1056.39 691.44 511.77 376.11 903.23 498.27 899.25 615.61 711.61 368.49 619.81 231.48 576.87 261.11 273.85 570.28 407.82 265.35 349.73 635.59 672.54 871.30 839.52 721.65 736.82 803.19 856.11 959.85 636.45
595.32 468.39 949.12 894.15 475.31 622.91 227.01 978.26 977.40 0.00 983.66 889.56 915.46 1024.26 648.76 600.28 743.15 287.80 1079.17 333.93 734.09 196.74 486.95 434.61 1163.74 70.47 770.70 362.96 916.47 512.53 858.45 1125.14 449.26 605.08 93.13 983.21 589.27 799.95 886.64 901.39 1004.70 1068.67 680.18 905.63 971.66 628.99 1113.62 463.85 1068.30 573.37 923.06 423.35 175.67 965.39 917.50 630.73 873.76 827.48 936.90 475.99 599.46 366.13 1120.69 935.06 619.36 574.95 611.79 741.96 585.04 514.91 963.67 394.52 810.35 363.17 750.26 971.75 995.82 842.31 619.48 809.35 658.44 380.26 286.98 941.80 744.30 842.88 947.14 486.52 373.03 506.54 686.67 601.19 562.74 126.89 439.41 419.54 934.80 481.38 771.51 996.29 877.71 1033.16 729.62 1104.33 812.35 868.68 382.96 417.37 499.12 764.93 705.05 1015.97 332.19 722.59 88.12 522.03
1267.52 745.87 558.65 132.93 861.12 918.14 989.14 180.99 248.20 983.66 0.00 735.14 167.81 152.41 916.66 874.14 1076.41 714.86 756.09 884.71 347.29 921.26 590.74 803.19 1089.20 932.19 346.00 754.00 735.93 754.29 358.64 633.30 553.05 610.79 933.16 80.34 776.43 285.02 177.47 657.92 467.48 963.37 905.35 245.24 820.96 789.57 562.97 1143.54 1041.73 732.26 289.76 666.91 937.80 192.73 228.47 864.76 164.26 951.22 767.00 648.95 946.77 908.59 515.12 67.25 786.71 506.43 557.66 1005.09 535.82 602.05 516.72 690.02 227.67 882.45 875.24 295.10 87.91 549.37 676.45 405.66 918.03 923.68 848.01 238.40 848.57 175.13 230.13 1184.17 728.40 486.14 395.74 996.29 534.75 910.27 650.85 798.58 196.04 696.69 415.43 796.33 397.58 494.24 818.48 194.06 513.55 442.79 600.70 692.63 943.87 1028.06 910.19 935.81 913.43 1104.31 980.07 775.75
1043.86 977.79 233.27 630.53 568.88 497.55 797.02 809.86 511.91 889.56 735.14 0.00 747.06 824.33 523.40 484.62 553.96 738.27 196.70 672.53 689.29 750.39 562.71 1033.02 420.98 911.17 390.98 526.60 56.26 420.73 851.61 408.11 598.35 523.53 855.63 772.44 464.19 451.96 756.87 198.90 324.44 352.26 554.82 825.70 164.24 474.45 457.59 752.86 306.59 506.26 546.85 628.89 792.83 796.99 833.76 507.28 743.53 355.49 81.77 617.43 619.67 647.43 404.84 736.85 470.27 747.62 811.01 429.31 462.57 570.53 275.26 687.84 751.75 992.38 353.26 594.96 759.83 185.77 270.08 881.41 519.71 1009.47 660.15 817.65 359.07 614.97 835.75 905.91 616.04 724.37 737.74 638.81 682.55 820.24 612.83 580.89 756.52 495.03 374.67 139.61 416.30 377.13 315.02 835.90 246.56 378.95 753.52 765.29 665.16 406.34 407.18 299.56 961.40 637.97 934.89 454.92
1277.00 720.64 661.77 245.26 857.64 964.33 966.47 62.80 396.71 915.46 167.81 747.06 0.00 111.07 962.85 920.33 1122.60 724.34 868.42 859.28 292.09 854.22 513.56 772.34 1132.89 941.67 425.92 750.52 768.17 751.20 190.83 745.63 488.79 647.89 942.64 162.55 822.62 385.45 136.49 669.84 635.29 996.51 951.54 97.41 892.74 835.76 571.03 1126.17 1053.65 778.45 390.97 619.00 948.67 49.93 91.51 910.95 116.26 914.57 791.64 607.22 992.96 905.11 627.45 100.56 832.90 445.85 414.19 1059.43 452.18 598.57 629.05 625.76 105.11 825.43 887.50 303.16 149.94 561.29 756.37 257.83 964.22 842.52 815.99 70.59 860.49 244.63 89.14 1160.18 624.79 408.92 340.54 1042.48 465.12 919.75 627.14 745.89 28.23 760.92 484.93 868.11 467.08 602.05 843.12 216.49 538.19 514.41 610.18 656.71 926.50 1082.40 971.97 1007.43 794.45 1118.58 976.85 829.79
1388.07 767.82 643.67 218.94 917.82 961.89 1041.70 101.27 312.42 1024.26 152.41 824.33 111.07 0.00 987.74 963.21 1165.48 820.55 842.10 937.58 369.24 939.54 612.69 825.14 1139.16 992.08 435.07 807.02 806.68 778.22 289.31 661.78 575.00 696.80 1009.79 77.11 812.24 374.09 191.96 733.60 560.44 1012.43 978.20 203.07 850.18 862.42 482.84 1200.72 1130.92 821.33 344.60 679.57 990.36 113.13 199.29 951.90 186.21 1000.28 831.22 666.55 995.84 986.51 601.13 89.20 875.78 527.71 476.60 1076.91 563.25 691.12 602.73 711.97 216.18 887.84 952.47 308.65 64.50 638.56 763.91 323.72 993.56 880.45 875.32 169.07 932.48 224.19 159.56 1208.17 735.86 519.99 358.43 1063.03 537.16 1009.39 663.51 847.64 139.30 749.56 464.49 846.29 446.64 499.81 882.70 123.32 577.77 535.26 721.25 719.12 1001.05 1053.94 999.26 985.50 856.86 1168.53 1084.63 849.13
634.54 846.94 597.53 868.59 248.05 25.85 421.75 1025.65 811.69 648.76 916.66 523.40 962.85 987.74 0.00 68.64 218.58 530.14 651.82 330.30 784.66 503.52 546.68 904.26 652.87 661.79 663.49 425.86 497.00 286.96 946.98 723.94 584.37 438.00 555.63 977.50 175.50 631.64 934.03 504.60 688.70 641.95 55.22 953.02 508.63 141.38 821.66 331.61 524.45 184.40 804.52 540.56 473.09 1012.78 964.89 51.90 921.15 283.63 441.63 544.70 125.94 299.49 769.10 898.54 150.46 746.37 787.17 150.14 576.71 507.12 635.63 599.51 857.74 764.08 253.48 892.33 989.29 485.55 333.04 976.78 59.25 781.17 413.28 989.19 186.35 828.62 1000.41 464.89 536.16 683.34 821.78 166.98 712.16 573.37 555.31 379.65 991.08 314.25 588.32 533.26 662.21 741.39 281.14 1107.99 546.34 685.93 644.30 659.71 224.14 173.11 161.20 643.95 733.10 207.67 585.11 235.74
585.92 825.49 596.44 866.38 237.23 46.55 442.45 983.13 804.00 600.28 874.14 484.62 920.33 963.21 68.64 0.00 221.00 508.69 591.06 321.98 757.79 524.31 478.04 882.81 584.23 657.61 622.97 401.88 428.36 245.02 920.11 687.75 515.73 404.42 507.15 952.97 170.11 589.12 891.51 557.05 621.92 585.52 98.65 910.50 523.24 119.93 753.02 286.70 468.02 141.88 765.91 502.73 480.24 970.26 922.37 30.45 878.63 227.20 462.33 523.25 168.67 273.05 768.01 874.01 145.84 677.73 728.39 158.14 544.04 496.30 566.99 561.68 815.22 807.78 268.09 853.72 962.05 477.86 324.30 912.13 58.16 824.87 473.79 946.67 178.66 820.33 958.07 438.01 493.64 641.75 753.14 161.98 643.52 565.10 486.67 315.83 948.56 271.73 585.35 530.99 664.50 740.30 244.95 1068.20 538.65 681.46 622.85 638.26 254.08 181.11 104.77 599.41 776.80 251.29 599.12 193.22
743.18 1010.75 719.11 990.17 422.49 224.33 620.23 1185.40 890.58 743.15 1076.41 553.96 1122.60 1165.48 218.58 221.00 0.00 693.95 750.66 542.98 949.10 668.19 669.35 1068.07 584.26 813.62 792.32 589.67 610.22 447.29 1111.42 828.75 707.04 603.02 728.15 1146.49 355.37 791.39 1093.40 626.06 810.28 626.58 212.05 1112.77 617.13 305.19 943.43 433.07 415.05 344.15 838.70 658.55 671.57 1172.53 1124.64 215.71 1078.76 247.40 521.12 594.81 294.83 494.05 890.68 1076.28 331.10 869.04 901.28 128.63 694.30 547.91 761.10 677.68 1017.49 952.12 403.54 926.51 1133.88 587.11 486.49 1103.44 180.83 969.21 601.32 1148.94 287.91 950.20 1160.34 602.72 695.20 833.06 902.93 273.57 834.83 738.04 662.06 536.83 1135.19 457.09 709.90 614.79 773.75 862.97 424.52 1232.85 625.23 790.71 764.49 816.82 398.29 151.60 176.43 597.28 921.14 215.40 655.03 395.49
678.95 353.84 767.44 708.69 423.23 531.62 312.76 731.39 694.64 287.80 714.86 738.27 724.34 820.55 530.14 508.69 693.95 0.00 844.71 281.85 472.80 223.39 320.48 411.16 1046.73 217.33 567.46 226.69 682.01 407.17 597.16 884.69 287.14 403.04 218.30 781.72 469.21 561.50 678.36 765.12 799.31 942.08 534.81 662.10 804.17 419.03 825.82 542.69 956.88 461.98 635.26 209.12 265.83 754.68 686.54 478.24 658.13 716.06 785.40 225.19 585.34 330.78 867.51 752.84 447.62 313.66 372.09 655.65 304.09 246.69 781.99 150.17 619.23 342.81 638.87 709.24 776.87 685.28 483.21 548.06 527.39 384.04 133.15 679.54 602.51 664.78 660.99 572.27 122.23 363.07 488.04 592.87 306.87 204.61 195.32 296.31 731.28 332.87 519.61 816.18 625.81 745.36 622.10 908.92 630.67 714.43 114.16 129.57 494.03 678.62 599.06 939.49 373.79 729.84 265.21 410.64
1176.98 1137.26 241.80 623.16 675.32 625.97 981.34 878.17 542.32 1079.17 756.09 196.70 868.42 842.10 651.82 591.06 750.66 844.71 0.00 778.97 775.96 919.08 759.41 1160.97 372.18 1062.04 477.65 716.21 162.70 610.34 935.89 211.41 744.72 672.36 990.26 786.00 643.00 538.63 777.70 269.30 294.30 213.34 643.04 897.94 165.07 605.30 390.35 877.76 385.06 612.70 555.38 735.33 937.23 868.31 873.50 613.68 759.83 534.80 266.09 723.87 748.09 791.48 329.59 767.86 576.71 834.29 873.55 626.01 659.27 676.97 239.37 794.28 823.24 1098.82 420.22 629.21 777.60 369.58 459.69 968.08 626.11 1115.91 836.98 883.09 465.47 630.66 864.54 983.10 722.48 825.42 824.41 745.21 769.22 969.13 719.27 753.49 847.06 614.64 506.68 140.44 487.10 385.66 421.46 876.85 378.57 399.78 857.01 871.73 778.25 603.04 576.95 235.79 1067.84 753.52 1082.23 561.36
524.06 635.69 687.45 806.68 141.38 322.57 209.60 922.08 795.41 333.93 884.71 672.53 859.28 937.58 330.30 321.98 542.98 281.85 778.97 0.00 669.62 202.33 465.46 693.01 859.32 346.96 601.13 202.34 616.27 262.32 831.94 869.50 490.09 333.95 240.80 927.34 255.34 599.69 824.33 694.88 749.06 817.63 377.09 843.69 700.99 305.52 882.85 322.22 771.04 268.95 776.48 383.77 158.26 909.21 868.13 348.16 844.56 549.18 650.16 313.05 303.49 48.93 859.02 848.38 285.43 595.51 610.43 446.86 407.10 354.29 708.03 409.35 811.48 504.82 445.84 812.25 920.52 617.50 412.97 829.91 380.14 543.25 249.67 879.86 440.69 736.84 891.26 404.56 381.81 593.85 621.17 342.63 588.72 272.18 380.30 113.39 887.51 188.02 612.78 725.62 700.96 802.39 452.87 1057.83 556.71 675.04 396.01 411.42 212.18 469.83 426.75 829.41 495.18 447.99 332.77 217.61
1094.26 468.14 534.16 337.32 582.85 772.79 674.38 281.19 327.66 734.09 347.29 689.29 292.09 369.24 784.66 757.79 949.10 472.80 775.96 669.62 0.00 631.25 279.75 525.46 970.46 690.13 298.31 553.14 710.40 571.38 162.32 735.19 285.86 456.98 681.33 349.47 700.49 359.29 220.88 612.07 575.68 938.74 778.57 225.24 828.70 662.79 681.97 951.77 980.15 674.52 387.04 351.11 695.50 300.30 249.68 749.59 200.65 931.15 742.83 356.57 855.56 701.18 705.73 280.04 634.20 159.14 210.37 897.08 335.94 401.19 576.15 393.23 236.34 604.72 823.51 421.21 336.86 503.52 628.76 192.12 798.80 584.68 562.82 221.50 780.81 349.00 240.05 933.89 412.60 227.55 48.45 881.12 217.61 643.46 335.05 621.49 282.87 602.91 395.36 828.90 406.38 601.51 753.74 466.86 489.38 466.69 476.65 416.12 752.10 914.13 839.41 952.64 590.63 919.53 738.01 666.90
494.32 447.62 841.26 884.58 343.71 523.56 155.08 865.17 887.49 196.74 921.26 750.39 854.22 939.54 503.52 524.31 668.19 223.39 919.08 202.33 631.25 0.00 432.14 504.94 999.43 199.93 715.89 269.26 756.38 455.74 793.57 991.89 469.83 495.87 105.24 887.65 449.06 662.94 777.23 762.22 896.84 925.26 488.40 856.49 824.16 466.37 1030.63 469.37 918.42 409.06 839.73 301.95 181.19 841.88 844.06 541.56 757.00 742.09 754.72 299.01 402.72 251.26 1012.83 854.01 463.51 537.05 580.36 637.22 454.05 345.91 855.81 360.90 811.55 323.83 585.95 859.20 875.04 694.52 480.31 771.45 487.36 340.92 90.24 852.75 559.60 814.74 871.30 414.59 229.43 512.03 582.80 469.91 530.26 69.85 306.98 269.23 845.03 390.35 656.01 848.79 749.48 950.17 655.20 1008.44 704.49 812.40 337.55 352.96 351.56 653.04 629.08 872.56 292.85 624.49 184.50 357.72
898.73 530.07 519.60 482.58 380.51 524.59 532.54 560.94 490.45 486.95 590.74 562.71 513.56 612.69 546.68 478.04 669.35 320.48 759.41 465.46 279.75 432.14 0.00 566.86 983.69 537.81 283.75 273.39 618.97 291.63 442.07 720.63 37.69 177.23 471.44 595.87 438.94 313.00 499.30 580.29 610.77 914.97 552.99 500.74 726.95 437.21 677.94 701.27 854.61 394.77 478.18 141.22 485.61 563.49 525.18 508.49 480.40 705.24 644.48 152.41 609.28 427.98 691.17 523.49 449.22 199.69 250.35 636.18 100.14 121.44 561.59 173.37 423.01 466.89 578.49 505.29 608.48 488.96 430.68 434.09 536.20 495.00 352.93 501.25 565.99 431.31 519.80 718.92 202.71 163.71 275.10 640.02 165.48 435.46 125.16 362.34 541.79 323.16 315.66 702.32 391.82 597.48 508.72 692.76 432.59 452.13 249.82 315.49 549.76 659.15 582.81 862.27 446.93 639.78 563.41 389.65
999.26 57.32 1022.16 858.58 673.64 905.74 604.18 775.17 853.12 434.61 803.19 1033.02 772.34 825.14 904.26 882.81 1068.07 411.16 1160.97 693.01 525.46 504.94 566.86 0.00 1362.99 364.14 786.31 506.42 998.27 719.22 687.78 1194.93 563.60 619.56 527.74 814.90 813.06 763.82 746.34 973.68 1057.70 1294.90 878.66 696.18 1157.07 762.88 1133.29 841.02 1255.74 807.57 912.50 425.64 552.84 786.17 680.83 852.36 726.11 1063.47 1080.36 498.74 881.87 723.36 1114.95 735.94 791.47 434.47 407.45 976.17 623.47 536.28 1048.18 426.63 673.42 193.90 1001.78 884.21 811.71 865.13 762.94 591.21 898.89 235.13 522.62 707.37 887.76 835.49 725.92 863.69 475.05 502.88 477.01 934.00 496.64 515.38 441.70 595.37 758.07 723.91 803.62 1132.44 884.20 1052.83 936.31 945.39 904.22 885.67 337.57 313.02 842.89 999.14 942.91 1292.39 224.88 974.11 522.73 773.55
1170.15 1342.23 563.62 967.72 755.67 630.78 1026.68 1098.18 869.74 1163.74 1089.20 420.98 1132.89 1139.16 652.87 584.23 584.26 1046.73 372.18 859.32 970.46 999.43 983.69 1362.99 0.00 1199.36 776.81 918.23 364.72 693.51 1132.78 555.49 996.15 863.37 1070.61 1062.05 634.54 837.79 1082.48 529.40 621.72 158.84 682.88 1187.67 315.35 647.68 734.43 870.93 169.21 590.37 835.02 937.35 1017.58 1121.47 1163.23 614.68 1102.71 399.07 466.47 920.06 752.90 857.28 673.67 1112.42 644.82 1129.60 1180.83 594.11 883.55 878.99 583.93 996.30 1137.58 1231.05 538.60 922.83 1074.66 571.60 661.71 1162.58 642.39 1272.28 970.14 1165.98 632.98 947.08 1168.58 1022.24 924.50 1121.34 1018.91 746.21 1065.14 1069.28 921.29 833.84 1142.35 720.22 760.50 292.87 724.63 707.48 509.53 1097.62 632.39 704.56 1061.98 1073.75 801.98 582.00 521.50 211.54 1262.03 799.66 1141.55 641.71
665.79 397.92 962.15 926.02 488.34 635.94 240.04 947.07 911.97 70.47 932.19 911.17 941.67 992.08 661.79 657.61 813.62 217.33 1062.04 346.96 690.13 199.93 537.81 364.14 1199.36 0.00 784.79 430.04 899.34 583.00 814.49 1102.02 504.47 620.37 163.60 914.97 602.30 778.83 895.69 923.00 1016.64 1125.19 688.33 879.43 1021.50 611.36 1043.15 476.88 1118.00 608.99 852.59 426.45 188.70 970.36 868.45 688.06 875.46 884.81 954.65 442.52 602.65 384.56 1084.84 970.17 582.77 530.99 541.32 754.99 521.42 464.02 976.70 367.50 836.56 292.70 785.88 926.57 927.58 855.30 641.09 765.39 687.29 309.79 251.02 895.22 720.38 882.11 876.67 499.55 339.56 577.01 692.88 669.84 524.20 163.86 412.65 460.35 927.28 518.35 736.94 1033.51 843.14 962.69 780.26 1062.26 825.38 931.76 331.49 346.90 547.81 777.96 762.38 1072.49 261.72 742.27 158.59 557.65
1125.19 733.79 235.85 305.80 543.71 637.64 765.10 463.69 206.70 770.70 346.00 390.98 425.92 435.07 663.49 622.97 792.32 567.46 477.65 601.13 298.31 715.89 283.75 786.31 776.81 784.79 0.00 529.96 412.09 431.20 460.63 436.88 321.44 438.00 755.19 424.83 521.09 60.98 380.10 313.76 327.02 640.43 650.60 456.05 530.39 534.82 394.19 864.27 697.57 481.09 237.77 424.97 713.76 440.40 466.25 613.59 400.33 632.84 444.52 418.41 695.60 650.06 407.42 345.87 535.54 356.64 483.78 703.35 263.37 378.01 277.84 457.12 360.77 750.64 531.42 296.76 433.91 205.21 330.45 490.43 626.12 778.75 627.18 492.22 504.41 330.52 485.04 849.69 486.46 347.77 346.76 709.72 291.57 719.21 408.91 557.08 421.87 413.11 97.05 530.59 108.07 313.73 496.00 511.38 191.07 168.38 508.32 549.05 664.60 726.32 615.89 661.40 730.68 851.40 832.67 429.75
724.82 519.32 624.77 719.98 220.55 427.34 358.63 813.32 705.15 362.96 754.00 526.60 750.52 807.02 425.86 401.88 589.67 226.69 716.21 202.34 553.14 269.26 273.39 506.42 918.23 430.04 529.96 0.00 553.51 276.10 715.46 800.79 311.08 242.12 374.50 771.28 334.66 468.98 772.69 538.43 680.35 812.94 400.26 774.13 690.84 284.48 796.92 524.56 797.87 330.39 645.77 241.27 311.70 800.45 768.23 373.96 753.79 557.05 573.94 198.85 375.45 251.27 796.34 753.87 313.07 473.08 485.59 521.10 298.34 151.95 639.32 269.39 696.40 529.82 499.67 703.49 758.67 479.35 256.52 707.48 420.49 546.91 179.02 774.64 381.34 659.03 793.19 445.53 217.21 437.10 506.97 442.64 438.87 339.11 225.21 88.95 778.75 242.41 513.86 666.21 606.49 716.46 483.53 910.92 488.00 620.17 239.07 298.80 389.80 544.07 464.51 826.16 498.84 588.79 451.08 279.05
1014.28 977.51 198.90 603.00 512.62 474.91 818.64 830.97 522.16 916.47 735.93 56.26 768.17 806.68 497.00 428.36 610.22 682.01 162.70 616.27 710.40 756.38 618.97 998.27 364.72 899.34 412.09 553.51 0.00 447.64 859.03 374.11 631.43 540.32 827.56 765.84 480.30 473.07 732.92 164.68 274.14 346.82 527.01 846.81 158.80 442.60 423.22 715.06 362.85 450.00 512.48 572.63 774.53 818.10 853.34 458.81 739.67 377.11 103.39 561.17 597.03 628.78 370.47 747.70 414.01 768.73 844.09 485.57 518.83 514.27 219.21 631.58 772.86 936.12 328.53 600.29 757.44 206.88 296.99 902.52 486.52 953.21 674.28 838.76 361.38 582.49 844.38 856.30 559.78 757.45 758.85 590.34 703.66 806.43 556.57 590.79 777.63 451.94 395.78 134.17 360.04 342.76 258.76 801.68 267.67 356.88 697.26 709.03 615.55 462.60 463.44 294.12 905.14 590.82 919.53 398.66
744.89 661.90 530.70 621.36 211.98 288.44 471.92 814.00 633.32 512.53 754.29 420.73 751.20 778.22 286.96 245.02 447.29 407.17 610.34 262.32 571.38 455.74 291.63 719.22 693.51 583.00 431.20 276.10 447.64 0.00 733.70 659.89 329.32 215.12 486.74 784.20 147.31 485.97 710.61 432.56 610.80 654.74 261.36 792.37 542.01 145.58 705.58 514.42 562.98 103.14 662.76 372.57 420.58 801.13 810.55 235.06 730.84 437.29 468.07 328.53 317.65 274.52 702.27 734.66 157.59 491.32 541.98 382.20 299.02 375.43 569.77 424.83 703.40 651.65 286.86 704.17 775.80 373.48 150.65 725.72 280.29 668.74 411.66 792.88 274.88 642.14 811.43 555.50 335.05 455.34 566.73 366.59 457.11 428.79 368.49 187.15 779.43 74.30 401.84 560.34 508.04 625.12 217.09 882.75 418.45 514.30 472.53 536.74 314.75 405.17 325.61 602.04 620.67 494.53 562.42 98.02
1256.58 630.46 696.48 349.70 745.17 935.11 836.70 188.04 457.32 858.45 358.64 851.61 190.83 289.31 946.98 920.11 1111.42 597.16 935.89 831.94 162.32 793.57 442.07 687.78 1132.78 814.49 460.63 715.46 859.03 733.70 0.00 839.27 448.18 619.30 815.46 287.37 862.81 521.61 225.91 774.39 705.34 1064.78 940.89 153.98 991.02 825.11 664.36 1063.08 1142.47 822.96 484.30 513.43 857.82 199.04 138.69 911.91 213.03 1081.32 863.54 518.89 966.87 863.50 731.89 291.39 796.52 283.50 327.10 1059.40 498.26 563.51 731.98 545.29 149.62 738.34 959.41 396.49 276.01 665.84 791.08 113.43 961.12 709.04 725.14 120.24 943.13 305.23 138.79 1096.21 574.92 351.91 210.77 1034.06 348.57 767.82 497.37 783.81 175.57 765.23 545.53 991.22 498.99 664.27 904.22 365.60 610.09 587.61 612.49 569.62 863.41 1045.09 1001.73 1080.63 707.36 1081.85 862.37 829.22
1245.18 1151.57 201.03 500.37 754.29 726.09 1000.81 739.63 414.35 1125.14 633.30 408.11 745.63 661.78 723.94 687.75 828.75 884.69 211.41 869.50 735.19 991.89 720.63 1194.93 555.49 1102.02 436.88 800.79 374.11 659.89 839.27 0.00 705.11 633.80 1032.01 663.21 695.74 497.86 636.62 289.13 216.40 396.65 679.33 737.19 376.48 645.87 178.94 967.85 583.31 694.74 354.97 791.37 949.47 745.52 712.75 713.80 637.04 663.00 421.60 718.27 848.21 888.78 118.18 645.07 640.29 793.52 833.09 700.12 656.42 745.02 161.47 814.57 700.45 1119.11 512.57 442.78 654.81 371.87 571.04 893.89 719.82 1136.20 927.04 754.07 565.59 566.44 735.52 1075.45 762.46 784.65 737.95 845.33 728.45 1033.36 785.52 759.05 725.07 681.48 440.90 351.85 409.20 240.33 442.80 761.76 312.79 359.01 887.95 881.91 836.58 723.09 677.07 447.20 1088.13 908.78 1123.98 658.66
917.39 506.28 504.08 444.89 418.20 562.28 565.42 551.59 528.14 449.26 553.05 598.35 488.79 575.00 584.37 515.73 707.04 287.14 744.72 490.09 285.86 469.83 37.69 563.60 996.15 504.47 321.44 311.08 631.43 329.32 448.18 705.11 0.00 214.92 505.44 563.68 476.63 350.69 506.12 617.98 595.25 941.15 572.61 511.10 753.13 474.90 715.63 735.22 892.30 432.46 515.87 178.91 518.49 538.72 498.67 546.18 486.51 742.93 680.12 177.04 646.97 465.67 675.65 485.80 486.91 192.86 212.66 673.87 135.78 159.13 546.07 136.97 429.83 441.51 616.18 540.93 576.29 526.65 468.37 427.26 532.12 458.60 385.81 507.36 603.68 393.62 525.91 756.61 240.40 126.02 237.41 677.71 127.79 473.15 162.85 400.03 517.02 360.85 351.30 737.96 429.51 635.17 546.41 655.07 470.28 489.82 250.57 279.09 587.45 696.84 620.50 888.45 410.53 677.47 537.38 427.34
788.39 599.71 432.77 477.86 314.19 412.15 543.55 710.69 510.52 605.08 610.79 523.53 647.89 696.80 438.00 404.42 603.02 403.04 672.36 333.95 456.98 495.87 177.23 619.56 863.37 620.37 438.00 242.12 540.32 215.12 619.30 633.80 214.92 0.00 524.14 640.70 262.50 377.02 565.34 403.06 523.94 775.54 428.46 677.97 687.77 312.68 554.80 585.12 778.10 273.00 553.81 193.92 492.21 697.82 699.24 402.16 585.57 593.14 516.17 216.75 446.10 382.88 596.49 622.56 327.45 376.92 427.58 536.44 195.71 169.85 474.76 252.87 600.09 557.41 442.71 515.29 632.30 392.29 253.45 611.32 422.19 574.50 405.63 678.48 390.34 530.06 672.26 626.20 287.53 340.94 452.33 501.63 342.71 500.42 209.98 306.40 673.60 145.93 411.23 663.14 367.01 474.34 372.94 739.25 453.08 388.60 319.46 394.99 385.45 559.41 492.71 757.89 526.43 633.78 616.11 221.66
599.17 497.69 855.99 926.99 382.18 529.78 133.88 949.69 912.94 93.13 933.16 855.63 942.64 1009.79 555.63 507.15 728.15 218.30 990.26 240.80 681.33 105.24 471.44 527.74 1070.61 163.60 755.19 374.50 827.56 486.74 815.46 1032.01 505.44 524.14 0.00 932.68 496.14 735.32 882.47 867.46 911.57 1030.50 587.05 880.40 878.53 535.86 1040.80 370.72 975.17 480.24 853.56 330.22 82.54 947.12 904.84 537.60 862.24 734.35 849.13 403.32 507.96 289.73 1027.56 929.88 526.23 531.96 590.39 648.83 522.39 440.86 870.54 368.47 837.53 380.85 657.13 927.54 945.29 780.01 585.55 766.36 565.31 401.97 195.48 897.84 651.98 883.08 879.29 393.39 334.67 540.30 688.04 575.15 525.17 57.95 346.28 326.41 949.58 412.44 737.91 903.16 788.78 961.67 693.67 1079.97 719.22 775.55 332.46 347.87 452.98 671.80 611.92 977.80 353.90 636.11 91.97 428.90
1344.75 757.58 588.62 162.84 907.58 951.65 993.78 100.65 260.53 983.21 80.34 772.44 162.55 77.11 977.50 952.97 1146.49 781.72 786.00 927.34 349.47 887.65 595.87 814.90 1062.05 914.97 424.83 771.28 765.84 784.20 287.37 663.21 563.68 640.70 932.68 0.00 802.00 363.85 148.12 695.22 508.55 981.83 967.96 169.94 793.81 852.18 502.28 1190.48 1079.03 811.09 319.91 602.46 946.85 117.43 194.38 941.66 148.82 972.38 779.33 653.65 985.60 954.88 545.03 78.96 865.54 475.82 520.61 1025.02 544.15 680.88 546.63 661.41 172.86 894.16 900.58 257.88 12.61 586.67 748.89 330.36 965.66 901.36 814.17 168.45 885.87 196.29 171.05 1197.93 663.95 476.67 397.92 1036.27 485.27 957.50 586.40 819.74 134.65 739.32 436.59 769.18 418.74 473.27 830.81 147.29 525.88 495.26 677.93 737.58 990.81 1002.05 982.18 929.13 900.87 1116.64 1024.65 823.40
649.49 755.74 535.68 740.36 155.03 149.65 453.17 862.62 690.98 589.27 776.43 464.19 822.62 812.24 175.50 170.11 355.37 469.21 643.00 255.34 700.49 449.06 438.94 813.06 634.54 602.30 521.09 334.66 480.30 147.31 862.81 695.74 476.63 262.50 496.14 802.00 0.00 491.41 793.80 473.39 617.98 662.97 165.96 812.79 532.14 50.18 732.22 412.98 593.46 44.17 668.20 426.10 413.60 872.55 824.66 139.66 780.92 352.64 488.71 401.20 183.60 225.39 707.25 723.04 66.29 638.63 689.29 273.94 446.33 392.59 576.95 485.05 717.51 725.58 276.99 756.01 813.79 364.84 194.11 873.03 186.19 742.67 419.77 848.96 215.91 718.45 860.36 481.64 391.76 602.65 709.32 250.79 604.42 516.93 423.19 283.47 850.85 174.02 487.64 556.77 558.55 671.31 252.94 932.49 425.63 557.76 529.24 598.78 240.89 296.91 230.21 610.27 694.60 371.28 507.01 91.34
1098.70 727.33 296.83 344.01 576.10 633.12 704.12 424.47 236.17 799.95 285.02 451.96 385.45 374.09 631.64 589.12 791.39 561.50 538.63 599.69 359.29 662.94 313.00 763.82 837.79 778.83 60.98 468.98 473.07 485.97 521.61 497.86 350.69 377.02 735.32 363.85 491.41 0.00 319.12 374.74 334.10 683.32 620.33 429.71 585.46 504.55 447.68 858.52 758.55 447.24 176.79 427.67 652.78 435.38 405.27 579.74 339.35 690.08 493.25 363.93 661.75 623.57 468.40 284.89 501.69 350.18 478.93 720.07 324.35 317.03 338.82 446.80 395.41 731.14 592.40 264.60 372.93 266.19 391.43 551.41 633.01 768.43 572.70 456.04 565.39 274.17 448.38 899.15 464.32 328.98 406.03 711.27 352.55 714.54 431.18 557.93 375.28 411.67 154.29 562.62 137.51 374.71 556.98 479.08 252.05 162.07 447.34 488.07 658.85 743.04 625.17 655.09 720.36 839.31 826.71 490.73
1248.18 689.02 535.90 156.90 803.73 930.71 895.26 173.04 323.92 886.64 177.47 756.87 136.49 191.96 934.03 891.51 1093.40 678.36 777.70 824.33 220.88 777.23 499.30 746.34 1082.48 895.69 380.10 772.69 732.92 710.61 225.91 636.62 506.12 565.34 882.47 148.12 793.80 319.12 0.00 658.20 549.95 923.64 922.72 158.34 801.31 806.94 576.58 1087.47 1018.13 749.63 281.65 571.99 916.38 174.52 133.90 882.13 20.23 924.88 770.65 577.45 964.14 873.26 539.09 110.22 804.08 364.70 431.25 1038.82 480.67 620.74 540.69 614.11 76.29 823.45 810.37 332.39 156.44 577.99 685.10 269.73 912.57 787.58 783.70 154.04 858.72 175.96 144.83 1123.79 633.48 380.10 269.33 1013.66 429.77 847.08 555.93 739.85 108.26 636.31 389.09 825.94 372.88 496.12 822.13 295.41 517.20 377.92 581.36 589.46 887.80 1023.24 943.92 870.94 811.51 1139.08 943.57 735.88
1085.59 916.36 154.49 553.01 600.86 530.45 847.72 732.64 434.69 901.39 657.92 198.90 669.84 733.60 504.60 557.05 626.06 765.12 269.30 694.88 612.07 762.22 580.29 973.68 529.40 923.00 313.76 538.43 164.68 432.56 774.39 289.13 617.98 403.06 867.46 695.22 473.39 374.74 658.20 0.00 224.15 453.32 553.75 748.48 323.48 486.28 378.81 820.98 444.53 463.32 399.84 596.98 804.66 719.77 751.64 555.96 637.97 406.19 132.47 568.64 630.54 698.78 325.80 659.63 500.02 670.40 788.65 497.43 484.63 572.91 169.22 646.10 674.53 950.64 330.93 487.65 682.61 108.55 281.91 804.19 563.85 967.73 671.98 740.43 407.75 509.41 758.53 868.72 671.60 661.53 660.52 671.58 605.33 832.07 603.12 592.72 679.30 506.86 269.11 298.85 368.99 298.35 312.10 637.00 169.34 312.15 722.52 779.18 674.93 520.40 519.23 400.62 919.66 706.09 946.72 486.90
1207.84 1000.38 91.17 438.72 696.32 668.47 880.37 596.51 248.02 1004.70 467.48 324.44 635.29 560.44 688.70 621.92 810.28 799.31 294.30 749.06 575.68 896.84 610.77 1057.70 621.72 1016.64 327.02 680.35 274.14 610.80 705.34 216.40 595.25 523.94 911.57 508.55 617.98 334.10 549.95 224.15 0.00 507.64 669.94 617.81 353.48 651.44 224.48 908.62 621.39 594.13 307.40 663.26 829.03 600.76 641.55 652.37 570.18 630.34 356.62 597.83 790.59 794.42 202.13 534.73 648.58 683.66 786.05 721.58 514.91 552.62 54.93 676.38 593.09 980.92 527.72 334.91 495.94 253.14 471.22 767.80 629.45 998.01 806.60 588.79 552.34 400.11 570.24 1046.49 699.91 663.08 624.13 783.90 618.59 912.92 665.08 638.61 616.51 561.04 299.39 328.85 232.48 144.02 489.63 582.55 192.35 172.03 767.51 790.09 805.74 709.91 653.67 488.80 949.94 864.96 1003.54 582.36
1160.24 1237.58 455.14 836.50 740.73 616.10 1012.00 1017.96 755.66 1068.67 963.37 352.26 996.51 1012.43 641.95 585.52 626.58 942.08 213.34 817.63 938.74 925.26 914.97 1294.90 158.84 1125.19 640.43 812.94 346.82 654.74 1064.78 396.65 941.15 775.54 1030.50 981.83 662.97 683.32 923.64 453.32 507.64 0.00 626.13 1028.83 188.02 625.27 575.59 872.22 211.53 651.13 751.62 913.46 975.89 1040.23 1004.39 615.97 943.87 424.91 355.01 883.84 651.64 858.57 514.83 954.99 596.68 997.07 1086.89 555.86 814.83 861.09 452.71 972.41 981.22 1249.09 439.44 839.43 971.92 435.22 556.42 1130.86 585.64 1266.18 946.49 1065.00 542.48 788.24 1068.47 995.85 819.85 988.20 987.19 718.83 932.00 984.10 897.40 841.89 1004.64 629.61 624.12 212.65 565.79 599.00 437.65 970.29 496.01 545.72 957.33 1049.26 755.10 532.89 480.75 52.70 1218.11 764.52 1109.76 667.67
684.57 821.34 578.77 849.83 279.44 57.27 453.17 1014.34 793.06 680.18 905.35 554.82 951.54 978.20 55.22 98.65 212.05 534.81 643.04 377.09 778.57 488.40 552.99 878.66 682.88 688.33 650.60 400.26 527.01 261.36 940.89 679.33 572.61 428.46 587.05 967.96 165.96 620.33 922.72 553.75 669.94 626.13 0.00 941.71 477.97 115.78 803.09 288.52 538.45 173.09 797.12 555.02 504.51 995.83 953.58 72.66 909.84 297.63 473.05 557.17 179.39 328.16 750.34 889.00 144.37 752.68 785.27 181.56 551.11 538.51 620.76 613.97 846.43 812.23 222.82 884.93 979.75 500.33 320.15 970.69 40.49 829.32 468.50 977.88 201.13 809.86 974.81 458.17 524.85 692.70 810.02 204.19 700.40 558.25 539.58 355.77 979.77 302.94 569.56 502.60 675.76 722.63 292.59 1098.45 561.12 655.27 639.33 664.38 279.36 199.34 190.07 613.29 781.25 233.17 616.53 224.43
1267.17 638.86 688.25 274.78 808.09 954.50 899.62 103.97 399.49 905.63 245.24 825.70 97.41 203.07 953.02 910.50 1112.77 662.10 897.94 843.69 225.24 856.49 500.74 696.18 1187.67 879.43 456.05 774.13 846.81 792.37 153.98 737.19 511.10 677.97 880.40 169.94 812.79 429.71 158.34 748.48 617.81 1028.83 941.71 0.00 933.91 825.93 661.16 1149.21 1132.29 768.62 439.99 576.35 920.74 114.97 24.44 901.12 138.11 961.57 832.59 581.81 983.13 875.92 656.97 185.66 823.07 348.44 386.13 1062.55 499.66 622.18 658.57 586.70 95.28 775.44 805.43 393.29 157.33 639.93 786.50 160.42 954.39 773.98 788.06 36.17 939.13 285.58 47.57 1159.13 637.84 399.09 273.69 1032.65 413.51 832.76 560.29 793.37 69.18 794.65 506.97 909.28 508.03 617.99 875.20 281.53 579.14 536.26 600.35 628.65 977.34 1074.76 1005.96 1029.28 766.39 1140.52 909.78 819.96
1109.16 1121.66 294.54 720.32 597.34 482.78 878.68 829.94 601.50 971.66 820.96 164.24 892.74 850.18 508.63 523.24 617.13 804.17 165.07 700.99 828.70 824.16 726.95 1157.07 315.35 1021.50 530.39 690.84 158.80 542.01 991.02 376.48 753.13 687.77 878.53 793.81 532.14 585.46 801.31 323.48 353.48 188.02 477.97 933.91 0.00 518.72 518.86 766.49 295.11 534.72 608.12 731.43 859.25 853.23 927.96 492.79 821.54 369.73 198.23 719.97 604.89 713.50 466.11 865.02 522.41 887.03 965.79 510.79 626.81 673.07 336.53 790.38 877.60 1094.92 255.15 688.39 806.42 350.01 434.32 1020.82 518.46 1112.01 811.81 897.74 405.69 734.46 900.34 818.03 703.93 878.16 877.15 624.32 821.96 894.01 715.37 675.51 894.72 582.95 536.87 24.63 512.01 438.40 324.92 782.27 408.76 423.39 841.41 867.83 708.35 524.48 474.64 135.32 1063.94 652.30 970.50 483.38
599.31 705.56 578.53 766.94 172.33 142.86 503.35 898.56 725.80 628.99 789.57 474.45 835.76 862.42 141.38 119.93 305.19 419.03 605.30 305.52 662.79 466.37 437.21 762.88 647.68 611.36 534.82 284.48 442.60 145.58 825.11 645.87 474.90 312.68 535.86 852.18 50.18 504.55 806.94 486.28 651.44 625.27 115.78 825.93 518.72 0.00 779.46 390.38 543.28 57.31 681.34 439.24 463.78 885.69 837.80 89.48 794.06 302.46 438.53 441.39 230.66 275.57 750.10 773.22 28.59 636.90 687.56 236.62 435.33 431.40 611.77 498.19 730.65 742.88 263.57 769.15 863.97 412.08 204.37 854.91 136.01 740.68 437.08 862.10 192.47 717.79 859.03 431.46 409.07 576.92 711.24 221.01 602.69 536.22 440.50 300.78 863.99 187.16 500.78 515.45 606.98 706.13 203.07 982.67 460.45 568.02 523.55 548.60 190.71 259.59 180.03 572.57 711.90 348.95 557.19 108.65
1338.94 1097.41 224.32 441.77 819.27 799.57 1010.93 584.11 354.31 1113.62 562.97 457.59 571.03 482.84 821.66 753.02 943.43 825.82 390.35 882.85 681.97 1030.63 677.94 1133.29 734.43 1043.15 394.19 796.92 423.22 705.58 664.36 178.94 715.63 554.80 1040.80 502.28 732.22 447.68 576.58 378.81 224.48 575.59 803.09 661.16 518.86 779.46 0.00 1039.72 762.25 722.15 294.93 748.72 959.59 595.97 636.72 783.47 578.44 753.56 479.84 731.62 915.82 928.21 136.12 572.04 776.60 750.83 851.03 865.52 609.83 724.65 266.31 807.67 614.06 1063.34 675.40 267.87 513.14 367.38 590.21 777.79 762.60 1104.57 940.39 641.62 666.58 421.08 642.40 1174.51 834.58 741.96 677.72 915.00 685.76 1030.43 764.78 772.40 593.41 694.83 441.99 530.79 368.44 80.46 621.74 585.15 326.14 285.61 874.26 820.27 933.76 843.06 778.06 626.14 1081.23 1004.31 1091.03 773.49
464.13 819.72 830.05 1062.98 368.92 333.25 339.52 1188.97 1019.77 463.85 1143.54 752.86 1126.17 1200.72 331.61 286.70 433.07 542.69 877.76 322.22 951.77 469.37 701.27 841.02 870.93 476.88 864.27 524.56 715.06 514.42 1063.08 967.85 735.22 585.12 370.72 1190.48 412.98 858.52 1087.47 820.98 908.62 872.22 288.52 1149.21 766.49 390.38 1039.72 0.00 754.72 411.28 1005.22 621.25 288.18 1176.10 1124.77 317.15 1107.70 513.90 749.03 618.31 243.36 273.29 1001.62 1111.52 409.06 856.35 887.92 323.55 726.22 579.83 853.69 680.20 1084.62 683.14 511.34 1025.77 1202.27 758.93 594.75 1090.75 299.09 724.37 409.54 1173.27 459.73 1033.76 1191.82 169.65 555.15 831.33 926.43 279.01 849.56 428.67 632.70 435.61 1154.40 451.16 828.16 791.12 921.13 973.91 531.65 1320.97 814.42 902.58 656.85 645.40 199.67 346.52 391.47 826.71 714.12 265.39 462.29 450.16
1050.31 1198.42 539.86 937.12 629.66 498.60 882.59 1116.45 818.50 1068.30 1041.73 306.59 1053.65 1130.92 524.45 468.02 415.05 956.88 385.06 771.04 980.15 918.42 854.61 1255.74 169.21 1118.00 697.57 797.87 362.85 562.98 1142.47 583.31 892.30 778.10 975.17 1079.03 593.46 758.55 1018.13 444.53 621.39 211.53 538.45 1132.29 295.11 543.28 762.25 754.72 0.00 600.59 844.37 908.61 929.30 1103.58 1140.35 478.64 1038.36 240.82 312.06 891.51 619.82 741.07 701.49 1043.44 568.46 961.00 1088.14 435.76 769.16 850.05 581.85 967.56 1058.34 1061.84 369.39 871.67 1066.42 492.36 576.67 1172.27 520.53 1103.07 889.13 1124.24 474.73 921.56 1142.34 906.03 861.12 952.13 1028.60 610.17 895.93 988.27 892.55 750.13 1063.11 637.28 681.26 319.74 710.17 683.72 439.16 1077.38 553.15 675.25 998.60 1071.88 722.10 412.79 363.25 182.23 1092.82 630.45 1002.75 560.70
656.62 762.87 521.22 724.50 165.30 185.88 478.55 841.25 668.49 573.37 732.26 506.26 778.45 821.33 184.40 141.88 344.15 461.98 612.70 268.95 674.52 409.06 394.77 807.57 590.37 608.99 481.09 330.39 450.00 103.14 822.96 694.74 432.46 273.00 480.24 811.09 44.17 447.24 749.63 463.32 594.13 651.13 173.09 768.62 534.72 57.31 722.15 411.28 600.59 0.00 624.03 381.93 427.21 828.38 780.49 132.50 736.75 359.77 483.89 384.08 214.51 269.56 692.79 732.13 54.45 594.46 645.12 293.93 402.16 424.37 554.46 440.88 673.34 706.35 279.57 711.84 820.17 354.77 238.28 828.86 185.77 723.44 379.77 804.79 171.74 678.45 816.19 452.36 351.76 558.48 669.87 264.03 560.25 478.91 383.19 243.47 806.68 129.85 443.47 559.35 549.67 648.82 251.94 926.32 403.14 558.37 489.24 581.17 211.61 316.90 237.34 598.43 675.37 392.07 551.18 51.34
1275.49 855.18 313.58 205.53 752.89 797.62 880.91 384.66 59.38 923.06 289.76 546.85 390.97 344.60 804.52 765.91 838.70 635.26 555.38 776.48 387.04 839.73 478.18 912.50 835.02 852.59 237.77 645.77 512.48 662.76 484.30 354.97 515.87 553.81 853.56 319.91 668.20 176.79 281.65 399.84 307.40 751.62 797.12 439.99 608.12 681.34 294.93 1005.22 844.37 624.03 0.00 604.46 829.57 407.95 415.55 756.53 301.88 784.70 532.31 540.72 838.54 800.36 336.62 345.23 678.48 510.49 597.41 757.17 492.96 493.82 355.57 623.59 357.94 893.55 699.43 87.81 307.30 385.52 568.22 551.38 809.80 910.64 749.49 435.69 684.72 211.47 426.48 1075.94 641.11 452.39 435.49 857.20 508.59 839.87 603.34 734.72 389.91 588.46 290.86 632.75 215.08 214.47 629.66 436.53 324.73 303.70 624.13 664.86 835.64 780.14 662.27 718.90 862.57 915.49 900.47 667.52
757.51 405.79 615.35 623.80 369.71 542.04 391.32 632.30 617.24 423.35 666.91 628.89 619.00 679.57 540.56 502.73 658.55 209.12 735.33 383.77 351.11 301.95 141.22 425.64 937.35 426.45 424.97 241.27 572.63 372.57 513.43 791.37 178.91 193.92 330.22 602.46 426.10 427.67 571.99 596.98 663.26 913.46 555.02 576.35 731.43 439.24 748.72 621.25 908.61 381.93 604.46 0.00 344.39 651.41 600.79 488.66 551.76 719.87 676.02 73.10 596.44 412.45 786.92 599.66 436.38 278.49 348.72 660.87 197.83 110.64 629.90 58.95 513.89 363.49 576.14 602.98 615.07 533.19 447.37 512.89 560.00 380.58 211.71 572.61 542.29 558.52 591.16 629.00 93.61 210.08 360.44 597.36 255.67 371.80 16.06 270.38 633.98 298.27 413.35 706.80 458.56 668.26 566.86 749.75 478.58 547.18 125.54 201.07 537.00 683.84 597.44 866.75 332.51 748.23 422.19 347.91
640.24 531.54 773.45 927.02 299.64 447.24 51.34 976.69 888.95 175.67 937.80 792.83 948.67 990.36 473.09 480.24 671.57 265.83 937.23 158.26 695.50 181.19 485.61 552.84 1017.58 188.70 713.76 311.70 774.53 420.58 857.82 949.47 518.49 492.21 82.54 946.85 413.60 652.78 916.38 804.66 829.03 975.89 504.51 920.74 859.25 463.78 959.59 288.18 929.30 427.21 829.57 344.39 0.00 995.80 910.83 500.62 896.15 705.02 766.59 341.45 461.75 207.19 945.02 937.67 443.69 579.49 599.74 566.29 496.49 388.35 788.00 403.34 858.28 394.96 604.10 901.64 959.46 697.47 522.75 813.89 505.28 436.19 132.68 917.00 598.95 857.18 926.82 310.85 331.56 554.47 649.57 500.89 563.09 140.49 360.45 271.65 976.90 346.28 698.45 883.88 790.29 879.13 611.13 1094.14 636.68 808.52 379.99 357.22 370.44 589.26 582.59 987.67 425.94 553.57 174.51 375.87
1326.93 728.85 670.93 245.15 883.15 1014.26 974.68 23.29 352.74 965.39 192.73 796.99 49.93 113.13 1012.78 970.26 1172.53 754.68 868.31 909.21 300.30 841.88 563.49 786.17 1121.47 970.36 440.40 800.45 818.10 801.13 199.04 745.52 538.72 697.82 947.12 117.43 872.55 435.38 174.52 719.77 600.76 1040.23 995.83 114.97 853.23 885.69 595.97 1176.10 1103.58 828.38 407.95 651.41 995.80 0.00 112.31 960.88 154.80 964.50 830.18 656.87 1042.89 955.04 627.34 150.49 882.83 459.44 452.73 1109.36 502.11 648.50 628.94 668.88 155.04 863.97 920.40 350.09 104.82 611.22 770.85 275.39 1014.15 881.06 863.12 78.80 910.42 251.99 93.69 1210.11 674.72 458.85 348.75 1091.97 473.53 911.73 635.35 795.82 66.77 810.07 492.29 828.60 474.44 565.48 881.66 166.56 576.73 552.44 660.11 695.25 976.43 1094.26 1021.90 988.55 832.99 1074.49 997.65 870.15
1279.04 663.30 663.81 250.34 832.53 966.37 924.06 98.02 423.93 917.50 228.47 833.76 91.51 199.29 964.89 922.37 1124.64 686.54 873.50 868.13 249.68 844.06 525.18 680.83 1163.23 868.45 466.25 768.23 853.34 810.55 138.69 712.75 498.67 699.24 904.84 194.38 824.66 405.27 133.90 751.64 641.55 1004.39 953.58 24.44 927.96 837.80 636.72 1124.77 1140.35 780.49 415.55 600.79 910.83 112.31 0.00 912.99 113.67 986.01 840.65 569.38 995.00 851.48 632.53 161.22 834.94 372.88 395.63 1074.42 511.53 616.28 634.13 611.14 107.15 799.88 829.87 368.85 181.77 647.99 794.83 184.86 966.26 798.42 778.15 60.61 947.19 293.64 71.31 1183.57 662.28 410.96 261.26 1044.52 437.95 857.20 584.73 805.24 77.24 770.21 482.53 903.33 506.78 611.65 892.13 278.87 587.20 511.82 612.22 638.15 992.10 1097.39 1017.83 1004.84 775.89 1150.63 885.34 831.83
616.37 795.04 613.45 856.42 206.78 53.38 449.28 973.75 773.55 630.73 864.76 507.28 910.95 951.90 51.90 30.45 215.71 478.24 613.68 348.16 749.59 541.56 508.49 852.36 614.68 688.06 613.59 373.96 458.81 235.06 911.91 713.80 546.18 402.16 537.60 941.66 139.66 579.74 882.13 555.96 652.37 615.97 72.66 901.12 492.79 89.48 783.47 317.15 478.64 132.50 756.53 488.66 500.62 960.88 912.99 0.00 869.25 237.82 469.16 492.80 141.18 303.50 785.02 862.70 115.39 699.85 758.84 177.67 524.81 465.85 597.44 547.61 805.84 777.33 237.64 844.34 952.67 447.41 293.85 934.25 75.17 794.42 465.18 937.29 148.21 807.27 948.51 468.46 484.26 631.44 783.59 131.53 673.97 595.55 504.72 338.38 939.18 262.35 575.97 517.42 634.05 753.88 275.40 1058.82 508.20 651.01 592.40 607.81 244.64 200.64 135.22 610.03 746.35 259.57 612.64 183.84
1235.30 668.79 556.13 136.67 783.50 922.63 875.03 152.81 341.61 873.76 164.26 743.53 116.26 186.21 921.15 878.63 1078.76 658.13 759.83 844.56 200.65 757.00 480.40 726.11 1102.71 875.46 400.33 753.79 739.67 730.84 213.03 637.04 486.51 585.57 862.24 148.82 780.92 339.35 20.23 637.97 570.18 943.87 909.84 138.11 821.54 794.06 578.44 1107.70 1038.36 736.75 301.88 551.76 896.15 154.80 113.67 869.25 0.00 904.65 750.42 557.22 951.26 893.49 518.86 97.01 791.20 344.47 411.02 1025.98 467.79 601.84 520.46 593.88 63.41 803.22 830.60 312.16 136.21 557.76 681.16 256.85 897.93 770.01 763.47 168.56 856.96 189.52 150.01 1134.54 613.25 367.22 249.10 1000.78 409.54 826.85 535.70 760.08 88.03 656.54 368.86 846.17 393.11 497.98 801.90 296.11 496.97 398.15 568.48 609.69 908.03 1003.01 964.15 891.17 791.28 1120.18 923.34 756.11
809.59 1008.02 551.27 845.93 444.60 257.78 653.68 977.37 764.11 827.48 951.22 355.49 914.57 1000.28 283.63 227.20 247.40 716.06 534.80 549.18 931.15 742.09 705.24 1063.47 399.07 884.81 632.84 557.05 377.11 437.29 1081.32 663.00 742.93 593.14 734.35 972.38 352.64 690.08 924.88 406.19 630.34 424.91 297.63 961.57 369.73 302.46 753.56 513.90 240.82 359.77 784.70 719.87 705.02 964.50 986.01 237.82 904.65 0.00 273.72 656.13 379.00 500.25 722.84 944.79 327.64 840.92 955.59 195.04 706.54 609.23 575.41 739.00 968.06 1015.15 156.14 833.33 959.77 482.35 399.29 1075.32 279.71 1032.24 696.91 985.16 233.91 776.09 1003.71 665.21 684.79 832.05 959.64 369.35 775.85 792.30 713.87 543.03 942.80 483.94 535.79 394.36 641.99 695.13 220.20 1043.19 525.13 570.16 796.12 838.70 481.28 189.54 122.43 372.21 984.17 403.70 761.93 384.37
1037.84 1025.13 286.96 685.48 546.51 415.78 715.25 828.19 518.80 936.90 767.00 81.77 791.64 831.22 441.63 462.33 521.12 785.40 266.09 650.16 742.83 754.72 644.48 1080.36 466.47 954.65 444.52 573.94 103.39 468.07 863.54 421.60 680.12 516.17 849.13 779.33 488.71 493.25 770.65 132.47 356.62 355.01 473.05 832.59 198.23 438.53 479.84 749.03 312.06 483.89 532.31 676.02 766.59 830.18 840.65 469.16 750.42 273.72 0.00 658.93 537.90 662.67 458.27 778.14 467.12 794.73 892.78 468.76 544.34 617.66 301.69 734.97 805.29 1039.51 347.88 559.61 766.72 241.02 317.42 934.95 473.82 1056.60 707.49 850.26 332.38 620.56 842.64 869.99 663.17 789.48 791.28 577.09 736.09 824.57 659.96 624.68 763.41 532.12 381.56 173.60 398.11 430.82 362.15 769.47 253.45 425.29 800.65 812.42 629.24 463.26 396.15 332.24 1008.53 637.41 878.61 432.55
754.57 449.93 542.25 585.57 305.97 546.18 388.38 637.76 588.48 475.99 648.95 617.43 607.22 666.55 544.70 523.25 594.81 225.19 723.87 313.05 356.57 299.01 152.41 498.74 920.06 442.52 418.41 198.85 561.17 328.53 518.89 718.27 177.04 216.75 403.32 653.65 401.20 363.93 577.45 568.64 597.83 883.84 557.17 581.81 719.97 441.39 731.62 618.31 891.51 384.08 540.72 73.10 341.45 656.87 569.38 492.80 557.22 656.13 658.93 0.00 567.36 353.44 713.82 636.61 438.53 349.23 386.07 610.41 155.04 46.90 556.80 96.30 559.42 400.84 582.03 560.19 666.26 460.09 395.44 539.58 530.49 417.93 208.77 578.07 469.19 515.73 596.62 638.35 102.96 283.18 308.12 562.28 293.02 368.86 67.25 287.80 635.45 254.23 357.00 695.34 463.20 651.16 524.54 789.87 405.48 526.00 169.68 222.01 463.90 633.38 533.70 855.29 369.86 738.90 473.43 353.80
508.60 850.34 718.44 923.96 272.71 122.12 446.27 1046.22 874.58 599.46 946.77 619.67 992.96 995.84 125.94 168.67 294.83 585.34 748.09 303.49 855.56 402.72 609.28 881.87 752.90 602.65 695.60 375.45 597.03 317.65 966.87 848.21 646.97 446.10 507.96 985.60 183.60 661.75 964.14 630.54 790.59 651.64 179.39 983.13 604.89 230.66 915.82 243.36 619.82 214.51 838.54 596.44 461.75 1042.89 995.00 141.18 951.26 379.00 537.90 567.36 0.00 258.41 890.01 906.64 249.89 808.97 715.11 246.41 616.67 527.40 735.66 606.62 887.85 726.55 349.74 926.35 997.39 548.44 377.71 961.22 180.16 743.64 459.15 1019.30 282.62 892.96 1030.70 344.21 566.27 772.62 875.48 67.19 774.76 472.57 597.70 362.80 1021.19 344.36 657.98 629.52 709.31 854.91 407.08 1116.09 609.23 741.36 614.52 674.25 103.46 250.32 257.47 704.34 695.57 221.77 580.26 265.85
475.13 666.04 736.38 855.61 180.09 273.64 227.78 949.50 746.48 366.13 908.59 647.43 905.11 986.51 299.49 273.05 494.05 330.78 791.48 48.93 701.18 251.26 427.98 723.36 857.28 384.56 650.06 251.27 628.78 274.52 863.50 888.78 465.67 382.88 289.73 954.88 225.39 623.57 873.26 698.78 794.42 858.57 328.16 875.92 713.50 275.57 928.21 273.29 741.07 269.56 800.36 412.45 207.19 955.04 851.48 303.50 893.49 500.25 662.67 353.44 258.41 0.00 907.95 897.31 291.68 627.67 633.95 397.93 452.93 306.54 753.39 436.31 850.99 551.54 458.35 812.46 942.27 590.23 419.50 862.07 331.21 568.63 200.74 912.09 434.14 785.77 922.79 355.63 332.88 591.69 661.56 293.70 593.46 321.11 410.43 162.32 928.72 236.95 661.71 738.13 749.89 847.75 478.33 1102.17 602.07 713.75 444.94 418.69 163.25 420.90 377.82 835.66 520.56 399.06 381.70 230.12
1274.00 1057.63 171.57 382.19 839.26 767.89 996.36 637.20 396.00 1120.69 515.12 404.84 627.45 601.13 769.10 768.01 890.68 867.51 329.59 859.02 705.73 1012.83 691.17 1114.95 673.67 1084.84 407.42 796.34 370.47 702.27 731.89 118.18 675.65 596.49 1027.56 545.03 707.25 468.40 539.09 325.80 202.13 514.83 750.34 656.97 466.11 750.10 136.12 1001.62 701.49 692.79 336.62 786.92 945.02 627.34 632.53 785.02 518.86 722.84 458.27 713.82 890.01 907.95 0.00 526.89 747.24 764.06 714.91 813.28 651.52 754.75 211.77 810.12 582.27 1105.03 630.75 386.29 536.63 342.41 551.62 775.71 709.85 1131.75 922.59 635.89 641.61 452.03 617.34 1145.15 816.78 755.19 754.18 916.55 698.99 1025.49 781.07 754.60 606.89 671.00 436.45 470.03 418.17 122.15 560.98 643.58 308.34 329.55 883.50 861.96 904.40 790.31 753.09 544.76 1083.68 961.03 1119.53 744.13
1332.31 678.62 570.48 144.70 828.62 872.69 954.42 139.58 314.34 935.06 67.25 736.85 100.56 89.20 898.54 874.01 1076.28 752.84 767.86 848.38 280.04 854.01 523.49 735.94 1112.42 970.17 345.87 753.87 747.70 734.66 291.39 645.07 485.80 622.56 929.88 78.96 723.04 284.89 110.22 659.63 534.73 954.99 889.00 185.66 865.02 773.22 572.04 1111.52 1043.44 732.13 345.23 599.66 937.67 150.49 161.22 862.70 97.01 944.79 778.14 636.61 906.64 897.31 526.89 0.00 786.58 439.18 490.41 996.98 529.39 601.92 528.49 622.77 160.42 815.20 877.29 320.19 90.75 551.08 674.71 346.08 909.23 856.43 811.37 171.15 850.28 168.70 163.49 1118.97 661.15 456.92 328.49 973.83 497.65 923.50 583.60 792.15 128.79 660.36 409.00 847.51 389.20 506.01 841.87 209.45 536.94 446.96 665.49 696.16 911.85 1019.95 910.06 939.98 846.18 1094.32 1018.05 759.93
627.90 734.15 575.67 778.95 144.05 138.59 495.03 895.70 722.94 619.36 786.71 470.27 832.90 875.78 150.46 145.84 331.10 447.62 576.71 285.43 634.20 463.51 449.22 791.47 644.82 582.77 535.54 313.07 414.01 157.59 796.52 640.29 486.91 327.45 526.23 865.54 66.29 501.69 804.08 500.02 648.58 596.68 144.37 823.07 522.41 28.59 776.60 409.06 568.46 54.45 678.48 436.38 443.69 882.83 834.94 115.39 791.20 327.64 467.12 438.53 249.89 291.68 747.24 786.58 0.00 648.91 699.57 262.88 456.61 403.12 608.91 495.33 727.79 714.60 267.26 766.29 874.62 409.22 218.11 826.32 164.60 731.69 434.22 855.70 179.85 732.90 870.64 460.05 406.21 605.51 682.65 246.92 614.70 533.36 437.64 275.65 861.13 184.30 497.92 544.04 604.12 703.27 197.49 980.77 457.59 581.76 543.69 543.31 219.30 285.85 205.21 543.98 683.62 358.13 573.30 105.79
992.61 377.15 592.49 466.89 580.20 724.28 621.68 440.33 451.36 574.95 506.43 747.62 445.85 527.71 746.37 677.73 869.04 313.66 834.29 595.51 159.14 537.05 199.69 434.47 1129.60 530.99 356.64 473.08 768.73 491.32 283.50 793.52 192.86 376.92 531.96 475.82 638.63 350.18 364.70 670.40 683.66 997.07 752.68 348.44 887.03 636.90 750.83 856.35 961.00 594.46 510.49 278.49 579.49 459.44 372.88 699.85 344.47 840.92 794.73 349.23 808.97 627.67 764.06 439.18 648.91 0.00 189.14 784.56 298.35 321.13 634.48 261.79 372.22 458.75 690.49 544.91 463.21 561.85 630.37 234.40 724.98 425.54 446.81 380.64 765.68 508.14 396.01 881.19 369.58 68.41 174.38 831.38 65.07 484.32 292.03 548.87 417.62 522.85 413.17 887.23 464.71 670.37 620.72 600.54 541.28 512.25 328.99 386.15 749.45 761.59 782.50 1005.27 473.61 839.47 578.87 589.34
1001.27 362.62 716.74 547.69 630.86 761.32 651.08 450.74 538.03 611.79 557.66 811.01 414.19 476.60 787.17 728.39 901.28 372.09 873.55 610.43 210.37 580.36 250.35 407.45 1180.83 541.32 483.78 485.59 844.09 541.98 327.10 833.09 212.66 427.58 590.39 520.61 689.29 478.93 431.25 788.65 786.05 1086.89 785.27 386.13 965.79 687.56 851.03 887.92 1088.14 645.12 597.41 348.72 599.74 452.73 395.63 758.84 411.02 955.59 892.78 386.07 715.11 633.95 714.91 490.41 699.57 189.14 0.00 885.61 348.44 371.79 736.10 289.77 399.73 411.24 817.63 631.58 517.88 688.99 681.03 402.49 744.78 428.33 490.12 422.30 816.34 559.37 433.70 910.59 424.56 165.45 251.42 782.30 192.21 568.68 347.01 574.54 385.96 573.51 519.54 950.62 591.85 797.51 747.86 599.92 647.65 641.00 334.45 242.52 797.20 888.73 833.16 1101.11 380.26 890.13 637.30 640.00
614.55 942.18 641.71 942.90 361.15 124.29 520.19 1112.98 816.55 741.96 1005.09 429.31 1059.43 1076.91 150.14 158.14 128.63 655.65 626.01 446.86 897.08 637.22 636.18 976.17 594.11 754.99 703.35 521.10 485.57 382.20 1059.40 700.12 673.87 536.44 648.83 1025.02 273.94 720.07 1038.82 497.43 721.58 555.86 181.56 1062.55 510.79 236.62 865.52 323.55 435.76 293.93 757.17 660.87 566.29 1109.36 1074.42 177.67 1025.98 195.04 468.76 610.41 246.41 397.93 813.28 996.98 262.88 784.56 885.61 0.00 671.95 563.51 666.65 634.48 967.27 884.27 292.30 844.98 1012.41 498.14 404.96 1018.96 149.86 925.50 563.42 1098.72 198.94 907.23 1095.65 493.20 645.69 775.69 903.28 285.60 719.49 706.78 644.81 473.97 1068.89 423.78 678.93 486.16 684.78 785.57 295.89 1134.43 558.93 701.74 748.08 776.60 349.60 22.97 94.90 503.16 883.24 208.66 683.55 345.27
909.61 603.62 480.40 430.53 405.46 578.19 543.42 514.98 447.00 585.04 535.82 462.57 452.18 563.25 576.71 544.04 694.30 304.09 659.27 407.10 335.94 454.05 100.14 623.47 883.55 521.42 263.37 298.34 518.83 299.02 498.26 656.42 135.78 195.71 522.39 544.15 446.33 324.35 480.67 484.63 514.91 814.83 551.11 499.66 626.81 435.33 609.83 726.22 769.16 402.16 492.96 197.83 496.49 502.11 511.53 524.81 467.79 706.54 544.34 155.04 616.67 452.93 651.52 529.39 456.61 298.35 348.44 671.95 0.00 146.39 494.95 251.34 404.38 533.30 556.11 405.15 531.54 404.42 391.34 528.06 538.23 572.97 363.81 522.77 542.33 360.69 541.32 743.87 258.00 261.80 373.19 605.33 247.71 508.70 181.77 293.71 480.41 341.64 215.52 602.18 321.72 529.37 486.34 668.67 343.63 410.34 323.37 377.05 562.15 694.92 615.36 762.13 524.90 714.83 569.30 397.04
781.67 496.83 589.15 576.92 259.07 519.23 435.28 661.37 553.20 514.91 602.05 570.53 598.57 691.12 507.12 496.30 547.91 246.69 676.97 354.29 401.19 345.91 121.44 536.28 878.99 464.02 378.01 151.95 514.27 375.43 563.51 745.02 159.13 169.85 440.86 680.88 392.59 317.03 620.74 572.91 552.62 861.09 538.51 622.18 673.07 431.40 724.65 579.83 850.05 424.37 493.82 110.64 388.35 648.50 616.28 465.85 601.84 609.23 617.66 46.90 527.40 306.54 754.75 601.92 403.12 321.13 371.79 563.51 146.39 0.00 583.55 129.77 544.45 434.31 586.47 551.54 677.93 506.99 408.47 555.53 522.55 451.40 255.67 622.69 444.55 507.08 641.24 597.48 147.29 285.15 355.02 594.39 286.92 397.51 114.15 240.90 626.80 301.13 361.91 648.44 454.54 644.19 516.70 796.11 452.38 479.10 216.58 268.91 428.32 586.48 486.80 808.39 403.33 705.60 511.90 373.03
1152.91 1006.73 41.99 383.79 688.27 613.54 839.34 638.80 302.95 963.67 516.72 275.26 629.05 602.73 635.63 566.99 761.10 781.99 239.37 708.03 576.15 855.81 561.59 1048.18 583.93 976.70 277.84 639.32 219.21 569.77 731.98 161.47 546.07 474.76 870.54 546.63 576.95 338.82 540.69 169.22 54.93 452.71 620.76 658.57 336.53 611.77 266.31 853.69 581.85 554.46 355.57 629.90 788.00 628.94 634.13 597.44 520.46 575.41 301.69 556.80 735.66 753.39 211.77 528.49 608.91 634.48 736.10 666.65 494.95 583.55 0.00 653.10 583.87 957.64 472.79 389.84 538.23 212.11 422.04 768.27 580.27 974.73 765.57 643.72 511.31 426.75 625.17 1005.00 659.76 625.61 624.06 728.97 569.41 871.89 624.05 597.58 608.49 520.01 279.43 353.38 247.73 185.85 434.70 637.48 151.32 199.97 726.48 735.16 766.07 660.73 613.77 471.85 926.66 810.03 962.51 605.80
780.42 369.31 638.55 581.86 364.82 600.99 450.27 666.89 608.47 394.52 690.02 687.84 625.76 711.97 599.51 561.68 677.68 150.17 794.28 409.35 393.23 360.90 173.37 426.63 996.30 367.50 457.12 269.39 631.58 424.83 545.29 814.57 136.97 252.87 368.47 661.41 485.05 446.80 614.11 646.10 676.38 972.41 613.97 586.70 790.38 498.19 807.67 680.20 967.56 440.88 623.59 58.95 403.34 668.88 611.14 547.61 593.88 739.00 734.97 96.30 606.62 436.31 810.12 622.77 495.33 261.79 289.77 634.48 251.34 129.77 653.10 0.00 542.89 304.54 635.09 577.23 669.38 556.39 491.74 496.19 618.95 321.63 270.66 614.73 565.49 530.59 633.28 687.95 152.56 239.08 374.38 656.31 196.72 354.78 75.01 329.33 602.11 350.53 376.99 765.75 483.19 727.21 620.84 792.04 501.78 571.81 113.60 142.12 534.07 657.45 616.57 925.70 273.56 807.18 411.06 406.86
1171.89 616.10 596.62 200.08 803.52 859.22 905.21 167.91 345.07 810.35 227.67 751.75 105.11 216.18 857.74 815.22 1017.49 619.23 823.24 811.48 236.34 811.55 423.01 673.42 1137.58 836.56 360.77 696.40 772.86 703.40 149.62 700.45 429.83 600.09 837.53 172.86 717.51 395.41 76.29 674.53 593.09 981.22 846.43 95.28 877.60 730.65 614.06 1084.62 1058.34 673.34 357.94 513.89 858.28 155.04 107.15 805.84 63.41 968.06 805.29 559.42 887.85 850.99 582.27 160.42 727.79 372.22 399.73 967.27 404.38 544.45 583.87 542.89 0.00 752.68 886.66 375.57 185.47 565.98 691.22 193.44 859.11 793.91 725.60 131.45 845.08 192.98 142.85 1117.51 582.12 303.81 252.38 937.37 360.01 814.64 527.43 698.09 133.34 712.60 432.27 891.36 415.43 544.28 856.77 300.55 551.84 454.21 505.07 597.00 884.95 990.24 910.68 947.23 779.99 1062.79 884.44 724.68
818.15 136.58 943.09 877.92 570.55 789.93 446.30 854.43 834.17 363.17 882.45 992.38 825.43 887.84 764.08 807.78 952.12 342.81 1098.82 504.82 604.72 323.83 466.89 193.90 1231.05 292.70 750.64 529.82 936.12 651.65 738.34 1119.11 441.51 557.41 380.85 894.16 725.58 731.14 823.45 950.64 980.92 1249.09 812.23 775.44 1094.92 742.88 1063.34 683.14 1061.84 706.35 893.55 363.49 394.96 863.97 799.88 777.33 803.22 1015.15 1039.51 400.84 726.55 551.54 1105.03 815.20 714.60 458.75 411.24 884.27 533.30 434.31 957.64 304.54 752.68 0.00 907.46 881.77 890.97 860.93 740.87 670.47 811.19 41.23 350.80 786.63 820.16 835.13 805.18 705.81 457.10 500.63 556.27 740.10 501.26 326.93 379.55 525.43 797.20 655.07 681.53 1070.29 787.73 982.88 868.74 1011.16 806.32 876.35 335.00 243.07 675.39 861.30 907.53 1196.39 30.98 780.21 406.47 679.23
854.01 946.38 485.42 770.97 342.19 227.63 623.53 909.40 640.05 750.26 875.24 353.26 887.50 952.47 253.48 268.09 403.54 638.87 420.22 445.84 823.51 585.95 578.49 1001.78 538.60 785.88 531.42 499.67 328.53 286.86 959.41 512.57 616.18 442.71 657.13 900.58 276.99 592.40 810.37 330.93 527.72 439.44 222.82 805.43 255.15 263.57 675.40 511.34 369.39 279.57 699.43 576.14 604.10 920.40 829.87 237.64 830.60 156.14 347.88 582.03 349.74 458.35 630.75 877.29 267.26 690.49 817.63 292.30 556.11 586.47 472.79 635.09 886.66 907.46 0.00 723.10 887.97 326.21 243.15 924.89 263.31 904.47 556.66 841.60 150.54 743.11 853.00 562.88 528.65 681.62 809.21 369.17 625.42 655.80 560.08 420.36 874.61 327.80 502.81 279.78 521.07 594.94 69.77 967.93 374.70 432.45 666.13 758.06 453.20 269.33 244.01 390.47 876.48 397.15 749.10 228.23
1287.59 889.35 401.39 175.49 810.61 868.89 948.57 345.84 93.55 971.75 295.10 594.96 303.16 308.65 892.33 853.72 926.51 709.24 629.21 812.25 421.21 859.20 505.29 884.21 922.83 926.57 296.76 703.49 600.29 704.17 396.49 442.78 540.93 515.29 927.54 257.88 756.01 264.60 332.39 487.65 334.91 839.43 884.93 393.29 688.39 769.15 267.87 1025.77 871.67 711.84 87.81 602.98 901.64 350.09 368.85 844.34 312.16 833.33 559.61 560.19 926.35 812.46 386.29 320.19 766.29 544.91 631.58 844.98 405.15 551.54 389.84 577.23 375.57 881.77 723.10 0.00 245.27 409.19 627.21 509.92 846.12 898.86 768.96 373.75 708.39 224.26 392.30 1141.49 663.15 540.20 469.66 945.01 577.31 913.85 586.92 698.86 325.54 661.22 325.03 663.76 302.89 298.89 653.33 366.90 348.40 348.46 690.83 693.61 900.74 867.95 750.08 806.71 850.79 949.66 974.45 726.51
1355.43 754.39 580.22 154.44 919.37 963.44 1006.39 100.57 247.92 995.82 87.91 759.83 149.94 64.50 989.29 962.05 1133.88 776.87 777.60 920.52 336.86 875.04 608.48 811.71 1074.66 927.58 433.91 758.67 757.44 775.80 276.01 654.81 576.29 632.30 945.29 12.61 813.79 372.93 156.44 682.61 495.94 971.92 979.75 157.33 806.42 863.97 513.14 1202.27 1066.42 820.17 307.30 615.07 959.46 104.82 181.77 952.67 136.21 959.77 766.72 666.26 997.39 942.27 536.63 90.75 874.62 463.21 517.88 1012.41 531.54 677.93 538.23 669.38 185.47 890.97 887.97 245.27 0.00 574.06 736.28 317.75 953.05 888.75 826.78 168.37 873.26 183.68 165.25 1204.20 676.56 489.28 385.31 1023.66 472.66 944.89 599.01 807.13 131.92 751.11 423.98 781.79 406.13 460.66 818.20 159.90 513.27 491.47 688.61 745.90 1002.60 989.44 969.57 941.74 898.14 1104.03 1037.26 810.79
1011.39 807.81 170.84 444.76 519.87 459.70 748.81 624.09 326.14 842.31 549.37 185.77 561.29 638.56 485.55 477.86 587.11 685.28 369.58 617.50 503.52 694.52 488.96 865.13 571.60 855.30 205.21 479.35 206.88 373.48 665.84 371.87 526.65 392.29 780.01 586.67 364.84 266.19 577.99 108.55 253.14 435.22 500.33 639.93 350.01 412.08 367.38 758.93 492.36 354.77 385.52 533.19 697.47 611.22 647.99 447.41 557.76 482.35 241.02 460.09 548.44 590.23 342.41 551.08 409.22 561.85 688.99 498.14 404.42 506.99 212.11 556.39 565.98 860.93 326.21 409.19 574.06 0.00 222.83 695.64 459.84 878.02 604.28 631.88 299.20 429.20 649.98 807.13 563.05 552.98 551.97 578.94 496.78 764.37 527.34 507.05 570.75 429.48 188.90 325.38 260.44 306.47 365.72 706.15 60.79 203.60 629.77 670.63 566.38 521.11 410.68 485.33 829.95 681.33 871.85 406.11
803.68 707.71 380.05 622.44 330.98 307.19 569.68 794.14 537.15 619.48 676.45 270.08 756.37 763.91 333.04 324.30 486.49 483.21 459.69 412.97 628.76 480.31 430.68 762.94 661.71 641.09 330.45 256.52 296.99 150.65 791.08 571.04 468.37 253.45 585.55 748.89 194.11 391.43 685.10 281.91 471.22 556.42 320.15 786.50 434.32 204.37 590.21 594.75 576.67 238.28 568.22 447.37 522.75 770.85 794.83 293.85 681.16 399.29 317.42 395.44 377.71 419.50 551.62 674.71 218.11 630.37 681.03 404.96 391.34 408.47 422.04 491.74 691.22 740.87 243.15 627.21 736.28 222.83 0.00 820.88 340.38 757.96 390.07 795.29 243.74 552.60 813.84 635.83 473.73 594.39 677.21 425.38 596.16 550.16 462.69 310.81 752.32 224.95 312.30 409.69 418.50 523.91 227.01 841.83 283.62 363.65 495.59 555.32 395.08 427.93 310.06 569.64 709.89 528.82 664.81 217.02
1227.01 533.89 726.28 393.52 774.97 958.68 856.08 264.39 519.78 809.35 405.66 881.41 257.83 323.72 976.78 912.13 1103.44 548.06 968.08 829.91 192.12 771.45 434.09 591.21 1162.58 765.39 490.43 707.48 902.52 725.72 113.43 893.89 427.26 611.32 766.36 330.36 873.03 551.41 269.73 804.19 767.80 1130.86 970.69 160.42 1020.82 854.91 777.79 1090.75 1172.27 828.86 551.38 512.89 813.89 275.39 184.86 934.25 256.85 1075.32 934.95 539.58 961.22 862.07 775.71 346.08 826.32 234.40 402.49 1018.96 528.06 555.53 768.27 496.19 193.44 670.47 924.89 509.92 317.75 695.64 820.88 0.00 959.38 659.94 681.21 196.59 972.93 386.42 207.99 1115.59 603.98 302.81 231.46 1028.41 299.47 718.72 526.43 783.27 229.60 757.25 587.48 1021.02 598.50 737.72 855.12 441.95 681.50 647.65 563.39 608.24 944.22 995.99 1016.90 1140.67 701.45 1073.87 813.27 823.74
644.08 841.57 538.28 809.34 263.48 58.04 453.94 1027.02 752.57 658.44 918.03 519.71 964.22 993.56 59.25 58.16 180.83 527.39 626.11 380.14 798.80 487.36 536.20 898.89 642.39 687.29 626.12 420.49 486.52 280.29 961.12 719.82 532.12 422.19 565.31 965.66 186.19 633.01 912.57 563.85 629.45 585.64 40.49 954.39 518.46 136.01 762.60 299.09 520.53 185.77 809.80 560.00 505.28 1014.15 966.26 75.17 897.93 279.71 473.82 530.49 180.16 331.21 709.85 909.23 164.60 724.98 744.78 149.86 538.23 522.55 580.27 618.95 859.11 811.19 263.31 846.12 953.05 459.84 340.38 959.38 0.00 828.28 472.53 990.56 160.64 769.37 995.04 461.59 537.01 658.14 769.53 206.70 659.91 557.21 544.83 373.99 985.77 276.26 529.07 543.09 635.27 682.14 287.68 1070.73 520.63 663.44 641.55 656.96 239.72 172.83 162.93 638.34 780.21 266.92 617.30 237.11
835.24 177.81 960.18 892.43 587.64 807.02 487.53 865.87 851.26 380.26 923.68 1009.47 842.52 880.45 781.17 824.87 969.21 384.04 1115.91 543.25 584.68 340.92 495.00 235.13 1272.28 309.79 778.75 546.91 953.21 668.74 709.04 1136.20 458.60 574.50 401.97 901.36 742.67 768.43 787.58 967.73 998.01 1266.18 829.32 773.98 1112.01 740.68 1104.57 724.37 1103.07 723.44 910.64 380.58 436.19 881.06 798.42 794.42 770.01 1032.24 1056.60 417.93 743.64 568.63 1131.75 856.43 731.69 425.54 428.33 925.50 572.97 451.40 974.73 321.63 793.91 41.23 904.47 898.86 888.75 878.02 757.96 659.94 828.28 0.00 367.89 806.18 837.25 852.22 821.55 747.04 474.19 493.95 597.50 781.33 490.61 344.02 396.64 566.66 814.29 672.16 698.62 1087.38 804.82 1024.11 885.83 1003.77 823.41 893.44 376.23 284.30 692.48 902.53 920.71 1213.48 48.07 797.30 368.61 696.32
545.80 465.30 751.02 794.34 370.09 439.13 179.61 844.01 797.25 286.98 848.01 660.15 815.99 875.32 413.28 473.79 601.32 133.15 836.98 249.67 562.82 90.24 352.93 522.62 970.14 251.02 627.18 179.02 674.28 411.66 725.14 927.04 385.81 405.63 195.48 814.17 419.77 572.70 783.70 671.98 806.60 946.49 468.50 788.06 811.81 437.08 940.39 409.54 889.13 379.77 749.49 211.71 132.68 863.12 778.15 465.18 763.47 696.91 707.49 208.77 459.15 200.74 922.59 811.37 434.22 446.81 490.12 563.42 363.81 255.67 765.57 270.66 725.60 350.80 556.66 768.96 826.78 604.28 390.07 681.21 472.53 367.89 0.00 784.32 469.36 724.50 794.14 439.12 198.88 421.79 516.89 494.44 440.02 160.09 227.77 238.49 844.22 337.36 565.77 799.76 670.27 859.93 578.22 961.46 614.25 722.16 247.31 262.72 363.99 586.39 574.48 947.13 319.82 599.80 274.74 328.43
1303.34 650.05 669.84 305.23 804.35 990.67 895.88 67.80 392.58 941.80 238.40 817.65 70.59 169.07 989.19 946.67 1148.94 679.54 883.09 879.86 221.50 852.75 501.25 707.37 1165.98 895.22 492.22 774.64 838.76 792.88 120.24 754.07 507.36 678.48 897.84 168.45 848.96 456.04 154.04 740.43 588.79 1065.00 977.88 36.17 897.74 862.10 641.62 1173.27 1124.24 804.79 435.69 572.61 917.00 78.80 60.61 937.29 168.56 985.16 850.26 578.07 1019.30 912.09 635.89 171.15 855.70 380.64 422.30 1098.72 522.77 622.69 643.72 614.73 131.45 786.63 841.60 373.75 168.37 631.88 795.29 196.59 990.56 806.18 784.32 0.00 931.08 303.25 18.55 1155.39 634.10 435.26 269.95 1068.82 439.11 864.96 556.55 816.48 86.85 790.35 482.99 873.11 525.70 629.03 901.74 245.36 596.81 531.96 636.52 637.62 973.60 1110.93 1008.12 1024.98 802.56 1141.03 944.75 856.13
764.58 898.03 470.04 743.96 314.36 160.50 556.40 923.29 625.34 744.30 848.57 359.07 860.49 932.48 186.35 178.66 287.91 602.51 465.47 440.69 780.81 559.60 565.99 887.76 632.98 720.38 504.41 381.34 361.38 274.88 943.13 565.59 603.68 390.34 651.98 885.87 215.91 565.39 858.72 407.75 552.34 542.48 201.13 939.13 405.69 192.47 666.58 459.73 474.73 171.74 684.72 542.29 598.95 910.42 947.19 148.21 856.96 233.91 332.38 469.19 282.62 434.14 641.61 850.28 179.85 765.68 816.34 198.94 542.33 444.55 511.31 565.49 845.08 820.16 150.54 708.39 873.26 299.20 243.74 972.93 160.64 837.25 469.36 931.08 0.00 708.29 949.18 594.38 523.50 729.70 777.31 279.74 706.56 629.45 536.44 415.21 869.95 301.59 488.10 430.32 485.84 605.67 150.91 1005.35 359.99 502.80 620.41 680.14 353.63 221.91 111.48 489.78 789.18 382.13 719.76 223.08
1225.06 778.17 468.74 69.84 741.07 827.41 904.11 275.28 152.09 842.88 175.13 614.97 244.63 224.19 828.62 820.33 950.20 664.78 630.66 736.84 349.00 814.74 431.31 835.49 947.08 882.11 330.52 659.03 582.49 642.14 305.23 566.44 393.62 530.06 883.08 196.29 718.45 274.17 175.96 509.41 400.11 788.24 809.86 285.58 734.46 717.79 421.08 1033.76 921.56 678.45 211.47 558.52 857.18 251.99 293.64 807.27 189.52 776.09 620.56 515.73 892.96 785.77 452.03 168.70 732.90 508.14 559.37 907.23 360.69 507.08 426.75 530.59 192.98 835.13 743.11 224.26 183.68 429.20 552.60 386.42 769.37 852.22 724.50 303.25 708.29 0.00 295.63 1074.84 618.69 496.79 358.48 839.98 471.66 866.77 542.46 623.45 216.40 675.99 240.30 716.66 222.45 359.04 673.34 331.23 368.41 311.07 558.24 650.17 834.09 930.20 819.77 804.09 804.15 1008.20 929.99 627.11
1314.74 668.60 661.41 286.68 822.90 1001.89 914.43 70.40 374.03 947.14 230.13 835.75 89.14 159.56 1000.41 958.07 1160.34 660.99 864.54 891.26 240.05 871.30 519.80 725.92 1168.58 876.67 485.04 793.19 844.38 811.43 138.79 735.52 525.91 672.26 879.29 171.05 860.36 448.38 144.83 758.53 570.24 1068.47 974.81 47.57 900.34 859.03 642.40 1191.82 1142.34 816.19 426.48 591.16 926.82 93.69 71.31 948.51 150.01 1003.71 842.64 596.62 1030.70 922.79 617.34 163.49 870.64 396.01 433.70 1095.65 541.32 641.24 625.17 633.28 142.85 805.18 853.00 392.30 165.25 649.98 813.84 207.99 995.04 821.55 794.14 18.55 949.18 295.63 0.00 1173.94 652.65 446.66 288.50 1080.04 457.66 865.60 575.10 835.03 79.23 781.14 501.54 875.71 517.71 625.91 894.12 260.25 589.19 522.75 647.92 656.17 992.15 1118.62 1026.67 1015.77 813.96 1159.58 926.20 867.53
387.85 842.39 973.58 1104.06 410.00 466.33 259.51 1215.08 1056.39 486.52 1184.17 905.91 1160.18 1208.17 464.89 438.01 602.72 572.27 983.10 404.56 933.89 414.59 718.92 863.69 1022.24 499.55 849.69 445.53 856.30 555.50 1096.21 1075.45 756.61 626.20 393.39 1197.93 481.64 899.15 1123.79 868.72 1046.49 995.85 458.17 1159.13 818.03 431.46 1174.51 169.65 906.03 452.36 1075.94 629.00 310.85 1210.11 1183.57 468.46 1134.54 665.21 869.99 638.35 344.21 355.63 1145.15 1118.97 460.05 881.19 910.59 493.20 743.87 597.48 1005.00 687.95 1117.51 705.81 562.88 1141.49 1204.20 807.13 635.83 1115.59 461.59 747.04 439.12 1155.39 594.38 1074.84 1173.94 0.00 535.39 836.56 946.47 411.40 842.12 451.34 612.94 517.95 1188.41 487.48 895.83 842.66 957.76 1100.54 632.65 1328.42 855.50 943.66 672.87 668.07 240.75 516.17 542.78 953.35 707.44 435.04 399.26 491.24
723.75 417.73 645.21 685.29 362.30 537.64 378.49 687.59 691.44 373.03 728.40 616.04 624.79 735.86 536.16 493.64 695.20 122.23 722.48 381.81 412.60 229.43 202.71 475.05 924.50 339.56 486.46 217.21 559.78 335.05 574.92 762.46 240.40 287.53 334.67 663.95 391.76 464.32 633.48 671.60 699.91 819.85 524.85 637.84 703.93 409.07 834.58 555.15 861.12 351.76 641.11 93.61 331.56 674.72 662.28 484.26 613.25 684.79 663.17 102.96 566.27 332.88 816.78 661.15 406.21 369.58 424.56 645.69 258.00 147.29 659.76 152.56 582.12 457.10 528.65 663.15 676.56 563.05 473.73 603.98 537.01 474.19 198.88 634.10 523.50 618.69 652.65 535.39 0.00 301.17 411.08 580.39 349.28 299.28 77.55 306.16 653.02 260.75 459.96 693.95 520.05 754.12 552.14 811.24 508.44 608.67 137.48 229.41 475.13 668.66 589.10 839.25 426.12 722.07 370.47 300.42
927.40 445.56 583.62 458.02 544.22 684.82 601.40 471.72 511.77 506.54 486.14 724.37 408.92 519.99 683.34 641.75 833.06 363.07 825.42 593.85 227.55 512.03 163.71 502.88 1121.34 577.01 347.77 437.10 757.45 455.34 351.91 784.65 126.02 340.94 540.30 476.67 602.65 328.98 380.10 661.53 663.08 988.20 692.70 399.09 878.16 576.92 741.96 831.33 952.13 558.48 452.39 210.08 554.47 458.85 410.96 631.44 367.22 832.05 789.48 283.18 772.62 591.69 755.19 456.92 605.51 68.41 165.45 775.69 261.80 285.15 625.61 239.08 303.81 500.63 681.62 540.20 489.28 552.98 594.39 302.81 658.14 493.95 421.79 435.26 729.70 496.79 446.66 836.56 301.17 0.00 239.99 762.97 56.20 552.73 223.62 480.46 428.26 486.87 407.92 863.98 455.84 661.50 611.85 604.36 536.03 491.05 260.58 352.51 713.47 752.72 746.52 984.07 512.64 803.49 594.66 553.36
1045.81 419.69 582.61 385.77 614.09 799.69 696.50 329.64 376.11 686.67 395.74 737.74 340.54 358.43 821.78 753.14 902.93 488.04 824.41 621.17 48.45 582.80 275.10 477.01 1018.91 692.88 346.76 506.97 758.85 566.73 210.77 737.95 237.41 452.33 688.04 397.92 709.32 406.03 269.33 660.52 624.13 987.19 810.02 273.69 877.15 711.24 677.72 926.43 1028.60 669.87 435.49 360.44 649.57 348.75 261.26 783.59 249.10 959.64 791.28 308.12 875.48 661.56 754.18 328.49 682.65 174.38 251.42 903.28 373.19 355.02 624.06 374.38 252.38 556.27 809.21 469.66 385.31 551.97 677.21 231.46 769.53 597.50 516.89 269.95 777.31 358.48 288.50 946.47 411.08 239.99 0.00 870.40 183.79 652.65 375.37 595.92 331.32 562.35 443.81 877.35 430.81 649.96 739.44 481.75 537.83 515.14 471.44 464.57 772.02 880.31 841.82 1001.09 587.25 914.88 753.25 661.92
575.79 876.68 744.98 909.82 338.31 161.31 494.65 1105.28 903.23 601.19 996.29 638.81 1042.48 1063.03 166.98 161.98 273.57 592.87 745.21 342.63 881.12 469.91 640.02 934.00 746.21 669.84 709.72 442.64 590.34 366.59 1034.06 845.33 677.71 501.63 575.15 1036.27 250.79 711.27 1013.66 671.58 783.90 718.83 204.19 1032.65 624.32 221.01 915.00 279.01 610.17 264.03 857.20 597.36 500.89 1091.97 1044.52 131.53 1000.78 369.35 577.09 562.28 67.19 293.70 916.55 973.83 246.92 831.38 782.30 285.60 605.33 594.39 728.97 656.31 937.37 740.10 369.17 945.01 1023.66 578.94 425.38 1028.41 206.70 781.33 494.44 1068.82 279.74 839.98 1080.04 411.40 580.39 762.97 870.40 0.00 805.50 539.76 581.30 384.06 1056.38 379.54 707.50 648.95 642.12 845.49 406.93 1171.21 639.73 730.74 674.79 712.39 170.65 303.24 266.75 741.56 762.76 176.62 513.07 279.97
954.47 442.22 527.42 401.82 545.99 690.07 582.61 496.82 498.27 562.74 534.75 682.55 465.12 537.16 712.16 643.52 834.83 306.87 769.22 588.72 217.61 530.26 165.48 496.64 1065.14 524.20 291.57 438.87 703.66 457.11 348.57 728.45 127.79 342.71 525.17 485.27 604.42 352.55 429.77 605.33 618.59 932.00 700.40 413.51 821.96 602.69 685.76 849.56 895.93 560.25 508.59 255.67 563.09 473.53 437.95 673.97 409.54 775.85 736.09 293.02 774.76 593.46 698.99 497.65 614.70 65.07 192.21 719.49 247.71 286.92 569.41 196.72 360.01 501.26 625.42 577.31 472.66 496.78 596.16 299.47 659.91 490.61 440.02 439.11 706.56 471.66 457.66 842.12 349.28 56.20 183.79 805.50 0.00 510.29 271.73 526.05 470.41 488.64 388.62 822.16 399.64 605.30 555.65 632.56 482.64 459.95 287.65 321.08 715.24 696.52 748.29 940.60 470.28 805.26 572.08 555.13
549.71 463.51 853.92 912.11 413.56 587.73 191.83 924.65 899.25 126.89 910.27 820.24 919.75 1009.39 573.37 565.10 738.04 204.61 969.13 272.18 643.46 69.85 435.46 515.38 1069.28 163.86 719.21 339.11 806.43 428.79 767.82 1033.36 473.15 500.42 57.95 957.50 516.93 714.54 847.08 832.07 912.92 984.10 558.25 832.76 894.01 536.22 1030.43 428.67 988.27 478.91 839.87 371.80 140.49 911.73 857.20 595.55 826.85 792.30 824.57 368.86 472.57 321.11 1025.49 923.50 533.36 484.32 568.68 706.78 508.70 397.51 871.89 354.78 814.64 326.93 655.80 913.85 944.89 764.37 550.16 718.72 557.21 344.02 160.09 864.96 629.45 866.77 865.60 451.34 299.28 552.73 652.65 539.76 510.29 0.00 376.83 339.08 901.94 354.49 724.22 918.64 819.33 949.97 645.88 1078.29 720.57 833.50 309.57 326.16 421.41 722.89 669.87 942.41 295.95 673.66 149.92 427.57
773.57 421.85 609.50 607.74 373.22 533.22 407.38 616.24 615.61 439.41 650.85 612.83 627.14 663.51 555.31 486.67 662.06 195.32 719.27 380.30 335.05 306.98 125.16 441.70 921.29 412.65 408.91 225.21 556.57 368.49 497.37 785.52 162.85 209.98 346.28 586.40 423.19 431.18 555.93 603.12 665.08 897.40 539.58 560.29 715.37 440.50 764.78 632.70 892.55 383.19 603.34 16.06 360.45 635.35 584.73 504.72 535.70 713.87 659.96 67.25 597.70 410.43 781.07 583.60 437.64 292.03 347.01 644.81 181.77 114.15 624.05 75.01 527.43 379.55 560.08 586.92 599.01 527.34 462.69 526.43 544.83 396.64 227.77 556.55 536.44 542.46 575.10 612.94 77.55 223.62 375.37 581.30 271.73 376.83 0.00 286.44 617.92 294.19 397.29 690.74 442.50 684.32 582.92 733.69 472.73 531.12 141.60 200.62 531.15 667.78 591.44 850.69 348.57 737.96 438.25 331.85
637.45 608.27 583.03 693.29 131.60 362.38 322.99 808.69 711.61 419.54 798.58 580.89 745.89 847.64 379.65 315.83 536.83 296.31 753.49 113.39 621.49 269.23 362.34 595.37 833.84 460.35 557.08 88.95 590.79 187.15 783.81 759.05 400.03 306.40 326.41 819.74 283.47 557.93 739.85 592.72 638.61 841.89 355.77 793.37 675.51 300.78 772.40 435.61 750.13 243.47 734.72 270.38 271.65 795.82 805.24 338.38 760.08 543.03 624.68 287.80 362.80 162.32 754.60 792.15 275.65 548.87 574.54 473.97 293.71 240.90 597.58 329.33 698.09 525.43 420.36 698.86 807.13 507.05 310.81 783.27 373.99 566.66 238.49 816.48 415.21 623.45 835.03 517.95 306.16 480.46 595.92 384.06 526.05 339.08 286.44 0.00 774.12 219.27 509.23 700.14 615.43 691.94 404.24 954.68 446.26 618.10 328.02 379.66 300.85 496.94 420.60 789.19 556.41 560.68 375.27 192.13
1305.23 708.04 644.16 224.70 865.72 992.56 957.25 64.78 368.49 934.80 196.04 756.52 28.23 139.30 991.08 948.56 1135.19 731.28 847.06 887.51 282.87 845.03 541.79 758.07 1142.35 927.28 421.87 778.75 777.63 779.43 175.57 725.07 517.02 673.60 949.58 134.65 850.85 375.28 108.26 679.30 616.51 1004.64 979.77 69.18 894.72 863.99 593.41 1154.40 1063.11 806.68 389.91 633.98 976.90 66.77 77.24 939.18 88.03 942.80 763.41 635.45 1021.19 928.72 606.89 128.79 861.13 417.62 385.96 1068.89 480.41 626.80 608.49 602.11 133.34 797.20 874.61 325.54 131.92 570.75 752.32 229.60 985.77 814.29 844.22 86.85 869.95 216.40 79.23 1188.41 653.02 428.26 331.32 1056.38 470.41 901.94 617.92 774.12 0.00 743.30 456.70 870.09 438.85 575.44 814.89 233.33 509.96 486.18 638.41 628.48 954.73 1091.04 981.43 979.20 766.22 1141.26 962.58 842.87
712.08 678.48 499.43 623.79 168.26 315.73 397.62 799.94 619.81 481.38 696.69 495.03 760.92 749.56 314.25 271.73 457.09 332.87 614.64 188.02 602.91 390.35 323.16 723.91 720.22 518.35 413.11 242.41 451.94 74.30 765.23 681.48 360.85 145.93 412.44 739.32 174.02 411.67 636.31 506.86 561.04 629.61 302.94 794.65 582.95 187.16 694.83 451.16 637.28 129.85 588.46 298.27 346.28 810.07 770.21 262.35 656.54 483.94 532.12 254.23 344.36 236.95 671.00 660.36 184.30 522.85 573.51 423.78 341.64 301.13 520.01 350.53 712.60 655.07 327.80 661.22 751.11 429.48 224.95 757.25 276.26 672.16 337.36 790.35 301.59 675.99 781.14 487.48 260.75 486.87 562.35 379.54 488.64 354.49 294.19 219.27 743.30 0.00 476.14 586.11 512.94 614.37 291.39 869.81 368.69 534.53 398.23 462.44 251.49 446.75 367.19 676.34 624.09 521.22 504.41 99.57
1100.09 746.30 264.88 310.14 608.77 587.11 745.38 515.58 231.48 771.51 415.43 374.67 484.93 464.49 588.32 585.35 709.90 519.61 506.68 612.78 395.36 656.01 315.66 803.62 760.50 736.94 97.05 513.86 395.78 401.84 545.53 440.90 351.30 411.23 737.91 436.59 487.64 154.29 389.09 269.11 299.39 624.12 569.56 506.97 536.87 500.78 441.99 828.16 681.26 443.47 290.86 413.35 698.45 492.29 482.53 575.97 368.86 535.79 381.56 357.00 657.98 661.71 436.45 409.00 497.92 413.17 519.54 678.93 215.52 361.91 279.43 376.99 432.27 681.53 502.81 325.03 423.98 188.90 312.30 587.48 529.07 698.62 565.77 482.99 488.10 240.30 501.54 895.83 459.96 407.92 443.81 707.50 388.62 724.22 397.29 509.23 456.70 476.14 0.00 514.28 106.20 361.53 433.04 571.53 128.11 194.82 490.59 519.11 655.08 701.90 599.58 669.73 650.55 795.99 784.82 494.81
1100.71 1111.68 319.17 737.17 621.97 507.41 888.85 805.31 576.87 996.29 796.33 139.61 868.11 846.29 533.26 530.99 614.79 816.18 140.44 725.62 828.90 848.79 702.32 1132.44 292.87 1033.51 530.59 666.21 134.17 560.34 991.22 351.85 737.96 663.14 903.16 769.18 556.77 562.62 825.94 298.85 328.85 212.65 502.60 909.28 24.63 515.45 530.79 791.12 319.74 559.35 632.75 706.80 883.88 828.60 903.33 517.42 846.17 394.36 173.60 695.34 629.52 738.13 470.03 847.51 544.04 887.23 950.62 486.16 602.18 648.44 353.38 765.75 891.36 1070.29 279.78 663.76 781.79 325.38 409.69 1021.02 543.09 1087.38 799.76 873.11 430.32 716.66 875.71 842.66 693.95 863.98 877.35 648.95 822.16 918.64 690.74 700.14 870.09 586.11 514.28 0.00 494.21 463.03 349.55 806.90 386.17 448.02 831.43 843.20 706.16 509.13 499.27 159.95 1039.31 676.93 995.13 508.01
1155.40 841.86 246.60 292.29 622.28 646.34 841.63 494.41 261.11 877.71 397.58 416.30 467.08 446.64 662.21 664.50 773.75 625.81 487.10 700.96 406.38 749.48 391.82 884.20 724.63 843.14 108.07 606.49 360.04 508.04 498.99 409.20 429.51 367.01 788.78 418.74 558.55 137.51 372.88 368.99 232.48 565.79 675.76 508.03 512.01 606.98 368.44 921.13 710.17 549.67 215.08 458.56 790.29 474.44 506.78 634.05 393.11 641.99 398.11 463.20 709.31 749.89 418.17 389.20 604.12 464.71 591.85 684.78 321.72 454.54 247.73 483.19 415.43 787.73 521.07 302.89 406.13 260.44 418.50 598.50 635.27 804.82 670.27 525.70 485.84 222.45 517.71 957.76 520.05 455.84 430.81 642.12 399.64 819.33 442.50 615.43 438.85 512.94 106.20 494.21 0.00 376.50 504.58 553.68 199.65 88.62 584.10 625.31 752.46 707.75 597.32 581.64 756.75 818.74 880.75 537.82
1262.73 1047.52 143.86 361.31 782.63 740.18 930.47 561.23 273.85 1033.16 494.24 377.13 602.05 499.81 741.39 740.30 862.97 745.36 385.66 802.39 601.51 950.17 597.48 1052.83 707.48 962.69 313.73 716.46 342.76 625.12 664.27 240.33 635.17 474.34 961.67 473.27 671.31 374.71 496.12 298.35 144.02 599.00 722.63 617.99 438.40 706.13 80.46 973.91 683.72 648.82 214.47 668.26 879.13 565.48 611.65 753.88 497.98 695.13 430.82 651.16 854.91 847.75 122.15 506.01 703.27 670.37 797.51 785.57 529.37 644.19 185.85 727.21 544.28 982.88 594.94 298.89 460.66 306.47 523.91 737.72 682.14 1024.11 859.93 629.03 605.67 359.04 625.91 1100.54 754.12 661.50 649.96 845.49 605.30 949.97 684.32 691.94 575.44 614.37 361.53 463.03 376.50 0.00 550.61 564.18 245.68 301.84 793.80 739.81 859.79 762.60 717.15 573.72 1000.77 933.32 1010.57 696.00
802.38 878.99 441.70 743.18 311.49 291.50 577.23 879.67 570.28 729.62 818.48 315.02 843.12 882.70 281.14 244.95 424.52 622.10 421.46 452.87 753.74 655.20 508.72 936.31 509.53 780.26 496.00 483.53 258.76 217.09 904.22 442.80 546.41 372.94 693.67 830.81 252.94 556.98 822.13 312.10 489.63 437.65 292.59 875.20 324.92 203.07 621.74 531.65 439.16 251.94 629.66 566.86 611.13 881.66 892.13 275.40 801.90 220.20 362.15 524.54 407.08 478.33 560.98 841.87 197.49 620.72 747.86 295.89 486.34 516.70 434.70 620.84 856.77 868.74 69.77 653.33 818.20 365.72 227.01 855.12 287.68 885.83 578.22 901.74 150.91 673.34 894.12 632.65 552.14 611.85 739.44 406.93 555.65 645.88 582.92 404.24 814.89 291.39 433.04 349.55 504.58 550.61 0.00 949.10 304.93 476.77 689.62 740.80 393.78 301.24 262.39 384.95 837.76 466.92 740.59 298.00
1461.58 888.07 673.72 261.39 1038.07 1082.14 1141.07 189.85 407.82 1104.33 194.06 835.90 216.49 123.32 1107.99 1068.20 1232.85 908.92 876.85 1057.83 466.86 1008.44 692.76 945.39 1097.62 1062.26 511.38 910.92 801.68 882.75 365.60 761.76 655.07 739.25 1079.97 147.29 932.49 479.08 295.41 637.00 582.55 970.29 1098.45 281.53 782.27 982.67 585.15 1320.97 1077.38 926.32 436.53 749.75 1094.14 166.56 278.87 1058.82 296.11 1043.19 769.47 789.87 1116.09 1102.17 643.58 209.45 980.77 600.54 599.92 1134.43 668.67 796.11 637.48 792.04 300.55 1011.16 967.93 366.90 159.90 706.15 841.83 441.95 1070.73 1003.77 961.46 245.36 1005.35 331.23 260.25 1328.42 811.24 604.36 481.75 1171.21 632.56 1078.29 733.69 954.68 233.33 869.81 571.53 806.90 553.68 564.18 949.10 0.00 673.17 540.86 794.76 842.44 1121.30 1149.34 1098.80 917.59 980.18 1241.05 1164.21 941.13
1059.76 855.41 136.77 438.25 536.95 520.49 688.02 574.74 265.35 812.35 513.55 246.56 538.19 577.77 546.34 538.65 625.23 630.67 378.57 556.71 489.38 704.49 432.59 904.22 632.39 825.38 191.07 488.00 267.67 418.45 610.09 312.79 470.28 453.08 719.22 525.88 425.63 252.05 517.20 169.34 192.35 496.01 561.12 579.14 408.76 460.45 326.14 814.42 553.15 403.14 324.73 478.58 636.68 576.73 587.20 508.20 496.97 525.13 253.45 405.48 609.23 602.07 308.34 536.94 457.59 541.28 647.65 558.93 343.63 452.38 151.32 501.78 551.84 806.32 374.70 348.40 513.27 60.79 283.62 681.50 520.63 823.41 614.25 596.81 359.99 368.41 589.19 855.50 508.44 536.03 537.83 639.73 482.64 720.57 472.73 446.26 509.96 368.69 128.11 386.17 199.65 245.68 304.93 673.17 0.00 171.84 575.16 609.84 614.75 581.90 471.47 544.08 775.34 742.12 811.19 454.48
1152.37 828.35 157.98 380.91 533.66 660.08 859.86 550.96 349.73 868.68 442.79 378.95 514.41 535.26 685.93 681.46 790.71 714.43 399.78 675.04 466.69 812.40 452.13 885.67 704.56 931.76 168.38 620.17 356.88 514.30 587.61 359.01 489.82 388.60 775.55 495.26 557.76 162.07 377.92 312.15 172.03 545.72 655.27 536.26 423.39 568.02 285.61 902.58 675.25 558.37 303.70 547.18 808.52 552.44 511.82 651.01 398.15 570.16 425.29 526.00 741.36 713.75 329.55 446.96 581.76 512.25 641.00 701.74 410.34 479.10 199.97 571.81 454.21 876.35 432.45 348.46 491.47 203.60 363.65 647.65 663.44 893.44 722.16 531.96 502.80 311.07 522.75 943.66 608.67 491.05 515.14 730.74 459.95 833.50 531.12 618.10 486.18 534.53 194.82 448.02 88.62 301.84 476.77 540.86 171.84 0.00 609.41 650.14 702.91 701.78 614.28 493.02 845.37 829.60 867.52 580.67
666.82 280.25 711.93 628.08 459.62 645.78 426.92 672.98 635.59 382.96 600.70 753.52 610.18 721.25 644.30 622.85 764.49 114.16 857.01 396.01 476.65 337.55 249.82 337.57 1061.98 331.49 508.32 239.07 697.26 472.53 612.49 887.95 250.57 319.46 332.46 677.93 529.24 447.34 581.36 722.52 767.51 957.33 639.33 600.35 841.41 523.55 874.26 656.85 998.60 489.24 624.13 125.54 379.99 660.11 612.22 592.40 568.48 796.12 800.65 169.68 614.52 444.94 883.50 665.49 543.69 328.99 334.45 748.08 323.37 216.58 726.48 113.60 505.07 335.00 666.13 690.83 688.61 629.77 495.59 563.39 641.55 376.23 247.31 636.52 620.41 558.24 647.92 672.87 137.48 260.58 471.44 674.79 287.65 309.57 141.60 328.02 638.41 398.23 490.59 831.43 584.10 793.80 689.62 794.76 575.16 609.41 0.00 91.93 608.19 771.05 703.38 976.73 365.98 827.86 379.37 437.90
758.75 370.34 746.61 720.01 506.94 661.19 408.56 693.26 672.54 417.37 692.63 765.29 656.71 719.12 659.71 638.26 816.82 129.57 871.73 411.42 416.12 352.96 315.49 313.02 1073.75 346.90 549.05 298.80 709.03 536.74 569.62 881.91 279.09 394.99 347.87 737.58 598.78 488.07 589.46 779.18 790.09 1049.26 664.38 628.65 867.83 548.60 820.27 645.40 1071.88 581.17 664.86 201.07 357.22 695.25 638.15 607.81 609.69 838.70 812.42 222.01 674.25 418.69 861.96 696.16 543.31 386.15 242.52 776.60 377.05 268.91 735.16 142.12 597.00 243.07 758.06 693.61 745.90 670.63 555.32 608.24 656.96 284.30 262.72 637.62 680.14 650.17 656.17 668.07 229.41 352.51 464.57 712.39 321.08 326.16 200.62 379.66 628.48 462.44 519.11 843.20 625.31 739.81 740.80 842.44 609.84 650.14 91.93 0.00 581.94 799.57 716.27 1003.15 274.05 817.75 394.78 529.83
546.55 799.18 732.83 863.31 169.25 225.58 391.03 989.30 871.30 499.12 943.87 665.16 926.50 1001.05 224.14 254.08 398.29 494.03 778.25 212.18 752.10 351.56 549.76 842.89 801.98 547.81 664.60 389.80 615.55 314.75 863.41 836.58 587.45 385.45 452.98 990.81 240.89 658.85 887.80 674.93 805.74 755.10 279.36 977.34 708.35 190.71 933.76 199.67 722.10 211.61 835.64 537.00 370.44 976.43 992.10 244.64 908.03 481.28 629.24 463.90 103.46 163.25 904.40 911.85 219.30 749.45 797.20 349.60 562.15 428.32 766.07 534.07 884.95 675.39 453.20 900.74 1002.60 566.38 395.08 944.22 239.72 692.48 363.99 973.60 353.63 834.09 992.15 240.75 475.13 713.47 772.02 170.65 715.24 421.41 531.15 300.85 954.73 251.49 655.08 706.16 752.46 859.79 393.78 1121.30 614.75 702.91 608.19 581.94 0.00 326.63 358.85 763.28 644.41 290.70 536.06 250.49
637.52 965.15 618.74 965.87 384.12 147.26 543.16 1090.01 839.52 764.93 1028.06 406.34 1082.40 1053.94 173.11 181.11 151.60 678.62 603.04 469.83 914.13 653.04 659.15 999.14 582.00 777.96 726.32 544.07 462.60 405.17 1045.09 723.09 696.84 559.41 671.80 1002.05 296.91 743.04 1023.24 520.40 709.91 532.89 199.34 1074.76 524.48 259.59 843.06 346.52 412.79 316.90 780.14 683.84 589.26 1094.26 1097.39 200.64 1003.01 189.54 463.26 633.38 250.32 420.90 790.31 1019.95 285.85 761.59 888.73 22.97 694.92 586.48 660.73 657.45 990.24 861.30 269.33 867.95 989.44 521.11 427.93 995.99 172.83 902.53 586.39 1110.93 221.91 930.20 1118.62 516.17 668.66 752.72 880.31 303.24 696.52 722.89 667.78 496.94 1091.04 446.75 701.90 509.13 707.75 762.60 301.24 1149.34 581.90 701.78 771.05 799.57 326.63 0.00 117.87 480.19 892.28 231.63 706.52 368.24
690.69 885.59 581.52 855.44 336.98 135.35 531.25 1034.77 721.65 705.05 910.19 407.18 971.97 999.26 161.20 104.77 176.43 599.06 576.95 426.75 839.41 629.08 582.81 942.91 521.50 762.38 615.89 464.51 463.44 325.61 1001.73 677.07 620.50 492.71 611.92 982.18 230.21 625.17 943.92 519.23 653.67 480.75 190.07 1005.96 474.64 180.03 778.06 391.47 363.25 237.34 662.27 597.44 582.59 1021.90 1017.83 135.22 964.15 122.43 396.15 533.70 257.47 377.82 753.09 910.06 205.21 782.50 833.16 94.90 615.36 486.80 613.77 616.57 910.68 907.53 244.01 750.08 969.57 410.68 310.06 1016.90 162.93 920.71 574.48 1008.12 111.48 819.77 1026.67 542.78 589.10 746.52 841.82 266.75 748.29 669.87 591.44 420.60 981.43 367.19 599.58 499.27 597.32 717.15 262.39 1098.80 471.47 614.28 703.38 716.27 358.85 117.87 0.00 494.64 876.55 303.56 639.50 288.68
1117.71 1256.98 429.86 855.64 688.03 618.10 962.18 965.26 736.82 1015.97 935.81 299.56 1007.43 985.50 643.95 599.41 597.28 939.49 235.79 829.41 952.64 872.56 862.27 1292.39 211.54 1072.49 661.40 826.16 294.12 602.04 1080.63 447.20 888.45 757.89 977.80 929.13 610.27 655.09 870.94 400.62 488.80 52.70 613.29 1029.28 135.32 572.57 626.14 826.71 182.23 598.43 718.90 866.75 987.67 988.55 1004.84 610.03 891.17 372.21 332.24 855.29 704.34 835.66 544.76 939.98 543.98 1005.27 1101.11 503.16 762.13 808.39 471.85 925.70 947.23 1196.39 390.47 806.71 941.74 485.33 569.64 1140.67 638.34 1213.48 947.13 1024.98 489.78 804.09 1015.77 953.35 839.25 984.07 1001.09 741.56 940.60 942.41 850.69 789.19 979.20 676.34 669.73 159.95 581.64 573.72 384.95 917.59 544.08 493.02 976.73 1003.15 763.28 480.19 494.64 0.00 1165.41 711.82 1057.06 618.70
787.17 167.56 912.11 846.94 539.57 758.95 447.93 831.00 803.19 332.19 913.43 961.40 794.45 856.86 733.10 776.80 921.14 373.79 1067.84 495.18 590.63 292.85 446.93 224.88 1262.03 261.72 730.68 498.84 905.14 620.67 707.36 1088.13 410.53 526.43 353.90 900.87 694.60 720.36 811.51 919.66 949.94 1218.11 781.25 766.39 1063.94 711.90 1081.23 714.12 1092.82 675.37 862.57 332.51 425.94 832.99 775.89 746.35 791.28 984.17 1008.53 369.86 695.57 520.56 1083.68 846.18 683.62 473.61 380.26 883.24 524.90 403.33 926.66 273.56 779.99 30.98 876.48 850.79 898.14 829.95 709.89 701.45 780.21 48.07 319.82 802.56 789.18 804.15 813.96 707.44 426.12 512.64 587.25 762.76 470.28 295.95 348.57 556.41 766.22 624.09 650.55 1039.31 756.75 1000.77 837.76 980.18 775.34 845.37 365.98 274.05 644.41 892.28 876.55 1165.41 0.00 749.23 375.49 648.25
596.99 916.79 789.46 1076.26 455.72 221.63 564.61 1097.78 856.11 722.59 1104.31 637.97 1118.58 1168.53 207.67 251.29 215.40 729.84 753.52 447.99 919.53 624.49 639.78 974.11 799.66 742.27 851.40 588.79 590.82 494.53 1081.85 908.78 677.47 633.78 636.11 1116.64 371.28 839.31 1139.08 706.09 864.96 764.52 233.17 1140.52 652.30 348.95 1004.31 265.39 630.45 392.07 915.49 748.23 553.57 1074.49 1150.63 259.57 1120.18 403.70 637.41 738.90 221.77 399.06 961.03 1094.32 358.13 839.47 890.13 208.66 714.83 705.60 810.03 807.18 1062.79 780.21 397.15 949.66 1104.03 681.33 528.82 1073.87 266.92 797.30 599.80 1141.03 382.13 1008.20 1159.58 435.04 722.07 803.49 914.88 176.62 805.26 673.66 737.96 560.68 1141.26 521.22 795.99 676.93 818.74 933.32 466.92 1241.05 742.12 829.60 827.86 817.75 290.70 231.63 303.56 711.82 749.23 0.00 689.69 421.65
507.20 480.75 947.96 973.90 454.69 559.26 163.36 983.36 959.85 88.12 980.07 934.89 976.85 1084.63 585.11 599.12 655.03 265.21 1082.23 332.77 738.01 184.50 563.41 522.73 1141.55 158.59 832.67 451.08 919.53 562.42 862.37 1123.98 537.38 616.11 91.97 1024.65 507.01 826.71 943.57 946.72 1003.54 1109.76 616.53 909.78 970.50 557.19 1091.03 462.29 1002.75 551.18 900.47 422.19 174.51 997.65 885.34 612.64 923.34 761.93 878.61 473.43 580.26 381.70 1119.53 1018.05 573.30 578.87 637.30 683.55 569.30 511.90 962.51 411.06 884.44 406.47 749.10 974.45 1037.26 871.85 664.81 813.27 617.30 368.61 274.74 944.75 719.76 929.99 926.20 399.26 370.47 594.66 753.25 513.07 572.08 149.92 438.25 375.27 962.58 504.41 784.82 995.13 880.75 1010.57 740.59 1164.21 811.19 867.52 379.37 394.78 536.06 706.52 639.50 1057.06 375.49 689.69 0.00 520.87
705.25 718.15 572.56 696.95 113.96 237.22 427.21 892.59 636.45 522.03 775.75 454.92 829.79 849.13 235.74 193.22 395.49 410.64 561.36 217.61 666.90 357.72 389.65 773.55 641.71 557.65 429.75 279.05 398.66 98.02 829.22 658.66 427.34 221.66 428.90 823.40 91.34 490.73 735.88 486.90 582.36 667.67 224.43 819.96 483.38 108.65 773.49 450.16 560.70 51.34 667.52 347.91 375.87 870.15 831.83 183.84 756.11 384.37 432.55 353.80 265.85 230.12 744.13 759.93 105.79 589.34 640.00 345.27 397.04 373.03 605.80 406.86 724.68 679.23 228.23 726.51 810.79 406.11 217.02 823.74 237.11 696.32 328.43 856.13 223.08 627.11 867.53 491.24 300.42 553.36 661.92 279.97 555.13 427.57 331.85 192.13 842.87 99.57 494.81 508.01 537.82 696.00 298.00 941.13 454.48 580.67 437.90 529.83 250.49 368.24 288.68 618.70 648.25 421.65 520.87 0.00
DEMAND_SECTION
1 0
2 2
3 8
4 2
5 9
6 7
7 3
8 3
9 9
10 1
11 5
12 8
13 3
14 4
15 4
16 8
17 1
18 9
19 1
20 10
21 6
22 7
23 4
24 1
25 5
26 7
27 6
28 9
29 7
30 10
31 8
32 3
33 1
34 7
35 9
36 1
37 7
38 9
39 1
40 4
41 8
42 3
43 7
44 9
45 5
46 3
47 9
48 3
49 8
50 4
51 2
52 6
53 3
54 6
55 9
56 5
57 9
58 4
59 1
60 2
61 2
62 5
63 4
64 5
65 5
66 5
67 10
68 5
69 9
70 5
71 6
72 1
73 2
74 1
75 1
76 9
77 2
78 3
79 10
80 4
81 3
82 5
83 2
84 5
85 4
86 8
87 10
88 5
89 1
90 3
91 8
92 2
93 4
94 8
95 4
96 9
97 4
98 2
99 5
100 5
101 5
102 8
103 1
104 4
105 3
106 6
107 3
108 4
109 5
110 5
111 9
112 4
113 2
114 3
115 4
116 4
DEPOT_SECTION
1
-1
EOF
