NAME: LDG190_2253_snow_190_0099
COMMENT: CVRP with travel times.  rootPos=2,custPos=2,demandType=5,avgRouteSizeIndex=3,weather=snow,lambda_cluster=1,lambda_random=4, T1=300,T2=700,beta=1, alpha(i,j) ~ U(0.8,1.2)
TYPE: CVRP
DIMENSION: 191
EDGE_WEIGHT_TYPE: EXPLICIT
EDGE_WEIGHT_FORMAT: FULL_MATRIX
CAPACITY: 861
NODE_COORD_SECTION
1 500 500
2 734 631
3 581 475
4 653 877
5 552 471
6 622 376
7 424 384
8 599 227
9 657 569
10 508 338
11 702 963
12 737 993
13 601 509
14 611 470
15 560 413
16 539 442
17 721 938
18 648 541
19 545 421
20 609 371
21 640 399
22 723 899
23 569 418
24 443 168
25 637 485
26 399 200
27 661 389
28 632 533
29 464 261
30 567 852
31 833 630
32 486 328
33 628 917
34 622 894
35 641 332
36 489 370
37 705 421
38 673 472
39 507 291
40 327 141
41 548 365
42 706 172
43 688 920
44 560 381
45 481 338
46 425 189
47 621 401
48 642 902
49 768 796
50 669 389
51 363 234
52 442 290
53 514 196
54 801 855
55 360 190
56 470 246
57 397 321
58 269 209
59 614 408
60 741 863
61 735 403
62 361 307
63 361 312
64 482 223
65 825 567
66 593 479
67 547 169
68 657 462
69 458 26
70 412 250
71 776 491
72 626 456
73 607 962
74 700 911
75 655 446
76 803 914
77 360 410
78 650 859
79 392 215
80 437 312
81 797 766
82 621 439
83 726 913
84 606 951
85 605 439
86 546 208
87 761 921
88 526 562
89 656 604
90 570 310
91 550 483
92 519 412
93 399 303
94 450 239
95 382 288
96 673 978
97 587 409
98 605 474
99 536 978
100 665 953
101 336 159
102 318 373
103 603 795
104 165 177
105 551 58
106 591 316
107 571 370
108 583 448
109 689 787
110 511 36
111 549 548
112 665 410
113 703 389
114 749 879
115 412 270
116 583 154
117 538 465
118 407 379
119 732 807
120 376 526
121 619 208
122 411 241
123 417 175
124 476 339
125 604 410
126 448 266
127 322 46
128 503 231
129 268 242
130 568 422
131 512 534
132 742 916
133 716 897
134 622 408
135 671 948
136 457 292
137 731 937
138 380 266
139 863 913
140 310 275
141 400 269
142 610 993
143 488 571
144 638 802
145 352 291
146 570 473
147 687 919
148 701 956
149 518 324
150 694 882
151 517 282
152 455 944
153 187 409
154 426 260
155 752 962
156 644 395
157 720 386
158 730 888
159 476 967
160 790 898
161 735 966
162 735 461
163 660 992
164 617 471
165 759 375
166 706 936
167 649 342
168 696 877
169 797 961
170 401 306
171 627 328
172 544 447
173 474 351
174 664 505
175 713 951
176 683 523
177 639 921
178 529 952
179 695 419
180 490 544
181 373 367
182 393 371
183 447 436
184 541 278
185 760 898
186 557 401
187 604 315
188 430 258
189 422 289
190 656 438
191 805 971
EDGE_WEIGHT_SECTION
0.00 551.34 160.12 767.21 103.96 264.60 305.06 501.76 333.74 284.94 820.12 911.21 234.23 252.39 188.20 166.80 789.31 283.60 150.14 277.79 317.53 798.08 210.58 570.29 305.86 527.50 335.16 249.76 360.43 729.35 688.11 348.52 821.33 740.90 359.26 344.96 362.22 311.24 390.05 664.97 306.19 673.04 736.60 280.38 328.01 549.48 290.34 820.12 718.07 364.39 541.41 432.25 553.18 814.23 571.92 428.69 432.85 549.54 262.63 786.89 427.04 464.76 479.03 466.83 635.10 205.63 593.58 305.59 821.23 469.42 489.85 233.28 870.89 779.16 300.09 911.64 311.20 788.48 530.21 394.57 692.99 220.38 833.87 879.93 230.23 524.90 863.10 170.05 400.42 327.59 146.92 215.92 393.93 424.93 444.08 831.56 243.32 226.51 957.06 822.27 645.67 448.36 626.38 818.62 708.65 382.34 294.70 163.85 685.59 824.91 125.17 349.96 404.39 779.92 427.63 575.64 131.42 325.94 747.65 340.47 555.93 486.85 574.63 307.43 277.69 425.46 847.90 466.87 549.93 209.22 92.54 864.30 789.79 281.95 812.85 429.20 820.93 493.33 983.83 597.59 458.66 937.69 146.58 663.74 504.61 167.13 748.81 838.91 329.05 753.88 419.75 850.78 694.42 428.26 890.36 333.59 435.96 833.53 880.82 853.40 863.65 436.47 866.97 260.66 507.28 832.90 357.42 779.40 938.10 404.11 348.75 162.96 335.76 319.79 801.27 339.37 807.15 938.46 344.83 110.95 408.26 342.63 199.90 422.71 822.01 216.77 366.08 444.87 434.58 272.80 957.51
551.34 0.00 398.57 490.69 447.38 473.20 682.22 710.29 327.28 595.65 560.91 659.23 399.12 318.85 438.79 384.54 557.62 270.87 432.72 492.21 457.17 489.69 431.17 850.67 398.90 826.42 485.17 304.71 708.14 511.71 278.23 610.91 594.86 514.61 508.12 605.71 390.48 308.72 640.64 950.95 493.88 808.63 543.95 466.96 590.40 834.51 434.66 558.44 288.36 470.94 837.30 681.23 779.10 446.74 873.05 751.20 723.78 940.75 418.50 430.57 389.09 796.79 816.16 806.36 311.75 362.33 828.69 347.41 1020.54 741.96 419.54 344.81 607.80 521.27 396.38 575.73 738.46 438.57 810.85 656.96 439.63 355.75 513.06 623.29 381.02 747.51 525.23 542.99 314.74 599.62 429.82 476.67 720.17 759.52 770.32 502.70 448.50 332.18 739.42 556.31 908.45 809.14 494.48 1188.73 979.30 596.76 506.07 401.14 474.72 1021.78 470.34 435.87 388.26 444.01 728.76 826.23 432.81 686.19 346.96 722.04 673.12 759.39 875.76 569.82 423.10 731.76 1120.44 756.36 970.94 413.00 518.31 534.26 497.42 417.32 586.68 691.59 542.79 771.64 570.95 869.06 759.79 627.97 598.83 384.20 830.85 407.26 551.62 579.70 573.99 495.62 654.86 789.77 1051.62 723.07 593.49 454.16 341.92 454.24 735.39 517.49 611.67 347.46 538.11 298.03 456.80 567.15 473.86 480.59 605.26 730.35 539.49 403.88 586.05 361.74 586.26 387.76 580.86 720.82 369.70 536.69 698.50 719.15 576.42 613.54 486.10 464.89 558.36 725.51 695.33 414.84 650.69
160.12 398.57 0.00 705.80 56.16 233.68 345.20 464.48 232.95 289.80 863.65 906.22 74.11 92.27 119.37 119.00 810.12 189.59 157.43 222.75 191.29 731.83 103.65 543.70 150.84 531.27 212.83 183.51 428.79 594.11 561.31 318.40 767.85 719.40 303.71 288.80 256.89 175.06 321.22 662.35 237.36 572.47 780.13 204.92 303.07 554.34 171.63 773.50 666.53 247.37 524.38 396.48 472.40 766.43 553.63 445.35 385.05 671.48 169.01 779.94 269.17 471.11 449.03 419.03 511.24 45.51 524.75 152.81 782.96 461.46 339.68 127.27 839.98 773.77 146.58 847.84 396.15 653.68 493.94 387.69 598.98 132.24 765.56 801.39 83.48 464.36 828.18 213.74 334.17 301.12 95.38 159.76 438.98 440.10 462.99 835.20 160.25 66.39 821.82 835.03 619.85 489.53 573.09 869.31 679.54 327.30 217.51 75.88 581.31 720.73 151.75 205.04 296.21 773.79 409.34 506.81 90.50 320.52 645.25 340.61 473.07 464.24 556.34 304.28 139.95 406.84 817.75 443.31 621.83 99.95 225.91 795.99 737.09 181.16 827.33 404.26 814.29 461.91 877.82 578.27 440.37 877.55 274.36 549.07 489.27 41.59 792.34 858.64 283.20 760.69 350.92 797.79 728.92 425.21 846.86 201.53 316.34 706.74 866.39 832.83 865.33 300.29 799.79 100.54 388.57 806.82 269.45 735.17 904.11 431.69 297.69 102.63 291.31 159.67 835.31 221.44 785.65 793.15 243.88 228.28 397.25 362.39 219.66 313.44 766.45 143.68 316.60 408.60 378.42 168.11 936.06
767.21 490.69 705.80 0.00 677.10 811.16 897.46 1058.75 582.95 924.59 187.54 236.58 739.14 676.95 766.50 691.03 188.41 653.49 739.21 826.13 773.92 190.64 758.63 1151.48 684.21 1088.04 782.31 619.65 1024.41 238.39 584.71 917.40 104.80 113.10 900.28 857.77 747.70 625.47 937.97 1148.35 821.12 1157.09 137.20 808.58 896.89 1124.63 772.11 106.54 257.77 811.07 1050.84 974.92 1127.38 325.24 1122.36 1027.73 949.90 1202.16 747.58 195.84 812.52 988.25 998.41 1039.97 718.96 723.71 1141.50 664.16 1380.06 1009.49 705.19 641.95 206.88 131.91 713.13 320.30 948.41 52.12 1061.37 963.45 333.12 704.21 215.45 191.84 752.97 1064.84 239.28 727.47 468.99 932.50 686.35 728.73 897.67 973.77 947.82 182.84 798.00 703.40 313.61 129.23 1151.89 1056.24 214.22 1424.17 1300.48 913.32 816.60 711.38 263.50 1359.23 712.71 752.62 807.56 199.92 997.14 1153.94 642.76 912.41 203.18 852.98 1055.70 1021.01 1083.93 876.31 740.43 1006.31 1378.43 1069.46 1155.48 752.39 674.67 245.88 167.14 765.78 163.96 998.08 212.01 976.71 414.68 1101.33 966.11 244.65 740.57 224.62 1008.35 735.54 124.99 197.45 880.48 84.00 967.67 428.23 1061.45 993.11 288.19 770.91 800.29 167.63 383.97 273.40 264.25 750.70 218.25 688.73 841.34 194.09 879.90 109.52 289.29 887.49 864.27 710.37 876.40 616.48 201.87 554.71 130.94 298.17 726.92 756.83 997.22 929.10 786.37 965.88 224.28 774.19 912.64 977.57 947.39 715.53 343.12
103.96 447.38 56.16 677.10 0.00 226.38 289.04 462.64 229.78 279.51 841.16 884.97 130.27 148.43 138.31 62.84 777.01 179.64 111.02 229.43 216.58 694.12 130.44 506.33 207.00 491.82 256.47 145.80 396.22 649.62 608.16 277.48 724.25 774.91 287.17 246.48 276.28 231.22 329.55 622.90 219.99 569.30 771.86 200.16 268.70 512.81 186.38 760.67 622.91 260.43 484.93 372.94 499.19 710.27 533.01 418.03 328.89 619.05 158.67 764.39 325.33 432.39 429.31 362.87 531.14 101.67 531.57 208.97 747.20 422.01 385.89 153.33 826.33 761.03 202.74 837.89 339.99 709.84 454.49 335.26 589.03 116.42 732.45 831.90 138.06 464.57 795.07 205.82 296.46 320.06 51.76 120.31 382.82 430.23 406.83 856.78 169.72 122.55 877.33 806.33 580.40 447.82 629.25 861.58 623.38 304.90 223.93 83.90 632.47 747.52 176.75 250.79 306.06 738.74 388.72 525.75 34.34 303.99 643.69 297.61 451.97 424.79 535.72 248.12 183.77 380.12 800.49 413.71 602.11 124.20 174.26 761.61 717.62 177.99 830.91 369.89 781.18 428.32 903.88 547.36 419.75 908.06 218.20 559.78 433.11 63.17 784.07 838.01 252.29 761.10 357.74 755.62 687.21 385.76 843.69 233.29 352.40 729.57 837.84 812.22 845.86 347.57 821.37 156.70 403.32 787.35 277.47 775.24 888.64 391.30 305.71 62.76 251.44 215.83 797.60 235.41 761.28 849.31 255.50 214.91 357.38 320.68 177.95 337.69 780.83 146.00 308.27 369.15 338.97 192.85 901.68
264.60 473.20 233.68 811.16 226.38 0.00 339.19 328.20 311.33 213.86 872.53 971.10 232.37 196.41 176.11 189.64 877.92 333.72 150.70 23.05 123.00 818.80 163.80 502.30 223.87 425.44 85.53 310.55 334.88 739.81 523.05 225.10 888.30 839.21 95.55 235.38 184.18 185.69 209.16 534.80 182.79 408.44 856.29 123.93 239.64 459.25 86.45 851.88 703.10 120.07 466.81 359.64 358.94 811.99 509.25 350.34 391.08 608.05 67.71 845.31 223.79 487.48 465.40 376.86 468.33 191.21 366.36 169.24 715.38 389.86 403.79 173.34 872.80 840.09 168.05 920.54 490.73 763.17 426.04 324.26 729.10 119.72 843.61 911.39 150.20 366.83 906.23 379.49 416.60 158.51 276.46 216.48 398.71 328.04 440.81 930.74 120.99 202.98 967.52 917.57 561.32 515.40 693.86 786.84 555.94 127.60 84.82 170.49 657.47 607.19 349.75 115.23 139.79 858.75 380.87 460.28 237.91 365.94 752.42 523.99 324.24 407.29 489.20 260.22 93.73 330.35 741.89 326.02 580.41 173.24 346.20 874.04 795.30 75.50 938.07 296.93 888.11 420.47 913.20 498.57 411.90 985.25 400.18 746.24 497.62 222.67 868.50 853.74 203.50 836.97 238.86 901.14 791.43 362.79 925.24 103.37 186.13 812.28 978.06 878.90 923.54 268.38 966.15 177.44 268.44 865.03 126.70 844.66 922.85 402.91 84.15 208.98 268.97 252.31 898.47 283.64 896.15 948.92 163.40 363.17 407.31 388.26 305.45 247.36 824.52 147.63 101.48 379.40 331.12 140.76 976.68
305.06 682.22 345.20 897.46 289.04 339.19 0.00 394.20 518.82 217.51 1075.68 1134.04 400.33 363.37 307.44 302.64 1044.87 468.68 276.29 326.36 378.80 983.16 318.90 443.63 347.31 341.42 419.56 434.84 277.79 917.42 768.12 185.21 944.61 1003.92 384.89 168.31 474.22 440.53 265.01 456.87 274.12 656.15 992.16 215.26 195.01 381.35 335.07 981.03 869.44 427.45 318.90 189.13 420.56 999.31 366.98 294.34 148.26 427.15 312.78 1011.65 524.73 173.91 192.05 349.50 767.72 374.86 445.89 410.36 644.60 278.86 590.44 338.05 1046.69 1012.34 412.12 1101.85 173.50 927.88 330.42 182.93 878.07 375.53 1021.49 1052.26 336.70 436.07 1084.11 425.61 585.50 299.67 298.29 210.51 199.09 275.41 208.36 1080.30 295.12 389.82 1046.71 1026.69 414.37 184.54 817.30 633.54 626.01 321.56 254.37 369.21 852.41 646.86 422.26 404.90 460.17 992.82 222.69 539.81 254.70 39.54 884.49 317.59 485.47 274.39 369.69 190.27 352.69 250.53 631.43 339.73 364.85 326.25 348.10 1050.65 1006.66 329.83 1051.40 252.83 1070.22 252.36 1088.60 330.43 253.72 1075.11 411.69 819.83 224.54 318.47 1004.37 1094.47 180.44 964.43 285.23 1001.56 521.04 251.82 1132.73 385.13 506.51 1018.61 1083.78 1043.61 1119.21 511.53 1076.67 384.19 552.01 1076.39 419.15 981.14 1163.97 209.27 372.61 300.03 168.84 459.57 1056.83 481.30 981.64 980.47 459.22 344.91 125.52 57.40 165.58 310.74 1034.91 278.87 350.84 245.08 172.94 411.63 1190.72
501.76 710.29 464.48 1058.75 462.64 328.20 394.20 0.00 615.66 330.33 1199.25 1247.03 499.87 433.08 345.11 399.80 1178.27 578.58 351.62 327.38 367.26 1102.61 367.49 342.22 458.69 415.62 334.73 554.29 307.79 1007.64 845.50 247.20 1137.98 1074.92 280.06 346.61 406.96 513.10 259.67 490.35 287.50 285.86 1120.94 338.75 277.04 406.70 405.65 1119.65 911.85 368.96 474.73 321.37 222.32 1046.81 440.07 325.89 379.24 596.21 395.91 1054.06 460.13 456.85 460.49 270.73 717.22 459.04 162.55 477.02 570.28 384.00 640.85 416.80 1150.48 1097.59 450.14 1161.76 526.47 1006.63 433.63 312.42 987.97 354.54 1133.71 1189.07 403.30 149.09 1148.72 631.11 704.95 174.94 477.05 378.71 359.45 355.58 409.60 1212.99 369.69 446.41 1151.25 1183.86 513.82 540.05 928.68 791.86 405.38 222.83 338.37 406.88 922.12 499.47 584.57 385.95 376.13 1067.50 400.04 256.47 448.07 432.51 970.80 669.09 91.27 391.11 406.33 288.29 421.89 310.40 652.76 231.68 590.55 384.30 556.36 1139.92 1119.69 388.31 1149.13 257.67 1177.69 428.24 1167.35 552.86 422.32 1262.93 591.09 984.88 470.13 478.19 1127.94 1181.94 294.17 1101.62 283.16 1135.96 818.32 342.84 1216.98 372.43 422.47 1074.89 1208.26 1122.36 1235.16 493.75 1236.39 412.26 504.78 1170.06 300.70 1088.12 1168.78 369.63 244.05 419.14 300.20 523.62 1185.61 558.39 1141.17 1201.25 386.18 599.56 429.41 451.60 436.06 287.34 1109.59 373.68 236.00 358.38 353.07 430.19 1222.61
333.74 327.28 232.95 582.95 229.78 311.33 518.82 615.66 0.00 415.61 714.80 713.60 203.47 234.20 301.37 254.96 682.14 78.92 303.14 288.28 285.03 632.30 316.17 721.09 215.96 690.67 303.45 83.98 559.21 587.80 423.99 462.66 576.97 619.77 369.75 476.13 292.60 226.95 474.39 821.37 419.36 683.86 645.05 361.49 460.82 680.15 309.89 540.55 519.35 309.90 707.72 565.06 666.35 657.80 735.63 571.16 558.67 811.17 310.94 607.28 357.42 662.17 659.09 592.65 395.63 187.44 631.59 239.18 938.59 617.13 250.38 256.04 646.97 650.16 230.47 718.68 569.77 583.68 681.27 527.38 488.31 309.46 650.39 684.62 300.79 621.28 700.97 348.30 113.96 449.67 279.69 347.09 590.59 593.27 636.61 718.11 335.17 217.59 707.25 670.48 778.87 677.60 421.58 1041.99 821.17 392.83 322.38 239.60 446.23 872.42 275.65 340.12 344.59 588.94 591.34 688.81 264.12 504.83 460.40 527.39 562.11 634.56 679.59 440.24 296.87 560.53 974.09 615.92 817.97 316.32 349.81 679.19 655.80 292.55 635.75 550.78 695.66 646.22 825.67 739.48 622.37 755.96 445.88 531.86 616.86 225.90 657.26 696.01 444.41 625.73 504.09 815.11 916.99 592.97 613.91 285.23 342.20 661.55 860.08 662.42 675.92 308.68 718.62 251.74 386.53 680.82 389.53 633.92 700.81 600.77 395.48 274.30 462.98 161.67 703.00 99.90 584.82 773.49 272.11 379.14 568.92 550.46 407.73 509.70 631.03 329.94 412.81 595.93 565.75 203.18 712.82
284.94 595.65 289.80 924.59 279.51 213.86 217.51 330.33 415.61 0.00 1047.72 1090.75 363.91 276.80 222.76 233.56 1018.16 437.44 246.64 190.81 294.83 963.09 208.02 315.98 356.85 296.28 259.44 414.77 206.82 853.40 724.70 83.13 971.74 964.89 234.05 132.01 398.04 399.55 159.77 414.52 154.44 497.40 964.66 213.30 56.27 264.54 263.13 956.16 866.72 293.98 307.42 201.67 292.47 987.23 344.55 155.55 207.71 424.68 269.36 982.45 416.82 303.15 281.07 210.71 642.24 323.56 325.43 361.43 590.22 218.52 518.31 311.80 969.60 961.66 360.14 1054.76 293.27 901.63 279.31 140.89 846.83 314.29 994.16 1008.19 299.11 299.74 1055.29 411.42 529.57 163.34 308.01 213.58 227.20 209.51 263.44 1038.66 222.34 303.25 1081.11 989.41 414.59 367.43 753.10 626.38 520.95 173.04 182.17 279.36 765.84 569.62 403.75 310.66 353.65 923.04 230.17 419.35 281.83 211.74 876.01 413.65 360.20 233.87 322.44 76.85 278.09 144.92 597.00 233.90 453.87 189.85 377.48 1013.29 945.85 280.47 954.68 157.46 1038.66 249.06 1062.35 339.18 256.48 1082.05 422.95 838.87 323.97 272.85 976.87 1055.39 44.11 913.75 158.23 957.98 612.18 177.36 1029.52 295.48 399.99 940.64 1040.20 996.52 1074.09 371.21 1031.05 297.62 443.55 1015.58 268.31 888.23 1088.64 234.07 268.55 216.75 85.60 383.91 1029.33 417.31 1000.43 1062.51 377.26 387.68 265.34 240.29 208.35 151.99 965.13 194.19 214.51 193.97 197.59 354.62 1128.43
820.12 560.91 863.65 187.54 841.16 872.53 1075.68 1199.25 714.80 1047.72 0.00 127.22 792.50 771.38 897.06 878.57 71.06 710.12 896.88 883.37 881.46 147.04 876.04 1302.66 815.75 1261.53 920.32 695.36 1094.46 308.31 645.96 1038.97 175.97 202.92 964.84 1017.25 884.93 793.02 1069.48 1335.89 961.20 1223.80 83.52 902.34 1042.59 1269.11 832.53 174.25 334.57 924.91 1238.38 1112.44 1231.47 258.21 1271.56 1142.23 1137.44 1352.85 804.82 208.96 932.96 1114.07 1136.15 1197.39 703.23 818.14 1226.68 831.71 1527.62 1197.03 800.60 806.38 221.30 101.66 812.92 206.20 1063.00 239.66 1248.91 1109.15 397.43 844.71 113.29 182.71 875.19 1170.30 147.55 690.32 637.86 1031.04 844.38 916.27 1085.21 1158.96 1135.36 58.21 892.45 797.83 304.48 58.31 1339.43 1021.65 345.76 1474.92 1416.26 987.92 898.69 870.30 282.34 1419.65 762.97 885.68 871.12 184.19 1184.68 1284.50 830.30 1074.25 280.77 876.32 1155.98 1200.38 1271.47 1022.01 845.89 1159.49 1548.37 1192.23 1296.82 857.87 727.58 108.58 146.45 832.49 93.04 1127.09 64.56 1164.25 300.26 1256.30 1153.65 173.73 726.31 328.36 1164.70 837.28 71.31 18.79 1030.29 149.57 1099.18 372.34 1110.58 1162.29 132.65 887.79 902.83 168.69 398.37 221.63 103.63 830.31 93.62 792.20 895.28 77.00 942.88 175.09 219.55 1075.03 956.68 897.91 1014.75 765.51 43.56 742.25 142.63 278.92 864.15 779.71 1108.06 1091.15 948.42 1071.36 154.19 909.76 974.01 1165.11 1134.93 835.12 201.14
911.21 659.23 906.22 236.58 884.97 971.10 1134.04 1247.03 713.60 1090.75 127.22 0.00 838.78 813.95 954.76 927.61 131.26 759.71 934.35 981.94 952.69 190.85 932.38 1372.43 871.15 1324.62 962.65 739.17 1193.03 417.72 623.36 1120.65 286.28 292.43 1019.79 1094.35 951.31 846.20 1156.61 1384.93 1020.92 1315.16 174.61 962.06 1124.72 1355.29 931.10 271.65 370.87 989.58 1287.42 1189.62 1290.77 294.21 1337.94 1246.30 1186.48 1438.74 903.39 250.89 978.16 1216.26 1234.99 1247.84 749.30 860.71 1325.25 884.89 1573.90 1246.07 845.47 848.95 342.18 203.85 855.57 217.57 1154.09 288.70 1297.95 1200.03 350.32 892.49 152.52 303.59 917.76 1261.58 134.00 750.52 670.77 1111.29 904.58 965.31 1134.25 1210.35 1184.40 179.09 943.60 840.40 425.36 185.53 1388.47 1148.87 450.80 1602.14 1508.35 1086.49 997.26 912.87 373.43 1518.22 823.17 944.70 913.77 236.30 1233.72 1342.20 879.34 1145.28 353.00 952.10 1198.63 1257.59 1320.51 1112.89 937.17 1235.67 1614.75 1271.45 1392.06 949.74 818.67 146.05 175.80 931.06 216.15 1190.90 149.43 1213.29 309.40 1335.70 1202.69 249.48 817.40 397.25 1244.93 881.09 186.82 146.01 1117.06 235.67 1163.08 499.56 1226.56 1229.69 99.69 964.91 930.99 211.34 490.85 238.91 47.56 896.69 155.68 834.77 1022.50 131.38 985.53 233.42 186.59 1124.07 1044.48 946.95 1096.44 819.10 109.94 791.29 260.02 371.40 930.53 839.91 1161.24 1157.16 1019.24 1150.28 207.37 972.41 1070.03 1214.15 1183.97 882.86 198.60
234.23 399.12 74.11 739.14 130.27 232.37 400.33 499.87 203.47 363.91 792.50 838.78 0.00 93.39 193.48 183.61 745.60 153.33 231.54 255.42 205.84 667.81 177.76 617.81 81.81 603.11 246.60 119.49 474.18 623.31 536.70 359.11 758.27 748.60 312.92 281.61 259.16 175.73 395.33 734.19 272.19 548.18 733.40 241.50 357.35 618.03 174.21 721.85 620.44 264.04 596.22 470.59 546.51 732.21 627.74 519.46 459.16 725.76 184.54 718.02 298.28 545.22 523.14 493.14 504.83 95.30 563.45 198.34 735.12 523.18 282.50 128.39 805.00 707.77 157.94 811.58 451.28 711.69 565.78 441.97 562.72 158.81 706.14 766.41 157.59 528.05 768.76 211.46 270.15 370.24 102.04 231.60 490.26 514.21 521.35 787.26 204.57 66.94 785.28 811.72 691.69 543.57 551.80 943.42 753.38 359.97 278.41 147.46 582.43 761.33 138.81 205.59 301.90 699.68 483.45 580.92 145.63 394.63 571.14 414.72 487.62 536.08 630.45 365.98 203.64 480.95 874.28 513.63 695.94 174.06 182.23 735.30 662.98 156.87 804.60 429.32 754.87 536.02 878.94 652.38 514.48 842.57 279.02 610.20 544.40 115.70 721.19 811.21 357.31 745.44 389.62 805.90 737.68 497.05 817.38 212.17 327.92 703.26 838.49 773.16 791.22 300.13 751.85 101.09 391.15 732.71 299.09 720.60 862.33 500.44 298.36 164.27 328.02 162.00 766.15 209.10 752.65 719.04 256.77 271.45 458.89 431.97 289.24 387.55 737.91 217.79 333.85 480.44 450.26 169.74 875.37
252.39 318.85 92.27 676.95 148.43 196.41 363.37 433.08 234.20 276.80 771.38 813.95 93.39 0.00 140.81 154.64 770.18 160.64 160.68 173.36 189.08 702.25 118.43 558.48 80.05 549.21 175.36 194.48 430.27 595.36 514.16 327.50 753.86 700.87 254.83 291.20 181.21 137.48 342.66 682.19 206.97 531.42 687.86 148.11 311.82 541.34 157.45 744.70 589.92 189.20 565.80 411.26 487.18 726.29 565.94 432.35 445.94 680.23 140.63 732.13 246.03 524.75 523.07 487.51 436.24 46.76 516.67 107.31 805.85 464.75 259.96 35.00 830.86 700.57 109.07 798.80 453.19 624.83 538.20 396.44 570.03 78.54 725.62 798.78 103.81 457.89 788.24 265.78 340.99 311.92 139.29 204.02 458.88 449.11 475.82 782.82 129.65 26.45 823.07 773.53 639.69 547.91 533.15 890.75 702.09 277.91 187.22 98.92 489.04 735.51 193.13 130.75 227.06 715.16 430.78 528.25 166.92 380.46 616.80 416.31 467.51 482.18 577.78 320.45 133.48 421.72 832.53 457.50 682.81 135.79 267.29 756.05 711.60 140.11 797.81 404.54 774.35 494.43 785.55 603.61 461.81 874.94 279.98 569.71 536.35 101.53 700.07 790.17 308.54 668.54 349.13 744.52 778.97 454.16 841.62 190.63 273.40 666.80 826.74 740.56 814.91 262.71 818.23 20.82 348.73 773.04 261.01 694.06 811.84 469.06 230.53 171.90 282.49 107.11 752.53 140.51 767.12 804.47 201.38 230.96 439.86 420.77 287.17 336.33 726.51 158.46 296.75 452.86 422.68 108.58 865.67
188.20 438.79 119.37 766.50 138.31 176.11 307.44 345.11 301.37 222.76 897.06 954.76 193.48 140.81 0.00 75.47 858.38 233.47 38.06 153.06 164.05 785.37 22.38 428.59 203.78 418.13 180.79 237.05 327.57 662.53 578.58 236.83 813.65 787.82 225.25 175.80 215.34 209.16 201.85 550.51 117.99 506.39 828.67 92.18 206.99 468.36 121.17 840.90 703.67 213.55 441.96 281.37 364.98 778.65 434.26 343.03 315.41 575.40 123.24 828.20 280.16 402.13 415.83 384.18 545.34 113.93 405.38 188.16 721.31 351.78 379.90 131.20 859.24 822.03 198.01 891.72 314.62 721.03 418.73 291.61 642.86 128.65 813.82 865.97 101.26 412.82 875.69 286.58 380.13 181.75 132.52 103.37 355.76 320.73 393.35 888.00 55.12 142.71 890.24 838.75 508.01 427.88 649.41 749.94 571.60 222.04 106.50 61.77 629.85 639.46 258.96 181.15 252.92 827.61 289.97 387.44 123.74 306.36 702.32 409.65 422.68 369.21 436.97 221.03 89.49 323.04 711.07 358.65 571.08 39.19 232.03 826.36 799.80 115.08 804.02 308.18 862.55 381.30 881.75 473.72 321.00 942.13 321.23 664.09 423.81 150.96 840.88 909.27 178.65 809.35 231.55 836.38 678.32 352.50 915.28 170.38 247.76 755.00 918.60 836.76 924.85 302.13 909.16 140.76 338.11 869.53 236.32 802.52 941.77 345.58 213.09 94.81 222.21 245.57 888.85 281.32 850.68 871.64 194.56 254.45 317.24 351.18 208.45 252.68 813.51 28.57 217.94 350.54 322.03 170.72 966.43
166.80 384.54 119.00 691.03 62.84 189.64 302.64 399.80 254.96 233.56 878.57 927.61 183.61 154.64 75.47 0.00 839.85 235.70 48.18 166.59 209.04 756.96 67.60 466.13 222.48 446.63 249.95 208.64 333.38 656.48 622.04 226.37 738.18 781.77 243.75 221.17 290.81 245.97 277.32 566.41 190.21 551.53 800.62 146.77 205.86 449.97 157.31 774.60 663.01 249.69 452.76 310.10 436.35 773.11 500.49 389.11 339.24 556.21 166.70 805.22 317.64 412.25 431.62 425.71 582.15 107.88 468.73 228.55 733.46 362.17 411.32 156.24 783.77 822.94 230.31 893.95 353.92 743.15 426.31 272.42 645.09 163.19 795.29 822.36 131.92 422.94 857.91 234.07 359.30 257.22 91.86 92.13 335.63 396.20 385.78 873.87 127.35 138.03 884.19 820.26 523.91 424.60 644.73 812.52 647.07 271.14 161.09 98.58 643.68 684.68 219.81 226.37 298.14 801.58 360.54 462.91 48.27 317.92 706.53 360.45 464.69 379.60 507.54 185.28 125.63 347.22 740.65 380.89 599.81 61.36 156.56 824.45 780.46 160.22 826.19 307.05 844.02 398.65 906.79 484.52 391.57 896.22 281.04 622.62 446.31 94.10 812.83 888.48 189.45 775.03 294.90 795.72 667.08 338.53 868.87 215.52 323.23 778.38 877.94 861.80 908.70 371.20 852.30 172.18 374.25 850.19 270.24 765.50 951.48 345.81 273.79 19.34 208.02 239.52 860.44 295.15 775.21 865.59 270.03 251.41 313.96 334.61 191.88 274.85 838.09 83.16 245.43 340.97 310.79 207.53 964.52
789.31 557.62 810.12 188.41 777.01 877.92 1044.87 1178.27 682.14 1018.16 71.06 131.26 745.60 770.18 858.38 839.85 0.00 665.05 863.29 888.76 844.73 82.89 836.00 1276.05 758.92 1222.25 868.01 631.21 1095.70 333.64 596.20 1030.39 204.84 208.35 911.83 1004.16 846.20 775.14 1060.23 1336.76 948.98 1229.19 112.39 907.73 1035.42 1262.18 837.92 188.79 269.26 881.62 1238.84 1117.83 1182.81 225.27 1277.25 1163.96 1105.90 1338.85 810.21 137.90 887.95 1100.27 1110.81 1139.88 664.28 773.88 1232.07 786.41 1480.72 1172.65 744.85 801.25 252.70 87.86 747.61 167.64 1032.19 211.42 1231.50 1112.27 353.53 830.91 44.56 214.11 845.15 1172.06 84.07 619.26 624.06 1003.33 773.32 897.32 1086.08 1146.02 1136.23 129.27 881.36 743.73 335.88 113.78 1340.30 1057.46 373.52 1530.39 1400.39 993.31 904.08 806.49 283.91 1425.04 691.91 857.53 805.81 145.24 1148.35 1245.82 811.35 1014.02 221.74 843.38 1090.67 1155.22 1272.34 1025.13 847.65 1157.13 1550.10 1166.30 1283.61 854.17 696.77 74.99 82.62 837.88 108.63 1132.48 31.62 1165.12 259.47 1220.76 1154.52 229.20 748.91 289.29 1150.90 773.13 100.18 88.45 1026.11 104.41 1066.41 407.80 1143.70 1162.77 113.37 856.95 852.15 103.38 430.16 188.04 83.70 826.43 131.73 777.88 934.46 48.52 877.57 129.93 178.73 1075.90 947.84 834.23 1020.14 711.14 49.25 714.01 199.22 310.71 825.42 708.65 1057.00 1030.71 887.98 1067.66 136.31 876.03 962.07 1146.16 1115.98 774.90 168.20
283.60 270.87 189.59 653.49 179.64 333.72 468.68 578.58 78.92 437.44 710.12 759.71 153.33 160.64 233.47 235.70 665.05 0.00 271.53 321.34 289.86 582.16 255.85 662.06 165.82 651.52 302.19 33.84 509.07 537.66 476.12 414.22 655.89 662.95 336.27 409.27 254.54 148.03 435.32 783.98 351.46 686.56 659.90 308.75 435.56 685.67 285.19 619.47 559.23 333.63 664.57 514.84 598.45 578.88 667.73 576.50 508.53 791.91 267.58 652.43 319.36 612.03 608.95 542.51 412.62 144.08 628.31 186.72 888.45 585.25 267.37 193.09 723.13 649.07 211.22 658.25 519.63 619.48 634.13 508.12 409.39 239.18 620.49 744.94 238.08 577.92 683.11 284.70 184.50 415.22 229.55 299.95 562.46 554.20 586.47 754.86 288.59 174.23 765.37 740.90 741.48 627.46 500.50 983.41 777.62 389.55 339.97 171.70 502.93 872.31 212.05 275.18 294.45 626.78 523.44 620.91 213.98 454.69 531.73 477.25 525.82 602.68 670.44 420.98 253.51 556.51 944.54 568.74 781.75 261.21 286.21 649.65 605.66 295.25 714.67 536.08 669.22 596.08 821.24 707.19 554.47 821.10 394.41 610.78 612.75 175.76 672.11 726.05 412.12 658.51 465.02 892.16 866.85 565.40 692.83 293.47 292.06 617.61 809.94 646.11 712.15 250.11 783.18 181.46 325.32 675.39 310.61 663.28 776.68 570.94 372.28 242.40 431.08 90.87 666.56 116.89 663.74 746.77 271.85 364.38 537.02 500.32 357.59 469.68 668.87 262.04 395.11 548.79 518.61 238.51 780.18
150.14 432.72 157.43 739.21 111.02 150.70 276.29 351.62 303.14 246.64 896.88 934.35 231.54 160.68 38.06 48.18 863.29 271.53 0.00 127.65 194.53 805.14 60.44 444.29 208.51 437.29 218.85 256.82 343.75 700.59 577.64 220.21 786.36 825.88 209.12 194.82 253.40 215.09 239.91 568.37 156.05 541.28 848.54 130.24 190.37 470.89 150.01 822.78 711.19 242.39 430.40 319.43 403.04 740.59 472.32 381.09 319.75 558.78 122.30 853.40 315.36 364.07 386.15 422.24 551.27 151.99 443.44 225.48 727.30 367.48 379.00 169.26 831.95 831.13 202.10 879.06 352.68 759.09 399.96 274.99 680.92 146.17 818.73 870.54 97.41 374.76 837.63 282.25 407.48 219.81 140.04 65.78 361.30 358.79 390.14 907.89 93.18 174.01 928.30 858.64 525.87 389.82 678.50 788.00 609.66 232.20 144.56 99.83 649.72 677.52 267.99 214.42 269.69 834.20 328.03 425.50 96.45 315.83 740.38 408.63 432.84 370.26 475.03 210.95 127.55 344.29 736.52 374.73 558.95 59.08 204.74 788.30 828.64 149.97 823.91 291.56 867.46 373.79 919.81 501.64 359.06 944.40 296.72 670.80 414.70 142.28 860.75 904.50 216.71 783.22 269.61 843.90 640.73 331.23 900.89 205.27 285.82 793.06 926.12 874.82 886.79 340.19 900.48 139.86 366.95 879.47 231.30 808.74 932.29 356.23 234.85 67.52 196.81 251.51 888.47 301.19 823.39 909.70 232.62 261.09 279.18 333.69 240.06 272.57 849.62 66.63 252.18 314.62 284.44 195.62 928.37
277.79 492.21 222.75 826.13 229.43 23.05 326.36 327.38 288.28 190.81 883.37 981.94 255.42 173.36 153.06 166.59 888.76 321.34 127.65 0.00 130.28 829.64 173.09 487.72 239.73 402.39 108.58 287.50 311.83 750.65 533.89 246.43 865.25 850.05 81.47 212.33 207.23 208.74 186.11 557.85 169.96 431.49 861.22 111.10 216.59 436.20 89.12 828.83 724.68 117.39 443.76 361.99 381.99 833.57 486.20 327.29 368.03 585.00 78.55 866.89 226.01 464.43 442.35 367.94 465.65 202.05 343.31 170.62 703.23 380.90 397.32 184.18 849.75 850.93 191.10 943.59 467.68 774.01 402.99 301.21 730.73 141.30 854.45 888.34 172.60 387.16 917.07 400.66 402.24 161.39 258.45 193.43 387.52 304.99 417.76 941.58 97.94 199.81 978.36 940.48 538.27 510.90 702.66 763.79 532.89 104.55 107.87 193.54 662.40 584.14 366.49 137.13 162.84 877.22 366.28 437.23 214.86 342.89 748.68 515.67 305.19 396.25 466.15 237.17 116.78 307.30 759.38 342.91 603.46 154.92 323.15 884.88 806.14 98.55 919.75 317.78 898.95 409.38 934.73 475.52 392.82 962.20 423.23 743.07 478.29 243.23 873.43 864.58 180.45 841.90 215.81 917.88 768.38 339.74 902.19 104.67 209.18 835.33 955.01 889.74 934.38 281.92 976.99 194.18 268.47 875.87 103.65 855.50 924.23 394.39 107.20 185.93 245.92 263.15 909.31 306.69 873.10 959.76 186.45 386.22 406.83 383.76 328.50 233.71 847.57 149.85 124.53 356.35 354.17 163.81 978.06
317.53 457.17 191.29 773.92 216.58 123.00 378.80 367.26 285.03 294.83 881.46 952.69 205.84 189.08 164.05 209.04 844.73 289.86 194.53 130.28 0.00 776.80 150.15 552.16 169.78 532.67 63.31 264.96 366.28 694.38 497.16 296.73 860.48 798.03 159.22 299.37 130.07 148.45 316.39 657.80 217.96 440.28 850.94 163.54 312.00 530.12 66.31 825.58 678.74 78.25 514.03 384.26 398.00 802.81 581.37 434.54 405.86 680.41 76.64 814.55 145.93 509.36 506.28 489.06 426.51 145.78 403.50 109.76 760.79 461.49 359.36 155.43 928.02 808.38 97.12 883.30 478.67 745.26 510.17 396.62 658.17 110.54 800.17 901.66 143.66 362.01 862.79 372.95 398.99 249.37 260.07 175.99 441.86 426.64 479.90 912.27 108.93 175.93 922.09 858.66 635.98 563.34 639.77 874.27 620.56 198.51 156.45 153.68 655.25 653.43 340.57 90.47 160.93 813.96 444.30 497.42 250.92 418.34 706.96 514.19 281.78 478.92 582.12 324.53 91.51 392.81 785.04 449.02 652.04 147.83 335.69 830.60 786.15 48.97 893.39 340.08 848.90 483.90 905.98 545.79 447.59 974.08 358.11 698.01 540.43 210.93 838.73 862.67 250.72 815.97 330.43 891.96 750.94 425.25 898.94 25.61 158.04 741.35 966.66 860.99 914.39 212.26 947.68 168.26 247.42 855.88 191.19 826.75 863.37 452.04 123.21 189.70 286.57 219.43 880.28 281.20 864.28 903.49 109.29 346.36 473.71 436.20 324.67 327.67 787.28 152.14 189.43 424.83 394.55 81.85 917.20
798.08 489.69 731.83 190.64 694.12 818.80 983.16 1102.61 632.30 963.09 147.04 190.85 667.81 702.25 785.37 756.96 82.89 582.16 805.14 829.64 776.80 0.00 768.07 1200.45 680.30 1185.94 800.08 548.32 1023.55 322.43 528.27 966.12 189.41 197.14 843.90 940.60 763.31 714.48 987.22 1312.04 881.05 1170.07 77.74 848.61 962.82 1206.93 778.80 172.21 201.33 813.69 1179.05 1058.71 1114.88 185.93 1219.63 1091.81 1023.01 1313.17 751.09 70.27 820.02 1079.32 1101.40 1056.99 617.71 705.95 1172.31 703.52 1402.93 1116.13 769.99 737.25 230.74 66.91 679.68 165.11 1034.11 155.25 1148.61 1029.38 343.90 767.67 38.33 236.87 765.13 1116.57 100.95 702.15 603.11 935.40 744.03 814.43 1058.43 1088.05 1100.95 172.70 813.43 675.80 358.64 158.74 1274.52 998.34 316.68 1518.01 1317.50 934.19 844.96 723.60 233.23 1365.92 731.99 789.60 737.88 98.67 1075.34 1172.81 728.46 969.17 217.15 881.86 1022.74 1118.91 1222.34 942.24 792.16 1074.24 1482.17 1107.83 1273.51 786.24 721.80 67.49 23.50 778.76 136.79 1064.01 87.06 1110.56 276.35 1214.45 1106.37 274.16 720.53 206.40 1127.23 690.24 89.95 143.89 946.41 106.64 998.48 453.41 1127.12 1079.88 165.68 789.02 784.22 35.45 468.01 157.01 151.74 767.31 201.02 709.95 866.53 93.23 809.64 81.12 194.52 1068.61 879.91 756.88 945.56 643.21 103.48 637.93 186.96 364.94 742.53 702.34 1023.88 1004.86 872.07 997.56 95.16 808.10 894.14 1063.27 1033.09 706.97 207.56
210.58 431.17 103.65 758.63 130.44 163.80 318.90 367.49 316.17 208.02 876.04 932.38 177.76 118.43 22.38 67.60 836.00 255.85 60.44 173.09 150.15 768.07 0.00 440.05 198.48 440.51 190.91 242.90 347.79 645.38 556.20 223.37 805.78 770.67 237.47 187.26 237.72 231.54 224.23 572.89 140.37 492.49 806.29 103.64 199.42 472.56 101.75 831.35 689.65 194.13 453.42 292.83 368.75 798.54 456.64 363.57 337.79 567.83 100.86 805.82 274.45 424.51 425.18 377.64 542.39 128.73 425.60 210.54 701.18 374.16 372.28 153.43 851.37 799.65 184.22 871.32 337.00 743.26 438.41 284.04 665.24 106.27 791.44 844.95 104.42 394.48 854.06 301.67 393.56 204.13 148.43 114.83 364.07 343.11 414.22 866.98 75.83 144.88 873.09 817.73 530.39 450.26 651.58 772.32 593.98 233.50 117.96 84.15 607.47 617.08 236.58 158.77 230.54 805.23 312.35 409.82 115.87 317.82 724.70 387.27 409.13 391.59 459.35 213.72 70.07 345.42 714.10 361.53 582.54 18.17 224.16 821.87 777.42 101.18 783.00 300.61 840.17 392.21 889.54 485.18 343.38 921.11 343.61 641.71 446.19 129.94 818.50 886.89 190.11 786.97 251.77 852.29 689.78 365.38 908.69 156.48 270.14 732.62 917.66 858.99 905.66 324.51 888.14 133.14 318.69 847.15 242.34 812.49 920.51 367.96 233.80 86.94 228.75 225.54 870.96 258.94 836.92 854.49 216.94 276.83 339.62 328.99 219.91 231.66 792.33 40.03 240.32 362.00 333.49 186.16 961.94
570.29 850.67 543.70 1151.48 506.33 502.30 443.63 342.22 721.09 315.98 1302.66 1372.43 617.81 558.48 428.59 466.13 1276.05 662.06 444.29 487.72 552.16 1200.45 440.05 0.00 620.29 114.71 521.53 652.13 209.86 1085.43 954.84 348.82 1198.63 1210.72 468.80 413.54 611.55 620.17 301.61 280.04 420.06 524.03 1246.34 463.63 349.75 64.48 527.21 1235.05 1113.18 556.07 211.30 265.64 248.48 1184.88 197.67 160.43 297.57 333.00 499.50 1191.74 619.93 335.50 317.33 143.46 904.33 542.52 325.11 581.48 305.28 182.03 806.02 559.79 1249.90 1239.70 611.46 1285.81 422.26 1148.99 135.41 285.27 1071.45 529.80 1231.49 1271.05 509.72 268.36 1281.92 698.90 802.79 350.02 552.31 469.59 267.59 214.39 263.98 1300.72 451.93 563.76 1292.63 1251.47 270.69 417.50 1005.42 523.58 418.18 396.13 453.35 490.36 1047.52 436.24 676.63 534.55 535.93 1239.02 228.33 309.54 508.72 434.65 1130.91 703.86 329.44 171.44 81.33 329.17 509.50 226.33 375.83 194.30 411.79 451.91 621.39 1232.59 1217.47 511.89 1216.74 268.26 1280.22 231.39 1310.34 310.19 226.34 1347.21 704.48 1066.11 306.81 560.23 1258.55 1285.53 309.73 1201.15 304.31 1220.55 670.23 222.03 1335.00 559.23 582.27 1172.67 1272.79 1227.57 1331.08 687.19 1318.43 566.88 664.58 1283.28 475.78 1175.63 1317.00 277.77 472.49 485.47 367.13 665.59 1303.93 698.99 1235.66 1243.70 614.00 645.16 396.50 386.23 502.99 280.99 1232.38 400.02 411.08 220.75 277.49 599.31 1370.83
305.86 398.90 150.84 684.21 207.00 223.87 347.31 458.69 215.96 356.85 815.75 871.15 81.81 80.05 203.78 222.48 758.92 165.82 208.51 239.73 169.78 680.30 198.48 620.29 0.00 594.80 200.12 131.98 450.82 635.80 503.24 342.71 690.70 681.78 283.26 363.42 177.35 93.92 405.63 706.07 287.02 557.03 756.65 228.16 312.87 586.74 183.06 727.12 596.13 194.65 568.10 458.27 567.23 744.70 616.18 459.86 464.31 681.28 161.18 684.06 242.17 521.22 538.63 515.02 430.10 114.60 573.28 116.53 816.93 510.34 316.87 72.58 774.21 747.21 115.22 795.46 511.19 632.09 579.59 397.49 575.21 104.15 718.63 735.62 111.10 476.87 781.25 241.06 282.64 350.75 183.85 259.24 483.80 501.27 533.95 831.84 187.87 84.45 808.80 813.44 663.57 531.85 469.99 948.25 747.93 334.70 255.05 142.01 569.09 770.18 220.62 160.08 252.97 665.72 471.89 584.20 217.04 386.85 537.18 474.31 446.86 527.77 618.89 333.45 152.46 466.79 859.02 497.23 711.43 215.84 264.04 747.79 703.80 165.72 797.49 414.06 767.36 505.66 823.13 637.93 502.92 811.78 343.06 580.27 571.85 159.53 744.44 799.16 373.95 711.48 407.13 824.57 819.49 486.70 815.20 162.42 272.32 715.75 862.01 739.20 832.04 219.15 833.66 100.87 332.76 773.53 302.56 713.58 858.75 490.67 292.99 205.39 342.20 124.39 783.78 166.39 727.73 742.56 198.13 288.96 472.83 404.71 355.01 414.63 707.81 223.87 315.74 494.25 422.14 87.93 887.86
527.50 826.42 531.27 1088.04 491.82 425.44 341.42 415.62 690.67 296.28 1261.53 1324.62 603.11 549.21 418.13 446.63 1222.25 651.52 437.29 402.39 532.67 1185.94 440.51 114.71 594.80 0.00 510.97 637.62 167.07 1042.36 912.05 281.47 1147.39 1149.39 441.04 326.03 609.62 611.13 216.28 166.68 380.18 564.54 1190.00 424.42 281.93 50.23 484.42 1183.81 1072.22 519.78 107.01 184.82 261.68 1177.88 107.48 177.11 193.16 299.08 456.71 1148.95 565.66 235.00 212.92 144.89 824.99 532.06 301.30 573.01 303.18 84.46 765.95 541.23 1195.26 1165.75 579.49 1245.20 338.29 1080.78 50.37 209.84 1060.91 519.46 1224.27 1200.99 519.39 344.59 1245.87 655.13 772.37 358.70 501.07 371.51 196.28 146.18 159.57 1270.88 465.86 560.84 1207.30 1217.27 181.23 313.09 937.60 469.84 400.61 381.88 385.31 479.90 1038.25 434.14 608.32 539.52 565.23 1179.70 146.27 322.47 457.48 355.41 1051.16 599.45 444.15 67.03 63.76 261.35 497.78 151.36 358.26 195.73 307.50 457.32 603.19 1210.50 1184.30 484.38 1222.15 204.09 1245.85 146.35 1291.78 195.48 121.93 1277.15 616.97 1047.88 203.00 497.83 1196.10 1242.74 314.36 1117.84 245.98 1119.66 572.66 121.14 1293.32 507.06 580.39 1173.13 1201.88 1236.52 1305.95 667.49 1256.03 528.39 670.86 1238.22 475.30 1132.84 1311.28 200.55 453.20 461.03 279.62 635.02 1254.67 632.40 1184.42 1168.73 588.84 585.96 311.46 301.02 406.63 296.97 1149.18 437.28 419.76 122.67 194.81 552.20 1350.57
335.16 485.17 212.83 782.31 256.47 85.53 419.56 334.73 303.45 259.44 920.32 962.65 246.60 175.36 180.79 249.95 868.01 302.19 218.85 108.58 63.31 800.08 190.91 521.53 200.12 510.97 0.00 268.35 379.03 741.36 514.92 305.80 880.42 806.23 129.03 320.91 151.45 178.37 294.69 615.01 244.91 481.04 863.22 204.30 315.71 523.98 107.07 844.00 639.49 34.54 552.34 423.12 396.55 826.55 594.78 414.99 467.15 684.12 115.50 781.70 164.20 562.59 540.51 443.86 382.80 192.76 449.36 173.07 770.92 475.39 318.26 140.36 936.22 831.66 120.40 904.16 495.41 730.19 511.57 400.33 681.45 151.30 823.45 914.91 155.75 363.66 876.36 351.06 417.41 231.87 278.96 239.30 484.24 413.57 518.76 950.17 149.69 189.87 969.07 896.56 646.85 583.05 670.11 872.37 638.94 210.60 170.35 172.57 664.40 673.70 278.41 51.22 117.22 795.14 466.40 475.34 278.77 451.47 698.44 553.44 345.09 492.82 574.73 336.29 136.50 404.36 827.42 411.55 665.94 188.59 352.57 853.88 809.43 89.73 907.84 382.46 872.18 505.79 890.91 584.10 488.35 991.07 370.20 729.37 579.29 230.64 862.01 901.53 289.03 828.06 283.01 910.84 814.25 436.80 917.36 37.70 163.56 764.63 993.06 845.92 915.09 182.85 985.58 187.14 184.11 879.16 163.29 811.68 926.68 488.44 121.76 240.08 325.43 245.04 903.56 302.88 872.48 918.65 130.67 365.25 488.01 455.91 365.00 301.40 817.20 185.12 187.01 453.41 416.65 119.75 972.25
249.76 304.71 183.51 619.65 145.80 310.55 434.84 554.29 83.98 414.77 695.36 739.17 119.49 194.48 237.05 208.64 631.21 33.84 256.82 287.50 264.96 548.32 242.90 652.13 131.98 637.62 268.35 0.00 475.23 503.82 473.94 417.80 660.95 629.11 348.85 392.28 220.70 176.51 438.90 763.72 339.48 667.67 626.06 329.23 414.50 658.61 288.53 624.53 539.02 302.89 630.73 518.42 602.03 612.72 671.31 543.49 474.69 764.85 293.16 618.59 285.52 578.19 575.11 508.67 385.34 177.92 630.81 155.20 854.61 567.81 240.09 204.56 730.95 615.23 225.48 692.09 485.79 592.20 600.29 481.06 443.23 236.13 586.65 711.10 216.81 597.69 649.27 264.32 150.66 418.80 195.71 266.11 528.62 539.73 552.63 721.02 287.21 168.82 731.53 707.06 726.20 593.62 488.79 986.99 769.18 392.05 332.48 175.28 486.67 859.98 191.67 292.06 260.61 592.94 527.02 624.49 180.14 420.85 497.89 443.41 529.80 570.59 674.02 393.92 273.28 525.92 946.29 559.51 747.91 253.69 265.83 615.81 571.82 276.36 685.11 515.69 635.38 562.24 815.38 693.16 558.05 787.26 364.00 599.07 578.91 141.92 638.27 692.21 398.09 654.96 468.60 858.32 833.01 531.56 697.89 290.57 258.22 583.77 776.10 666.42 700.06 283.95 749.34 202.97 359.16 641.55 314.59 629.44 742.84 537.10 384.86 208.56 397.24 124.71 651.80 89.61 668.80 712.93 241.48 345.07 503.18 466.48 323.75 449.24 635.03 265.62 399.09 514.95 484.77 219.91 755.88
360.43 708.14 428.79 1024.41 396.22 334.88 277.79 307.79 559.21 206.82 1094.46 1193.03 474.18 430.27 327.57 333.38 1095.70 509.07 343.75 311.83 366.28 1023.55 347.79 209.86 450.82 167.07 379.03 475.23 0.00 953.67 744.98 183.22 1045.06 1036.14 334.38 229.12 474.20 479.10 125.72 333.75 285.86 492.58 1063.45 314.77 153.38 195.14 317.35 1081.48 935.77 409.73 180.98 136.17 200.21 1044.66 247.31 68.26 172.42 362.71 289.64 981.88 477.60 245.49 228.56 122.78 757.99 405.07 242.96 446.80 460.80 108.99 649.25 395.27 1066.71 1039.20 423.35 1159.07 327.71 985.10 169.78 152.91 918.46 352.39 1061.88 1089.98 387.18 222.02 1124.50 524.69 625.89 212.02 425.24 313.15 148.09 64.50 175.21 1152.67 357.26 418.70 1116.74 1138.91 305.06 328.73 824.35 546.49 348.22 238.60 305.49 352.91 894.45 464.48 485.60 381.76 437.03 1048.95 130.36 331.58 381.65 302.65 973.12 551.60 297.99 126.42 230.83 148.10 330.71 65.03 487.47 106.44 381.47 352.49 452.97 1091.04 1017.23 317.31 1117.32 82.37 1110.04 153.23 1145.82 284.50 143.67 1166.14 502.08 934.63 229.85 427.48 1069.55 1075.67 210.14 991.29 96.02 1066.35 597.19 67.83 1173.12 372.61 430.43 1055.08 1148.57 1100.83 1145.47 548.85 1185.68 410.11 534.29 1086.96 337.78 965.77 1156.57 158.27 303.24 352.72 182.71 474.24 1120.40 536.01 1082.09 1082.40 453.42 435.30 278.04 264.44 318.57 161.64 1064.90 307.76 273.08 84.44 104.85 403.02 1210.40
729.35 511.71 594.11 238.39 649.62 739.81 917.42 1007.64 587.80 853.40 308.31 417.72 623.31 595.36 662.53 656.48 333.64 537.66 700.59 750.65 694.38 322.43 645.38 1085.43 635.80 1042.36 741.36 503.82 953.67 0.00 733.92 831.65 213.24 125.29 802.43 832.64 705.43 680.33 864.38 1169.77 780.52 1091.08 244.69 743.47 840.08 1062.92 689.71 185.97 406.98 772.63 1030.85 938.21 1014.13 372.54 1079.05 1005.56 977.94 1153.39 672.10 377.04 770.25 902.60 880.52 985.64 796.48 548.60 1067.91 659.02 1338.74 1008.61 691.10 628.31 245.87 285.23 702.38 401.56 781.28 201.33 991.99 924.70 486.37 670.62 334.37 207.28 667.14 982.44 353.27 559.30 518.38 844.28 619.55 706.91 927.63 983.26 933.87 331.78 696.33 578.75 227.71 315.90 1127.27 918.44 180.25 1322.01 1206.68 855.20 756.39 600.76 248.84 1262.46 629.54 717.40 764.43 381.92 952.50 1049.97 663.14 892.68 352.39 807.36 976.16 1011.39 1099.50 841.76 658.03 985.57 1355.86 986.17 1053.32 663.55 636.81 303.94 330.02 699.77 281.17 941.27 302.02 984.40 514.49 1039.31 983.53 283.44 679.46 127.51 950.78 613.75 254.88 289.52 835.49 308.34 894.08 354.50 1140.88 972.36 383.77 719.99 762.04 322.73 272.28 416.99 370.16 673.38 306.81 612.90 862.98 286.34 768.17 282.82 437.54 937.81 810.17 675.82 854.58 628.53 309.36 593.43 191.54 209.11 726.21 648.69 878.34 931.74 789.01 874.20 365.26 685.41 841.29 955.75 925.57 701.89 438.45
688.11 278.23 561.31 584.71 608.16 523.05 768.12 845.50 423.99 724.70 645.96 623.36 536.70 514.16 578.58 622.04 596.20 476.12 577.64 533.89 497.16 528.27 556.20 954.84 503.24 912.05 514.92 473.94 744.98 733.92 0.00 689.49 646.63 608.63 615.36 695.95 504.73 447.19 720.00 1057.85 611.72 874.32 576.21 552.86 694.60 940.12 483.05 629.58 326.94 497.54 925.96 762.96 881.99 442.53 970.69 813.24 828.72 1063.01 455.34 469.15 534.77 914.15 905.85 867.76 149.28 556.70 877.08 408.50 1196.58 853.97 254.20 480.81 726.66 544.30 442.60 521.90 893.20 532.59 908.54 779.22 273.04 518.09 551.64 717.31 513.52 820.82 524.46 738.26 512.44 681.56 625.13 643.42 840.21 809.48 858.60 671.17 542.97 527.49 839.08 661.88 1043.82 952.66 694.69 1291.47 1066.66 638.32 549.21 524.26 510.57 1070.17 665.61 463.70 533.94 482.59 847.27 860.19 637.17 807.66 385.89 901.92 774.24 871.40 975.81 703.23 496.41 810.01 1222.57 842.75 1044.80 574.37 683.98 572.84 537.62 483.01 633.32 777.61 600.37 887.39 684.89 975.88 878.30 777.30 750.66 620.53 919.13 588.41 574.65 647.87 680.81 504.05 749.70 961.72 1214.85 812.81 613.14 497.36 487.60 492.82 879.50 509.76 575.80 401.30 706.58 493.34 602.48 607.35 596.82 519.17 619.12 850.39 607.20 603.50 665.27 466.45 631.75 404.68 650.60 805.56 502.57 716.94 856.82 825.52 755.57 736.53 524.68 575.69 624.53 829.42 818.90 415.31 643.83
348.52 610.91 318.40 917.40 277.48 225.10 185.21 247.20 462.66 83.13 1038.97 1120.65 359.11 327.50 236.83 226.37 1030.39 414.22 220.21 246.43 296.73 966.12 223.37 348.82 342.71 281.47 305.80 417.80 183.22 831.65 689.49 0.00 938.05 929.13 294.53 99.41 407.95 389.91 79.80 421.92 192.27 480.81 1004.00 179.39 29.84 305.78 261.86 974.47 828.22 340.34 274.12 134.54 238.98 960.80 331.20 220.98 178.07 398.25 234.15 970.43 442.66 277.68 255.60 205.36 688.60 294.68 273.85 384.26 507.09 211.66 545.69 311.95 943.17 1006.53 356.66 1072.47 279.27 879.44 244.14 114.46 823.61 296.90 1004.45 981.76 300.83 311.15 1057.84 411.13 560.88 215.39 257.07 196.55 191.44 198.68 241.59 1079.19 248.76 324.83 1059.36 1041.10 379.42 292.85 717.34 656.05 449.55 237.28 140.28 242.52 816.54 512.56 402.25 326.27 364.89 956.95 196.74 367.77 274.64 185.31 879.89 421.89 301.99 214.44 332.15 41.09 257.84 174.59 566.82 154.52 424.25 241.54 382.93 1008.51 961.74 261.82 1006.37 121.86 1053.18 199.99 1062.50 354.46 227.77 1055.62 390.35 827.62 302.12 310.86 991.79 1020.18 96.16 986.45 100.02 960.93 576.42 175.41 1044.96 317.12 411.23 955.99 1043.15 1017.51 1073.09 434.85 1069.06 345.63 478.80 1031.47 321.05 960.93 1111.14 201.62 258.52 241.68 53.00 410.98 1010.71 468.01 975.08 1040.76 387.17 368.19 182.21 213.86 188.86 135.40 999.04 218.21 262.89 158.80 171.16 331.94 1143.87
821.33 594.86 767.85 104.80 724.25 888.30 944.61 1137.98 576.97 971.74 175.97 286.28 758.27 753.86 813.65 738.18 204.84 655.89 786.36 865.25 860.48 189.41 805.78 1198.63 690.70 1147.39 880.42 660.95 1045.06 213.24 646.63 938.05 0.00 87.95 946.72 904.92 796.70 730.27 985.12 1239.13 875.56 1246.20 111.67 855.73 917.54 1161.65 866.11 36.42 319.69 885.35 1140.50 1021.78 1151.73 353.62 1188.58 1105.44 1030.71 1267.89 851.75 246.38 861.52 1065.49 1069.13 1087.12 750.74 757.56 1188.65 752.75 1445.14 1073.85 782.37 746.12 102.08 135.01 805.92 299.78 994.52 156.29 1110.06 984.10 414.45 794.85 180.39 107.65 789.28 1098.19 218.95 724.06 558.84 979.65 733.50 775.88 968.09 1078.57 1018.24 141.14 865.04 727.41 229.42 141.52 1222.31 1103.39 220.71 1382.22 1347.63 960.47 894.84 808.15 292.44 1347.22 703.68 850.78 861.57 231.70 1044.29 1201.09 689.91 959.56 260.74 748.18 1137.56 1080.36 1154.35 896.96 843.16 1058.90 1448.85 1092.57 1241.93 799.54 755.73 210.82 179.80 854.89 106.79 1018.73 215.11 1067.49 359.98 1171.75 1056.89 183.81 715.42 218.78 1078.77 782.69 104.66 161.34 927.63 165.33 1014.82 323.43 991.33 1041.33 265.43 853.12 879.70 173.18 358.82 291.10 238.72 855.50 170.83 761.56 945.51 176.69 947.37 190.85 283.03 978.27 912.02 757.52 923.55 720.65 176.34 658.88 37.03 260.54 776.69 763.32 1036.26 976.25 833.52 1013.03 203.76 821.34 968.97 1024.72 994.54 778.63 328.80
740.90 514.61 719.40 113.10 774.91 839.21 1003.92 1074.92 619.77 964.89 202.92 292.43 748.60 700.87 787.82 781.77 208.35 662.95 825.88 850.05 798.03 197.14 770.67 1210.72 681.78 1149.39 806.23 629.11 1036.14 125.29 608.63 929.13 87.95 0.00 924.20 918.41 709.52 711.67 989.67 1230.21 905.81 1181.01 119.40 848.98 908.62 1152.73 796.03 79.22 281.69 826.64 1132.70 1012.86 1139.42 370.38 1183.86 1064.60 1021.79 1258.97 771.50 251.75 774.34 1027.89 1005.81 1097.17 757.91 673.89 1181.57 738.18 1416.93 1064.93 729.11 665.87 129.99 161.96 739.94 276.27 906.57 76.04 1117.28 975.18 432.17 728.13 209.08 139.03 776.89 1088.76 227.98 684.59 522.77 969.57 744.84 832.20 959.17 1010.64 1009.32 214.36 821.62 704.04 260.80 205.07 1213.39 1043.73 211.79 1425.02 1331.97 942.81 865.37 726.05 251.31 1383.15 615.73 768.19 773.62 258.65 1064.17 1175.26 755.86 999.62 227.10 836.13 1058.48 1082.36 1145.43 888.04 764.35 1049.98 1439.93 1083.65 1178.61 788.84 689.89 178.65 206.75 789.70 174.42 1009.81 176.73 1058.57 389.20 1162.83 1047.97 215.19 627.47 252.80 1069.85 739.04 131.61 221.71 960.78 183.05 1019.37 353.09 1034.13 1041.29 258.48 821.50 791.75 215.98 270.87 291.70 244.87 796.31 200.05 712.65 865.26 161.05 893.46 157.53 312.25 969.35 888.19 801.11 926.00 640.40 184.07 578.63 66.25 260.84 688.74 694.25 1003.63 1016.31 873.58 999.49 239.97 810.70 940.69 1057.90 1031.88 739.45 313.16
359.26 508.12 303.71 900.28 287.17 95.55 384.89 280.06 369.75 234.05 964.84 1019.79 312.92 254.83 225.25 243.75 911.83 336.27 209.12 81.47 159.22 843.90 237.47 468.80 283.26 441.04 129.03 348.85 334.38 802.43 615.36 294.53 946.72 924.20 0.00 293.80 260.07 281.24 224.76 583.79 190.42 400.38 918.04 192.57 290.32 435.25 138.71 910.30 768.52 160.92 455.47 385.33 310.80 907.54 500.08 308.37 441.76 641.51 160.02 858.89 213.16 508.14 486.06 363.53 509.18 279.82 366.64 243.13 679.23 387.79 444.64 258.33 931.22 875.48 219.08 964.18 527.32 848.16 413.02 374.94 745.66 215.27 867.27 969.81 226.86 305.69 929.89 439.38 483.71 122.36 315.67 274.90 435.81 343.64 432.71 1010.82 170.13 267.43 1030.14 990.28 548.30 569.43 753.25 795.65 567.47 147.42 154.25 227.83 734.13 587.95 407.44 180.25 184.74 881.06 409.16 377.65 292.02 424.36 820.44 584.78 228.69 403.14 475.26 310.90 170.39 314.19 766.27 348.67 649.84 219.30 400.31 897.70 853.25 156.05 980.69 366.92 916.00 432.03 957.81 501.25 391.45 1043.67 434.16 810.69 493.24 299.17 905.83 946.05 241.59 892.08 243.23 962.15 836.07 346.63 983.66 166.73 166.20 808.45 970.37 954.54 981.49 311.88 1043.56 238.45 241.13 922.98 34.26 910.87 996.74 445.99 36.01 224.41 319.65 343.72 947.38 379.19 954.57 1011.54 257.16 420.51 464.67 442.29 401.00 230.23 868.16 222.04 84.35 363.24 395.85 213.47 1022.61
344.96 605.71 288.80 857.77 246.48 235.38 168.31 346.61 476.13 132.01 1017.25 1094.35 281.61 291.20 175.80 221.17 1004.16 409.27 194.82 212.33 299.37 940.60 187.26 413.54 363.42 326.03 320.91 392.28 229.12 832.64 695.95 99.41 904.92 918.41 293.80 0.00 391.14 358.52 179.21 470.04 174.20 570.36 933.73 143.09 75.74 349.06 262.90 941.34 829.75 329.72 342.62 209.19 298.13 935.41 359.38 261.60 209.86 444.15 240.61 971.96 385.13 295.29 286.99 304.77 677.98 289.73 347.95 363.96 606.50 241.57 551.16 307.00 982.99 971.44 319.42 1033.02 301.82 896.83 320.05 160.36 818.66 277.01 978.70 1012.57 264.53 296.54 1032.45 384.90 529.90 253.31 258.60 129.04 222.80 266.15 239.74 1028.69 199.14 310.97 1060.35 987.00 433.13 315.35 760.62 681.90 548.96 275.20 182.20 237.57 759.91 575.28 420.42 332.73 375.17 920.65 249.64 429.47 215.01 130.56 852.75 415.30 376.09 259.00 389.79 84.37 256.71 200.44 592.67 253.93 459.79 199.12 368.60 983.12 944.59 257.66 957.21 147.71 1027.43 268.53 1057.55 393.25 280.67 1088.73 290.94 806.26 300.27 255.36 945.94 1026.64 134.08 939.41 174.12 958.66 619.70 232.88 1070.13 312.96 421.51 919.88 1040.88 974.78 1060.78 477.93 1013.56 312.02 479.84 1014.32 315.98 964.93 1082.71 232.98 300.44 218.56 46.41 398.31 998.40 431.71 941.95 1000.65 370.36 295.51 229.25 188.21 182.27 224.95 962.74 147.23 291.88 234.71 217.06 343.24 1123.19
362.22 390.48 256.89 747.70 276.28 184.18 474.22 406.96 292.60 398.04 884.93 951.31 259.16 181.21 215.34 290.81 846.20 254.54 253.40 207.23 130.07 763.31 237.72 611.55 177.35 609.62 151.45 220.70 474.20 705.43 504.73 407.95 796.70 709.52 260.07 391.14 0.00 129.37 393.34 718.98 283.37 512.72 828.92 271.46 382.41 601.23 174.23 788.74 642.40 158.30 628.33 492.18 528.07 778.77 649.60 474.35 530.75 750.82 184.56 784.61 64.82 563.28 585.36 529.51 465.55 211.38 513.61 114.85 768.27 556.66 275.45 163.00 839.51 827.14 116.71 754.80 529.96 695.58 597.89 467.03 663.93 159.86 801.64 848.55 181.18 455.40 838.37 405.35 347.41 331.69 292.18 263.71 530.62 512.22 580.77 893.18 216.85 194.54 928.72 866.23 723.35 635.74 646.89 965.28 699.26 274.85 267.67 198.37 670.25 761.35 332.70 100.23 75.62 798.05 505.31 524.35 277.11 513.76 696.10 573.89 360.48 568.19 641.24 380.27 203.66 514.53 915.11 510.20 758.16 254.53 380.38 829.52 786.81 156.89 856.18 470.15 850.37 556.26 913.55 675.86 536.34 924.71 445.35 577.92 613.91 256.07 841.13 887.49 380.79 802.59 417.43 884.09 838.66 529.16 906.51 155.68 111.99 760.11 966.31 813.04 903.75 128.35 909.57 160.39 173.39 856.54 225.81 777.07 868.46 540.80 253.28 277.61 394.49 200.64 841.37 192.99 775.77 914.54 20.78 391.05 532.58 531.62 420.72 395.41 768.20 243.91 285.66 512.55 482.37 89.42 876.73
311.24 308.72 175.06 625.47 231.22 185.69 440.53 513.10 226.95 399.55 793.02 846.20 175.73 137.48 209.16 245.97 775.14 148.03 215.09 208.74 148.45 714.48 231.54 620.17 93.92 611.13 178.37 176.51 479.10 680.33 447.19 389.91 730.27 711.67 281.24 358.52 129.37 0.00 394.85 720.49 312.97 553.10 762.67 254.11 405.46 628.15 172.02 732.01 582.35 185.60 645.43 490.53 544.63 718.82 643.42 501.27 516.84 767.90 189.46 713.61 187.45 564.49 542.41 538.87 336.18 179.09 540.53 38.69 874.74 560.94 268.13 102.48 832.35 746.06 87.66 734.85 523.78 635.63 611.73 484.11 557.42 164.74 730.58 817.31 132.67 481.84 735.52 334.98 254.15 344.20 253.78 280.81 521.47 506.03 571.62 808.31 209.44 148.94 799.35 754.70 717.17 604.91 563.91 959.10 730.11 301.77 270.51 147.39 583.63 759.14 308.47 127.15 182.09 680.92 499.13 551.27 245.21 480.07 566.73 515.67 430.23 576.68 646.13 396.97 189.14 516.04 920.23 511.71 715.21 236.90 329.40 700.15 713.76 161.79 789.43 482.62 744.66 588.82 853.03 682.88 530.16 870.12 384.28 634.75 612.67 207.56 750.46 801.49 387.81 709.47 424.55 872.96 855.76 546.26 782.97 145.44 228.43 679.03 924.30 726.17 798.64 125.23 843.72 149.26 238.84 768.56 254.43 704.43 792.30 511.29 269.84 226.63 386.22 71.27 749.46 133.04 756.41 836.48 132.76 340.07 494.27 497.93 386.52 418.13 638.83 237.73 287.17 529.65 499.47 106.12 840.22
390.05 640.64 321.22 937.97 329.55 209.16 265.01 259.67 474.39 159.77 1069.48 1156.61 395.33 342.66 201.85 277.32 1060.23 435.32 239.91 186.11 316.39 987.22 224.23 301.61 405.63 216.28 294.69 438.90 125.72 864.38 720.00 79.80 985.12 989.67 224.76 179.21 393.34 394.85 0.00 382.96 163.90 424.13 1030.52 222.76 103.50 266.51 275.23 1014.94 905.52 303.50 293.76 192.33 278.10 980.50 300.09 141.18 254.94 448.51 264.66 1030.05 411.28 295.67 293.06 182.33 651.76 315.78 203.53 356.73 519.46 194.79 581.75 333.05 1016.83 1023.88 377.21 1093.57 359.07 922.88 216.88 188.12 844.71 327.41 1015.67 1055.42 303.11 231.35 1077.54 488.43 581.98 142.42 334.37 263.58 211.05 118.88 239.71 1089.85 256.97 344.56 991.02 1040.60 352.16 372.65 797.14 602.65 369.75 172.28 220.06 263.62 831.70 499.54 460.81 323.24 348.95 1000.32 216.16 297.45 295.21 258.97 904.17 501.69 231.67 210.14 280.04 120.89 291.34 121.19 573.27 156.80 439.81 241.04 412.99 1028.21 992.25 284.66 1005.87 147.09 1064.40 239.03 1083.60 393.22 207.51 1129.28 470.15 865.94 298.64 352.81 1042.73 1050.69 127.33 1011.20 29.70 1038.23 650.54 153.63 1088.30 290.78 364.11 956.85 1120.45 1038.61 1120.49 468.03 1111.01 342.61 454.58 1061.98 259.02 1004.37 1110.34 221.23 236.92 296.66 132.80 447.42 1090.51 483.17 1022.15 1057.26 372.56 408.39 262.01 284.97 268.66 80.69 1015.36 221.00 203.48 170.24 202.85 349.92 1164.17
664.97 950.95 662.35 1148.35 622.90 534.80 456.87 490.35 821.37 414.52 1335.89 1384.93 734.19 682.19 550.51 566.41 1336.76 783.98 568.37 557.85 657.80 1312.04 572.89 280.04 706.07 166.68 615.01 763.72 333.75 1169.77 1057.85 421.92 1239.13 1230.21 583.79 470.04 718.98 720.49 382.96 0.00 546.86 705.73 1285.55 534.08 423.52 216.91 621.25 1254.89 1203.30 649.55 198.83 323.36 364.03 1306.02 116.25 335.50 323.27 220.00 602.51 1315.63 732.34 345.30 323.22 311.57 991.67 664.44 442.49 704.04 381.90 235.20 910.42 681.71 1322.64 1280.26 702.85 1380.04 478.97 1180.52 177.78 340.63 1193.37 654.52 1350.37 1284.05 650.73 463.84 1379.23 771.75 903.45 518.28 632.15 502.59 271.04 312.86 290.79 1331.19 597.22 693.22 1353.21 1277.58 42.50 395.61 1018.42 331.11 535.56 548.56 540.24 612.28 1171.23 512.86 763.54 650.03 674.59 1311.64 260.54 489.15 588.56 422.31 1201.90 709.75 581.62 217.77 198.71 412.09 622.76 269.60 258.63 324.64 341.71 589.70 699.98 1345.34 1312.27 610.30 1312.31 322.33 1360.36 272.96 1432.26 254.14 272.67 1360.21 741.74 1128.70 310.15 628.91 1273.34 1345.80 458.63 1232.35 412.66 1274.88 711.70 276.36 1428.16 638.17 720.93 1294.02 1339.93 1371.36 1406.63 785.73 1366.60 679.13 799.12 1342.44 618.05 1257.87 1361.85 260.86 613.18 585.75 429.22 787.11 1344.25 772.85 1276.16 1286.97 698.20 682.36 405.42 421.88 548.35 455.94 1284.02 576.16 546.96 263.12 283.93 675.56 1415.68
306.19 493.88 237.36 821.12 219.99 182.79 274.12 287.50 419.36 154.44 961.20 1020.92 272.19 206.97 117.99 190.21 948.98 351.46 156.05 169.96 217.96 881.05 140.37 420.06 287.02 380.18 244.91 339.48 285.86 780.52 611.72 192.27 875.56 905.81 190.42 174.20 283.37 312.97 163.90 546.86 0.00 518.12 894.83 58.86 171.76 397.03 151.65 911.98 782.24 244.03 373.64 276.00 378.44 879.99 454.78 270.15 295.99 522.11 156.38 903.49 348.19 398.93 382.48 325.31 592.29 231.92 363.67 284.98 683.36 328.07 434.99 241.97 953.63 907.54 285.65 961.97 432.61 831.80 380.78 238.32 713.11 204.20 904.42 977.58 180.30 365.96 967.04 383.30 476.88 167.57 229.24 99.68 301.53 282.78 347.64 989.79 138.72 205.25 1008.23 950.35 516.06 458.66 711.95 766.55 533.65 173.16 97.97 179.76 696.01 635.26 339.52 248.50 303.77 836.42 310.49 352.97 185.65 304.76 820.31 449.15 329.41 345.50 437.04 151.18 183.33 285.09 706.55 291.44 555.28 157.18 333.54 926.67 883.97 168.99 922.01 272.95 953.15 364.55 992.52 405.40 322.70 1053.74 427.55 748.51 395.87 197.56 907.04 942.41 110.33 875.51 189.84 919.55 674.63 304.43 985.90 224.29 334.12 845.60 1001.77 909.90 1012.21 370.16 955.76 195.85 368.59 953.70 202.18 901.03 1018.44 311.71 154.41 189.20 189.14 314.08 959.50 347.48 912.59 989.63 262.59 372.44 374.48 331.52 292.05 244.59 878.51 112.17 117.68 321.04 295.02 258.36 1066.74
673.04 808.63 572.47 1157.09 569.30 408.44 656.15 285.86 683.86 497.40 1223.80 1315.16 548.18 531.42 506.39 551.53 1229.19 686.56 541.28 431.49 440.28 1170.07 492.49 524.03 557.03 564.54 481.04 667.67 492.58 1091.08 874.32 480.81 1246.20 1181.01 400.38 570.36 512.72 553.10 424.13 705.73 518.12 0.00 1200.64 459.26 506.57 564.82 408.65 1224.41 1036.26 501.03 636.99 543.15 359.61 1145.15 648.53 437.94 608.20 801.24 418.98 1178.47 521.10 661.39 675.71 473.85 843.31 542.48 263.24 541.98 576.48 551.13 701.68 515.14 1281.24 1191.36 507.97 1267.52 748.19 1104.97 570.92 541.38 1069.02 452.88 1194.88 1289.69 488.99 402.47 1257.50 718.28 767.87 371.34 612.37 561.78 613.28 491.90 622.36 1282.01 451.27 518.79 1318.79 1257.49 706.20 756.88 1025.49 985.30 465.33 395.23 420.15 528.35 1001.82 547.34 682.91 471.59 437.10 1191.91 572.50 265.05 599.80 650.30 1094.21 866.35 194.59 568.56 507.02 485.99 438.08 503.84 801.52 440.14 780.84 490.17 708.09 1225.31 1146.57 391.31 1255.00 511.50 1239.38 595.37 1257.55 676.45 580.53 1365.85 727.61 1062.05 671.99 559.80 1212.85 1205.01 490.57 1181.32 396.56 1234.30 850.98 509.97 1297.77 446.61 483.44 1139.53 1316.52 1220.70 1274.81 629.55 1300.03 510.60 565.75 1216.30 409.80 1186.46 1267.12 615.59 410.73 541.66 523.95 603.58 1249.74 665.35 1241.24 1267.22 521.98 721.03 651.13 651.83 659.81 345.41 1191.93 498.08 432.40 526.58 584.44 480.68 1320.95
736.60 543.95 780.13 137.20 771.86 856.29 992.16 1120.94 645.05 964.66 83.52 174.61 733.40 687.86 828.67 800.62 112.39 659.90 848.54 861.22 850.94 77.74 806.29 1246.34 756.65 1190.00 863.22 626.06 1063.45 244.69 576.21 1004.00 111.67 119.40 918.04 933.73 828.92 762.67 1030.52 1285.55 894.83 1200.64 0.00 835.97 983.49 1227.60 794.24 138.78 255.59 877.06 1188.04 1087.73 1175.04 263.67 1249.69 1119.53 1075.45 1286.14 803.63 148.01 849.44 1054.97 1077.05 1134.73 658.29 734.62 1204.53 781.26 1468.52 1139.80 774.55 722.86 187.67 42.56 753.82 210.07 979.48 179.17 1197.74 1050.05 321.28 766.40 103.78 183.32 791.67 1086.97 126.50 642.01 578.76 999.78 796.07 865.93 1034.04 1110.97 1084.19 94.96 817.51 714.31 305.09 85.67 1288.26 1041.97 286.66 1484.58 1389.95 965.77 875.08 786.78 198.82 1381.36 700.87 818.61 812.02 139.25 1118.64 1216.11 779.96 990.73 246.46 826.66 1096.88 1122.97 1220.30 962.91 762.56 1109.58 1512.49 1113.59 1249.85 823.65 644.06 134.21 87.35 809.33 120.40 1081.44 108.14 1113.91 301.90 1221.68 1103.31 201.09 642.79 284.14 1105.60 767.98 12.21 102.31 990.07 72.16 1036.99 435.10 1093.69 1116.16 153.76 862.52 826.30 109.59 390.27 212.01 127.05 831.16 130.37 708.68 940.67 96.30 883.78 97.68 201.50 1024.69 918.39 819.96 970.35 711.18 64.67 681.76 109.22 326.13 808.14 709.57 1031.62 1013.74 871.01 1024.19 145.73 846.32 957.77 1114.77 1084.59 781.11 244.72
280.38 466.96 204.92 808.58 200.16 123.93 215.26 338.75 361.49 213.30 902.34 962.06 241.50 148.11 92.18 146.77 907.73 308.75 130.24 111.10 163.54 848.61 103.64 463.63 228.16 424.42 204.30 329.23 314.77 743.47 552.86 179.39 855.73 848.98 192.57 143.09 271.46 254.11 222.76 534.08 58.86 459.26 835.97 0.00 193.14 455.89 119.81 892.15 738.03 212.19 432.50 313.93 418.37 821.13 417.83 329.01 344.58 561.55 97.52 844.63 309.47 389.17 407.31 383.49 560.45 194.87 393.41 253.14 686.48 344.15 408.07 183.11 930.54 848.68 227.44 909.28 388.76 772.94 423.53 277.76 718.14 160.27 873.42 937.77 121.44 359.72 909.81 350.73 446.41 163.81 209.41 120.66 340.77 301.00 382.83 930.93 79.86 174.56 971.18 910.55 491.58 399.80 681.26 780.19 569.29 154.65 39.11 153.95 637.15 690.69 310.07 189.64 244.91 777.56 367.04 411.83 165.82 254.80 764.91 451.61 342.85 361.58 488.18 210.04 137.43 320.24 694.64 332.65 534.70 110.99 284.98 867.81 825.11 114.57 875.82 267.51 897.19 379.38 933.66 464.26 381.56 1013.93 403.15 691.74 439.80 196.33 848.18 883.55 169.19 816.65 248.58 892.63 695.61 332.30 927.04 169.87 291.25 814.91 974.85 851.04 953.35 356.73 954.53 168.93 336.75 894.84 214.75 842.17 959.95 330.59 157.35 166.11 189.50 255.22 900.64 288.62 873.69 952.58 250.68 346.63 340.78 272.66 243.49 226.43 819.65 63.61 161.72 338.19 331.08 200.15 1007.88
328.01 590.40 303.07 896.89 268.70 239.64 195.01 277.04 460.82 56.27 1042.59 1124.72 357.35 311.82 206.99 205.86 1035.42 435.56 190.37 216.59 312.00 962.82 199.42 349.75 312.87 281.93 315.71 414.50 153.38 840.08 694.60 29.84 917.54 908.62 290.32 75.74 382.41 405.46 103.50 423.52 171.76 506.57 983.49 193.14 0.00 285.27 266.97 953.96 858.06 333.98 266.92 145.40 268.82 930.96 318.19 211.82 151.44 368.41 239.26 996.93 442.60 247.84 225.76 235.20 682.24 291.48 303.69 387.21 536.93 197.47 525.18 338.19 913.33 999.07 338.72 1058.62 309.11 858.93 266.72 84.62 844.95 302.01 990.86 951.92 282.88 334.85 1028.00 432.98 565.16 186.18 286.91 177.00 170.93 217.88 221.08 1058.68 250.96 321.63 1067.79 1017.15 382.75 311.16 696.83 635.38 473.25 229.31 170.12 268.76 800.86 542.40 425.67 331.38 379.43 970.70 173.90 397.61 254.13 155.47 850.05 398.22 331.83 214.90 320.90 20.58 269.49 153.92 546.15 184.36 398.56 217.59 362.42 978.67 966.85 266.93 982.42 101.19 1039.59 192.79 1088.74 325.06 204.93 1025.78 366.68 807.11 281.61 292.77 971.28 1025.29 93.39 964.04 129.86 990.77 555.91 173.83 1074.73 321.26 425.77 932.04 1072.99 1043.75 1077.16 405.01 1050.97 330.23 483.91 1036.58 311.94 940.42 1116.25 177.80 288.36 218.01 29.33 418.93 1040.55 452.33 954.57 1049.19 362.97 344.52 212.05 184.02 165.19 161.16 991.75 222.97 242.37 181.38 141.32 311.43 1118.74
549.48 834.51 554.34 1124.63 512.81 459.25 381.35 406.70 680.15 264.54 1269.11 1355.29 618.03 541.34 468.36 449.97 1262.18 685.67 470.89 436.20 530.12 1206.93 472.56 64.48 586.74 50.23 523.98 658.61 195.14 1062.92 940.12 305.78 1161.65 1152.73 435.25 349.06 601.23 628.15 266.51 216.91 397.03 564.82 1227.60 455.89 285.27 0.00 498.49 1198.07 1087.14 520.45 157.24 216.51 263.80 1211.48 135.19 126.88 233.09 319.64 484.78 1177.02 615.11 271.02 252.85 182.04 868.71 557.85 301.58 606.82 353.41 117.55 769.29 576.34 1198.60 1205.68 582.83 1278.29 357.78 1097.14 70.93 220.79 1082.83 542.72 1245.26 1206.57 552.71 294.36 1278.96 670.05 794.11 367.01 515.99 405.11 229.37 162.54 199.50 1302.79 486.88 567.79 1257.53 1253.86 206.21 353.02 940.94 459.10 399.47 331.65 422.59 530.13 1030.38 484.37 644.73 501.00 597.31 1187.58 179.36 372.70 491.08 370.18 1091.09 639.38 393.92 106.96 62.62 264.69 525.85 189.99 357.12 232.88 357.73 454.39 606.53 1243.59 1210.39 481.15 1219.22 240.77 1285.78 166.91 1326.89 245.71 161.86 1282.73 640.00 1051.22 242.33 531.43 1215.39 1256.15 308.65 1157.77 281.88 1156.07 605.75 157.55 1294.06 504.55 601.45 1205.18 1233.88 1261.06 1338.63 635.75 1289.63 561.48 676.38 1278.15 469.51 1152.77 1344.37 237.14 460.94 469.31 302.65 648.45 1292.27 666.00 1198.68 1207.36 580.45 617.84 332.02 339.01 438.51 311.91 1182.27 458.73 394.72 156.27 213.01 555.54 1383.66
290.34 434.66 171.63 772.11 186.38 86.45 335.07 405.65 309.89 263.13 832.53 931.10 174.21 157.45 121.17 157.31 837.92 285.19 150.01 89.12 66.31 778.80 101.75 527.21 183.06 484.42 107.07 288.53 317.35 689.71 483.05 261.86 866.11 796.03 138.71 262.90 174.23 172.02 275.23 621.25 151.65 408.65 794.24 119.81 266.97 498.49 0.00 839.86 662.29 92.38 498.33 333.30 445.39 771.18 537.64 385.61 401.09 635.38 27.71 804.50 212.24 486.52 475.51 440.13 440.64 141.11 432.43 133.33 718.08 426.34 375.77 130.16 926.02 800.09 134.00 893.96 435.79 719.99 478.88 351.59 694.58 78.91 803.61 896.99 88.15 356.09 866.23 317.44 376.60 230.71 203.72 186.83 410.55 381.85 422.16 889.20 76.32 138.70 917.42 879.91 611.39 519.61 645.40 852.91 622.01 193.67 121.58 132.81 595.42 587.12 308.94 119.83 175.06 817.94 411.14 504.62 205.58 374.61 720.24 483.99 348.09 443.77 548.18 275.60 31.68 382.38 794.94 412.47 617.17 116.20 313.87 834.04 755.30 17.34 881.03 349.98 848.11 459.76 851.15 548.25 415.96 973.15 353.64 681.96 482.69 161.33 806.45 813.74 253.18 774.92 304.93 860.33 761.78 385.18 923.80 72.64 205.07 778.23 942.55 835.72 883.54 256.91 919.53 136.63 216.94 825.03 159.56 800.44 886.94 420.73 170.60 167.69 237.64 212.31 858.47 274.08 840.40 893.25 153.45 325.49 429.19 392.47 303.63 303.08 810.85 128.23 187.93 401.79 389.24 106.71 940.77
820.12 558.44 773.50 106.54 760.67 851.88 981.03 1119.65 540.55 956.16 174.25 271.65 721.85 744.70 840.90 774.60 188.79 619.47 822.78 828.83 825.58 172.21 831.35 1235.05 727.12 1183.81 844.00 624.53 1081.48 185.97 629.58 974.47 36.42 79.22 910.30 941.34 788.74 732.01 1014.94 1254.89 911.98 1224.41 138.78 892.15 953.96 1198.07 839.86 0.00 302.64 850.45 1157.38 1058.20 1150.39 334.69 1225.00 1108.43 1056.44 1304.31 815.33 209.96 853.56 1088.57 1066.49 1123.54 728.41 727.99 1172.14 770.70 1441.76 1110.27 772.94 709.70 106.42 110.87 771.02 292.49 967.25 119.87 1146.48 1020.52 381.07 771.96 195.58 144.07 796.52 1132.59 240.86 740.63 575.53 990.22 769.92 812.30 1004.21 1054.47 1054.36 177.56 865.75 758.14 265.84 129.93 1258.43 1104.41 257.13 1345.80 1361.72 933.38 862.93 779.13 256.02 1310.80 694.95 826.38 839.19 209.37 1080.71 1228.34 726.33 995.98 270.93 784.60 1102.66 1116.78 1190.47 933.38 808.18 1095.32 1484.97 1128.99 1239.29 835.96 769.11 226.01 155.66 833.10 95.20 1055.15 190.97 1083.25 367.22 1207.87 1072.65 215.41 706.69 236.48 1114.89 766.45 126.57 155.46 964.05 131.95 1044.64 359.85 954.91 1077.75 247.92 825.78 868.04 136.76 350.09 282.85 224.09 843.47 178.07 756.48 909.09 140.27 910.95 157.47 290.27 994.03 875.60 793.94 959.97 684.23 173.71 622.46 44.27 267.78 767.96 773.47 1053.96 1012.67 869.94 1049.45 196.47 857.76 941.82 1061.14 1030.96 743.73 292.38
718.07 288.36 666.53 257.77 622.91 703.10 869.44 911.85 519.35 866.72 334.57 370.87 620.44 589.92 703.67 663.01 269.26 559.23 711.19 724.68 678.74 201.33 689.65 1113.18 596.13 1072.22 639.49 539.02 935.77 406.98 326.94 828.22 319.69 281.69 768.52 829.75 642.40 582.35 905.52 1203.30 782.24 1036.26 255.59 738.03 858.06 1087.14 662.29 302.64 0.00 646.72 1065.33 953.75 1036.04 187.06 1113.41 962.39 951.80 1216.12 646.13 142.21 677.45 1023.21 1037.48 985.78 476.22 626.79 1001.65 620.85 1308.90 1002.41 581.14 624.92 409.06 232.91 635.82 287.37 920.39 205.65 1034.89 935.43 151.27 583.38 224.70 390.37 632.14 975.14 236.87 725.21 531.98 819.73 571.15 700.71 959.37 1000.27 1009.52 350.55 689.52 616.37 512.14 341.26 1160.80 1028.22 367.75 1449.41 1191.23 762.89 740.00 677.54 186.71 1249.41 730.69 588.27 676.62 155.65 969.12 1012.39 614.74 884.39 58.95 920.52 960.52 1005.19 1082.45 848.29 650.73 998.60 1376.95 982.74 1210.28 701.36 760.41 245.90 210.68 644.95 336.53 950.08 273.43 1008.72 367.80 1136.57 1000.15 456.68 738.93 308.04 1013.51 624.94 263.26 320.93 852.46 207.26 905.47 634.78 1226.90 966.16 305.13 653.13 630.28 165.88 552.56 229.13 323.31 635.82 385.96 586.39 736.04 280.41 762.22 192.23 316.90 969.55 761.25 662.41 848.38 511.18 304.81 449.41 326.64 508.77 621.62 772.61 957.03 901.08 758.35 892.05 197.74 713.16 804.58 949.55 919.37 662.50 362.33
364.39 470.94 247.37 811.07 260.43 120.07 427.45 368.96 309.90 293.98 924.91 989.58 264.04 189.20 213.55 249.69 881.62 333.63 242.39 117.39 78.25 813.69 194.13 556.07 194.65 519.78 34.54 302.89 409.73 772.63 497.54 340.34 885.35 826.64 160.92 329.72 158.30 185.60 303.50 649.55 244.03 501.03 877.06 212.19 333.98 520.45 92.38 850.45 646.72 0.00 561.15 425.68 399.70 819.67 603.59 432.57 468.02 702.39 120.09 788.93 129.66 570.34 559.74 478.40 348.26 224.03 427.56 188.01 771.87 498.29 283.72 174.90 956.63 845.27 134.01 913.10 528.17 764.73 520.38 418.60 695.06 144.01 837.06 930.27 180.53 398.20 883.59 385.60 423.86 215.00 296.10 254.24 502.93 422.38 514.54 937.14 168.70 197.10 984.95 883.53 655.66 611.99 664.64 881.18 617.14 188.80 204.89 207.11 678.24 676.85 312.95 58.45 82.68 802.37 483.67 465.53 254.54 460.28 705.67 558.04 360.03 513.64 583.07 354.56 124.06 424.69 861.96 441.31 700.48 208.58 387.11 867.49 823.04 109.72 918.26 417.00 885.79 526.77 925.45 592.91 484.09 998.95 404.74 722.88 575.07 253.71 875.62 906.12 297.84 853.98 317.55 925.43 786.98 457.13 923.81 72.24 129.02 778.24 1007.65 875.85 949.63 164.53 972.55 201.73 211.33 892.77 195.18 838.95 941.62 511.78 124.91 260.07 330.02 256.87 917.17 310.11 892.89 925.88 137.90 399.79 521.57 484.85 390.86 317.96 824.43 210.98 191.13 473.74 451.19 106.72 995.45
541.41 837.30 524.38 1050.84 484.93 466.81 318.90 474.73 707.72 307.42 1238.38 1287.42 596.22 565.80 441.96 452.76 1238.84 664.57 430.40 443.76 514.03 1179.05 453.42 211.30 568.10 107.01 552.34 630.73 180.98 1030.85 925.96 274.12 1140.50 1132.70 455.47 342.62 628.33 645.43 293.76 198.83 373.64 636.99 1188.04 432.50 266.92 157.24 498.33 1157.38 1065.33 561.15 0.00 190.39 338.34 1170.99 82.58 233.75 178.45 273.77 470.62 1162.86 658.58 161.95 150.33 251.90 909.41 555.89 373.75 614.38 410.19 101.05 782.54 557.82 1180.25 1174.36 593.59 1261.79 362.44 1083.01 127.03 202.66 1073.96 533.37 1217.38 1186.54 512.76 353.39 1262.46 638.71 765.48 382.54 494.18 364.62 173.53 179.79 124.66 1233.68 465.30 558.82 1252.60 1180.07 156.33 278.18 920.91 425.77 466.82 404.43 406.09 503.73 1054.84 504.12 629.39 551.85 606.60 1196.29 162.86 429.48 450.59 286.95 1067.75 536.86 478.97 83.62 129.97 277.94 511.69 172.57 359.39 243.05 200.49 446.56 583.13 1218.70 1198.21 498.29 1211.39 225.30 1254.46 74.13 1308.37 148.69 134.43 1262.70 616.10 1031.19 111.32 490.94 1175.83 1248.29 263.31 1134.43 277.00 1140.73 529.19 142.21 1309.91 523.94 611.41 1186.04 1141.10 1240.94 1315.09 671.93 1249.14 544.98 696.60 1244.93 489.73 1146.75 1327.87 163.35 484.22 454.14 296.21 627.23 1252.71 648.99 1177.53 1186.36 609.61 549.32 265.38 275.62 412.99 291.67 1165.77 413.39 433.71 139.26 145.96 568.79 1358.77
432.25 681.23 396.48 974.92 372.94 359.64 189.13 321.37 565.06 201.67 1112.44 1189.62 470.59 411.26 281.37 310.10 1117.83 514.84 319.43 361.99 384.26 1058.71 292.83 265.64 458.27 184.82 423.12 518.42 136.17 938.21 762.96 134.54 1021.78 1012.86 385.33 209.19 492.18 490.53 192.33 323.36 276.00 543.15 1087.73 313.93 145.40 216.51 333.30 1058.20 953.75 425.68 190.39 0.00 242.13 1060.02 228.60 105.21 123.51 348.73 307.62 1095.96 490.17 174.65 178.29 160.37 773.94 395.30 279.91 464.78 488.00 122.03 629.42 412.57 1058.73 1080.00 441.33 1138.59 283.16 963.17 145.58 67.71 924.23 370.37 1074.00 1066.70 381.48 335.26 1092.90 544.17 656.51 316.09 391.61 274.60 77.25 130.25 127.40 1153.50 304.71 416.54 1153.93 1104.15 280.86 280.92 801.07 552.60 482.69 337.98 274.82 343.14 900.30 457.73 499.42 399.74 455.01 1091.49 84.31 369.17 358.37 228.67 983.69 506.72 380.61 124.81 231.31 124.82 348.69 71.14 483.54 199.77 289.71 304.69 466.66 1043.57 1035.21 335.29 1069.52 63.70 1122.73 145.29 1163.12 273.14 115.34 1142.86 500.13 911.35 187.93 400.92 1075.52 1093.65 196.86 1058.92 216.74 1080.03 562.59 81.51 1156.16 390.59 443.00 1025.45 1151.72 1080.35 1142.06 550.41 1159.12 419.66 535.35 1104.94 398.50 1044.66 1184.61 87.43 380.22 329.44 162.78 492.22 1138.38 551.77 1058.81 1088.51 471.40 477.97 186.10 215.53 298.64 265.40 1085.16 252.80 314.00 69.17 55.94 415.67 1183.64
553.18 779.10 472.40 1127.38 499.19 358.94 420.56 222.32 666.35 292.47 1231.47 1290.77 546.51 487.18 364.98 436.35 1182.81 598.45 403.04 381.99 398.00 1114.88 368.75 248.48 567.23 261.68 396.55 602.03 200.21 1014.13 881.99 238.98 1151.73 1139.42 310.80 298.13 528.07 544.63 278.10 364.03 378.44 359.61 1175.04 418.37 268.82 263.80 445.39 1150.39 1036.04 399.70 338.34 242.13 0.00 1143.63 298.37 136.92 331.25 441.63 426.65 1097.67 484.14 366.03 352.83 155.97 747.96 478.91 96.37 507.76 408.11 276.42 683.42 496.18 1182.15 1146.46 495.12 1235.16 447.68 1086.01 211.31 270.72 1007.84 475.02 1138.25 1196.65 466.24 99.81 1200.87 650.11 745.11 337.25 496.05 399.39 268.63 190.88 299.48 1232.44 420.10 506.21 1241.84 1186.48 346.59 453.00 931.02 635.20 339.20 335.13 379.26 426.75 976.22 277.15 605.33 447.77 455.72 1152.04 297.79 132.68 484.62 400.88 1067.30 620.61 223.11 264.58 303.33 254.77 424.22 202.82 575.18 166.64 495.73 386.92 592.91 1168.68 1124.23 434.44 1151.75 212.36 1186.98 265.89 1228.79 420.36 279.51 1272.81 589.07 1010.46 360.01 498.69 1176.81 1212.68 335.14 1155.72 270.20 1199.91 741.31 235.26 1255.50 423.61 437.18 1079.43 1241.35 1201.74 1252.47 564.23 1197.03 501.89 512.11 1193.96 305.24 1165.98 1261.37 278.81 274.79 440.40 251.72 594.29 1218.36 627.69 1188.76 1220.19 507.29 566.91 350.62 416.39 387.58 224.85 1139.14 393.55 341.01 229.35 284.48 479.85 1293.59
814.23 446.74 766.43 325.24 710.27 811.99 999.31 1046.81 657.80 987.23 258.21 294.21 732.21 726.29 778.65 773.11 225.27 578.88 740.59 833.57 802.81 185.93 798.54 1184.88 744.70 1177.88 826.55 612.72 1044.66 372.54 442.53 960.80 353.62 370.38 907.54 935.41 778.77 718.82 980.50 1306.02 879.99 1145.15 263.67 821.13 930.96 1211.48 771.18 334.69 187.06 819.67 1170.99 1060.02 1143.63 0.00 1189.77 1112.92 1039.16 1299.37 755.02 169.00 835.83 1104.66 1126.74 1073.14 471.41 722.96 1176.88 757.22 1457.47 1108.07 664.64 754.53 416.67 252.84 730.54 138.47 1050.26 309.30 1140.55 1015.58 169.49 692.27 224.26 422.80 699.69 1080.57 222.04 651.80 599.82 949.66 758.21 806.37 1093.09 1089.86 1117.10 298.30 776.46 752.74 534.18 316.52 1263.52 1130.41 409.97 1412.60 1333.65 938.12 848.89 750.58 350.24 1358.30 724.45 775.33 835.00 125.32 1068.62 1166.09 744.61 1014.26 246.01 977.24 1084.59 1110.85 1215.62 951.54 756.16 1084.88 1466.58 1115.32 1299.54 799.67 729.31 211.18 209.43 753.84 322.72 1032.15 193.65 1114.38 249.26 1154.87 1099.65 346.71 757.15 392.33 1143.38 754.64 252.36 250.48 957.30 241.24 1010.20 630.55 1289.60 1071.82 274.80 809.14 788.66 197.93 618.03 167.75 246.65 794.20 333.71 744.77 872.41 248.26 889.49 227.81 224.20 1096.82 896.14 773.03 937.40 647.55 237.12 585.78 354.69 498.58 757.99 741.19 1019.77 1030.95 888.22 1003.22 149.86 807.22 913.47 1055.21 1025.03 757.83 260.40
571.92 873.05 553.63 1122.36 533.01 509.25 366.98 440.07 735.63 344.55 1271.56 1337.94 627.74 565.94 434.26 500.49 1277.25 667.73 472.32 486.20 581.37 1219.63 456.64 197.67 616.18 107.48 594.78 671.31 247.31 1079.05 970.69 331.20 1188.58 1183.86 500.08 359.38 649.60 643.42 300.09 116.25 454.78 648.53 1249.69 417.83 318.19 135.19 537.64 1225.00 1113.41 603.59 82.58 228.60 298.37 1189.77 0.00 262.07 252.48 205.37 515.35 1229.19 673.14 229.05 206.97 252.37 909.87 548.19 385.29 622.42 410.66 138.32 814.16 565.46 1231.52 1225.44 632.27 1299.06 398.30 1134.17 87.06 250.74 1077.12 562.91 1248.08 1237.70 535.52 395.24 1299.73 696.32 813.56 434.70 542.26 412.70 224.69 222.89 174.54 1305.20 489.38 576.97 1283.24 1251.59 73.75 286.43 972.07 362.36 497.63 466.84 443.36 496.03 1054.98 421.54 666.66 607.47 649.04 1195.39 144.29 429.95 498.67 369.53 1110.85 593.50 521.48 126.72 160.78 315.21 523.75 199.63 276.81 208.39 283.07 473.45 633.01 1260.62 1234.06 532.40 1238.28 252.36 1271.47 156.71 1316.01 137.89 175.32 1313.86 650.32 1082.35 193.90 539.02 1246.52 1288.99 344.45 1177.53 329.79 1178.00 595.45 179.48 1317.09 587.70 664.20 1189.26 1223.68 1268.87 1290.38 715.76 1297.22 575.02 741.21 1261.44 534.34 1203.05 1331.09 234.87 536.09 501.65 312.97 673.05 1228.00 682.13 1225.61 1217.00 628.82 609.13 347.96 325.50 448.83 339.69 1203.04 462.83 476.99 172.40 194.04 604.98 1384.92
428.69 751.20 445.35 1027.73 418.03 350.34 294.34 325.89 571.16 155.55 1142.23 1246.30 519.46 432.35 343.03 389.11 1163.96 576.50 381.09 327.29 434.54 1091.81 363.57 160.43 459.86 177.11 414.99 543.49 68.26 1005.56 813.24 220.98 1105.44 1064.60 308.37 261.60 474.35 501.27 141.18 335.50 270.15 437.94 1119.53 329.01 211.82 126.88 385.61 1108.43 962.39 432.57 233.75 105.21 136.92 1112.92 262.07 0.00 200.62 393.22 357.90 1050.14 521.53 259.85 237.77 55.16 780.83 456.96 174.70 497.91 439.49 139.50 673.86 463.53 1125.15 1107.46 489.18 1210.31 328.58 988.56 197.81 133.80 983.26 420.65 1130.14 1158.24 444.13 232.98 1170.79 566.97 685.12 280.28 459.12 363.79 182.46 53.96 184.42 1194.21 377.89 458.80 1132.20 1144.96 333.09 318.94 892.61 547.36 416.48 297.58 337.72 404.80 921.39 414.07 553.86 374.12 470.43 1078.59 160.87 263.96 415.53 295.31 997.04 569.20 356.97 150.13 166.89 216.36 398.97 65.90 461.39 106.00 394.92 345.40 512.41 1148.78 1085.49 385.57 1110.23 113.89 1178.30 183.74 1214.08 337.93 142.59 1234.40 552.54 977.81 244.95 428.40 1131.74 1143.93 199.66 1059.55 155.00 1096.86 626.25 98.34 1185.07 431.96 474.57 1096.19 1179.08 1152.07 1213.73 526.76 1186.60 453.17 549.50 1155.22 342.63 1034.03 1224.83 192.64 344.38 372.30 241.15 539.46 1184.20 572.86 1130.85 1083.27 453.57 503.56 283.51 279.47 363.90 220.62 1120.68 349.74 329.41 114.95 147.56 471.28 1278.66
432.85 723.78 385.05 949.90 328.89 391.08 148.26 379.24 558.67 207.71 1137.44 1186.48 459.16 445.94 315.41 339.24 1105.90 508.53 319.75 368.03 405.86 1023.01 337.79 297.57 464.31 193.16 467.15 474.69 172.42 977.94 828.72 178.07 1030.71 1021.79 441.76 209.86 530.75 516.84 254.94 323.27 295.99 608.20 1075.45 344.58 151.44 233.09 401.09 1056.44 951.80 468.02 178.45 123.51 331.25 1039.16 252.48 200.62 0.00 332.28 373.38 1093.28 551.79 103.50 100.42 247.25 816.28 429.34 344.96 486.67 496.34 143.56 658.56 414.36 1064.77 1081.81 472.10 1166.78 260.91 972.10 203.28 66.82 917.92 436.13 1061.34 1075.63 416.67 348.99 1123.96 508.90 625.35 337.62 380.65 286.23 62.62 170.04 77.94 1132.74 370.53 451.44 1097.17 1079.13 309.00 231.46 810.00 541.91 520.64 376.35 318.35 377.18 934.98 565.04 498.53 465.50 520.77 1067.63 117.32 438.88 363.23 162.25 972.58 453.51 454.27 126.13 248.88 153.96 404.90 149.23 522.04 277.86 273.22 354.60 431.39 1090.50 1046.51 401.05 1113.86 137.36 1110.07 107.30 1164.91 231.45 108.69 1151.79 496.70 888.67 138.47 392.06 1074.89 1147.35 244.83 1033.90 268.44 1084.51 439.08 146.45 1172.58 431.47 563.17 1058.46 1145.45 1119.92 1174.75 556.45 1150.26 456.17 618.03 1116.24 450.76 1031.60 1217.53 62.41 436.59 352.13 163.45 535.88 1126.49 564.30 1067.74 1030.93 509.97 429.92 163.85 107.86 250.59 294.54 1109.72 343.98 393.81 139.71 67.57 444.81 1230.57
549.54 940.75 671.48 1202.16 619.05 608.05 427.15 596.21 811.17 424.68 1352.85 1438.74 725.76 680.23 575.40 556.21 1338.85 791.91 558.78 585.00 680.41 1313.17 567.83 333.00 681.28 299.08 684.12 764.85 362.71 1153.39 1063.01 398.25 1267.89 1258.97 641.51 444.15 750.82 767.90 448.51 220.00 522.11 801.24 1286.14 561.55 368.41 319.64 635.38 1304.31 1216.12 702.39 273.77 348.73 441.63 1299.37 205.37 393.22 332.28 0.00 607.67 1315.02 811.01 253.24 272.87 402.58 1050.65 659.89 538.00 750.90 516.90 253.72 875.53 706.60 1281.74 1265.65 689.07 1414.46 449.19 1209.28 248.71 283.79 1201.30 670.42 1351.50 1312.81 651.29 536.52 1396.41 719.59 915.51 554.59 644.97 528.40 304.49 340.64 254.34 1381.10 601.31 685.80 1364.68 1331.39 177.50 331.20 1047.18 285.54 684.23 593.32 538.53 637.17 1155.29 626.91 674.71 699.79 740.90 1329.46 285.57 574.31 601.38 397.08 1218.46 582.65 635.80 271.15 347.38 370.93 637.90 327.32 416.37 413.76 121.71 586.00 642.08 1347.08 1306.04 635.34 1350.83 354.33 1345.75 304.87 1457.15 297.18 305.42 1388.97 696.12 1157.46 202.61 650.31 1296.00 1371.64 461.80 1286.16 458.73 1266.62 529.42 294.88 1421.93 689.67 787.24 1300.45 1322.35 1402.94 1413.19 773.42 1408.51 697.65 852.32 1338.12 675.77 1290.77 1478.09 314.67 656.77 575.55 397.74 787.34 1350.81 789.29 1304.92 1298.44 731.38 660.49 405.37 375.37 518.10 511.51 1318.44 591.38 604.68 279.56 311.48 661.78 1482.33
262.63 418.50 169.01 747.58 158.67 67.71 312.78 395.91 310.94 269.36 804.82 903.39 184.54 140.63 123.24 166.70 810.21 267.58 122.30 78.55 76.64 751.09 100.86 499.50 161.18 456.71 115.50 293.16 289.64 672.10 455.34 234.15 851.75 771.50 160.02 240.61 184.56 189.46 264.66 602.51 156.38 418.98 803.63 97.52 239.26 484.78 27.71 815.33 646.13 120.09 470.62 307.62 426.65 755.02 515.35 357.90 373.38 607.67 0.00 788.34 222.57 458.81 450.51 412.42 468.35 123.50 421.86 157.16 741.24 398.63 359.61 105.63 901.49 772.38 133.71 869.43 437.86 695.46 453.20 323.88 676.97 62.75 775.90 879.38 97.54 365.48 838.52 326.83 348.89 226.22 210.43 188.08 384.87 354.14 403.26 863.03 87.63 153.65 899.81 861.93 588.48 497.32 631.17 836.13 611.44 183.10 93.87 160.52 604.81 614.83 292.78 92.12 147.39 801.78 391.93 509.35 181.83 352.32 698.36 456.28 356.69 416.06 520.47 247.89 41.07 354.67 767.23 387.41 589.46 119.03 323.26 806.33 727.59 27.67 873.11 322.27 820.40 432.05 856.18 520.54 422.96 955.54 348.24 696.91 463.79 172.43 802.73 786.03 225.47 784.31 294.36 844.17 763.03 357.47 902.15 82.97 193.73 772.39 926.39 811.19 855.83 259.21 898.44 120.47 244.65 797.32 141.48 776.95 876.99 395.05 151.86 172.69 209.93 184.60 830.76 246.37 837.75 881.21 163.78 353.20 401.48 370.18 300.23 281.19 802.52 120.35 169.19 374.08 363.56 113.38 930.82
786.89 430.57 779.94 195.84 764.39 845.31 1011.65 1054.06 607.28 982.45 208.96 250.89 718.02 732.13 828.20 805.22 137.90 652.43 853.40 866.89 814.55 70.27 805.82 1191.74 684.06 1148.95 781.70 618.59 981.88 377.04 469.15 970.43 246.38 251.75 858.89 971.96 784.61 713.61 1030.05 1315.63 903.49 1178.47 148.01 844.63 996.93 1177.02 804.50 209.96 142.21 788.93 1162.86 1095.96 1097.67 169.00 1229.19 1050.14 1093.28 1315.02 788.34 0.00 819.66 1140.09 1150.13 1104.66 586.11 743.70 1143.86 710.85 1442.68 1090.87 723.35 756.64 301.01 137.18 717.43 179.04 1062.60 175.71 1151.66 1072.09 293.48 725.59 108.60 307.14 774.35 1117.35 170.91 658.58 619.91 950.16 713.36 842.92 1056.08 1046.38 1106.23 242.97 795.14 713.55 428.91 229.01 1286.94 1068.61 308.70 1528.37 1330.10 905.10 882.21 793.87 274.64 1374.82 661.72 730.48 775.63 67.07 1111.33 1154.60 756.95 1026.60 146.88 894.96 1060.49 1108.30 1212.71 984.95 792.94 1046.91 1469.35 1088.32 1322.93 823.99 735.88 121.92 93.77 787.16 207.06 1064.25 157.33 1135.11 225.59 1259.74 1125.55 344.43 788.23 276.67 1112.41 760.51 160.22 214.16 994.67 118.22 1030.10 523.68 1164.87 1049.71 216.55 795.34 772.49 73.20 522.62 140.55 220.41 778.03 269.63 728.60 878.25 163.50 847.39 94.22 174.69 1066.26 822.88 804.62 990.59 653.39 173.75 591.62 254.23 419.73 763.83 747.97 1036.89 1017.96 900.56 1021.90 83.02 845.85 889.10 1066.32 1061.58 744.72 228.52
427.04 389.09 269.17 812.52 325.33 223.79 524.73 460.13 357.42 416.82 932.96 978.16 298.28 246.03 280.16 317.64 887.95 319.36 315.36 226.01 145.93 820.02 274.45 619.93 242.17 565.66 164.20 285.52 477.60 770.25 534.77 442.66 861.52 774.34 213.16 385.13 64.82 187.45 411.28 732.34 348.19 521.10 849.44 309.47 442.60 615.11 212.24 853.56 677.45 129.66 658.58 490.17 484.14 835.83 673.14 521.53 551.79 811.01 222.57 819.66 0.00 571.66 593.74 542.43 407.04 276.20 522.22 177.14 776.65 585.55 298.84 214.41 904.33 851.60 140.34 819.62 594.78 760.40 616.03 527.22 701.39 224.68 843.39 913.37 246.00 455.93 903.19 470.17 412.23 304.66 357.00 321.92 567.42 530.16 594.85 891.79 254.86 259.36 986.80 931.05 746.89 659.37 709.18 989.80 707.64 283.46 302.38 263.19 650.62 761.29 397.52 165.05 84.00 833.10 570.13 535.77 341.93 515.69 736.05 609.78 368.86 600.90 629.42 445.09 237.44 511.95 923.92 530.97 766.54 256.28 445.20 873.82 829.37 194.90 921.00 486.01 892.12 621.08 960.04 645.61 573.75 989.53 504.04 642.74 622.29 310.76 861.65 948.95 396.65 830.12 381.58 948.91 896.87 544.39 960.64 171.54 47.17 784.57 1019.64 877.86 957.61 151.74 927.20 225.21 145.39 899.10 178.90 841.89 930.75 577.60 244.74 335.63 431.54 258.72 906.19 257.81 840.59 979.36 85.60 455.87 594.54 573.34 470.60 387.68 826.28 298.07 263.40 559.34 540.48 154.24 941.55
464.76 796.79 471.11 988.25 432.39 487.48 173.91 456.85 662.17 303.15 1114.07 1216.26 545.22 524.75 402.13 412.25 1100.27 612.03 364.07 464.43 509.36 1079.32 424.51 335.50 521.22 235.00 562.59 578.19 245.49 902.60 914.15 277.68 1065.49 1027.89 508.14 295.29 563.28 564.49 295.67 345.30 398.93 661.39 1054.97 389.17 247.84 271.02 486.52 1088.57 1023.21 570.34 161.95 174.65 366.03 1104.66 229.05 259.85 103.50 253.24 458.81 1140.09 571.66 0.00 22.08 299.86 884.22 505.27 434.55 525.80 515.15 185.40 738.97 511.96 1148.47 1012.41 497.11 1204.32 287.31 1006.88 200.09 170.32 1021.42 510.24 1100.54 1109.88 461.48 417.28 1157.05 513.63 728.85 398.85 452.06 384.42 97.40 232.23 75.43 1149.93 414.64 533.79 1111.44 1117.48 302.80 228.95 844.78 463.57 567.39 435.35 417.96 463.90 1013.79 601.61 577.64 550.93 487.66 1148.36 166.33 454.78 408.47 179.78 1058.40 408.61 516.09 167.97 283.66 247.75 472.21 193.95 457.52 322.58 194.88 423.15 520.09 1130.97 1057.20 474.60 1133.32 199.18 1092.51 125.96 1262.51 180.87 143.60 1186.04 488.40 955.06 50.63 458.71 1042.76 1120.63 294.23 1060.32 325.37 1092.58 410.56 188.96 1168.69 529.90 534.00 1079.44 1071.56 1213.08 1168.70 652.85 1185.34 503.93 616.31 1084.88 524.61 1045.87 1251.71 100.76 518.67 431.59 248.88 580.91 1118.32 588.49 1094.14 1045.20 572.54 424.24 190.25 122.13 264.86 315.98 1125.74 427.45 459.91 205.57 171.07 524.40 1229.09
479.03 816.16 449.03 998.41 429.31 465.40 192.05 460.49 659.09 281.07 1136.15 1234.99 523.14 523.07 415.83 431.62 1110.81 608.95 386.15 442.35 506.28 1101.40 425.18 317.33 538.63 212.92 540.51 575.11 228.56 880.52 905.85 255.60 1069.13 1005.81 486.06 286.99 585.36 542.41 293.06 323.22 382.48 675.71 1077.05 407.31 225.76 252.85 475.51 1066.49 1037.48 559.74 150.33 178.29 352.83 1126.74 206.97 237.77 100.42 272.87 450.51 1150.13 593.74 22.08 0.00 277.78 878.59 494.54 412.47 503.72 493.07 163.32 750.94 514.78 1126.39 1034.49 519.19 1226.40 301.58 1010.52 197.84 167.24 1018.34 513.26 1122.62 1087.80 483.56 395.20 1179.13 491.55 725.77 390.61 466.33 386.65 101.04 210.15 53.35 1172.01 436.72 515.42 1108.23 1127.64 280.72 206.87 848.42 441.49 576.78 413.27 395.88 477.60 1012.11 584.80 555.56 542.63 509.74 1162.63 144.25 476.86 422.74 194.05 1073.00 386.53 519.73 145.89 276.68 246.34 483.76 171.87 479.60 300.50 172.80 443.35 498.01 1153.05 1079.28 478.18 1111.24 202.82 1114.59 103.88 1265.33 158.79 121.52 1163.96 468.94 958.70 70.26 472.98 1064.84 1142.71 272.15 1077.98 322.76 1070.50 388.48 189.28 1190.77 531.89 556.08 1101.52 1049.48 1220.34 1190.78 630.77 1187.33 526.01 638.39 1106.96 516.37 1060.14 1237.81 110.92 496.59 429.26 240.58 558.83 1140.40 610.57 1072.06 1059.47 588.73 402.16 204.52 136.40 279.13 338.06 1147.82 422.23 442.55 197.24 167.99 537.19 1251.17
466.83 806.36 419.03 1039.97 362.87 376.86 349.50 270.73 592.65 210.71 1197.39 1247.84 493.14 487.51 384.18 425.71 1139.88 542.51 422.24 367.94 489.06 1056.99 377.64 143.46 515.02 144.89 443.86 508.67 122.78 985.64 867.76 205.36 1087.12 1097.17 363.53 304.77 529.51 538.87 182.33 311.57 325.31 473.85 1134.73 383.49 235.20 182.04 440.13 1123.54 985.78 478.40 251.90 160.37 155.97 1073.14 252.37 55.16 247.25 402.58 412.42 1104.66 542.43 299.86 277.78 0.00 826.66 464.54 225.91 538.56 384.33 160.48 712.01 478.35 1148.53 1123.90 524.68 1200.76 368.59 1021.13 195.26 188.96 951.90 475.17 1095.32 1158.65 476.70 255.78 1157.94 568.69 659.33 273.25 414.63 371.86 231.91 86.53 224.43 1219.65 420.97 483.53 1173.35 1169.20 326.12 351.51 922.70 587.37 371.67 303.43 344.38 445.95 976.55 408.88 539.62 429.28 516.65 1101.61 181.85 208.80 397.21 350.47 1006.56 624.36 339.80 177.91 208.65 246.45 445.06 105.91 471.92 50.84 387.08 394.20 520.37 1124.48 1080.49 440.09 1159.03 158.64 1144.05 204.72 1228.90 340.37 175.16 1234.81 581.07 922.65 277.97 426.04 1146.94 1198.45 254.82 1114.07 160.85 1117.84 648.68 119.32 1206.56 472.61 495.26 1092.44 1200.06 1175.09 1208.73 564.91 1184.24 508.33 604.66 1150.22 397.79 1088.55 1173.54 224.94 368.07 425.63 258.36 578.70 1160.47 598.28 1124.15 1123.28 508.73 558.08 338.67 319.48 394.22 194.21 1143.70 372.59 324.31 123.02 179.68 509.50 1227.37
635.10 311.75 511.24 718.96 531.14 468.33 767.72 717.22 395.63 642.24 703.23 749.30 504.83 436.24 545.34 582.15 664.28 412.62 551.27 465.65 426.51 617.71 542.39 904.33 430.10 824.99 382.80 385.34 757.99 796.48 149.28 688.60 750.74 757.91 509.18 677.98 465.55 336.18 651.76 991.67 592.29 843.31 658.29 560.45 682.24 868.71 440.64 728.41 476.22 348.26 909.41 773.94 747.96 471.41 909.87 780.83 816.28 1050.65 468.35 586.11 407.04 884.22 878.59 826.66 0.00 477.40 775.82 374.87 1098.86 846.55 348.45 438.66 779.62 655.80 423.84 609.88 859.96 681.87 822.81 766.86 422.32 492.27 619.72 741.03 468.85 746.46 651.29 640.48 393.51 563.26 516.55 602.50 851.19 770.64 862.80 753.25 516.96 462.69 862.80 743.96 958.09 941.09 616.23 1229.44 965.40 537.06 553.15 483.57 648.02 1025.11 577.01 406.71 406.21 519.04 831.93 813.79 560.14 806.19 535.17 828.75 691.07 861.10 888.75 702.82 472.32 772.95 1183.25 789.57 1048.74 556.84 649.04 609.29 611.01 457.98 749.67 765.26 638.67 875.03 720.67 941.17 832.35 742.77 641.71 695.95 923.33 527.26 646.08 695.50 646.10 634.96 665.81 1009.76 1135.24 805.39 668.52 420.50 359.87 591.65 1001.85 592.52 701.74 360.10 788.66 457.06 474.75 680.46 491.81 621.53 695.61 847.47 473.17 562.81 678.28 357.50 671.76 295.73 748.41 905.44 462.88 618.93 830.45 825.12 703.75 666.22 561.13 559.24 539.39 805.46 799.45 442.30 731.81
205.63 362.33 45.51 723.71 101.67 191.21 374.86 459.04 187.44 323.56 818.14 860.71 95.30 46.76 113.93 107.88 773.88 144.08 151.99 202.05 145.78 705.95 128.73 542.52 114.60 532.06 192.76 177.92 405.07 548.60 556.70 294.68 757.56 673.89 279.82 289.73 211.38 179.09 315.78 664.44 231.92 542.48 734.62 194.87 291.48 557.85 141.11 727.99 626.79 224.03 555.89 395.30 478.91 722.96 548.19 456.96 429.34 659.89 123.50 743.70 276.20 505.27 494.54 464.54 477.40 0.00 519.31 154.07 795.12 465.71 303.44 81.76 794.47 737.53 155.83 802.33 425.81 671.59 525.65 376.10 553.47 122.02 729.32 755.88 118.54 433.84 791.94 255.04 301.40 295.68 118.94 191.47 443.51 434.66 493.66 829.58 147.73 30.15 776.31 820.29 621.94 510.28 536.85 863.87 658.08 306.60 207.79 52.16 535.80 728.23 197.26 168.80 265.11 743.11 403.90 501.37 120.16 344.08 647.84 386.12 427.56 483.14 550.90 293.16 109.43 436.97 825.00 449.20 667.34 141.67 222.16 759.75 715.30 151.17 823.19 392.67 778.05 484.27 832.31 587.65 434.93 832.04 301.44 573.41 518.93 65.15 746.83 834.88 292.58 715.30 345.48 788.00 743.72 446.41 801.35 171.39 299.09 670.50 820.88 787.32 843.54 282.15 823.35 64.30 358.05 785.03 245.73 740.82 858.60 453.69 261.57 127.22 311.31 131.64 799.29 187.27 740.14 757.71 227.08 234.66 421.84 383.14 240.41 325.60 730.21 142.50 292.69 440.31 410.13 155.34 899.82
593.58 828.69 524.75 1141.50 531.57 366.36 445.89 162.55 631.59 325.43 1226.68 1325.25 563.45 516.67 405.38 468.73 1232.07 628.31 443.44 343.31 403.50 1172.31 425.60 325.11 573.28 301.30 449.36 630.81 242.96 1067.91 877.08 273.85 1188.65 1181.57 366.64 347.95 513.61 540.53 203.53 442.49 363.67 263.24 1204.53 393.41 303.69 301.58 432.43 1172.14 1001.65 427.56 373.75 279.91 96.37 1176.88 385.29 174.70 344.96 538.00 421.86 1143.86 522.22 434.55 412.47 225.91 775.82 519.31 0.00 513.26 471.13 287.89 699.91 527.49 1193.06 1194.24 500.62 1268.41 503.28 1117.32 307.68 278.14 1037.70 484.61 1195.68 1231.65 503.99 139.23 1238.52 684.45 745.55 295.60 530.92 460.37 357.16 228.66 359.12 1284.89 437.48 496.51 1194.55 1237.02 442.96 493.64 991.19 722.06 242.83 238.76 354.30 467.15 1005.71 372.62 662.18 413.38 506.15 1157.30 309.26 93.92 498.74 439.65 1060.60 695.74 253.82 305.32 243.78 314.94 458.04 240.60 538.28 176.90 561.97 437.46 606.94 1226.11 1149.45 441.86 1202.29 288.59 1242.26 332.13 1277.51 413.21 317.29 1305.51 638.89 1039.77 408.75 546.77 1216.74 1207.89 281.32 1156.23 173.83 1234.78 776.09 246.73 1245.50 411.66 508.24 1136.86 1224.19 1213.12 1277.69 592.09 1293.40 530.66 545.43 1219.18 386.33 1181.75 1266.87 352.35 330.63 488.07 326.85 606.46 1252.62 650.00 1216.41 1257.97 492.83 611.92 446.99 429.10 462.71 239.45 1179.36 385.57 301.83 263.34 322.26 485.35 1320.70
305.59 347.41 152.81 664.16 208.97 169.24 410.36 477.02 239.18 361.43 831.71 884.89 198.34 107.31 188.16 228.55 786.41 186.72 225.48 170.62 109.76 703.52 210.54 581.48 116.53 573.01 173.07 155.20 446.80 659.02 408.50 384.26 752.75 738.18 243.13 363.96 114.85 38.69 356.73 704.04 284.98 541.98 781.26 253.14 387.21 606.82 133.33 770.70 620.85 188.01 614.38 464.78 507.76 757.22 622.42 497.91 486.67 750.90 157.16 710.85 177.14 525.80 503.72 538.56 374.87 154.07 513.26 0.00 836.05 539.94 286.21 72.31 836.26 770.43 70.28 773.54 502.78 662.14 573.61 467.11 596.11 134.57 741.85 797.67 160.38 471.77 774.21 357.59 292.84 327.75 246.60 285.75 482.78 475.61 532.93 847.00 209.65 133.76 838.04 793.39 696.17 589.31 532.04 934.41 703.51 275.17 251.03 141.74 596.35 720.45 291.40 139.36 143.40 719.61 478.13 563.48 243.31 449.90 605.42 493.42 391.54 546.51 625.13 379.97 165.01 477.92 894.80 495.26 676.52 225.53 307.71 738.84 727.02 150.67 828.12 449.84 783.35 561.82 822.86 646.14 509.16 873.83 387.29 642.32 573.98 194.40 789.15 840.18 351.07 748.16 386.43 842.79 860.70 510.36 821.66 135.37 189.74 714.51 885.61 764.86 837.33 163.92 882.41 119.09 272.05 796.75 274.27 743.12 753.61 472.60 232.97 209.21 367.09 109.67 788.15 171.44 789.78 859.09 94.07 334.42 503.83 467.76 372.47 400.75 677.52 216.73 270.72 526.97 500.36 89.12 807.44
821.23 1020.54 782.96 1380.06 747.20 715.38 644.60 570.28 938.59 590.22 1527.62 1573.90 735.12 805.85 721.31 733.46 1480.72 888.45 727.30 703.23 760.79 1402.93 701.18 305.28 816.93 303.18 770.92 854.61 460.80 1338.74 1196.58 507.09 1445.14 1416.93 679.23 606.50 768.27 874.74 519.46 381.90 683.36 576.48 1468.52 686.48 536.93 353.41 718.08 1441.76 1308.90 771.87 410.19 488.00 408.11 1457.47 410.66 439.49 496.34 516.90 741.24 1442.68 776.65 515.15 493.07 384.33 1098.86 795.12 471.13 836.05 0.00 387.64 996.25 819.04 1450.26 1442.89 799.99 1523.07 641.47 1340.89 353.55 513.02 1297.84 796.99 1440.98 1488.85 773.05 507.92 1503.60 918.22 1005.27 556.87 764.16 674.69 499.46 406.29 462.75 1522.38 696.28 802.06 1510.48 1482.57 339.40 616.27 1224.43 570.93 228.30 598.68 647.37 749.61 1294.89 130.96 873.93 773.30 692.65 1434.80 449.45 390.26 760.66 658.59 1306.26 879.60 479.01 370.21 366.94 548.18 749.76 454.54 313.37 435.17 610.68 683.01 890.02 1470.42 1398.10 735.42 1447.84 463.86 1489.71 449.53 1569.23 498.66 425.11 1562.71 897.44 1240.33 504.16 776.84 1456.31 1527.27 603.25 1421.02 535.14 1422.84 875.84 424.32 1552.05 771.58 738.99 1395.08 1505.06 1508.28 1526.34 885.10 1486.97 785.03 821.30 1467.83 682.63 1422.38 1557.87 503.73 681.62 748.77 560.09 897.12 1501.27 935.58 1482.17 1454.16 777.53 875.28 614.64 604.20 695.95 469.52 1452.36 705.30 615.40 425.85 497.99 824.79 1610.49
469.42 741.96 461.46 1009.49 422.01 389.86 278.86 384.00 617.13 218.52 1197.03 1246.07 523.18 464.75 351.78 362.17 1172.65 585.25 367.48 380.90 461.49 1116.13 374.16 182.03 510.34 84.46 475.39 567.81 108.99 1008.61 853.97 211.66 1073.85 1064.93 387.79 241.57 556.66 560.94 194.79 235.20 328.07 551.13 1139.80 344.15 197.47 117.55 426.34 1110.27 1002.41 498.29 101.05 122.03 276.42 1108.07 138.32 139.50 143.56 253.72 398.63 1090.87 585.55 185.40 163.32 160.48 846.55 465.71 287.89 539.94 387.64 0.00 681.49 482.98 1110.80 1116.15 495.03 1160.74 315.43 1015.24 104.08 125.38 994.64 461.38 1154.46 1118.77 448.71 301.97 1161.41 585.32 702.56 321.01 431.26 301.70 111.82 113.60 109.97 1192.33 396.05 478.08 1157.21 1138.72 212.07 263.49 853.14 500.68 451.40 347.59 305.04 413.55 953.79 456.34 528.34 490.75 529.65 1106.81 61.81 369.28 387.67 278.88 1001.56 549.85 406.98 17.43 148.22 176.89 422.60 73.60 378.48 176.86 301.54 390.97 518.73 1126.04 1126.22 426.30 1155.80 126.33 1170.55 97.83 1233.53 249.74 70.17 1194.93 532.51 963.42 170.50 428.02 1127.59 1184.66 229.90 1068.24 205.01 1039.68 488.20 41.16 1208.86 481.60 539.42 1106.78 1121.90 1152.06 1224.53 589.73 1186.22 443.93 628.92 1188.62 422.05 1074.76 1226.82 122.00 412.23 381.51 195.16 571.86 1175.35 562.59 1110.88 1090.97 546.34 505.98 255.69 221.46 326.65 270.63 1064.72 374.83 350.96 52.86 111.56 467.74 1266.11
489.85 419.54 339.68 705.19 385.89 403.79 590.44 640.85 250.38 518.31 800.60 845.47 282.50 259.96 379.90 411.32 744.85 267.37 379.00 397.32 359.36 769.99 372.28 806.02 316.87 765.95 318.26 240.09 649.25 691.10 254.20 545.69 782.37 729.11 444.64 551.16 275.45 268.13 581.75 910.42 434.99 701.68 774.55 408.07 525.18 769.29 375.77 772.94 581.14 283.72 782.54 629.42 683.42 664.64 814.16 673.86 658.56 875.53 359.61 723.35 298.84 738.97 750.94 712.01 348.45 303.44 699.91 286.21 996.25 681.49 0.00 285.92 859.10 750.30 309.26 744.01 694.52 653.07 745.55 591.74 495.15 296.86 789.41 837.79 322.13 681.92 778.66 484.10 258.24 498.72 370.93 422.34 654.95 695.88 705.10 811.16 389.61 273.29 851.53 757.55 867.92 768.82 596.37 1129.84 885.73 472.52 430.30 342.25 684.92 888.28 411.45 334.12 339.55 736.79 669.87 605.99 414.52 627.30 640.09 663.15 609.32 698.92 816.87 504.60 364.21 663.23 1059.97 661.17 919.13 354.11 464.73 819.84 784.82 358.43 792.28 625.15 776.47 712.75 830.77 832.18 700.90 872.97 496.46 563.59 765.63 348.37 780.65 781.81 537.36 702.39 595.97 962.84 997.29 657.85 858.22 355.96 321.56 747.02 963.38 731.87 797.91 147.10 846.57 239.14 436.44 793.37 411.45 727.91 873.32 665.13 408.63 406.27 542.45 212.25 794.10 150.48 795.36 900.21 254.67 473.68 658.18 647.84 543.85 554.65 778.88 406.00 474.85 660.21 641.00 323.90 865.94
233.28 344.81 127.27 641.95 153.33 173.34 338.05 416.80 256.04 311.80 806.38 848.95 128.39 35.00 131.20 156.24 801.25 193.09 169.26 184.18 155.43 737.25 153.43 559.79 72.58 541.23 140.36 204.56 395.27 628.31 480.81 311.95 746.12 665.87 258.33 307.00 163.00 102.48 333.05 681.71 241.97 515.14 722.86 183.11 338.19 576.34 130.16 709.70 624.92 174.90 557.82 412.57 496.18 754.53 565.46 463.53 414.36 706.60 105.63 756.64 214.41 511.96 514.78 478.35 438.66 81.76 527.49 72.31 819.04 482.98 285.92 0.00 795.86 735.57 74.07 763.80 445.82 589.83 549.93 422.81 602.48 62.26 760.62 774.55 111.02 422.89 810.47 291.74 355.22 312.95 174.29 226.42 476.98 451.93 492.30 817.82 156.05 61.45 856.02 771.18 639.21 522.59 542.57 881.14 675.35 288.73 199.50 69.43 524.04 717.28 219.09 116.68 212.99 738.30 421.17 518.64 187.67 377.59 609.76 450.94 432.51 474.20 568.17 341.52 98.48 451.64 842.27 427.51 687.58 153.22 251.44 791.05 721.58 123.83 767.48 427.90 809.35 511.94 750.55 604.92 452.20 850.71 314.98 604.71 552.83 132.30 735.07 825.17 309.85 696.84 362.75 770.48 801.37 463.10 869.95 155.63 244.05 701.80 852.70 705.56 849.03 227.71 853.23 46.78 324.47 791.31 245.68 671.32 825.92 476.77 222.32 136.90 315.56 121.52 786.65 175.51 732.12 815.14 166.38 262.11 431.52 395.45 322.17 362.29 741.31 159.77 274.82 470.75 445.08 73.58 872.68
870.89 607.80 839.98 206.88 826.33 872.80 1046.69 1150.48 646.97 969.60 221.30 342.18 805.00 830.86 859.24 783.77 252.70 723.13 831.95 849.75 928.02 230.74 851.37 1249.90 774.21 1195.26 936.22 730.95 1066.71 245.87 726.66 943.17 102.08 129.99 931.22 982.99 839.51 832.35 1016.83 1322.64 953.63 1281.24 187.67 930.54 913.33 1198.60 926.02 106.42 409.06 956.63 1180.25 1058.73 1182.15 416.67 1231.52 1125.15 1064.77 1281.74 901.49 301.01 904.33 1148.47 1126.39 1148.53 779.62 794.47 1193.06 836.26 1450.26 1110.80 859.10 795.86 0.00 217.29 869.93 352.74 1027.15 206.03 1180.05 997.95 471.73 858.12 224.69 38.59 883.03 1181.70 287.31 805.17 642.35 1011.14 835.58 853.95 1051.60 1131.21 1101.75 163.09 878.44 810.92 160.36 178.80 1296.08 1164.31 304.22 1452.22 1382.64 954.30 944.86 843.67 362.44 1417.22 745.72 898.18 903.61 315.79 1087.23 1246.68 791.99 1061.64 357.09 850.26 1154.94 1128.23 1234.23 933.91 894.34 1067.25 1459.48 1097.69 1299.19 845.13 819.88 255.12 254.24 914.78 144.07 1014.52 232.37 1106.12 453.73 1238.39 1118.26 112.45 757.46 320.86 1162.28 839.19 199.88 240.09 973.22 222.61 1043.19 353.25 1061.33 1087.16 307.14 932.20 921.74 243.18 299.41 361.15 294.62 919.25 195.02 842.64 993.22 237.58 953.40 248.13 376.78 1061.78 956.95 764.43 942.66 770.39 232.71 708.62 130.78 207.66 818.73 808.72 1059.05 1078.33 935.60 1058.62 302.89 866.93 974.28 1094.71 1054.65 850.15 368.95
779.16 521.27 773.77 131.91 761.03 840.09 1012.34 1097.59 650.16 961.66 101.66 203.85 707.77 700.57 822.03 822.94 87.86 649.07 831.13 850.93 808.38 66.91 799.65 1239.70 747.21 1165.75 831.66 615.23 1039.20 285.23 544.30 1006.53 135.01 161.96 875.48 971.44 827.14 746.06 1023.88 1280.26 907.54 1191.36 42.56 848.68 999.07 1205.68 800.09 110.87 232.91 845.27 1174.36 1080.00 1146.46 252.84 1225.44 1107.46 1081.81 1265.65 772.38 137.18 851.60 1012.41 1034.49 1123.90 655.80 737.53 1194.24 770.43 1442.89 1116.15 750.30 735.57 217.29 0.00 711.26 191.91 1022.04 154.92 1185.37 1068.19 297.03 743.05 88.13 201.46 791.81 1099.68 144.64 660.15 536.20 966.98 804.06 860.64 1029.58 1089.52 1079.73 137.52 830.22 707.38 309.12 128.23 1283.80 1019.63 304.80 1456.67 1383.82 955.48 866.25 789.69 211.53 1387.21 676.62 821.18 769.46 139.64 1112.00 1209.47 774.67 972.80 222.21 844.80 1054.32 1098.72 1215.84 981.05 775.27 1104.23 1469.93 1145.64 1207.29 817.82 686.62 118.56 44.79 800.05 158.39 1094.65 80.10 1108.62 315.80 1193.28 1098.02 243.65 685.35 273.31 1063.04 757.15 30.35 108.22 989.76 47.91 1030.06 458.44 1065.78 1107.03 156.28 820.60 815.80 67.03 432.83 200.67 156.29 788.60 172.93 721.39 898.11 72.47 841.22 73.43 239.30 1019.40 911.49 823.79 982.31 674.79 105.91 657.51 132.68 327.27 806.36 723.63 1057.61 989.49 846.76 1031.31 113.33 839.68 925.72 1109.48 1071.24 738.55 216.68
300.09 396.38 146.58 713.13 202.74 168.05 412.12 450.14 230.47 360.14 812.92 855.57 157.94 109.07 198.01 230.31 747.61 211.22 202.10 191.10 97.12 679.68 184.22 611.46 115.22 579.49 120.40 225.48 423.35 702.38 442.60 356.66 805.92 739.94 219.08 319.42 116.71 87.66 377.21 702.85 285.65 507.97 753.82 227.44 338.72 582.83 134.00 771.02 635.82 134.01 593.59 441.33 495.12 730.54 632.27 489.18 472.10 689.07 133.71 717.43 140.34 497.11 519.19 524.68 423.84 155.83 500.62 70.28 799.99 495.03 309.26 74.07 869.93 711.26 0.00 799.96 512.63 663.90 563.15 405.28 561.05 95.60 703.05 848.62 125.50 438.56 765.67 354.79 341.81 326.56 239.89 228.97 468.49 487.85 518.64 848.78 171.72 135.52 887.01 804.10 689.06 519.03 585.21 947.95 710.58 282.24 216.38 136.24 598.11 721.12 287.24 115.06 183.71 716.84 487.98 539.18 237.08 449.98 652.40 487.19 378.90 512.46 634.98 318.14 114.15 467.31 873.51 481.19 691.99 170.29 318.25 733.48 689.03 116.66 816.47 437.20 751.78 531.51 824.62 642.91 515.28 919.52 381.09 643.45 547.74 188.17 741.61 808.61 347.84 727.86 368.49 838.63 803.92 471.39 820.30 109.34 169.98 644.23 879.30 779.63 817.27 204.09 879.34 114.93 277.28 758.76 241.92 745.39 823.89 478.67 220.33 210.97 343.64 124.64 783.16 186.41 806.19 857.78 98.83 328.92 481.28 469.52 366.24 330.47 703.94 222.18 269.53 477.81 447.63 27.29 873.55
911.64 575.73 847.84 320.30 837.89 920.54 1101.85 1161.76 718.68 1054.76 206.20 217.57 811.58 798.80 891.72 893.95 167.64 658.25 879.06 943.59 883.30 165.11 871.32 1285.81 795.46 1245.20 904.16 692.09 1159.07 401.56 521.90 1072.47 299.78 276.27 964.18 1033.02 754.80 734.85 1093.57 1380.04 961.97 1267.52 210.07 909.28 1058.62 1278.29 893.96 292.49 287.37 913.10 1261.79 1138.59 1235.16 138.47 1299.06 1210.31 1166.78 1414.46 869.43 179.04 819.62 1204.32 1226.40 1200.76 609.88 802.33 1268.41 773.54 1523.07 1160.74 744.01 763.80 352.74 191.91 799.96 0.00 1146.95 302.70 1264.82 1143.24 248.86 826.06 128.05 326.59 838.16 1186.69 83.57 786.90 685.95 1055.68 858.52 944.84 1178.71 1202.60 1222.62 264.41 914.93 796.08 448.36 264.51 1372.81 1145.79 441.02 1551.07 1357.73 1029.65 948.39 829.95 359.07 1481.08 786.47 855.03 830.42 131.72 1181.69 1279.15 872.23 1112.94 258.28 988.54 1115.28 1178.17 1308.96 1067.25 862.28 1193.20 1539.22 1191.31 1399.20 889.49 854.13 97.62 170.95 887.63 238.00 1140.47 176.78 1251.41 162.99 1234.24 1212.72 371.93 816.24 371.51 1254.95 834.01 197.86 213.82 1035.87 239.36 1097.53 575.44 1247.40 1201.90 172.25 880.29 866.79 155.73 537.34 58.24 170.01 834.48 299.37 810.58 928.19 188.79 929.92 224.63 141.85 1188.89 986.12 900.65 1029.29 749.12 194.83 724.25 300.19 442.39 775.58 849.79 1049.89 1118.01 1015.84 1102.98 96.02 885.79 1014.42 1193.68 1163.50 827.25 121.93
311.20 738.46 396.15 948.41 339.99 490.73 173.50 526.47 569.77 293.27 1063.00 1154.09 451.28 453.19 314.62 353.92 1032.19 519.63 352.68 467.68 478.67 1034.11 337.00 422.26 511.19 338.29 495.41 485.79 327.71 781.28 893.20 279.27 994.52 906.57 527.32 301.82 529.96 523.78 359.07 478.97 432.61 748.19 979.48 388.76 309.11 357.78 435.79 967.25 920.39 528.17 362.44 283.16 447.68 1050.26 398.30 328.58 260.91 449.19 437.86 1062.60 594.78 287.31 301.58 368.59 859.96 425.81 503.28 502.78 641.47 315.43 694.52 445.82 1027.15 1022.04 512.63 1146.95 0.00 982.61 347.91 252.42 929.02 443.27 1072.44 988.56 415.88 500.97 1105.98 412.93 636.45 456.61 349.24 384.01 207.93 323.65 258.08 1074.44 369.74 426.74 994.86 1053.44 459.98 137.16 887.28 681.02 674.23 466.31 419.55 376.39 942.23 724.83 409.58 495.77 567.54 1064.33 281.04 577.39 305.65 171.26 979.34 378.51 579.35 318.21 394.19 320.36 404.11 262.68 675.11 391.31 412.33 353.81 335.42 1085.22 1057.61 429.70 1018.71 309.71 1063.81 307.33 1196.37 361.14 296.73 1064.72 358.42 899.77 318.61 376.46 991.69 1070.80 337.38 1005.10 377.38 1053.10 473.66 279.18 1133.24 485.00 562.38 1067.09 1048.07 1089.80 1106.53 616.75 1088.09 455.38 652.73 1067.62 527.47 1007.69 1180.98 218.11 527.71 373.26 288.90 555.82 1044.15 575.40 972.82 928.62 509.18 385.58 97.06 165.18 206.25 402.78 1050.93 343.19 507.78 262.57 231.29 485.34 1200.39
788.48 438.57 653.68 52.12 709.84 763.17 927.88 1006.63 583.68 901.63 239.66 288.70 711.69 624.83 721.03 743.15 211.42 619.48 759.09 774.01 745.26 155.25 743.26 1148.99 632.09 1080.78 730.19 592.20 985.10 201.33 532.59 879.44 156.29 76.04 848.16 896.83 695.58 635.63 922.88 1180.52 831.80 1104.97 179.17 772.94 858.93 1097.14 719.99 119.87 205.65 764.73 1083.01 963.17 1086.01 309.30 1134.17 988.56 972.10 1209.28 695.46 175.71 760.40 1006.88 1010.52 1021.13 681.87 671.59 1117.32 662.14 1340.89 1015.24 653.07 589.83 206.03 154.92 663.90 302.70 982.61 0.00 1073.18 925.49 356.13 652.09 180.06 184.72 700.85 1012.72 242.68 675.35 500.23 902.78 738.47 780.85 909.48 934.60 959.63 234.96 745.88 651.28 306.49 181.35 1163.70 1106.59 162.10 1412.14 1265.18 878.56 789.33 659.26 216.94 1307.11 691.77 706.51 759.68 183.98 1011.00 1108.47 694.88 964.53 151.06 812.92 1022.34 1030.77 1095.74 838.35 688.31 1000.29 1390.24 1017.34 1183.32 743.05 713.96 210.49 131.75 713.66 177.65 960.12 224.56 1008.88 401.30 1113.14 998.28 260.88 703.51 224.28 1020.16 695.27 177.11 249.57 899.68 107.01 952.58 429.13 1021.25 991.60 285.91 745.46 748.17 176.55 346.91 257.46 259.20 723.60 263.85 636.61 789.22 201.48 835.51 81.49 312.30 919.66 812.15 726.73 876.31 564.36 196.82 502.59 142.29 336.88 674.80 704.71 1021.35 981.22 838.49 952.12 206.68 749.60 864.65 995.68 982.19 663.41 350.56
530.21 810.85 493.94 1061.37 454.49 426.04 330.42 433.63 681.27 279.31 1248.91 1297.95 565.78 538.20 418.73 426.31 1231.50 634.13 399.96 402.99 510.17 1148.61 438.41 135.41 579.59 50.37 511.57 600.29 169.78 991.99 908.54 244.14 1110.06 1117.28 413.02 320.05 597.89 611.73 216.88 177.78 380.78 570.92 1197.74 423.53 266.72 70.93 478.88 1146.48 1034.89 520.38 127.03 145.58 211.31 1140.55 87.06 197.81 203.28 248.71 453.20 1151.66 616.03 200.09 197.84 195.26 822.81 525.65 307.68 573.61 353.55 104.08 745.55 549.93 1180.05 1185.37 563.15 1264.82 347.91 1073.18 0.00 182.10 1043.52 515.95 1186.94 1176.71 482.32 311.12 1237.59 617.80 735.04 359.30 463.74 334.18 163.70 146.42 146.51 1244.21 428.53 535.58 1207.90 1190.60 135.28 300.03 911.08 423.89 450.98 389.16 384.42 480.50 1027.24 484.51 589.13 540.12 565.83 1190.54 144.68 343.99 420.15 308.80 1070.78 568.87 434.42 86.65 114.13 255.20 464.60 134.39 363.87 229.18 325.82 450.27 582.87 1188.26 1172.11 480.87 1215.10 185.25 1235.67 95.98 1284.07 224.95 141.55 1252.87 610.99 1014.27 199.56 460.50 1185.53 1239.23 323.42 1137.46 246.58 1100.47 538.72 101.95 1289.10 507.66 579.22 1171.03 1162.95 1225.93 1286.75 650.52 1218.70 517.38 654.15 1241.84 447.28 1135.55 1326.35 173.88 449.03 423.70 273.64 637.80 1252.09 595.07 1147.09 1151.76 589.44 566.77 261.09 297.47 387.44 297.57 1168.80 398.38 411.75 85.34 157.48 546.05 1328.33
394.57 656.96 387.69 963.45 335.26 324.26 182.93 312.42 527.38 140.89 1109.15 1200.03 441.97 396.44 291.61 272.42 1112.27 508.12 274.99 301.21 396.62 1029.38 284.04 285.27 397.49 209.84 400.33 481.06 152.91 924.70 779.22 114.46 984.10 975.18 374.94 160.36 467.03 484.11 188.12 340.63 238.32 541.38 1050.05 277.76 84.62 220.79 351.59 1020.52 935.43 418.60 202.66 67.71 270.72 1015.58 250.74 133.80 66.82 283.79 323.88 1072.09 527.22 170.32 167.24 188.96 766.86 376.10 278.14 467.11 513.02 125.38 591.74 422.81 997.95 1068.19 405.28 1143.24 252.42 925.49 182.10 0.00 917.51 386.63 1067.71 1029.02 367.50 282.17 1112.62 504.36 631.72 270.80 364.28 261.62 103.36 157.84 144.76 1125.24 317.52 406.25 1150.79 1092.68 298.13 298.28 763.39 569.33 501.13 309.53 254.74 353.38 885.48 525.44 431.71 416.00 464.05 1055.32 106.45 372.06 320.69 161.51 934.67 482.84 387.45 142.81 253.45 87.14 354.11 110.09 503.86 235.48 340.04 302.21 428.98 1063.29 1051.47 351.55 1067.04 70.54 1116.44 138.24 1173.36 240.44 128.78 1105.18 451.30 873.67 205.29 366.52 1037.84 1109.91 178.01 1032.50 214.48 1068.14 505.90 113.37 1141.29 405.88 510.39 1016.66 1150.36 1128.37 1161.78 489.63 1124.72 414.85 568.53 1121.20 396.56 1006.98 1200.87 93.18 372.98 291.76 113.95 503.55 1114.72 536.95 1021.13 1097.75 447.59 429.14 194.49 174.68 249.81 227.72 1076.37 307.59 326.99 96.76 56.70 377.99 1203.36
692.99 439.63 598.98 333.12 589.03 729.10 878.07 987.97 488.31 846.83 397.43 350.32 562.72 570.03 642.86 645.09 353.53 409.39 680.92 730.73 658.17 343.90 665.24 1071.45 575.21 1060.91 681.45 443.23 918.46 486.37 273.04 823.61 414.45 432.17 745.66 818.66 663.93 557.42 844.71 1193.37 713.11 1069.02 321.28 718.14 844.95 1082.83 694.58 381.07 151.27 695.06 1073.96 924.23 1007.84 169.49 1077.12 983.26 917.92 1201.30 676.97 293.48 701.39 1021.42 1018.34 951.90 422.32 553.47 1037.70 596.11 1297.84 994.64 495.15 602.48 471.73 297.03 561.05 248.86 929.02 356.13 1043.52 917.51 0.00 648.57 375.97 477.69 647.47 987.31 332.43 694.09 543.35 824.61 638.94 709.34 971.85 963.59 995.86 416.24 697.98 583.62 599.46 406.95 1150.87 1036.85 450.18 1392.80 1187.01 798.94 749.36 581.09 237.53 1281.70 621.44 676.11 703.84 294.81 932.83 1030.30 623.37 864.08 210.22 845.64 935.21 1012.07 1079.83 830.37 662.90 965.90 1353.93 978.13 1160.85 670.60 695.60 346.48 332.26 677.71 378.39 945.47 358.98 1005.47 411.85 985.38 963.86 504.68 587.66 358.86 1022.14 585.15 326.12 404.62 821.51 249.12 874.41 715.19 1237.91 974.79 364.77 670.39 701.45 317.15 670.08 236.72 302.76 642.25 440.10 590.85 734.71 369.50 720.00 274.64 390.71 980.33 781.38 651.79 840.47 500.26 365.14 526.28 395.67 550.63 659.88 654.44 946.41 909.71 766.98 879.07 319.35 671.43 804.50 958.18 928.00 588.34 370.79
220.38 355.75 132.24 704.21 116.42 119.72 375.53 354.54 309.46 314.29 844.71 892.49 158.81 78.54 128.65 163.19 830.91 239.18 146.17 141.30 110.54 767.67 106.27 529.80 104.15 519.46 151.30 236.13 352.39 670.62 518.09 296.90 794.85 728.13 215.27 277.01 159.86 164.74 327.41 654.52 204.20 452.88 766.40 160.27 302.01 542.72 78.91 771.96 583.38 144.01 533.37 370.37 475.02 692.27 562.91 420.65 436.13 670.42 62.75 725.59 224.68 510.24 513.26 475.17 492.27 122.02 484.61 134.57 796.99 461.38 296.86 62.26 858.12 743.05 95.60 826.06 443.27 652.09 515.95 386.63 648.57 0.00 791.04 836.81 48.76 391.76 820.25 278.05 386.79 257.39 168.18 196.90 424.69 416.89 466.01 858.45 106.14 91.87 896.35 833.44 636.66 535.99 574.14 878.59 674.19 245.85 156.62 115.14 567.58 666.03 230.03 154.87 205.51 739.03 418.62 516.09 150.76 402.58 641.33 414.03 392.32 478.81 565.62 310.64 67.35 417.42 820.37 445.74 652.21 124.44 280.71 821.47 777.02 61.57 829.74 381.03 823.15 494.80 812.81 574.93 449.65 912.97 285.49 635.13 526.54 123.65 773.40 848.78 279.86 747.08 341.52 781.42 771.85 420.22 888.51 116.87 242.09 732.22 863.64 767.82 893.45 231.15 881.85 57.72 295.85 815.52 200.20 733.58 814.24 434.87 203.87 179.18 272.68 169.08 831.07 219.05 794.38 846.71 139.08 296.38 425.35 432.93 294.37 332.90 781.12 129.78 221.20 436.83 415.56 120.57 868.07
833.87 513.06 765.56 215.45 732.45 843.61 1021.49 1133.71 650.39 994.16 113.29 152.52 706.14 725.62 813.82 795.29 44.56 620.49 818.73 854.45 800.17 38.33 791.44 1231.49 718.63 1224.27 823.45 586.65 1061.88 334.37 551.64 1004.45 180.39 209.08 867.27 978.70 801.64 730.58 1015.67 1350.37 904.42 1194.88 103.78 873.42 990.86 1245.26 803.61 195.58 224.70 837.06 1217.38 1074.00 1138.25 224.26 1248.08 1130.14 1061.34 1351.50 775.90 108.60 843.39 1100.54 1122.62 1095.32 619.72 729.32 1195.68 741.85 1440.98 1154.46 789.41 760.62 224.69 88.13 703.05 128.05 1072.44 180.06 1186.94 1067.71 375.97 791.04 0.00 198.54 800.59 1141.03 62.62 663.82 624.33 958.77 782.36 852.76 1081.80 1114.66 1131.95 153.33 836.80 699.17 320.31 157.05 1312.85 1023.15 342.16 1500.83 1355.83 959.00 869.77 761.93 271.56 1390.73 736.47 812.97 761.25 100.68 1103.79 1201.26 766.79 1007.50 229.22 860.49 1046.11 1157.24 1250.79 980.57 816.97 1112.57 1505.54 1146.16 1295.42 809.61 741.33 30.43 48.31 803.57 150.10 1092.05 48.73 1148.89 238.02 1239.26 1134.82 272.47 746.57 244.73 1151.17 728.57 99.01 105.56 981.55 131.45 1021.85 452.36 1150.49 1118.21 130.48 812.39 807.59 58.82 459.36 143.48 128.26 792.12 176.29 733.32 889.90 60.74 833.01 105.93 157.28 1091.98 903.28 795.21 983.89 666.58 92.20 674.11 195.80 353.66 780.86 727.15 1045.62 1007.58 906.48 1023.10 91.75 831.47 917.51 1101.60 1071.42 730.34 170.50
879.93 623.29 801.39 191.84 831.90 911.39 1052.26 1189.07 684.62 1008.19 182.71 303.59 766.41 798.78 865.97 822.36 214.11 744.94 870.54 888.34 901.66 236.87 844.95 1271.05 735.62 1200.99 914.91 711.10 1089.98 207.28 717.31 981.76 107.65 139.03 969.81 1012.57 848.55 817.31 1055.42 1284.05 977.58 1289.69 183.32 937.77 951.92 1206.57 896.99 144.07 390.37 930.27 1186.54 1066.70 1196.65 422.80 1237.70 1158.24 1075.63 1312.81 879.38 307.14 913.37 1109.88 1087.80 1158.65 741.03 755.88 1231.65 797.67 1488.85 1118.77 837.79 774.55 38.59 201.46 848.62 326.59 988.56 184.72 1176.71 1029.02 477.69 836.81 198.54 0.00 846.72 1143.11 261.16 766.58 603.76 1047.72 826.83 883.53 1013.01 1119.32 1063.16 124.50 892.77 772.33 121.77 140.21 1267.23 1125.72 265.63 1489.87 1413.96 992.89 944.34 808.04 382.14 1454.87 754.76 891.23 912.65 298.15 1118.01 1253.41 797.56 1067.21 335.78 855.83 1182.48 1136.20 1199.27 941.88 865.31 1103.82 1493.77 1136.28 1260.60 826.78 817.49 228.97 246.25 898.38 105.48 1053.11 245.73 1112.41 431.94 1216.67 1101.81 76.16 766.50 282.38 1123.69 821.03 171.11 201.50 1010.03 234.75 1081.78 314.66 1098.98 1079.85 276.68 898.04 930.78 257.36 260.82 322.56 256.03 880.66 159.91 806.48 954.63 198.99 975.45 260.27 352.32 1023.19 995.54 803.02 979.84 749.08 225.14 687.31 108.99 169.07 827.77 770.13 1085.62 1083.90 941.17 1040.27 290.29 878.67 1012.87 1096.46 1085.72 823.55 351.10
230.23 381.02 83.48 752.97 138.06 150.20 336.70 403.30 300.79 299.11 875.19 917.76 157.59 103.81 101.26 131.92 845.15 238.08 97.41 172.60 143.66 765.13 104.42 509.72 111.10 519.39 155.75 216.81 387.18 667.14 513.52 300.83 789.28 776.89 226.86 264.53 181.18 132.67 303.11 650.73 180.30 488.99 791.67 121.44 282.88 552.71 88.15 796.52 632.14 180.53 512.76 381.48 466.24 699.69 535.52 444.13 416.67 651.29 97.54 774.35 246.00 461.48 483.56 476.70 468.85 118.54 503.99 160.38 773.05 448.71 322.13 111.02 883.03 791.81 125.50 838.16 415.88 700.85 482.32 367.50 647.47 48.76 800.59 846.72 0.00 380.88 863.21 229.29 367.47 257.79 128.68 148.14 417.30 390.17 446.88 868.50 76.77 101.42 894.85 875.02 608.23 487.23 581.09 851.20 672.30 265.23 160.55 66.38 592.85 675.27 233.61 146.69 243.00 776.82 391.23 488.70 165.84 353.82 648.28 424.09 395.53 452.62 538.23 291.51 56.47 404.39 796.62 454.09 656.14 122.59 231.95 831.02 786.57 97.68 878.50 351.66 849.32 456.15 861.57 573.83 422.26 922.88 281.71 632.55 507.41 74.89 803.88 883.57 278.76 772.35 332.81 806.69 723.09 413.59 914.70 118.05 250.48 741.77 888.91 816.58 914.81 257.90 833.09 82.99 305.09 856.30 239.02 782.34 863.00 407.12 234.35 135.18 253.55 160.26 856.34 222.03 752.25 853.66 160.40 259.06 376.59 394.10 253.85 303.53 771.50 128.68 251.68 396.98 366.80 98.21 910.23
524.90 747.51 464.36 1064.84 464.57 366.83 436.07 149.09 621.28 299.74 1170.30 1261.58 528.05 457.89 412.82 422.94 1172.06 577.92 374.76 387.16 362.01 1116.57 394.48 268.36 476.87 344.59 363.66 597.69 222.02 982.44 820.82 311.15 1098.19 1088.76 305.69 296.54 455.40 481.84 231.35 463.84 365.96 402.47 1086.97 359.72 334.85 294.36 356.09 1132.59 975.14 398.20 353.39 335.26 99.81 1080.57 395.24 232.98 348.99 536.52 365.48 1117.35 455.93 417.28 395.20 255.78 746.46 433.84 139.23 471.77 507.92 301.97 681.92 422.89 1181.70 1099.68 438.56 1186.69 500.97 1012.72 311.12 282.17 987.31 391.76 1141.03 1143.11 380.88 0.00 1203.65 610.17 714.37 298.74 509.56 425.58 355.95 240.50 373.05 1181.93 381.98 461.56 1210.15 1172.64 446.40 505.48 877.48 735.01 382.06 328.42 320.61 447.26 888.15 376.96 614.49 401.26 379.78 1130.79 250.95 232.49 471.21 427.10 1014.05 711.84 231.56 319.40 349.69 347.13 324.41 287.05 634.70 213.62 547.23 412.65 579.50 1163.06 1093.07 371.18 1177.48 300.74 1179.78 342.28 1143.88 496.75 281.98 1219.27 587.48 987.76 384.79 455.77 1099.18 1151.51 255.63 1067.65 261.05 1173.18 783.68 289.85 1235.19 336.40 408.76 1082.21 1254.72 1128.45 1214.02 546.51 1213.97 449.48 508.43 1162.80 339.95 1093.17 1206.00 360.60 331.57 442.28 342.95 541.14 1151.64 598.40 1133.13 1191.55 464.66 592.05 450.43 396.10 478.81 231.98 1120.67 398.54 265.35 301.58 300.70 418.45 1259.83
863.10 525.23 828.18 239.28 795.07 906.23 1084.11 1148.72 700.97 1055.29 147.55 134.00 768.76 788.24 875.69 857.91 84.07 683.11 837.63 917.07 862.79 100.95 854.06 1281.92 781.25 1245.87 876.36 649.27 1124.50 353.27 524.46 1057.84 218.95 227.98 929.89 1032.45 838.37 735.52 1077.54 1379.23 967.04 1257.50 126.50 909.81 1028.00 1278.96 866.23 240.86 236.87 883.59 1262.46 1092.90 1200.87 222.04 1299.73 1170.79 1123.96 1396.41 838.52 170.91 903.19 1157.05 1179.13 1157.94 651.29 791.94 1238.52 774.21 1503.60 1161.41 778.66 810.47 287.31 144.64 765.67 83.57 1105.98 242.68 1237.59 1112.62 332.43 820.25 62.62 261.16 863.21 1203.65 0.00 703.33 680.84 1021.39 808.02 903.41 1136.12 1175.34 1186.27 205.76 899.42 761.79 382.93 188.08 1363.50 1085.77 388.74 1519.73 1418.45 999.76 932.39 824.55 325.32 1453.35 775.98 825.14 823.87 132.25 1165.66 1249.26 829.41 1070.12 260.79 923.11 1108.73 1178.84 1309.63 1043.19 879.59 1109.63 1501.86 1208.78 1351.93 872.23 770.56 49.33 110.93 866.19 189.71 1056.90 111.35 1211.42 175.40 1301.88 1196.69 288.36 756.36 298.61 1207.68 791.19 114.29 165.53 1044.17 162.25 1084.47 491.87 1195.77 1142.07 88.68 875.01 867.15 121.44 453.77 104.91 86.44 854.74 215.80 795.94 947.91 123.36 895.63 168.55 94.66 1126.77 965.90 857.83 1034.44 729.20 121.50 686.28 216.62 382.96 843.48 789.77 1050.56 1070.20 961.10 1085.72 96.69 894.09 980.13 1152.25 1122.07 792.96 125.46
170.05 542.99 213.74 727.47 205.82 379.49 425.61 631.11 348.30 411.42 690.32 750.52 211.46 265.78 286.58 234.07 619.26 284.70 282.25 400.66 372.95 702.15 301.67 698.90 241.06 655.13 351.06 264.32 524.69 559.30 738.26 411.13 724.06 684.59 439.38 384.90 405.35 334.98 488.43 771.75 383.30 718.28 642.01 350.73 432.98 670.05 317.44 740.63 725.21 385.60 638.71 544.17 650.11 651.80 696.32 566.97 508.90 719.59 326.83 658.58 470.17 513.63 491.55 568.69 640.48 255.04 684.45 357.59 918.22 585.32 484.10 291.74 805.17 660.15 354.79 786.90 412.93 675.35 617.80 504.36 694.09 278.05 663.82 766.58 229.29 610.17 703.33 0.00 352.14 468.33 154.06 283.62 500.71 589.19 535.98 736.97 306.06 251.48 787.01 727.68 743.71 538.59 615.56 933.04 829.20 450.59 376.81 259.52 626.61 904.56 72.65 375.98 468.01 725.65 552.03 674.02 197.65 394.76 754.37 325.44 624.82 588.10 686.97 419.35 285.76 556.34 962.29 547.04 664.35 284.32 77.51 694.25 682.84 326.97 727.89 517.33 650.88 586.51 878.73 601.50 583.06 842.74 129.65 505.28 561.81 207.85 629.80 707.71 423.52 650.74 510.62 857.92 672.86 549.07 732.63 347.34 479.77 722.64 831.58 799.13 702.96 442.22 750.99 244.96 534.38 667.78 453.09 625.22 797.99 510.89 463.64 214.97 403.65 282.98 662.54 344.75 696.36 768.41 389.69 89.39 465.07 411.45 268.72 497.81 741.60 298.88 437.18 532.46 502.28 327.50 787.46
400.42 314.74 334.17 468.99 296.46 416.60 585.50 704.95 113.96 529.57 637.86 670.77 270.15 340.99 380.13 359.30 624.06 184.50 407.48 402.24 398.99 603.11 393.56 802.79 282.64 772.37 417.41 150.66 625.89 518.38 512.44 560.88 558.84 522.77 483.71 529.90 347.41 254.15 581.98 903.45 476.88 767.87 578.76 446.41 565.16 794.11 376.60 575.53 531.98 423.86 765.48 656.51 745.11 599.82 813.56 685.12 625.35 915.51 348.89 619.91 412.23 728.85 725.77 659.33 393.51 301.40 745.55 292.84 1005.27 702.56 258.24 355.22 642.35 536.20 341.81 685.95 636.45 500.23 735.04 631.72 543.35 386.79 624.33 603.76 367.47 714.37 680.84 352.14 0.00 561.88 346.37 400.86 664.09 690.39 703.29 651.83 369.56 314.54 593.29 598.22 860.95 631.41 338.13 1130.07 919.84 506.79 436.34 318.36 524.71 963.72 342.33 381.30 411.27 601.57 669.27 767.57 330.80 571.51 473.03 594.07 676.07 705.34 793.55 544.58 389.96 674.49 1081.04 710.17 898.57 404.35 378.57 654.76 580.99 376.56 632.95 644.45 616.30 708.87 845.50 836.72 700.30 679.92 364.08 448.41 729.57 292.58 566.55 644.42 548.75 552.99 611.68 731.66 967.91 666.31 685.22 399.19 408.88 603.23 777.96 647.50 623.21 335.05 687.24 348.69 492.99 608.67 465.25 578.51 621.74 674.27 500.75 359.22 547.90 275.37 642.11 213.86 589.02 659.53 326.63 430.86 653.84 617.14 474.41 596.32 643.66 408.70 518.08 649.70 619.52 317.14 675.57
327.59 599.62 301.12 932.50 320.06 158.51 299.67 174.94 449.67 163.34 1031.04 1111.29 370.24 311.92 181.75 257.22 1003.33 415.22 219.81 161.39 249.37 935.40 204.13 350.02 350.75 358.70 231.87 418.80 212.02 844.28 681.56 215.39 979.65 969.57 122.36 253.31 331.69 344.20 142.42 518.28 167.57 371.34 999.78 163.81 186.18 367.01 230.71 990.22 819.73 215.00 382.54 316.09 337.25 949.66 434.70 280.28 337.62 554.59 226.22 950.16 304.66 398.85 390.61 273.25 563.26 295.68 295.60 327.75 556.87 321.01 498.72 312.95 1011.14 966.98 326.56 1055.68 456.61 902.78 359.30 270.80 824.61 257.39 958.77 1047.72 257.79 298.74 1021.39 468.33 561.88 0.00 314.27 203.77 343.43 261.30 356.54 1069.75 194.75 324.46 1071.99 1020.50 475.78 484.21 820.74 727.55 485.18 56.84 172.38 243.52 800.96 584.35 440.71 231.46 276.24 941.37 300.12 355.04 289.74 339.21 878.68 527.96 257.48 323.99 382.24 193.70 252.24 263.61 647.39 226.31 535.96 220.94 413.78 989.20 944.75 213.37 985.77 287.37 1007.50 329.39 1049.31 414.30 269.09 1123.59 416.15 825.61 371.90 330.09 997.33 1012.25 119.23 980.46 141.89 1018.13 729.03 279.85 1063.58 223.76 257.70 899.95 1042.27 1014.85 1072.99 379.53 1088.29 315.11 332.63 1014.48 125.76 984.27 1071.63 347.71 127.28 276.56 215.51 368.66 1038.88 430.43 1010.04 1053.39 310.91 436.20 397.60 357.07 306.34 112.40 959.66 210.32 61.06 296.46 316.87 299.27 1114.11
146.92 429.82 95.38 686.35 51.76 276.46 298.29 477.05 279.69 308.01 844.38 904.58 102.04 139.29 132.52 91.86 773.32 229.55 140.04 258.45 260.07 744.03 148.43 552.31 183.85 501.07 278.96 195.71 425.24 619.55 625.13 257.07 733.50 744.84 315.67 258.60 292.18 253.78 334.37 632.15 229.24 612.37 796.07 209.41 286.91 515.99 203.72 769.92 571.15 296.10 494.18 391.61 496.05 758.21 542.26 459.12 380.65 644.97 210.43 713.36 357.00 452.06 466.33 414.63 516.55 118.94 530.92 246.60 764.16 431.26 370.93 174.29 835.58 804.06 239.89 858.52 349.24 738.47 463.74 364.28 638.94 168.18 782.36 826.83 128.68 509.56 808.02 154.06 346.37 314.27 0.00 129.56 388.22 439.48 438.37 847.40 187.64 128.87 847.26 815.58 589.65 457.07 635.57 878.26 675.14 296.53 239.02 106.39 628.33 765.51 181.03 267.52 343.70 726.80 397.97 519.96 43.59 313.24 630.10 349.37 497.17 434.04 544.97 277.14 185.15 427.45 809.74 411.59 639.13 130.26 189.26 811.52 765.02 221.06 840.29 378.93 804.94 437.57 924.84 565.42 429.00 902.99 231.78 611.54 442.36 53.79 783.86 861.77 281.31 770.35 357.09 703.86 696.46 395.01 876.28 246.73 361.88 737.03 786.08 800.28 857.02 379.01 811.99 131.79 420.66 821.84 299.96 763.38 888.05 398.40 328.20 91.26 277.23 227.37 816.60 279.80 770.53 812.04 287.37 208.27 385.88 329.93 187.20 343.75 768.89 161.09 337.29 378.40 348.22 212.60 933.48
215.92 476.67 159.76 728.73 120.31 216.48 210.51 378.71 347.09 213.58 916.27 965.31 231.60 204.02 103.37 92.13 897.32 299.95 65.78 193.43 175.99 814.43 114.83 469.59 259.24 371.51 239.30 266.11 313.15 706.91 643.42 196.55 775.88 832.20 274.90 129.04 263.71 280.81 263.58 502.59 99.68 561.78 865.93 120.66 177.00 405.11 186.83 812.30 700.71 254.24 364.62 274.60 399.39 806.37 412.70 363.79 286.23 528.40 188.08 842.92 321.92 384.42 386.65 371.86 602.50 191.47 460.37 285.75 674.69 301.70 422.34 226.42 853.95 860.64 228.97 944.84 384.01 780.85 334.18 261.62 709.34 196.90 852.76 883.53 148.14 425.58 903.41 283.62 400.86 203.77 129.56 0.00 300.63 309.92 341.00 911.57 110.51 201.40 934.62 857.96 460.09 395.05 708.10 748.70 586.98 242.12 143.05 165.14 693.06 676.54 297.06 266.46 320.17 856.36 268.41 452.65 85.97 250.05 759.66 349.47 429.09 304.48 415.41 185.63 168.08 297.89 680.18 351.07 537.85 124.86 248.69 854.08 837.93 170.47 882.67 276.75 901.49 308.01 976.97 435.86 299.44 959.69 327.87 680.09 385.16 126.32 853.72 926.18 193.23 812.73 286.54 829.62 574.95 265.45 961.00 201.60 334.03 841.75 911.84 902.35 952.57 388.25 884.52 183.20 403.77 907.66 270.27 838.25 998.07 290.45 249.82 89.52 147.67 308.40 917.91 344.53 812.91 916.02 284.49 321.59 336.03 267.91 222.21 316.17 898.45 74.80 217.36 248.84 218.66 246.35 994.15
393.93 720.17 438.98 897.67 382.82 398.71 199.09 359.45 590.59 227.20 1085.21 1134.25 490.26 458.88 355.76 335.63 1086.08 562.46 361.30 387.52 441.86 1058.43 364.07 267.59 483.80 196.28 484.24 528.62 148.09 927.63 840.21 191.44 968.09 959.17 435.81 222.80 530.62 521.47 211.05 271.04 301.53 613.28 1034.04 340.77 170.93 229.37 410.55 1004.21 959.37 502.93 173.53 77.25 268.63 1093.09 224.69 182.46 62.62 304.49 384.87 1056.08 567.42 97.40 101.04 231.91 851.19 443.51 357.16 482.78 499.46 111.82 654.95 476.98 1051.60 1029.58 468.49 1178.71 207.93 909.48 163.70 103.36 971.85 424.69 1081.80 1013.01 417.30 355.95 1136.12 500.71 664.09 343.43 388.22 300.63 0.00 177.43 50.15 1080.51 376.67 473.66 1134.78 1026.90 254.22 203.67 747.38 542.53 496.31 383.33 330.18 417.14 947.92 534.98 519.10 476.99 532.26 1093.46 105.00 401.31 348.48 167.06 1018.32 487.57 418.69 129.25 186.26 150.35 425.94 126.00 480.76 254.53 273.84 381.94 449.30 1112.23 1041.23 412.54 1061.63 101.78 1109.68 99.40 1227.53 203.66 88.80 1089.17 478.10 857.66 110.68 426.95 1021.83 1095.12 263.56 981.67 240.75 1092.08 488.08 113.79 1185.86 467.47 520.25 1022.98 1150.52 1157.60 1161.09 575.94 1115.92 479.70 612.60 1091.76 465.07 990.97 1186.96 10.18 447.97 354.97 176.39 565.99 1098.71 599.39 1005.12 1073.91 533.90 411.32 143.87 150.84 293.10 290.93 1082.69 330.05 391.25 130.40 81.97 441.20 1240.79
424.93 759.52 440.10 973.77 430.23 328.04 275.41 355.58 593.27 209.51 1158.96 1210.35 514.21 449.11 320.73 396.20 1146.02 554.20 358.79 304.99 426.64 1088.05 343.11 214.39 501.27 146.18 413.57 539.73 64.50 983.26 809.48 198.68 1078.57 1010.64 343.64 266.15 512.22 506.03 118.88 312.86 282.78 491.90 1110.97 301.00 217.88 162.54 381.85 1054.47 1000.27 422.38 179.79 130.25 190.88 1089.86 222.89 53.96 170.04 340.64 354.14 1046.38 530.16 232.23 210.15 86.53 770.64 434.66 228.66 475.61 406.29 113.60 695.88 451.93 1131.21 1089.52 487.85 1202.60 323.65 934.60 146.42 157.84 963.59 416.89 1114.66 1119.32 390.17 240.50 1175.34 589.19 690.39 261.30 439.48 309.92 177.43 0.00 188.71 1156.61 368.72 463.44 1109.90 1103.00 281.70 264.98 888.27 570.31 375.86 291.16 338.94 382.50 938.15 468.03 550.10 428.08 467.83 1078.56 119.66 295.33 395.89 270.84 1023.05 559.63 350.55 96.17 190.49 212.02 395.21 108.74 484.99 123.90 355.50 359.92 517.47 1145.09 1066.35 381.81 1112.25 118.44 1159.16 148.93 1202.48 303.40 88.63 1195.48 557.09 984.82 191.44 436.24 1098.76 1140.17 246.21 1041.61 148.58 1076.21 598.63 77.69 1207.18 409.66 482.99 1075.73 1158.43 1144.36 1193.80 580.72 1192.02 461.49 541.94 1136.08 377.90 1016.09 1221.07 167.25 355.80 399.44 247.21 538.74 1131.42 570.81 1076.89 1126.11 491.44 499.80 316.35 262.06 363.18 199.57 1120.65 316.81 322.36 61.08 102.47 467.52 1274.90
444.08 770.32 462.99 947.82 406.83 440.81 208.36 409.60 636.61 263.44 1135.36 1184.40 521.35 475.82 393.35 385.78 1136.23 586.47 390.14 417.76 479.90 1100.95 414.22 263.98 533.95 159.57 518.76 552.63 175.21 933.87 858.60 241.59 1018.24 1009.32 432.71 239.74 580.77 571.62 239.71 290.79 347.64 622.36 1084.19 382.83 221.08 199.50 422.16 1054.36 1009.52 514.54 124.66 127.40 299.48 1117.10 174.54 184.42 77.94 254.34 403.26 1106.23 594.85 75.43 53.35 224.43 862.80 493.66 359.12 532.93 462.75 109.97 705.10 492.30 1101.75 1079.73 518.64 1222.62 258.08 959.63 146.51 144.76 995.86 466.01 1131.95 1063.16 446.88 373.05 1186.27 535.98 703.29 356.54 438.37 341.00 50.15 188.71 0.00 1130.66 426.82 502.27 1140.27 1077.05 248.29 153.52 797.53 494.84 523.43 378.43 380.33 455.12 964.86 531.45 532.63 495.38 550.65 1143.61 122.10 432.16 398.63 208.61 1050.52 439.88 468.84 92.54 223.33 200.50 444.33 118.52 451.35 247.15 226.15 420.56 458.47 1162.38 1091.38 430.93 1111.78 151.93 1159.83 50.53 1242.85 153.51 110.83 1139.32 522.29 907.81 60.53 456.77 1071.98 1145.27 237.31 1031.82 269.41 1123.85 441.83 135.93 1236.01 486.23 570.40 1073.13 1102.83 1197.86 1211.24 626.09 1166.07 496.64 639.10 1141.91 466.97 1041.12 1237.11 60.33 461.75 382.01 193.33 582.93 1148.86 616.33 1055.27 1074.03 567.04 455.51 192.37 150.96 293.69 320.40 1132.84 380.20 395.88 143.89 132.12 491.35 1290.94
831.56 502.70 835.20 182.84 856.78 930.74 1080.30 1212.99 718.11 1038.66 58.21 179.09 787.26 782.82 888.00 873.87 129.27 754.86 907.89 941.58 912.27 172.70 866.98 1300.72 831.84 1270.88 950.17 721.02 1152.67 331.78 671.17 1079.19 141.14 214.36 1010.82 1028.69 893.18 808.31 1089.85 1331.19 989.79 1282.01 94.96 930.93 1058.68 1302.79 889.20 177.56 350.55 937.14 1233.68 1153.50 1232.44 298.30 1305.20 1194.21 1132.74 1381.10 863.03 242.97 891.79 1149.93 1172.01 1219.65 753.25 829.58 1284.89 847.00 1522.38 1192.33 811.16 817.82 163.09 137.52 848.78 264.41 1074.44 234.96 1244.21 1125.24 416.24 858.45 153.33 124.50 868.50 1181.93 205.76 736.97 651.83 1069.75 847.40 911.57 1080.51 1156.61 1130.66 0.00 912.47 809.27 246.27 53.61 1334.73 1079.86 361.85 1470.22 1459.60 1046.13 956.90 881.74 293.78 1476.32 795.83 913.57 890.96 234.21 1177.97 1275.44 825.60 1072.54 338.98 889.32 1175.82 1203.85 1266.77 1038.10 857.52 1183.58 1561.27 1192.17 1338.32 848.81 739.02 166.79 162.32 890.70 83.98 1159.87 122.77 1159.55 358.47 1284.17 1148.95 125.27 737.75 359.92 1191.19 793.61 107.17 77.00 1032.06 167.12 1112.44 430.55 1105.88 1175.95 189.73 912.47 844.62 204.55 385.32 279.84 131.53 850.16 35.41 800.73 953.49 92.59 976.56 192.64 227.82 1070.33 1013.35 868.37 1057.05 799.32 100.64 737.55 169.21 287.94 872.40 793.06 1126.58 1108.70 965.97 1062.30 211.27 900.70 1032.22 1160.41 1130.23 830.42 241.35
243.32 448.50 160.25 798.00 169.72 120.99 295.12 369.69 335.17 222.34 892.45 943.60 204.57 129.65 55.12 127.35 881.36 288.59 93.18 97.94 108.93 813.43 75.83 451.93 187.87 465.86 149.69 287.21 357.26 696.33 542.97 248.76 865.04 821.62 170.13 199.14 216.85 209.44 256.97 597.22 138.72 451.27 817.51 79.86 250.96 486.88 76.32 865.75 689.52 168.70 465.30 304.71 420.10 776.46 489.38 377.89 370.53 601.31 87.63 795.14 254.86 414.64 436.72 420.97 516.96 147.73 437.48 209.65 696.28 396.05 389.61 156.05 878.44 830.22 171.72 914.93 369.74 745.88 428.53 317.52 697.98 106.14 836.80 892.77 76.77 381.98 899.42 306.06 369.56 194.75 187.64 110.51 376.67 368.72 426.82 912.47 0.00 137.63 924.04 865.55 563.13 479.66 644.33 805.06 626.72 202.49 108.48 116.89 618.69 640.70 310.38 171.86 209.66 844.81 345.09 442.56 175.62 329.70 725.05 417.73 390.71 398.83 492.09 230.38 57.57 327.62 719.85 377.48 594.42 65.99 259.42 867.23 815.22 59.96 830.82 274.89 885.53 418.52 877.04 497.06 376.12 968.93 358.48 680.89 454.67 145.29 829.72 873.66 201.99 798.19 263.65 855.32 685.46 359.80 949.08 115.26 247.69 777.98 937.54 861.61 943.46 303.64 903.49 150.47 293.26 884.95 181.20 823.71 920.38 386.85 157.97 114.01 245.55 236.76 882.18 270.16 829.02 905.44 196.07 309.57 372.36 352.52 231.79 226.76 837.69 51.91 222.47 343.19 329.17 149.33 974.21
226.51 332.18 66.39 703.40 122.55 202.98 389.82 446.41 217.59 303.25 797.83 840.40 66.94 26.45 142.71 138.03 743.73 174.23 174.01 199.81 175.93 675.80 144.88 563.76 84.45 560.84 189.87 168.82 418.70 578.75 527.49 324.83 727.41 704.04 267.43 310.97 194.54 148.94 344.56 693.22 205.25 518.79 714.31 174.56 321.63 567.79 138.70 758.14 616.37 197.10 558.82 416.54 506.21 752.74 576.97 458.80 451.44 685.80 153.65 713.55 259.36 533.79 515.42 483.53 462.69 30.15 496.51 133.76 802.06 478.08 273.29 61.45 810.92 707.38 135.52 796.08 426.74 651.28 535.58 406.25 583.62 91.87 699.17 772.33 101.42 461.56 761.79 251.48 314.54 324.46 128.87 201.40 473.66 463.44 502.27 809.27 137.63 0.00 806.46 799.98 650.72 538.80 506.70 892.65 688.23 304.36 213.67 82.31 515.49 725.82 205.75 138.65 234.96 712.96 432.68 530.15 150.31 354.01 621.63 389.86 457.71 495.51 579.68 323.31 137.15 448.17 853.78 479.35 688.22 149.12 249.17 729.60 685.15 127.48 812.59 412.52 747.90 495.40 812.00 590.58 463.71 848.49 271.29 543.26 548.48 75.08 726.52 804.73 295.51 694.99 322.68 757.85 773.87 466.85 816.42 182.78 268.94 640.35 840.07 767.01 813.39 252.00 818.79 34.15 355.64 754.88 250.02 720.51 838.29 483.84 231.42 149.84 308.94 133.56 778.98 166.96 764.44 785.98 196.93 204.51 444.46 411.66 270.56 349.66 700.06 163.74 297.64 450.24 420.06 135.03 869.67
957.06 739.42 821.82 313.61 877.33 967.52 1046.71 1151.25 707.25 1081.11 304.48 425.36 785.28 823.07 890.24 884.19 335.88 765.37 928.30 978.36 922.09 358.64 873.09 1292.63 808.80 1207.30 969.07 731.53 1116.74 227.71 839.08 1059.36 229.42 260.80 1030.14 1060.35 928.72 799.35 991.02 1353.21 1008.23 1318.79 305.09 971.18 1067.79 1257.53 917.42 265.84 512.14 984.95 1252.60 1153.93 1241.84 534.18 1283.24 1132.20 1097.17 1364.68 899.81 428.91 986.80 1111.44 1108.23 1173.35 862.80 776.31 1194.55 838.04 1510.48 1157.21 851.53 856.02 160.36 309.12 887.01 448.36 994.86 306.49 1207.90 1150.79 599.46 896.35 320.31 121.77 894.85 1210.15 382.93 787.01 593.29 1071.99 847.26 934.62 1134.78 1109.90 1140.27 246.27 924.04 806.46 0.00 261.98 1343.18 1116.45 387.40 1549.72 1360.77 1082.91 984.10 828.47 476.55 1490.17 857.25 926.50 981.44 419.92 1155.85 1277.68 890.85 1046.96 457.55 834.51 1203.87 1172.56 1271.06 1063.65 885.74 1083.61 1535.19 1147.82 1281.03 891.26 864.52 350.74 353.91 927.48 227.25 1090.23 358.79 1178.47 553.71 1267.02 1186.88 187.47 888.27 355.22 1162.07 841.46 292.88 323.27 1063.20 356.52 1020.72 192.89 1220.75 1116.05 398.45 944.79 989.75 376.15 184.67 444.33 377.80 901.09 281.68 838.63 931.41 320.76 995.88 382.04 447.96 1144.96 1037.88 903.53 1082.29 856.24 327.70 807.15 230.76 66.24 919.92 876.40 1057.43 989.31 1016.72 1071.71 412.06 913.12 1069.00 1132.66 1148.90 896.73 394.13
822.27 556.31 835.03 129.23 806.33 917.57 1026.69 1183.86 670.48 989.41 58.31 185.53 811.72 773.53 838.75 820.26 113.78 740.90 858.64 940.48 858.66 158.74 817.73 1251.47 813.44 1217.27 896.56 707.06 1138.91 315.90 661.88 1041.10 141.52 205.07 990.28 987.00 866.23 754.70 1040.60 1277.58 950.35 1257.49 85.67 910.55 1017.15 1253.86 879.91 129.93 341.26 883.53 1180.07 1104.15 1186.48 316.52 1251.59 1144.96 1079.13 1331.39 861.93 229.01 931.05 1117.48 1127.64 1169.20 743.96 820.29 1237.02 793.39 1482.57 1138.72 757.55 771.18 178.80 128.23 804.10 264.51 1053.44 181.35 1190.60 1092.68 406.95 833.44 157.05 140.21 875.02 1172.64 188.08 727.68 598.22 1020.50 815.58 857.96 1026.90 1103.00 1077.05 53.61 865.55 799.98 261.98 0.00 1281.12 1079.96 343.45 1416.61 1410.35 1031.76 917.12 840.61 284.49 1434.81 786.54 881.85 895.97 224.92 1126.37 1226.19 771.99 1041.64 332.13 889.70 1135.74 1150.24 1213.16 1005.54 848.23 1134.33 1507.66 1142.92 1284.71 799.56 729.73 166.89 148.74 866.18 34.73 1116.67 122.87 1105.94 358.57 1230.56 1095.34 115.42 701.00 312.99 1137.58 847.22 97.88 75.90 982.81 157.83 1063.19 430.65 1052.27 1122.34 190.96 858.86 898.23 193.54 372.35 251.81 161.94 879.93 89.02 794.35 952.39 96.31 967.73 173.14 276.57 1016.72 981.87 839.60 1005.63 745.71 101.87 683.94 146.45 252.90 856.15 743.81 1117.29 1058.33 915.60 1013.05 212.50 851.45 1019.05 1106.80 1076.62 776.81 248.42
645.67 908.45 619.85 1151.89 580.40 561.32 414.37 513.82 778.87 414.59 1339.43 1388.47 691.69 639.69 508.01 523.91 1340.30 741.48 525.87 538.27 635.98 1274.52 530.39 270.69 663.57 181.23 646.85 726.20 305.06 1127.27 1043.82 379.42 1222.31 1213.39 548.30 433.13 723.35 717.17 352.16 42.50 516.06 706.20 1288.26 491.58 382.75 206.21 611.39 1258.43 1160.80 655.66 156.33 280.86 346.59 1263.52 73.75 333.09 309.00 177.50 588.48 1286.94 746.89 302.80 280.72 326.12 958.09 621.94 442.96 696.17 339.40 212.07 867.92 639.21 1296.08 1283.80 689.06 1372.81 459.98 1163.70 135.28 298.13 1150.87 636.66 1312.85 1267.23 608.23 446.40 1363.50 743.71 860.95 475.78 589.65 460.09 254.22 281.70 248.29 1334.73 563.13 650.72 1343.18 1281.12 0.00 353.11 1001.60 288.61 542.93 524.44 517.11 569.78 1128.73 470.36 724.41 675.40 701.11 1269.14 218.04 479.27 546.06 379.81 1184.60 667.25 569.70 200.47 234.53 385.27 597.50 269.67 301.13 282.14 299.21 547.20 680.47 1314.17 1295.45 606.15 1312.03 320.53 1345.22 230.46 1389.76 211.64 249.07 1343.39 724.07 1111.88 267.65 586.41 1276.05 1349.34 418.20 1235.89 381.86 1235.75 669.20 237.23 1390.84 642.94 714.50 1263.01 1297.43 1342.62 1364.13 785.80 1344.61 643.29 789.43 1335.19 582.56 1245.19 1319.35 264.40 584.31 543.25 386.72 746.80 1301.75 730.35 1259.34 1287.04 702.57 665.54 362.92 399.25 505.85 413.44 1276.79 533.66 521.96 220.62 241.43 676.12 1373.18
448.36 809.14 489.53 1056.24 447.82 515.40 184.54 540.05 677.60 367.43 1021.65 1148.87 543.57 547.91 427.88 424.60 1057.46 627.46 389.82 510.90 563.34 998.34 450.26 417.50 531.85 313.09 583.05 593.62 328.73 918.44 952.66 292.85 1103.39 1043.73 569.43 315.35 635.74 604.91 372.65 395.61 458.66 756.88 1041.97 399.80 311.16 353.02 519.61 1104.41 1028.22 611.99 278.18 280.92 453.00 1130.41 286.43 318.94 231.46 331.20 497.32 1068.61 659.37 228.95 206.87 351.51 941.09 510.28 493.64 589.31 616.27 263.49 768.82 522.59 1164.31 1019.63 519.03 1145.79 137.16 1106.59 300.03 298.28 1036.85 535.99 1023.15 1125.72 487.23 505.48 1085.77 538.59 631.41 484.21 457.07 395.05 203.67 264.98 153.52 1079.86 479.66 538.80 1116.45 1079.96 353.11 0.00 951.05 543.86 640.84 506.10 430.58 484.50 889.95 684.97 546.74 589.44 644.71 1091.86 275.62 560.31 413.48 184.79 1017.71 502.13 584.38 246.06 376.85 331.74 517.37 272.04 563.24 388.88 275.17 448.90 472.58 1053.58 974.84 514.37 1114.69 305.45 1067.65 204.05 1261.17 234.65 264.35 1195.38 495.58 928.12 214.05 463.72 1029.76 1040.44 364.98 1057.98 382.41 1110.92 336.50 289.45 1149.40 569.67 672.99 1019.64 1164.73 1137.11 1103.08 696.07 1115.27 529.68 736.55 1044.57 541.05 1032.46 1180.43 213.85 534.43 405.26 320.21 641.33 1065.21 665.84 1109.98 1050.21 617.86 449.20 110.64 127.14 269.87 416.36 1049.77 449.75 509.27 297.41 285.64 546.32 1193.65
626.38 494.48 573.09 214.22 629.25 693.86 817.30 928.68 421.58 753.10 345.76 450.80 551.80 533.15 649.41 644.73 373.52 500.50 678.50 702.66 639.77 316.68 651.58 1005.42 469.99 937.60 670.11 488.79 824.35 180.25 694.69 717.34 220.71 211.79 753.25 760.62 646.89 563.91 797.14 1018.42 711.95 1025.49 286.66 681.26 696.83 940.94 645.40 257.13 367.75 664.64 920.91 801.07 931.02 409.97 972.07 892.61 810.00 1047.18 631.17 308.70 709.18 844.78 848.42 922.70 616.23 536.85 991.19 532.04 1224.43 853.14 596.37 542.57 304.22 304.80 585.21 441.02 887.28 162.10 911.08 763.39 450.18 574.14 342.16 265.63 581.09 877.48 388.74 615.56 338.13 820.74 635.57 708.10 747.38 888.27 797.53 361.85 644.33 506.70 387.40 343.45 1001.60 951.05 0.00 1289.91 1166.89 804.69 720.37 589.01 212.65 1208.17 626.02 630.07 675.44 346.08 852.38 1036.85 657.01 840.56 313.16 650.82 916.85 870.57 933.64 676.25 622.45 838.19 1228.14 871.86 1021.22 655.82 551.86 372.59 293.85 634.18 327.50 798.02 384.90 846.78 534.29 951.04 836.18 341.79 609.39 110.28 858.06 581.78 274.45 351.52 789.46 269.11 817.36 393.53 1126.08 829.50 440.42 632.41 721.78 285.29 452.53 419.56 413.71 673.18 391.54 540.85 802.75 358.54 756.72 243.59 474.40 757.56 738.12 656.54 714.21 563.66 351.33 521.48 257.74 389.36 626.11 542.61 891.25 864.67 721.94 816.83 345.00 670.44 785.73 846.11 820.09 557.92 510.65
818.62 1188.73 869.31 1424.17 861.58 786.84 633.54 791.86 1041.99 626.38 1474.92 1602.14 943.42 890.75 749.94 812.52 1530.39 983.41 788.00 763.79 874.27 1518.01 772.32 523.58 948.25 469.84 872.37 986.99 546.49 1322.01 1291.47 656.05 1382.22 1425.02 795.65 681.90 965.28 959.10 602.65 331.11 766.55 985.30 1484.58 780.19 635.38 459.10 852.91 1345.80 1449.41 881.18 425.77 552.60 635.20 1412.60 362.36 547.36 541.91 285.54 836.13 1528.37 989.80 463.57 441.49 587.37 1229.44 863.87 722.06 934.41 570.93 500.68 1129.84 881.14 1452.22 1456.67 947.95 1551.07 681.02 1412.14 423.89 569.33 1392.80 878.59 1500.83 1489.87 851.20 735.01 1519.73 933.04 1130.07 727.55 878.26 748.70 542.53 570.31 494.84 1470.22 805.06 892.65 1549.72 1416.61 288.61 543.86 1289.91 0.00 799.23 772.52 762.59 811.71 1379.79 701.89 943.79 900.92 926.63 1537.92 506.65 767.88 834.67 635.54 1452.26 828.02 834.32 489.08 521.72 643.40 834.62 481.46 464.33 570.75 268.69 789.13 911.16 1470.40 1501.46 862.34 1441.00 534.19 1536.77 498.53 1631.69 444.16 535.56 1532.03 910.43 1400.19 488.15 875.02 1472.37 1492.51 670.49 1477.75 632.35 1501.05 390.89 502.53 1582.99 868.46 961.85 1482.56 1490.97 1580.35 1568.89 997.59 1505.63 890.70 1032.26 1486.07 829.91 1493.63 1607.96 536.68 825.04 831.86 664.71 995.51 1518.48 1018.96 1390.07 1498.83 944.50 843.65 590.07 577.89 720.62 683.34 1531.72 778.51 758.82 509.23 530.04 920.66 1610.47
708.65 979.30 679.54 1300.48 623.38 555.94 626.01 405.38 821.17 520.95 1416.26 1508.35 753.38 702.09 571.60 647.07 1400.39 777.62 609.66 532.89 620.56 1317.50 593.98 418.18 747.93 400.61 638.94 769.18 348.22 1206.68 1066.66 449.55 1347.63 1331.97 567.47 548.96 699.26 730.11 369.75 535.56 533.65 465.33 1389.95 569.29 473.25 399.47 622.01 1361.72 1191.23 617.14 466.82 482.69 339.20 1333.65 497.63 416.48 520.64 684.23 611.44 1330.10 707.64 567.39 576.78 371.67 965.40 658.08 242.83 703.51 228.30 451.40 885.73 675.35 1382.64 1383.82 710.58 1357.73 674.23 1265.18 450.98 501.13 1187.01 674.19 1355.83 1413.96 672.30 382.06 1418.45 829.20 919.84 485.18 675.14 586.98 496.31 375.86 523.43 1459.60 626.72 688.23 1360.77 1410.35 542.93 640.84 1166.89 799.23 0.00 428.34 543.88 605.92 1191.13 129.79 800.13 602.96 623.64 1346.85 435.92 279.74 657.72 628.72 1250.18 832.42 338.78 467.64 336.85 490.64 649.67 411.55 541.67 419.73 646.28 610.79 782.74 1384.99 1339.03 631.44 1375.62 430.59 1404.56 501.45 1425.90 596.09 464.49 1490.12 839.90 1183.16 516.76 686.55 1402.16 1397.47 476.84 1339.51 399.45 1379.00 939.60 416.05 1435.08 601.24 669.98 1326.07 1413.77 1380.91 1467.27 781.67 1444.75 681.27 752.29 1408.76 553.99 1313.99 1457.12 506.49 557.63 666.41 502.55 789.72 1420.98 839.58 1384.66 1415.79 682.41 778.14 615.48 612.66 599.39 450.44 1368.94 590.75 491.41 432.66 453.07 683.29 1479.66
382.34 596.76 327.30 913.32 304.90 127.60 321.56 222.83 392.83 173.04 987.92 1086.49 359.97 277.91 222.04 271.14 993.31 389.55 232.20 104.55 198.51 934.19 233.50 396.13 334.70 381.88 210.60 392.05 238.60 855.20 638.32 237.28 960.47 942.81 147.42 275.20 274.85 301.77 172.28 548.56 173.16 395.23 965.77 154.65 229.31 331.65 193.67 933.38 762.89 188.80 404.43 337.98 335.13 938.12 466.84 297.58 376.35 593.32 183.10 905.10 283.46 435.35 413.27 303.43 537.06 306.60 238.76 275.17 598.68 347.59 472.52 288.73 954.30 955.48 282.24 1029.65 466.31 878.56 389.16 309.53 798.94 245.85 959.00 992.89 265.23 328.42 999.76 450.59 506.79 56.84 296.53 242.12 383.33 291.16 378.43 1046.13 202.49 304.36 1082.91 1031.76 524.44 506.10 804.69 772.52 428.34 0.00 115.54 283.81 766.95 558.13 464.72 174.62 267.39 918.54 341.28 332.68 270.56 361.10 821.84 471.12 200.64 365.02 394.27 249.89 221.33 293.47 688.77 279.88 552.69 233.10 414.84 989.43 910.69 203.10 997.93 319.37 1003.50 386.23 1039.28 436.19 325.93 1066.75 472.99 827.62 428.74 331.15 977.98 969.13 141.12 946.45 142.58 1000.39 763.42 306.43 1006.74 172.90 279.51 921.76 985.43 992.02 1038.93 353.33 1081.54 298.73 354.44 980.42 147.57 955.12 1028.78 393.51 129.29 290.48 237.90 367.70 1013.86 411.24 977.65 1042.05 254.07 450.06 419.49 378.96 363.18 129.16 940.60 193.47 63.07 323.04 343.45 254.95 1082.61
294.70 506.07 217.51 816.60 223.93 84.82 254.37 338.37 322.38 182.17 898.69 997.26 278.41 187.22 106.50 161.09 904.08 339.97 144.56 107.87 156.45 844.96 117.96 453.35 255.05 385.31 170.35 332.48 305.49 756.39 549.21 140.28 894.84 865.37 154.25 182.20 267.67 270.51 220.06 540.24 97.97 420.15 875.08 39.11 170.12 422.59 121.58 862.93 740.00 204.89 406.09 274.82 379.26 848.89 443.36 337.72 318.35 538.53 93.87 882.21 302.38 417.96 395.88 344.38 553.15 207.79 354.30 251.03 647.37 305.04 430.30 199.50 944.86 866.25 216.38 948.39 419.55 789.33 384.42 254.74 749.36 156.62 869.77 944.34 160.55 320.61 932.39 376.81 436.34 172.38 239.02 143.05 330.18 338.94 380.33 956.90 108.48 213.67 984.10 917.12 517.11 430.58 720.37 762.59 543.88 115.54 0.00 168.27 676.26 651.58 349.18 185.99 224.61 816.67 337.02 448.22 204.93 293.91 782.78 490.72 316.18 322.47 449.07 181.37 117.56 281.13 673.36 293.54 495.59 117.56 299.30 900.20 821.46 121.54 882.39 228.40 914.27 340.27 937.03 438.69 355.99 1020.50 373.68 730.85 440.86 215.61 887.29 879.90 143.62 855.76 209.47 931.74 716.70 293.19 936.29 176.84 270.95 850.58 1013.96 890.15 949.70 353.08 973.81 208.04 338.52 891.19 180.77 870.82 970.86 340.36 118.24 180.43 193.28 270.70 924.63 327.73 907.20 965.50 246.89 360.95 322.49 303.44 257.81 187.32 858.76 77.93 122.61 299.08 311.44 207.25 1024.69
163.85 401.14 75.88 711.38 83.90 170.49 369.21 406.88 239.60 279.36 870.30 912.87 147.46 98.92 61.77 98.58 806.49 171.70 99.83 193.54 153.68 723.60 84.15 490.36 142.01 479.90 172.57 175.28 352.91 600.76 524.26 242.52 808.15 726.05 227.83 237.57 198.37 147.39 263.62 612.28 179.76 528.35 786.78 153.95 268.76 530.13 132.81 779.13 677.54 207.11 503.73 343.14 426.75 750.58 496.03 404.80 377.18 637.17 160.52 793.87 263.19 463.90 477.60 445.95 483.57 52.16 467.15 141.74 749.61 413.55 342.25 69.43 843.67 789.69 136.24 829.95 376.39 659.26 480.50 353.38 581.09 115.14 761.93 808.04 66.38 447.26 824.55 259.52 318.36 243.52 106.39 165.14 417.14 382.50 455.12 881.74 116.89 82.31 828.47 840.61 569.78 484.50 589.01 811.71 605.92 283.81 168.27 0.00 587.96 701.23 227.63 186.11 265.86 768.22 351.74 449.21 118.24 368.13 673.17 381.51 408.78 430.98 498.74 282.80 122.85 384.81 772.84 397.04 632.85 89.51 182.01 791.09 747.10 137.04 836.91 364.38 810.66 442.51 819.98 535.49 382.77 884.20 259.46 624.95 485.58 117.31 798.99 867.49 240.42 766.27 293.32 792.50 740.09 414.27 853.51 169.74 283.99 722.66 873.04 774.99 867.11 272.62 875.51 103.11 349.75 816.83 193.57 740.75 895.35 407.35 221.81 79.24 267.92 183.80 827.08 239.43 792.30 809.87 180.98 192.68 373.86 399.85 257.12 303.00 782.37 90.34 271.97 401.32 383.80 108.95 931.16
685.59 474.72 581.31 263.50 632.47 657.47 852.41 922.12 446.23 765.84 282.34 373.43 582.43 489.04 629.85 643.68 283.91 502.93 649.72 662.40 655.25 233.23 607.47 1047.52 569.09 1038.25 664.40 486.67 894.45 248.84 510.57 816.54 292.44 251.31 734.13 759.91 670.25 583.63 831.70 1171.23 696.01 1001.82 198.82 637.15 800.86 1030.38 595.42 256.02 186.71 678.24 1054.84 900.30 976.22 350.24 1054.98 921.39 934.98 1155.29 604.81 274.64 650.62 1013.79 1012.11 976.55 648.02 535.80 1005.71 596.35 1294.89 953.79 684.92 524.04 362.44 211.53 598.11 359.07 942.23 216.94 1027.24 885.48 237.53 567.58 271.56 382.14 592.85 888.15 325.32 626.61 524.71 800.96 628.33 693.06 947.92 938.15 964.86 293.78 618.69 515.49 476.55 284.49 1128.73 889.95 212.65 1379.79 1191.13 766.95 676.26 587.96 0.00 1182.54 584.71 619.79 673.82 256.30 919.82 1017.29 655.96 869.50 127.76 798.27 902.80 971.22 1066.82 809.49 563.74 910.76 1321.57 946.54 1165.12 624.83 616.73 300.72 256.32 610.51 308.77 893.58 291.63 983.47 430.56 1092.65 950.85 399.91 634.16 121.33 1025.39 590.57 211.03 301.13 797.58 179.50 838.17 541.27 1210.93 943.20 352.58 665.81 627.48 263.13 459.05 300.83 325.87 671.60 329.19 509.86 742.36 284.00 746.29 205.02 322.80 958.10 719.57 660.94 771.53 512.36 263.49 546.13 300.29 457.95 690.42 700.94 928.90 909.81 776.21 825.37 281.24 647.50 758.95 941.90 911.72 597.62 376.63
824.91 1021.78 720.73 1359.23 747.52 607.19 646.86 499.47 872.42 569.62 1419.65 1518.22 761.33 735.51 639.46 684.68 1425.04 872.31 677.52 584.14 653.43 1365.92 617.08 436.24 770.18 434.14 673.70 859.98 464.48 1262.46 1070.17 512.56 1347.22 1383.15 587.95 575.28 761.35 759.14 499.54 512.86 635.26 547.34 1381.36 690.69 542.40 484.37 587.12 1310.80 1249.41 676.85 504.12 457.73 277.15 1358.30 421.54 414.07 565.04 626.91 614.83 1374.82 761.29 601.61 584.80 408.88 1025.11 728.23 372.62 720.45 130.96 456.34 888.28 717.28 1417.22 1387.21 721.12 1481.08 724.83 1307.11 484.51 525.44 1281.70 666.03 1390.73 1454.87 675.27 376.96 1453.35 904.56 963.72 584.35 765.51 676.54 534.98 468.03 531.45 1476.32 640.70 725.82 1490.17 1434.81 470.36 684.97 1208.17 701.89 129.79 558.13 651.58 701.23 1182.54 0.00 853.66 706.41 732.87 1405.06 518.15 282.29 732.95 678.03 1307.36 897.76 468.57 438.91 424.93 531.92 618.80 479.97 444.33 358.04 516.49 635.25 827.57 1421.16 1342.42 604.46 1400.08 489.51 1435.23 519.31 1438.27 559.43 493.81 1526.21 866.22 1258.79 550.98 747.02 1393.57 1400.86 606.63 1362.04 505.70 1431.46 857.83 497.50 1486.33 659.76 714.33 1349.70 1513.68 1422.84 1470.66 841.38 1474.18 723.75 789.26 1412.15 582.39 1387.56 1474.06 545.16 551.94 704.02 528.87 799.43 1445.59 861.20 1355.07 1471.57 740.57 844.06 627.77 672.90 664.73 502.00 1397.97 657.11 618.16 494.55 513.67 693.83 1527.89
125.17 470.34 151.75 712.71 176.75 349.75 422.26 584.57 275.65 403.75 762.97 823.17 138.81 193.13 258.96 219.81 691.91 212.05 267.99 366.49 340.57 731.99 236.58 676.63 220.62 608.32 278.41 191.67 485.60 629.54 665.61 402.25 703.68 615.73 407.44 420.42 332.70 308.47 460.81 763.54 339.52 682.91 700.87 310.07 425.67 644.73 308.94 694.95 730.69 312.95 629.39 499.42 605.33 724.45 666.66 553.86 498.53 674.71 292.78 661.72 397.52 577.64 555.56 539.62 577.01 197.26 662.18 291.40 873.93 528.34 411.45 219.09 745.72 676.62 287.24 786.47 409.58 691.77 589.13 431.71 621.44 230.03 736.47 754.76 233.61 614.49 775.98 72.65 342.33 440.71 181.03 297.06 519.10 550.10 532.63 795.83 310.38 205.75 857.25 786.54 724.41 546.74 626.02 943.79 800.13 464.72 349.18 227.63 584.71 853.66 0.00 323.88 395.63 654.75 538.16 646.40 211.09 420.83 689.56 322.09 622.35 545.77 672.08 405.09 290.08 497.41 889.64 543.69 675.10 251.70 74.16 745.00 711.85 291.60 757.98 444.68 723.53 569.95 887.31 665.51 560.49 830.92 182.36 577.93 593.16 171.48 702.45 780.36 409.26 628.71 488.35 884.89 714.82 487.18 804.23 316.11 441.97 712.34 862.44 728.23 775.61 409.54 815.78 172.31 462.52 740.43 421.20 654.23 834.00 513.28 400.17 239.15 427.83 250.30 735.19 281.28 681.98 838.65 353.48 153.40 461.72 467.80 325.07 465.19 696.84 276.61 451.23 503.79 488.41 292.67 860.11
349.96 435.87 205.04 752.62 250.79 115.23 404.90 385.95 340.12 310.66 885.68 944.70 205.59 130.75 181.15 226.37 857.53 275.18 214.42 137.13 90.47 789.60 158.77 534.55 160.08 539.52 51.22 292.06 381.76 717.40 463.70 326.27 850.78 768.19 180.25 332.73 100.23 127.15 323.24 650.03 248.50 471.59 818.61 189.64 331.38 501.00 119.83 826.38 588.27 58.45 551.85 399.74 447.77 775.33 607.47 374.12 465.50 699.79 92.12 730.48 165.05 550.93 542.63 429.28 406.71 168.80 413.38 139.36 773.30 490.75 334.12 116.68 898.18 821.18 115.06 855.03 495.77 706.51 540.12 416.00 676.11 154.87 812.97 891.23 146.69 401.26 825.14 375.98 381.30 231.46 267.52 266.46 476.99 428.08 495.38 913.57 171.86 138.65 926.50 881.85 675.40 589.44 630.07 900.92 602.96 174.62 185.99 186.11 619.79 706.41 323.88 0.00 96.31 743.92 471.12 424.12 273.95 444.44 647.22 528.51 372.25 508.18 541.01 340.01 133.19 440.02 835.51 441.25 681.58 176.94 368.12 827.30 798.95 111.90 884.16 412.16 861.70 524.17 867.23 583.61 500.55 967.39 397.36 678.15 555.91 213.73 830.82 878.15 288.54 795.53 317.20 875.27 841.41 449.59 893.40 64.86 142.65 754.15 957.49 817.40 911.58 187.02 948.98 151.57 217.98 868.68 188.80 780.50 892.97 487.17 172.98 229.94 302.05 198.42 876.61 251.66 834.44 867.43 79.45 343.16 493.60 462.30 353.37 303.78 765.98 198.80 216.71 466.20 441.99 136.94 946.80
404.39 388.26 296.21 807.56 306.06 139.79 460.17 376.13 344.59 353.65 871.12 913.77 301.90 227.06 252.92 298.14 805.81 294.45 269.69 162.84 160.93 737.88 230.54 535.93 252.97 565.23 117.22 260.61 437.03 764.43 533.94 364.89 861.57 773.62 184.74 375.17 75.62 182.09 348.95 674.59 303.77 437.10 812.02 244.91 379.43 597.31 175.06 839.19 676.62 82.68 606.60 455.01 455.72 835.00 649.04 470.43 520.77 740.90 147.39 775.63 84.00 487.66 509.74 516.65 406.21 265.11 506.15 143.40 692.65 529.65 339.55 212.99 903.61 769.46 183.71 830.42 567.54 759.68 565.83 464.05 703.84 205.51 761.25 912.65 243.00 379.78 823.87 468.01 411.27 276.24 343.70 320.17 532.26 467.83 550.65 890.96 209.66 234.96 981.44 895.97 701.11 644.71 675.44 926.63 623.64 267.39 224.61 265.86 673.82 732.87 395.63 96.31 0.00 775.04 520.66 506.02 329.22 499.71 735.22 603.67 284.86 547.08 617.26 395.28 188.46 470.14 881.68 465.81 682.54 248.71 447.87 791.68 747.23 173.73 874.67 436.72 809.98 560.26 959.21 638.36 545.33 988.81 487.42 653.54 538.29 289.91 799.81 866.81 343.29 786.06 378.65 959.71 869.66 502.58 878.50 154.92 46.34 702.43 1029.01 848.52 875.47 192.45 926.37 236.01 128.65 816.96 150.48 804.85 897.01 542.44 207.59 317.48 357.32 253.07 841.36 257.09 839.87 963.74 84.88 439.47 547.10 517.57 437.48 380.86 762.14 261.57 234.98 519.19 470.91 165.04 931.75
779.92 444.01 773.79 199.92 738.74 858.75 992.82 1067.50 588.94 923.04 184.19 236.30 699.68 715.16 827.61 801.58 145.24 626.78 834.20 877.22 813.96 98.67 805.23 1239.02 665.72 1179.70 795.14 592.94 1048.95 381.92 482.59 956.95 231.70 258.65 881.06 920.65 798.05 680.92 1000.32 1311.64 836.42 1191.91 139.25 777.56 970.70 1187.58 817.94 209.37 155.65 802.37 1196.29 1091.49 1152.04 125.32 1195.39 1078.59 1067.63 1329.46 801.78 67.07 833.10 1148.36 1162.63 1101.61 519.04 743.11 1157.30 719.61 1434.80 1106.81 736.79 738.30 315.79 139.64 716.84 131.72 1064.33 183.98 1190.54 1055.32 294.81 739.03 100.68 298.15 776.82 1130.79 132.25 725.65 601.57 941.37 726.80 856.36 1093.46 1078.56 1143.61 234.21 844.81 712.96 419.92 224.92 1269.14 1091.86 346.08 1537.92 1346.85 918.54 816.67 768.22 256.30 1405.06 654.75 743.92 775.04 0.00 1117.58 1168.04 770.39 1013.79 128.54 903.23 1059.90 1112.67 1238.10 986.86 806.38 1067.96 1472.20 1110.21 1312.26 809.31 728.91 90.25 117.02 800.60 230.63 1045.07 119.63 1155.18 292.66 1241.82 1148.61 340.34 782.04 305.07 1169.16 734.86 127.04 176.46 946.75 115.92 1026.14 552.08 1164.28 1100.40 149.48 808.78 785.93 72.61 529.52 73.48 188.74 791.47 269.62 694.34 891.69 161.42 846.80 102.49 204.19 1087.41 889.95 801.50 967.06 666.83 152.72 605.06 229.37 414.18 777.27 795.86 995.96 1026.23 914.00 1003.99 42.09 841.17 931.30 1105.20 1075.02 744.13 230.32
427.63 728.76 409.34 997.14 388.72 380.87 222.69 400.04 591.34 230.17 1184.68 1233.72 483.45 430.78 289.97 360.54 1148.35 523.44 328.03 366.28 444.30 1075.34 312.35 228.33 471.89 146.27 466.40 527.02 130.36 952.50 847.27 196.74 1044.29 1064.17 409.16 249.64 505.31 499.13 216.16 260.54 310.49 572.50 1118.64 367.04 173.90 179.36 411.14 1080.71 969.12 483.67 162.86 84.31 297.79 1068.62 144.29 160.87 117.32 285.57 391.93 1111.33 570.13 166.33 144.25 181.85 831.93 403.90 309.26 478.13 449.45 61.81 669.87 421.17 1087.23 1112.00 487.98 1181.69 281.04 1011.00 144.68 106.45 932.83 418.62 1103.79 1118.01 391.23 250.95 1165.66 552.03 669.27 300.12 397.97 268.41 105.00 119.66 122.10 1177.97 345.09 432.68 1155.85 1126.37 218.04 275.62 852.38 506.65 435.92 341.28 337.02 351.74 919.82 518.15 538.16 471.12 520.66 1117.58 0.00 390.65 354.38 225.75 992.29 497.28 422.84 79.24 147.00 193.59 379.46 94.97 421.10 223.60 297.90 329.16 517.10 1116.33 1089.77 405.05 1093.99 145.15 1152.52 91.33 1171.72 245.80 31.03 1194.17 540.58 948.50 133.84 394.73 1122.13 1177.96 200.16 1081.14 226.38 1061.05 532.73 62.53 1205.25 460.35 527.31 1044.97 1143.27 1126.73 1214.82 578.91 1152.93 430.73 619.66 1159.50 425.88 1092.49 1231.74 109.65 424.60 357.93 203.23 535.54 1178.82 571.29 1081.32 1112.34 484.53 474.14 248.87 209.34 334.01 292.00 1103.48 318.54 361.18 77.81 49.75 460.69 1256.40
575.64 826.23 506.81 1153.94 525.75 460.28 539.81 256.47 688.81 419.35 1284.50 1342.20 580.92 528.25 387.44 462.91 1245.82 620.91 425.50 437.23 497.42 1172.81 409.82 309.54 584.20 322.47 475.34 624.49 331.58 1049.97 860.19 367.77 1201.09 1175.26 377.65 429.47 524.35 551.27 297.45 489.15 352.97 265.05 1216.11 411.83 397.61 372.70 504.62 1228.34 1012.39 465.53 429.48 369.17 132.68 1166.09 429.95 263.96 438.88 574.31 509.35 1154.60 535.77 454.78 476.86 208.80 813.79 501.37 93.92 563.48 390.26 369.28 605.99 518.64 1246.68 1209.47 539.18 1279.15 577.39 1108.47 343.99 372.06 1030.30 516.09 1201.26 1253.41 488.70 232.49 1249.26 674.02 767.57 355.04 519.96 452.65 401.31 295.33 432.16 1275.44 442.56 530.15 1277.68 1226.19 479.27 560.31 1036.85 767.88 279.74 332.68 448.22 449.21 1017.29 282.29 646.40 424.12 506.02 1168.04 390.65 0.00 511.18 532.22 1071.34 751.95 221.16 385.50 337.70 387.45 476.93 314.71 632.20 226.07 515.79 426.63 619.47 1213.80 1187.24 502.52 1191.46 345.04 1249.99 398.57 1269.19 507.13 383.96 1329.57 708.67 1051.53 457.29 538.40 1228.32 1295.38 375.24 1196.79 267.75 1223.82 857.48 328.12 1302.72 488.98 488.60 1142.44 1306.04 1224.20 1312.29 611.14 1296.60 528.20 509.71 1256.97 411.91 1189.96 1317.09 411.49 407.47 482.25 383.06 622.54 1276.29 668.76 1238.12 1259.08 503.57 641.89 483.30 523.02 518.92 333.37 1190.10 416.01 395.75 331.82 388.48 558.16 1353.87
131.42 432.81 90.50 642.76 34.34 237.91 254.70 448.07 264.12 281.83 830.30 879.34 145.63 166.92 123.74 48.27 811.35 213.98 96.45 214.86 250.92 728.46 115.87 508.72 217.04 457.48 278.77 180.14 381.65 663.14 637.17 274.64 689.91 755.86 292.02 215.01 277.11 245.21 295.21 588.56 185.65 599.80 779.96 165.82 254.13 491.08 205.58 726.33 614.74 254.54 450.59 358.37 484.62 744.61 498.67 415.53 363.23 601.38 181.83 756.95 341.93 408.47 422.74 397.21 560.14 120.16 498.74 243.31 760.66 387.67 414.52 187.67 791.99 774.67 237.08 872.23 305.65 694.88 420.15 320.69 623.37 150.76 766.79 797.56 165.84 471.21 829.41 197.65 330.80 289.74 43.59 85.97 348.48 395.89 398.63 825.60 175.62 150.31 890.85 771.99 546.06 413.48 657.01 834.67 657.72 270.56 204.93 118.24 655.96 732.95 211.09 273.95 329.22 770.39 354.38 511.18 0.00 269.65 673.69 331.95 471.20 390.45 501.38 233.55 173.90 383.86 766.15 429.16 595.54 109.63 195.22 795.95 751.96 208.49 796.70 355.32 815.52 393.98 938.22 521.83 385.41 873.72 241.90 594.12 398.77 92.78 767.75 840.21 237.72 726.76 324.91 747.45 652.87 351.42 878.03 263.79 318.29 763.91 829.67 843.87 880.20 370.44 850.98 175.38 422.52 821.69 311.81 752.28 922.98 358.66 289.21 67.61 233.64 250.17 831.94 269.75 726.94 855.63 289.84 242.37 354.46 286.34 143.61 323.12 812.48 131.43 293.70 334.81 304.63 227.19 936.02
325.94 686.19 320.52 912.41 303.99 365.94 39.54 432.51 504.83 211.74 1074.25 1145.28 394.63 380.46 306.36 317.92 1014.02 454.69 315.83 342.89 418.34 969.17 317.82 434.65 386.85 355.41 451.47 420.85 302.65 892.68 807.66 185.31 959.56 999.62 424.36 130.56 513.76 480.07 258.97 422.31 304.76 650.30 990.73 254.80 155.47 370.18 374.61 995.98 884.39 460.28 286.95 228.67 400.88 1014.26 369.53 295.31 162.25 397.08 352.32 1026.60 515.69 179.78 194.05 350.47 806.19 344.08 439.65 449.90 658.59 278.88 627.30 377.59 1061.64 972.80 449.98 1112.94 171.26 964.53 308.80 161.51 864.08 402.58 1007.50 1067.21 353.82 427.10 1070.12 394.76 571.51 339.21 313.24 250.05 167.06 270.84 208.61 1072.54 329.70 354.01 1046.96 1041.64 379.81 184.79 840.56 635.54 628.72 361.10 293.91 368.13 869.50 678.03 420.83 444.44 499.71 1013.79 225.75 532.22 269.65 0.00 918.74 357.13 487.30 288.38 353.32 164.31 387.27 265.38 637.30 339.83 366.85 322.50 346.67 1036.66 984.21 369.37 1014.45 232.05 1040.07 212.82 1128.14 317.36 255.86 1035.57 372.15 859.37 194.47 278.93 1002.94 1081.02 219.98 924.89 285.33 969.40 521.29 274.88 1107.81 424.67 546.05 994.36 1051.62 1083.15 1097.72 551.07 1037.13 388.16 591.55 1045.27 437.84 950.41 1130.18 177.24 412.15 315.77 149.16 475.72 1055.40 510.46 996.59 980.72 498.76 305.37 98.69 57.65 126.04 304.89 1052.56 277.79 390.23 258.27 197.80 451.17 1176.65
747.65 346.96 645.25 203.18 643.69 752.42 884.49 970.80 460.40 876.01 280.77 353.00 571.14 616.80 702.32 706.53 221.74 531.73 740.38 748.68 706.96 217.15 724.70 1130.91 537.18 1051.16 698.44 497.89 973.12 352.39 385.89 879.89 260.74 227.10 820.44 852.75 696.10 566.73 904.17 1201.90 820.31 1094.21 246.46 764.91 850.05 1091.09 720.24 270.93 58.95 705.67 1067.75 983.69 1067.30 246.01 1110.85 997.04 972.58 1218.46 698.36 146.88 736.05 1058.40 1073.00 1006.56 535.17 647.84 1060.60 605.42 1306.26 1001.56 640.09 609.76 357.09 222.21 652.40 258.28 979.34 151.06 1070.78 934.67 210.22 641.33 229.22 335.78 648.28 1014.05 260.79 754.37 473.03 878.68 630.10 759.66 1018.32 1023.05 1050.52 338.98 725.05 621.63 457.55 332.13 1184.60 1017.71 313.16 1452.26 1250.18 821.84 782.78 673.17 127.76 1307.36 689.56 647.22 735.22 128.54 992.29 1071.34 673.69 918.74 0.00 926.03 984.04 984.13 1114.92 870.63 689.64 1003.97 1380.04 1034.41 1245.80 741.51 744.49 218.79 231.93 702.90 303.57 951.24 248.17 1042.84 372.47 1175.11 1023.32 411.94 761.92 249.09 1072.46 639.81 252.56 261.98 880.97 174.30 933.87 580.19 1172.31 1023.88 278.02 699.60 688.88 201.15 497.97 202.02 305.44 691.96 353.47 637.62 794.99 270.26 812.48 199.62 321.57 1027.85 820.20 706.45 879.38 570.13 270.99 508.36 267.69 475.81 680.57 826.14 964.37 941.89 817.30 947.13 170.63 730.89 852.92 1008.50 959.32 625.11 358.86
340.47 722.04 340.61 852.98 297.61 523.99 317.59 669.09 527.39 413.65 876.32 952.10 414.72 416.31 409.65 360.45 843.38 477.25 408.63 515.67 514.19 881.86 387.27 703.86 474.31 599.45 553.44 443.41 551.60 807.36 901.92 421.89 748.18 836.13 584.78 415.30 573.89 515.67 501.69 709.75 449.15 866.35 826.66 451.61 398.22 639.38 483.99 784.60 920.52 558.04 536.86 506.72 620.61 977.24 593.50 569.20 453.51 582.65 456.28 894.96 609.78 408.61 386.53 624.36 828.75 386.12 695.74 493.42 879.60 549.85 663.15 450.94 850.26 844.80 487.19 988.54 378.51 812.92 568.87 482.84 845.64 414.03 860.49 855.83 424.09 711.84 923.11 325.44 594.07 527.96 349.37 349.47 487.57 559.63 439.88 889.32 417.73 389.86 834.51 889.70 667.25 502.13 650.82 828.02 832.42 471.12 490.72 381.51 798.27 897.76 322.09 528.51 603.67 903.23 497.28 751.95 331.95 357.13 926.03 0.00 671.76 532.42 644.28 406.85 457.34 550.96 866.13 576.41 559.33 405.44 247.93 890.92 858.36 475.60 854.97 499.41 811.76 472.89 1047.46 545.32 508.05 930.94 257.98 679.85 456.79 360.78 814.45 868.59 457.76 826.26 521.91 683.97 598.12 518.52 893.51 530.90 650.01 903.16 766.19 976.71 904.54 568.67 919.01 424.01 700.93 866.37 575.08 800.74 980.41 497.45 575.70 360.37 368.89 484.67 855.23 533.02 785.21 768.27 553.11 324.76 439.56 374.99 233.03 547.43 917.59 412.91 534.19 535.13 490.53 490.46 948.34
555.93 673.12 473.07 1055.70 451.97 324.24 485.47 91.27 562.11 360.20 1155.98 1198.63 487.62 467.51 422.68 464.69 1090.67 525.82 432.84 305.19 281.78 1022.74 409.13 329.44 446.86 444.15 345.09 529.80 297.99 976.16 774.24 301.99 1137.56 1058.48 228.69 376.09 360.48 430.23 231.67 581.62 329.41 194.59 1096.88 342.85 331.83 393.92 348.09 1102.66 960.52 360.03 478.97 380.61 223.11 1084.59 521.48 356.97 454.27 635.80 356.69 1060.49 368.86 516.09 519.73 339.80 691.07 427.56 253.82 391.54 479.01 406.98 609.32 432.51 1154.94 1054.32 378.90 1115.28 579.35 1022.34 434.42 387.45 935.21 392.32 1046.11 1182.48 395.53 231.56 1108.73 624.82 676.07 257.48 497.17 429.09 418.69 350.55 468.84 1175.82 390.71 457.71 1203.87 1135.74 569.70 584.38 916.85 834.32 338.78 200.64 316.18 408.78 902.80 468.57 622.35 372.25 284.86 1059.90 422.84 221.16 471.20 487.30 984.04 671.76 0.00 411.88 410.77 343.08 339.06 352.86 694.21 322.95 612.08 427.30 590.79 1076.54 1032.09 330.75 1157.56 316.91 1094.84 451.22 1138.76 582.49 433.60 1251.16 639.89 938.40 524.79 470.42 1084.67 1142.72 316.09 1070.92 201.97 1173.74 822.81 365.82 1163.36 307.39 331.20 987.29 1151.32 1133.38 1160.33 477.31 1211.23 450.04 413.51 1101.82 215.21 1089.71 1145.15 428.87 264.70 453.10 354.99 501.21 1126.22 541.95 1124.73 1185.27 369.74 601.46 484.20 457.24 490.85 267.59 1047.00 394.11 263.71 356.24 402.84 358.93 1198.98
486.85 759.39 464.24 1021.01 424.79 407.29 274.39 391.11 634.56 233.87 1200.38 1257.59 536.08 482.18 369.21 379.60 1155.22 602.68 370.26 396.25 478.92 1118.91 391.59 171.44 527.77 67.03 492.82 570.59 126.42 1011.39 871.40 214.44 1080.36 1082.36 403.14 259.00 568.19 576.68 210.14 217.77 345.50 568.56 1122.97 361.58 214.90 106.96 443.77 1116.78 1005.19 513.64 83.62 124.81 264.58 1110.85 126.72 150.13 126.13 271.15 416.06 1108.30 600.90 167.97 145.89 177.91 861.10 483.14 305.32 546.51 370.21 17.43 698.92 474.20 1128.23 1098.72 512.46 1178.17 318.21 1030.77 86.65 142.81 1012.07 478.81 1157.24 1136.20 452.62 319.40 1178.84 588.10 705.34 323.99 434.04 304.48 129.25 96.17 92.54 1203.85 398.83 495.51 1172.56 1150.24 200.47 246.06 870.57 489.08 467.64 365.02 322.47 430.98 971.22 438.91 545.77 508.18 547.08 1112.67 79.24 385.50 390.45 288.38 984.13 532.42 411.88 0.00 130.79 194.32 434.90 88.95 395.91 159.43 284.11 408.40 536.16 1143.47 1133.95 443.73 1173.23 141.68 1178.82 80.40 1224.75 232.31 54.90 1212.36 549.94 980.85 153.07 430.80 1129.07 1202.09 247.33 1050.81 222.44 1057.11 505.63 58.59 1226.29 499.03 556.85 1124.21 1139.33 1169.49 1238.92 605.08 1189.00 461.36 638.11 1171.19 437.40 1076.33 1244.25 133.52 429.66 394.00 212.59 589.29 1187.64 565.37 1117.39 1106.32 563.77 523.41 273.12 233.99 344.08 288.06 1082.15 377.61 366.31 55.64 127.78 485.17 1283.54
574.63 875.76 556.34 1083.93 535.72 489.20 369.69 406.33 679.59 322.44 1271.47 1320.51 630.45 577.78 436.97 507.54 1272.34 670.44 475.03 466.15 582.12 1222.34 459.35 81.33 618.89 63.76 574.73 674.02 230.83 1099.50 975.81 332.15 1154.35 1145.43 475.26 389.79 641.24 646.13 280.04 198.71 437.04 507.02 1220.30 488.18 320.90 62.62 548.18 1190.47 1082.45 583.07 129.97 231.31 303.33 1215.62 160.78 166.89 248.88 347.38 520.47 1212.71 629.42 283.66 276.68 208.65 888.75 550.90 243.78 625.13 366.94 148.22 816.87 568.17 1234.23 1215.84 634.98 1308.96 394.19 1095.74 114.13 253.45 1079.83 565.62 1250.79 1199.27 538.23 349.69 1309.63 686.97 793.55 382.24 544.97 415.41 186.26 190.49 223.33 1266.77 492.09 579.68 1271.06 1213.16 234.53 376.85 933.64 521.72 336.85 394.27 449.07 498.74 1066.82 424.93 672.08 541.01 617.26 1238.10 147.00 337.70 501.38 353.32 1114.92 644.28 410.77 130.79 0.00 325.11 526.46 215.12 294.50 205.19 330.46 476.16 635.56 1263.33 1227.49 543.77 1240.99 267.85 1295.94 204.10 1318.72 259.24 178.03 1275.43 664.36 1043.92 241.29 541.73 1208.09 1281.38 331.40 1167.93 309.74 1183.42 636.42 184.90 1293.50 567.17 639.94 1191.97 1265.64 1273.73 1347.35 693.65 1299.93 577.73 714.87 1278.02 508.00 1177.23 1327.89 196.44 509.52 504.93 343.38 682.54 1284.97 687.13 1191.38 1232.49 620.46 597.58 330.13 337.10 470.39 352.97 1212.94 465.54 443.30 177.40 196.75 607.69 1381.72
307.43 569.82 304.28 876.31 248.12 260.22 190.27 288.29 440.24 76.85 1022.01 1112.89 365.98 320.45 221.03 185.28 1025.13 420.98 210.95 237.17 324.53 942.24 213.72 329.17 333.45 261.35 336.29 393.92 148.10 841.76 703.23 41.09 896.96 888.04 310.90 84.37 380.27 396.97 120.89 412.09 151.18 485.99 962.91 210.04 20.58 264.69 275.60 933.38 848.29 354.56 277.94 124.82 254.77 951.54 315.21 216.36 153.96 370.93 247.89 984.95 445.09 247.75 246.34 246.45 702.82 293.16 314.94 379.97 548.18 176.89 504.60 341.52 933.91 981.05 318.14 1067.25 320.36 838.35 255.20 87.14 830.37 310.64 980.57 941.88 291.51 347.13 1043.19 419.35 544.58 193.70 277.14 185.63 150.35 212.02 200.50 1038.10 230.38 323.31 1063.65 1005.54 385.27 331.74 676.25 643.40 490.64 249.89 181.37 282.80 809.49 531.92 405.09 340.01 395.28 986.86 193.59 387.45 233.55 164.31 870.63 406.85 343.08 194.32 325.11 0.00 283.79 161.94 555.37 195.61 414.53 231.89 341.84 999.25 965.74 275.56 996.72 121.77 1029.30 213.37 1092.07 327.58 215.92 1018.04 375.31 786.53 261.03 279.38 950.70 1027.77 113.21 945.36 141.11 981.00 535.33 153.25 1054.15 330.86 441.62 946.34 1063.22 1047.08 1089.96 425.59 1037.58 341.27 492.54 1034.79 319.46 919.84 1124.88 160.53 299.61 204.62 37.96 424.80 1027.58 460.96 933.99 1050.87 383.55 353.15 223.30 204.60 173.82 140.58 1006.05 231.60 254.76 169.86 143.84 290.85 1139.32
277.69 423.10 139.95 740.43 183.77 93.73 352.69 421.89 296.87 278.09 845.89 937.17 203.64 133.48 89.49 125.63 847.65 253.51 127.55 116.78 91.51 792.16 70.07 509.50 152.46 497.78 136.50 273.28 330.71 658.03 496.41 257.84 843.16 764.35 170.39 256.71 203.66 189.14 291.34 622.76 183.33 438.08 762.56 137.43 269.49 525.85 31.68 808.18 650.73 124.06 511.69 348.69 424.22 756.16 523.75 398.97 404.90 637.90 41.07 792.94 237.44 472.21 483.76 445.06 472.32 109.43 458.04 165.01 749.76 422.60 364.21 98.48 894.34 775.27 114.15 862.28 404.11 688.31 464.60 354.11 662.90 67.35 816.97 865.31 56.47 324.41 879.59 285.76 389.96 252.24 185.15 168.08 425.94 395.21 444.33 857.52 57.57 137.15 885.74 848.23 597.50 517.37 622.45 834.62 649.67 221.33 117.56 122.85 563.74 618.80 290.08 133.19 188.46 806.38 379.46 476.93 173.90 387.27 689.64 457.34 339.06 434.90 526.46 283.79 0.00 353.16 777.42 411.10 613.15 88.24 282.19 847.40 768.66 46.77 853.07 332.46 855.37 457.83 819.47 554.63 410.49 941.47 338.18 680.41 504.86 131.36 774.77 827.10 259.56 743.24 284.21 848.77 743.03 385.60 910.78 102.07 202.62 758.38 930.31 804.04 889.61 288.59 889.56 125.07 248.62 838.39 182.55 768.76 881.59 435.07 177.88 144.97 251.00 216.73 827.23 273.99 808.72 867.14 182.88 315.53 406.73 399.06 271.95 284.33 818.09 109.48 195.21 379.26 386.74 116.09 935.42
425.46 731.76 406.84 1006.31 380.12 330.35 250.53 310.40 560.53 144.92 1159.49 1235.67 480.95 421.72 323.04 347.22 1157.13 556.51 344.29 307.30 392.81 1074.24 345.42 226.33 466.79 151.36 404.36 525.92 65.03 985.57 810.01 174.59 1058.90 1049.98 314.19 200.44 514.53 516.04 121.19 269.60 285.09 503.84 1109.58 320.24 153.92 189.99 382.38 1095.32 998.60 424.69 172.57 71.14 202.82 1084.88 199.63 65.90 149.23 327.32 354.67 1046.91 511.95 193.95 171.87 105.91 772.95 436.97 240.60 477.92 454.54 73.60 663.23 451.64 1067.25 1104.23 467.31 1193.20 262.68 1000.29 134.39 110.09 965.90 417.42 1112.57 1103.82 404.39 287.05 1109.63 556.34 674.49 263.61 427.45 297.89 126.00 108.74 118.52 1183.58 327.62 448.17 1083.61 1134.33 269.67 272.04 838.19 481.46 411.55 293.47 281.13 384.81 910.76 479.97 497.41 440.02 470.14 1067.96 94.97 314.71 383.86 265.38 1003.97 550.96 352.86 88.95 215.12 161.94 353.16 0.00 452.08 128.63 344.67 334.77 503.78 1114.71 1082.26 382.34 1099.60 52.73 1161.30 117.84 1172.63 272.03 111.92 1179.70 491.38 939.90 179.05 417.77 1112.64 1140.70 189.03 1056.32 150.89 1030.96 560.35 32.44 1174.44 411.97 480.39 1078.04 1113.18 1141.44 1196.07 516.13 1175.97 442.54 555.32 1151.99 348.45 1030.80 1204.29 135.73 343.58 361.67 183.25 528.83 1174.25 558.78 1095.93 1017.37 493.75 495.95 257.24 213.57 317.93 201.88 1106.27 323.94 277.36 49.05 81.66 452.79 1235.09
847.90 1120.44 817.75 1378.43 800.49 741.89 631.43 652.76 974.09 597.00 1548.37 1614.75 874.28 832.53 711.07 740.65 1550.10 944.54 736.52 759.38 785.04 1482.17 714.10 375.83 859.02 358.26 827.42 946.29 487.47 1355.86 1222.57 566.82 1448.85 1439.93 766.27 592.67 915.11 920.23 573.27 258.63 706.55 801.52 1512.49 694.64 546.15 357.12 794.94 1484.97 1376.95 861.96 359.39 483.54 575.18 1466.58 276.81 461.39 522.04 416.37 767.23 1469.35 923.92 457.52 479.60 471.92 1183.25 825.00 538.28 894.80 313.37 378.48 1059.97 842.27 1459.48 1469.93 873.51 1539.22 675.11 1390.24 363.87 503.86 1353.93 820.37 1505.54 1493.77 796.62 634.70 1501.86 962.29 1081.04 647.39 809.74 680.18 480.76 484.99 451.35 1561.27 719.85 853.78 1535.19 1507.66 301.13 563.24 1228.14 464.33 541.67 688.77 673.36 772.84 1321.57 444.33 889.64 835.51 881.68 1472.20 421.10 632.20 766.15 637.30 1380.04 866.13 694.21 395.91 294.50 555.37 777.42 452.08 0.00 421.08 523.57 732.27 890.61 1504.52 1491.52 779.81 1497.10 444.96 1548.28 433.52 1592.82 414.70 448.65 1569.93 883.61 1338.42 470.71 806.50 1500.28 1553.26 608.38 1446.72 583.49 1418.16 855.22 419.64 1587.34 810.65 905.09 1446.72 1500.38 1530.54 1567.19 935.15 1564.70 822.41 980.02 1538.25 773.15 1453.24 1543.78 490.94 774.67 759.99 573.64 939.64 1504.81 941.07 1485.88 1469.45 894.33 881.76 624.63 579.65 705.13 571.80 1443.20 736.34 708.45 431.34 470.82 846.22 1597.61
466.87 756.36 443.31 1069.46 413.71 326.02 339.73 231.68 615.92 233.90 1192.23 1271.45 513.63 457.50 358.65 380.89 1166.30 568.74 374.73 342.91 449.02 1107.83 361.53 194.30 497.23 195.73 411.55 559.51 106.44 986.17 842.75 154.52 1092.57 1083.65 348.67 253.93 510.20 511.71 156.80 324.64 291.44 440.14 1113.59 332.65 184.36 232.88 412.47 1128.99 982.74 441.31 243.05 199.77 166.64 1115.32 208.39 106.00 277.86 413.76 387.41 1088.32 530.97 322.58 300.50 50.84 789.57 449.20 176.90 495.26 435.17 176.86 661.17 427.51 1097.69 1145.64 481.19 1191.31 391.31 1017.34 229.18 235.48 978.13 445.74 1146.16 1136.28 454.09 213.62 1208.78 547.04 710.17 226.31 411.59 351.07 254.53 123.90 247.15 1192.17 377.48 479.35 1147.82 1142.92 282.14 388.88 871.86 570.75 419.73 279.88 293.54 397.04 946.54 358.04 543.69 441.25 465.81 1110.21 223.60 226.07 429.16 339.83 1034.41 576.41 322.95 159.43 205.19 195.61 411.10 128.63 421.08 0.00 437.92 343.36 469.53 1163.03 1115.00 401.52 1108.19 181.36 1194.89 239.83 1178.06 346.28 212.53 1210.14 544.87 973.49 307.68 455.13 1125.80 1173.44 250.68 1097.73 177.48 1115.45 665.06 161.07 1199.48 429.39 484.01 1094.15 1197.67 1133.07 1227.61 514.07 1213.33 458.33 558.94 1184.73 352.07 1072.21 1122.70 264.36 353.59 396.20 207.52 549.03 1165.23 598.01 1129.60 1146.00 489.42 522.71 336.73 342.20 343.38 150.72 1150.54 371.47 287.37 173.86 210.29 466.78 1176.53
549.93 970.94 621.83 1155.48 602.11 580.41 364.85 590.55 817.97 453.87 1296.82 1392.06 695.94 682.81 571.08 599.81 1283.61 781.75 558.95 603.46 652.04 1273.51 582.54 411.79 711.43 307.50 665.94 747.91 381.47 1053.32 1044.80 424.25 1241.93 1178.61 649.84 459.79 758.16 715.21 439.81 341.71 555.28 780.84 1249.85 534.70 398.56 357.73 617.17 1239.29 1210.28 700.48 200.49 289.71 495.73 1299.54 283.07 394.92 273.22 121.71 589.46 1322.93 766.54 194.88 172.80 387.08 1048.74 667.34 561.97 676.52 610.68 301.54 919.13 687.58 1299.19 1207.29 691.99 1399.20 412.33 1183.32 325.82 340.04 1160.85 652.21 1295.42 1260.60 656.14 547.23 1351.93 664.35 898.57 535.96 639.13 537.85 273.84 355.50 226.15 1338.32 594.42 688.22 1281.03 1284.71 299.21 275.17 1021.22 268.69 646.28 552.69 495.59 632.85 1165.12 516.49 675.10 681.58 682.54 1312.26 297.90 515.79 595.54 366.85 1245.80 559.33 612.08 284.11 330.46 414.53 613.15 344.67 523.57 437.92 0.00 594.40 642.47 1325.85 1250.01 617.13 1284.04 332.88 1287.39 229.84 1432.62 175.47 266.87 1336.76 641.74 1131.50 221.50 645.78 1237.64 1315.51 444.95 1239.48 410.11 1243.30 407.71 315.24 1363.57 672.43 728.88 1274.32 1222.28 1370.06 1363.58 803.57 1360.13 698.81 811.19 1279.76 661.72 1232.94 1410.61 267.99 613.83 602.06 413.38 731.63 1313.20 783.37 1244.86 1232.27 742.48 574.96 377.32 309.20 451.93 475.73 1320.62 542.51 597.02 331.85 319.19 669.10 1423.97
209.22 413.00 99.95 752.39 124.20 173.24 326.25 384.30 316.32 189.85 857.87 949.74 174.06 135.79 39.19 61.36 854.17 261.21 59.08 154.92 147.83 786.24 18.17 451.91 215.84 457.32 188.59 253.69 352.49 663.55 574.37 241.54 799.54 788.84 219.30 199.12 254.53 236.90 241.04 589.70 157.18 490.17 823.65 110.99 217.59 454.39 116.20 835.96 701.36 208.58 446.56 304.69 386.92 799.67 473.45 345.40 354.60 586.00 119.03 823.99 256.28 423.15 443.35 394.20 556.84 141.67 437.46 225.53 683.01 390.97 354.11 153.22 845.13 817.82 170.29 889.49 353.81 743.05 450.27 302.21 670.60 124.44 809.61 826.78 122.59 412.65 872.23 284.32 404.35 220.94 130.26 124.86 381.94 359.92 420.56 848.81 65.99 149.12 891.26 799.56 547.20 448.90 655.82 789.13 610.79 233.10 117.56 89.51 624.83 635.25 251.70 176.94 248.71 809.31 329.16 426.63 109.63 322.50 741.51 405.44 427.30 408.40 476.16 231.89 88.24 334.77 732.27 343.36 594.40 0.00 217.92 840.04 795.59 98.86 764.83 318.78 858.34 410.38 903.77 478.32 360.19 902.94 330.20 649.02 442.90 111.77 835.86 875.46 183.25 804.33 263.63 834.12 699.81 367.21 926.86 154.16 286.59 750.79 916.34 858.78 923.83 331.15 869.97 114.97 333.14 858.34 241.08 824.54 938.68 384.77 223.96 80.70 245.53 237.50 888.32 276.30 836.57 872.66 233.75 282.19 338.26 347.16 231.77 213.49 810.50 51.89 240.17 373.70 343.52 188.23 980.11
92.54 518.31 225.91 674.67 174.26 346.20 348.10 556.36 349.81 377.48 727.58 818.67 182.23 267.29 232.03 156.56 696.77 286.21 204.74 323.15 335.69 721.80 224.16 621.39 264.04 603.19 352.57 265.83 452.97 636.81 683.98 382.93 755.73 689.89 400.31 368.60 380.38 329.40 412.99 699.98 333.54 708.09 644.06 284.98 362.42 606.53 313.87 769.11 760.41 387.11 583.13 466.66 592.91 729.31 633.01 512.41 431.39 642.08 323.26 735.88 445.20 520.09 498.01 520.37 649.04 222.16 606.94 307.71 890.02 518.73 464.73 251.44 819.88 686.62 318.25 854.13 335.42 713.96 582.87 428.98 695.60 280.71 741.33 817.49 231.95 579.50 770.56 77.51 378.57 413.78 189.26 248.69 449.30 517.47 458.47 739.02 259.42 249.17 864.52 729.73 680.47 472.58 551.86 911.16 782.74 414.84 299.30 182.01 616.73 827.57 74.16 368.12 447.87 728.91 517.10 619.47 195.22 346.67 744.49 247.93 590.79 536.16 635.56 341.84 282.19 503.78 890.61 469.53 642.47 217.92 0.00 771.76 731.41 316.78 764.46 463.61 728.39 509.00 945.96 607.96 517.74 845.15 143.91 582.79 519.00 237.43 656.27 746.37 346.01 702.87 433.11 832.41 679.32 495.09 797.82 350.00 423.76 753.65 788.28 802.39 771.11 424.88 774.43 246.47 530.81 740.36 375.58 702.73 845.56 439.12 403.82 175.90 364.58 324.46 708.73 355.44 753.28 845.92 362.99 95.85 387.56 404.32 275.18 431.41 771.00 221.37 401.99 497.53 467.35 290.96 864.97
864.30 534.26 795.99 245.88 761.61 874.04 1050.65 1139.92 679.19 1013.29 108.58 146.05 735.30 756.05 826.36 824.45 74.99 649.65 788.30 884.88 830.60 67.49 821.87 1232.59 747.79 1210.50 853.88 615.81 1091.04 303.94 572.84 1008.51 210.82 178.65 897.70 983.12 829.52 700.15 1028.21 1345.34 926.67 1225.31 134.21 867.81 978.67 1243.59 834.04 226.01 245.90 867.49 1218.70 1043.57 1168.68 211.18 1260.62 1148.78 1090.50 1347.08 806.33 121.92 873.82 1130.97 1153.05 1124.48 609.29 759.75 1226.11 738.84 1470.42 1126.04 819.84 791.05 255.12 118.56 733.48 97.62 1085.22 210.49 1188.26 1063.29 346.48 821.47 30.43 228.97 831.02 1163.06 49.33 694.25 654.76 989.20 811.52 854.08 1112.23 1145.09 1162.38 166.79 867.23 729.60 350.74 166.89 1314.17 1053.58 372.59 1470.40 1384.99 989.43 900.20 791.09 300.72 1421.16 745.00 827.30 791.68 90.25 1116.33 1213.80 795.95 1036.66 218.79 890.92 1076.54 1143.47 1263.33 999.25 847.40 1114.71 1504.52 1163.03 1325.85 840.04 771.76 0.00 78.74 834.00 140.38 1079.86 79.16 1162.09 224.73 1269.69 1147.36 282.31 777.00 273.89 1181.60 757.73 124.19 116.20 1005.01 161.88 1052.28 480.92 1180.92 1119.53 112.59 842.82 838.02 89.25 449.52 113.05 98.49 822.55 202.20 763.75 912.54 91.17 863.44 136.36 143.99 1122.41 933.71 824.37 985.11 697.01 122.63 695.31 226.23 376.33 810.02 757.58 1015.19 1038.01 936.91 1053.53 61.32 854.93 947.94 1102.92 1072.74 760.77 140.07
789.79 497.42 737.09 167.14 717.62 795.30 1006.66 1119.69 655.80 945.85 146.45 175.80 662.98 711.60 799.80 780.46 82.62 605.66 828.64 806.14 786.15 23.50 777.42 1217.47 703.80 1184.30 809.43 571.82 1017.23 330.02 537.62 961.74 179.80 206.75 853.25 944.59 786.81 713.76 992.25 1312.27 883.97 1146.57 87.35 825.11 966.85 1210.39 755.30 155.66 210.68 823.04 1198.21 1035.21 1124.23 209.43 1234.06 1085.49 1046.51 1306.04 727.59 93.77 829.37 1057.20 1079.28 1080.49 611.01 715.30 1149.45 727.02 1398.10 1126.22 784.82 721.58 254.24 44.79 689.03 170.95 1057.61 131.75 1172.11 1051.47 332.26 777.02 48.31 246.25 786.57 1093.07 110.93 682.84 580.99 944.75 765.02 837.93 1041.23 1066.35 1091.38 162.32 815.22 685.15 353.91 148.74 1295.45 974.84 293.85 1501.46 1339.03 910.69 821.46 747.10 256.32 1342.42 711.85 798.95 747.23 117.02 1089.77 1187.24 751.96 984.21 231.93 858.36 1032.09 1133.95 1227.49 965.74 768.66 1082.26 1491.52 1115.00 1250.01 795.59 731.41 78.74 0.00 755.26 160.29 1049.86 92.81 1134.06 286.33 1190.95 1120.80 264.16 730.14 229.90 1107.83 713.74 75.14 148.23 953.06 83.14 1007.83 476.91 1110.57 1085.06 174.56 798.37 793.57 44.80 477.62 162.27 128.24 743.81 197.73 719.30 875.88 69.73 818.99 57.62 205.59 1051.41 879.45 780.38 937.52 652.56 103.17 634.34 177.47 364.63 766.03 678.84 1028.80 981.36 858.17 1008.78 74.93 817.45 896.78 1086.77 1056.59 716.32 218.81
281.95 417.32 181.16 765.78 177.99 75.50 329.83 388.31 292.55 280.47 832.49 931.06 156.87 140.11 115.08 160.22 837.88 295.25 149.97 98.55 48.97 778.76 101.18 511.89 165.72 484.38 89.73 276.36 317.31 699.77 483.01 261.82 854.89 789.70 156.05 257.66 156.89 161.79 284.66 610.30 168.99 391.31 809.33 114.57 266.93 481.15 17.34 833.10 644.95 109.72 498.29 335.29 434.44 753.84 532.40 385.57 401.05 635.34 27.67 787.16 194.90 474.60 478.18 440.09 457.98 151.17 441.86 150.67 735.42 426.30 358.43 123.83 914.78 800.05 116.66 887.63 429.70 713.66 480.87 351.55 677.71 61.57 803.57 898.38 97.68 371.18 866.19 326.97 376.56 213.37 221.06 170.47 412.54 381.81 430.93 890.70 59.96 127.48 927.48 866.18 606.15 514.37 634.18 862.34 631.44 203.10 121.54 137.04 610.51 604.46 291.60 111.90 173.73 800.60 405.05 502.52 208.49 369.37 702.90 475.60 330.75 443.73 543.77 275.56 46.77 382.34 779.81 401.52 617.13 98.86 316.78 834.00 755.26 0.00 863.69 334.85 848.07 458.92 866.24 548.21 398.62 974.54 336.30 670.74 491.46 168.49 821.54 813.70 253.14 790.01 314.36 842.99 745.42 385.14 906.46 55.30 187.73 760.89 925.21 829.39 883.50 243.68 908.72 119.29 234.28 824.99 142.22 795.15 875.81 410.17 159.65 150.35 237.60 212.27 858.43 274.04 849.93 875.91 136.11 329.72 429.15 387.23 291.75 286.72 800.62 111.87 176.98 401.75 389.13 89.37 929.64
812.85 586.68 827.33 163.96 830.91 938.07 1051.40 1149.13 635.75 954.68 93.04 216.15 804.60 797.81 804.02 826.19 108.63 714.67 823.91 919.75 893.39 136.79 783.00 1216.74 797.49 1222.15 907.84 685.11 1117.32 281.17 633.32 1006.37 106.79 174.42 980.69 957.21 856.18 789.43 1005.87 1312.31 922.01 1255.00 120.40 875.82 982.42 1219.22 881.03 95.20 336.53 918.26 1211.39 1069.52 1151.75 322.72 1238.28 1110.23 1113.86 1350.83 873.11 207.06 921.00 1133.32 1111.24 1159.03 749.67 823.19 1202.29 828.12 1447.84 1155.80 792.28 767.48 144.07 158.39 816.47 238.00 1018.71 177.65 1215.10 1067.04 378.39 829.74 150.10 105.48 878.50 1177.48 189.71 727.89 632.95 985.77 840.29 882.67 1061.63 1112.25 1111.78 83.98 830.82 812.59 227.25 34.73 1312.03 1114.69 327.50 1441.00 1375.62 997.93 882.39 836.91 308.77 1400.08 757.98 884.16 874.67 230.63 1093.99 1191.46 796.70 1014.45 303.57 854.97 1157.56 1173.23 1240.99 996.72 853.07 1099.60 1497.10 1108.19 1284.04 764.83 764.46 140.38 160.29 863.69 0.00 1083.61 140.25 1140.67 365.11 1221.19 1125.02 150.15 666.27 278.26 1172.31 827.03 130.67 110.63 948.08 129.27 1028.46 420.14 1050.11 1132.04 201.16 893.59 921.01 172.24 366.30 217.08 168.59 901.25 119.39 814.26 966.87 93.51 946.43 154.79 270.45 1051.45 970.80 845.53 1003.62 742.01 126.95 680.24 130.08 274.55 852.45 709.08 1095.74 1031.14 888.41 978.32 201.70 816.72 1005.00 1131.51 1101.33 811.54 245.62
429.20 691.59 404.26 998.08 369.89 296.93 252.83 257.67 550.78 157.46 1127.09 1190.90 429.32 404.54 308.18 307.05 1132.48 536.08 291.56 317.78 340.08 1064.01 300.61 268.26 414.06 204.09 382.46 515.69 82.37 941.27 777.61 121.86 1018.73 1009.81 366.92 147.71 470.15 482.62 147.09 322.33 272.95 511.50 1081.44 267.51 101.19 240.77 349.98 1055.15 950.08 417.00 225.30 63.70 212.36 1032.15 252.36 113.89 137.36 354.33 322.27 1064.25 486.01 199.18 202.82 158.64 765.26 392.67 288.59 449.84 463.86 126.33 625.15 427.90 1014.52 1094.65 437.20 1140.47 309.71 960.12 185.25 70.54 945.47 381.03 1092.05 1053.11 351.66 300.74 1056.90 517.33 644.45 287.37 378.93 276.75 101.78 118.44 151.93 1159.87 274.89 412.52 1090.23 1116.67 320.53 305.45 798.02 534.19 430.59 319.37 228.40 364.38 893.58 489.51 444.68 412.16 436.72 1045.07 145.15 345.04 355.32 232.05 951.24 499.41 316.91 141.68 267.85 121.77 332.46 52.73 444.96 181.36 332.88 318.78 463.61 1079.86 1049.86 334.85 1083.61 0.00 1140.78 170.57 1151.93 305.44 164.65 1126.97 438.65 908.30 212.46 393.96 1072.47 1108.30 194.58 1065.23 176.79 1082.79 576.44 85.17 1145.58 365.69 483.06 1033.23 1165.01 1118.55 1143.34 506.20 1152.16 425.36 565.37 1119.59 378.07 1041.61 1151.56 111.96 346.64 319.20 130.52 499.10 1132.57 545.05 1055.76 1070.10 449.37 443.22 218.15 209.33 266.38 227.78 1087.16 294.94 293.57 101.78 95.40 412.62 1182.36
820.93 542.79 814.29 212.01 781.18 888.11 1070.22 1177.69 695.66 1038.66 64.56 149.43 754.87 774.35 862.55 844.02 31.62 669.22 867.46 898.95 848.90 87.06 840.17 1280.22 767.36 1245.85 872.18 635.38 1110.04 302.02 600.37 1053.18 215.11 176.73 916.00 1027.43 850.37 744.66 1064.40 1360.36 953.15 1239.38 108.14 897.19 1039.59 1285.78 848.11 190.97 273.43 885.79 1254.46 1122.73 1186.98 193.65 1271.47 1178.30 1110.07 1345.75 820.40 157.33 892.12 1092.51 1114.59 1144.05 638.67 778.05 1242.26 783.35 1489.71 1170.55 776.47 809.35 232.37 80.10 751.78 176.78 1063.81 224.56 1235.67 1116.44 358.98 823.15 48.73 245.73 849.32 1179.78 111.35 650.88 616.30 1007.50 804.94 901.49 1109.68 1159.16 1159.83 122.77 885.53 747.90 358.79 122.87 1345.22 1067.65 384.90 1536.77 1404.56 1003.50 914.27 810.66 291.63 1435.23 723.53 861.70 809.98 119.63 1152.52 1249.99 815.52 1040.07 248.17 811.76 1094.84 1178.82 1295.94 1029.30 855.37 1161.30 1548.28 1194.89 1287.39 858.34 728.39 79.16 92.81 848.07 140.25 1140.78 0.00 1188.72 235.70 1252.38 1178.12 238.29 750.93 293.46 1143.14 777.30 110.45 56.83 1030.28 128.01 1070.58 436.90 1145.88 1166.94 81.75 861.12 856.32 107.55 424.38 192.21 101.87 830.22 158.18 782.05 933.32 54.61 881.74 150.43 168.65 1099.50 952.01 843.94 1030.33 700.95 43.47 722.84 193.55 304.93 829.59 740.27 1059.70 1056.31 919.60 1071.83 105.83 880.20 966.24 1150.33 1120.15 779.07 136.58
493.33 771.64 461.91 976.71 428.32 420.47 252.36 428.24 646.22 249.06 1164.25 1213.29 536.02 494.43 381.30 398.65 1165.12 596.08 373.79 409.38 483.90 1110.56 392.21 231.39 505.66 146.35 505.79 562.24 153.23 984.40 887.39 199.99 1067.49 1058.57 432.03 268.53 556.26 588.82 239.03 272.96 364.55 595.37 1113.91 379.38 192.79 166.91 459.76 1083.25 1008.72 526.77 74.13 145.29 265.89 1114.38 156.71 183.74 107.30 304.87 432.05 1135.11 621.08 125.96 103.88 204.72 875.03 484.27 332.13 561.82 449.53 97.83 712.75 511.94 1106.12 1108.62 531.51 1251.41 307.33 1008.88 95.98 138.24 1005.47 494.80 1148.89 1112.41 456.15 342.28 1211.42 586.51 708.87 329.39 437.57 308.01 99.40 148.93 50.53 1159.55 418.52 495.40 1178.47 1105.94 230.46 204.05 846.78 498.53 501.45 386.23 340.27 442.51 983.47 519.31 569.95 524.17 560.26 1155.18 91.33 398.57 393.98 212.82 1042.84 472.89 451.22 80.40 204.10 213.37 457.83 117.84 433.52 239.83 229.84 410.38 509.00 1162.09 1134.06 458.92 1140.67 170.57 1188.72 0.00 1262.49 154.47 60.30 1188.57 559.47 957.06 103.58 420.32 1101.70 1174.16 272.67 1060.71 249.25 1083.92 492.36 85.40 1244.95 509.51 583.66 1122.38 1066.97 1210.36 1240.96 597.80 1178.52 473.61 662.02 1170.80 455.15 1086.23 1266.00 89.22 456.47 397.53 222.12 553.10 1178.58 611.74 1104.52 1112.23 535.48 506.04 225.78 201.49 338.86 314.87 1162.55 382.81 390.45 102.01 89.35 504.22 1302.16
983.83 570.95 877.82 414.68 903.88 913.20 1088.60 1167.35 825.67 1062.35 300.26 309.40 878.94 785.55 881.75 906.79 259.47 821.24 919.81 934.73 905.98 276.35 889.54 1310.34 823.13 1291.78 890.91 815.38 1145.82 514.49 684.89 1062.50 359.98 389.20 957.81 1057.55 913.55 853.03 1083.60 1432.26 992.52 1257.55 301.90 933.66 1088.74 1326.89 851.15 367.22 367.80 925.45 1308.37 1163.12 1228.79 249.26 1316.01 1214.08 1164.91 1457.15 856.18 225.59 960.04 1262.51 1265.33 1228.90 720.67 832.31 1277.51 822.86 1569.23 1233.53 830.77 750.55 453.73 315.80 824.62 162.99 1196.37 401.30 1284.07 1173.36 411.85 812.81 238.02 431.94 861.57 1143.88 175.40 878.73 845.50 1049.31 924.84 976.97 1227.53 1202.48 1242.85 358.47 877.04 812.00 553.71 358.57 1389.76 1261.17 534.29 1631.69 1425.90 1039.28 937.03 819.98 430.56 1438.27 887.31 867.23 959.21 292.66 1171.72 1269.19 938.22 1128.14 372.47 1047.46 1138.76 1224.75 1318.72 1092.07 819.47 1172.63 1592.82 1178.06 1432.62 903.77 945.96 224.73 286.33 866.24 365.11 1151.93 235.70 1262.49 0.00 1355.47 1202.75 367.14 931.76 474.01 1303.38 882.85 289.69 292.53 1060.40 337.65 1103.68 667.27 1322.13 1205.07 264.08 906.18 912.87 296.84 629.17 219.33 261.84 918.41 391.20 797.33 1012.40 290.31 923.55 319.81 240.69 1227.32 972.87 887.45 1066.11 787.54 279.17 725.77 322.95 529.81 897.98 965.17 1182.07 1146.00 1072.72 1103.80 259.01 910.32 1008.05 1198.73 1195.63 824.13 186.86
597.59 869.06 578.27 1101.33 547.36 498.57 330.43 552.86 739.48 339.18 1256.30 1335.70 652.38 603.61 473.72 484.52 1220.76 707.19 501.64 475.52 545.79 1214.45 485.18 310.19 637.93 195.48 584.10 693.16 284.50 1039.31 975.88 354.46 1171.75 1162.83 501.25 393.25 675.86 682.88 393.22 254.14 405.40 676.45 1221.68 464.26 325.06 245.71 548.25 1207.87 1136.57 592.91 148.69 273.14 420.36 1154.87 137.89 337.93 231.45 297.18 520.54 1259.74 645.61 180.87 158.79 340.37 941.17 587.65 413.21 646.14 498.66 249.74 832.18 604.92 1238.39 1193.28 642.91 1234.24 361.14 1113.14 224.95 240.44 985.38 574.93 1239.26 1216.67 573.83 496.75 1301.88 601.50 836.72 414.30 565.42 435.86 203.66 303.40 153.51 1284.17 497.06 590.58 1267.02 1230.56 211.64 234.65 951.04 444.16 596.09 436.19 438.69 535.49 1092.65 559.43 665.51 583.61 638.36 1241.82 245.80 507.13 521.83 317.36 1175.11 545.32 582.49 232.31 259.24 327.58 554.63 272.03 414.70 346.28 175.47 478.32 607.96 1269.69 1190.95 548.21 1221.19 305.44 1252.38 154.47 1355.47 0.00 214.77 1292.83 578.89 1061.32 186.64 562.18 1223.63 1275.09 295.07 1185.33 380.52 1229.29 547.27 239.87 1334.13 555.70 598.44 1217.80 1208.27 1222.10 1288.14 710.39 1319.58 593.29 713.32 1260.68 535.51 1194.63 1376.09 213.84 519.51 503.86 346.84 705.14 1264.04 744.12 1208.78 1218.26 655.08 512.11 264.08 295.19 437.92 440.36 1217.95 445.15 465.47 256.48 217.20 618.43 1356.17
458.66 759.79 440.37 966.11 419.75 411.90 253.72 422.32 622.37 256.48 1153.65 1202.69 514.48 461.81 321.00 391.57 1154.52 554.47 359.06 392.82 447.59 1106.37 343.38 226.34 502.92 121.93 488.35 558.05 143.67 983.53 878.30 227.77 1056.89 1047.97 391.45 280.67 536.34 530.16 207.51 272.67 322.70 580.53 1103.31 381.56 204.93 161.86 415.96 1072.65 1000.15 484.09 134.43 115.34 279.51 1099.65 175.32 142.59 108.69 305.42 422.96 1125.55 573.75 143.60 121.52 175.16 832.35 434.93 317.29 509.16 425.11 70.17 700.90 452.20 1118.26 1098.02 515.28 1212.72 296.73 998.28 141.55 128.78 963.86 449.65 1134.82 1101.81 422.26 281.98 1196.69 583.06 700.30 269.09 429.00 299.44 88.80 88.63 110.83 1148.95 376.12 463.71 1186.88 1095.34 249.07 264.35 836.18 535.56 464.49 325.93 355.99 382.77 950.85 493.81 560.49 500.55 545.33 1148.61 31.03 383.96 385.41 255.86 1023.32 508.05 433.60 54.90 178.03 215.92 410.49 111.92 448.65 212.53 266.87 360.19 517.74 1147.36 1120.80 398.62 1125.02 164.65 1178.12 60.30 1202.75 214.77 0.00 1177.97 559.50 946.46 102.81 425.76 1091.10 1163.56 212.37 1050.11 237.21 1078.00 510.00 79.48 1236.28 453.92 526.79 1076.00 1127.27 1157.76 1230.36 609.94 1183.96 461.76 601.72 1160.20 394.85 1075.63 1255.40 78.62 396.37 388.96 234.26 566.57 1167.98 587.09 1093.92 1129.29 515.56 500.12 232.67 216.55 359.28 288.20 1134.51 349.57 330.15 77.36 80.78 487.99 1287.43
937.69 627.97 877.55 244.65 908.06 985.25 1075.11 1262.93 755.96 1082.05 173.73 249.48 842.57 874.94 942.13 896.22 229.20 821.10 944.40 962.20 974.08 274.16 921.11 1347.21 811.78 1277.15 991.07 787.26 1166.14 283.44 777.30 1055.62 183.81 215.19 1043.67 1088.73 924.71 870.12 1129.28 1360.21 1053.74 1365.85 201.09 1013.93 1025.78 1282.73 973.15 215.41 456.68 998.95 1262.70 1142.86 1272.81 346.71 1313.86 1234.40 1151.79 1388.97 955.54 344.43 989.53 1186.04 1163.96 1234.81 742.77 832.04 1305.51 873.83 1562.71 1194.93 872.97 850.71 112.45 243.65 919.52 371.93 1064.72 260.88 1252.87 1105.18 504.68 912.97 272.47 76.16 922.88 1219.27 288.36 842.74 679.92 1123.59 902.99 959.69 1089.17 1195.48 1139.32 125.27 968.93 848.49 187.47 115.42 1343.39 1195.38 341.79 1532.03 1490.12 1066.75 1020.50 884.20 399.91 1526.21 830.92 967.39 988.81 340.34 1194.17 1329.57 873.72 1035.57 411.94 930.94 1251.16 1212.36 1275.43 1018.04 941.47 1179.70 1569.93 1210.14 1336.76 902.94 845.15 282.31 264.16 974.54 150.15 1126.97 238.29 1188.57 367.14 1292.83 1177.97 0.00 816.42 358.54 1199.85 897.19 213.30 191.32 1085.67 273.25 1155.64 364.34 1167.69 1156.01 263.93 974.20 969.89 308.96 282.12 317.61 201.92 956.82 160.68 882.64 1030.79 211.73 1051.61 288.56 350.83 1099.35 1069.40 876.88 1055.11 825.24 217.29 763.47 171.14 162.67 903.93 846.29 1134.26 1085.74 1017.33 1116.43 327.92 954.83 1086.73 1172.62 1161.88 892.23 362.71
146.58 598.83 274.36 740.57 218.20 400.18 411.69 591.09 445.88 422.95 726.31 817.40 279.02 279.98 321.23 281.04 748.91 394.41 296.72 423.23 358.11 720.53 343.61 704.48 343.06 616.97 370.20 364.00 502.08 679.46 750.66 390.35 715.42 627.47 434.16 290.94 445.35 384.28 470.15 741.74 427.55 727.61 642.79 403.15 366.68 640.00 353.64 706.69 738.93 404.74 616.10 500.13 589.07 757.15 650.32 552.54 496.70 696.12 348.24 788.23 504.04 488.40 468.94 581.07 641.71 301.44 638.89 387.29 897.44 532.51 496.46 314.98 757.46 685.35 381.09 816.24 358.42 703.51 610.99 451.30 587.66 285.49 746.57 766.50 281.71 587.48 756.36 129.65 364.08 416.15 231.78 327.87 478.10 557.09 522.29 737.75 358.48 271.29 888.27 701.00 724.07 495.58 609.39 910.43 839.90 472.99 373.68 259.46 634.16 866.22 182.36 397.36 487.42 782.04 540.58 708.67 241.90 372.15 761.92 257.98 639.89 549.94 664.36 375.31 338.18 491.38 883.61 544.87 641.74 330.20 143.91 777.00 730.14 336.30 666.27 438.65 750.93 559.47 931.76 578.89 559.50 816.42 0.00 621.45 539.03 281.37 655.00 745.10 425.02 714.95 465.06 740.71 650.25 523.82 796.55 332.50 464.93 752.38 822.93 824.38 769.84 509.51 773.16 300.80 554.31 739.09 453.03 740.47 844.29 480.88 470.17 280.34 337.35 387.09 707.46 345.98 693.72 888.31 424.57 66.78 455.48 388.84 246.11 515.89 788.52 349.80 453.77 525.65 491.17 368.41 881.82
663.74 384.20 549.07 224.62 559.78 746.24 819.83 984.88 531.86 838.87 328.36 397.25 610.20 569.71 664.09 622.62 289.29 610.78 670.80 743.07 698.01 206.40 641.71 1066.11 580.27 1047.88 729.37 599.07 934.63 127.51 620.53 827.62 218.78 252.80 810.69 806.26 577.92 634.75 865.94 1128.70 748.51 1062.05 284.14 691.74 807.11 1051.22 681.96 236.48 308.04 722.88 1031.19 911.35 1010.46 392.33 1082.35 977.81 888.67 1157.46 696.91 276.67 642.74 955.06 958.70 922.65 695.95 573.41 1039.77 642.32 1240.33 963.42 563.59 604.71 320.86 273.31 643.45 371.51 899.77 224.28 1014.27 873.67 358.86 635.13 244.73 282.38 632.55 987.76 298.61 505.28 448.41 825.61 611.54 680.09 857.66 984.82 907.81 359.92 680.89 543.26 355.22 312.99 1111.88 928.12 110.28 1400.19 1183.16 827.62 730.85 624.95 121.33 1258.79 577.93 678.15 653.54 305.07 948.50 1051.53 594.12 859.37 249.09 679.85 938.40 980.85 1043.92 786.53 680.41 939.90 1338.42 973.49 1131.50 649.02 582.79 273.89 229.90 670.74 278.26 908.30 293.46 957.06 474.01 1061.32 946.46 358.54 621.45 0.00 968.34 590.66 278.08 309.57 812.07 300.83 865.94 482.01 1178.14 939.78 372.08 698.21 689.91 241.85 399.79 363.41 358.14 706.27 389.61 577.41 751.31 299.63 793.28 287.52 393.27 867.84 774.68 622.54 811.22 563.48 304.14 625.25 255.81 336.62 598.70 594.67 817.48 877.23 737.73 862.51 301.56 681.74 764.55 928.93 898.75 616.16 413.96
504.61 830.85 489.27 1008.35 433.11 497.62 224.54 470.13 616.86 323.97 1164.70 1244.93 544.40 536.35 423.81 446.31 1150.90 612.75 414.70 478.29 540.43 1127.23 446.19 306.81 571.85 203.00 579.29 578.91 229.85 950.78 919.13 302.12 1078.77 1069.85 493.24 300.27 613.91 612.67 298.64 310.15 395.87 671.99 1105.60 439.80 281.61 242.33 482.69 1114.89 1013.51 575.07 111.32 187.93 360.01 1143.38 193.90 244.95 138.47 202.61 463.79 1112.41 622.29 50.63 70.26 277.97 923.33 518.93 408.75 573.98 504.16 170.50 765.63 552.83 1162.28 1063.04 547.74 1254.95 318.61 1020.16 199.56 205.29 1022.14 526.54 1151.17 1123.69 507.41 384.79 1207.68 561.81 729.57 371.90 442.36 385.16 110.68 191.44 60.53 1191.19 454.67 548.48 1162.07 1137.58 267.65 214.05 858.06 488.15 516.76 428.74 440.86 485.58 1025.39 550.98 593.16 555.91 538.29 1169.16 133.84 457.29 398.77 194.47 1072.46 456.79 524.79 153.07 241.29 261.03 504.86 179.05 470.71 307.68 221.50 442.90 519.00 1181.60 1107.83 491.46 1172.31 212.46 1143.14 103.58 1303.38 186.64 102.81 1199.85 539.03 968.34 0.00 473.40 1093.39 1171.26 297.84 1092.35 322.82 1140.76 452.04 162.02 1219.32 546.76 584.63 1130.07 1119.74 1242.64 1219.33 686.62 1226.60 554.56 666.94 1135.51 497.66 1096.50 1287.10 120.86 499.18 442.54 253.86 618.52 1168.95 639.12 1115.80 1095.83 618.37 472.42 233.61 172.76 315.49 366.61 1176.37 440.73 432.96 178.63 166.50 551.88 1279.72
167.13 407.26 41.59 735.54 63.17 222.67 318.47 478.19 225.90 272.85 837.28 881.09 115.70 101.53 150.96 94.10 773.13 175.76 142.28 243.23 210.93 690.24 129.94 560.23 159.53 497.83 230.64 141.92 427.48 613.75 588.41 310.86 782.69 739.04 299.17 255.36 256.07 207.56 352.81 628.91 197.56 559.80 767.98 196.33 292.77 531.43 161.33 766.45 624.94 253.71 490.94 400.92 498.69 754.64 539.02 428.40 392.06 650.31 172.43 760.51 310.76 458.71 472.98 426.04 527.26 65.15 546.77 194.40 776.84 428.02 348.37 132.30 839.19 757.15 188.17 834.01 376.46 695.27 460.50 366.52 585.15 123.65 728.57 821.03 74.89 455.77 791.19 207.85 292.58 330.09 53.79 126.32 426.95 436.24 456.77 793.61 145.29 75.08 841.46 847.22 586.41 463.72 581.78 875.02 686.55 331.15 215.61 117.31 590.57 747.02 171.48 213.73 289.91 734.86 394.73 538.40 92.78 278.93 639.81 360.78 470.42 430.80 541.73 279.38 131.36 417.77 806.50 455.13 645.78 111.77 237.43 757.73 713.74 168.49 827.03 393.96 777.30 420.32 882.85 562.18 425.76 897.19 281.37 590.66 473.40 0.00 780.19 834.13 283.55 770.07 372.94 756.20 701.27 391.77 839.81 192.94 325.37 715.43 838.42 808.34 841.98 327.08 758.20 109.23 378.27 783.47 310.71 771.36 884.76 416.77 303.26 74.76 263.44 196.79 793.72 231.53 805.29 822.86 235.29 262.06 369.38 336.58 236.39 307.32 775.14 163.66 315.24 375.16 344.98 173.10 897.80
748.81 551.62 792.34 124.99 784.07 868.50 1004.37 1127.94 657.26 976.87 71.31 186.82 721.19 700.07 840.88 812.83 100.18 672.11 860.75 873.43 838.73 89.95 818.50 1258.55 744.44 1196.10 862.01 638.27 1069.55 254.88 574.65 991.79 104.66 131.61 905.83 945.94 841.13 750.46 1042.73 1273.34 907.04 1212.85 12.21 848.18 971.28 1215.39 806.45 126.57 263.26 875.62 1175.83 1075.52 1176.81 252.36 1246.52 1131.74 1074.89 1296.00 802.73 160.22 861.65 1042.76 1064.84 1146.94 646.08 746.83 1216.74 789.15 1456.31 1127.59 780.65 735.07 199.88 30.35 741.61 197.86 991.69 177.11 1185.53 1037.84 326.12 773.40 99.01 171.11 803.88 1099.18 114.29 629.80 566.55 997.33 783.86 853.72 1021.83 1098.76 1071.98 107.17 829.72 726.52 292.88 97.88 1276.05 1029.76 274.45 1472.37 1402.16 977.98 887.29 798.99 211.03 1393.57 702.45 830.82 799.81 127.04 1122.13 1228.32 767.75 1002.94 252.56 814.45 1084.67 1129.07 1208.09 950.70 774.77 1112.64 1500.28 1125.80 1237.64 835.86 656.27 124.19 75.14 821.54 130.67 1072.47 110.45 1101.70 289.69 1223.63 1091.10 213.30 655.00 278.08 1093.39 780.19 0.00 90.10 1002.28 78.26 1049.20 428.09 1081.48 1103.95 165.97 850.95 838.51 97.38 402.48 200.52 139.26 818.95 142.58 720.89 928.46 84.09 871.57 103.78 208.95 1012.48 930.60 832.17 982.56 705.14 76.88 679.70 102.33 325.84 820.35 719.19 1043.83 1019.84 877.11 1036.40 143.68 858.53 956.07 1102.56 1072.38 768.90 236.20
838.91 579.70 858.64 197.45 838.01 853.74 1094.47 1181.94 696.01 1055.39 18.79 146.01 811.21 790.17 909.27 888.48 88.45 726.05 904.50 864.58 862.67 143.89 886.89 1285.53 799.16 1242.74 901.53 692.21 1075.67 289.52 647.87 1020.18 161.34 221.71 946.05 1026.64 887.49 801.49 1050.69 1345.80 942.41 1205.01 102.31 883.55 1025.29 1256.15 813.74 155.46 320.93 906.12 1248.29 1093.65 1212.68 250.48 1288.99 1143.93 1147.35 1371.64 786.03 214.16 948.95 1120.63 1142.71 1198.45 695.50 834.88 1207.89 840.18 1527.27 1184.66 781.81 825.17 240.09 108.22 808.61 213.82 1070.80 249.57 1239.23 1109.91 404.62 848.78 105.56 201.50 883.57 1151.51 165.53 707.71 644.42 1012.25 861.77 926.18 1095.12 1140.17 1145.27 77.00 873.66 804.73 323.27 75.90 1349.34 1040.44 351.52 1492.51 1397.47 969.13 879.90 867.49 301.13 1400.86 780.36 878.15 866.81 176.46 1177.96 1295.38 840.21 1081.02 261.98 868.59 1142.72 1202.09 1281.38 1027.77 827.10 1140.70 1553.26 1173.44 1315.51 875.46 746.37 116.20 148.23 813.70 110.63 1108.30 56.83 1174.16 292.53 1275.09 1163.56 191.32 745.10 309.57 1171.26 834.13 90.10 0.00 1011.50 156.13 1080.39 391.13 1110.37 1143.50 138.58 869.00 913.15 164.38 379.58 229.25 101.86 847.74 112.41 810.99 876.49 78.50 927.51 181.65 225.48 1084.94 937.89 900.77 995.96 757.78 60.99 752.16 159.13 260.13 881.58 797.10 1116.53 1097.71 954.98 1067.22 162.66 906.38 955.22 1160.11 1144.84 835.90 193.41
329.05 573.99 283.20 880.48 252.29 203.50 180.44 294.17 444.41 44.11 1030.29 1117.06 357.31 308.54 178.65 189.45 1026.11 412.12 216.71 180.45 250.72 946.41 190.11 309.73 373.95 314.36 289.03 398.09 210.14 835.49 680.81 96.16 927.63 960.78 241.59 134.08 380.79 387.81 127.33 458.63 110.33 490.57 990.07 169.19 93.39 308.65 253.18 964.05 852.46 297.84 263.31 196.86 335.14 957.30 344.45 199.66 244.83 461.80 225.47 994.67 396.65 294.23 272.15 254.82 646.10 292.58 281.32 351.07 603.25 229.90 537.36 309.85 973.22 989.76 347.84 1035.87 337.38 899.68 323.42 178.01 821.51 279.86 981.55 1010.03 278.76 255.63 1044.17 423.52 548.75 119.23 281.31 193.23 263.56 246.21 237.31 1032.06 201.99 295.51 1063.20 982.81 418.20 364.98 789.46 670.49 476.84 141.12 143.62 240.42 797.58 606.63 409.26 288.54 343.29 946.75 200.16 375.24 237.72 219.98 880.97 457.76 316.09 247.33 331.40 113.21 259.56 189.03 608.38 250.68 444.95 183.25 346.01 1005.01 953.06 253.14 948.08 194.58 1030.28 272.67 1060.40 295.07 212.37 1085.67 425.02 812.07 297.84 283.55 1002.28 1011.50 0.00 957.86 114.12 985.17 648.54 221.47 1058.32 260.63 376.93 922.73 1067.39 977.63 1081.30 415.32 1041.75 298.22 448.92 1022.79 244.99 932.34 1094.10 271.19 224.44 208.79 96.78 410.07 1049.89 449.05 964.66 1044.60 360.01 411.97 278.37 237.84 232.64 179.74 982.44 150.08 170.40 238.08 224.31 332.57 1144.75
753.88 495.62 760.69 84.00 761.10 836.97 964.43 1101.62 625.73 913.75 149.57 235.67 745.44 668.54 809.35 775.03 104.41 658.51 783.22 841.90 815.97 106.64 786.97 1201.15 711.48 1117.84 828.06 654.96 991.29 308.34 504.05 986.45 165.33 183.05 892.08 939.41 802.59 709.47 1011.20 1232.35 875.51 1181.32 72.16 816.65 964.04 1157.77 774.92 131.95 207.26 853.98 1134.43 1058.92 1155.72 241.24 1177.53 1059.55 1033.90 1286.16 784.31 118.22 830.12 1060.32 1077.98 1114.07 634.96 715.30 1156.23 748.16 1421.02 1068.24 702.39 696.84 222.61 47.91 727.86 239.36 1005.10 107.01 1137.46 1032.50 249.12 747.08 131.45 234.75 772.35 1067.65 162.25 650.74 552.99 980.46 770.35 812.73 981.67 1041.61 1031.82 167.12 798.19 694.99 356.52 157.83 1235.89 1057.98 269.11 1477.75 1339.51 946.45 855.76 766.27 179.50 1362.04 628.71 795.53 786.06 115.92 1081.14 1196.79 726.76 924.89 174.30 826.26 1070.92 1050.81 1167.93 945.36 743.24 1056.32 1446.72 1097.73 1239.48 804.33 702.87 161.88 83.14 790.01 129.27 1065.23 128.01 1060.71 337.65 1185.33 1050.11 273.25 714.95 300.83 1092.35 770.07 78.26 156.13 957.86 0.00 982.40 488.76 1086.86 1059.12 204.19 790.36 806.98 83.63 420.96 189.40 188.11 825.18 202.53 689.36 896.23 120.38 857.82 25.52 205.29 971.49 899.07 794.37 934.71 671.37 136.83 609.60 146.55 301.51 781.81 740.13 1009.70 941.58 798.85 1004.87 143.34 827.00 938.45 1061.57 1031.39 755.15 259.12
419.75 654.86 350.92 967.67 357.74 238.86 285.23 283.16 504.09 158.23 1099.18 1163.08 389.62 349.13 231.55 294.90 1066.41 465.02 269.61 215.81 330.43 998.48 251.77 304.31 407.13 245.98 283.01 468.60 96.02 894.08 749.70 100.02 1014.82 1019.37 243.23 174.12 417.43 424.55 29.70 412.66 189.84 396.56 1036.99 248.58 129.86 281.88 304.93 1044.64 905.47 317.55 277.00 216.74 270.20 1010.20 329.79 155.00 268.44 458.73 294.36 1030.10 381.58 325.37 322.76 160.85 665.81 345.48 173.83 386.43 535.14 205.01 595.97 362.75 1043.19 1030.06 368.49 1097.53 377.38 952.58 246.58 214.48 874.41 341.52 1021.85 1081.78 332.81 261.05 1084.47 510.62 611.68 141.89 357.09 286.54 240.75 148.58 269.41 1112.44 263.65 322.68 1020.72 1063.19 381.86 382.41 817.36 632.35 399.45 142.58 209.47 293.32 838.17 505.70 488.35 317.20 378.65 1026.14 226.38 267.75 324.91 285.33 933.87 521.91 201.97 222.44 309.74 141.11 284.21 150.89 583.49 177.48 410.11 263.63 433.11 1052.28 1007.83 314.36 1028.46 176.79 1070.58 249.25 1103.68 380.52 237.21 1155.64 465.06 865.94 322.82 372.94 1049.20 1080.39 114.12 982.40 0.00 1060.95 620.84 163.85 1118.00 315.48 334.41 963.03 1128.01 1039.29 1136.07 465.86 1131.14 356.83 449.29 1077.56 267.65 1007.92 1140.04 250.93 207.22 314.24 153.02 456.24 1101.66 489.64 1051.85 1086.96 396.65 438.09 282.23 255.27 288.88 65.62 1022.74 211.74 202.95 180.46 200.87 379.62 1192.35
850.78 789.77 797.79 428.23 755.62 901.14 1001.56 1135.96 815.11 957.98 372.34 499.56 805.90 744.52 836.38 795.72 407.80 892.16 843.90 917.88 891.96 453.41 852.29 1220.55 824.57 1119.66 910.84 858.32 1066.35 354.50 961.72 960.93 323.43 353.09 962.15 958.66 884.09 872.96 1038.23 1274.88 919.55 1234.30 435.10 892.63 990.77 1156.07 860.33 359.85 634.78 925.43 1140.73 1080.03 1199.91 630.55 1178.00 1096.86 1084.51 1266.62 844.17 523.68 948.91 1092.58 1070.50 1117.84 1009.76 788.00 1234.78 842.79 1422.84 1039.68 962.84 770.48 353.25 458.44 838.63 575.44 1053.10 429.13 1100.47 1068.14 715.19 781.42 452.36 314.66 806.69 1173.18 491.87 857.92 731.66 1018.13 703.86 829.62 1092.08 1076.21 1123.85 430.55 855.32 757.85 192.89 430.65 1235.75 1110.92 393.53 1501.05 1379.00 1000.39 931.74 792.50 541.27 1431.46 884.89 875.27 959.71 552.08 1061.05 1223.82 747.45 969.40 580.19 683.97 1173.74 1057.11 1183.42 981.00 848.77 1030.96 1418.16 1115.45 1243.30 834.12 832.41 480.92 476.91 842.99 420.14 1082.79 436.90 1083.92 667.27 1229.29 1078.00 364.34 740.71 482.01 1140.76 756.20 428.09 391.13 985.17 488.76 1060.95 0.00 1171.37 998.52 504.99 898.29 961.64 488.86 82.22 593.97 475.97 984.63 465.96 723.70 953.87 449.34 981.62 510.62 586.53 1102.26 975.05 795.12 977.29 851.63 415.90 885.03 360.46 201.67 904.87 807.49 1000.28 1027.05 891.06 1039.21 526.53 864.95 1002.62 1015.13 1048.28 844.06 573.48
694.42 1051.62 728.92 1061.45 687.21 791.43 521.04 818.32 916.99 612.18 1110.58 1226.56 737.68 778.97 678.32 667.08 1143.70 866.85 640.73 768.38 750.94 1127.12 689.78 670.23 819.49 572.66 814.25 833.01 597.19 1140.88 1214.85 576.42 991.33 1034.13 836.07 619.70 838.66 855.76 650.54 711.70 674.63 850.98 1093.69 695.61 555.91 605.75 761.78 954.91 1226.90 786.98 529.19 562.59 741.31 1289.60 595.45 626.25 439.08 529.42 763.03 1164.87 896.87 410.56 388.48 648.68 1135.24 743.72 776.09 860.70 875.84 488.20 997.29 801.37 1061.33 1065.78 803.92 1247.40 473.66 1021.25 538.72 505.90 1237.91 771.85 1150.49 1098.98 723.09 783.68 1195.77 672.86 967.91 729.03 696.46 574.95 488.08 598.63 441.83 1105.88 685.46 773.87 1220.75 1052.27 669.20 336.50 1126.08 390.89 939.60 763.42 716.70 740.09 1210.93 857.83 714.82 841.41 869.66 1164.28 532.73 857.48 652.87 521.29 1172.31 598.12 822.81 505.63 636.42 535.33 743.03 560.35 855.22 665.06 407.71 699.81 679.32 1180.92 1110.57 745.42 1050.11 576.44 1145.88 492.36 1322.13 547.27 510.00 1167.69 650.25 1178.14 452.04 701.27 1081.48 1110.37 648.54 1086.86 620.84 1171.37 0.00 529.36 1202.83 776.55 908.98 1091.67 1253.59 1237.76 1179.00 920.86 1132.98 758.15 978.72 1095.18 845.22 1102.74 1245.18 477.90 800.06 664.47 573.29 875.36 1128.62 906.67 999.18 1222.69 859.44 583.47 447.14 463.64 509.26 675.91 1151.38 649.75 790.09 541.06 506.65 821.30 1247.29
428.26 723.07 425.21 993.11 385.76 362.79 251.82 342.84 592.97 177.36 1162.29 1229.69 497.05 454.16 352.50 338.53 1162.77 565.40 331.23 339.74 425.25 1079.88 365.38 222.03 486.70 121.14 436.80 531.56 67.83 972.36 812.81 175.41 1041.33 1041.29 346.63 232.88 529.16 546.26 153.63 276.36 304.43 509.97 1116.16 332.30 173.83 157.55 385.18 1077.75 966.16 457.13 142.21 81.51 235.26 1071.82 179.48 98.34 146.45 294.88 357.47 1049.71 544.39 188.96 189.28 119.32 805.39 446.41 246.73 510.36 424.32 41.16 657.85 463.10 1087.16 1107.03 471.39 1201.90 279.18 991.60 101.95 113.37 974.79 420.22 1118.21 1079.85 413.59 289.85 1142.07 549.07 666.31 279.85 395.01 265.45 113.79 77.69 135.93 1175.95 359.80 466.85 1116.05 1122.34 237.23 289.45 829.50 502.53 416.05 306.43 293.19 414.27 943.20 497.50 487.18 449.59 502.58 1100.40 62.53 328.12 351.42 274.88 1023.88 518.52 365.82 58.59 184.90 153.25 385.60 32.44 419.64 161.07 315.24 367.21 495.09 1119.53 1085.06 385.14 1132.04 85.17 1166.94 85.40 1205.07 239.87 79.48 1156.01 523.82 939.78 162.02 391.77 1103.95 1143.50 221.47 1059.12 163.85 998.52 529.36 0.00 1206.88 440.44 498.26 1098.00 1080.74 1161.86 1213.30 548.57 1149.97 448.65 587.76 1154.79 380.89 1033.60 1224.40 105.62 371.07 354.97 191.21 542.07 1180.83 526.34 1078.36 1049.81 521.25 464.82 257.66 238.47 285.49 229.47 1105.88 334.31 309.80 16.61 78.88 444.10 1259.60
890.36 593.49 846.86 288.19 843.69 925.24 1132.73 1216.98 613.91 1029.52 132.65 99.69 817.38 841.62 915.28 868.87 113.37 692.83 900.89 902.19 898.94 165.68 908.69 1335.00 815.20 1293.32 917.36 697.89 1173.12 383.77 613.14 1044.96 265.43 258.48 983.66 1070.13 906.51 782.97 1088.30 1428.16 985.90 1297.77 153.76 927.04 1074.73 1294.06 923.80 247.92 305.13 923.81 1309.91 1156.16 1255.50 274.80 1317.09 1185.07 1172.58 1421.93 902.15 216.55 960.64 1168.69 1190.77 1206.56 668.52 801.35 1245.50 821.66 1552.05 1208.86 858.22 869.95 307.14 156.28 820.30 172.25 1133.24 285.91 1289.10 1141.29 364.77 888.51 130.48 276.68 914.70 1235.19 88.68 732.63 685.22 1063.58 876.28 961.00 1185.86 1207.18 1236.01 189.73 949.08 816.42 398.45 190.96 1390.84 1149.40 440.42 1582.99 1435.08 1006.74 936.29 853.51 352.58 1486.33 804.23 893.40 878.50 149.48 1205.25 1302.72 878.03 1107.81 278.02 893.51 1163.36 1226.29 1293.50 1054.15 910.78 1174.44 1587.34 1199.48 1363.57 926.86 797.82 112.59 174.56 906.46 201.16 1145.58 81.75 1244.95 264.08 1334.13 1236.28 263.93 796.55 372.08 1219.32 839.81 165.97 138.58 1058.32 204.19 1118.00 504.99 1202.83 1206.88 0.00 899.14 924.84 176.07 470.00 193.59 62.01 875.84 223.27 843.82 995.36 107.65 950.26 229.71 86.90 1175.68 1009.39 888.21 1076.89 775.58 89.09 713.81 239.17 350.55 886.02 822.02 1098.01 1102.87 981.77 1123.61 144.14 939.34 1026.72 1203.76 1179.66 817.09 98.91
333.59 454.16 201.53 770.91 233.29 103.37 385.13 372.43 285.23 295.48 887.79 964.91 212.17 190.63 170.38 215.52 856.95 293.47 205.27 104.67 25.61 789.02 156.48 559.23 162.42 507.06 37.70 290.57 372.61 719.99 497.36 317.12 853.12 821.50 166.73 312.96 155.68 145.44 290.78 638.17 224.29 446.61 862.52 169.87 321.26 504.55 72.64 825.78 653.13 72.24 523.94 390.59 423.61 809.14 587.70 431.96 431.47 689.67 82.97 795.34 171.54 529.90 531.89 472.61 420.50 171.39 411.66 135.37 771.58 481.60 355.96 155.63 932.20 820.60 109.34 880.29 485.00 745.46 507.66 405.88 670.39 116.87 812.39 898.04 118.05 336.40 875.01 347.34 399.19 223.76 246.73 201.60 467.47 409.66 486.23 912.47 115.26 182.78 944.79 858.86 642.94 569.67 632.41 868.46 601.24 172.90 176.84 169.74 665.81 659.76 316.11 64.86 154.92 808.78 460.35 488.98 263.79 424.67 699.60 530.90 307.39 499.03 567.17 330.86 102.07 411.97 810.65 429.39 672.43 154.16 350.00 842.82 798.37 55.30 893.59 365.69 861.12 509.51 906.18 555.70 453.92 974.20 332.50 698.21 546.76 192.94 850.95 869.00 260.63 790.36 315.48 898.29 776.55 440.44 899.14 0.00 132.43 753.57 980.51 861.19 926.61 220.55 947.88 174.59 221.81 868.10 195.99 815.88 888.98 465.47 148.82 205.65 292.90 216.71 892.50 278.48 870.05 904.98 134.90 362.42 484.45 442.53 347.05 302.06 784.27 167.17 204.85 450.44 420.16 82.05 942.81
435.96 341.92 316.34 800.29 352.40 186.13 506.51 422.47 342.20 399.99 902.83 930.99 327.92 273.40 247.76 323.23 852.15 292.06 285.82 209.18 158.04 784.22 270.14 582.27 272.32 580.39 163.56 258.22 430.43 762.04 487.60 411.23 879.70 791.75 166.20 421.51 111.99 228.43 364.11 720.93 334.12 483.44 826.30 291.25 425.77 601.45 205.07 868.04 630.28 129.02 611.41 443.00 437.18 788.66 664.20 474.57 563.17 787.24 193.73 772.49 47.17 534.00 556.08 495.26 359.87 299.09 508.24 189.74 738.99 539.42 321.56 244.05 921.74 815.80 169.98 866.79 562.38 748.17 579.22 510.39 701.45 242.09 807.59 930.78 250.48 408.76 867.15 479.77 408.88 257.70 361.88 334.03 520.25 482.99 570.40 844.62 247.69 268.94 989.75 898.23 714.50 672.99 721.78 961.85 669.98 279.51 270.95 283.99 627.48 714.33 441.97 142.65 46.34 785.93 527.31 488.60 318.29 546.05 688.88 650.01 331.20 556.85 639.94 441.62 202.62 480.39 905.09 484.01 728.88 286.59 423.76 838.02 793.57 187.73 921.01 483.06 856.32 583.66 912.87 598.44 526.79 969.89 464.93 689.91 584.63 325.37 838.51 913.15 376.93 806.98 334.41 961.64 908.98 498.26 924.84 132.43 0.00 748.77 1034.32 859.41 921.81 198.91 880.03 272.38 114.88 863.30 131.94 822.51 943.35 530.43 197.57 338.08 403.66 283.99 887.70 275.22 858.00 971.15 103.01 420.66 562.35 563.91 456.21 362.32 808.48 276.33 216.44 512.17 498.94 197.27 978.09
833.53 454.24 706.74 167.63 729.57 812.28 1018.61 1074.89 661.55 940.64 168.69 211.34 703.26 666.80 755.00 778.38 103.38 617.61 793.06 835.33 741.35 35.45 732.62 1172.67 715.75 1173.13 764.63 583.77 1055.08 322.73 492.82 955.99 173.18 215.98 808.45 919.88 760.11 679.03 956.85 1294.02 845.60 1139.53 109.59 814.91 932.04 1205.18 778.23 136.76 165.88 778.24 1186.04 1025.45 1079.43 197.93 1189.26 1096.19 1058.46 1300.45 772.39 73.20 784.57 1079.44 1101.52 1092.44 591.65 670.50 1136.86 714.51 1395.08 1106.78 747.02 701.80 243.18 67.03 644.23 155.73 1067.09 176.55 1171.03 1016.66 317.15 732.22 58.82 257.36 741.77 1082.21 121.44 722.64 603.23 899.95 737.03 841.75 1022.98 1075.73 1073.13 204.55 777.98 640.35 376.15 193.54 1263.01 1019.64 285.29 1482.56 1326.07 921.76 850.58 722.66 263.13 1349.70 712.34 754.15 702.43 72.61 1044.97 1142.44 763.91 994.36 201.15 903.16 987.29 1124.21 1191.97 946.34 758.38 1078.04 1446.72 1094.15 1274.32 750.79 753.65 89.25 44.80 760.89 172.24 1033.23 107.55 1122.38 296.84 1217.80 1076.00 308.96 752.38 241.85 1130.07 715.43 97.38 164.38 922.73 83.63 963.03 488.86 1091.67 1098.00 176.07 753.57 748.77 0.00 486.85 146.09 173.04 741.55 235.11 674.50 831.08 114.53 774.19 102.42 215.46 1033.16 844.46 790.19 949.29 607.76 138.93 615.29 181.03 385.14 739.33 723.64 1013.58 1025.21 882.48 964.28 59.71 772.65 858.69 1090.59 1060.41 671.52 229.32
880.82 735.39 866.39 383.97 837.84 978.06 1083.78 1208.26 860.08 1040.20 398.37 490.85 838.49 826.74 918.60 877.94 430.16 809.94 926.12 955.01 966.66 468.01 917.66 1272.79 862.01 1201.88 993.06 776.10 1148.57 272.28 879.50 1043.15 358.82 270.87 970.37 1040.88 966.31 924.30 1120.45 1339.93 1001.77 1316.52 390.27 974.85 1072.99 1233.88 942.55 350.09 552.56 1007.65 1141.10 1151.72 1241.35 618.03 1223.68 1179.08 1145.45 1322.35 926.39 522.62 1019.64 1071.56 1049.48 1200.06 1001.85 820.88 1224.19 885.61 1505.06 1121.90 963.38 852.70 299.41 432.83 879.30 537.34 1048.07 346.91 1162.95 1150.36 670.08 863.64 459.36 260.82 888.91 1254.72 453.77 831.58 777.96 1042.27 786.08 911.84 1150.52 1158.43 1102.83 385.32 937.54 840.07 184.67 372.35 1297.43 1164.73 452.53 1490.97 1413.77 985.43 1013.96 873.04 459.05 1513.68 862.44 957.49 1029.01 529.52 1143.27 1306.04 829.67 1051.62 497.97 766.19 1151.32 1139.33 1265.64 1063.22 930.31 1113.18 1500.38 1197.67 1222.28 916.34 788.28 449.52 477.62 925.21 366.30 1165.01 424.38 1066.97 629.17 1208.27 1127.27 282.12 822.93 399.79 1119.74 838.42 402.48 379.58 1067.39 420.96 1128.01 82.22 1253.59 1080.74 470.00 980.51 1034.32 486.85 0.00 558.68 443.29 945.66 409.08 805.92 1036.09 414.35 936.11 428.40 548.43 1156.19 1006.38 877.34 1059.51 900.81 380.91 849.50 337.12 119.45 959.61 870.03 1082.50 1037.59 973.28 1114.59 491.54 947.17 1020.61 1097.35 1095.78 906.59 505.55
853.40 517.49 832.83 273.40 812.22 878.90 1043.61 1122.36 662.42 996.52 221.63 238.91 773.16 740.56 836.76 861.80 188.04 646.11 874.82 889.74 860.99 157.01 858.99 1227.57 739.20 1236.52 845.92 666.42 1100.83 416.99 509.76 1017.51 291.10 291.70 954.54 974.78 813.04 726.17 1038.61 1371.36 909.90 1220.70 212.01 851.04 1043.75 1261.06 835.72 282.85 229.13 875.85 1240.94 1080.35 1201.74 167.75 1268.87 1152.07 1119.92 1402.94 811.19 140.55 877.86 1213.08 1220.34 1175.09 592.52 787.32 1213.12 764.86 1508.28 1152.06 731.87 705.56 361.15 200.67 779.63 58.24 1089.80 257.46 1225.93 1128.37 236.72 767.82 143.48 322.56 816.58 1128.45 104.91 799.13 647.50 1014.85 800.28 902.35 1157.60 1144.36 1197.86 279.84 861.61 767.01 444.33 251.81 1342.62 1137.11 419.56 1580.35 1380.91 992.02 890.15 774.99 300.83 1422.84 728.23 817.40 848.52 73.48 1126.73 1224.20 843.87 1083.15 202.02 976.71 1133.38 1169.49 1273.73 1047.08 804.04 1141.44 1530.54 1133.07 1370.06 858.78 802.39 113.05 162.27 829.39 217.08 1118.55 192.21 1210.36 219.33 1222.10 1157.76 317.61 824.38 363.41 1242.64 808.34 200.52 229.25 977.63 189.40 1039.29 593.97 1237.76 1161.86 193.59 861.19 859.41 146.09 558.68 0.00 191.35 794.89 315.25 752.34 938.56 204.22 920.28 175.97 199.57 1160.89 927.88 842.46 1021.12 736.98 197.97 678.54 291.39 459.43 833.82 841.11 1041.21 1099.71 987.48 1067.85 87.34 827.55 980.38 1149.52 1121.01 779.14 167.12
863.65 611.67 865.33 264.25 845.86 923.54 1119.21 1235.16 675.92 1074.09 103.63 47.56 791.22 814.91 924.85 908.70 83.70 712.15 886.79 934.38 914.39 151.74 905.66 1331.08 832.04 1305.95 915.09 700.06 1145.47 370.16 575.80 1073.09 238.72 244.87 981.49 1060.78 903.75 798.64 1120.49 1406.63 1012.21 1274.81 127.05 953.35 1077.16 1338.63 883.54 224.09 323.31 949.63 1315.09 1142.06 1252.47 246.65 1290.38 1213.73 1174.75 1413.19 855.83 220.41 957.61 1168.70 1190.78 1208.73 701.74 843.54 1277.69 837.33 1526.34 1224.53 797.91 849.03 294.62 156.29 817.27 170.01 1106.53 259.20 1286.75 1161.78 302.76 893.45 128.26 256.03 914.81 1214.02 86.44 702.96 623.21 1072.99 857.02 952.57 1161.09 1193.80 1211.24 131.53 943.46 813.39 377.80 161.94 1364.13 1103.08 413.71 1568.89 1467.27 1038.93 949.70 867.11 325.87 1470.66 775.61 911.58 875.47 188.74 1214.82 1312.29 880.20 1097.72 305.44 904.54 1160.33 1238.92 1347.35 1089.96 889.61 1196.07 1567.19 1227.61 1363.58 923.83 771.11 98.49 128.24 883.50 168.59 1143.34 101.87 1240.96 261.84 1288.14 1230.36 201.92 769.84 358.14 1219.33 841.98 139.26 101.86 1081.30 188.11 1136.07 475.97 1179.00 1213.30 62.01 926.61 921.81 173.04 443.29 191.35 0.00 849.13 166.94 835.73 978.35 83.82 947.23 185.86 148.91 1151.74 1007.69 908.62 1065.76 780.80 62.38 761.79 212.46 323.84 882.97 792.35 1113.68 1109.60 971.68 1137.02 159.81 945.69 1025.02 1201.41 1171.23 844.56 160.79
436.47 347.46 300.29 750.70 347.57 268.38 511.53 493.75 308.68 371.21 830.31 896.69 300.13 262.71 302.13 371.20 826.43 250.11 340.19 281.92 212.26 767.31 324.51 687.19 219.15 667.49 182.85 283.95 548.85 673.38 401.30 434.85 855.50 796.31 311.88 477.93 128.35 125.23 468.03 785.73 370.16 629.55 831.16 356.73 405.01 635.75 256.91 843.47 635.82 164.53 671.93 550.41 564.23 794.20 715.76 526.76 556.45 773.42 259.21 778.03 151.74 652.85 630.77 564.91 360.10 282.15 592.09 163.92 885.10 589.73 147.10 227.71 919.25 788.60 204.09 834.48 616.75 723.60 650.52 489.63 642.25 231.15 792.12 880.66 257.90 546.51 854.74 442.22 335.05 379.53 379.01 388.25 575.94 580.72 626.09 850.16 303.64 252.00 901.09 879.93 785.80 696.07 673.18 997.59 781.67 353.33 353.08 272.62 671.60 841.38 409.54 187.02 192.45 791.47 578.91 611.14 370.44 551.07 691.96 568.67 477.31 605.08 693.65 425.59 288.59 516.13 935.15 514.07 803.57 331.15 424.88 822.55 743.81 243.68 901.25 506.20 830.22 597.80 918.41 710.39 609.94 956.82 509.51 706.27 686.62 327.08 818.95 847.74 415.32 825.18 465.86 984.63 920.86 548.57 875.84 220.55 198.91 741.55 945.66 794.89 849.13 0.00 885.57 260.93 297.13 813.54 330.47 801.43 917.53 582.81 289.44 351.86 434.34 159.24 786.75 221.01 862.56 882.49 107.57 456.51 617.06 568.93 510.58 482.49 764.06 330.70 355.66 565.18 546.33 176.80 956.41
866.97 538.11 799.79 218.25 821.37 966.15 1076.67 1236.39 718.62 1031.05 93.62 155.68 751.85 818.23 909.16 852.30 131.73 783.18 900.48 976.99 947.68 201.02 888.14 1318.43 833.66 1256.03 985.58 749.34 1185.68 306.81 706.58 1069.06 170.83 200.05 1043.56 1013.56 909.57 843.72 1111.01 1366.60 955.76 1300.03 130.37 954.53 1050.97 1289.63 919.53 178.07 385.96 972.55 1249.14 1159.12 1197.03 333.71 1297.22 1186.60 1150.26 1408.51 898.44 269.63 927.20 1185.34 1187.33 1184.24 788.66 823.35 1293.40 882.41 1486.97 1186.22 846.57 853.23 195.02 172.93 879.34 299.37 1088.09 263.85 1218.70 1124.72 440.10 881.85 176.29 159.91 833.09 1213.97 215.80 750.99 687.24 1088.29 811.99 884.52 1115.92 1192.02 1166.07 35.41 903.49 818.79 281.68 89.02 1344.61 1115.27 391.54 1505.63 1444.75 1081.54 973.81 875.51 329.19 1474.18 815.78 948.98 926.37 269.62 1152.93 1296.60 850.98 1037.13 353.47 919.01 1211.23 1189.00 1299.93 1037.58 889.56 1175.97 1564.70 1213.33 1360.13 869.97 774.43 202.20 197.73 908.72 119.39 1152.16 158.18 1178.52 391.20 1319.58 1183.96 160.68 773.16 389.61 1226.60 758.20 142.58 112.41 1041.75 202.53 1131.14 465.96 1132.98 1149.97 223.27 947.88 880.03 235.11 409.08 315.25 166.94 885.57 0.00 836.14 988.90 128.00 1009.30 228.05 263.23 1105.74 1048.76 832.96 1021.64 828.21 134.18 766.44 133.80 289.63 888.79 828.47 1127.58 1094.78 994.59 1065.52 244.81 921.86 1067.63 1133.36 1103.18 865.83 276.76
260.66 298.03 100.54 688.73 156.70 177.44 384.19 412.26 251.74 297.62 792.20 834.77 101.09 20.82 140.76 172.18 777.88 181.46 139.86 194.18 168.26 709.95 133.14 566.88 100.87 528.39 187.14 202.97 410.11 612.90 493.34 345.63 761.56 712.65 238.45 312.02 160.39 149.26 342.61 679.13 195.85 510.60 708.68 168.93 330.23 561.48 136.63 756.48 586.39 201.73 544.98 419.66 501.89 744.77 575.02 453.17 456.17 697.65 120.47 728.60 225.21 503.93 526.01 508.33 457.06 64.30 530.66 119.09 785.03 443.93 239.14 46.78 842.64 721.39 114.93 810.58 455.38 636.61 517.38 414.85 590.85 57.72 733.32 806.48 82.99 449.48 795.94 244.96 348.69 315.11 131.79 183.20 479.70 461.49 496.64 800.73 150.47 34.15 838.63 794.35 643.29 529.68 540.85 890.70 681.27 298.73 208.04 103.11 509.86 723.75 172.31 151.57 236.01 694.34 430.73 528.20 175.38 388.16 637.62 424.01 450.04 461.36 577.73 341.27 125.07 442.54 822.41 458.33 698.81 114.97 246.47 763.75 719.30 119.29 814.26 425.36 782.05 473.61 797.33 593.29 461.76 882.64 300.80 577.41 554.56 109.23 720.89 810.99 298.22 689.36 356.83 723.70 758.15 448.65 843.82 174.59 272.38 674.50 805.92 752.34 835.73 260.93 836.14 0.00 333.78 789.03 257.92 714.88 832.66 473.65 251.35 182.35 303.31 127.93 773.35 161.33 778.90 820.13 181.17 238.66 419.04 441.59 304.71 315.51 734.21 166.86 278.92 432.04 401.86 120.36 886.49
507.28 456.80 388.57 841.34 403.32 268.44 552.01 504.78 386.53 443.55 895.28 1022.50 391.15 348.73 338.11 374.25 934.46 325.32 366.95 268.47 247.42 866.53 318.69 664.58 332.76 670.86 184.11 359.16 534.29 862.98 602.48 478.80 945.51 865.26 241.13 479.84 173.39 238.84 454.58 799.12 368.59 565.75 940.67 336.75 483.91 676.38 216.94 909.09 736.04 211.33 696.60 535.35 512.11 872.41 741.21 549.50 618.03 852.32 244.65 878.25 145.39 616.31 638.39 604.66 474.75 358.05 545.43 272.05 821.30 628.92 436.44 324.47 993.22 898.11 277.28 928.19 652.73 789.22 654.15 568.53 734.71 295.85 889.90 954.63 305.09 508.43 947.91 534.38 492.99 332.63 420.66 403.77 612.60 541.94 639.10 953.49 293.26 355.64 931.41 952.39 789.43 736.55 802.75 1032.26 752.29 354.44 338.52 349.75 742.36 789.26 462.52 217.98 128.65 891.69 619.66 509.71 422.52 591.55 794.99 700.93 413.51 638.11 714.87 492.54 248.62 555.32 980.02 558.94 811.19 333.14 530.81 912.54 875.88 234.28 966.87 565.37 933.32 662.02 1012.40 713.32 601.72 1030.79 554.31 751.31 666.94 378.27 928.46 876.49 448.92 896.23 449.29 953.87 978.72 587.76 995.36 221.81 114.88 831.08 1036.09 938.56 978.35 297.13 988.90 333.78 0.00 945.61 206.87 870.71 1013.32 622.78 277.14 384.63 454.58 299.42 937.48 286.63 931.51 997.65 194.17 535.54 637.28 609.41 520.57 411.60 851.22 345.17 291.37 603.02 590.06 254.48 1001.79
832.90 567.15 806.82 194.09 787.35 865.03 1076.39 1170.06 680.82 1015.58 77.00 131.38 732.71 773.04 869.53 850.19 48.52 675.39 879.47 875.87 855.88 93.23 847.15 1283.28 773.53 1238.22 879.16 641.55 1086.96 286.34 607.35 1031.47 176.69 161.05 922.98 1014.32 856.54 768.56 1061.98 1342.44 953.70 1216.30 96.30 894.84 1036.58 1278.15 825.03 140.27 280.41 892.77 1244.93 1104.94 1193.96 248.26 1261.44 1155.22 1116.24 1338.12 797.32 163.50 899.10 1084.88 1106.96 1150.22 680.46 785.03 1219.18 796.75 1467.83 1188.62 793.37 791.31 237.58 72.47 758.76 188.79 1067.62 201.48 1241.84 1121.20 369.50 815.52 60.74 198.99 856.30 1162.80 123.36 667.78 608.67 1014.48 821.84 907.66 1091.76 1136.08 1141.91 92.59 884.95 754.88 320.76 96.31 1335.19 1044.57 358.54 1486.07 1408.76 980.42 891.19 816.83 284.00 1412.15 740.43 868.68 816.96 161.42 1159.50 1256.97 821.69 1045.27 270.26 866.37 1101.82 1171.19 1278.02 1034.79 838.39 1151.99 1538.25 1184.73 1279.76 858.34 740.36 91.17 69.73 824.99 93.51 1119.59 54.61 1170.80 290.31 1260.68 1160.20 211.73 739.09 299.63 1135.51 783.47 84.09 78.50 1022.79 120.38 1077.56 449.34 1095.18 1154.79 107.65 868.10 863.30 114.53 414.35 204.22 83.82 813.54 128.00 789.03 945.61 0.00 888.72 127.35 194.55 1081.58 949.18 850.11 1007.25 722.29 33.44 704.07 183.52 294.90 835.76 748.57 1083.60 1051.09 919.23 1071.83 129.73 887.18 966.51 1156.50 1126.32 786.05 152.11
357.42 473.86 269.45 879.90 277.47 126.70 419.15 300.70 389.53 268.31 942.88 985.53 299.09 261.01 236.32 270.24 877.57 310.61 231.30 103.65 191.19 809.64 242.34 475.78 302.56 475.30 163.29 314.59 337.78 768.17 596.82 321.05 947.37 893.46 34.26 315.98 225.81 254.43 259.02 618.05 202.18 409.80 883.78 214.75 311.94 469.51 159.56 910.95 762.22 195.18 489.73 398.50 305.24 889.49 534.34 342.63 450.76 675.77 141.48 847.39 178.90 524.61 516.37 397.79 491.81 245.73 386.33 274.27 682.63 422.05 411.45 245.68 953.40 841.22 241.92 929.92 527.47 835.51 447.28 396.56 720.00 200.20 833.01 975.45 239.02 339.95 895.63 453.09 465.25 125.76 299.96 270.27 465.07 377.90 466.97 976.56 181.20 250.02 995.88 967.73 582.56 541.05 756.72 829.91 553.99 147.57 180.77 193.57 746.29 582.39 421.20 188.80 150.48 846.80 425.88 411.91 311.81 437.84 812.48 575.08 215.21 437.40 508.00 319.46 182.55 348.45 773.15 352.07 661.72 241.08 375.58 863.44 818.99 142.22 946.43 378.07 881.74 455.15 923.55 535.51 394.85 1051.61 453.03 793.28 497.66 310.71 871.57 927.51 244.99 857.82 267.65 981.62 845.22 380.89 950.26 195.99 131.94 774.19 936.11 920.28 947.23 330.47 1009.30 257.92 206.87 888.72 0.00 876.61 989.65 454.98 70.27 258.67 288.68 325.70 913.12 387.47 955.22 977.28 222.90 386.25 430.41 466.63 412.99 230.38 833.90 233.11 84.50 397.50 383.19 214.63 988.35
779.40 480.59 735.17 109.52 775.24 844.66 981.14 1088.12 633.92 888.23 175.09 233.42 720.60 694.06 802.52 765.50 129.93 663.28 808.74 855.50 826.75 81.12 812.49 1175.63 713.58 1132.84 811.68 629.44 965.77 282.82 519.17 960.93 190.85 157.53 910.87 964.93 777.07 704.43 1004.37 1257.87 901.03 1186.46 97.68 842.17 940.42 1152.77 800.44 157.47 192.23 838.95 1146.75 1044.66 1165.98 227.81 1203.05 1034.03 1031.60 1290.77 776.95 94.22 841.89 1045.87 1060.14 1088.55 621.53 740.82 1181.75 743.12 1422.38 1074.76 727.91 671.32 248.13 73.43 745.39 224.63 1007.69 81.49 1135.55 1006.98 274.64 733.58 105.93 260.27 782.34 1093.17 168.55 625.22 578.51 984.27 763.38 838.25 990.97 1016.09 1041.12 192.64 823.71 720.51 382.04 173.14 1245.19 1032.46 243.59 1493.63 1313.99 955.12 870.82 740.75 205.02 1387.56 654.23 780.50 804.85 102.49 1092.49 1189.96 752.28 950.41 199.62 800.74 1089.71 1076.33 1177.23 919.84 768.76 1030.80 1453.24 1072.21 1232.94 824.54 702.73 136.36 57.62 795.15 154.79 1041.61 150.43 1086.23 319.81 1194.63 1075.63 288.56 740.47 287.52 1096.50 771.36 103.78 181.65 932.34 25.52 1007.92 510.62 1102.74 1033.60 229.71 815.88 822.51 102.42 428.40 175.97 185.86 801.43 228.05 714.88 870.71 127.35 876.61 0.00 230.81 997.01 893.64 784.84 957.80 645.85 160.79 584.08 172.07 327.03 756.29 714.61 991.86 923.74 824.37 1030.39 128.61 831.09 946.14 1050.21 1056.91 744.90 269.93
938.10 605.26 904.11 289.29 888.64 922.85 1163.97 1168.78 700.81 1088.64 219.55 186.59 862.33 811.84 941.77 951.48 178.73 776.68 932.29 924.23 863.37 194.52 920.51 1317.00 858.75 1311.28 926.68 742.84 1156.57 437.54 619.12 1111.14 283.03 312.25 996.74 1082.71 868.46 792.30 1110.34 1361.85 1018.44 1267.12 201.50 959.95 1116.25 1344.37 886.94 290.27 316.90 941.62 1327.87 1184.61 1261.37 224.20 1331.09 1224.83 1217.53 1478.09 876.99 174.69 930.75 1251.71 1237.81 1173.54 695.61 858.60 1266.87 753.61 1557.87 1226.82 873.32 825.92 376.78 239.30 823.89 141.85 1180.98 312.30 1326.35 1200.87 390.71 814.24 157.28 352.32 863.00 1206.00 94.66 797.99 621.74 1071.63 888.05 998.07 1186.96 1221.07 1237.11 227.82 920.38 838.29 447.96 276.57 1319.35 1180.43 474.40 1607.96 1457.12 1028.78 970.86 895.35 322.80 1474.06 834.00 892.97 897.01 204.19 1231.74 1317.09 922.98 1130.18 321.57 980.41 1145.15 1244.25 1327.89 1124.88 881.59 1204.29 1543.78 1122.70 1410.61 938.68 845.56 143.99 205.59 875.81 270.45 1151.56 168.65 1266.00 240.69 1376.09 1255.40 350.83 844.29 393.27 1287.10 884.76 208.95 225.48 1094.10 205.29 1140.04 586.53 1245.18 1224.40 86.90 888.98 943.35 215.46 548.43 199.57 148.91 917.53 263.23 832.66 1013.32 194.55 989.65 230.81 0.00 1176.78 986.58 951.40 1086.92 823.22 175.99 766.31 246.00 437.45 847.68 884.43 1115.97 1146.87 1004.14 1147.14 162.10 944.02 1024.33 1241.01 1216.73 842.73 53.83
404.11 730.35 431.69 887.49 391.30 402.91 209.27 369.63 600.77 234.07 1075.03 1124.07 500.44 469.06 345.58 345.81 1075.90 570.94 356.23 394.39 452.04 1068.61 367.96 277.77 490.67 200.55 488.44 537.10 158.27 937.81 850.39 201.62 978.27 969.35 445.99 232.98 540.80 511.29 221.23 260.86 311.71 615.59 1024.69 330.59 177.80 237.14 420.73 994.03 969.55 511.78 163.35 87.43 278.81 1096.82 234.87 192.64 62.41 314.67 395.05 1066.26 577.60 100.76 110.92 224.94 847.47 453.69 352.35 472.60 503.73 122.00 665.13 476.77 1061.78 1019.40 478.67 1188.89 218.11 919.66 173.88 93.18 980.33 434.87 1091.98 1023.19 407.12 360.60 1126.77 510.89 674.27 347.71 398.40 290.45 10.18 167.25 60.33 1070.33 386.85 483.84 1144.96 1016.72 264.40 213.85 757.56 536.68 506.49 393.51 340.36 407.35 958.10 545.16 513.28 487.17 542.44 1087.41 109.65 411.49 358.66 177.24 1027.85 497.45 428.87 133.52 196.44 160.53 435.07 135.73 490.94 264.36 267.99 384.77 439.12 1122.41 1051.41 410.17 1051.45 111.96 1099.50 89.22 1227.32 213.84 78.62 1099.35 480.88 867.84 120.86 416.77 1012.48 1084.94 271.19 971.49 250.93 1102.26 477.90 105.62 1175.68 465.47 530.43 1033.16 1156.19 1160.89 1151.74 582.81 1105.74 473.65 622.78 1081.58 454.98 997.01 1176.78 0.00 446.75 365.15 186.57 567.38 1089.36 609.57 1015.30 1084.09 540.14 421.50 154.05 161.02 303.28 301.11 1092.87 340.23 401.43 122.23 71.79 451.38 1230.61
348.75 539.49 297.69 864.27 305.71 84.15 372.61 244.05 395.48 268.55 956.68 1044.48 298.36 230.53 213.09 273.79 947.84 372.28 234.85 107.20 123.21 879.91 233.80 472.49 292.99 453.20 121.76 384.86 303.24 810.17 607.20 258.52 912.02 888.19 36.01 300.44 253.28 269.84 236.92 613.18 154.41 410.73 918.39 157.35 288.36 460.94 170.60 875.60 761.25 124.91 484.22 380.22 274.79 896.14 536.09 344.38 436.59 656.77 151.86 822.88 244.74 518.67 496.59 368.07 473.17 261.57 330.63 232.97 681.62 412.23 408.63 222.32 956.95 911.49 220.33 986.12 527.71 812.15 449.03 372.98 781.38 203.87 903.28 995.54 234.35 331.57 965.90 463.64 500.75 127.28 328.20 249.82 447.97 355.80 461.75 1013.35 157.97 231.42 1037.88 981.87 584.31 534.43 738.12 825.04 557.63 129.29 118.24 221.81 719.57 551.94 400.17 172.98 207.59 889.95 424.60 407.47 289.21 412.15 820.20 575.70 264.70 429.66 509.52 299.61 177.88 343.58 774.67 353.59 613.83 223.96 403.82 933.71 879.45 159.65 970.80 346.64 952.01 456.47 972.87 519.51 396.37 1069.40 470.17 774.68 499.18 303.26 930.60 937.89 224.44 899.07 207.22 975.05 800.06 371.07 1009.39 148.82 197.57 844.46 1006.38 927.88 1007.69 289.44 1048.76 251.35 277.14 949.18 70.27 893.64 986.58 446.75 0.00 260.42 308.73 336.46 982.62 367.79 919.87 1017.40 232.50 414.49 440.73 421.68 376.05 212.10 904.17 196.17 66.22 387.68 374.96 205.06 1040.41
162.96 403.88 102.63 710.37 62.76 208.98 300.03 419.14 274.30 216.75 897.91 946.95 164.27 171.90 94.81 19.34 834.23 242.40 67.52 185.93 189.70 756.88 86.94 485.47 205.39 461.03 240.08 208.56 352.72 675.82 603.50 241.68 757.52 801.11 224.41 218.56 277.61 226.63 296.66 585.75 189.20 541.66 819.96 166.11 218.01 469.31 167.69 793.94 662.41 260.07 454.14 329.44 440.40 773.03 501.65 372.30 352.13 575.55 172.69 804.62 335.63 431.59 429.26 425.63 562.81 127.22 488.07 209.21 748.77 381.51 406.27 136.90 764.43 823.79 210.97 900.65 373.26 726.73 423.70 291.76 651.79 179.18 795.21 803.02 135.18 442.28 857.83 214.97 359.22 276.56 91.26 89.52 354.97 399.44 382.01 868.37 114.01 149.84 903.53 839.60 543.25 405.26 656.54 831.86 666.41 290.48 180.43 79.24 660.94 704.02 239.15 229.94 317.48 801.50 357.93 482.25 67.61 315.77 706.45 360.37 453.10 394.00 504.93 204.62 144.97 361.67 759.99 396.20 602.06 80.70 175.90 824.37 780.38 150.35 845.53 319.20 843.94 397.53 887.45 503.86 388.96 876.88 280.34 622.54 442.54 74.76 832.17 900.77 208.79 794.37 314.24 795.12 664.47 354.97 888.21 205.65 338.08 790.19 877.34 842.46 908.62 351.86 832.96 182.35 384.63 850.11 258.67 784.84 951.40 365.15 260.42 0.00 188.68 258.42 860.36 298.17 794.55 883.31 260.22 232.07 294.62 353.95 211.22 294.19 843.59 102.50 264.77 338.36 308.18 188.19 964.44
335.76 586.05 291.31 876.40 251.44 268.97 168.84 300.20 462.98 85.60 1014.75 1096.44 328.02 282.49 222.21 208.02 1020.14 431.08 196.81 245.92 286.57 945.56 228.75 367.13 342.20 279.62 325.43 397.24 182.71 854.58 665.27 53.00 923.55 926.00 319.65 46.41 394.49 386.22 132.80 429.22 189.14 523.95 970.35 189.50 29.33 302.65 237.64 959.97 848.38 330.02 296.21 162.78 251.72 937.40 312.97 241.15 163.45 397.74 209.93 990.59 431.54 248.88 240.58 258.36 678.28 311.31 326.85 367.09 560.09 195.16 542.45 315.56 942.66 982.31 343.64 1029.29 288.90 876.31 273.64 113.95 840.47 272.68 983.89 979.84 253.55 342.95 1034.44 403.65 547.90 215.51 277.23 147.67 176.39 247.21 193.33 1057.05 245.55 308.94 1082.29 1005.63 386.72 320.21 714.21 664.71 502.55 237.90 193.28 267.92 771.53 528.87 427.83 302.05 357.32 967.06 203.23 383.06 233.64 149.16 879.38 368.89 354.99 212.59 343.38 37.96 251.00 183.25 573.64 207.52 413.38 245.53 364.58 985.11 937.52 237.60 1003.62 130.52 1030.33 222.12 1066.11 346.84 234.26 1055.11 337.35 811.22 253.86 263.44 982.56 995.96 96.78 934.71 153.02 977.29 573.29 191.21 1076.89 292.90 403.66 949.29 1059.51 1021.12 1065.76 434.34 1021.64 303.31 454.58 1007.25 288.68 957.80 1086.92 186.57 308.73 188.68 0.00 389.60 1035.02 423.00 960.58 1047.06 373.71 315.19 213.45 206.81 135.86 178.54 1009.00 193.64 260.47 188.30 170.65 323.31 1125.18
319.79 361.74 159.67 616.48 215.83 252.31 459.57 523.62 161.67 383.91 765.51 819.10 162.00 107.11 245.57 239.52 711.14 90.87 251.51 263.15 219.43 643.21 225.54 665.59 124.39 635.02 245.04 124.71 474.24 628.53 466.45 410.98 720.65 640.40 343.72 398.31 200.64 71.27 447.42 787.11 314.08 603.58 711.18 255.22 418.93 648.45 212.31 684.23 511.18 256.87 627.23 492.22 594.29 647.55 673.05 539.46 535.88 787.34 184.60 653.39 258.72 580.91 558.83 578.70 357.50 131.64 606.46 109.67 897.12 571.86 212.25 121.52 770.39 674.79 124.64 749.12 555.82 564.36 637.80 503.55 500.26 169.08 666.58 749.08 160.26 541.14 729.20 282.98 275.37 368.66 227.37 308.40 565.99 538.74 582.93 799.32 236.76 133.56 856.24 745.71 746.80 641.33 563.66 995.51 789.72 367.70 270.70 183.80 512.36 799.43 250.30 198.42 253.07 666.83 535.54 622.54 250.17 475.72 570.13 484.67 501.21 589.29 682.54 424.80 216.73 528.83 939.64 549.03 731.63 237.50 324.46 697.01 652.56 212.27 742.01 499.10 700.95 553.10 787.54 705.14 566.57 825.24 387.09 563.48 618.52 196.79 705.14 757.78 410.07 671.37 456.24 851.63 875.36 542.07 775.58 216.71 283.99 607.76 900.81 736.98 780.80 159.24 828.21 127.93 299.42 722.29 325.70 645.85 823.22 567.38 336.46 258.42 389.60 0.00 744.42 61.77 706.65 837.64 180.98 338.07 530.69 514.78 372.05 443.44 667.47 265.57 307.60 557.24 527.06 151.32 837.08
801.27 586.26 835.31 201.87 797.60 898.47 1056.83 1185.61 703.00 1029.33 43.56 109.94 766.15 752.53 888.85 860.44 49.25 666.56 888.47 909.31 880.28 103.48 870.96 1303.93 783.78 1254.67 903.56 651.80 1120.40 309.36 631.75 1010.71 176.34 184.07 947.38 998.40 841.37 749.46 1090.51 1344.25 959.50 1249.74 64.67 900.64 1040.55 1292.27 858.47 173.71 304.81 917.17 1252.71 1138.38 1218.36 237.12 1228.00 1184.20 1126.49 1350.81 830.76 173.75 906.19 1118.32 1140.40 1160.47 671.76 799.29 1252.62 788.15 1501.27 1175.35 794.10 786.65 232.71 105.91 783.16 194.83 1044.15 196.82 1252.09 1114.72 365.14 831.07 92.20 225.14 856.34 1151.64 121.50 662.54 642.11 1038.88 816.60 917.91 1098.71 1131.42 1148.86 100.64 882.18 778.98 327.70 101.87 1301.75 1065.21 351.33 1518.48 1420.98 1013.86 924.63 827.08 263.49 1445.59 735.19 876.61 841.36 152.72 1178.82 1276.29 831.94 1055.40 270.99 855.23 1126.22 1187.64 1284.97 1027.58 827.23 1174.25 1504.81 1165.23 1313.20 888.32 708.73 122.63 103.17 858.43 126.95 1132.57 43.47 1178.58 279.17 1264.04 1167.98 217.29 707.46 304.14 1168.95 793.72 76.88 60.99 1049.89 136.83 1101.66 415.90 1128.62 1180.83 89.09 892.50 887.70 138.93 380.91 197.97 62.38 786.75 134.18 773.35 937.48 33.44 913.12 160.79 175.99 1089.36 982.62 860.36 1035.02 744.42 0.00 699.41 150.08 261.46 820.59 751.93 1064.50 1073.99 931.26 1088.86 110.63 910.99 997.62 1166.75 1136.57 810.45 180.05
339.37 387.76 221.44 554.71 235.41 283.64 481.30 558.39 99.90 417.31 742.25 791.29 209.10 140.51 281.32 295.15 714.01 116.89 301.19 306.69 281.20 637.93 258.94 698.99 166.39 632.40 302.88 89.61 536.01 593.43 404.68 468.01 658.88 578.63 379.19 431.71 192.99 133.04 483.17 772.85 347.48 665.35 681.76 288.62 452.33 666.00 274.08 622.46 449.41 310.11 648.99 551.77 627.69 585.78 682.13 572.86 564.30 789.29 246.37 591.62 257.81 588.49 610.57 598.28 295.73 187.27 650.00 171.44 935.58 562.59 150.48 175.51 708.62 657.51 186.41 724.25 575.40 502.59 595.07 536.95 526.28 219.05 674.11 687.31 222.03 598.40 686.28 344.75 213.86 430.43 279.80 344.53 599.39 570.81 616.33 737.55 270.16 166.96 807.15 683.94 730.35 665.84 521.48 1018.96 839.58 411.24 327.73 239.43 546.13 861.20 281.28 251.66 257.09 605.06 571.29 668.76 269.75 510.46 508.36 533.02 541.95 565.37 687.13 460.96 273.99 558.78 941.07 598.01 783.37 276.30 355.44 695.31 634.34 274.04 680.24 545.05 722.84 611.74 725.77 744.12 587.09 763.47 345.98 625.25 639.12 231.53 679.70 752.16 449.05 609.60 489.64 885.03 906.67 526.34 713.81 278.48 275.22 615.29 849.50 678.54 761.79 221.01 766.44 161.33 286.63 704.07 387.47 584.08 766.31 609.57 367.79 298.17 423.00 61.77 699.41 0.00 644.88 792.44 172.21 323.20 580.37 538.70 413.36 476.84 647.15 298.97 369.37 509.73 563.19 213.09 811.74
807.15 580.86 785.65 130.94 761.28 896.15 981.64 1141.17 584.82 1000.43 142.63 260.02 752.65 767.12 850.68 775.21 199.22 663.74 823.39 873.10 864.28 186.96 836.92 1235.66 727.73 1184.42 872.48 668.80 1082.09 191.54 650.60 975.08 37.03 66.25 954.57 941.95 775.77 756.41 1022.15 1276.16 912.59 1241.24 109.22 873.69 954.57 1198.68 840.40 44.27 326.64 892.89 1177.53 1058.81 1188.76 354.69 1225.61 1130.85 1067.74 1304.92 837.75 254.23 840.59 1094.14 1072.06 1124.15 748.41 740.14 1216.41 789.78 1482.17 1110.88 795.36 732.12 130.78 132.68 806.19 300.19 972.82 142.29 1147.09 1021.13 395.67 794.38 195.80 108.99 752.25 1133.13 216.62 696.36 589.02 1010.04 770.53 812.91 1005.12 1076.89 1055.27 169.21 829.02 764.44 230.76 146.45 1259.34 1109.98 257.74 1390.07 1384.66 977.65 907.20 792.30 300.29 1355.07 681.98 834.44 839.87 229.37 1081.32 1238.12 726.94 996.59 267.69 785.21 1124.73 1117.39 1191.38 933.99 808.72 1095.93 1485.88 1129.60 1244.86 836.57 753.28 226.23 177.47 849.93 130.08 1055.76 193.55 1104.52 322.95 1208.78 1093.92 171.14 693.72 255.81 1115.80 805.29 102.33 159.13 964.66 146.55 1051.85 360.46 999.18 1078.36 239.17 870.05 858.00 181.03 337.12 291.39 212.46 862.56 133.80 778.90 931.51 183.52 955.22 172.07 246.00 1015.30 919.87 794.55 960.58 706.65 150.08 644.88 0.00 223.51 754.99 760.50 1060.40 992.28 870.55 1050.06 240.74 858.37 986.09 1061.75 1031.57 788.00 299.83
938.46 720.82 793.15 298.17 849.31 948.92 980.47 1201.25 773.49 1062.51 278.92 371.40 719.04 804.47 871.64 865.59 310.71 746.77 909.70 959.76 903.49 364.94 854.49 1243.70 742.56 1168.73 918.65 712.93 1082.40 209.11 805.56 1040.76 260.54 260.84 1011.54 1000.65 914.54 836.48 1057.26 1286.97 989.63 1267.22 326.13 952.58 1049.19 1207.36 893.25 267.78 508.77 925.88 1186.36 1088.51 1220.19 498.58 1217.00 1083.27 1030.93 1298.44 881.21 419.73 979.36 1045.20 1059.47 1123.28 905.44 757.71 1257.97 859.09 1454.16 1090.97 900.21 815.14 207.66 327.27 857.78 442.39 928.62 336.88 1151.76 1097.75 550.63 846.71 353.66 169.07 853.66 1191.55 382.96 768.41 659.53 1053.39 812.04 916.02 1073.91 1126.11 1074.03 287.94 905.44 785.98 66.24 252.90 1287.04 1050.21 389.36 1498.83 1415.79 1042.05 965.50 809.87 457.95 1471.57 838.65 867.43 963.74 414.18 1112.34 1259.08 855.63 980.72 475.81 768.27 1185.27 1106.32 1232.49 1050.87 867.14 1017.37 1469.45 1146.00 1232.27 872.66 845.92 376.33 364.63 875.91 274.55 1070.10 304.93 1112.23 529.81 1218.26 1129.29 162.67 888.31 336.62 1095.83 822.86 325.84 260.13 1044.60 301.51 1086.96 201.67 1222.69 1049.81 350.55 904.98 971.15 385.14 119.45 459.43 323.84 882.49 289.63 820.13 997.65 294.90 977.28 327.03 437.45 1084.09 1017.40 883.31 1047.06 837.64 261.46 792.44 223.51 0.00 935.32 857.80 991.19 923.07 998.12 1083.31 372.09 894.52 1050.40 1066.42 1082.66 830.49 441.51
344.83 369.70 243.88 726.92 255.50 163.40 459.22 386.18 272.11 377.26 864.15 930.53 256.77 201.38 194.56 270.03 825.42 271.85 232.62 186.45 109.29 742.53 216.94 614.00 198.13 588.84 130.67 241.48 453.42 726.21 502.57 387.17 776.69 688.74 257.16 370.36 20.78 132.76 372.56 698.20 262.59 521.98 808.14 250.68 362.97 580.45 153.45 767.96 621.62 137.90 609.61 471.40 507.29 757.99 628.82 453.57 509.97 731.38 163.78 763.83 85.60 572.54 588.73 508.73 462.88 227.08 492.83 94.07 777.53 546.34 254.67 166.38 818.73 806.36 98.83 775.58 509.18 674.80 589.44 447.59 659.88 139.08 780.86 827.77 160.40 464.66 843.48 389.69 326.63 310.91 287.37 284.49 533.90 491.44 567.04 872.40 196.07 196.93 919.92 856.15 702.57 617.86 626.11 944.50 682.41 254.07 246.89 180.98 690.42 740.57 353.48 79.45 84.88 777.27 484.53 503.57 289.84 498.76 680.57 553.11 369.74 563.77 620.46 383.55 182.88 493.75 894.33 489.42 742.48 233.75 362.99 810.02 766.03 136.11 852.45 449.37 829.59 535.48 897.98 655.08 515.56 903.93 424.57 598.70 618.37 235.29 820.35 881.58 360.01 781.81 396.65 904.87 859.44 521.25 886.02 134.90 103.01 739.33 959.61 833.82 882.97 107.57 888.79 181.17 194.17 835.76 222.90 756.29 847.68 540.14 232.50 260.22 373.71 180.98 820.59 172.21 754.99 935.32 0.00 373.66 511.80 516.62 403.01 383.23 771.59 223.13 264.88 533.33 494.52 110.20 897.51
110.95 536.69 228.28 756.83 214.91 363.17 344.91 599.56 379.14 387.68 779.71 839.91 271.45 230.96 254.45 251.41 708.65 364.38 261.09 386.22 346.36 702.34 276.83 645.16 288.96 585.96 365.25 345.07 435.30 648.69 716.94 368.19 763.32 694.25 420.51 295.51 391.05 340.07 408.39 682.36 372.44 721.03 709.57 346.63 344.52 617.84 325.49 773.47 772.61 399.79 549.32 477.97 566.91 741.19 609.13 503.56 429.92 660.49 353.20 747.97 455.87 424.24 402.16 558.08 618.93 234.66 611.92 334.42 875.28 505.98 473.68 262.11 808.72 723.63 328.92 849.79 385.58 704.71 566.77 429.14 654.44 296.38 727.15 770.13 259.06 592.05 789.77 89.39 430.86 436.20 208.27 321.59 411.32 499.80 455.51 793.06 309.57 204.51 876.40 743.81 665.54 449.20 542.61 843.65 778.14 450.06 360.95 192.68 700.94 844.06 153.40 343.16 439.47 795.86 474.14 641.89 242.37 305.37 826.14 324.76 601.46 523.41 597.58 353.15 315.53 495.95 881.76 522.71 574.96 282.19 95.85 757.58 678.84 329.72 709.08 443.22 740.27 506.04 965.17 512.11 500.12 846.29 66.78 594.67 472.42 262.06 719.19 797.10 411.97 740.13 438.09 807.49 583.47 464.82 822.02 362.42 420.66 723.64 870.03 841.11 792.35 456.51 828.47 238.66 535.54 748.57 386.25 714.61 884.43 421.50 414.49 232.07 315.19 338.07 751.93 323.20 760.50 857.80 373.66 0.00 390.18 322.06 179.33 489.08 753.77 283.02 386.99 481.43 424.39 301.63 876.85
408.26 698.50 397.25 997.22 357.38 407.31 125.52 429.41 568.92 265.34 1108.06 1161.24 458.89 439.86 317.24 313.96 1057.00 537.02 279.18 406.83 473.71 1023.88 339.62 396.50 472.83 311.46 488.01 503.18 278.04 878.34 856.82 182.21 1036.26 1003.63 464.67 229.25 532.58 494.27 262.01 405.42 374.48 651.13 1031.62 340.78 212.05 332.02 429.19 1053.96 957.03 521.57 265.38 186.10 350.62 1019.77 347.96 283.51 163.85 405.37 401.48 1036.89 594.54 190.25 204.52 338.67 830.45 421.84 446.99 503.83 614.64 255.69 658.18 431.52 1059.05 1057.61 481.28 1049.89 97.06 1021.35 261.09 194.49 946.41 425.35 1045.62 1085.62 376.59 450.43 1050.56 465.07 653.84 397.60 385.88 336.03 143.87 316.35 192.37 1126.58 372.36 444.46 1057.43 1117.29 362.92 110.64 891.25 590.07 615.48 419.49 322.49 373.86 928.90 627.77 461.72 493.60 547.10 995.96 248.87 483.30 354.46 98.69 964.37 439.56 484.20 273.12 330.13 223.30 406.73 257.24 624.63 336.73 377.32 338.26 387.56 1015.19 1028.80 429.15 1095.74 218.15 1059.70 225.78 1182.07 264.08 232.67 1134.26 455.48 817.48 233.61 369.38 1043.83 1116.53 278.37 1009.70 282.23 1000.28 447.14 257.66 1098.01 484.45 562.35 1013.58 1082.50 1041.21 1113.68 617.06 1127.58 419.04 637.28 1083.60 430.41 991.86 1115.97 154.05 440.73 294.62 213.45 530.69 1064.50 580.37 1060.40 991.19 511.80 390.18 0.00 68.12 210.85 305.72 953.87 345.81 411.38 255.27 225.84 474.80 1155.26
342.63 719.15 362.39 929.10 320.68 388.26 57.40 451.60 550.46 240.29 1091.15 1157.16 431.97 420.77 351.18 334.61 1030.71 500.32 333.69 383.76 436.20 1004.86 328.99 386.23 404.71 301.02 455.91 466.48 264.44 931.74 825.52 213.86 976.25 1016.31 442.29 188.21 531.62 497.93 284.97 421.88 331.52 651.83 1013.74 272.66 184.02 339.01 392.47 1012.67 901.08 484.85 275.62 215.53 416.39 1030.95 325.50 279.47 107.86 375.37 370.18 1017.96 573.34 122.13 136.40 319.48 825.12 383.14 429.10 467.76 604.20 221.46 647.84 395.45 1078.33 989.49 469.52 1118.01 165.18 981.22 297.47 174.68 909.71 432.93 1007.58 1083.90 394.10 396.10 1070.20 411.45 617.14 357.07 329.93 267.91 150.84 262.06 150.96 1108.70 352.52 411.66 989.31 1058.33 399.25 127.14 864.67 577.89 612.66 378.96 303.44 399.85 909.81 672.90 467.80 462.30 517.57 1026.23 209.34 523.02 286.34 57.65 941.89 374.99 457.24 233.99 337.10 204.60 399.06 213.57 579.65 342.20 309.20 347.16 404.32 1038.01 981.36 387.23 1031.14 209.33 1056.31 201.49 1146.00 295.19 216.55 1085.74 388.84 877.23 172.76 336.58 1019.84 1097.71 237.84 941.58 255.27 1027.05 463.64 238.47 1102.87 442.53 563.91 1025.21 1037.59 1099.71 1109.60 568.93 1094.78 441.59 609.41 1051.09 466.63 923.74 1146.87 161.02 421.68 353.95 206.81 514.78 1073.99 538.70 992.28 923.07 516.62 322.06 68.12 0.00 142.73 320.89 1021.99 322.61 382.13 231.73 159.59 469.03 1178.08
199.90 576.42 219.66 786.37 177.95 305.45 165.58 436.06 407.73 208.35 948.42 1019.24 289.24 287.17 208.45 191.88 887.98 357.59 240.06 328.50 324.67 872.07 219.91 502.99 355.01 406.63 365.00 323.75 318.57 789.01 755.57 188.86 833.52 873.58 401.00 182.27 420.72 386.52 268.66 548.35 292.05 659.81 871.01 243.49 165.19 438.51 303.63 869.94 758.35 390.86 412.99 298.64 387.58 888.22 448.83 363.90 250.59 518.10 300.23 900.56 470.60 264.86 279.13 394.22 703.75 240.41 462.71 372.47 695.95 326.65 543.85 322.17 935.60 846.76 366.24 1015.84 206.25 838.49 387.44 249.81 766.98 294.37 906.48 941.17 253.85 478.81 961.10 268.72 474.41 306.34 187.20 222.21 293.10 363.18 293.69 965.97 231.79 270.56 1016.72 915.60 505.85 269.87 721.94 720.62 599.39 363.18 257.81 257.12 776.21 664.73 325.07 353.37 437.48 914.00 334.01 518.92 143.61 126.04 817.30 233.03 490.85 344.08 470.39 173.82 271.95 317.93 705.13 343.38 451.93 231.77 275.18 936.91 858.17 291.75 888.41 266.38 919.60 338.86 1072.72 437.92 359.28 1017.33 246.11 737.73 315.49 236.39 877.11 954.98 232.64 798.85 288.88 891.06 509.26 285.49 981.77 347.05 456.21 882.48 973.28 987.48 971.68 510.58 994.59 304.71 520.57 919.23 412.99 824.37 1004.14 303.28 376.05 211.22 135.86 372.05 931.26 413.36 870.55 998.12 403.01 179.33 210.85 142.73 0.00 314.40 933.10 179.88 367.40 302.10 302.32 352.06 1056.18
422.71 613.54 313.44 965.88 337.69 247.36 310.74 287.34 509.70 151.99 1071.36 1150.28 387.55 336.33 252.68 274.85 1067.66 469.68 272.57 233.71 327.67 997.56 231.66 280.99 414.63 296.97 301.40 449.24 161.64 874.20 736.53 135.40 1013.03 999.49 230.23 224.95 395.41 418.13 80.69 455.94 244.59 345.41 1024.19 226.43 161.16 311.91 303.08 1049.45 892.05 317.96 291.67 265.40 224.85 1003.22 339.69 220.62 294.54 511.51 281.19 1021.90 387.68 315.98 338.06 194.21 666.22 325.60 239.45 400.75 469.52 270.63 554.65 362.29 1058.62 1031.31 330.47 1102.98 402.78 952.12 297.57 227.72 879.07 332.90 1023.10 1040.27 303.53 231.98 1085.72 497.81 596.32 112.40 343.75 316.17 290.93 199.57 320.40 1062.30 226.76 349.66 1071.71 1013.05 413.44 416.36 816.83 683.34 450.44 129.16 187.32 303.00 825.37 502.00 465.19 303.78 380.86 1003.99 292.00 333.37 323.12 304.89 947.13 547.43 267.59 288.06 352.97 140.58 284.33 201.88 571.80 150.72 475.73 213.49 431.41 1053.53 1008.78 286.72 978.32 227.78 1071.83 314.87 1103.80 440.36 288.20 1116.43 515.89 862.51 366.61 307.32 1036.40 1067.22 179.74 1004.87 65.62 1039.21 675.91 229.47 1123.61 302.06 362.32 964.28 1114.59 1067.85 1137.02 482.49 1065.52 315.51 411.60 1071.83 230.38 1030.39 1147.14 301.11 212.10 294.19 178.54 443.44 1088.86 476.84 1050.06 1083.31 383.23 489.08 305.72 320.89 314.40 0.00 1023.99 265.25 145.88 246.08 266.49 357.76 1193.60
822.01 486.10 766.45 224.28 780.83 824.52 1034.91 1109.59 631.03 965.13 154.19 207.37 737.91 726.51 813.51 838.09 136.31 668.87 849.62 847.57 787.28 95.16 792.33 1232.38 707.81 1149.18 817.20 635.03 1064.90 365.26 524.68 999.04 203.76 239.97 868.16 962.74 768.20 638.83 1015.36 1284.02 878.51 1191.93 145.73 819.65 991.75 1182.27 810.85 196.47 197.74 824.43 1165.77 1085.16 1139.14 149.86 1203.04 1120.68 1109.72 1318.44 802.52 83.02 826.28 1125.74 1147.82 1143.70 561.13 730.21 1179.36 677.52 1452.36 1064.72 778.88 741.31 302.89 113.33 703.94 96.02 1050.93 206.68 1168.80 1076.37 319.35 781.12 91.75 290.29 771.50 1120.67 96.69 741.60 643.66 959.66 768.89 898.45 1082.69 1120.65 1132.84 211.27 837.69 700.06 412.06 212.50 1276.79 1049.77 345.00 1531.72 1368.94 940.60 858.76 782.37 281.24 1397.97 696.84 765.98 762.14 42.09 1103.48 1190.10 812.48 1052.56 170.63 917.59 1047.00 1082.15 1212.94 1006.05 818.09 1106.27 1443.20 1150.54 1320.62 810.50 771.00 61.32 74.93 800.62 201.70 1087.16 105.83 1162.55 259.01 1217.95 1134.51 327.92 788.52 301.56 1176.37 775.14 143.68 162.66 982.44 143.34 1022.74 526.53 1151.38 1105.88 144.14 784.27 808.48 59.71 491.54 87.34 159.81 764.06 244.81 734.21 851.22 129.73 833.90 128.61 162.10 1092.87 904.17 843.59 1009.00 667.47 110.63 647.15 240.74 372.09 771.59 753.77 953.87 1021.99 933.10 1023.99 0.00 832.36 918.40 1117.58 1117.11 731.23 201.39
216.77 464.89 143.68 774.19 146.00 147.63 278.87 373.68 329.94 194.19 909.76 972.41 217.79 158.46 28.57 83.16 876.03 262.04 66.63 149.85 152.14 808.10 40.03 400.02 223.87 437.28 185.12 265.62 307.76 685.41 575.69 218.21 821.34 810.70 222.04 147.23 243.91 237.73 221.00 576.16 112.17 498.08 846.32 63.61 222.97 458.73 128.23 857.76 713.16 210.98 413.39 252.80 393.55 807.22 462.83 349.74 343.98 591.38 120.35 845.85 298.07 427.45 422.23 372.59 559.24 142.50 385.57 216.73 705.30 374.83 406.00 159.77 866.93 839.68 222.18 885.79 343.19 749.60 398.38 307.59 671.43 129.78 831.47 878.67 128.68 398.54 894.09 298.88 408.70 210.32 161.09 74.80 330.05 316.81 380.20 900.70 51.91 163.74 913.12 851.45 533.66 449.75 670.44 778.51 590.75 193.47 77.93 90.34 647.50 657.11 276.61 198.80 261.57 841.17 318.54 416.01 131.43 277.79 730.89 412.91 394.11 377.61 465.54 231.60 109.48 323.94 736.34 371.47 542.51 51.89 221.37 854.93 817.45 111.87 816.72 294.94 880.20 382.81 910.32 445.15 349.57 954.83 349.80 681.74 440.73 163.66 858.53 906.38 150.08 827.00 211.74 864.95 649.75 334.31 939.34 167.17 276.33 772.65 947.17 827.55 945.69 330.70 921.86 166.86 345.17 887.18 233.11 831.09 944.02 340.23 196.17 102.50 193.64 265.57 910.99 298.97 858.37 894.52 223.13 283.02 345.81 322.61 179.88 265.25 832.36 0.00 200.54 321.97 293.46 199.29 994.67
366.08 558.36 316.60 912.64 308.27 101.48 350.84 236.00 412.81 214.51 974.01 1070.03 333.85 296.75 217.94 245.43 962.07 395.11 252.18 124.53 189.43 894.14 240.32 411.08 315.74 419.76 187.01 399.09 273.08 841.29 624.53 262.89 968.97 940.69 84.35 291.88 285.66 287.17 203.48 546.96 117.68 432.40 957.77 161.72 242.37 394.72 187.93 941.82 804.58 191.13 433.71 314.00 341.01 913.47 476.99 329.41 393.81 604.68 169.19 889.10 263.40 459.91 442.55 324.31 539.39 292.69 301.83 270.72 615.40 350.96 474.85 274.82 974.28 925.72 269.53 1014.42 507.78 864.65 411.75 326.99 804.50 221.20 917.51 1012.87 251.68 265.35 980.13 437.18 518.08 61.06 337.29 217.36 391.25 322.36 395.88 1032.22 222.47 297.64 1069.00 1019.05 521.96 509.27 785.73 758.82 491.41 63.07 122.61 271.97 758.95 618.16 451.23 216.71 234.98 931.30 361.18 395.75 293.70 390.23 852.92 534.19 263.71 366.31 443.30 254.76 195.21 277.36 708.45 287.37 597.02 240.17 401.99 947.94 896.78 176.98 1005.00 293.57 966.24 390.45 1008.05 465.47 330.15 1086.73 453.77 764.55 432.96 315.24 956.07 955.22 170.40 938.45 202.95 1002.62 790.09 309.80 1026.72 204.85 216.44 858.69 1020.61 980.38 1025.02 355.66 1067.63 278.92 291.37 966.51 84.50 946.14 1024.33 401.43 66.22 264.77 260.47 307.60 997.62 369.37 986.09 1050.40 264.88 386.99 411.38 382.13 367.40 145.88 918.40 200.54 0.00 326.41 359.02 242.24 1072.85
444.87 725.51 408.60 977.57 369.15 379.40 245.08 358.38 595.93 193.97 1165.11 1214.15 480.44 452.86 350.54 340.97 1146.16 548.79 314.62 356.35 424.83 1063.27 362.00 220.75 494.25 122.67 453.41 514.95 84.44 955.75 829.42 158.80 1024.72 1057.90 363.24 234.71 512.55 529.65 170.24 263.12 321.04 526.58 1114.77 338.19 181.38 156.27 401.79 1061.14 949.55 473.74 139.26 69.17 229.35 1055.21 172.40 114.95 139.71 279.56 374.08 1066.32 559.34 205.57 197.24 123.02 805.46 440.31 263.34 526.97 425.85 52.86 660.21 470.75 1094.71 1109.48 477.81 1193.68 262.57 995.68 85.34 96.76 958.18 436.83 1101.60 1096.46 396.98 301.58 1152.25 532.46 649.70 296.46 378.40 248.84 130.40 61.08 143.89 1160.41 343.19 450.24 1132.66 1106.80 220.62 297.41 846.11 509.23 432.66 323.04 299.08 401.32 941.90 494.55 503.79 466.20 519.19 1105.20 77.81 331.82 334.81 258.27 1008.50 535.13 356.24 55.64 177.40 169.86 379.26 49.05 431.34 173.86 331.85 373.70 497.53 1102.92 1086.77 401.75 1131.51 101.78 1150.33 102.01 1198.73 256.48 77.36 1172.62 525.65 928.93 178.63 375.16 1102.56 1160.11 238.08 1061.57 180.46 1015.13 541.06 16.61 1203.76 450.44 512.17 1090.59 1097.35 1149.52 1201.41 565.18 1133.36 432.04 603.02 1156.50 397.50 1050.21 1241.01 122.23 387.68 338.36 188.30 557.24 1166.75 509.73 1061.75 1066.42 533.33 481.43 255.27 231.73 302.10 246.08 1117.58 321.97 326.41 0.00 72.14 460.71 1242.99
434.58 695.33 378.42 947.39 338.97 331.12 172.94 353.07 565.75 197.59 1134.93 1183.97 450.26 422.68 322.03 310.79 1115.98 518.61 284.44 354.17 394.55 1033.09 333.49 277.49 422.14 194.81 416.65 484.77 104.85 925.57 818.90 171.16 994.54 1031.88 395.85 217.06 482.37 499.47 202.85 283.93 295.02 584.44 1084.59 331.08 141.32 213.01 389.24 1030.96 919.37 451.19 145.96 55.94 284.48 1025.03 194.04 147.56 67.57 311.48 363.56 1061.58 540.48 171.07 167.99 179.68 799.45 410.13 322.26 500.36 497.99 111.56 641.00 445.08 1054.65 1071.24 447.63 1163.50 231.29 982.19 157.48 56.70 928.00 415.56 1071.42 1085.72 366.80 300.70 1122.07 502.28 619.52 316.87 348.22 218.66 81.97 102.47 132.12 1130.23 329.17 420.06 1148.90 1076.62 241.43 285.64 820.09 530.04 453.07 343.45 311.44 383.80 911.72 513.67 488.41 441.99 470.91 1075.02 49.75 388.48 304.63 197.80 959.32 490.53 402.84 127.78 196.75 143.84 386.74 81.66 470.82 210.29 319.19 343.52 467.35 1072.74 1056.59 389.13 1101.33 95.40 1120.15 89.35 1195.63 217.20 80.78 1161.88 491.17 898.75 166.50 344.98 1072.38 1144.84 224.31 1031.39 200.87 1048.28 506.65 78.88 1179.66 420.16 498.94 1060.41 1095.78 1121.01 1171.23 546.33 1103.18 401.86 590.06 1126.32 383.19 1056.91 1216.73 71.79 374.96 308.18 170.65 527.06 1136.57 563.19 1031.57 1082.66 494.52 424.39 225.84 159.59 302.32 266.49 1117.11 293.46 359.02 72.14 0.00 434.69 1212.81
272.80 414.84 168.11 715.53 192.85 140.76 411.63 430.19 203.18 354.62 835.12 882.86 169.74 108.58 170.72 207.53 774.90 238.51 195.62 163.81 81.85 706.97 186.16 599.31 87.93 552.20 119.75 219.91 403.02 701.89 415.31 331.94 778.63 739.45 213.47 343.24 89.42 106.12 349.92 675.56 258.36 480.68 781.11 200.15 311.43 555.54 106.71 743.73 662.50 106.72 568.79 415.67 479.85 757.83 604.98 471.28 444.81 661.78 113.38 744.72 154.24 524.40 537.19 509.50 442.30 155.34 485.35 89.12 824.79 467.74 323.90 73.58 850.15 738.55 27.29 827.25 485.34 663.41 546.05 377.99 588.34 120.57 730.34 823.55 98.21 418.45 792.96 327.50 317.14 299.27 212.60 246.35 441.20 467.52 491.35 830.42 149.33 135.03 896.73 776.81 676.12 546.32 557.92 920.66 683.29 254.95 207.25 108.95 597.62 693.83 292.67 136.94 165.04 744.13 460.69 558.16 227.19 451.17 625.11 490.46 358.93 485.17 607.69 290.85 116.09 452.79 846.22 466.78 669.10 188.23 290.96 760.77 716.32 89.37 811.54 412.62 779.07 504.22 824.13 618.43 487.99 892.23 368.41 616.16 551.88 173.10 768.90 835.90 332.57 755.15 379.62 844.06 821.30 444.10 817.09 82.05 197.27 671.52 906.59 779.14 844.56 176.80 865.83 120.36 254.48 786.05 214.63 744.90 842.73 451.38 205.06 188.19 323.31 151.32 810.45 213.09 788.00 830.49 110.20 301.63 474.80 469.03 352.06 357.76 731.23 199.29 242.24 460.71 434.69 0.00 896.56
957.51 650.69 936.06 343.12 901.68 976.68 1190.72 1222.61 712.82 1128.43 201.14 198.60 875.37 865.67 966.43 964.52 168.20 780.18 928.37 978.06 917.20 207.56 961.94 1370.83 887.86 1350.57 972.25 755.88 1210.40 438.45 643.83 1143.87 328.80 313.16 1022.61 1123.19 876.73 840.22 1164.17 1415.68 1066.74 1320.95 244.72 1007.88 1118.74 1383.66 940.77 292.38 362.33 995.45 1358.77 1183.64 1293.59 260.40 1384.92 1278.66 1230.57 1482.33 930.82 228.52 941.55 1229.09 1251.17 1227.37 731.81 899.82 1320.70 807.44 1610.49 1266.11 865.94 872.68 368.95 216.68 873.55 121.93 1200.39 350.56 1328.33 1203.36 370.79 868.07 170.50 351.10 910.23 1259.83 125.46 787.46 675.57 1114.11 933.48 994.15 1240.79 1274.90 1290.94 241.35 974.21 869.67 394.13 248.42 1373.18 1193.65 510.65 1610.47 1479.66 1082.61 1024.69 931.16 376.63 1527.89 860.11 946.80 931.75 230.32 1256.40 1353.87 936.02 1176.65 358.86 948.34 1198.98 1283.54 1381.72 1139.32 935.42 1235.09 1597.61 1176.53 1423.97 980.11 864.97 140.07 218.81 929.64 245.62 1182.36 136.58 1302.16 186.86 1356.17 1287.43 362.71 881.82 413.96 1279.72 897.80 236.20 193.41 1144.75 259.12 1192.35 573.48 1247.29 1259.60 98.91 942.81 978.09 229.32 505.55 167.12 160.79 956.41 276.76 886.49 1001.79 152.11 988.35 269.93 53.83 1230.61 1040.41 964.44 1125.18 837.08 180.05 811.74 299.83 441.51 897.51 876.85 1155.26 1178.08 1056.18 1193.60 201.39 994.67 1072.85 1242.99 1212.81 896.56 0.00
DEMAND_SECTION
1 0
2 92
3 87
4 71
5 100
6 60
7 99
8 56
9 58
10 68
11 67
12 64
13 95
14 83
15 56
16 82
17 56
18 69
19 83
20 99
21 62
22 93
23 56
24 95
25 71
26 96
27 72
28 53
29 85
30 68
31 51
32 59
33 55
34 70
35 70
36 73
37 64
38 56
39 76
40 81
41 62
42 61
43 50
44 82
45 59
46 89
47 62
48 52
49 96
50 58
51 67
52 77
53 78
54 89
55 88
56 63
57 88
58 56
59 96
60 60
61 76
62 89
63 57
64 54
65 69
66 51
67 85
68 67
69 69
70 88
71 93
72 72
73 59
74 93
75 91
76 90
77 84
78 92
79 59
80 51
81 73
82 80
83 51
84 74
85 50
86 80
87 82
88 76
89 54
90 81
91 79
92 88
93 93
94 57
95 90
96 89
97 54
98 63
99 69
100 64
101 90
102 54
103 53
104 84
105 61
106 88
107 99
108 75
109 71
110 76
111 65
112 50
113 53
114 84
115 81
116 93
117 75
118 63
119 89
120 93
121 61
122 96
123 53
124 92
125 71
126 77
127 62
128 91
129 76
130 91
131 68
132 54
133 75
134 56
135 91
136 91
137 90
138 86
139 78
140 54
141 100
142 74
143 98
144 100
145 70
146 87
147 61
148 57
149 62
150 70
151 56
152 96
153 84
154 83
155 92
156 91
157 81
158 90
159 69
160 50
161 92
162 70
163 72
164 86
165 59
166 52
167 69
168 61
169 78
170 93
171 78
172 55
173 69
174 90
175 72
176 75
177 75
178 73
179 63
180 76
181 70
182 68
183 54
184 72
185 51
186 51
187 95
188 57
189 57
190 98
191 64
DEPOT_SECTION
1
-1
EOF
