NAME: LDG100_1353_snow_100_0194
COMMENT: CVRP with travel times.  rootPos=1,custPos=3,demandType=5,avgRouteSizeIndex=3,weather=snow,lambda_cluster=1,lambda_random=4, T1=300,T2=700,beta=1, alpha(i,j) ~ U(0.8,1.2)
TYPE: CVRP
DIMENSION: 101
EDGE_WEIGHT_TYPE: EXPLICIT
EDGE_WEIGHT_FORMAT: FULL_MATRIX
CAPACITY: 746
NODE_COORD_SECTION
1 240 584
2 847 499
3 312 690
4 372 481
5 799 255
6 798 483
7 342 843
8 186 920
9 710 536
10 887 653
11 679 547
12 823 787
13 417 845
14 377 963
15 719 528
16 578 799
17 751 981
18 771 756
19 615 255
20 228 365
21 589 544
22 472 148
23 695 476
24 954 915
25 590 823
26 742 685
27 928 704
28 654 478
29 836 797
30 644 619
31 857 568
32 429 599
33 790 463
34 778 550
35 979 845
36 76 946
37 650 687
38 240 996
39 574 599
40 738 495
41 795 427
42 759 657
43 570 640
44 5 19
45 44 606
46 255 474
47 740 648
48 508 667
49 478 503
50 593 638
51 848 608
52 495 660
53 441 794
54 949 580
55 958 789
56 750 613
57 634 619
58 756 643
59 970 939
60 408 715
61 841 700
62 654 502
63 798 458
64 713 939
65 671 524
66 841 103
67 498 873
68 912 767
69 46 310
70 587 584
71 593 518
72 462 753
73 767 717
74 760 435
75 666 665
76 913 390
77 787 610
78 854 662
79 822 653
80 501 881
81 606 691
82 340 522
83 140 288
84 584 693
85 108 279
86 450 223
87 493 798
88 629 585
89 837 672
90 988 853
91 567 874
92 937 336
93 450 937
94 701 490
95 304 252
96 361 979
97 617 576
98 682 576
99 548 621
100 865 749
101 177 920
EDGE_WEIGHT_SECTION
0.00 809.34 211.41 338.31 964.03 770.25 353.11 570.95 640.23 894.76 594.62 887.11 525.94 599.12 617.58 619.49 896.04 807.80 772.87 415.86 445.60 753.55 612.24 1102.52 638.69 773.97 958.35 582.57 889.95 612.36 856.53 394.03 745.76 748.42 1122.71 749.31 655.96 617.19 569.92 637.82 765.26 735.84 536.87 943.80 360.72 173.69 695.33 464.62 497.38 556.97 827.96 439.54 412.46 943.33 1050.85 704.63 594.63 707.89 1152.24 354.11 866.34 592.24 748.19 890.78 582.10 1128.82 591.16 982.39 577.13 545.96 493.01 491.10 767.11 754.07 664.31 929.25 789.69 846.25 792.72 614.76 616.60 193.25 570.39 635.57 521.12 859.09 513.81 555.71 832.47 1115.77 559.87 985.91 662.19 645.68 528.82 602.73 541.72 558.12 492.21 957.36 550.15
809.34 0.00 724.28 613.54 332.73 100.44 858.24 1047.37 247.96 255.86 301.06 477.50 725.51 885.37 213.25 634.39 737.75 419.61 576.63 868.76 363.74 757.86 259.44 681.06 652.83 311.53 345.27 318.88 453.28 379.99 155.17 602.07 140.90 179.19 572.90 1124.58 407.10 1122.32 373.11 171.52 181.04 246.63 441.09 1338.39 1038.14 812.42 281.93 462.90 488.73 416.30 231.97 487.98 742.37 372.07 481.80 273.45 399.76 274.58 661.94 633.27 322.45 278.45 125.23 680.36 270.82 544.92 725.28 418.80 1141.45 409.89 411.15 644.80 363.11 185.71 414.30 188.87 281.33 253.41 287.71 741.98 500.97 695.21 1112.39 479.55 1149.20 754.40 660.20 331.08 296.06 597.18 632.98 286.51 774.55 222.80 857.62 920.91 362.96 287.95 468.17 378.96 1026.57
211.41 724.28 0.00 319.25 1001.24 751.08 263.49 419.48 640.71 778.21 593.63 747.98 360.41 475.89 669.12 442.28 684.63 743.25 799.25 574.47 526.61 734.49 682.10 1000.66 490.65 586.36 857.81 612.78 779.10 515.40 803.45 363.46 790.76 723.35 977.14 597.84 452.72 527.57 453.71 698.99 830.14 598.97 450.28 1082.20 434.17 382.74 577.89 261.38 408.33 417.84 751.46 286.46 273.80 923.95 945.93 639.33 495.63 607.35 985.50 163.09 731.90 618.61 794.93 728.76 600.02 1172.79 406.71 877.05 786.18 426.25 543.45 319.63 665.25 799.00 515.80 906.20 671.91 729.70 699.77 430.31 415.48 223.09 750.22 456.16 700.95 807.74 307.31 503.06 718.74 983.51 465.67 1003.84 548.24 660.84 735.11 513.11 493.47 564.42 391.56 840.25 440.28
338.31 613.54 319.25 0.00 732.51 590.42 582.74 738.73 524.98 738.32 499.06 782.68 566.57 747.68 519.86 600.75 880.78 758.27 480.00 255.22 424.75 415.24 491.83 1035.65 595.40 649.84 841.47 437.73 813.80 506.86 688.22 322.90 549.96 591.51 979.55 742.93 516.20 846.82 455.95 442.02 608.20 634.21 422.81 762.95 602.76 232.60 576.80 346.24 210.33 452.54 620.34 321.16 453.09 747.53 936.79 611.02 504.32 606.26 1048.98 482.34 747.81 420.61 552.39 887.23 449.43 908.25 643.61 849.84 536.49 419.17 402.53 480.77 700.24 558.27 550.25 733.45 666.43 747.70 698.68 639.77 486.51 145.06 521.08 445.83 535.66 561.17 554.44 435.08 742.03 1003.83 683.64 831.09 664.32 476.26 415.86 792.90 466.96 491.25 433.97 845.70 759.53
964.03 332.73 1001.24 732.51 0.00 371.34 1032.92 1252.66 381.16 588.59 434.26 726.70 971.02 1130.39 346.45 770.91 989.73 645.21 401.39 896.37 518.43 689.49 470.98 951.96 827.84 588.58 678.00 505.66 718.69 555.31 487.90 747.34 330.88 449.24 905.63 1309.66 581.00 1297.00 584.36 424.29 342.60 537.60 617.85 1218.47 1218.93 965.11 522.34 739.86 701.43 614.78 556.83 746.16 917.05 642.97 814.53 460.90 575.08 514.51 983.55 894.11 624.26 491.15 351.08 962.82 452.15 245.85 900.60 739.32 1177.64 574.99 547.65 819.48 645.57 413.43 589.62 330.84 532.59 586.14 610.30 924.20 674.87 855.84 1141.35 654.87 1092.08 646.54 834.10 539.65 561.47 929.91 844.88 344.40 1037.67 434.34 925.73 1101.08 507.77 463.27 668.63 686.23 1246.58
770.25 100.44 751.08 590.42 371.34 0.00 772.86 1040.48 180.90 328.31 234.00 437.68 749.64 918.65 207.75 570.65 701.84 415.92 479.32 845.64 324.65 777.49 191.79 580.62 606.46 300.69 437.94 218.44 453.94 348.02 255.61 508.12 40.46 103.49 574.44 1138.53 359.62 1036.94 361.61 148.40 99.66 249.71 390.95 1289.22 987.08 711.98 234.45 489.70 388.29 414.40 215.23 514.78 686.98 271.63 523.90 173.01 362.39 226.62 630.34 624.28 300.63 178.01 43.85 655.77 225.41 573.77 700.34 416.19 1041.01 324.83 356.40 655.84 357.68 88.40 362.89 224.91 211.37 302.72 247.89 723.94 433.29 623.43 1045.33 449.45 1059.41 653.96 612.72 329.18 296.72 598.72 622.14 295.32 822.39 190.07 760.31 873.43 336.46 263.01 428.32 343.57 1019.68
353.11 858.24 263.49 582.74 1032.92 772.86 0.00 277.81 656.67 841.62 667.66 711.40 187.69 246.01 686.47 424.83 645.89 667.73 1012.90 768.97 575.90 997.98 713.52 830.03 386.51 653.41 850.49 696.60 742.52 522.71 734.41 458.04 813.32 698.42 934.48 456.17 541.80 264.08 540.30 731.61 871.33 676.55 528.50 1296.91 697.66 526.80 661.29 398.13 589.88 504.43 805.43 373.05 235.79 960.62 896.32 599.85 506.89 653.46 879.75 257.55 815.43 686.85 816.71 624.90 639.45 1184.19 238.05 840.47 930.24 553.18 548.91 213.44 686.78 847.86 604.88 997.77 708.58 793.11 769.47 261.65 534.97 486.58 923.50 496.09 874.23 902.20 288.70 535.68 768.39 910.20 331.96 1059.38 309.08 698.93 881.93 249.62 567.56 614.75 485.86 827.02 268.31
570.95 1047.37 419.48 738.73 1252.66 1040.48 277.81 0.00 886.22 982.19 888.45 952.76 339.84 378.53 906.21 603.56 863.06 887.47 1083.85 925.56 782.31 1153.97 933.26 1103.90 627.87 840.68 1081.36 916.34 983.88 742.45 1007.43 616.95 1065.31 959.37 1105.35 178.36 707.04 254.46 717.51 965.98 1042.88 802.95 649.53 1270.05 626.51 744.64 807.67 602.45 752.25 684.83 962.49 592.79 453.32 1141.64 1014.25 869.11 726.63 830.90 1054.18 524.71 974.41 921.22 1072.21 844.53 873.82 1345.65 479.41 1050.57 831.93 754.29 768.65 433.18 919.43 972.05 770.12 1236.24 912.26 933.68 929.55 481.28 700.21 642.57 951.90 661.33 902.63 1123.06 453.94 770.05 975.27 1129.63 573.32 1328.64 392.91 918.67 1099.77 333.31 787.73 834.49 705.60 1005.98 20.80
640.23 247.96 640.71 524.98 381.16 180.90 656.67 886.22 0.00 328.09 53.10 395.79 601.71 749.23 34.71 389.75 658.49 362.57 471.34 756.88 202.12 791.22 154.71 626.51 480.53 251.93 401.14 124.50 426.91 174.15 273.66 366.18 197.33 117.55 604.30 997.92 269.26 920.75 257.06 89.39 219.57 189.59 236.69 1143.12 886.38 643.96 191.10 385.15 320.27 264.54 245.09 380.92 556.74 394.90 530.34 149.16 193.92 161.64 676.23 512.95 351.28 109.99 185.99 608.35 75.55 627.01 519.44 447.11 947.07 220.28 223.46 483.42 291.10 205.64 208.46 367.05 171.46 279.58 256.17 543.04 301.32 543.45 864.43 273.71 913.70 651.17 476.49 179.32 288.49 625.16 509.57 464.69 656.51 118.88 791.90 719.92 182.65 82.11 303.43 374.49 865.42
894.76 255.86 778.21 738.32 588.59 328.31 841.62 982.19 328.09 0.00 373.45 240.52 717.40 818.93 332.63 557.98 512.79 241.40 681.33 924.63 451.94 902.93 418.25 455.80 574.22 244.14 144.42 452.59 209.40 371.71 149.62 655.43 368.77 295.71 353.67 1160.04 327.38 1035.73 463.96 343.81 371.53 179.24 432.01 1444.75 1077.21 893.93 202.21 518.72 634.03 406.05 122.25 523.44 681.83 174.00 279.50 241.77 363.18 202.82 406.08 717.21 137.46 424.58 349.51 434.68 377.18 774.99 636.39 162.94 1201.32 433.57 478.58 636.40 205.26 416.71 337.59 418.94 195.22 48.51 103.34 651.48 421.25 734.28 1184.78 418.16 1205.07 913.67 580.48 370.15 91.16 377.95 542.48 512.47 774.71 393.31 983.19 793.70 402.03 336.64 458.95 155.56 1002.99
594.62 301.06 593.63 499.06 434.26 234.00 667.66 888.45 53.10 373.45 0.00 397.48 548.61 730.81 87.81 433.94 621.98 350.68 458.38 754.28 149.02 771.70 101.61 608.09 471.21 222.42 411.48 126.63 399.32 152.37 298.29 419.28 229.45 159.38 569.67 985.18 224.37 931.18 204.16 142.49 265.06 208.38 252.50 1117.20 839.04 631.00 193.12 332.25 307.31 217.20 298.19 348.58 529.53 448.00 478.57 131.68 172.14 185.29 657.81 494.53 320.10 97.03 209.25 589.93 49.63 621.77 501.02 464.97 943.56 167.38 196.43 461.64 272.68 255.35 171.65 390.31 224.56 324.94 271.58 524.62 279.68 496.11 811.33 255.29 860.60 653.30 462.68 131.98 300.22 593.95 479.79 487.95 635.70 97.27 815.49 773.02 160.68 63.69 270.87 427.59 881.23
887.11 477.50 747.98 782.68 726.70 437.68 711.40 952.76 395.79 240.52 397.48 0.00 612.92 692.50 380.25 444.89 306.39 105.36 850.71 970.86 467.56 995.01 499.09 337.24 416.75 252.43 192.66 517.04 31.12 362.09 357.81 591.96 449.47 345.87 303.73 1027.76 365.91 889.31 388.05 434.80 519.43 278.34 365.44 1438.47 1122.42 860.65 286.83 486.60 591.58 330.14 294.07 461.52 561.69 373.16 212.63 265.80 373.43 306.29 295.98 653.16 190.53 494.51 469.67 356.84 447.11 890.43 473.35 129.07 1211.57 424.83 514.97 559.65 183.36 526.08 302.83 534.38 284.87 230.99 189.79 496.95 333.76 779.49 1191.49 374.44 1208.08 925.88 577.07 415.36 188.34 328.01 528.52 632.02 606.61 468.14 999.38 647.28 431.29 392.35 394.90 115.62 959.79
525.94 725.51 360.41 566.57 971.02 749.64 187.69 339.84 601.71 717.40 548.61 612.92 0.00 281.99 624.57 309.87 523.22 570.49 883.16 821.79 527.84 981.81 648.07 883.03 288.03 523.66 795.11 614.01 644.04 482.98 746.07 404.91 774.13 666.89 836.00 518.20 390.02 404.98 419.68 691.10 809.43 572.60 400.05 1329.52 794.58 699.63 515.19 262.61 504.52 419.07 669.27 287.69 113.48 824.46 825.55 576.63 463.21 544.65 849.10 197.32 686.20 630.52 757.86 526.42 598.24 1122.56 139.57 741.99 1047.35 427.48 518.49 183.02 588.30 800.29 453.10 907.43 572.42 683.16 637.07 163.17 406.52 578.06 1019.80 367.64 1047.06 841.97 160.25 504.29 682.79 811.72 233.48 1005.07 187.83 645.88 982.43 249.54 494.70 559.24 392.79 712.29 360.64
599.12 885.37 475.89 747.68 1130.39 918.65 246.01 378.53 749.23 818.93 730.81 692.50 281.99 0.00 783.94 377.58 656.18 660.71 1104.85 1002.90 661.78 1162.92 786.10 821.81 378.25 645.15 829.03 710.24 723.62 594.15 900.41 586.02 888.22 835.90 885.43 425.70 573.59 279.36 626.94 838.62 958.18 710.05 558.96 1476.01 828.84 772.81 684.20 493.58 732.48 594.26 833.87 518.66 294.59 992.93 861.96 745.64 590.89 713.66 772.09 421.75 737.99 765.92 908.42 578.07 761.91 1281.47 229.79 735.99 1176.25 654.75 709.19 392.16 678.52 916.23 631.84 1074.24 795.46 784.42 729.59 253.39 559.58 651.03 1169.51 556.23 1120.24 1066.40 352.67 660.13 775.02 895.31 323.70 1171.88 110.82 782.93 1127.94 45.22 669.53 667.12 551.26 663.37 357.73
617.58 213.25 669.12 519.86 346.45 207.75 686.47 906.21 34.71 332.63 87.81 380.25 624.57 783.94 0.00 424.46 643.28 357.36 506.05 765.36 171.98 794.62 124.53 634.53 481.39 242.13 366.43 159.21 411.37 208.86 238.95 400.89 185.78 152.26 569.59 963.21 234.55 950.55 252.24 77.84 184.86 191.15 271.40 1173.27 872.48 678.67 175.89 407.74 354.98 292.75 210.38 415.63 570.60 383.35 529.43 114.45 228.63 168.06 676.23 547.66 345.78 144.70 188.21 616.37 105.70 592.30 554.15 412.40 966.52 242.87 201.20 473.03 299.12 194.09 243.17 369.27 198.73 307.71 284.07 577.75 328.42 561.44 899.14 308.42 948.41 685.88 487.65 207.53 282.99 593.87 498.43 466.91 691.22 87.89 826.61 754.63 175.65 116.82 322.18 339.78 900.13
619.49 634.39 442.28 600.75 770.91 570.65 424.83 603.56 389.75 557.98 433.94 444.89 309.87 377.58 424.46 0.00 364.59 339.53 825.18 855.97 385.03 932.94 524.14 695.10 90.78 367.74 539.98 496.55 476.01 300.96 594.09 411.58 587.08 507.30 665.77 781.92 234.10 640.32 295.75 479.14 609.32 414.78 273.14 1363.70 876.45 679.83 357.37 304.67 496.42 237.84 527.91 279.59 250.97 618.45 601.01 418.81 316.62 386.83 685.18 279.19 426.81 464.73 575.74 286.48 426.83 995.65 186.78 475.04 1083.27 332.53 432.44 229.58 359.69 595.39 297.18 756.80 431.06 515.76 479.25 163.18 219.33 546.06 1026.47 178.65 1027.26 817.57 149.62 323.06 486.78 678.46 119.82 854.44 266.76 508.63 782.10 422.80 354.94 370.25 302.60 402.42 624.36
896.04 737.75 684.63 880.78 989.73 701.84 645.89 863.06 658.49 512.79 621.98 306.39 523.22 656.18 643.28 364.59 0.00 411.75 1075.36 1136.00 656.52 1212.25 723.59 359.81 285.38 474.25 467.11 729.34 337.51 555.91 639.48 691.61 742.30 619.09 481.05 936.87 513.41 657.88 597.42 697.83 798.64 511.84 561.67 1643.73 1118.80 1044.42 467.39 584.70 776.45 591.56 600.46 559.62 555.53 679.55 519.02 528.83 551.78 496.85 409.53 643.78 474.96 719.01 745.69 78.11 671.61 1192.12 433.84 431.41 1369.44 634.20 703.93 534.14 395.36 759.43 450.33 840.77 578.65 485.56 496.18 417.98 519.39 906.98 1306.50 533.38 1335.09 1162.86 454.18 573.24 494.73 470.09 409.02 938.41 545.36 719.25 1146.69 688.08 605.12 576.68 609.93 358.79 858.64
807.80 419.61 743.25 758.27 645.21 415.92 667.73 887.47 362.57 241.40 350.68 105.36 570.49 660.71 357.36 339.53 411.75 0.00 771.15 865.50 362.20 948.81 423.28 413.41 430.31 156.89 273.44 450.09 136.48 287.84 314.98 591.70 395.30 333.17 344.67 1034.94 290.53 931.81 393.52 377.73 465.26 172.98 366.39 1467.88 1033.85 850.57 181.47 481.87 592.53 346.85 245.02 478.23 551.86 415.40 317.99 242.91 268.07 200.93 401.34 610.83 147.70 441.68 415.50 395.25 400.31 891.06 430.92 234.43 1106.21 389.99 409.61 454.29 78.00 434.07 269.19 541.71 258.20 234.75 220.58 454.52 377.22 690.92 1117.24 342.14 1145.94 907.41 471.71 326.79 205.09 368.95 423.16 639.35 572.10 428.47 1004.85 705.93 325.93 286.99 394.64 162.16 908.27
772.87 576.63 799.25 480.00 401.39 479.32 1012.90 1083.85 471.34 681.33 458.38 850.71 883.16 1104.85 506.05 825.18 1075.36 771.15 0.00 735.22 443.07 445.84 407.22 1053.81 814.21 639.51 817.08 417.03 832.69 545.62 658.06 691.46 499.21 570.80 969.48 1222.93 648.51 1276.98 546.83 462.84 461.75 653.78 575.63 1113.37 969.34 599.18 646.35 620.55 571.63 587.34 663.68 639.85 897.03 750.95 883.58 584.91 565.39 632.98 1053.32 835.39 721.77 361.35 479.01 1035.65 408.75 428.25 877.43 824.33 805.87 537.46 490.48 799.46 718.40 390.92 625.03 528.06 607.17 632.82 683.35 901.03 675.23 625.06 739.96 683.42 690.69 463.49 815.43 502.12 675.47 993.76 881.61 468.37 994.03 443.86 626.96 1132.70 470.24 522.07 629.41 805.02 1104.65
415.86 868.76 574.47 255.22 896.37 845.64 768.97 925.56 756.88 924.63 754.28 970.86 821.79 1002.90 765.36 855.97 1136.00 865.50 735.22 0.00 679.97 499.40 708.24 1122.91 850.62 866.39 1069.05 632.38 1001.47 751.07 938.77 578.12 805.18 846.73 1169.70 998.15 771.42 1033.05 699.79 697.24 863.42 863.83 678.03 703.12 537.71 285.41 832.02 601.46 465.55 669.49 875.56 576.38 708.31 1002.75 1126.88 787.13 731.30 840.74 1172.63 737.56 917.45 675.83 807.61 1104.75 704.65 1142.22 898.83 1002.78 281.27 674.39 657.75 673.07 787.50 813.49 805.47 988.67 895.86 876.12 930.08 889.85 741.73 400.28 265.86 701.05 280.44 599.67 753.03 690.30 914.59 1145.42 911.39 1050.34 919.54 731.48 235.87 1018.59 722.18 746.47 604.73 985.09 946.36
445.60 363.74 526.61 424.75 518.43 324.65 575.90 782.31 202.12 451.94 149.02 467.56 527.84 661.78 171.98 385.03 656.52 362.20 443.07 679.97 0.00 771.58 166.64 741.06 371.14 328.37 529.65 136.97 444.35 166.76 410.93 306.99 300.16 302.82 677.11 915.17 281.67 839.98 124.32 192.22 356.84 307.14 182.49 1187.70 806.32 552.47 249.73 265.23 271.99 147.19 382.36 278.57 460.03 497.73 627.59 259.03 149.03 279.19 709.21 462.11 420.74 146.64 302.59 643.63 136.50 686.80 511.66 584.38 794.54 100.36 47.41 362.46 405.65 308.47 233.02 483.65 360.57 419.05 364.22 535.26 271.59 464.01 921.88 255.54 893.97 625.65 422.29 110.11 413.05 701.39 441.46 581.29 550.96 203.28 731.65 707.00 96.12 196.66 203.85 511.76 803.11
753.55 757.86 734.49 415.24 689.49 777.49 997.98 1153.97 791.22 902.93 771.70 995.01 981.81 1162.92 794.62 932.94 1212.25 948.81 445.84 499.40 771.58 0.00 670.09 1221.09 945.68 832.48 1018.61 672.60 963.89 813.75 898.48 678.24 772.07 833.67 1099.85 1158.17 698.84 1262.06 711.37 787.96 702.11 824.75 710.51 989.01 1018.00 647.84 767.34 761.48 531.78 741.67 821.68 736.40 868.33 1034.40 1097.83 828.78 820.45 796.80 1228.75 790.58 874.56 703.84 757.92 1152.19 749.60 843.20 1039.68 989.62 780.67 674.59 724.17 835.81 911.37 689.09 761.92 938.98 878.60 854.42 860.60 1052.59 792.71 560.30 685.45 821.66 679.80 145.93 915.77 773.69 811.77 1124.13 1001.31 903.43 1079.56 706.73 378.17 1208.14 741.81 812.76 769.41 990.73 1174.77
612.24 259.44 682.10 491.83 470.98 191.79 713.52 933.26 154.71 418.25 101.61 499.09 648.07 786.10 124.53 524.14 723.59 423.28 407.22 708.24 166.64 670.09 0.00 701.31 537.78 315.20 409.86 75.86 497.28 246.90 310.90 423.31 213.08 163.58 630.20 1032.24 325.98 977.60 228.39 117.87 226.65 250.30 296.37 1171.90 844.50 605.19 293.64 420.72 281.50 286.30 319.88 395.64 592.04 423.38 572.86 233.29 228.68 264.18 729.14 528.63 402.85 93.20 199.54 683.15 104.33 520.16 594.24 517.91 898.43 262.39 164.61 500.08 365.90 155.82 273.26 380.60 223.03 369.74 318.11 617.84 369.73 510.19 912.94 348.51 952.62 602.53 536.17 208.10 340.06 605.92 580.57 478.24 708.75 36.64 827.73 824.53 205.66 156.91 323.45 464.31 925.10
1102.52 681.06 1000.66 1035.65 951.96 580.62 830.03 1103.90 626.51 455.80 608.09 337.24 883.03 821.81 634.53 695.10 359.81 413.41 1053.81 1122.91 741.06 1221.09 701.31 0.00 645.19 414.30 375.34 707.50 306.12 606.57 557.25 885.18 621.08 618.65 121.24 1247.51 547.94 1017.69 656.22 656.64 680.28 451.89 654.04 1713.47 1334.71 1150.79 492.94 739.28 867.58 667.38 480.45 764.36 791.58 472.40 212.34 520.08 617.30 479.84 49.72 925.01 435.61 705.12 624.47 437.92 657.72 1133.19 782.63 311.97 1404.18 682.57 774.54 866.64 335.41 669.02 526.60 777.14 518.98 463.10 477.99 777.79 602.26 1005.73 1388.77 642.94 1403.35 1186.32 786.68 641.60 444.19 110.48 690.34 810.87 710.99 679.76 1267.55 867.03 644.94 544.40 702.08 384.59 1098.34
638.69 652.83 490.65 595.40 827.84 606.46 386.51 627.87 480.53 574.22 471.21 416.75 288.03 378.25 481.39 90.78 285.38 430.31 814.21 850.62 371.14 945.68 537.78 645.19 0.00 380.48 606.24 508.11 400.67 361.75 610.68 406.23 646.92 523.71 684.09 752.48 246.84 650.59 344.27 559.23 666.25 406.20 276.29 1358.35 924.82 770.61 372.01 299.32 491.07 311.59 545.58 274.24 284.69 708.71 629.38 433.45 381.52 401.47 665.53 369.97 448.24 515.62 636.31 295.19 468.22 998.80 148.46 541.21 1084.06 381.05 418.55 262.81 450.47 664.05 309.92 817.37 456.67 533.11 493.89 170.12 234.01 636.84 1021.12 248.00 1070.39 907.33 183.34 364.45 490.46 687.17 187.13 892.98 315.69 551.67 872.88 423.47 396.33 436.27 333.99 493.20 645.98
773.97 311.53 586.36 649.84 588.58 300.69 653.41 840.68 251.93 244.14 222.42 252.43 523.66 645.15 242.13 367.74 474.25 156.89 639.51 866.39 328.37 832.48 315.20 414.30 380.48 0.00 340.75 349.05 268.02 222.77 255.26 482.05 337.79 226.25 431.37 986.66 133.64 846.35 262.99 269.65 400.35 64.90 317.08 1339.62 920.41 776.04 78.64 324.98 485.94 281.78 224.44 350.06 488.09 403.59 359.57 127.68 203.00 90.29 464.02 539.82 202.84 319.45 344.54 396.14 272.05 803.37 415.36 294.17 1041.14 269.85 375.78 466.70 78.89 370.68 196.72 500.40 172.09 195.63 200.52 430.45 227.51 623.51 1033.75 268.19 1083.02 792.55 386.74 260.14 205.98 407.09 321.45 587.21 553.68 317.83 874.32 690.37 292.02 240.06 329.57 276.48 859.72
958.35 345.27 857.81 841.47 678.00 437.94 850.49 1081.36 401.14 144.42 411.48 192.66 795.11 829.03 366.43 539.98 467.11 273.44 817.08 1069.05 529.65 1018.61 409.86 375.34 606.24 340.75 0.00 485.72 205.57 449.42 281.33 729.54 477.29 334.45 254.10 1220.42 405.09 978.09 525.63 399.45 512.90 278.41 503.02 1528.68 1168.48 984.44 279.92 596.43 691.36 467.72 229.83 599.10 754.35 227.30 163.00 304.07 440.89 250.46 401.60 790.74 269.63 503.06 457.09 545.22 461.11 882.57 666.01 112.02 1279.03 511.28 567.63 727.73 299.95 515.70 413.90 526.52 287.81 192.93 225.72 689.61 498.96 824.79 1222.81 517.33 1228.12 1012.39 658.19 461.42 206.84 278.38 658.16 565.77 799.27 446.50 1075.78 839.94 493.30 400.23 532.48 165.66 1102.16
582.57 318.88 612.78 437.73 505.66 218.44 696.60 916.34 124.50 452.59 126.63 517.04 614.01 710.24 159.21 496.55 729.34 450.09 417.03 632.38 136.97 672.60 75.86 707.50 508.11 349.05 485.72 0.00 525.95 195.59 386.76 371.92 177.98 239.44 691.14 1008.22 310.50 960.68 223.31 192.47 247.94 314.09 291.29 1144.57 768.64 556.67 312.68 351.40 265.96 265.99 331.93 371.62 516.18 490.07 605.20 251.24 215.36 286.14 747.65 452.77 446.73 55.68 198.18 689.34 77.00 596.02 600.43 511.89 822.57 186.53 147.69 483.16 372.09 205.99 279.01 379.24 286.25 404.08 351.60 624.03 293.87 501.10 898.24 334.55 904.10 526.67 531.09 180.77 400.43 679.15 560.26 476.88 678.92 109.87 818.41 755.46 182.97 163.10 258.81 473.27 920.02
889.95 453.28 779.10 813.80 718.69 453.94 742.52 983.88 426.91 209.40 399.32 31.12 644.04 723.62 411.37 476.01 337.51 136.48 832.69 1001.47 444.35 963.89 497.28 306.12 400.67 268.02 205.57 525.95 0.00 393.21 355.71 623.08 475.96 376.99 283.42 1058.88 382.24 920.43 419.17 465.92 522.89 309.46 396.56 1407.35 1146.22 891.77 317.95 517.72 622.70 361.26 278.91 492.64 555.65 383.40 243.75 296.92 404.55 324.97 264.86 684.28 220.01 496.35 496.16 351.08 448.95 921.55 504.47 140.54 1238.89 455.95 491.76 568.67 213.97 503.14 319.16 565.50 274.25 199.87 206.05 528.07 364.88 803.29 1210.65 388.14 1239.20 957.00 584.01 439.16 157.22 307.70 559.64 633.02 637.73 496.02 1030.50 678.40 407.28 422.96 426.02 118.64 990.91
612.36 379.99 515.40 506.86 555.31 348.02 522.71 742.45 174.15 371.71 152.37 362.09 482.98 594.15 208.86 300.96 555.91 287.84 545.62 751.07 166.76 813.75 246.90 606.57 361.75 222.77 449.42 195.59 393.21 0.00 379.89 343.40 358.45 273.58 585.95 866.53 114.91 778.81 145.22 263.54 393.72 226.91 133.85 1231.40 778.84 595.56 169.50 254.02 336.90 98.55 303.09 229.93 382.59 458.28 563.78 175.01 19.77 198.96 647.69 404.60 340.51 222.95 360.14 494.09 175.55 762.14 456.50 453.99 857.91 142.60 207.98 309.27 274.54 377.90 105.58 541.20 206.24 338.73 283.90 464.14 141.51 435.91 829.40 164.33 878.67 671.26 368.01 71.78 302.00 561.67 392.82 626.07 483.33 211.81 756.55 639.37 75.38 92.04 146.34 450.00 762.58
856.53 155.17 803.45 688.22 487.90 255.61 734.41 1007.43 273.66 149.62 298.29 357.81 746.07 900.41 238.95 594.09 639.48 314.98 658.06 938.77 410.93 898.48 310.90 557.25 610.68 255.26 281.33 386.76 355.71 379.89 0.00 638.22 233.98 166.38 436.01 1179.88 364.23 998.49 409.26 246.20 303.94 204.48 428.59 1399.30 1104.79 888.44 247.28 555.57 589.41 427.72 76.80 559.10 686.04 229.84 390.55 217.54 395.81 218.40 555.70 708.27 167.28 379.13 254.18 584.30 331.73 692.33 670.62 312.56 1165.64 433.07 410.00 637.68 297.23 267.14 301.15 336.28 173.65 194.61 175.10 685.71 409.18 761.86 1109.62 443.40 1158.89 909.57 617.33 397.73 198.49 460.29 576.71 433.92 808.94 326.84 939.05 860.05 365.85 355.77 460.92 280.69 1002.72
394.03 602.07 363.46 322.90 747.34 508.12 458.04 616.95 366.18 655.43 419.28 591.96 404.91 586.02 400.89 411.58 691.61 591.70 691.46 578.12 306.99 678.24 423.31 885.18 406.23 482.05 729.54 371.92 623.08 343.40 638.22 0.00 548.58 483.73 822.67 768.59 348.41 722.12 228.96 455.57 555.04 511.21 278.96 1085.85 741.17 371.01 453.80 157.07 146.46 261.82 575.46 131.99 291.43 761.08 792.94 499.73 323.63 483.26 881.19 360.91 624.81 330.11 551.97 698.06 377.51 943.47 467.81 721.03 774.45 265.74 350.55 244.60 549.77 565.97 401.14 733.03 515.89 606.92 575.68 461.38 309.05 402.03 614.89 340.42 664.16 615.88 324.56 337.43 564.27 846.95 482.92 803.44 539.83 440.22 722.83 602.29 305.55 403.91 197.06 684.23 637.75
745.76 140.90 790.76 549.96 330.88 40.46 813.32 1065.31 197.33 368.77 229.45 449.47 774.13 888.22 185.78 587.08 742.30 395.30 499.21 805.18 300.16 772.07 213.08 621.08 646.92 337.79 477.29 177.98 475.96 358.45 233.98 548.58 0.00 143.95 606.67 1098.07 400.08 1077.40 401.29 107.94 69.96 272.89 424.39 1283.48 946.62 734.65 274.91 529.38 428.75 389.09 247.46 520.47 694.16 312.09 564.36 213.47 338.68 267.08 670.80 630.75 341.09 218.47 20.20 696.23 215.91 557.31 716.77 456.65 1000.55 364.51 325.67 632.13 385.28 122.04 374.05 201.26 201.71 343.18 288.35 740.37 448.56 649.99 1020.70 408.99 1069.97 684.90 616.38 303.87 318.74 630.95 659.24 298.90 818.75 176.44 793.95 913.89 326.96 279.44 436.79 384.03 1053.12
748.42 179.19 723.35 591.51 449.24 103.49 698.42 959.37 117.55 295.71 159.38 345.87 666.89 835.90 152.26 507.30 619.09 333.17 570.80 846.73 302.82 833.67 163.58 618.65 523.71 226.25 334.45 239.44 376.99 273.58 166.38 483.73 143.95 0.00 532.67 1085.76 276.87 962.50 333.88 149.49 203.15 175.27 354.24 1233.89 977.15 747.69 151.70 461.97 424.00 328.80 173.46 449.16 631.32 352.86 497.45 98.57 271.94 152.18 641.85 594.61 287.70 213.72 147.34 600.49 166.32 663.02 627.21 402.76 999.26 297.10 263.30 565.39 283.24 191.89 259.40 328.40 107.88 254.28 199.45 642.30 335.09 634.22 970.71 375.77 1019.98 757.45 529.97 270.09 224.91 556.95 533.30 398.81 739.64 200.22 863.80 790.68 277.37 199.66 336.35 370.85 966.73
1122.71 572.90 977.14 979.55 905.63 574.44 934.48 1105.35 604.30 353.67 569.67 303.73 836.00 885.43 569.59 665.77 481.05 344.67 969.48 1169.70 677.11 1099.85 630.20 121.24 684.09 431.37 254.10 691.14 283.42 585.95 436.01 822.67 606.67 532.67 0.00 1275.02 565.01 1129.04 657.58 598.55 617.97 459.85 605.08 1681.71 1319.93 1106.45 485.38 715.76 831.22 633.87 359.21 690.68 801.83 386.20 91.10 524.02 605.72 487.80 147.50 902.30 314.37 646.25 586.47 416.26 614.14 1011.95 696.43 190.73 1432.13 648.21 724.52 773.98 382.20 654.91 556.18 655.90 456.06 341.86 396.69 713.14 603.22 946.80 1267.68 643.90 1316.95 1174.22 700.48 612.87 362.99 24.28 604.14 724.67 774.61 593.56 1244.03 923.29 580.99 591.19 686.98 263.35 1084.55
749.31 1124.58 597.84 742.93 1309.66 1138.53 456.17 178.36 997.92 1160.04 985.18 1027.76 518.20 425.70 963.21 781.92 936.87 1034.94 1222.93 998.15 915.17 1158.17 1032.24 1247.51 752.48 986.66 1220.42 1008.22 1058.88 866.53 1179.88 768.59 1098.07 1085.76 1275.02 0.00 853.02 340.33 803.85 990.13 1148.07 981.31 803.28 1448.41 804.87 920.66 965.20 661.68 853.43 767.98 1114.39 636.60 624.35 1274.09 1192.61 1004.34 846.76 970.14 1197.79 674.68 1073.25 1004.37 1100.50 858.76 956.97 1524.01 604.02 1156.83 1010.29 826.55 927.70 611.54 1052.75 1106.38 878.73 1281.56 1022.05 1111.53 1087.08 627.62 813.66 761.01 1124.31 839.69 1075.04 1301.42 632.30 853.20 1068.88 1250.74 697.93 1379.20 536.52 1038.80 1158.79 380.48 880.44 951.41 749.41 1089.07 199.16
655.96 407.10 452.72 516.20 581.00 359.62 541.80 707.04 269.26 327.38 224.37 365.91 390.02 573.59 234.55 234.10 513.41 290.53 648.51 771.42 281.67 698.84 325.98 547.94 246.84 133.64 405.09 310.50 382.24 114.91 364.23 348.41 400.08 276.87 565.01 853.02 0.00 795.00 182.06 312.39 419.41 182.58 186.10 1279.15 786.77 642.40 125.17 191.34 352.30 150.80 298.74 216.42 354.45 488.47 493.21 186.61 134.68 154.63 532.78 406.18 296.18 287.16 403.47 453.35 274.00 826.85 395.30 427.81 972.82 218.84 321.69 333.06 212.53 417.21 63.08 578.08 236.43 301.88 247.05 389.92 93.87 550.12 944.31 134.55 989.83 736.44 253.10 185.99 292.77 540.73 353.92 646.14 462.77 321.64 793.39 608.23 190.29 189.43 215.56 410.12 727.84
617.19 1122.32 527.57 846.82 1297.00 1036.94 264.08 254.46 920.75 1035.73 931.18 889.31 404.98 279.36 950.55 640.32 657.88 931.81 1276.98 1033.05 839.98 1262.06 977.60 1017.69 650.59 846.35 978.09 960.68 920.43 778.81 998.49 722.12 1077.40 962.50 1129.04 340.33 795.00 0.00 804.38 995.69 1135.41 911.25 792.58 1524.51 845.34 790.88 881.01 662.21 853.96 761.66 1068.70 637.13 499.87 1205.39 1101.94 863.93 770.97 910.47 1034.83 521.63 934.80 939.61 1080.79 735.99 892.21 1448.27 502.13 1015.35 1086.39 817.26 812.99 477.52 925.24 1111.94 833.04 1261.85 972.66 987.22 1002.89 519.13 756.39 750.66 1187.58 760.17 1138.31 1166.28 552.78 799.76 976.22 1104.76 524.90 1323.46 373.56 963.01 1146.01 242.03 831.64 870.85 749.94 942.73 239.63
569.92 373.11 453.71 455.95 584.36 361.61 540.30 717.51 257.06 463.96 204.16 388.05 419.68 626.94 252.24 295.75 597.42 393.52 546.83 699.79 124.32 711.37 228.39 656.22 344.27 262.99 525.63 223.31 419.17 145.22 409.26 228.96 401.29 333.88 657.58 803.85 182.06 804.38 0.00 304.40 437.10 320.75 67.98 1133.89 815.53 522.40 268.14 192.33 291.02 57.91 365.64 167.25 398.93 564.02 581.96 307.15 125.45 297.60 684.03 350.03 421.95 216.38 405.46 519.31 187.64 748.55 397.15 517.12 918.86 36.78 171.73 326.86 320.81 382.18 194.30 561.98 311.98 415.45 375.28 420.75 169.12 400.43 843.85 166.26 869.83 565.44 307.78 108.47 410.30 670.08 352.18 656.93 562.51 257.10 611.33 613.01 76.59 174.95 95.06 480.32 696.71
637.82 171.52 698.99 442.02 424.29 148.40 731.61 965.98 89.39 343.81 142.49 434.80 691.10 838.62 77.84 479.14 697.83 377.73 462.84 697.24 192.22 787.96 117.87 656.64 559.23 269.65 399.45 192.47 465.92 263.54 246.20 455.57 107.94 149.49 598.55 990.13 312.39 995.69 304.40 0.00 166.18 204.75 316.45 1200.98 902.99 642.24 230.44 437.61 375.44 281.15 288.22 412.53 646.13 305.51 533.79 169.00 265.17 222.61 639.49 602.34 372.63 165.16 110.37 638.48 133.41 601.62 608.83 407.82 978.51 292.58 239.63 550.87 321.23 116.25 266.11 291.43 244.53 335.48 338.62 632.43 374.14 556.15 953.82 342.16 977.68 719.14 549.55 195.93 337.54 622.83 574.25 389.07 743.18 82.60 763.78 809.31 227.81 171.50 345.91 417.62 945.18
765.26 181.04 830.14 608.20 342.60 99.66 871.33 1042.88 219.57 371.53 265.06 519.43 809.43 958.18 184.86 609.32 798.64 465.26 461.75 863.42 356.84 702.11 226.65 680.28 666.25 400.35 512.90 247.94 522.89 393.72 303.94 555.04 69.96 203.15 617.97 1148.07 419.41 1135.41 437.10 166.18 0.00 342.85 456.26 1330.40 1016.58 758.90 331.25 568.76 435.21 432.39 283.07 563.77 755.46 371.29 573.78 272.67 402.79 325.41 730.00 700.71 400.29 224.93 55.81 755.43 272.33 550.98 739.01 514.53 1070.51 424.49 386.06 657.89 455.24 70.83 428.03 236.87 271.67 323.02 347.55 762.61 484.17 646.74 1076.39 478.95 1044.37 614.94 672.51 362.11 365.67 642.25 683.29 334.51 876.08 210.75 742.74 939.49 360.51 301.68 497.15 443.23 1063.68
735.84 246.63 598.97 634.21 537.60 249.71 676.55 802.95 189.59 179.24 208.38 278.34 572.60 710.05 191.15 414.78 511.84 172.98 653.78 863.83 307.14 824.75 250.30 451.89 406.20 64.90 278.41 314.09 309.46 226.91 204.48 511.21 272.89 175.27 459.85 981.31 182.58 911.25 320.75 204.75 342.85 0.00 252.77 1325.58 945.97 761.93 57.41 373.92 478.91 288.07 159.54 386.01 537.03 338.69 381.49 76.70 218.38 27.95 501.61 549.99 171.46 299.58 293.09 433.73 258.01 770.46 480.26 322.24 1056.52 288.77 340.73 511.83 116.48 321.00 188.63 435.50 109.75 130.73 135.85 495.35 276.45 602.28 1019.71 238.92 1068.98 734.43 435.68 238.91 173.38 435.57 386.35 533.14 618.58 255.49 860.78 696.39 270.79 177.72 314.15 287.63 823.75
536.87 441.09 450.28 422.81 617.85 390.95 528.50 649.53 236.69 432.01 252.50 365.44 400.05 558.96 271.40 273.14 561.67 366.39 575.63 678.03 182.49 710.51 296.37 654.04 276.29 317.08 503.02 291.29 396.56 133.85 428.59 278.96 424.39 354.24 605.08 803.28 186.10 792.58 67.98 316.45 456.26 252.77 0.00 1166.96 776.89 547.65 262.82 190.17 226.14 35.30 363.10 166.68 339.04 541.41 513.98 292.78 114.08 280.72 661.42 297.22 405.11 271.69 422.68 554.75 224.29 722.51 329.17 494.51 951.09 104.76 229.90 319.76 318.63 432.70 127.44 603.74 289.37 383.50 378.21 352.77 101.14 458.57 893.85 111.15 895.08 631.04 239.80 120.52 342.32 629.36 329.57 686.27 498.34 306.12 679.31 604.18 138.20 218.73 81.90 457.71 628.73
943.80 1338.39 1082.20 762.95 1218.47 1289.22 1296.91 1270.05 1143.12 1444.75 1117.20 1438.47 1329.52 1476.01 1173.27 1363.70 1643.73 1467.88 1113.37 703.12 1187.70 989.01 1171.90 1713.47 1358.35 1339.62 1528.68 1144.57 1407.35 1231.40 1399.30 1085.85 1283.48 1233.89 1681.71 1448.41 1279.15 1524.51 1133.89 1200.98 1330.40 1325.58 1166.96 0.00 1002.31 770.11 1310.32 1109.19 973.28 1149.82 1322.50 1084.11 1216.04 1506.49 1595.77 1248.88 1211.63 1302.49 1672.21 1245.29 1437.30 1114.97 1274.59 1616.88 1067.57 1435.57 1406.56 1536.46 438.12 1097.11 1165.48 1243.72 1389.88 1282.75 1288.85 1414.50 1304.04 1397.00 1342.17 1402.72 1249.46 908.01 471.95 1208.78 422.68 974.64 1317.39 1171.34 1391.00 1705.99 1444.09 1316.86 1427.27 1151.02 610.84 1514.64 1164.33 1180.89 1085.06 1463.84 1290.85
360.72 1038.14 434.17 602.76 1218.93 987.08 697.66 626.51 886.38 1077.21 839.04 1122.42 794.58 828.84 872.48 876.45 1118.80 1033.85 969.34 537.71 806.32 1018.00 844.50 1334.71 924.82 920.41 1168.48 768.64 1146.22 778.84 1104.79 741.17 946.62 977.15 1319.93 804.87 786.77 845.34 815.53 902.99 1016.58 945.97 776.89 1002.31 0.00 370.16 888.56 695.55 601.80 792.28 1027.99 720.63 686.45 1208.50 1279.46 905.74 776.30 918.02 1319.55 597.26 1059.57 812.08 966.82 1162.93 810.83 1364.66 840.88 1200.55 643.19 806.16 826.38 753.80 999.30 974.63 829.97 1147.88 985.08 1028.70 973.87 864.48 849.65 529.81 766.86 888.04 717.59 882.63 741.48 707.06 1022.70 1327.50 899.84 1245.52 900.59 878.51 725.29 783.62 738.94 805.27 825.73 1158.50 605.71
173.69 812.42 382.74 232.60 965.11 711.98 526.80 744.64 643.96 893.93 631.00 860.65 699.63 772.81 678.67 679.83 1044.42 850.57 599.18 285.41 552.47 647.84 605.19 1150.79 770.61 776.04 984.44 556.67 891.77 595.56 888.44 371.01 734.65 747.69 1106.45 920.66 642.40 790.88 522.40 642.24 758.90 761.93 547.65 770.11 370.16 0.00 704.52 528.08 323.69 530.51 836.30 503.00 586.15 947.75 1061.63 722.46 592.32 733.98 1156.63 520.75 875.53 533.97 752.61 966.31 581.37 1027.43 764.85 989.72 403.44 523.30 542.04 554.69 829.97 735.56 646.69 933.67 779.79 845.42 790.59 771.47 548.53 159.65 396.70 589.21 347.43 718.93 634.65 523.78 839.42 1082.17 733.56 940.33 699.86 633.20 355.13 744.53 555.66 621.99 465.75 952.92 723.84
695.33 281.93 577.89 576.80 522.34 234.45 661.29 807.67 191.10 202.21 193.12 286.83 515.19 684.20 175.89 357.37 467.39 181.47 646.35 832.02 249.73 767.34 293.64 492.94 372.01 78.64 279.92 312.68 317.95 169.50 247.28 453.80 274.91 151.70 485.38 965.20 125.17 881.01 268.14 230.44 331.25 57.41 262.82 1310.32 888.56 704.52 0.00 316.51 431.82 239.75 188.97 328.60 479.62 363.30 394.28 61.44 160.97 29.46 542.66 515.00 171.01 290.15 278.30 474.78 242.75 724.73 484.68 345.45 999.11 231.36 297.14 454.42 157.53 292.04 135.38 459.36 111.26 176.71 121.88 508.28 219.04 544.87 998.90 259.72 1048.17 760.02 378.27 181.50 167.60 485.73 400.09 520.97 587.94 257.00 862.29 638.98 213.38 175.56 256.74 287.18 828.47
464.62 462.90 261.38 346.24 739.86 489.70 398.13 602.45 385.15 518.72 332.25 486.60 262.61 493.58 407.74 304.67 584.70 481.87 620.55 601.46 265.23 761.48 420.72 739.28 299.32 324.98 596.43 351.40 517.72 254.02 555.57 157.07 529.38 461.97 715.76 661.68 191.34 662.21 192.33 437.61 568.76 373.92 190.17 1109.19 695.55 528.08 316.51 0.00 241.91 156.46 490.08 25.08 282.26 662.57 684.55 377.95 234.25 345.97 724.12 214.84 487.52 367.91 533.55 591.15 338.64 912.68 310.74 615.67 784.74 164.87 312.64 184.69 403.87 537.68 254.42 644.82 410.53 493.22 438.39 334.34 154.10 456.80 771.96 194.78 821.23 648.94 264.65 241.68 457.36 732.07 337.40 742.46 382.76 399.46 734.22 512.15 232.09 303.04 130.18 578.87 623.25
497.38 488.73 408.33 210.33 701.43 388.29 589.88 752.25 320.27 634.03 307.31 591.58 504.52 732.48 354.98 496.42 776.45 592.53 571.63 465.55 271.99 531.78 281.50 867.58 491.07 485.94 691.36 265.96 622.70 336.90 589.41 146.46 428.75 424.00 831.22 853.43 352.30 853.96 291.02 375.44 435.21 478.91 226.14 973.28 601.80 323.69 431.82 241.91 0.00 261.44 512.61 216.83 437.89 659.92 740.12 438.99 340.22 461.28 885.08 449.77 602.83 210.28 432.14 780.89 257.68 801.66 552.65 720.65 727.13 327.80 224.58 376.44 544.77 437.32 353.58 613.20 456.10 587.11 532.28 576.25 327.28 355.39 674.21 337.29 671.12 469.42 456.40 286.82 568.46 855.50 555.71 683.61 624.67 318.14 626.19 748.75 308.90 371.00 302.46 653.95 773.05
556.97 416.30 417.84 452.54 614.78 414.40 504.43 684.83 264.54 406.05 217.20 330.14 419.07 594.26 292.75 237.84 591.56 346.85 587.34 669.49 147.19 741.67 286.30 667.38 311.59 281.78 467.72 265.99 361.26 98.55 427.72 261.82 389.09 328.80 633.87 767.98 150.80 761.66 57.91 281.15 432.39 288.07 35.30 1149.82 792.28 530.51 239.75 156.46 261.44 0.00 350.92 131.38 374.34 506.11 542.77 257.48 78.78 269.21 626.12 323.02 410.76 236.39 391.52 524.32 188.99 757.81 364.47 459.21 916.92 94.69 194.60 290.99 332.42 397.40 141.23 572.58 254.07 357.54 342.91 388.07 125.06 449.35 876.71 108.35 877.94 595.74 275.10 85.22 371.10 658.15 294.27 663.87 504.60 270.82 669.24 639.42 117.10 183.43 64.76 422.41 664.03
827.96 231.97 751.46 620.34 556.83 215.23 805.43 962.49 245.09 122.25 298.19 294.07 669.27 833.87 210.38 527.91 600.46 245.02 663.68 875.56 382.36 821.68 319.88 480.45 545.58 224.44 229.83 331.93 278.91 303.09 76.80 575.46 247.46 173.46 359.21 1114.39 298.74 1068.70 365.64 288.22 283.07 159.54 363.10 1322.50 1027.99 836.30 188.97 490.08 512.61 350.92 0.00 482.30 620.55 212.72 363.02 205.58 319.01 178.65 506.71 631.47 139.75 302.33 227.26 556.93 254.93 652.74 637.71 285.19 1154.50 356.27 402.84 597.29 246.86 295.70 235.66 296.69 96.85 127.36 104.28 652.80 343.69 685.06 1109.52 384.37 1156.00 858.60 551.84 320.93 121.69 383.49 543.80 394.33 761.51 284.01 884.82 827.95 289.05 288.54 415.68 255.92 983.29
439.54 487.98 286.46 321.16 746.16 514.78 373.05 592.79 380.92 523.44 348.58 461.52 287.69 518.66 415.63 279.59 559.62 478.23 639.85 576.38 278.57 736.40 395.64 764.36 274.24 350.06 599.10 371.62 492.64 229.93 559.10 131.99 520.47 449.16 690.68 636.60 216.42 637.13 167.25 412.53 563.77 386.01 166.68 1084.11 720.63 503.00 328.60 25.08 216.83 131.38 482.30 0.00 257.18 637.49 674.15 367.74 210.16 358.06 749.20 232.94 495.07 367.77 522.90 566.07 320.37 889.19 335.82 590.59 809.82 189.95 291.10 159.61 428.95 528.78 269.15 669.90 385.45 474.93 450.48 359.42 177.06 466.22 746.88 217.74 796.15 674.02 239.57 216.60 432.28 714.96 362.48 767.54 407.84 402.20 709.14 537.23 243.84 314.81 112.81 553.79 613.59
412.46 742.37 273.80 453.09 917.05 686.98 235.79 453.32 556.74 681.83 529.53 561.69 113.48 294.59 570.60 250.97 555.53 551.86 897.03 708.31 460.03 868.33 592.04 791.58 284.69 488.09 754.35 516.18 555.65 382.59 686.04 291.43 694.16 631.32 801.83 624.35 354.45 499.87 398.93 646.13 755.46 537.03 339.04 1216.04 686.45 586.15 479.62 282.26 437.89 374.34 620.55 257.18 0.00 833.27 762.64 541.06 391.02 509.08 820.51 133.43 650.63 565.19 714.36 493.20 535.92 1061.55 190.52 690.76 989.58 362.15 433.04 97.57 566.98 722.17 384.89 895.42 588.83 656.33 601.50 214.12 347.62 492.61 906.32 308.74 933.58 778.08 101.35 454.37 647.22 777.55 259.71 982.30 301.31 583.06 868.95 339.81 429.37 474.63 369.99 653.39 474.12
943.33 372.07 923.95 747.53 642.97 271.63 960.62 1141.64 394.90 174.00 448.00 373.16 824.46 992.93 383.35 618.45 679.55 415.40 750.95 1002.75 497.73 1034.40 423.38 472.40 708.71 403.59 227.30 490.07 383.40 458.28 229.84 761.08 312.09 352.86 386.20 1274.09 488.47 1205.39 564.02 305.51 371.29 338.69 541.41 1506.49 1208.50 947.75 363.30 662.57 659.92 506.11 212.72 637.49 833.27 0.00 390.30 360.77 478.05 333.84 485.14 786.66 311.46 449.64 315.48 608.68 438.92 753.50 805.23 318.31 1284.02 568.99 531.30 752.48 379.26 360.03 448.38 397.45 252.04 222.51 277.34 781.63 556.41 861.66 1259.33 577.61 1283.19 925.59 741.57 501.44 265.16 361.92 716.48 338.47 885.21 388.11 1031.94 967.70 501.77 477.01 570.87 329.56 1162.44
1050.85 481.80 945.93 936.79 814.53 523.90 896.32 1014.25 530.34 279.50 478.57 212.63 825.55 861.96 529.43 601.01 519.02 317.99 883.58 1126.88 627.59 1097.83 572.86 212.34 629.38 359.57 163.00 605.20 243.75 563.78 390.55 792.94 564.36 497.45 91.10 1192.61 493.21 1101.94 581.96 533.79 573.78 381.49 513.98 1595.77 1279.46 1061.63 394.28 684.55 740.12 542.77 363.02 674.15 762.64 390.30 0.00 444.02 555.25 405.07 238.60 811.20 223.27 575.60 567.75 507.36 528.20 1015.76 685.98 125.97 1393.39 618.74 673.22 682.88 341.04 612.30 515.46 659.71 397.47 250.76 305.59 709.58 546.39 936.53 1289.90 587.07 1339.17 1109.46 746.31 572.40 286.06 115.38 605.59 728.77 819.24 575.84 1185.44 859.91 568.63 535.89 595.88 198.59 993.45
704.63 273.45 639.33 611.02 460.90 173.01 599.85 869.11 149.16 241.77 131.68 265.80 576.63 745.64 114.45 418.81 528.83 242.91 584.91 787.13 259.03 828.78 233.29 520.08 433.45 127.68 304.07 251.24 296.92 175.01 217.54 499.73 213.47 98.57 524.02 1004.34 186.61 863.93 307.15 169.00 272.67 76.70 292.78 1248.88 905.74 722.46 61.44 377.95 438.99 257.48 205.58 367.74 541.06 360.77 444.02 0.00 189.38 53.61 561.78 574.21 231.33 228.71 216.86 501.92 181.31 706.75 543.04 333.29 1027.52 272.83 264.03 482.83 184.67 261.41 196.82 397.92 108.73 193.26 169.62 558.13 260.28 562.81 943.01 300.96 992.28 777.91 439.71 198.68 168.54 512.27 449.13 459.53 649.38 202.34 886.44 700.42 230.56 157.86 315.95 323.46 868.16
594.63 399.76 495.63 504.32 575.08 362.39 506.89 726.63 193.92 363.18 172.14 373.43 463.21 590.89 228.63 316.62 551.78 268.07 565.39 731.30 149.03 820.45 228.68 617.30 381.52 203.00 440.89 215.36 404.55 19.77 395.81 323.63 338.68 271.94 605.72 846.76 134.68 770.97 125.45 265.17 402.79 218.38 114.08 1211.63 776.30 592.32 160.97 234.25 340.22 78.78 319.01 210.16 391.02 478.05 555.25 189.38 0.00 190.43 667.02 384.83 331.98 213.20 354.94 513.86 171.02 748.84 436.73 473.76 838.14 162.23 196.44 293.45 281.89 358.13 101.45 536.00 226.01 318.96 264.13 460.33 161.28 433.37 849.17 184.10 898.44 674.52 353.88 69.24 312.96 581.44 373.05 606.30 480.07 192.04 736.78 636.11 95.15 111.81 126.57 430.23 742.81
707.89 274.58 607.35 606.26 514.51 226.62 653.46 830.90 161.64 202.82 185.29 306.29 544.65 713.66 168.06 386.83 496.85 200.93 632.98 840.74 279.19 796.80 264.18 479.84 401.47 90.29 250.46 286.14 324.97 198.96 218.40 483.26 267.08 152.18 487.80 970.14 154.63 910.47 297.60 222.61 325.41 27.95 280.72 1302.49 918.02 733.98 29.46 345.97 461.28 269.21 178.65 358.06 509.08 333.84 405.07 53.61 190.43 0.00 529.56 544.46 199.41 271.63 270.47 461.68 234.92 754.19 505.65 345.60 1028.57 260.82 317.64 483.88 144.43 315.02 163.44 451.53 81.80 154.31 118.92 520.74 248.50 574.33 996.62 266.87 1045.89 762.38 407.73 210.96 167.75 463.52 411.74 513.14 617.40 227.54 832.83 668.44 242.84 149.77 286.20 287.55 851.70
1152.24 661.94 985.50 1048.98 983.55 630.34 879.75 1054.18 676.23 406.08 657.81 295.98 849.10 772.09 676.23 685.18 409.53 401.34 1053.32 1172.63 709.21 1228.75 729.14 49.72 665.53 464.02 401.60 747.65 264.86 647.69 555.70 881.19 670.80 641.85 147.50 1197.79 532.78 1034.83 684.03 639.49 730.00 501.61 661.42 1672.21 1319.55 1156.63 542.66 724.12 885.08 626.12 506.71 749.20 820.51 485.14 238.60 561.78 667.02 529.56 0.00 938.96 461.14 691.97 674.19 487.64 707.44 1159.45 769.33 338.23 1453.90 720.81 756.62 833.53 385.13 718.74 576.32 803.40 539.11 454.59 470.91 792.93 626.65 1004.48 1415.18 653.00 1453.07 1221.86 785.88 691.32 422.08 123.22 703.08 823.61 661.27 692.50 1295.36 817.31 672.14 594.12 690.88 383.50 1074.98
354.11 633.27 163.09 482.34 894.11 624.28 257.55 524.71 512.95 717.21 494.53 653.16 197.32 421.75 547.66 279.19 643.78 610.83 835.39 737.56 462.11 790.58 528.63 925.01 369.97 539.82 790.74 452.77 684.28 404.60 708.27 360.91 630.75 594.61 902.30 674.68 406.18 521.63 350.03 602.34 700.71 549.99 297.22 1245.29 597.26 520.75 515.00 214.84 449.77 323.02 631.47 232.94 133.43 786.66 811.20 574.21 384.83 544.46 938.96 0.00 686.01 508.45 650.95 565.67 497.28 1019.73 323.95 754.23 924.19 361.75 475.91 156.54 615.85 658.76 424.66 822.14 534.62 680.56 629.70 338.08 355.68 386.18 913.31 365.28 864.04 644.65 234.78 408.24 639.54 888.17 393.14 919.60 385.15 562.64 856.73 446.86 426.62 430.84 258.26 681.61 503.91
866.34 322.45 731.90 747.81 624.26 300.63 815.43 974.41 351.28 137.46 320.10 190.53 686.20 737.99 345.78 426.81 474.96 147.70 721.77 917.45 420.74 874.56 402.85 435.61 448.24 202.84 269.63 446.73 220.01 340.51 167.28 624.81 341.09 287.70 314.37 1073.25 296.18 934.80 421.95 372.63 400.29 171.46 405.11 1437.30 1059.57 875.53 171.01 487.52 602.83 410.76 139.75 495.07 650.63 311.46 223.27 231.33 331.98 199.41 461.14 686.01 0.00 417.13 344.48 446.15 369.73 792.49 578.62 188.79 1170.12 402.37 449.95 601.99 129.95 389.03 306.39 436.44 179.82 88.95 111.62 589.99 390.05 715.88 1131.43 378.54 1180.70 905.89 549.28 352.51 62.79 337.92 514.11 534.08 693.57 401.59 967.79 692.77 345.36 312.62 427.75 116.17 995.21
592.24 278.45 618.61 420.61 491.15 178.01 686.85 921.22 109.99 424.58 97.03 494.51 630.52 765.92 144.70 464.73 719.01 441.68 361.35 675.83 146.64 703.84 93.20 705.12 515.62 319.45 503.06 55.68 496.35 222.95 379.13 330.11 218.47 213.72 646.25 1004.37 287.16 939.61 216.38 165.16 224.93 299.58 271.69 1114.97 812.08 533.97 290.15 367.91 210.28 236.39 302.33 367.77 565.19 449.64 575.60 228.71 213.20 271.63 691.97 508.45 417.13 0.00 221.86 686.96 47.40 613.36 598.05 516.29 878.25 203.04 194.05 506.65 369.71 235.86 268.68 402.92 245.82 376.83 322.00 621.65 341.79 445.42 884.49 332.47 881.40 557.91 511.49 151.17 362.85 666.25 530.66 473.33 693.27 110.11 762.73 811.14 158.45 160.72 286.42 443.67 900.42
748.19 125.23 794.93 552.39 351.08 43.85 816.71 1072.21 185.99 349.51 209.25 469.67 757.86 908.42 188.21 575.74 745.69 415.50 479.01 807.61 302.59 757.92 199.54 624.47 636.31 344.54 457.09 198.18 496.16 360.14 254.18 551.97 20.20 147.34 586.47 1100.50 403.47 1080.79 405.46 110.37 55.81 293.09 422.68 1274.59 966.82 752.61 278.30 533.55 432.14 391.52 227.26 522.90 714.36 315.48 567.75 216.86 354.94 270.47 674.19 650.95 344.48 221.86 0.00 699.62 236.11 537.11 705.43 460.04 1020.75 368.68 345.87 648.39 401.53 126.64 375.20 181.06 221.91 346.57 291.74 729.03 428.36 636.45 1020.58 429.19 1064.99 670.75 636.58 306.30 338.94 610.75 665.99 278.70 835.01 162.90 798.55 905.91 338.18 268.10 456.28 387.42 1051.41
890.78 680.36 728.76 887.23 962.82 655.77 624.90 844.53 608.35 434.68 589.93 356.84 526.42 578.07 616.37 286.48 78.11 395.25 1035.65 1104.75 643.63 1152.19 683.15 437.92 295.19 396.14 545.22 689.34 351.08 494.09 584.30 698.06 696.23 600.49 416.26 858.76 453.35 735.99 519.31 638.48 755.43 433.73 554.75 1616.88 1162.93 966.31 474.78 591.15 780.89 524.32 556.93 566.07 493.20 608.68 507.36 501.92 513.86 461.68 487.64 565.67 446.15 686.96 699.62 0.00 639.56 1138.42 386.85 485.91 1352.00 556.09 691.04 516.06 317.25 744.17 451.45 782.37 500.82 435.33 459.83 363.25 453.61 828.87 1309.06 465.13 1313.74 1084.75 436.10 565.87 444.34 391.98 330.91 880.01 467.25 687.20 1068.58 623.29 569.47 526.24 531.82 420.53 852.29
582.10 270.82 600.02 449.43 452.15 225.41 639.45 873.82 75.55 377.18 49.63 447.11 598.24 761.91 105.70 426.83 671.61 400.31 408.75 704.65 136.50 749.60 104.33 657.72 468.22 272.05 461.11 77.00 448.95 175.55 331.73 377.51 215.91 166.32 614.14 956.97 274.00 892.21 187.64 133.41 272.33 258.01 224.29 1067.57 810.83 581.37 242.75 338.64 257.68 188.99 254.93 320.37 535.92 438.92 528.20 181.31 171.02 234.92 707.44 497.28 369.73 47.40 236.11 639.56 0.00 624.49 550.65 468.89 899.57 173.77 147.91 464.47 322.31 237.70 221.28 417.17 236.47 329.43 274.60 574.25 314.05 467.90 860.96 285.07 910.23 603.67 464.09 103.77 323.43 638.42 483.26 514.81 651.09 83.45 798.97 795.47 111.05 113.32 239.02 396.27 853.02
1128.82 544.92 1172.79 908.25 245.85 573.77 1184.19 1345.65 627.01 774.99 621.77 890.43 1122.56 1281.47 592.30 995.65 1192.12 891.06 428.25 1142.22 686.80 843.20 520.16 1133.19 998.80 803.37 882.57 596.02 921.55 762.14 692.33 943.47 557.31 663.02 1011.95 1524.01 826.85 1448.27 748.55 601.62 550.98 770.46 722.51 1435.57 1364.66 1027.43 724.73 912.68 801.66 757.81 652.74 889.19 1061.55 753.50 1015.76 706.75 748.84 754.19 1159.45 1019.73 792.49 613.36 537.11 1138.42 624.49 0.00 1051.68 937.93 1128.07 782.55 684.77 970.75 821.17 485.37 793.42 356.05 743.19 780.10 757.02 1075.28 823.65 1030.35 963.62 833.66 1012.89 891.74 962.31 690.36 774.43 1036.23 1052.08 453.69 1220.85 556.80 985.92 1326.69 722.24 677.07 804.41 908.66 1324.85
591.16 725.28 406.71 643.61 900.60 700.34 238.05 479.41 519.44 636.39 501.02 473.35 139.57 229.79 554.15 186.78 433.84 430.92 877.43 898.83 511.66 1039.68 594.24 782.63 148.46 415.36 666.01 600.43 504.47 456.50 670.62 467.81 716.77 627.21 696.43 604.02 395.30 502.13 397.15 608.83 739.01 480.26 329.17 1406.56 840.88 764.85 484.68 310.74 552.65 364.47 637.71 335.82 190.52 805.23 685.98 543.04 436.73 505.65 769.33 323.95 578.62 598.05 705.43 386.85 550.65 1051.68 0.00 602.42 1095.48 433.93 559.07 240.38 448.73 725.08 402.05 886.49 587.45 587.88 591.31 23.60 382.47 629.80 1072.06 365.43 1107.66 930.26 160.42 449.69 545.23 672.15 93.91 984.13 169.17 598.29 968.88 275.01 467.37 437.33 411.07 588.97 497.52
982.39 418.80 877.05 849.84 739.32 416.19 840.47 1050.57 447.11 162.94 464.97 129.07 741.99 735.99 412.40 475.04 431.41 234.43 824.33 1002.78 584.38 989.62 517.91 311.97 541.21 294.17 112.02 511.89 140.54 453.99 312.56 721.03 456.65 402.76 190.73 1156.83 427.81 1015.35 517.12 407.82 514.53 322.24 494.51 1536.46 1200.55 989.72 345.45 615.67 720.65 459.21 285.19 590.59 690.76 318.31 125.97 333.29 473.76 345.60 338.23 754.23 188.79 516.29 460.04 485.91 468.89 937.93 602.42 0.00 1284.05 553.90 565.27 688.72 215.28 504.59 406.47 581.88 294.88 191.51 226.68 626.02 462.83 857.62 1268.64 503.51 1283.22 983.49 624.66 493.49 177.85 215.01 594.86 656.78 735.68 490.42 1082.85 776.35 524.81 424.27 523.97 72.62 1071.37
577.13 1141.45 786.18 536.49 1177.64 1041.01 930.24 831.93 947.07 1201.32 943.56 1211.57 1047.35 1176.25 966.52 1083.27 1369.44 1106.21 805.87 281.27 794.54 780.67 898.43 1404.18 1084.06 1041.14 1279.03 822.57 1238.89 857.91 1165.64 774.45 1000.55 999.26 1432.13 1010.29 972.82 1086.39 918.86 978.51 1070.51 1056.52 951.09 438.12 643.19 403.44 999.11 784.74 727.13 916.92 1154.50 809.82 989.58 1284.02 1393.39 1027.52 838.14 1028.57 1453.90 924.19 1170.12 878.25 1020.75 1352.00 899.57 1128.07 1095.48 1284.05 0.00 894.90 841.95 954.34 1068.77 1028.56 939.59 1201.81 1064.15 1157.10 1102.27 1104.29 938.84 563.09 164.45 979.52 115.18 674.66 1034.30 904.65 1151.10 1419.58 1122.14 1274.24 1103.30 932.44 416.81 1147.97 890.66 949.95 869.19 1266.36 852.73
545.96 409.89 426.25 419.17 574.99 324.83 553.18 754.29 220.28 433.57 167.38 424.83 427.48 654.75 242.87 332.53 634.20 389.99 537.46 674.39 100.36 674.59 262.39 682.57 381.05 269.85 511.28 186.53 455.95 142.60 433.07 265.74 364.51 297.10 648.21 826.55 218.84 817.26 36.78 292.58 424.49 288.77 104.76 1097.11 806.16 523.30 231.36 164.87 327.80 94.69 356.27 189.95 362.15 568.99 618.74 272.83 162.23 260.82 720.81 361.75 402.37 203.04 368.68 556.09 173.77 782.55 433.93 553.90 894.90 0.00 147.77 349.56 347.16 372.81 212.32 549.74 331.67 408.07 353.24 457.53 194.52 363.65 880.63 203.04 851.01 528.66 344.56 99.10 398.96 672.49 388.96 620.15 547.63 234.59 648.11 649.79 67.22 138.17 103.49 517.10 733.49
493.01 411.15 543.45 402.53 547.65 356.40 548.91 768.65 223.46 478.58 196.43 514.97 518.49 709.19 201.20 432.44 703.93 409.61 490.48 657.75 47.41 724.17 164.61 774.54 418.55 375.78 567.63 147.69 491.76 207.98 410.00 350.55 325.67 263.30 724.52 927.70 321.69 812.99 171.73 239.63 386.06 340.73 229.90 1165.48 826.38 542.04 297.14 312.64 224.58 194.60 402.84 291.10 433.04 531.30 673.22 264.03 196.44 317.64 756.62 475.91 449.95 194.05 345.87 691.04 147.91 684.77 559.07 565.27 841.95 147.77 0.00 335.47 439.13 320.43 258.61 526.93 371.18 430.07 404.24 541.25 242.09 441.41 898.79 282.77 889.47 578.24 415.43 137.43 387.42 708.48 488.87 624.57 598.37 201.25 684.24 719.29 143.53 232.19 217.65 540.98 789.45
491.10 644.80 319.63 480.77 819.48 655.84 213.44 433.18 483.42 636.40 461.64 559.65 183.02 392.16 473.03 229.58 534.14 454.29 799.46 673.07 362.46 835.81 500.08 866.64 262.81 466.70 727.73 483.16 568.67 309.27 637.68 244.60 632.13 565.39 773.98 611.54 333.06 477.52 326.86 550.87 657.89 511.83 319.76 1243.72 753.80 554.69 454.42 184.69 376.44 290.99 597.29 159.61 97.57 752.48 682.88 482.83 293.45 483.88 833.53 156.54 601.99 506.65 648.39 516.06 464.47 970.75 240.38 688.72 954.34 349.56 335.47 0.00 532.29 651.58 394.90 829.45 500.44 587.89 557.58 216.78 326.23 395.04 859.49 287.35 902.12 689.88 79.96 362.69 591.89 756.16 238.32 899.75 352.64 485.49 868.75 432.56 384.65 401.31 272.42 616.45 453.98
767.11 363.11 665.25 700.24 645.57 357.68 686.78 919.43 291.10 205.26 272.68 183.36 588.30 678.52 299.12 359.69 395.36 78.00 718.40 787.50 405.65 911.37 365.90 335.41 450.47 78.89 299.95 372.09 213.97 274.54 297.23 549.77 385.28 283.24 382.20 1052.75 212.53 925.24 320.81 321.23 455.24 116.48 318.63 1389.88 999.30 829.97 157.53 403.87 544.77 332.42 246.86 428.95 566.98 379.26 341.04 184.67 281.89 144.43 385.13 615.85 129.95 369.71 401.53 317.25 322.31 821.17 448.73 215.28 1068.77 347.16 439.13 532.29 0.00 437.48 191.19 465.12 183.57 156.75 142.58 472.33 299.22 670.32 1053.36 339.90 1067.94 850.91 465.63 306.19 127.09 357.92 400.34 562.76 617.90 369.95 932.14 723.74 309.53 208.99 366.67 197.59 938.61
754.07 185.71 799.00 558.27 413.43 88.40 847.86 972.05 205.64 416.71 255.35 526.08 800.29 916.23 194.09 595.39 759.43 434.07 390.92 813.49 308.47 689.09 155.82 669.02 664.05 370.68 515.70 205.99 503.14 377.90 267.14 565.97 122.04 191.89 654.91 1106.38 417.21 1111.94 382.18 116.25 70.83 321.00 432.70 1282.75 974.63 735.56 292.04 537.68 437.32 397.40 295.70 528.78 722.17 360.03 612.30 261.41 358.13 315.02 718.74 658.76 389.03 235.86 126.64 744.17 237.70 485.37 725.08 504.59 1028.56 372.81 320.43 651.58 437.48 0.00 382.36 264.79 280.14 388.57 336.29 748.68 490.39 575.91 1022.81 458.41 973.54 685.77 665.80 312.18 345.92 679.19 690.50 362.43 838.20 192.46 671.91 925.56 305.59 287.75 462.16 431.97 992.85
664.31 414.30 515.80 550.25 589.62 362.89 604.88 770.12 208.46 337.59 171.65 302.83 453.10 631.84 243.17 297.18 450.33 269.19 625.03 805.47 233.02 761.92 273.26 526.60 309.92 196.72 413.90 279.01 319.16 105.58 301.15 401.14 374.05 259.40 556.18 878.73 63.08 833.04 194.30 266.11 428.03 188.63 127.44 1288.85 829.97 646.69 135.38 254.42 353.58 141.23 235.66 269.15 384.89 448.38 515.46 196.82 101.45 163.44 576.32 424.66 306.39 268.68 375.20 451.45 221.28 793.42 402.05 406.47 939.59 212.32 258.61 394.90 191.19 382.36 0.00 532.35 209.54 312.09 257.26 417.14 108.03 487.04 934.98 148.71 984.25 736.97 316.18 122.91 280.64 531.90 308.14 629.99 525.85 268.92 805.63 622.39 154.79 126.35 205.99 373.37 756.17
929.25 188.87 906.20 733.45 330.84 224.91 997.77 1236.24 367.05 418.94 390.31 534.38 907.43 1074.24 369.27 756.80 840.77 541.71 528.06 988.67 483.65 938.98 380.60 777.14 817.37 500.40 526.52 379.24 565.50 541.20 336.28 733.03 201.26 328.40 655.90 1281.56 578.08 1261.85 561.98 291.43 236.87 435.50 603.74 1414.50 1147.88 933.67 459.36 644.82 613.20 572.58 296.69 669.90 895.42 397.45 659.71 397.92 536.00 451.53 803.40 822.14 436.44 402.92 181.06 782.37 417.17 356.05 886.49 581.88 1201.81 549.74 526.93 829.45 465.12 264.79 532.35 0.00 393.54 424.05 400.97 910.09 609.42 817.51 1201.64 610.25 1218.75 851.81 817.64 487.36 418.38 680.18 821.85 97.64 963.42 343.96 936.70 1086.97 519.24 449.16 597.56 552.61 1215.44
789.69 281.33 671.91 666.43 532.59 211.37 708.58 912.26 171.46 195.22 224.56 284.87 572.42 795.46 198.73 431.06 578.65 258.20 607.17 895.86 360.57 878.60 223.03 518.98 456.67 172.09 287.81 286.25 274.25 206.24 173.65 515.89 201.71 107.88 456.06 1022.05 236.43 972.66 311.98 244.53 271.67 109.75 289.37 1304.04 985.08 779.79 111.26 410.53 456.10 254.07 96.85 385.45 588.83 252.04 397.47 108.73 226.01 81.80 539.11 534.62 179.82 245.82 221.91 500.82 236.47 743.19 587.45 294.88 1064.15 331.67 371.18 500.44 183.57 280.14 209.54 393.54 0.00 146.71 95.08 594.24 317.57 642.15 1035.64 348.67 1084.91 777.18 489.53 278.02 117.03 480.34 493.54 491.18 689.57 243.64 787.97 750.24 264.45 231.57 318.83 262.97 918.10
846.25 253.41 729.70 747.70 586.14 302.72 793.11 933.68 279.58 48.51 324.94 230.99 683.16 784.42 307.71 515.76 485.56 234.75 632.82 876.12 419.05 854.42 369.74 463.10 533.11 195.63 192.93 404.08 199.87 338.73 194.61 606.92 343.18 254.28 341.86 1111.53 301.88 987.22 415.45 335.48 323.02 130.73 383.50 1397.00 1028.70 845.42 176.71 493.22 587.11 357.54 127.36 474.93 656.33 222.51 250.76 193.26 318.96 154.31 454.59 680.56 88.95 376.83 346.57 435.33 329.43 780.10 587.88 191.51 1157.10 408.07 430.07 587.89 156.75 388.57 312.09 424.05 146.71 0.00 54.83 602.97 395.75 685.77 1136.27 369.65 1156.56 865.16 554.98 321.64 42.65 366.14 493.97 521.69 726.20 344.80 934.68 745.19 353.52 288.13 422.30 197.57 954.48
792.72 287.71 699.77 698.68 610.30 247.89 769.47 929.55 256.17 103.34 271.58 189.79 637.07 729.59 284.07 479.25 496.18 220.58 683.35 930.08 364.22 860.60 318.11 477.99 493.89 200.52 225.72 351.60 206.05 283.90 175.10 575.68 288.35 199.45 396.69 1087.08 247.05 1002.89 375.28 338.62 347.55 135.85 378.21 1342.17 973.87 790.59 121.88 438.39 532.28 342.91 104.28 450.48 601.50 277.34 305.59 169.62 264.13 118.92 470.91 629.70 111.62 322.00 291.74 459.83 274.60 757.02 591.31 226.68 1102.27 353.24 404.24 557.58 142.58 336.29 257.26 400.97 95.08 54.83 0.00 609.15 340.92 630.94 1082.91 374.77 1132.18 870.28 500.15 266.81 48.83 419.43 500.15 498.61 709.82 289.97 883.05 760.86 298.69 234.60 378.62 184.63 950.35
614.76 741.98 430.31 639.77 924.20 723.94 261.65 481.28 543.04 651.48 524.62 496.95 163.17 253.39 577.75 163.18 417.98 454.52 901.03 889.85 535.26 1052.59 617.84 777.79 170.12 430.45 689.61 624.03 528.07 464.14 685.71 461.38 740.37 642.30 713.14 627.62 389.92 519.13 420.75 632.43 762.61 495.35 352.77 1402.72 864.48 771.47 508.28 334.34 576.25 388.07 652.80 359.42 214.12 781.63 709.58 558.13 460.33 520.74 792.93 338.08 589.99 621.65 729.03 363.25 574.25 1075.28 23.60 626.02 1104.29 457.53 541.25 216.78 472.33 748.68 417.14 910.09 594.24 602.97 609.15 0.00 382.51 611.82 1076.27 341.83 1118.90 906.66 136.82 473.29 560.32 688.86 109.00 1007.73 145.57 621.89 945.28 298.61 490.97 460.93 434.67 565.60 489.04
616.60 500.97 415.48 486.51 674.87 433.29 534.97 700.21 301.32 421.25 279.68 333.76 406.52 559.58 328.42 219.33 519.39 377.22 675.23 741.73 271.59 792.71 369.73 602.26 234.01 227.51 498.96 293.87 364.88 141.51 409.18 309.05 448.56 335.09 603.22 813.66 93.87 756.39 169.12 374.14 484.17 276.45 101.14 1249.46 849.65 548.53 219.04 154.10 327.28 125.06 343.69 177.06 347.62 556.41 546.39 260.28 161.28 248.50 626.65 355.68 390.05 341.79 428.36 453.61 314.05 823.65 382.47 462.83 938.84 194.52 242.09 326.23 299.22 490.39 108.03 609.42 317.57 395.75 340.92 382.51 0.00 509.78 923.94 40.68 895.96 720.80 246.27 210.28 386.64 578.94 291.09 660.49 486.09 353.32 780.45 514.36 204.99 232.28 181.29 449.38 721.01
193.25 695.21 223.09 145.06 855.84 623.43 486.58 642.57 543.45 734.28 496.11 779.49 578.06 651.03 561.44 546.06 906.98 690.92 625.06 400.28 464.01 560.30 510.19 1005.73 636.84 623.51 824.79 501.10 803.29 435.91 761.86 402.03 649.99 634.22 946.80 761.01 550.12 750.66 400.43 556.15 646.74 602.28 458.57 908.01 529.81 159.65 544.87 456.80 355.39 449.35 685.06 466.22 492.61 861.66 936.53 562.81 433.37 574.33 1004.48 386.18 715.88 445.42 636.45 828.87 467.90 1030.35 629.80 857.62 563.09 363.65 441.41 395.04 670.32 575.91 487.04 817.51 642.15 685.77 630.94 611.82 509.78 0.00 556.35 469.10 507.08 683.87 475.00 364.13 679.77 922.52 633.36 792.66 540.21 473.55 514.78 696.25 396.01 462.34 467.14 815.57 663.37
570.39 1112.39 750.22 521.08 1141.35 1045.33 923.50 951.90 864.43 1184.78 811.33 1191.49 1019.80 1169.51 899.14 1026.47 1306.50 1117.24 739.96 265.86 921.88 685.45 912.94 1388.77 1021.12 1033.75 1222.81 898.24 1210.65 829.40 1109.62 614.89 1020.70 970.71 1267.68 1124.31 944.31 1187.58 843.85 953.82 1076.39 1019.71 893.85 471.95 766.86 396.70 998.90 771.96 674.21 876.71 1109.52 746.88 906.32 1259.33 1289.90 943.01 849.17 996.62 1415.18 913.31 1131.43 884.49 1020.58 1309.06 860.96 963.62 1072.06 1268.64 164.45 880.63 898.79 859.49 1053.36 1022.81 934.98 1201.64 1035.64 1136.27 1082.91 1076.27 923.94 556.35 0.00 955.31 49.27 539.52 939.45 901.18 1111.55 1291.96 978.15 1208.33 1096.56 908.60 350.90 1141.23 904.78 875.02 811.95 1238.92 957.37
635.57 479.55 456.16 445.83 654.87 449.45 496.09 661.33 273.71 418.16 255.29 374.44 367.64 556.23 308.42 178.65 533.38 342.14 683.42 701.05 255.54 821.66 348.51 642.94 248.00 268.19 517.33 334.55 388.14 164.33 443.40 340.42 408.99 375.77 643.90 839.69 134.55 760.17 166.26 342.16 478.95 238.92 111.15 1208.78 888.04 589.21 259.72 194.78 337.29 108.35 384.37 217.74 308.74 577.61 587.07 300.96 184.10 266.87 653.00 365.28 378.54 332.47 429.19 465.13 285.07 833.66 365.43 503.51 979.52 203.04 282.77 287.35 339.90 458.41 148.71 610.25 348.67 369.65 374.77 341.83 40.68 469.10 955.31 0.00 936.64 704.09 207.39 181.30 402.48 619.62 286.85 701.17 445.41 352.56 777.59 555.04 213.18 191.60 143.36 485.62 682.13
521.12 1149.20 700.95 535.66 1092.08 1059.41 874.23 902.63 913.70 1205.07 860.60 1208.08 1047.06 1120.24 948.41 1027.26 1335.09 1145.94 690.69 280.44 893.97 679.80 952.62 1403.35 1070.39 1083.02 1228.12 904.10 1239.20 878.67 1158.89 664.16 1069.97 1019.98 1316.95 1075.04 989.83 1138.31 869.83 977.68 1044.37 1068.98 895.08 422.68 717.59 347.43 1048.17 821.23 671.12 877.94 1156.00 796.15 933.58 1283.19 1339.17 992.28 898.44 1045.89 1453.07 864.04 1180.70 881.40 1064.99 1313.74 910.23 1012.89 1107.66 1283.22 115.18 851.01 889.47 902.12 1067.94 973.54 984.25 1218.75 1084.91 1156.56 1132.18 1118.90 895.96 507.08 49.27 936.64 0.00 586.52 982.08 871.21 1160.82 1341.23 1027.42 1159.06 1047.29 957.87 301.63 1091.96 903.09 924.29 813.18 1265.53 923.43
859.09 754.40 807.74 561.17 646.54 653.96 902.20 1123.06 651.17 913.67 653.30 925.88 841.97 1066.40 685.88 817.57 1162.86 907.41 463.49 599.67 625.65 145.93 602.53 1186.32 907.33 792.55 1012.39 526.67 957.00 671.26 909.57 615.88 684.90 757.45 1174.22 1301.42 736.44 1166.28 565.44 719.14 614.94 734.43 631.04 974.64 882.63 718.93 760.02 648.94 469.42 595.74 858.60 674.02 778.08 925.59 1109.46 777.91 674.52 762.38 1221.86 644.65 905.89 557.91 670.75 1084.75 603.67 891.74 930.26 983.49 674.66 528.66 578.24 689.88 850.91 685.77 736.97 851.81 777.18 865.16 870.28 906.66 720.80 683.87 539.52 704.09 586.52 0.00 769.84 627.76 894.21 1170.00 890.01 931.86 1021.93 636.54 363.80 1091.51 595.88 666.83 632.15 910.87 1143.86
513.81 660.20 307.31 554.44 834.10 612.72 288.70 453.94 476.49 580.48 462.68 577.07 160.25 352.67 487.65 149.62 454.18 471.71 815.43 753.03 422.29 915.77 536.17 786.68 183.34 386.74 658.19 531.09 584.01 368.01 617.33 324.56 616.38 529.97 700.48 632.30 253.10 552.78 307.78 549.55 672.51 435.68 239.80 1317.39 741.48 634.65 378.27 264.65 456.40 275.10 551.84 239.57 101.35 741.57 746.31 439.71 353.88 407.73 785.88 234.78 549.28 511.49 636.58 436.10 464.09 962.31 160.42 624.66 1034.30 344.56 415.43 79.96 465.63 665.80 316.18 817.64 489.53 554.98 500.15 136.82 246.27 475.00 939.45 207.39 982.08 769.84 0.00 360.32 545.87 676.20 158.36 899.24 282.39 545.92 919.11 394.10 378.00 398.99 321.70 552.04 474.74
555.71 331.08 503.06 435.08 539.65 329.18 535.68 770.05 179.32 370.15 131.98 415.36 504.29 660.13 207.53 323.06 573.24 326.79 502.12 690.30 110.11 773.69 208.10 641.60 364.45 260.14 461.42 180.77 439.16 71.78 397.73 337.43 303.87 270.09 612.87 853.20 185.99 799.76 108.47 195.93 362.11 238.91 120.52 1171.34 707.06 523.78 181.50 241.68 286.82 85.22 320.93 216.60 454.37 501.44 572.40 198.68 69.24 210.96 691.32 408.24 352.51 151.17 306.30 565.87 103.77 690.36 449.69 493.49 904.65 99.10 137.43 362.69 306.19 312.18 122.91 487.36 278.02 321.64 266.81 473.29 210.28 364.13 901.18 181.30 871.21 627.76 360.32 0.00 315.64 633.45 379.49 585.00 549.31 187.22 719.80 705.35 31.88 98.21 149.98 451.44 749.25
832.47 296.06 718.74 742.03 561.47 296.72 768.39 975.27 288.49 91.16 300.22 188.34 682.79 775.02 282.99 486.78 494.73 205.09 675.47 914.59 413.05 811.77 340.06 444.19 490.46 205.98 206.84 400.43 157.22 302.00 198.49 564.27 318.74 224.91 362.99 1068.88 292.77 976.22 410.30 337.54 365.67 173.38 342.32 1391.00 1022.70 839.42 167.60 457.36 568.46 371.10 121.69 432.28 647.22 265.16 286.06 168.54 312.96 167.75 422.08 639.54 62.79 362.85 338.94 444.34 323.43 774.43 545.23 177.85 1151.10 398.96 387.42 591.89 127.09 345.92 280.64 418.38 117.03 42.65 48.83 560.32 386.64 679.77 1111.55 402.48 1160.82 894.21 545.87 315.64 0.00 370.60 451.32 516.02 683.55 338.80 905.00 755.56 347.52 274.35 424.22 178.96 971.05
1115.77 597.18 983.51 1003.83 929.91 598.72 910.20 1129.63 625.16 377.95 593.95 328.01 811.72 895.31 593.87 678.46 470.09 368.95 993.76 1145.42 701.39 1124.13 605.92 110.48 687.17 407.09 278.38 679.15 307.70 561.67 460.29 846.95 630.95 556.95 24.28 1250.74 540.73 1104.76 670.08 622.83 642.25 435.57 629.36 1705.99 1327.50 1082.17 485.73 732.07 855.50 658.15 383.49 714.96 777.55 361.92 115.38 512.27 581.44 463.52 123.22 888.17 337.92 666.25 610.75 391.98 638.42 1036.23 672.15 215.01 1419.58 672.49 708.48 756.16 357.92 679.19 531.90 680.18 480.34 366.14 419.43 688.86 578.94 922.52 1291.96 619.62 1341.23 1170.00 676.20 633.45 370.60 0.00 579.86 700.39 784.49 569.28 1268.31 899.01 605.27 566.91 708.01 287.63 1108.83
559.87 632.98 465.67 683.64 844.88 622.14 331.96 573.32 509.57 542.48 479.79 528.52 233.48 323.70 498.43 119.82 409.02 423.16 881.61 911.39 441.46 1001.31 580.57 690.34 187.13 321.45 658.16 560.26 559.64 392.82 576.71 482.92 659.24 533.30 604.14 697.93 353.92 524.90 352.18 574.25 683.29 386.35 329.57 1444.09 899.84 733.56 400.09 337.40 555.71 294.27 543.80 362.48 259.71 716.48 605.59 449.13 373.05 411.74 703.08 393.14 514.11 530.66 665.99 330.91 483.26 1052.08 93.91 594.86 1122.14 388.96 488.87 238.32 400.34 690.50 308.14 821.85 493.54 493.97 500.15 109.00 291.09 633.36 978.15 286.85 1027.42 890.01 158.36 379.49 451.32 579.86 0.00 908.66 232.23 565.09 901.92 368.92 411.37 434.49 359.03 522.24 591.43
985.91 286.51 1003.84 831.09 344.40 295.32 1059.38 1328.64 464.69 512.47 487.95 632.02 1005.07 1171.88 466.91 854.44 938.41 639.35 468.37 1050.34 581.29 903.43 478.24 810.87 892.98 587.21 565.77 476.88 633.02 626.07 433.92 803.44 298.90 398.81 724.67 1379.20 646.14 1323.46 656.93 389.07 334.51 533.14 686.27 1316.86 1245.52 940.33 520.97 742.46 683.61 663.87 394.33 767.54 982.30 338.47 728.77 459.53 606.30 513.14 823.61 919.60 534.08 473.33 278.70 880.01 514.81 453.69 984.13 656.78 1274.24 620.15 624.57 899.75 562.76 362.43 629.99 97.64 491.18 521.69 498.61 1007.73 660.49 792.66 1208.33 701.17 1159.06 931.86 899.24 585.00 516.02 700.39 908.66 0.00 1061.06 441.60 1034.34 1159.95 616.88 546.80 695.20 638.89 1313.08
662.19 774.55 548.24 664.32 1037.67 822.39 309.08 392.91 656.51 774.71 635.70 606.61 187.83 110.82 691.22 266.76 545.36 572.10 994.03 919.54 550.96 1079.56 708.75 710.99 315.69 553.68 799.27 678.92 637.73 483.33 808.94 539.83 818.75 739.64 774.61 536.52 462.77 373.56 562.51 743.18 876.08 618.58 498.34 1427.27 900.59 699.86 587.94 382.76 624.67 504.60 761.51 407.84 301.31 885.21 819.24 649.38 480.07 617.40 661.27 385.15 693.57 693.27 835.01 467.25 651.09 1220.85 169.17 735.68 1103.30 547.63 598.37 352.64 617.90 838.20 525.85 963.42 689.57 726.20 709.82 145.57 486.09 540.21 1096.56 445.41 1047.29 1021.93 282.39 549.31 683.55 784.49 232.23 1061.06 0.00 672.11 1048.86 156.04 558.71 575.37 512.94 669.18 413.71
645.68 222.80 660.84 476.26 434.34 190.07 698.93 918.67 118.88 393.31 97.27 468.14 645.88 782.93 87.89 508.63 719.25 428.47 443.86 731.48 203.28 706.73 36.64 679.76 551.67 317.83 446.50 109.87 496.02 211.81 326.84 440.22 176.44 200.22 593.56 1038.80 321.64 963.01 257.10 82.60 210.75 255.49 306.12 1151.02 878.51 633.20 257.00 399.46 318.14 270.82 284.01 402.20 583.06 388.11 575.84 202.34 192.04 227.54 692.50 562.64 401.59 110.11 162.90 687.20 83.45 556.80 598.29 490.42 932.44 234.59 201.25 485.49 369.95 192.46 268.92 343.96 243.64 344.80 289.97 621.89 353.32 473.55 908.60 352.56 957.87 636.54 545.92 187.22 338.80 569.28 565.09 441.60 672.11 0.00 846.38 828.15 194.50 160.96 318.61 427.67 934.85
528.82 857.62 735.11 415.86 925.73 760.31 881.93 1099.77 791.90 983.19 815.49 999.38 982.43 1127.94 826.61 782.10 1146.69 1004.85 626.96 235.87 731.65 378.17 827.73 1267.55 872.88 874.32 1075.78 818.41 1030.50 756.55 939.05 722.83 793.95 863.80 1244.03 1158.79 793.39 1146.01 611.33 763.78 742.74 860.78 679.31 610.84 725.29 355.13 862.29 734.22 626.19 669.24 884.82 709.14 868.95 1031.94 1185.44 886.44 736.78 832.83 1295.36 856.73 967.79 762.73 798.55 1068.58 798.97 985.92 968.88 1082.85 416.81 648.11 684.24 868.75 932.14 671.91 805.63 936.70 787.97 934.68 883.05 945.28 780.45 514.78 350.90 777.59 301.63 363.80 919.11 719.80 905.00 1268.31 901.92 1034.34 1048.86 846.38 0.00 1099.66 687.92 786.28 706.39 1050.94 1078.97
602.73 920.91 513.11 792.90 1101.08 873.43 249.62 333.31 719.92 793.70 773.02 647.28 249.54 45.22 754.63 422.80 688.08 705.93 1132.70 1018.59 707.00 1208.14 824.53 867.03 423.47 690.37 839.94 755.46 678.40 639.37 860.05 602.29 913.89 790.68 923.29 380.48 608.23 242.03 613.01 809.31 939.49 696.39 604.18 1514.64 783.62 744.53 638.98 512.15 748.75 639.42 827.95 537.23 339.81 967.70 859.91 700.42 636.11 668.44 817.31 446.86 692.77 811.14 905.91 623.29 795.47 1326.69 275.01 776.35 1147.97 649.79 719.29 432.56 723.74 925.56 622.39 1086.97 750.24 745.19 760.86 298.61 514.36 696.25 1141.23 555.04 1091.96 1091.51 394.10 705.35 755.56 899.01 368.92 1159.95 156.04 828.15 1099.66 0.00 689.60 712.34 587.39 708.59 312.51
541.72 362.96 493.47 466.96 507.77 336.46 567.56 787.73 182.65 402.03 160.68 431.29 494.70 669.53 175.65 354.94 605.12 325.93 470.24 722.18 96.12 741.81 205.66 644.94 396.33 292.02 493.30 182.97 407.28 75.38 365.85 305.55 326.96 277.37 580.99 880.44 190.29 831.64 76.59 227.81 360.51 270.79 138.20 1164.33 738.94 555.66 213.38 232.09 308.90 117.10 289.05 243.84 429.37 501.77 568.63 230.56 95.15 242.84 672.14 426.62 345.36 158.45 338.18 569.47 111.05 722.24 467.37 524.81 890.66 67.22 143.53 384.65 309.53 305.59 154.79 519.24 264.45 353.52 298.69 490.97 204.99 396.01 904.78 213.18 903.09 595.88 378.00 31.88 347.52 605.27 411.37 616.88 558.71 194.50 687.92 689.60 0.00 100.54 170.71 461.53 766.93
558.12 287.95 564.42 491.25 463.27 263.01 614.75 834.49 82.11 336.64 63.69 392.35 559.24 667.12 116.82 370.25 576.68 286.99 522.07 746.47 196.66 812.76 156.91 544.40 436.27 240.06 400.23 163.10 422.96 92.04 355.77 403.91 279.44 199.66 591.19 951.41 189.43 870.85 174.95 171.50 301.68 177.72 218.73 1180.89 805.27 621.99 175.56 303.04 371.00 183.43 288.54 314.81 474.63 477.01 535.89 157.86 111.81 149.77 594.12 430.84 312.62 160.72 268.10 526.24 113.32 677.07 437.33 424.27 949.95 138.17 232.19 401.31 208.99 287.75 126.35 449.16 231.57 288.13 234.60 460.93 232.28 462.34 875.02 191.60 924.29 666.83 398.99 98.21 274.35 566.91 434.49 546.80 575.37 160.96 786.28 712.34 100.54 0.00 221.32 406.58 847.46
492.21 468.17 391.56 433.97 668.63 428.32 485.86 705.60 303.43 458.95 270.87 394.90 392.79 551.26 322.18 302.60 609.93 394.64 629.41 604.73 203.85 769.41 323.45 702.08 333.99 329.57 532.48 258.81 426.02 146.34 460.92 197.06 436.79 336.35 686.98 749.41 215.56 749.94 95.06 345.91 497.15 314.15 81.90 1085.06 825.73 465.75 256.74 130.18 302.46 64.76 415.68 112.81 369.99 570.87 595.88 315.95 126.57 286.20 690.88 258.26 427.75 286.42 456.28 531.82 239.02 804.41 411.07 523.97 869.19 103.49 217.65 272.42 366.67 462.16 205.99 597.56 318.83 422.30 378.62 434.67 181.29 467.14 811.95 143.36 813.18 632.15 321.70 149.98 424.22 708.01 359.03 695.20 512.94 318.61 706.39 587.39 170.71 221.32 0.00 487.17 700.62
957.36 378.96 840.25 845.70 686.23 343.57 827.02 1005.98 374.49 155.56 427.59 115.62 712.29 663.37 339.78 402.42 358.79 162.16 805.02 985.09 511.76 990.73 464.31 384.59 493.20 276.48 165.66 473.27 118.64 450.00 280.69 684.23 384.03 370.85 263.35 1089.07 410.12 942.73 480.32 417.62 443.23 287.63 457.71 1463.84 1158.50 952.92 287.18 578.87 653.95 422.41 255.92 553.79 653.39 329.56 198.59 323.46 430.23 287.55 383.50 681.61 116.17 443.67 387.42 420.53 396.27 908.66 588.97 72.62 1266.36 517.10 540.98 616.45 197.59 431.97 373.37 552.61 262.97 197.57 184.63 565.60 449.38 815.57 1238.92 485.62 1265.53 910.87 552.04 451.44 178.96 287.63 522.24 638.89 669.18 427.67 1050.94 708.59 461.53 406.58 487.17 0.00 1021.10
550.15 1026.57 440.28 759.53 1246.58 1019.68 268.31 20.80 865.42 1002.99 881.23 959.79 360.64 357.73 900.13 624.36 858.64 908.27 1104.65 946.36 803.11 1174.77 925.10 1098.34 645.98 859.72 1102.16 920.02 990.91 762.58 1002.72 637.75 1053.12 966.73 1084.55 199.16 727.84 239.63 696.71 945.18 1063.68 823.75 628.73 1290.85 605.71 723.84 828.47 623.25 773.05 664.03 983.29 613.59 474.12 1162.44 993.45 868.16 742.81 851.70 1074.98 503.91 995.21 900.42 1051.41 852.29 853.02 1324.85 497.52 1071.37 852.73 733.49 789.45 453.98 938.61 992.85 756.17 1215.44 918.10 954.48 950.35 489.04 721.01 663.37 957.37 682.13 923.43 1143.86 474.74 749.25 971.05 1108.83 591.43 1313.08 413.71 934.85 1078.97 312.51 766.93 847.46 700.62 1021.10 0.00
DEMAND_SECTION
1 0
2 56
3 65
4 56
5 71
6 52
7 73
8 100
9 53
10 85
11 71
12 58
13 50
14 60
15 92
16 86
17 65
18 63
19 77
20 83
21 88
22 55
23 99
24 53
25 58
26 55
27 79
28 96
29 51
30 63
31 88
32 84
33 62
34 63
35 88
36 95
37 76
38 88
39 53
40 53
41 61
42 53
43 57
44 57
45 74
46 58
47 99
48 75
49 77
50 84
51 67
52 92
53 80
54 84
55 71
56 83
57 81
58 99
59 57
60 61
61 71
62 93
63 72
64 97
65 77
66 71
67 92
68 60
69 88
70 51
71 95
72 78
73 56
74 88
75 77
76 92
77 64
78 74
79 94
80 54
81 93
82 55
83 56
84 51
85 98
86 93
87 56
88 97
89 95
90 86
91 60
92 55
93 97
94 77
95 53
96 64
97 51
98 51
99 65
100 51
101 54
DEPOT_SECTION
1
-1
EOF
