NAME: LDG100_3326_rain_100_0020
COMMENT: CVRP with travel times.  rootPos=3,custPos=3,demandType=2,avgRouteSizeIndex=6,weather=rain,lambda_cluster=1,lambda_random=4, T1=300,T2=700,beta=1, alpha(i,j) ~ U(0.8,1.2)
TYPE: CVRP
DIMENSION: 101
EDGE_WEIGHT_TYPE: EXPLICIT
EDGE_WEIGHT_FORMAT: FULL_MATRIX
CAPACITY: 163
NODE_COORD_SECTION
1 0 0
2 711 658
3 586 466
4 857 105
5 870 165
6 253 279
7 587 148
8 405 815
9 743 505
10 329 218
11 854 198
12 954 35
13 833 77
14 27 401
15 713 125
16 113 883
17 626 545
18 632 534
19 594 399
20 497 963
21 829 199
22 375 422
23 852 697
24 867 132
25 296 918
26 500 80
27 553 458
28 779 116
29 610 394
30 240 79
31 713 569
32 788 816
33 139 121
34 50 828
35 176 503
36 67 840
37 607 542
38 22 583
39 793 156
40 247 352
41 655 381
42 624 516
43 43 841
44 852 121
45 659 542
46 807 247
47 573 34
48 7 525
49 800 544
50 951 205
51 483 422
52 436 452
53 900 122
54 617 516
55 555 949
56 637 497
57 880 107
58 869 143
59 705 800
60 382 262
61 339 443
62 127 6
63 675 242
64 858 81
65 558 727
66 264 708
67 697 202
68 274 742
69 603 565
70 677 522
71 865 130
72 898 171
73 58 696
74 648 574
75 899 350
76 396 86
77 686 340
78 821 667
79 641 287
80 925 221
81 632 315
82 318 15
83 581 530
84 777 436
85 954 101
86 610 522
87 523 891
88 401 943
89 672 779
90 145 158
91 594 411
92 838 95
93 808 498
94 535 888
95 801 67
96 602 392
97 190 786
98 508 604
99 279 572
100 566 607
101 524 578
EDGE_WEIGHT_SECTION
0.00 983.72 770.03 871.04 915.65 417.12 639.65 1016.94 919.91 433.09 963.75 1006.90 894.25 778.56 739.61 993.33 864.89 860.30 706.74 1176.95 894.20 540.38 1131.60 908.77 1128.80 533.85 756.72 876.69 732.50 229.45 920.10 1174.53 225.76 999.58 614.44 1033.81 881.86 761.67 940.15 573.33 793.28 846.06 1017.68 899.52 888.05 922.91 635.30 742.15 1013.24 1018.09 695.16 639.48 907.11 852.23 1156.77 810.43 859.97 914.57 1129.10 488.12 586.24 228.70 777.67 843.73 971.37 907.92 787.17 936.30 858.00 867.91 902.53 962.84 871.05 893.81 999.94 401.62 823.66 1075.83 815.80 993.75 784.03 358.13 834.88 891.15 953.07 853.81 1087.72 1103.27 1101.53 293.34 723.49 871.08 957.31 1079.05 870.05 724.27 874.01 799.01 752.52 864.73 864.67
983.72 0.00 285.20 613.61 597.80 615.80 525.44 482.11 200.28 654.59 555.92 747.32 653.07 816.72 550.11 725.61 196.77 211.09 316.75 384.85 560.58 443.34 181.05 589.07 558.35 659.10 320.94 620.40 316.56 794.04 103.39 309.74 845.63 711.36 630.53 729.31 216.03 714.31 583.84 623.56 295.16 204.67 693.26 606.01 162.63 484.71 674.65 810.14 215.95 536.47 425.45 344.24 638.85 214.28 304.97 240.25 636.49 601.66 219.32 571.80 465.90 892.76 467.27 640.92 300.18 422.20 529.51 489.62 215.90 206.37 576.83 619.03 669.03 195.99 468.14 680.98 351.71 213.69 396.85 574.41 365.61 805.63 263.01 315.31 658.46 225.80 363.20 495.23 170.73 779.61 333.50 644.02 281.45 380.99 675.98 299.22 538.30 284.82 535.85 208.22 219.16
770.03 285.20 0.00 488.89 472.20 385.07 343.38 412.37 149.88 419.03 410.02 560.36 516.75 609.45 417.00 658.40 112.60 103.21 100.73 550.73 435.30 229.65 368.58 496.85 623.16 477.04 42.43 467.54 93.31 578.02 181.81 436.24 626.36 748.26 441.50 731.53 116.72 672.12 438.35 455.34 149.45 80.53 730.16 481.78 151.67 354.62 483.07 653.97 243.21 514.70 167.96 185.02 538.99 82.20 541.07 99.65 511.22 475.90 394.50 336.24 275.51 769.01 277.65 506.82 281.83 481.58 320.31 532.79 116.25 157.13 495.10 479.95 633.43 159.21 395.99 558.42 199.30 337.54 205.27 458.70 200.17 616.54 81.11 277.63 577.24 109.49 461.50 589.81 377.48 618.27 83.98 482.04 240.29 463.35 486.42 110.65 597.68 219.00 420.13 186.33 162.88
871.04 613.61 488.89 0.00 85.43 635.74 339.95 824.29 457.88 534.98 121.86 177.43 46.16 912.79 182.16 1072.12 505.59 516.71 395.77 937.15 138.03 607.46 586.13 41.05 1012.59 430.25 472.19 102.91 395.58 641.59 510.22 745.07 742.31 1117.62 819.31 1099.59 517.65 1000.66 114.02 674.67 402.16 473.52 1099.52 28.48 483.25 175.76 343.49 1035.80 476.21 147.05 523.80 566.85 92.07 483.13 918.58 462.64 57.54 54.48 710.62 506.61 612.02 743.83 244.87 27.31 717.84 911.34 211.00 922.22 529.97 511.71 36.78 103.09 999.56 475.33 289.71 515.89 345.61 611.09 335.45 161.47 310.94 599.39 537.01 349.34 88.35 498.92 847.92 953.56 694.14 761.91 412.52 45.35 452.51 848.61 89.85 378.24 1016.20 646.01 790.63 550.40 580.35
915.65 597.80 472.20 85.43 0.00 662.06 323.93 839.02 397.52 620.41 62.18 182.13 123.03 943.62 176.04 1062.65 504.56 490.98 379.08 893.26 88.34 603.56 560.30 57.46 964.06 418.43 441.50 167.69 378.89 687.59 494.41 694.85 816.76 1077.02 815.41 1042.79 511.81 983.97 122.39 707.97 345.99 474.57 1078.84 65.21 470.02 119.59 384.61 1025.42 452.61 129.75 467.63 569.73 73.66 484.18 878.78 435.56 83.21 36.51 686.56 539.91 614.29 784.95 276.38 107.35 699.87 880.65 207.10 902.24 520.50 426.28 56.81 47.19 1032.65 487.74 233.81 532.53 289.44 591.13 339.76 101.89 331.67 636.12 516.91 331.53 130.54 478.94 830.44 936.87 637.97 789.93 395.83 103.72 427.15 830.64 130.97 361.55 996.75 627.61 792.90 565.13 561.95
417.12 615.80 385.07 635.74 662.06 0.00 379.82 610.46 534.95 100.76 690.33 753.62 653.60 361.44 623.17 658.15 497.67 488.28 403.74 850.64 634.37 245.44 753.65 617.49 821.89 398.91 414.15 616.86 424.03 314.49 566.88 810.82 248.55 666.30 279.26 632.07 499.56 414.86 660.34 156.21 481.49 465.60 668.12 634.43 536.74 626.08 437.70 419.96 628.28 735.16 278.04 271.56 667.27 467.27 814.23 484.72 664.91 635.43 772.37 169.49 279.33 403.18 518.81 663.05 603.45 572.74 527.34 571.87 487.59 542.20 605.25 671.56 617.78 537.08 699.00 266.68 502.31 718.85 428.98 733.92 480.54 298.27 452.58 588.15 713.67 494.56 761.41 800.15 762.55 316.13 386.99 672.49 625.36 771.78 642.14 421.27 612.00 504.07 335.40 571.40 488.81
639.65 525.44 343.38 339.95 323.93 379.82 0.00 718.78 393.00 403.53 324.10 433.62 307.60 741.26 269.41 966.66 413.23 410.51 242.65 840.08 254.55 375.92 601.90 308.37 902.76 133.66 343.27 237.04 266.69 446.09 447.03 701.46 533.58 968.67 587.77 949.01 406.07 794.68 307.80 488.80 255.26 381.16 985.06 323.13 438.31 285.35 219.88 799.78 486.33 410.10 394.81 415.74 360.99 371.55 822.72 387.27 346.35 287.42 688.78 320.74 421.78 509.69 156.81 321.38 581.81 782.42 147.52 804.76 429.54 418.54 317.60 336.42 840.14 456.07 445.74 238.03 227.40 545.15 181.85 354.10 159.83 362.68 389.07 341.47 417.87 389.09 750.85 824.67 666.83 466.00 259.40 308.47 444.64 745.00 262.32 260.18 898.52 489.82 600.39 444.89 429.24
1016.94 482.11 412.37 824.29 839.02 610.46 718.78 0.00 524.87 699.17 793.03 963.47 870.45 735.55 792.40 454.65 396.33 384.09 476.13 240.18 750.68 476.56 563.86 849.33 234.75 826.54 454.80 842.94 496.42 924.95 472.21 471.33 859.01 408.67 511.03 442.90 418.85 509.66 829.49 615.49 561.82 416.86 426.77 832.51 432.55 738.95 874.21 605.49 548.53 815.80 562.70 558.44 876.49 407.25 246.46 422.98 851.36 853.44 380.91 680.24 436.78 1013.64 653.05 851.60 241.84 217.55 715.17 284.97 409.57 448.79 861.07 822.07 464.38 385.66 635.45 847.63 574.70 507.11 596.41 834.10 594.09 896.68 404.61 588.85 912.64 411.89 150.95 189.69 343.42 845.28 459.38 861.23 596.87 168.74 857.21 493.66 333.65 321.78 482.35 273.89 359.75
919.91 200.28 149.88 457.88 397.52 534.95 393.00 524.87 0.00 568.91 406.66 549.60 504.04 759.33 422.95 732.52 165.86 160.85 221.60 495.74 360.30 379.53 270.51 424.35 633.93 526.66 192.31 434.29 241.89 698.89 96.89 351.32 776.24 804.78 551.52 805.65 153.16 764.58 430.54 576.21 211.18 152.70 786.68 439.11 124.81 335.45 543.19 803.85 93.33 399.13 317.84 334.90 471.18 162.31 505.25 153.63 462.33 403.40 325.19 486.12 425.39 864.57 283.60 474.24 366.74 597.52 351.41 578.01 190.37 96.15 433.58 444.71 783.31 173.31 300.08 631.03 165.60 228.95 284.73 374.13 233.17 731.52 200.14 132.14 521.12 154.71 469.07 606.12 276.60 729.39 204.85 476.52 90.41 486.86 492.64 239.13 676.47 302.26 512.84 271.05 276.34
433.09 654.59 419.03 534.98 620.41 100.76 403.53 699.17 568.91 0.00 634.31 666.92 552.84 418.04 522.41 740.22 499.05 496.33 378.44 857.69 630.03 313.07 762.38 576.03 809.77 298.15 410.41 637.89 352.68 336.50 551.20 794.66 207.33 737.80 361.33 732.83 476.53 515.62 573.64 183.76 439.03 493.04 755.90 560.92 529.93 574.84 405.66 520.72 597.86 681.00 351.60 368.03 624.51 501.23 832.54 517.59 592.52 589.46 704.24 82.79 267.21 349.98 418.05 562.29 647.02 654.81 501.71 599.42 493.59 527.96 571.76 598.44 625.86 539.15 673.70 165.92 440.03 706.93 444.22 669.05 392.66 197.51 429.55 562.85 623.33 484.59 772.61 810.18 702.80 274.91 389.72 580.33 532.36 754.82 598.12 370.02 698.90 521.13 436.16 560.07 494.45
963.75 555.92 410.02 121.86 62.18 690.33 324.10 793.03 406.66 634.31 0.00 229.70 154.96 881.44 238.22 1023.53 456.18 460.91 316.90 871.29 69.55 575.30 511.92 96.04 944.23 457.76 379.32 139.32 316.71 749.77 452.53 669.38 841.64 1074.45 787.15 1079.34 463.43 921.79 104.52 671.51 297.61 431.04 1062.53 111.74 464.80 71.21 400.46 990.30 404.23 152.49 419.25 521.35 128.97 440.65 830.40 387.18 142.43 83.50 638.18 551.52 552.11 801.27 228.00 149.17 652.34 818.47 178.84 853.86 491.82 444.66 85.08 69.93 970.47 439.36 208.34 562.13 241.06 542.75 311.50 129.42 284.93 682.65 463.32 283.15 185.85 430.56 782.06 874.69 589.59 790.10 333.65 137.14 386.32 799.85 147.29 299.37 934.57 565.43 730.72 519.14 499.77
1006.90 747.32 560.36 177.43 182.13 753.62 433.62 963.47 549.60 666.92 229.70 0.00 143.81 1010.44 314.53 1188.18 630.17 641.29 492.81 1043.20 248.96 760.57 677.85 165.63 1129.44 529.49 578.34 217.65 467.05 777.45 643.93 810.55 874.25 1216.86 929.76 1198.83 627.92 1092.23 232.08 752.19 475.27 598.10 1198.76 172.06 626.83 267.48 442.73 1060.23 600.50 236.01 615.52 706.38 108.47 607.71 1018.05 583.45 155.61 146.20 834.45 584.13 749.83 843.07 388.45 163.17 809.56 1017.49 364.11 1026.61 646.03 608.41 170.49 195.20 1096.15 618.91 349.51 613.96 418.72 734.60 465.16 233.30 481.20 738.61 616.27 479.42 114.02 615.77 958.12 1025.03 785.86 897.77 504.09 178.52 568.43 940.33 189.09 484.39 1116.97 764.45 862.16 689.58 698.79
894.25 653.07 516.75 46.16 123.03 653.60 307.60 870.45 504.04 552.84 154.96 143.81 0.00 866.63 170.72 1093.07 529.13 527.65 441.93 957.22 148.74 616.76 632.29 87.21 1029.65 385.68 518.35 103.63 438.39 664.80 549.68 763.37 760.17 1073.05 828.61 1055.02 523.21 1038.63 102.90 709.95 371.72 498.30 1054.95 74.64 529.41 221.92 298.92 1036.60 515.67 193.21 542.09 567.65 120.33 488.69 957.60 508.80 79.70 100.64 756.78 552.77 606.02 699.26 291.03 50.52 747.29 920.55 220.30 939.28 550.92 520.61 76.24 115.71 988.92 521.49 302.33 517.91 367.84 655.37 326.43 207.63 357.10 642.56 539.78 395.50 134.51 515.98 867.99 996.37 740.30 773.60 450.49 34.71 461.61 879.88 45.28 424.40 1036.65 672.74 784.63 596.56 607.08
778.56 816.72 609.45 912.79 943.62 361.44 741.26 735.55 759.33 418.04 881.44 1010.44 866.63 0.00 915.03 528.64 686.51 667.87 599.60 934.75 917.46 396.68 958.62 936.62 732.21 716.19 613.02 950.15 599.41 624.02 775.57 934.05 571.28 465.74 345.77 483.69 689.90 280.89 927.88 356.55 651.08 689.98 447.64 941.27 716.33 851.31 799.14 176.08 851.70 964.59 540.68 472.48 986.96 687.55 958.78 666.73 946.33 957.57 843.63 500.83 350.82 744.19 776.52 917.15 664.51 564.02 793.14 593.85 679.10 724.21 942.87 951.37 463.92 723.87 894.86 583.96 681.46 929.78 694.80 940.86 701.46 615.55 690.56 784.01 1001.14 680.83 882.19 832.29 795.04 503.70 616.35 901.34 824.22 894.69 911.91 582.07 576.45 604.74 394.37 710.54 670.40
739.61 550.11 417.00 182.16 176.04 623.17 269.41 792.40 422.95 522.41 238.22 314.53 170.72 915.03 0.00 1008.19 478.17 459.53 316.27 896.26 183.49 518.35 601.19 175.16 978.51 317.95 386.75 184.06 342.03 564.55 446.72 701.15 683.15 1034.72 730.20 1052.58 487.25 921.16 219.61 620.63 313.90 462.34 1043.82 192.10 484.47 196.50 248.18 945.65 516.28 292.83 451.14 476.70 224.66 452.73 855.08 430.15 217.90 193.10 690.19 529.31 564.21 707.76 139.35 154.85 654.40 825.90 121.89 887.80 501.55 440.73 162.92 223.23 906.19 513.53 379.23 356.49 257.35 544.44 235.48 277.93 241.01 481.14 462.69 408.44 270.51 467.42 832.03 900.01 699.55 650.09 333.02 169.26 452.23 818.62 130.44 333.80 942.00 572.86 703.96 518.51 507.20
993.33 725.61 658.40 1072.12 1062.65 658.15 966.66 454.65 732.52 740.22 1023.53 1188.18 1093.07 528.64 1008.19 0.00 587.60 606.24 737.30 487.32 1018.47 590.74 863.45 1046.46 242.39 990.12 700.83 1051.16 735.33 866.20 687.61 766.37 767.57 99.10 378.89 73.13 584.51 416.59 1047.41 556.46 749.43 613.99 81.00 1043.64 628.37 952.32 1080.32 432.39 774.67 1060.40 709.94 684.44 1079.71 604.38 495.77 646.79 1083.84 1067.41 675.95 724.52 600.36 882.95 900.47 1085.71 640.03 315.25 948.94 311.78 542.15 636.37 1058.70 1041.37 224.60 596.79 952.36 906.14 782.47 806.70 847.29 1034.53 811.86 925.29 606.19 784.42 1136.59 603.41 515.98 376.94 627.36 835.15 720.55 1058.36 794.00 533.77 1063.98 750.45 199.15 592.16 421.75 688.08 656.08
864.89 196.77 112.60 505.59 504.56 497.67 413.23 396.33 165.86 499.05 456.18 630.17 529.13 686.51 478.17 587.60 0.00 18.64 191.37 453.62 449.92 324.51 312.77 464.54 548.89 519.57 155.03 530.31 191.18 668.66 100.29 354.72 653.18 686.70 502.82 660.73 22.52 633.94 501.05 494.16 205.07 32.07 668.60 494.44 41.05 384.97 527.63 663.30 202.47 503.06 244.04 263.97 521.70 41.68 428.47 69.00 513.34 485.49 290.89 416.26 361.60 809.50 338.82 523.01 284.57 439.02 400.92 478.69 45.45 83.34 476.78 459.45 680.76 55.60 364.76 611.93 261.62 256.02 286.57 462.86 253.40 625.84 69.50 196.82 578.58 55.39 368.54 507.58 302.31 644.76 177.43 495.66 231.30 350.75 534.28 173.84 510.61 165.21 392.21 122.44 138.20
860.30 211.09 103.21 516.71 490.98 488.28 410.51 384.09 160.85 496.33 460.91 641.29 527.65 667.87 459.53 606.24 18.64 0.00 193.63 472.26 431.28 332.86 316.15 475.66 552.03 502.54 137.37 527.52 187.08 669.16 107.70 362.13 634.54 688.43 485.79 679.37 41.16 652.58 482.41 505.28 202.35 43.19 670.33 502.85 48.46 389.70 532.36 681.94 183.83 500.34 229.82 268.76 532.82 38.96 447.11 73.73 524.46 496.61 291.29 413.54 376.83 807.45 320.18 520.29 279.81 457.66 383.89 461.66 64.09 64.70 487.90 470.57 687.43 56.00 350.89 630.57 258.90 263.43 297.69 481.50 250.68 644.48 66.78 215.46 589.70 38.36 387.18 526.22 320.95 649.49 176.88 492.94 228.58 369.39 515.64 184.96 529.25 162.72 389.49 110.20 156.84
706.74 316.75 100.73 395.77 379.08 403.74 242.65 476.13 221.60 378.44 316.90 492.81 441.93 599.60 316.27 737.30 191.37 193.63 0.00 605.22 352.92 316.96 425.84 412.94 669.07 376.31 100.62 385.61 25.76 477.29 213.36 467.79 573.65 757.55 528.81 791.78 188.27 604.89 363.34 354.61 86.54 159.30 775.65 393.31 198.42 286.77 408.06 709.70 314.93 432.32 152.16 243.21 445.87 154.67 580.07 144.62 433.51 400.40 463.29 295.65 361.52 683.64 176.92 413.70 373.64 539.77 260.58 578.70 195.15 175.89 401.98 386.83 684.92 228.00 295.26 457.69 116.92 369.09 130.26 376.32 132.62 529.98 146.42 184.41 484.12 155.40 520.14 583.74 429.89 597.61 16.75 436.98 250.57 502.35 411.41 17.53 655.87 286.73 489.80 202.24 221.07
1176.95 384.85 550.73 937.15 893.26 850.64 840.08 240.18 495.74 857.69 871.29 1043.20 957.22 934.75 896.26 487.32 453.62 472.26 605.22 0.00 856.04 636.57 527.87 910.61 265.49 942.73 556.19 930.03 624.27 1004.10 488.24 411.20 1035.94 575.39 672.13 560.45 476.14 670.76 893.86 841.49 631.92 478.14 557.29 908.67 494.67 800.08 938.58 766.59 589.07 877.82 596.61 615.06 966.92 468.53 79.88 522.00 948.87 897.00 320.78 837.77 676.96 1132.70 756.91 949.86 283.17 378.65 793.44 425.83 499.07 536.96 922.85 905.52 625.48 461.82 774.43 1007.64 661.34 490.64 660.78 869.87 680.25 1055.20 523.12 627.88 999.81 480.39 89.23 110.38 281.70 968.36 588.47 922.51 580.32 102.87 941.93 619.91 441.96 471.69 643.45 450.65 435.74
894.20 560.58 435.30 138.03 88.34 634.37 254.55 750.68 360.30 630.03 69.55 248.96 148.74 917.46 183.49 1018.47 449.92 431.28 352.92 856.04 0.00 570.93 521.55 123.71 937.68 388.21 429.34 96.24 350.19 700.64 457.19 680.49 788.13 1090.26 782.78 1091.60 472.44 939.46 80.76 707.53 292.55 440.67 1072.16 111.54 443.64 80.84 404.04 968.19 404.31 155.55 428.88 499.24 162.00 450.28 840.03 396.81 151.74 102.76 641.42 571.61 580.30 764.24 237.63 162.61 652.44 850.28 182.42 863.49 492.61 399.90 117.75 107.38 998.66 448.99 241.16 492.58 236.00 544.01 273.30 99.55 243.33 617.23 428.57 292.78 203.43 440.19 791.69 908.17 599.22 720.55 351.32 143.76 338.81 800.67 154.59 335.39 960.53 578.40 758.91 476.79 512.74
540.38 443.34 229.65 607.46 603.56 245.44 375.92 476.56 379.53 313.07 575.30 760.57 616.76 396.68 518.35 590.74 324.51 332.86 316.96 636.57 570.93 0.00 591.22 624.51 588.42 435.62 216.34 560.09 322.96 508.94 406.91 643.81 456.20 592.75 211.85 573.09 346.30 456.95 573.40 249.38 331.78 305.68 609.14 594.61 347.67 516.19 518.07 561.76 472.86 659.63 168.15 99.10 658.20 311.85 616.39 270.05 634.81 630.32 588.72 289.32 45.86 629.11 429.26 634.02 430.99 408.13 396.46 442.34 317.62 327.53 623.79 645.23 464.22 353.43 612.22 371.07 388.33 562.64 340.32 647.73 327.60 495.72 310.76 482.32 695.81 313.43 547.34 562.89 561.15 388.62 312.28 631.52 469.94 538.67 571.48 310.29 524.23 258.63 224.47 364.43 324.29
1131.60 181.05 368.58 586.13 560.30 753.65 601.90 563.86 270.51 762.38 511.92 677.85 632.29 958.62 601.19 863.45 312.77 316.15 425.84 527.87 521.55 591.22 0.00 552.60 712.66 735.56 379.03 616.76 425.65 903.13 212.48 158.94 950.69 880.17 725.22 910.36 310.66 895.36 562.87 739.36 404.25 295.99 874.31 567.36 271.72 440.71 739.59 939.15 177.18 626.37 497.56 516.18 605.22 286.38 486.02 321.17 590.58 531.65 249.36 679.59 623.15 1004.58 543.73 602.49 322.02 603.25 578.54 670.67 321.30 275.57 561.83 580.65 850.08 266.66 487.01 790.07 436.11 56.75 493.63 577.81 442.07 871.29 332.83 325.50 662.10 277.79 438.64 577.68 265.69 896.93 424.30 604.77 242.68 452.28 626.11 408.31 709.62 449.17 636.91 378.43 400.21
908.77 589.07 496.85 41.05 57.46 617.49 308.37 849.33 424.35 576.03 96.04 165.63 87.21 936.62 175.16 1046.46 464.54 475.66 412.94 910.61 123.71 624.51 552.60 0.00 978.37 442.03 475.36 130.25 412.75 682.64 485.68 711.54 783.36 1114.77 836.36 1100.25 476.60 1015.54 72.97 669.51 368.63 432.47 1096.67 29.90 484.67 142.23 369.05 1008.92 451.67 117.67 490.27 547.27 57.16 442.08 892.80 458.20 48.80 20.95 709.20 501.45 648.15 769.39 246.29 68.36 684.31 903.56 228.05 888.00 504.31 483.74 12.24 69.95 1013.03 476.75 251.59 507.15 312.08 587.83 306.05 120.42 337.54 600.81 495.96 319.08 114.04 464.70 821.38 960.42 660.61 774.37 427.40 58.82 422.25 815.08 115.41 395.41 975.15 621.77 792.61 575.44 556.11
1128.80 558.35 623.16 1012.59 964.06 821.89 902.76 234.75 633.93 809.77 944.23 1129.44 1029.65 732.21 978.51 242.39 548.89 552.03 669.07 265.49 937.68 588.42 712.66 978.37 0.00 932.32 614.91 1014.49 662.39 959.94 636.08 584.70 967.33 341.49 578.65 315.52 526.37 577.78 955.49 672.45 704.35 545.90 323.39 984.11 576.84 873.02 1015.68 556.13 689.41 1002.34 553.52 620.42 1035.53 540.96 253.38 557.05 1024.31 994.30 494.28 786.02 542.56 1082.71 839.16 1022.29 404.28 285.67 859.20 256.79 568.73 537.78 990.61 973.28 466.99 602.17 870.20 897.81 760.10 656.08 769.18 976.39 742.93 1007.28 568.71 713.06 1092.41 513.67 274.02 155.11 447.14 977.04 678.88 994.94 724.34 291.81 1034.22 660.71 304.50 525.92 526.57 508.64 556.85
533.85 659.10 477.04 430.25 418.43 398.91 133.66 826.54 526.66 298.15 457.76 529.49 385.68 716.19 317.95 990.12 519.57 502.54 376.31 942.73 388.21 435.62 735.56 442.03 932.32 0.00 476.93 370.70 393.91 340.29 575.41 829.84 458.89 936.65 637.43 916.99 497.05 813.77 441.46 481.91 383.64 496.41 953.04 456.41 527.35 400.61 107.51 816.07 565.23 518.54 411.93 383.55 448.07 491.47 919.42 507.56 465.38 421.08 787.97 341.74 389.76 483.50 243.82 402.94 691.39 772.69 281.18 806.21 525.44 518.75 451.26 465.62 808.12 552.68 532.75 132.23 361.06 678.81 281.95 487.76 293.49 256.88 519.22 475.13 497.92 464.18 859.49 892.95 786.75 425.83 393.06 420.39 556.70 841.70 340.40 393.84 888.79 522.14 568.37 578.55 562.90
756.72 320.94 42.43 472.19 441.50 414.15 343.27 454.80 192.31 410.41 379.32 578.34 518.35 613.02 386.75 700.83 155.03 137.37 100.62 556.19 429.34 216.34 379.03 475.36 614.91 476.93 0.00 462.03 111.29 577.91 223.65 478.08 590.27 715.37 428.19 733.05 134.11 673.29 439.76 421.91 162.96 122.96 697.27 463.79 164.41 362.92 484.48 611.54 285.64 508.74 144.50 142.59 508.29 120.94 528.79 115.60 503.99 462.82 405.27 327.62 262.20 760.39 247.40 490.12 273.02 439.15 312.14 501.05 158.68 161.75 464.40 449.25 675.86 169.98 395.88 541.13 193.34 379.38 206.68 452.74 213.34 607.92 123.54 285.03 560.54 101.24 490.70 556.92 416.22 604.96 95.94 516.46 282.72 478.16 487.16 93.95 555.25 186.11 405.28 203.93 120.45
876.69 620.40 467.54 102.91 167.69 616.86 237.04 842.94 434.29 637.89 139.32 217.65 103.63 950.15 184.06 1051.16 530.31 527.52 385.61 930.03 96.24 560.09 616.76 130.25 1014.49 370.70 462.03 0.00 381.26 683.13 517.01 771.44 754.27 1086.12 771.94 1068.09 513.63 971.70 70.76 723.02 325.24 498.24 1068.02 116.45 520.45 176.05 311.99 992.82 500.55 247.92 498.31 523.87 161.62 488.63 925.37 492.02 135.76 131.18 731.93 557.78 605.95 674.65 247.29 98.78 703.24 881.05 163.63 932.46 532.52 476.71 138.67 180.18 1014.13 528.04 337.40 475.07 268.69 640.25 282.65 195.79 326.27 599.72 524.81 387.99 191.26 509.16 867.93 939.24 694.43 703.04 383.56 71.43 435.05 869.16 58.35 368.08 956.20 648.14 784.56 569.05 582.48
732.50 316.56 93.31 395.58 378.89 424.03 266.69 496.42 241.89 352.68 316.71 467.05 438.39 599.41 342.03 735.33 191.18 187.08 25.76 624.27 350.19 322.96 425.65 412.75 662.39 393.91 111.29 381.26 0.00 503.05 213.17 467.60 547.89 777.84 534.81 808.46 181.59 625.18 345.04 380.37 86.35 159.11 780.69 418.93 204.20 286.58 389.76 712.27 290.31 432.13 177.92 243.32 445.68 155.74 600.36 164.91 443.18 400.21 465.10 269.89 361.33 690.50 202.68 413.51 375.14 550.44 244.62 566.32 193.18 175.28 401.79 386.64 659.16 237.22 321.02 483.45 116.73 368.90 111.96 376.13 106.86 550.19 149.22 210.17 483.93 148.72 535.04 557.98 451.02 615.47 37.04 425.82 224.81 522.64 393.11 17.34 666.54 297.40 506.01 222.53 231.74
229.45 794.04 578.02 641.59 687.59 314.49 446.09 924.95 698.89 336.50 749.77 777.45 664.80 624.02 564.55 866.20 668.66 669.16 477.29 1004.10 700.64 508.94 903.13 682.64 959.94 340.29 577.91 683.13 503.05 0.00 690.65 945.08 129.17 770.13 517.85 804.36 664.72 678.67 710.70 457.22 563.83 636.59 788.23 670.07 675.71 693.46 414.60 573.86 792.22 788.64 525.46 572.58 684.09 630.20 1010.38 621.91 666.41 685.12 940.58 292.63 536.09 206.35 584.11 614.28 850.93 811.33 593.61 839.71 672.44 653.18 678.37 734.12 641.60 705.29 770.49 208.06 594.21 846.38 606.14 789.48 554.58 143.59 623.71 661.70 729.94 632.69 914.87 1002.37 907.18 120.32 494.04 641.63 727.86 932.66 668.24 494.82 772.89 752.02 649.89 679.53 698.36
920.10 103.39 181.81 510.22 494.41 566.88 447.03 472.21 96.89 551.20 452.53 643.93 549.68 775.57 446.72 687.61 100.29 107.70 213.36 488.24 457.19 406.91 212.48 485.68 636.08 575.41 223.65 517.01 213.17 690.65 0.00 254.43 742.24 765.95 569.84 760.74 112.64 724.06 480.45 563.37 191.77 101.28 747.85 502.62 59.24 381.32 571.26 763.31 190.22 496.02 330.19 340.69 535.46 110.89 408.36 136.86 533.10 500.29 251.93 468.41 448.76 792.10 366.32 537.53 269.85 525.59 426.12 541.51 145.46 102.98 473.44 522.46 754.62 92.60 396.97 577.59 248.32 155.73 293.46 471.02 287.20 702.24 159.62 229.03 581.86 122.41 465.19 598.62 274.12 712.62 230.11 540.68 187.30 451.04 574.61 195.83 610.90 236.69 449.12 198.32 224.92
1174.53 309.74 436.24 745.07 694.85 810.82 701.46 471.33 351.32 794.66 669.38 810.55 763.37 934.05 701.15 766.37 354.72 362.13 467.79 411.20 680.49 643.81 158.94 711.54 584.70 829.84 478.08 771.44 467.60 945.08 254.43 0.00 996.67 721.23 778.05 755.46 367.07 899.24 721.81 798.41 446.20 355.71 739.33 726.30 313.67 599.65 825.69 992.52 291.59 713.57 532.78 544.71 702.08 365.32 331.32 391.29 749.22 690.59 90.42 722.84 654.30 1046.53 620.75 761.43 406.25 636.33 658.72 628.28 380.35 357.41 713.97 647.66 849.76 325.71 461.04 832.02 502.75 215.69 547.89 683.26 541.63 956.67 379.74 451.30 758.96 376.84 331.48 470.52 139.01 966.64 484.54 763.71 348.13 349.27 785.05 450.26 752.43 491.12 703.55 395.25 446.12
225.76 845.63 626.36 742.31 816.76 248.55 533.58 859.01 776.24 207.33 841.64 874.25 760.17 571.28 683.15 767.57 653.18 634.54 573.65 1035.94 788.13 456.20 950.69 783.36 967.33 458.89 590.27 754.27 547.89 129.17 742.24 996.67 0.00 853.67 388.68 840.70 675.70 621.20 780.97 391.09 634.24 677.72 848.57 768.25 683.00 782.17 504.56 516.39 805.19 888.33 526.59 520.11 813.26 673.50 1039.87 643.34 785.01 796.79 911.57 290.12 474.54 172.91 625.38 743.45 806.82 682.16 681.10 710.54 698.63 699.24 779.09 805.77 727.60 690.54 868.91 326.66 647.36 897.97 646.27 876.38 599.99 259.95 636.88 758.06 830.66 672.90 946.71 950.43 910.13 67.58 584.93 770.80 739.69 962.15 758.20 565.23 726.25 714.83 583.95 638.97 701.78
999.58 711.36 748.26 1117.62 1077.02 666.30 968.67 408.67 804.78 737.80 1074.45 1216.86 1073.05 465.74 1034.72 99.10 686.70 688.43 757.55 575.39 1090.26 592.75 880.17 1114.77 341.49 936.65 715.37 1086.12 777.84 770.13 765.95 721.23 853.67 0.00 467.45 34.23 682.94 331.45 1097.53 554.04 840.75 682.30 18.10 1111.76 706.71 1009.42 1040.15 369.49 863.08 1138.74 680.97 623.23 1116.21 677.36 593.55 693.45 1147.07 1113.53 630.81 722.10 546.89 873.27 895.37 1090.31 643.73 289.16 979.03 244.19 641.25 735.47 1127.01 1072.93 128.53 695.89 1016.19 903.72 856.12 837.04 864.45 1114.29 864.33 913.72 685.56 848.25 1173.09 650.07 559.62 465.01 630.13 786.09 740.80 1082.74 831.69 577.41 1027.77 775.08 231.46 529.26 382.85 635.06 594.92
614.44 630.53 441.50 819.31 815.41 279.26 587.77 511.03 551.52 361.33 787.15 929.76 828.61 345.77 730.20 378.89 502.82 485.79 528.81 672.13 782.78 211.85 725.22 836.36 578.65 637.43 428.19 771.94 534.81 517.85 569.84 778.05 388.68 467.45 0.00 452.02 480.30 245.10 769.02 177.57 543.63 479.66 459.89 806.46 510.60 728.04 701.43 349.91 628.54 861.44 380.00 310.95 870.05 474.72 688.24 481.90 846.66 842.17 767.07 345.63 247.67 504.06 632.07 845.87 476.17 293.48 608.31 321.86 508.69 476.91 835.64 857.08 338.92 535.93 820.13 527.25 600.18 725.57 535.94 859.58 539.45 546.40 502.47 652.19 898.16 447.43 654.19 561.75 762.96 456.26 524.13 843.37 641.93 671.98 783.33 522.14 337.57 470.48 198.51 497.23 411.37
1033.81 729.31 731.53 1099.59 1042.79 632.07 949.01 442.90 805.65 732.83 1079.34 1198.83 1055.02 483.69 1052.58 73.13 660.73 679.37 791.78 560.45 1091.60 573.09 910.36 1100.25 315.52 916.99 733.05 1068.09 808.46 804.36 760.74 755.46 840.70 34.23 452.02 0.00 657.64 343.46 1085.61 588.27 822.56 687.12 36.05 1108.00 701.50 1025.45 1024.50 387.44 847.80 1121.26 708.00 611.31 1102.31 677.51 568.90 711.40 1126.00 1079.30 665.04 756.33 527.23 907.50 929.60 1072.28 677.96 307.11 969.55 278.42 615.28 709.50 1099.60 1038.70 162.76 669.92 1025.49 898.75 855.60 854.99 852.53 1107.66 867.22 897.37 679.32 857.55 1159.19 668.02 589.11 450.07 648.08 820.32 775.03 1089.73 849.64 573.47 1009.74 809.31 256.49 546.94 348.62 652.74 612.60
881.86 216.03 116.72 517.65 511.81 499.56 406.07 418.85 153.16 476.53 463.43 627.92 523.21 689.90 487.25 584.51 22.52 41.16 188.27 476.14 472.44 346.30 310.66 476.60 526.37 497.05 134.11 513.63 181.59 664.72 112.64 367.07 675.70 682.94 480.30 657.64 0.00 611.42 509.88 501.55 197.91 44.13 664.84 503.31 53.40 392.22 534.88 660.21 224.99 495.90 221.52 260.88 533.76 34.52 450.99 76.25 525.40 497.55 313.41 393.74 339.08 816.75 347.90 515.85 274.32 461.54 378.40 456.17 42.36 97.14 488.84 471.51 658.24 78.12 387.28 589.41 244.94 268.37 292.64 450.02 246.24 648.36 46.98 219.34 590.64 32.87 391.06 520.04 324.83 652.01 172.44 488.50 224.14 373.27 541.48 179.91 533.13 184.25 385.05 144.96 141.39
761.67 714.31 672.12 1000.66 983.97 414.86 794.68 509.66 764.58 515.62 921.79 1092.23 1038.63 280.89 921.16 416.59 633.94 652.58 604.89 670.76 939.46 456.95 895.36 1015.54 577.78 813.77 673.29 971.70 625.18 678.67 724.06 899.24 621.20 331.45 245.10 343.46 611.42 0.00 958.25 422.67 691.43 648.26 349.55 985.94 664.82 873.31 852.56 104.81 834.45 1018.86 625.10 550.81 1041.81 638.65 686.87 687.67 1026.14 994.59 838.02 584.35 466.73 749.16 781.81 1018.59 650.06 292.11 853.41 359.53 653.78 708.56 1006.87 991.72 202.92 689.54 900.15 681.54 703.46 839.99 725.17 962.86 732.04 681.97 658.40 789.30 1089.01 644.29 652.82 560.38 789.43 564.19 588.14 1041.87 828.27 670.61 993.35 622.42 337.70 619.61 288.12 652.40 566.54
940.15 583.84 438.35 114.02 122.39 660.34 307.80 829.49 430.54 573.64 104.52 232.08 102.90 927.88 219.61 1047.41 501.05 482.41 363.34 893.86 80.76 573.40 562.87 72.97 955.49 441.46 439.76 70.76 345.04 710.70 480.45 721.81 780.97 1097.53 769.02 1085.61 509.88 958.25 0.00 658.91 321.49 481.99 1079.43 90.57 461.45 122.16 382.75 943.25 455.18 190.64 448.74 474.30 130.13 476.29 881.35 438.13 121.77 85.88 689.13 490.85 595.96 745.41 278.95 96.42 686.55 861.21 234.39 896.96 511.93 417.71 85.21 134.88 1004.20 490.31 304.89 545.83 264.94 593.70 233.08 180.31 264.57 583.71 494.26 334.10 187.01 481.51 833.01 903.02 640.54 773.80 370.11 94.32 419.57 850.80 129.11 345.81 977.31 599.64 736.99 555.60 533.98
573.33 623.56 455.34 674.67 707.97 156.21 488.80 615.49 576.21 183.76 671.51 752.19 709.95 356.55 620.63 556.46 494.16 505.28 354.61 841.49 707.53 249.38 739.36 669.51 672.45 481.91 421.91 723.02 380.37 457.22 563.37 798.41 391.09 554.04 177.57 588.27 501.55 422.67 658.91 0.00 441.15 462.09 572.14 646.19 521.20 641.38 523.86 411.83 637.68 775.51 313.65 279.32 709.78 471.70 821.99 499.23 686.39 681.90 707.99 168.06 203.52 417.14 531.53 701.98 611.21 471.05 567.31 415.66 497.84 486.05 675.37 730.90 516.49 472.70 649.87 349.68 471.53 682.61 484.87 730.93 487.23 368.83 454.57 539.02 720.59 494.32 766.44 739.32 718.81 424.90 371.36 705.90 605.18 784.23 664.67 372.14 515.14 457.44 303.51 556.85 483.61
793.28 295.16 149.45 402.16 345.99 481.49 255.26 561.82 211.18 439.03 297.61 475.27 371.72 651.08 313.90 749.43 205.07 202.35 86.54 631.92 292.55 331.78 404.25 368.63 704.35 383.64 162.96 325.24 86.35 563.83 191.77 446.20 634.24 840.75 543.63 822.56 197.91 691.43 321.49 441.15 0.00 173.00 822.65 383.39 205.95 226.40 379.49 703.23 244.26 371.95 203.45 234.28 416.31 163.39 600.13 216.86 383.00 347.68 443.70 356.24 355.94 728.66 174.55 417.91 421.99 602.11 234.35 613.98 207.28 249.69 365.44 367.54 745.51 247.91 336.14 493.29 56.55 347.50 101.69 315.95 95.43 574.74 230.56 168.20 473.19 190.68 542.69 644.33 458.67 680.38 103.29 396.67 209.02 555.82 382.84 69.01 715.68 342.93 496.97 288.78 281.78
846.06 204.67 80.53 473.52 474.57 465.60 381.16 416.86 152.70 493.04 431.04 598.10 498.30 689.98 462.34 613.99 32.07 43.19 159.30 478.14 440.67 305.68 295.99 432.47 545.90 496.41 122.96 498.24 159.11 636.59 101.28 355.71 677.72 682.30 479.66 687.12 44.13 648.26 481.99 462.09 173.00 0.00 664.20 462.37 73.12 359.83 502.49 678.41 186.19 470.99 228.91 239.41 489.63 9.61 460.54 43.86 481.27 453.42 315.40 410.25 347.48 784.36 322.99 490.94 268.21 471.09 377.76 455.53 71.84 90.57 444.71 427.38 701.46 87.67 394.08 616.99 229.55 257.01 254.50 460.09 221.33 657.91 63.49 228.89 546.51 32.23 388.91 527.95 304.89 619.62 147.53 463.59 199.23 382.82 535.65 141.77 542.68 189.30 360.14 142.97 123.64
1017.68 693.26 730.16 1099.52 1078.84 668.12 985.06 426.77 786.68 755.90 1062.53 1198.76 1054.95 447.64 1043.82 81.00 668.60 670.33 775.65 557.29 1072.16 609.14 874.31 1096.67 323.39 953.04 697.27 1068.02 780.69 788.23 747.85 739.33 848.57 18.10 459.89 36.05 664.84 349.55 1079.43 572.14 822.65 664.20 0.00 1102.41 688.61 991.32 1058.25 351.39 844.98 1120.64 699.07 605.13 1134.31 659.26 576.77 675.35 1134.65 1104.13 648.91 740.20 563.28 891.37 904.47 1072.21 650.75 271.06 977.50 262.29 623.15 717.37 1108.91 1074.75 146.63 677.79 1021.22 905.39 863.47 818.94 846.35 1114.86 846.23 931.82 667.46 854.31 1167.19 631.97 577.72 446.91 612.03 804.19 758.90 1089.66 813.59 595.51 1009.67 779.01 249.56 511.16 384.67 616.96 576.82
899.52 606.01 481.78 28.48 65.21 634.43 323.13 832.51 439.11 560.92 111.74 172.06 74.64 941.27 192.10 1043.64 494.44 502.85 393.31 908.67 111.54 594.61 567.36 29.90 984.11 456.41 463.79 116.45 418.93 670.07 502.62 726.30 768.25 1111.76 806.46 1108.00 503.31 985.94 90.57 646.19 383.39 462.37 1102.41 0.00 454.77 156.99 356.35 1015.35 468.61 133.71 505.03 548.19 63.59 471.98 906.60 472.96 40.20 35.71 682.14 478.13 640.47 769.99 216.39 55.79 699.07 902.94 198.15 893.74 501.49 491.49 29.18 84.71 983.23 446.85 271.33 498.55 326.84 582.61 306.97 144.04 318.05 570.91 525.48 348.98 116.83 470.44 819.44 958.48 675.37 789.13 397.80 59.71 450.35 829.84 116.01 406.72 1005.05 632.22 810.88 558.62 584.24
888.05 162.63 151.67 483.25 470.02 536.74 438.31 432.55 124.81 529.93 464.80 626.83 529.41 716.33 484.47 628.37 41.05 48.46 198.42 494.67 443.64 347.67 271.72 484.67 576.84 527.35 164.41 520.45 204.20 675.71 59.24 313.67 683.00 706.71 510.60 701.50 53.40 664.82 461.45 521.20 205.95 73.12 688.61 454.77 0.00 393.59 536.25 704.07 195.37 521.15 274.92 301.80 518.36 72.00 467.60 77.62 494.97 490.48 283.79 447.14 392.48 818.12 345.12 510.56 304.62 480.07 408.70 486.47 86.22 43.74 483.95 500.50 702.16 48.50 386.96 636.83 262.50 214.97 280.54 485.06 283.72 666.89 100.38 219.02 571.60 63.17 409.59 548.26 305.05 653.38 202.88 514.48 215.22 391.80 561.69 210.21 551.66 177.45 422.53 158.66 179.25
922.91 484.71 354.62 175.76 119.59 626.08 285.35 738.95 335.45 574.84 71.21 267.48 221.92 851.31 196.50 952.32 384.97 389.70 286.77 800.08 80.84 516.19 440.71 142.23 873.02 400.61 362.92 176.05 286.58 693.46 381.32 599.65 782.17 1009.42 728.04 1025.45 392.22 873.31 122.16 641.38 226.40 359.83 991.32 156.99 393.59 0.00 359.45 919.09 333.02 185.66 348.04 450.14 189.91 369.44 759.19 315.97 156.60 121.28 566.97 546.75 562.05 737.76 156.79 192.12 599.19 769.44 137.83 782.65 420.61 373.45 151.46 141.14 923.63 368.15 182.73 523.38 169.85 471.54 252.92 180.39 213.72 635.85 406.49 211.94 246.79 359.35 710.85 844.56 518.38 751.35 285.17 194.40 315.11 728.64 215.74 269.24 885.54 535.30 707.42 465.06 483.13
635.30 674.65 483.07 343.49 384.61 437.70 219.88 874.21 543.19 405.66 400.46 442.73 298.92 799.14 248.18 1080.32 527.63 532.36 408.06 938.58 404.04 518.07 739.59 369.05 1015.68 107.51 484.48 311.99 389.76 414.60 571.26 825.69 504.56 1040.15 701.43 1024.50 534.88 852.56 382.75 523.86 379.49 502.49 1058.25 356.35 536.25 359.45 0.00 857.66 562.41 411.03 493.46 469.62 340.56 512.10 956.10 458.63 378.62 348.10 777.30 449.25 497.27 567.30 293.56 316.18 732.00 858.76 221.62 892.28 563.27 514.60 375.16 376.32 915.63 542.01 542.18 239.74 377.59 695.34 277.80 438.05 310.02 364.39 537.35 491.66 397.44 502.01 891.40 947.74 807.38 498.37 414.83 333.63 588.51 878.38 253.64 390.53 974.86 629.65 675.88 600.32 579.43
742.15 810.14 653.97 1035.80 1025.42 419.96 799.78 605.49 803.85 520.72 990.30 1060.23 1036.60 176.08 945.65 432.39 663.30 681.94 709.70 766.59 968.19 561.76 939.15 1008.92 556.13 816.07 611.54 992.82 712.27 573.86 763.31 992.52 516.39 369.49 349.91 387.44 660.21 104.81 943.25 411.83 703.23 678.41 351.39 1015.35 704.07 919.09 857.66 0.00 850.37 1058.94 633.40 468.95 951.76 680.08 782.70 722.27 998.90 1025.33 902.10 579.89 526.90 689.30 806.30 1021.57 704.17 387.94 842.83 455.36 617.85 712.07 1013.78 1060.23 307.73 672.49 1004.96 683.84 759.78 882.40 710.17 1002.94 724.86 717.45 681.89 860.12 1008.64 679.11 748.65 656.21 853.51 459.38 692.95 1037.57 869.70 766.44 991.32 694.93 442.51 711.44 392.93 694.04 671.35
1013.24 215.95 243.21 476.21 452.61 628.28 486.33 548.53 93.33 597.86 404.23 600.50 515.67 851.70 516.28 774.67 202.47 183.83 314.93 589.07 404.31 472.86 177.18 451.67 689.41 565.23 285.64 500.55 290.31 792.22 190.22 291.59 805.19 863.08 628.54 847.80 224.99 834.45 455.18 637.68 244.26 186.19 844.98 468.61 195.37 333.02 562.41 850.37 0.00 456.63 411.17 425.60 501.45 195.80 520.92 209.11 489.62 454.30 353.38 560.20 511.30 915.65 376.93 503.52 404.97 608.03 444.74 636.31 232.52 151.63 439.43 474.16 854.86 239.83 309.83 697.46 258.93 139.70 345.95 400.63 326.50 694.11 249.68 168.67 547.85 213.01 541.11 680.15 348.64 784.87 298.18 492.40 65.50 553.22 548.76 307.65 713.08 346.55 546.33 284.26 309.83
1018.09 536.47 514.70 147.05 129.75 735.16 410.10 815.80 399.13 681.00 152.49 236.01 193.21 964.59 292.83 1060.40 503.06 500.34 432.32 877.82 155.55 659.63 626.37 117.67 1002.34 518.54 508.74 247.92 432.13 788.64 496.02 713.57 888.33 1138.74 861.44 1121.26 495.90 1018.86 190.64 775.51 371.95 470.99 1120.64 133.71 521.15 185.66 411.03 1058.94 456.63 0.00 527.42 593.99 174.83 461.38 841.44 469.28 166.47 131.56 724.32 611.84 613.77 880.00 307.00 174.36 701.19 922.75 323.49 911.97 518.25 477.41 129.91 82.56 1032.13 545.90 252.53 624.82 315.40 585.02 364.71 56.00 382.97 704.62 454.21 322.04 121.99 488.67 792.74 931.78 675.73 826.76 430.72 176.49 391.13 774.95 226.02 414.79 1013.67 610.51 792.38 541.91 548.62
695.16 425.45 167.96 523.80 467.63 278.04 394.81 562.70 317.84 351.60 419.25 615.52 542.09 540.68 451.14 709.94 244.04 229.82 152.16 596.61 428.88 168.15 497.56 490.27 553.52 411.93 144.50 498.31 177.92 525.46 330.19 532.78 526.59 680.97 380.00 708.00 221.52 625.10 448.74 313.65 203.45 228.91 699.07 505.03 274.92 348.04 493.46 633.40 411.17 527.42 0.00 164.45 537.95 219.30 571.46 260.10 504.64 469.32 494.33 409.72 214.01 681.22 311.79 540.16 363.34 553.59 348.32 587.11 209.55 294.52 499.50 489.18 632.37 259.04 447.42 517.52 260.00 440.81 215.66 519.40 267.22 549.11 174.54 336.57 594.83 229.58 511.53 647.24 514.58 556.77 153.69 542.44 402.73 493.74 496.81 169.69 669.69 276.43 359.38 296.63 210.77
639.48 344.24 185.02 566.85 569.73 271.56 415.74 558.44 334.90 368.03 521.35 706.38 567.65 472.48 476.70 684.44 263.97 268.76 243.21 615.06 499.24 99.10 516.18 547.27 620.42 383.55 142.59 523.87 243.32 572.58 340.69 544.71 520.11 623.23 310.95 611.31 260.88 550.81 474.30 279.32 234.28 239.41 605.13 548.19 301.80 450.14 469.62 468.95 425.60 593.99 164.45 0.00 604.43 229.80 542.67 258.19 588.39 560.18 508.45 365.12 121.66 674.74 337.35 570.72 331.89 389.14 373.88 422.66 218.52 304.34 559.51 591.28 540.02 273.16 538.47 398.54 290.83 483.07 241.22 550.23 255.91 523.19 266.13 402.48 655.20 243.83 549.57 613.30 514.97 487.72 238.53 568.62 419.42 562.07 522.37 225.98 505.24 242.49 262.69 346.52 263.04
907.11 638.85 538.99 92.07 73.66 667.27 360.99 876.49 471.18 624.51 128.97 108.47 120.33 986.96 224.66 1079.71 521.70 532.82 445.87 966.92 162.00 658.20 605.22 57.16 1035.53 448.07 508.29 161.62 445.68 684.09 535.46 702.08 813.26 1116.21 870.05 1102.31 533.76 1041.81 130.13 709.78 416.31 489.63 1134.31 63.59 518.36 189.91 340.56 951.76 501.45 174.83 537.95 604.43 0.00 499.24 943.82 505.88 47.14 73.57 745.73 541.72 681.08 786.33 279.98 69.81 736.93 947.44 261.74 945.16 537.56 499.94 62.02 120.85 987.68 510.44 241.04 505.49 359.76 641.15 363.21 175.55 381.64 630.14 553.12 376.24 56.88 521.86 878.54 1003.66 708.29 799.09 461.39 90.19 479.41 867.70 132.35 428.34 1032.31 678.93 753.69 622.21 613.27
852.23 214.28 82.20 483.13 484.18 467.27 371.55 407.25 162.31 501.23 440.65 607.71 488.69 687.55 452.73 604.38 41.68 38.96 154.67 468.53 450.28 311.85 286.38 442.08 540.96 491.47 120.94 488.63 155.74 630.20 110.89 365.32 673.50 677.36 474.72 677.51 34.52 638.65 476.29 471.70 163.39 9.61 659.26 471.98 72.00 369.44 512.10 680.08 195.80 461.38 219.30 229.80 499.24 0.00 470.15 53.47 490.88 463.03 317.23 418.44 337.87 793.97 313.38 481.33 258.60 480.70 372.82 450.59 62.23 100.18 454.32 436.99 692.76 84.52 389.85 609.58 219.94 266.62 263.28 469.70 211.72 667.52 72.82 238.50 556.12 27.29 379.30 518.34 295.28 629.23 137.92 453.98 189.62 392.43 533.97 151.38 552.29 184.05 350.53 133.36 118.39
1156.77 304.97 541.07 918.58 878.78 814.23 822.72 246.46 505.25 832.54 830.40 1018.05 957.60 958.78 855.08 495.77 428.47 447.11 580.07 79.88 840.03 616.39 486.02 892.80 253.38 919.42 528.79 925.37 600.36 1010.38 408.36 331.32 1039.87 593.55 688.24 568.90 450.99 686.87 881.35 821.99 600.13 460.54 576.77 906.60 467.60 759.19 956.10 782.70 520.92 841.44 571.46 542.67 943.82 470.15 0.00 497.47 915.79 871.85 240.90 844.73 662.25 1096.71 756.99 942.69 307.90 394.76 800.77 462.18 473.92 511.34 881.80 887.92 641.59 459.75 773.11 941.21 656.68 449.75 700.35 874.56 670.58 1030.05 497.97 620.28 963.43 455.24 95.51 190.26 240.81 974.64 563.32 924.13 539.43 77.72 962.75 597.60 510.86 462.99 645.84 409.03 408.34
810.43 240.25 99.65 462.64 435.56 484.72 387.27 422.98 153.63 517.59 387.18 583.45 508.80 666.73 430.15 646.79 69.00 73.73 144.62 522.00 396.81 270.05 321.17 458.20 557.05 507.56 115.60 492.02 164.91 621.91 136.86 391.29 643.34 693.45 481.90 711.40 76.25 687.67 438.13 499.23 216.86 43.86 675.35 472.96 77.62 315.97 458.63 722.27 209.11 469.28 260.10 258.19 505.88 53.47 497.47 0.00 472.57 437.25 318.67 434.80 315.91 740.50 321.54 489.95 284.83 453.47 360.66 466.68 104.64 57.48 467.43 457.11 700.30 83.38 396.10 602.31 243.19 292.59 228.00 496.36 265.19 674.60 90.52 232.76 550.99 43.38 432.77 571.81 348.75 575.76 127.87 507.45 226.78 419.75 509.15 162.15 569.57 219.33 404.00 149.09 167.50
859.97 636.49 511.22 57.54 83.21 664.91 346.35 851.36 462.33 592.52 142.43 155.61 79.70 946.33 217.90 1083.84 513.34 524.46 433.51 948.87 151.74 634.81 590.58 48.80 1024.31 465.38 503.99 135.76 443.18 666.41 533.10 749.22 785.01 1147.07 846.66 1126.00 525.40 1026.14 121.77 686.39 383.00 481.27 1134.65 40.20 494.97 156.60 378.62 998.90 489.62 166.47 504.64 588.39 47.14 490.88 915.79 472.57 0.00 58.93 722.34 518.33 669.56 778.96 256.59 63.05 722.29 926.04 238.35 933.94 541.69 509.49 59.66 107.93 1018.54 487.05 288.18 458.35 326.45 619.64 347.17 169.22 358.25 583.00 544.76 350.89 93.10 510.64 859.64 998.68 674.98 751.95 438.00 64.33 454.06 853.06 124.98 425.84 1023.95 670.57 800.83 577.47 604.91
914.57 601.66 475.90 54.48 36.51 635.43 287.42 853.44 403.40 589.46 83.50 146.20 100.64 957.57 193.10 1067.41 485.49 496.61 400.40 897.00 102.76 630.32 531.65 20.95 994.30 421.08 462.82 131.18 400.21 685.12 500.29 690.59 796.79 1113.53 842.17 1079.30 497.55 994.59 85.88 681.90 347.68 453.42 1104.13 35.71 490.48 121.28 348.10 1025.33 454.30 131.56 469.32 560.18 73.57 463.03 871.85 437.25 58.93 0.00 688.25 513.84 635.61 748.44 252.10 70.84 663.36 890.72 233.86 880.41 525.26 462.79 30.18 49.00 1018.94 482.56 235.62 517.28 291.13 588.40 318.96 138.40 335.00 606.62 516.91 333.22 130.45 480.63 811.92 950.96 639.66 753.42 406.45 73.12 436.39 794.13 94.46 382.87 996.10 642.72 813.56 579.55 577.06
1129.10 219.32 394.50 710.62 686.56 772.37 688.78 380.91 325.19 704.24 638.18 834.45 756.78 843.63 690.19 675.95 290.89 291.29 463.29 320.78 641.42 588.72 249.36 709.20 494.28 787.97 405.27 731.93 465.10 940.58 251.93 90.42 911.57 630.81 767.07 665.04 313.41 838.02 689.13 707.99 443.70 315.40 648.91 682.14 283.79 566.97 777.30 902.10 353.38 724.32 494.33 508.45 745.73 317.23 240.90 318.67 722.34 688.25 0.00 691.65 563.88 1044.03 608.79 737.93 353.61 545.91 568.30 537.86 289.93 327.53 711.32 708.11 759.34 235.29 551.46 829.52 490.79 213.68 545.39 682.34 528.95 901.75 344.89 450.38 798.97 323.79 241.06 380.10 48.59 894.43 446.54 741.85 347.21 258.85 743.32 447.76 662.01 408.43 653.54 347.06 355.70
488.12 571.80 336.24 506.61 539.91 169.49 320.74 680.24 486.12 82.79 551.52 584.13 552.77 500.83 529.31 724.52 416.26 413.54 295.65 837.77 571.61 289.32 679.59 501.45 786.02 341.74 327.62 557.78 269.89 292.63 468.41 722.84 290.12 722.10 345.63 756.33 393.74 584.35 490.85 168.06 356.24 410.25 740.20 478.13 447.14 546.75 449.25 579.89 560.20 611.84 409.72 365.12 541.72 418.44 844.73 434.80 518.33 513.84 691.65 0.00 243.46 432.77 389.96 533.92 593.74 618.34 468.26 583.72 410.80 445.17 507.31 562.84 661.82 456.36 590.91 229.41 386.62 624.14 378.79 610.25 376.75 280.30 346.76 480.06 552.53 401.80 784.80 727.39 713.72 357.70 306.93 537.84 494.70 767.01 583.06 287.23 683.20 469.34 422.07 477.28 441.17
586.24 465.90 275.51 612.02 614.29 279.33 421.78 436.78 425.39 267.21 552.11 749.83 606.02 350.82 564.21 600.36 361.60 376.83 361.52 676.96 580.30 45.86 623.15 648.15 542.56 389.76 262.20 605.95 361.33 536.09 448.76 654.30 474.54 546.89 247.67 527.23 339.08 466.73 595.96 203.52 355.94 347.48 563.28 640.47 392.48 562.05 497.27 526.90 511.30 613.77 214.01 121.66 681.08 337.87 662.25 315.91 669.56 635.61 563.88 243.46 0.00 590.77 459.01 639.33 409.49 443.41 442.32 448.90 328.28 373.39 637.19 622.04 418.36 382.92 604.40 416.83 412.49 592.83 362.88 669.77 373.46 464.72 356.62 436.46 700.37 359.29 587.73 608.75 515.29 434.48 358.14 640.73 515.80 584.53 617.34 343.99 542.29 253.92 178.61 359.72 319.58
228.70 892.76 769.01 743.83 784.95 403.18 509.69 1013.64 864.57 349.98 801.27 843.07 699.26 744.19 707.76 882.95 809.50 807.45 683.64 1132.70 764.24 629.11 1004.58 769.39 1082.71 483.50 760.39 674.65 690.50 206.35 792.10 1046.53 172.91 873.27 504.06 907.50 816.75 749.16 745.41 417.14 728.66 784.36 891.37 769.99 818.12 737.76 567.30 689.30 915.65 880.00 681.22 674.74 786.33 793.97 1096.71 740.50 778.96 748.44 1044.03 432.77 590.77 0.00 580.97 716.52 979.73 797.54 657.21 825.92 843.07 797.98 775.50 797.44 744.74 823.88 869.90 351.27 698.97 947.83 677.10 831.97 633.23 226.62 779.53 814.87 811.50 783.88 1043.47 1065.81 1052.78 240.49 700.39 733.97 882.34 1061.26 653.98 673.16 841.63 844.69 702.57 811.88 844.43
777.67 467.27 277.65 244.87 276.38 518.81 156.81 653.05 283.60 418.05 228.00 388.45 291.03 776.52 139.35 900.47 338.82 320.18 176.92 756.91 237.63 429.26 543.73 246.29 839.16 243.82 247.40 247.29 202.68 584.11 366.32 620.75 625.38 895.37 632.07 929.60 347.90 781.81 278.95 531.53 174.55 322.99 904.47 216.39 345.12 156.79 293.56 806.30 376.93 307.00 311.79 337.35 279.98 313.38 756.99 321.54 256.59 252.10 608.79 389.96 459.01 580.97 0.00 272.18 515.05 686.55 83.66 748.45 362.20 301.38 245.57 297.93 766.84 376.18 288.93 376.05 118.00 486.98 96.13 251.00 101.66 500.70 323.34 283.30 333.22 330.92 692.68 760.66 560.20 622.81 193.67 276.10 312.88 679.27 255.94 194.45 802.65 433.51 600.04 379.16 367.85
843.73 640.92 506.82 27.31 107.35 663.05 321.38 851.60 474.24 562.29 149.17 163.17 50.52 917.15 154.85 1085.71 523.01 520.29 413.70 949.86 162.61 634.02 602.49 68.36 1022.29 402.94 490.12 98.78 413.51 614.28 537.53 761.43 743.45 1090.31 845.87 1072.28 515.85 1018.59 96.42 701.98 417.91 490.94 1072.21 55.79 510.56 192.12 316.18 1021.57 503.52 174.36 540.16 570.72 69.81 481.33 942.69 489.95 63.05 70.84 737.93 533.92 639.33 716.52 272.18 0.00 734.20 929.27 237.56 931.92 543.56 514.13 64.09 119.84 981.56 502.64 306.46 511.34 361.36 638.40 329.50 188.78 338.25 626.70 554.15 376.65 115.66 508.62 860.63 971.49 710.50 734.60 430.45 27.35 454.25 864.97 62.54 396.17 1033.62 665.38 817.94 577.71 599.72
971.37 300.18 281.83 717.84 699.87 603.45 581.81 241.84 366.74 647.02 652.34 809.56 747.29 664.51 654.40 640.03 284.57 279.81 373.64 283.17 652.44 430.99 322.02 684.31 404.28 691.39 273.02 703.24 375.14 850.93 269.85 406.25 806.82 643.73 476.17 677.96 274.32 650.06 686.55 611.21 421.99 268.21 650.75 699.07 304.62 599.19 732.00 704.17 404.97 701.19 363.34 331.89 736.93 258.60 307.90 284.83 722.29 663.36 353.61 593.74 409.49 979.73 515.05 734.20 0.00 379.69 585.16 447.11 239.12 331.34 683.59 695.59 626.52 273.36 555.19 730.43 466.36 265.27 468.75 653.29 421.98 844.53 246.98 387.25 792.01 241.45 217.68 356.72 305.02 747.04 361.14 712.58 367.12 230.18 728.91 366.97 495.79 218.23 463.15 175.65 152.57
907.92 422.20 481.58 911.34 880.65 572.74 782.42 217.55 597.52 654.81 818.47 1017.49 920.55 564.02 825.90 315.25 439.02 457.66 539.77 378.65 850.28 408.13 603.25 903.56 285.67 772.69 439.15 881.05 550.44 811.33 525.59 636.33 682.16 289.16 293.48 307.11 461.54 292.11 861.21 471.05 602.11 471.09 271.06 902.94 480.07 769.44 858.76 387.94 608.03 922.75 553.59 389.14 947.44 480.70 394.76 453.47 926.04 890.72 545.91 618.34 443.41 797.54 686.55 929.27 379.69 0.00 717.42 67.42 484.47 510.95 903.55 888.40 246.83 494.62 803.78 779.20 632.49 547.88 628.13 877.66 645.05 780.44 483.80 635.84 999.69 490.72 360.71 268.27 497.32 749.74 535.09 934.68 542.53 378.50 892.44 533.10 116.10 327.50 264.80 433.30 393.16
787.17 529.51 320.31 211.00 207.10 527.34 147.52 715.17 351.41 501.71 178.84 364.11 220.30 793.14 121.89 948.94 400.92 383.89 260.58 793.44 182.42 396.46 578.54 228.05 859.20 281.18 312.14 163.63 244.62 593.61 426.12 658.72 681.10 979.03 608.31 969.55 378.40 853.41 234.39 567.31 234.35 377.76 977.50 198.15 408.70 137.83 221.62 842.83 444.74 323.49 348.32 373.88 261.74 372.82 800.77 360.66 238.35 233.86 568.30 468.26 442.32 657.21 83.66 237.56 585.16 717.42 0.00 768.83 406.79 369.46 227.33 248.77 850.50 434.03 320.56 385.55 185.81 569.54 132.66 281.97 184.22 510.20 393.84 311.76 299.35 345.53 740.84 802.60 616.89 613.52 269.69 235.06 396.54 723.05 175.02 245.39 833.52 498.25 620.93 455.18 432.59
936.30 489.62 532.79 922.22 902.24 571.87 804.76 284.97 578.01 599.42 853.86 1026.61 939.28 593.85 887.80 311.78 478.69 461.66 578.70 425.83 863.49 442.34 670.67 888.00 256.79 806.21 501.05 932.46 566.32 839.71 541.51 628.28 710.54 244.19 321.86 278.42 456.17 359.53 896.96 415.66 613.98 455.53 262.29 893.74 486.47 782.65 892.28 455.36 636.31 911.97 587.11 422.66 945.16 450.59 462.18 466.68 933.94 880.41 537.86 583.72 448.90 825.92 748.45 931.92 447.11 67.42 768.83 0.00 451.85 524.16 900.24 882.91 256.49 506.49 772.00 765.34 669.73 615.30 663.88 870.10 650.01 784.49 471.24 604.06 1002.04 423.30 428.13 335.69 489.27 778.12 588.51 904.57 609.95 436.73 943.85 570.34 126.06 314.94 270.29 420.74 380.60
858.00 215.90 116.25 529.97 520.50 487.59 429.54 409.57 190.37 493.59 491.82 646.03 550.92 679.10 501.55 542.15 45.45 64.09 195.15 499.07 492.61 317.62 321.30 504.31 568.73 525.44 158.68 532.52 193.18 672.44 145.46 380.35 698.63 641.25 508.69 615.28 42.36 653.78 511.93 497.84 207.28 71.84 623.15 501.49 86.22 420.61 563.27 617.85 232.52 518.25 209.55 218.52 537.56 62.23 473.92 104.64 541.69 525.26 289.93 410.80 328.28 843.07 362.20 543.56 239.12 484.47 406.79 451.85 0.00 94.22 516.55 499.22 700.60 54.64 410.21 617.06 263.83 264.55 305.14 492.38 269.71 671.29 64.04 242.27 594.44 61.26 413.99 550.40 308.32 680.40 178.40 516.21 251.85 396.20 521.83 208.30 556.06 179.59 412.76 145.93 113.93
867.91 206.37 157.13 511.71 426.28 542.20 418.54 448.79 96.15 527.96 444.66 608.41 520.61 724.21 440.73 636.37 83.34 64.70 175.89 536.96 399.90 327.53 275.57 483.74 537.78 518.75 161.75 476.71 175.28 653.18 102.98 357.41 699.24 735.47 476.91 709.50 97.14 708.56 417.71 486.05 249.69 90.57 717.37 491.49 43.74 373.45 514.60 712.07 151.63 477.41 294.52 304.34 499.94 100.18 511.34 57.48 509.49 462.79 327.53 445.17 373.39 797.98 301.38 514.13 331.34 510.95 369.46 524.16 94.22 0.00 483.09 473.47 745.90 92.24 343.22 633.58 261.75 258.71 236.80 441.32 282.14 705.87 131.48 175.28 556.82 100.86 451.88 590.92 348.79 633.24 159.14 512.03 186.56 434.09 517.95 192.62 593.95 221.19 450.71 174.90 208.15
902.53 576.83 495.10 36.78 56.81 605.25 317.60 861.07 433.58 571.76 85.08 170.49 76.24 942.87 162.92 1058.70 476.78 487.90 401.98 922.85 117.75 623.79 561.83 12.24 990.61 451.26 464.40 138.67 401.79 678.37 473.44 713.97 779.09 1127.01 835.64 1099.60 488.84 1006.87 85.21 675.37 365.44 444.71 1108.91 29.18 483.95 151.46 375.16 1013.78 439.43 129.91 499.50 559.51 62.02 454.32 881.80 467.43 59.66 30.18 711.32 507.31 637.19 775.50 245.57 64.09 683.59 903.55 227.33 900.24 516.55 483.09 0.00 66.31 1012.41 476.03 252.93 518.01 308.89 579.13 318.29 132.66 347.23 600.09 508.20 331.32 108.42 476.94 833.62 959.77 669.84 783.60 418.73 67.24 434.49 824.31 121.52 384.45 987.39 634.01 804.85 587.18 568.35
962.84 619.03 479.95 103.09 47.19 671.56 336.42 822.07 444.71 598.44 69.93 195.20 115.71 951.37 223.23 1041.37 459.45 470.57 386.83 905.52 107.38 645.23 580.65 69.95 973.28 465.62 449.25 180.18 386.64 734.12 522.46 647.66 805.77 1072.93 857.08 1038.70 471.51 991.72 134.88 730.90 367.54 427.38 1074.75 84.71 500.50 141.14 376.32 1060.23 474.16 82.56 489.18 591.28 120.85 436.99 887.92 457.11 107.93 49.00 708.11 562.84 622.04 797.44 297.93 119.84 695.59 888.40 248.77 882.91 499.22 473.47 66.31 0.00 1040.40 509.29 186.62 566.28 310.99 581.71 359.95 123.65 350.71 655.62 490.87 312.96 136.73 459.61 816.29 944.62 659.52 744.20 403.58 122.12 416.13 810.20 143.46 369.30 970.06 616.68 787.52 570.35 551.02
871.05 669.03 633.43 999.56 1032.65 617.78 840.14 464.38 783.31 625.86 970.47 1096.15 988.92 463.92 906.19 224.60 680.76 687.43 684.92 625.48 998.66 464.22 850.08 1013.03 466.99 808.12 675.86 1014.13 659.16 641.60 754.62 849.76 727.60 128.53 338.92 162.76 658.24 202.92 1004.20 516.49 745.51 701.46 146.63 983.23 702.16 923.63 915.63 307.73 854.86 1032.13 632.37 540.02 987.68 692.76 641.59 700.30 1018.54 1018.94 759.34 661.82 418.36 744.74 766.84 981.56 626.52 246.83 850.50 256.49 700.60 745.90 1012.41 1040.40 0.00 662.02 980.18 791.78 775.89 794.71 771.12 1017.84 766.02 785.19 681.01 854.82 1044.56 669.23 607.54 515.10 744.15 691.58 696.20 954.21 789.36 625.33 1022.78 676.50 251.12 524.71 491.04 623.65 590.37
893.81 195.99 159.21 475.33 487.74 537.08 456.07 385.66 173.31 539.15 439.36 618.91 521.49 723.87 513.53 596.79 55.60 56.00 228.00 461.82 448.99 353.43 266.66 476.75 602.17 552.68 169.98 528.04 237.22 705.29 92.60 325.71 690.54 695.89 535.93 669.92 78.12 689.54 490.31 472.70 247.91 87.67 677.79 446.85 48.50 368.15 542.01 672.49 239.83 545.90 259.04 273.16 510.44 84.52 459.75 83.38 487.05 482.56 235.29 456.36 382.92 823.88 376.18 502.64 273.36 494.62 434.03 506.49 54.64 92.24 476.03 509.29 662.02 0.00 406.89 667.53 259.35 209.91 311.38 515.94 296.24 681.44 109.60 252.42 563.68 88.50 372.59 511.63 283.88 659.14 211.25 506.56 232.71 390.38 562.86 229.44 566.21 210.48 435.05 111.77 144.82
999.94 468.14 395.99 289.71 233.81 699.00 445.74 635.45 300.08 673.70 208.34 349.51 302.33 894.86 379.23 952.36 364.76 350.89 295.26 774.43 241.16 612.22 487.01 251.59 870.20 532.75 395.88 337.40 321.02 770.49 396.97 461.04 868.91 1016.19 820.13 1025.49 387.28 900.15 304.89 649.87 336.14 394.08 1021.22 271.33 386.96 182.73 542.18 1004.96 309.83 252.53 447.42 538.47 241.04 389.85 773.11 396.10 288.18 235.62 551.46 590.91 604.40 869.90 288.93 306.46 555.19 803.78 320.56 772.00 410.21 343.22 252.93 186.62 980.18 406.89 0.00 664.98 315.64 436.69 385.06 223.27 349.58 691.53 417.67 167.94 297.92 389.25 685.20 824.24 569.73 890.81 312.01 308.74 271.11 702.99 329.15 312.79 875.37 513.61 735.37 461.09 502.96
401.62 680.98 558.42 515.89 532.53 266.68 238.03 847.63 631.03 165.92 562.13 613.96 517.91 583.96 356.49 906.14 611.93 630.57 457.69 1007.64 492.58 371.07 790.07 507.15 897.81 132.23 541.13 475.07 483.45 208.06 577.59 832.02 326.66 903.72 527.25 898.75 589.41 681.54 545.83 349.68 493.29 616.99 905.39 498.55 636.83 523.38 239.74 683.84 697.46 624.82 517.52 398.54 505.49 609.58 941.21 602.31 458.35 517.28 829.52 229.41 416.83 351.27 376.05 511.34 730.43 779.20 385.55 765.34 617.06 633.58 518.01 566.28 791.78 667.53 664.98 0.00 465.43 733.32 414.18 592.13 397.86 124.65 576.17 579.50 551.45 596.41 918.41 933.96 851.71 293.60 474.44 515.93 682.67 909.74 472.63 475.22 864.82 629.70 593.91 659.93 660.37
823.66 351.71 199.30 345.61 289.44 502.31 227.40 574.70 165.60 440.03 241.06 418.72 367.84 681.46 257.35 782.47 261.62 258.90 116.92 661.34 236.00 388.33 436.11 312.08 760.10 361.06 193.34 268.69 116.73 594.21 248.32 502.75 647.36 856.12 600.18 855.60 244.94 703.46 264.94 471.53 56.55 229.55 863.47 326.84 262.50 169.85 377.59 759.78 258.93 315.40 260.00 290.83 359.76 219.94 656.68 243.19 326.45 291.13 490.79 386.62 412.49 698.97 118.00 361.36 466.36 632.49 185.81 669.73 263.83 261.75 308.89 310.99 775.89 259.35 315.64 465.43 0.00 394.55 119.13 259.40 67.57 565.92 263.34 224.75 416.64 246.43 599.24 674.71 442.20 693.40 115.32 340.12 256.01 600.92 327.04 99.39 748.59 379.45 553.52 300.81 313.79
1075.83 213.69 337.54 611.09 591.13 718.85 545.15 507.11 228.95 706.93 542.75 734.60 655.37 929.78 544.44 806.70 256.02 263.43 369.09 490.64 544.01 562.64 56.75 587.83 656.08 678.81 379.38 640.25 368.90 846.38 155.73 215.69 897.97 837.04 725.57 854.99 268.37 839.99 593.70 682.61 347.50 257.01 818.94 582.61 214.97 471.54 695.34 882.40 139.70 585.02 440.81 483.07 641.15 266.62 449.75 292.59 619.64 588.40 213.68 624.14 592.83 947.83 486.98 638.40 265.27 547.88 569.54 615.30 264.55 258.71 579.13 581.71 794.71 209.91 436.69 733.32 394.55 0.00 436.88 529.02 385.32 833.81 315.35 268.75 687.55 278.14 401.41 540.45 208.94 868.35 385.84 632.10 205.20 419.20 674.88 351.56 663.98 392.42 604.85 321.68 354.73
815.80 396.85 205.27 335.45 339.76 428.98 181.85 596.41 284.73 444.22 311.50 465.16 326.43 694.80 235.48 847.29 286.57 297.69 130.26 660.78 273.30 340.32 493.63 306.05 769.18 281.95 206.68 282.65 111.96 606.14 293.46 547.89 646.27 864.45 535.94 852.53 292.64 725.17 233.08 484.87 101.69 254.50 846.35 306.97 280.54 252.92 277.80 710.17 345.95 364.71 215.66 241.22 363.21 263.28 700.35 228.00 347.17 318.96 545.39 378.79 362.88 677.10 96.13 329.50 468.75 628.13 132.66 663.88 305.14 236.80 318.29 359.95 771.12 311.38 385.06 414.18 119.13 436.88 0.00 347.13 51.56 473.05 261.18 221.75 420.09 259.77 640.42 669.94 558.56 578.69 137.03 327.40 310.71 622.63 281.15 112.73 744.23 381.84 503.91 322.52 316.18
993.75 574.41 458.70 161.47 101.89 733.92 354.10 834.10 374.13 669.05 129.42 233.30 207.63 940.86 277.93 1034.53 462.86 481.50 376.32 869.87 99.55 647.73 577.81 120.42 976.39 487.76 452.74 195.79 376.13 789.48 471.02 683.26 876.38 1114.29 859.58 1107.66 450.02 962.86 180.31 730.93 315.95 460.09 1114.86 144.04 485.06 180.39 438.05 1002.94 400.63 56.00 519.40 550.23 175.55 469.70 874.56 496.36 169.22 138.40 682.34 610.25 669.77 831.97 251.00 188.78 653.29 877.66 281.97 870.10 492.38 441.32 132.66 123.65 1017.84 515.94 223.27 592.13 259.40 529.02 347.13 0.00 326.97 707.84 497.00 266.04 177.99 482.89 826.22 934.11 633.75 820.10 374.72 179.24 335.13 813.61 232.86 358.79 973.47 628.07 772.78 560.21 573.19
784.03 365.61 200.17 310.94 331.67 480.54 159.83 594.09 233.17 392.66 284.93 481.20 357.10 701.46 241.01 811.86 253.40 250.68 132.62 680.25 243.33 327.60 442.07 337.54 742.93 293.49 213.34 326.27 106.86 554.58 287.20 541.63 599.99 864.33 539.45 867.22 246.24 732.04 264.57 487.23 95.43 221.33 846.23 318.05 283.72 213.72 310.02 724.86 326.50 382.97 267.22 255.91 381.64 211.72 670.58 265.19 358.25 335.00 528.95 376.75 373.46 633.23 101.66 338.25 421.98 645.05 184.22 650.01 269.71 282.14 347.23 350.71 766.02 296.24 349.58 397.86 67.57 385.32 51.56 326.97 0.00 522.51 256.08 181.64 399.29 229.26 591.02 664.84 507.00 625.83 143.90 356.29 284.81 604.15 332.71 119.39 761.15 335.07 518.60 320.20 269.41
358.13 805.63 616.54 599.39 636.12 298.27 362.68 896.68 731.52 197.51 682.65 738.61 642.56 615.55 481.14 925.29 625.84 644.48 529.98 1055.20 617.23 495.72 871.29 600.81 1007.28 256.88 607.92 599.72 550.19 143.59 702.24 956.67 259.95 913.72 546.40 897.37 648.36 681.97 583.71 368.83 574.74 657.91 931.82 570.91 666.89 635.85 364.39 717.45 694.11 704.62 549.11 523.19 630.14 667.52 1030.05 674.60 583.00 606.62 901.75 280.30 464.72 226.62 500.70 626.70 844.53 780.44 510.20 784.49 671.29 705.87 600.09 655.62 785.19 681.44 691.53 124.65 565.92 833.81 473.05 707.84 522.51 0.00 627.06 694.80 676.10 681.23 970.12 1007.69 900.31 263.91 546.73 630.62 729.87 952.33 597.28 547.51 883.97 643.62 548.75 732.22 691.96
834.88 263.01 81.11 537.01 516.91 452.58 389.07 404.61 200.14 429.55 463.32 616.27 539.78 690.56 462.69 606.19 69.50 66.78 146.42 523.12 428.57 310.76 332.83 495.96 568.71 519.22 123.54 524.81 149.22 623.71 159.62 379.74 636.88 685.56 502.47 679.32 46.98 658.40 494.26 454.57 230.56 63.49 667.46 525.48 100.38 406.49 537.35 681.89 249.68 454.21 174.54 266.13 553.12 72.82 497.97 90.52 544.76 516.91 344.89 346.76 356.62 779.53 323.34 554.15 246.98 483.80 393.84 471.24 64.04 131.48 508.20 490.87 681.01 109.60 417.67 576.17 263.34 315.35 261.18 497.00 256.08 627.06 0.00 266.32 576.20 55.04 438.04 527.11 368.10 666.28 163.17 526.80 262.44 420.25 494.50 163.95 580.11 156.30 411.10 145.22 94.41
891.15 315.31 277.63 349.34 331.53 588.15 341.47 588.85 132.14 562.85 283.15 479.42 395.50 784.01 408.44 784.42 196.82 215.46 184.41 627.88 292.78 482.32 325.50 319.08 713.06 475.13 285.03 387.99 210.17 661.70 229.03 451.30 758.06 848.25 652.19 857.55 219.34 789.30 334.10 539.02 168.20 228.89 854.31 348.98 219.02 211.94 491.66 860.12 168.67 322.04 336.57 402.48 376.24 238.50 620.28 232.76 350.89 333.22 450.38 480.06 436.46 814.87 283.30 376.65 387.25 635.84 311.76 604.06 242.27 175.28 331.32 312.96 854.82 252.42 167.94 579.50 224.75 268.75 221.75 266.04 181.64 694.80 266.32 0.00 433.12 222.34 565.36 704.40 401.79 782.02 201.16 377.90 103.17 547.57 427.68 201.94 707.43 362.03 567.43 314.96 335.02
953.07 658.46 577.24 88.35 130.54 713.67 417.87 912.64 521.12 623.33 185.85 114.02 134.51 1001.14 270.51 1136.59 578.58 589.70 484.12 999.81 203.43 695.81 662.10 114.04 1092.41 497.92 560.54 191.26 483.93 729.94 581.86 758.96 830.66 1173.09 898.16 1159.19 590.64 1089.01 187.01 720.59 473.19 546.51 1167.19 116.83 571.60 246.79 397.44 1008.64 547.85 121.99 594.83 655.20 56.88 556.12 963.43 550.99 93.10 130.45 798.97 552.53 700.37 811.50 333.22 115.66 792.01 999.69 299.35 1002.04 594.44 556.82 108.42 136.73 1044.56 563.68 297.92 551.45 416.64 687.55 420.09 177.99 399.29 676.10 576.20 433.12 0.00 578.74 914.73 1041.91 765.17 845.05 500.87 133.70 513.12 896.94 157.52 466.59 1089.19 732.50 810.57 638.75 668.70
853.81 225.80 109.49 498.92 478.94 494.56 389.09 411.89 154.71 484.59 430.56 615.77 515.98 680.83 467.42 603.41 55.39 38.36 155.40 480.39 440.19 313.43 277.79 464.70 513.67 464.18 101.24 509.16 148.72 632.69 122.41 376.84 672.90 650.07 447.43 668.02 32.87 644.29 481.51 494.32 190.68 32.23 631.97 470.44 63.17 359.35 502.01 679.11 213.01 488.67 229.58 243.83 521.86 27.29 455.24 43.38 510.64 480.63 323.79 401.80 359.29 783.88 330.92 508.62 241.45 490.72 345.53 423.30 61.26 100.86 476.94 459.61 669.23 88.50 389.25 596.41 246.43 278.14 259.77 482.89 229.26 681.23 55.04 222.34 578.74 0.00 395.31 534.35 322.57 619.14 165.21 481.27 216.91 377.52 520.55 147.04 549.36 175.95 366.77 141.74 134.57
1087.72 363.20 461.50 847.92 830.44 761.41 750.85 150.95 469.07 772.61 782.06 958.12 867.99 882.19 832.03 515.98 368.54 387.18 520.14 89.23 791.69 547.34 438.64 821.38 274.02 859.49 490.70 867.93 535.04 914.87 465.19 331.48 946.71 559.62 654.19 589.11 391.06 652.82 833.01 766.44 542.69 388.91 577.72 819.44 409.59 710.85 891.40 748.65 541.11 792.74 511.53 549.57 878.54 379.30 95.51 432.77 859.64 811.92 241.06 784.80 587.73 1043.47 692.68 860.63 217.68 360.71 740.84 428.13 413.99 451.88 833.62 816.29 607.54 372.59 685.20 918.41 599.24 401.41 640.42 826.22 591.02 970.12 438.04 565.36 914.73 395.31 0.00 139.04 192.47 879.13 503.39 833.28 491.09 17.79 902.82 530.68 446.04 435.91 585.91 393.33 370.25
1103.27 495.23 589.81 953.56 936.87 800.15 824.67 189.69 606.12 810.18 874.69 1025.03 996.37 832.29 900.01 376.94 507.58 526.22 583.74 110.38 908.17 562.89 577.68 960.42 155.11 892.95 556.92 939.24 557.98 1002.37 598.62 470.52 950.43 465.01 561.75 450.07 520.04 560.38 903.02 739.32 644.33 527.95 446.91 958.48 548.26 844.56 947.74 656.21 680.15 931.78 647.24 613.30 1003.66 518.34 190.26 571.81 998.68 950.96 380.10 727.39 608.75 1065.81 760.66 971.49 356.72 268.27 802.60 335.69 550.40 590.92 959.77 944.62 515.10 511.63 824.24 933.96 674.71 540.45 669.94 934.11 664.84 1007.69 527.11 704.40 1041.91 534.35 139.04 0.00 331.51 951.51 595.02 972.32 630.13 156.83 951.09 575.32 331.58 370.81 533.07 463.58 436.47
1101.53 170.73 377.48 694.14 637.97 762.55 666.83 343.42 276.60 702.80 589.59 785.86 740.30 795.04 699.55 627.36 302.31 320.95 429.89 281.70 599.22 561.15 265.69 660.61 447.14 786.75 416.22 694.43 451.02 907.18 274.12 139.01 910.13 630.13 762.96 648.08 324.83 789.43 640.54 718.81 458.67 304.89 612.03 675.37 305.05 518.38 807.38 853.51 348.64 675.73 514.58 514.97 708.29 295.28 240.81 348.75 674.98 639.66 48.59 713.72 515.29 1052.78 560.20 710.50 305.02 497.32 616.89 489.27 308.32 348.79 669.84 659.52 744.15 283.88 569.73 851.71 442.20 208.94 558.56 633.75 507.00 900.31 368.10 401.79 765.17 322.57 192.47 331.51 0.00 924.51 433.20 712.78 298.62 210.26 734.12 446.66 613.42 362.91 604.95 372.08 389.89
293.34 779.61 618.27 761.91 789.93 316.13 466.00 845.28 729.39 274.91 790.10 897.77 773.60 503.70 650.09 835.15 644.76 649.49 597.61 968.36 720.55 388.62 896.93 774.37 977.04 425.83 604.96 703.04 615.47 120.32 712.62 966.64 67.58 786.09 456.26 820.32 652.01 564.19 773.80 424.90 680.38 619.62 804.19 789.13 653.38 751.35 498.37 459.38 784.87 826.76 556.77 487.72 799.09 629.23 974.64 575.76 751.95 753.42 894.43 357.70 434.48 240.49 622.81 734.60 747.04 749.74 613.52 778.12 680.40 633.24 783.60 744.20 691.58 659.14 890.81 293.60 693.40 868.35 578.69 820.10 625.83 263.91 666.28 782.02 845.05 619.14 879.13 951.51 924.51 0.00 614.36 761.95 802.54 896.92 728.32 615.14 793.83 647.25 613.09 571.39 657.25
723.49 333.50 83.98 412.52 395.83 386.99 259.40 459.38 204.85 389.72 333.65 504.09 450.49 616.35 333.02 720.55 177.43 176.88 16.75 588.47 351.32 312.28 424.30 427.40 678.88 393.06 95.94 383.56 37.04 494.04 230.11 484.54 584.93 740.80 524.13 775.03 172.44 588.14 370.11 371.36 103.29 147.53 758.90 397.80 202.88 285.17 414.83 692.95 298.18 430.72 153.69 238.53 461.39 137.92 563.32 127.87 438.00 406.45 446.54 306.93 358.14 700.39 193.67 430.45 361.14 535.09 269.69 588.51 178.40 159.14 418.73 403.58 696.20 211.25 312.01 474.44 115.32 385.84 137.03 374.72 143.90 546.73 163.17 201.16 500.87 165.21 503.39 595.02 433.20 614.36 0.00 453.73 261.85 485.60 405.21 34.28 651.19 282.05 473.05 185.49 216.39
871.08 644.02 482.04 45.35 103.72 672.49 308.47 861.23 476.52 580.33 137.14 178.52 34.71 901.34 169.26 1058.36 495.66 492.94 436.98 922.51 143.76 631.52 604.77 58.82 994.94 420.39 516.46 71.43 425.82 641.63 540.68 763.71 770.80 1082.74 843.37 1089.73 488.50 1041.87 94.32 705.90 396.67 463.59 1089.66 59.71 514.48 194.40 333.63 1037.57 492.40 176.49 542.44 568.62 90.19 453.98 924.13 507.45 64.33 73.12 741.85 537.84 640.73 733.97 276.10 27.35 712.58 934.68 235.06 904.57 516.21 512.03 67.24 122.12 954.21 506.56 308.74 515.93 340.12 632.10 327.40 179.24 356.29 630.62 526.80 377.90 133.70 481.27 833.28 972.32 712.78 761.95 453.73 0.00 426.90 846.41 79.99 423.52 1006.27 638.03 804.51 587.34 572.37
957.31 281.45 240.29 452.51 427.15 625.36 444.64 596.87 90.41 532.36 386.32 568.43 461.61 824.22 452.23 794.00 231.30 228.58 250.57 580.32 338.81 469.94 242.68 422.25 724.34 556.70 282.72 435.05 224.81 727.86 187.30 348.13 739.69 831.69 641.93 849.64 224.14 828.27 419.57 605.18 209.02 199.23 813.59 450.35 215.22 315.11 588.51 869.70 65.50 391.13 402.73 419.42 479.41 189.62 539.43 226.78 454.06 436.39 347.21 494.70 515.80 882.34 312.88 454.25 367.12 542.53 396.54 609.95 251.85 186.56 434.49 416.13 789.36 232.71 271.11 682.67 256.01 205.20 310.71 335.13 284.81 729.87 262.44 103.17 513.12 216.91 491.09 630.13 298.62 802.54 261.85 426.90 0.00 508.88 493.40 242.15 658.63 373.67 540.15 322.98 308.01
1079.05 380.99 463.35 848.61 830.64 771.78 745.00 168.74 486.86 754.82 799.85 940.33 879.88 894.69 818.62 533.77 350.75 369.39 502.35 102.87 800.67 538.67 452.28 815.08 291.81 841.70 478.16 869.16 522.64 932.66 451.04 349.27 962.15 577.41 671.98 573.47 373.27 670.61 850.80 784.23 555.82 382.82 595.51 829.84 391.80 728.64 878.38 766.44 553.22 774.95 493.74 562.07 867.70 392.43 77.72 419.75 853.06 794.13 258.85 767.01 584.53 1061.26 679.27 864.97 230.18 378.50 723.05 436.73 396.20 434.09 824.31 810.20 625.33 390.38 702.99 909.74 600.92 419.20 622.63 813.61 604.15 952.33 420.25 547.57 896.94 377.52 17.79 156.83 210.26 896.92 485.60 846.41 508.88 0.00 885.03 519.88 463.83 423.37 568.12 396.37 357.71
870.05 675.98 486.42 89.85 130.97 642.14 262.32 857.21 492.64 598.12 147.29 189.09 45.28 911.91 130.44 1063.98 534.28 515.64 411.41 941.93 154.59 571.48 626.11 115.41 1034.22 340.40 487.16 58.35 393.11 668.24 574.61 785.05 758.20 1027.77 783.33 1009.74 541.48 993.35 129.11 664.67 382.84 535.65 1009.67 116.01 561.69 215.74 253.64 991.32 548.76 226.02 496.81 522.37 132.35 533.97 962.75 509.15 124.98 94.46 743.32 583.06 617.34 653.98 255.94 62.54 728.91 892.44 175.02 943.85 521.83 517.95 121.52 143.46 1022.78 562.86 329.15 472.63 327.04 674.88 281.15 232.86 332.71 597.28 494.50 427.68 157.52 520.55 902.82 951.09 734.12 728.32 405.21 79.99 493.40 885.03 0.00 393.88 1008.54 642.00 785.06 590.70 576.34
724.27 299.22 110.65 378.24 361.55 421.27 260.18 493.66 239.13 370.02 299.37 484.39 424.40 582.07 333.80 750.45 173.84 184.96 17.53 619.91 335.39 310.29 408.31 395.41 660.71 393.84 93.95 368.08 17.34 494.82 195.83 450.26 565.23 775.08 522.14 809.31 179.91 622.42 345.81 372.14 69.01 141.77 779.01 406.72 210.21 269.24 390.53 694.93 307.65 414.79 169.69 225.98 428.34 151.38 597.60 162.15 425.84 382.87 447.76 287.23 343.99 673.16 194.45 396.17 366.97 533.10 245.39 570.34 208.30 192.62 384.45 369.30 676.50 229.44 312.79 475.22 99.39 351.56 112.73 358.79 119.39 547.51 163.95 201.94 466.59 147.04 530.68 575.32 446.66 615.14 34.28 423.52 242.15 519.88 393.88 0.00 649.20 280.06 488.67 219.77 214.40
874.01 538.30 597.68 1016.20 996.75 612.00 898.52 333.65 676.47 698.90 934.57 1116.97 1036.65 576.45 942.00 199.15 510.61 529.25 655.87 441.96 960.53 524.23 709.62 975.15 304.50 888.79 555.25 956.20 666.54 772.89 610.90 752.43 726.25 231.46 337.57 256.49 533.13 337.70 977.31 515.14 715.68 542.68 249.56 1005.05 551.66 885.54 974.86 442.51 713.08 1013.67 669.69 505.24 1032.31 552.29 510.86 569.57 1023.95 996.10 662.01 683.20 542.29 841.63 802.65 1033.62 495.79 116.10 833.52 126.06 556.06 593.95 987.39 970.06 251.12 566.21 875.37 864.82 748.59 663.98 744.23 973.47 761.15 883.97 580.11 707.43 1089.19 549.36 446.04 331.58 613.42 793.83 651.19 1006.27 658.63 463.83 1008.54 649.20 0.00 441.00 363.68 546.80 506.66
799.01 284.82 219.00 646.01 627.61 504.07 489.82 321.78 302.26 521.13 565.43 764.45 672.74 604.74 572.86 592.16 165.21 162.72 286.73 471.69 578.40 258.63 449.17 621.77 525.92 522.14 186.11 648.14 297.40 752.02 236.69 491.12 714.83 529.26 470.48 546.94 184.25 619.61 599.64 457.44 342.93 189.30 511.16 632.22 177.45 535.30 629.65 711.44 346.55 610.51 276.43 242.49 678.93 184.05 462.99 219.33 670.57 642.72 408.43 469.34 253.92 844.69 433.51 665.38 218.23 327.50 498.25 314.94 179.59 221.19 634.01 616.68 524.71 210.48 513.61 629.70 379.45 392.42 381.84 628.07 335.07 643.62 156.30 362.03 732.50 175.95 435.91 370.81 362.91 647.25 282.05 638.03 373.67 423.37 642.00 280.06 441.00 0.00 378.63 105.80 65.66
752.52 535.85 420.13 790.63 792.90 335.40 600.39 482.35 512.84 436.16 730.72 862.16 784.63 394.37 703.96 421.75 392.21 389.49 489.80 643.45 758.91 224.47 636.91 792.61 526.57 568.37 405.28 784.56 506.01 649.89 449.12 703.55 583.95 382.85 198.51 348.62 385.05 288.12 736.99 303.51 496.97 360.14 384.67 810.88 422.53 707.42 675.88 392.93 546.33 792.38 359.38 262.69 753.69 350.53 645.84 404.00 800.83 813.56 653.54 422.07 178.61 702.57 600.04 817.94 463.15 264.80 620.93 270.29 412.76 450.71 804.85 787.52 491.04 435.05 735.37 593.91 553.52 604.85 503.91 772.78 518.60 548.75 411.10 567.43 810.57 366.77 585.91 533.07 604.95 613.09 473.05 804.51 540.15 568.12 785.06 488.67 363.68 378.63 0.00 402.55 316.69
864.73 208.22 186.33 550.40 565.13 571.40 444.89 273.89 271.05 560.07 519.14 689.58 596.56 710.54 518.51 688.08 122.44 110.20 202.24 450.65 476.79 364.43 378.43 575.44 508.64 578.55 203.93 569.05 222.53 679.53 198.32 395.25 638.97 635.06 497.23 652.74 144.96 652.40 555.60 556.85 288.78 142.97 616.96 558.62 158.66 465.06 600.32 694.04 284.26 541.91 296.63 346.52 622.21 133.36 409.03 149.09 577.47 579.55 347.06 477.28 359.72 811.88 379.16 577.71 175.65 433.30 455.18 420.74 145.93 174.90 587.18 570.35 623.65 111.77 461.09 659.93 300.81 321.68 322.52 560.21 320.20 732.22 145.22 314.96 638.75 141.74 393.33 463.58 372.08 571.39 185.49 587.34 322.98 396.37 590.70 219.77 546.80 105.80 402.55 0.00 85.86
864.67 219.16 162.88 580.35 561.95 488.81 429.24 359.75 276.34 494.45 499.77 698.79 607.08 670.40 507.20 656.08 138.20 156.84 221.07 435.74 512.74 324.29 400.21 556.11 556.85 562.90 120.45 582.48 231.74 698.36 224.92 446.12 701.78 594.92 411.37 612.60 141.39 566.54 533.98 483.61 281.78 123.64 576.82 584.24 179.25 483.13 579.43 671.35 309.83 548.62 210.77 263.04 613.27 118.39 408.34 167.50 604.91 577.06 355.70 441.17 319.58 844.43 367.85 599.72 152.57 393.16 432.59 380.60 113.93 208.15 568.35 551.02 590.37 144.82 502.96 660.37 313.79 354.73 316.18 573.19 269.41 691.96 94.41 335.02 668.70 134.57 370.25 436.47 389.89 657.25 216.39 572.37 308.01 357.71 576.34 214.40 506.66 65.66 316.69 85.86 0.00
DEMAND_SECTION
1 0
2 5
3 5
4 7
5 3
6 7
7 8
8 9
9 5
10 8
11 1
12 1
13 9
14 9
15 3
16 1
17 5
18 10
19 2
20 9
21 7
22 7
23 8
24 3
25 9
26 7
27 8
28 1
29 2
30 4
31 6
32 2
33 7
34 2
35 4
36 5
37 9
38 8
39 3
40 3
41 10
42 4
43 7
44 7
45 2
46 10
47 5
48 8
49 10
50 7
51 10
52 3
53 2
54 9
55 3
56 1
57 2
58 6
59 3
60 2
61 9
62 6
63 6
64 4
65 2
66 4
67 8
68 7
69 7
70 1
71 4
72 1
73 8
74 3
75 5
76 4
77 5
78 2
79 9
80 1
81 6
82 8
83 2
84 3
85 4
86 6
87 1
88 5
89 8
90 2
91 6
92 8
93 3
94 7
95 3
96 5
97 10
98 8
99 9
100 10
101 5
DEPOT_SECTION
1
-1
EOF
