NAME: LDG170_3361_fog_170_0173
COMMENT: CVRP with travel times.  rootPos=3,custPos=3,demandType=6,avgRouteSizeIndex=1,weather=fog,lambda_cluster=1,lambda_random=4, T1=300,T2=700,beta=1, alpha(i,j) ~ U(0.8,1.2)
TYPE: CVRP
DIMENSION: 171
EDGE_WEIGHT_TYPE: EXPLICIT
EDGE_WEIGHT_FORMAT: FULL_MATRIX
CAPACITY: 232
NODE_COORD_SECTION
1 0 0
2 55 969
3 135 595
4 33 167
5 324 397
6 248 30
7 588 347
8 448 29
9 433 589
10 41 609
11 35 220
12 695 359
13 323 67
14 142 542
15 490 785
16 38 630
17 807 62
18 408 269
19 144 851
20 317 677
21 152 620
22 997 513
23 232 276
24 679 289
25 748 395
26 818 133
27 576 378
28 73 274
29 425 106
30 894 439
31 903 597
32 105 141
33 805 175
34 78 936
35 494 71
36 308 63
37 912 735
38 173 308
39 258 276
40 255 567
41 120 258
42 85 671
43 547 365
44 108 235
45 970 952
46 37 277
47 220 310
48 92 256
49 548 354
50 51 521
51 836 66
52 896 879
53 48 676
54 147 525
55 844 102
56 349 641
57 337 274
58 671 215
59 301 816
60 599 996
61 178 286
62 552 325
63 475 192
64 45 530
65 105 514
66 462 898
67 768 33
68 479 660
69 643 410
70 207 406
71 897 242
72 806 565
73 627 361
74 160 584
75 294 881
76 677 194
77 340 253
78 393 721
79 820 622
80 835 581
81 793 376
82 179 64
83 715 612
84 403 369
85 47 194
86 428 63
87 763 151
88 692 973
89 551 926
90 430 555
91 34 195
92 324 303
93 117 282
94 958 347
95 762 775
96 510 62
97 18 718
98 504 789
99 463 44
100 617 402
101 509 30
102 637 509
103 290 290
104 458 724
105 832 218
106 155 997
107 970 846
108 272 439
109 713 170
110 8 173
111 796 463
112 141 378
113 779 237
114 463 85
115 619 377
116 563 696
117 451 287
118 912 693
119 978 649
120 903 213
121 92 679
122 366 328
123 716 464
124 355 285
125 543 157
126 768 146
127 77 649
128 602 339
129 764 177
130 390 149
131 4 603
132 812 367
133 111 600
134 671 420
135 174 803
136 643 565
137 130 563
138 406 480
139 981 655
140 784 144
141 623 719
142 601 980
143 311 856
144 751 299
145 54 346
146 15 689
147 464 768
148 22 592
149 370 68
150 777 148
151 988 352
152 220 812
153 769 132
154 315 699
155 682 514
156 601 414
157 438 19
158 861 140
159 556 364
160 568 907
161 830 693
162 146 237
163 555 101
164 363 637
165 831 314
166 155 616
167 806 130
168 148 626
169 635 336
170 735 103
171 891 132
EDGE_WEIGHT_SECTION
0.00 1096.69 665.43 228.08 603.49 431.26 770.59 616.65 835.38 683.75 272.21 891.54 490.02 648.93 999.24 727.31 958.14 657.71 975.05 866.85 715.56 1275.15 440.98 900.12 910.55 925.67 765.60 344.60 601.76 1130.42 1228.07 303.67 921.14 1082.66 700.92 472.86 1311.17 416.88 439.28 720.52 304.05 782.57 772.07 357.66 1545.95 351.04 446.34 348.07 762.03 609.55 990.46 1394.93 778.87 660.04 964.58 878.57 580.92 839.43 1019.60 1267.19 395.75 708.02 702.30 637.01 625.83 1108.40 944.95 948.20 856.89 512.98 999.68 1131.58 824.53 704.30 1011.42 785.94 606.78 909.19 1154.67 1169.89 999.92 267.53 1103.53 624.63 256.56 595.94 872.15 1311.77 1161.46 803.27 230.02 535.81 353.54 1153.01 1246.44 678.36 820.45 1024.22 642.57 838.00 689.74 940.11 523.84 966.92 977.28 1161.37 1449.48 586.99 879.60 268.83 1039.78 478.38 907.81 673.51 822.45 1049.58 663.88 1279.98 1325.02 1036.80 764.20 618.31 978.48 584.47 608.59 859.93 748.28 777.88 908.08 597.15 710.93 983.80 654.61 893.78 939.50 1005.05 673.04 762.89 1306.05 885.45 1074.16 1255.28 999.45 878.44 407.39 808.69 997.16 676.61 512.79 880.37 1195.11 929.55 880.98 900.20 974.19 828.44 634.01 979.39 757.26 1198.45 1210.75 348.50 698.24 879.49 976.79 705.53 919.19 715.96 809.29 832.57 1010.18
1096.69 0.00 503.05 873.36 732.99 1101.36 962.93 1107.86 631.21 417.69 841.12 1048.83 1098.40 500.43 579.63 374.13 1312.89 917.15 238.61 489.83 483.10 1227.43 795.44 1063.37 984.90 1242.46 940.62 752.09 1035.56 1082.52 1040.79 962.40 1221.34 66.83 1099.11 1096.40 1068.40 790.13 810.63 641.59 825.25 395.44 900.31 840.60 1107.40 814.76 785.14 805.34 889.58 503.78 1307.25 1004.33 353.89 523.97 1281.37 538.04 897.88 1117.26 339.03 580.67 762.14 943.59 999.91 488.34 507.33 465.76 1323.57 582.73 958.29 683.35 1213.95 1026.21 974.44 527.17 356.45 1173.78 933.02 504.84 1005.73 1057.21 1070.63 1046.01 885.39 856.17 840.13 1034.91 1188.94 715.35 629.54 681.57 866.67 850.29 830.05 1220.58 899.92 1127.98 288.24 554.65 1115.40 934.89 1156.13 827.42 850.08 590.10 1194.32 145.22 1086.91 684.52 1168.72 872.38 1017.04 705.63 1118.91 1075.63 947.95 735.46 884.11 1089.51 1119.65 1251.07 413.81 861.39 968.61 885.84 1107.62 1176.72 423.85 964.33 1191.50 965.82 385.76 1058.15 488.44 996.95 276.53 866.77 539.23 771.08 1138.62 1202.24 734.38 610.12 372.65 1087.67 707.40 288.00 599.32 438.18 1085.59 1197.16 1219.53 257.03 1197.77 456.48 897.24 949.34 1086.28 1296.18 912.05 666.53 958.04 865.35 1174.64 527.98 1138.16 478.06 1235.98 462.12 1010.50 1256.59 1253.59
665.43 503.05 0.00 521.15 345.33 709.89 630.81 752.96 372.17 159.02 464.41 667.12 639.54 87.69 514.69 144.56 930.45 514.99 342.84 244.19 50.13 989.79 420.08 743.96 784.03 895.52 596.84 378.86 698.85 890.44 907.31 517.09 890.99 463.64 708.64 662.08 930.82 352.19 442.21 209.33 387.00 148.42 561.72 431.56 1064.54 430.53 372.40 431.02 570.17 134.98 960.31 962.95 198.60 101.10 934.43 280.57 464.91 797.85 377.52 685.50 382.56 568.24 670.38 159.64 147.79 574.54 863.03 466.57 639.92 260.48 970.82 777.57 684.75 59.11 366.57 776.01 513.72 386.44 862.62 823.41 781.89 651.28 741.09 406.41 466.90 712.69 842.00 796.93 646.62 418.63 493.20 462.63 416.48 976.06 744.16 730.66 214.81 513.27 765.51 637.37 741.37 614.01 437.34 477.89 863.28 510.00 1019.21 271.78 836.06 499.15 746.66 282.76 834.60 726.45 660.08 479.44 554.58 971.11 994.74 950.14 131.99 448.65 666.13 489.56 704.12 829.78 89.01 638.10 878.65 629.11 162.48 792.10 36.44 586.79 294.65 640.22 50.18 422.48 1012.26 855.30 558.32 714.95 392.53 775.67 354.15 224.86 479.60 154.56 703.74 850.22 1027.45 376.28 850.83 273.45 664.02 659.68 764.06 949.24 582.19 609.63 839.64 431.45 763.58 303.63 872.11 64.49 889.04 71.11 684.53 927.79 975.16
228.08 873.36 521.15 0.00 432.58 383.11 699.62 514.08 676.98 455.67 73.83 799.29 346.02 450.55 851.60 499.23 836.46 490.26 779.51 705.63 548.19 1140.04 330.11 780.63 884.47 897.87 691.76 142.29 499.19 986.83 1069.60 111.95 890.84 877.19 571.89 389.39 1187.84 269.24 343.55 518.66 205.59 585.09 668.69 164.03 1407.61 125.07 287.94 191.40 650.05 411.17 889.98 1241.91 550.79 441.32 928.47 696.37 396.50 728.58 817.29 1085.10 296.26 637.05 564.45 438.63 427.45 910.02 903.88 789.80 760.96 357.74 1001.35 939.86 724.90 528.62 832.61 752.32 445.31 738.28 1035.94 985.70 900.00 260.13 932.62 486.29 54.25 530.26 822.54 1131.76 1004.09 632.36 64.59 409.47 182.63 1070.40 1048.06 569.82 592.37 876.58 523.35 719.27 582.50 833.78 366.72 778.25 928.39 936.43 1311.14 428.59 801.88 40.75 938.62 259.66 884.88 515.82 720.57 892.91 575.69 1161.25 1193.52 1003.28 568.66 446.25 870.61 421.15 653.30 834.76 525.68 706.91 860.78 438.60 505.46 929.50 520.43 814.09 749.47 838.66 470.97 578.35 1174.55 859.71 918.92 1097.91 797.14 864.66 209.01 585.36 798.78 478.23 410.22 855.20 1123.84 831.09 855.81 737.94 861.41 725.93 528.50 919.36 672.52 1002.93 1072.41 201.80 643.29 677.23 927.14 534.62 868.96 537.15 724.07 837.99 979.01
603.49 732.99 345.33 432.58 0.00 455.41 360.29 453.83 250.14 438.23 380.40 485.74 378.29 311.40 493.93 458.07 698.44 231.76 557.00 389.34 330.39 845.59 210.06 460.73 545.14 621.62 327.56 330.81 365.76 692.38 780.98 404.39 582.21 745.63 429.31 421.66 829.25 266.09 213.83 248.84 299.44 436.85 305.58 320.99 990.42 388.32 210.66 343.46 286.94 408.99 694.68 809.33 487.03 301.95 666.30 307.54 177.50 514.62 473.43 779.42 278.35 340.95 363.53 412.95 352.10 647.44 684.56 362.96 416.30 180.88 722.98 651.24 419.99 396.97 598.04 519.77 205.93 392.52 666.27 697.08 630.49 414.02 604.97 123.18 418.85 456.12 583.52 780.59 656.15 199.78 422.59 117.30 249.95 789.08 752.26 458.18 531.14 514.15 452.35 374.61 499.60 516.84 148.63 400.27 642.15 761.96 933.03 127.31 566.08 426.06 603.09 278.96 663.13 438.87 400.95 466.93 247.73 791.58 863.21 735.17 418.48 192.38 525.95 152.85 420.89 571.30 402.56 382.87 613.72 296.02 434.93 605.12 308.89 469.43 557.59 461.72 356.80 267.34 844.24 589.67 545.81 749.97 557.51 557.62 389.87 509.33 484.27 425.46 415.36 582.71 775.89 475.96 550.25 372.53 527.16 390.40 458.99 675.34 309.41 693.14 709.30 315.83 510.54 284.48 655.97 344.75 620.36 351.37 425.41 629.12 718.05
431.26 1101.36 709.89 383.11 455.41 0.00 588.77 271.99 705.55 743.52 412.97 683.07 121.98 647.22 881.79 778.90 612.42 395.48 966.21 736.85 710.67 1029.84 324.97 583.61 676.21 635.55 579.59 395.43 257.10 899.34 988.51 271.16 687.76 1106.38 291.97 93.15 1096.56 363.60 290.73 618.34 322.89 771.01 563.12 321.37 1279.77 406.63 372.65 366.91 565.12 666.02 665.94 1098.68 808.85 631.84 680.23 652.04 344.59 557.18 864.05 1147.51 392.81 526.20 377.63 655.45 594.03 1035.30 679.84 818.37 665.08 472.46 766.30 907.08 642.71 709.55 952.60 528.28 377.56 779.49 940.06 926.71 725.28 163.73 908.83 476.08 369.61 270.32 630.42 1171.21 1044.01 655.19 396.15 382.97 344.32 865.82 1094.25 320.84 854.77 856.81 297.91 623.39 358.46 758.29 375.29 812.59 719.62 1103.05 1222.38 463.13 587.64 423.86 805.44 479.55 674.43 305.61 622.72 880.31 381.42 1065.37 1095.63 779.61 783.04 428.21 735.30 364.00 375.21 626.55 767.12 596.06 646.54 266.85 734.65 740.65 673.45 711.96 935.79 820.62 665.61 604.57 1076.66 637.24 947.28 1137.83 912.07 645.06 444.16 813.36 885.02 713.38 168.13 646.91 923.33 931.37 646.59 733.60 783.08 632.06 264.39 689.27 542.65 1043.09 1049.78 278.44 392.87 675.10 743.41 696.31 628.05 712.25 619.08 613.95 748.92
770.59 962.93 630.81 699.62 360.29 588.77 0.00 445.33 388.36 718.47 661.84 135.42 493.42 629.32 513.07 745.85 414.84 273.36 750.85 478.80 640.61 561.19 447.57 155.95 184.85 378.39 70.41 600.41 366.08 407.98 457.48 587.67 328.63 931.86 376.29 495.62 561.43 473.46 422.46 565.62 523.39 724.59 71.35 577.00 849.85 646.24 418.03 567.41 73.35 659.04 429.61 692.55 774.77 623.26 403.73 484.56 307.63 221.04 672.00 760.33 503.83 62.57 277.43 635.97 568.98 639.51 481.70 435.64 129.95 528.82 395.29 419.10 61.03 571.70 728.59 261.83 334.58 521.99 404.93 406.39 278.83 649.42 416.88 237.11 667.92 463.81 347.59 739.61 675.29 338.00 641.38 352.70 572.88 437.19 619.43 347.42 803.28 538.05 439.80 88.26 388.84 241.62 374.83 481.75 336.43 900.18 713.29 445.23 284.59 696.93 314.08 564.24 335.42 419.27 105.38 432.47 207.35 530.24 581.40 432.41 706.22 303.60 214.98 332.28 298.28 335.37 690.30 42.10 340.70 347.81 722.67 253.23 596.63 182.51 695.13 306.56 629.35 312.33 562.43 324.60 412.15 769.11 711.56 205.71 576.24 788.31 565.75 714.75 455.05 314.93 469.41 761.34 347.39 512.15 258.34 113.31 423.75 427.92 50.88 661.89 514.65 554.68 376.60 483.05 304.06 631.98 353.75 647.92 65.12 381.97 416.83
616.65 1107.86 752.96 514.08 453.83 271.99 445.33 0.00 612.45 791.01 529.03 499.02 168.06 675.40 845.51 804.32 421.03 276.44 939.18 785.06 742.78 832.95 423.34 414.58 539.29 453.52 449.66 530.19 88.07 679.74 867.36 402.13 443.86 1083.83 84.27 192.82 919.88 468.99 389.10 669.07 510.69 832.36 398.52 528.76 1168.44 568.92 459.10 476.94 405.32 758.90 474.55 1060.66 839.70 651.86 460.00 700.25 341.13 349.48 870.49 1038.47 438.62 391.58 208.60 775.81 692.40 989.03 488.45 725.27 461.70 570.83 561.83 738.05 471.21 727.81 893.85 335.79 313.29 754.83 776.55 783.89 604.13 390.55 751.85 385.02 547.90 72.95 375.56 1111.23 1007.73 633.30 531.91 380.85 494.30 658.12 893.93 113.14 897.46 844.09 25.92 459.88 124.63 592.57 396.23 809.46 507.18 1105.08 1071.74 513.86 363.15 554.83 668.52 594.09 464.72 84.72 478.00 771.27 299.38 901.86 944.99 553.21 850.73 369.93 611.22 350.87 239.95 387.78 840.24 418.46 422.05 157.81 833.02 612.54 762.72 514.83 847.10 657.51 718.56 532.43 926.02 413.30 783.77 1067.92 934.38 500.71 629.15 887.83 868.18 823.62 103.86 408.22 716.08 903.32 408.83 781.81 619.11 475.78 21.58 461.42 418.99 1030.37 833.24 466.24 168.38 681.54 562.50 728.42 447.04 744.36 450.05 380.12 521.07
835.38 631.21 372.17 676.98 250.14 705.55 388.36 612.45 0.00 466.07 630.54 433.66 604.83 396.70 243.79 472.44 763.19 406.18 446.76 213.70 322.04 660.53 436.72 470.12 482.30 656.62 374.42 571.42 530.93 624.46 584.52 650.43 654.15 566.98 594.48 634.89 679.83 444.47 463.97 306.76 531.33 429.37 333.65 555.37 821.52 613.22 389.04 575.35 315.01 483.80 744.54 712.40 472.74 420.24 701.30 128.89 387.46 527.16 294.78 529.28 474.29 369.02 483.32 492.02 456.26 397.30 769.66 112.82 345.37 337.90 697.98 457.57 361.69 380.65 372.48 583.68 436.27 142.38 516.85 503.41 560.79 664.16 411.30 297.60 631.18 624.23 660.33 556.32 406.01 50.36 612.39 367.44 500.09 718.15 537.46 623.35 526.97 268.77 617.52 303.68 662.01 317.01 384.76 222.16 632.46 583.71 778.33 295.34 594.15 667.94 525.61 435.98 583.43 581.51 316.74 252.98 441.17 642.16 669.54 735.10 417.06 295.27 440.47 362.81 562.21 663.88 422.79 391.72 641.11 461.19 494.86 534.19 368.82 365.74 354.68 268.05 416.60 176.29 650.57 669.06 327.33 499.83 331.95 519.88 606.98 493.63 260.44 486.94 580.96 659.39 741.22 405.11 647.23 210.45 367.50 328.73 624.16 710.34 337.48 443.00 534.05 525.69 582.79 105.83 609.87 307.68 669.59 309.85 379.29 682.63 734.63
683.75 417.69 159.02 455.67 438.23 743.52 718.47 791.01 466.07 0.00 437.01 826.14 680.71 152.94 561.51 43.56 1041.91 608.75 323.84 330.92 148.60 1113.86 459.47 847.05 875.38 978.29 689.74 416.12 748.22 982.51 945.36 567.62 994.77 421.52 797.58 710.97 1063.60 401.08 452.79 280.69 457.38 129.42 654.62 446.74 1138.23 420.84 437.65 454.04 673.26 135.50 1060.95 1018.91 95.12 139.15 1022.97 379.04 563.38 870.58 441.64 783.97 397.67 655.90 695.86 147.00 149.49 642.33 1022.05 549.61 794.09 298.53 1037.59 815.62 769.62 179.19 448.31 814.06 579.13 457.11 923.46 861.46 918.45 666.46 806.01 561.41 480.37 777.94 926.47 833.37 683.06 505.62 479.20 514.01 441.75 1107.04 834.98 768.71 136.70 586.49 816.42 755.80 810.13 712.48 502.59 549.25 1002.83 480.76 1090.57 337.03 907.72 496.42 889.32 320.81 927.42 765.36 731.44 626.82 580.06 1021.23 1049.19 1074.71 112.99 513.90 757.48 581.16 803.57 938.69 70.01 725.76 936.20 717.79 49.79 934.34 129.34 745.81 293.80 726.38 121.54 512.93 1050.31 955.94 705.70 776.88 407.78 914.85 301.83 129.69 520.52 32.61 744.91 946.27 1119.52 375.43 959.74 364.27 739.67 752.58 812.59 1032.01 675.09 720.05 910.31 467.55 852.74 402.10 1013.20 158.39 979.05 169.58 777.67 1010.77 1091.66
272.21 841.12 464.41 73.83 380.40 412.97 661.84 529.03 630.54 437.01 0.00 761.82 406.04 376.72 787.80 466.99 896.48 468.52 739.34 663.22 480.10 1087.86 275.38 728.45 846.69 866.16 634.67 108.72 475.60 934.65 1021.69 171.97 861.63 828.55 539.15 427.94 1164.95 230.60 309.62 504.02 138.45 528.91 633.46 100.88 1365.53 110.43 265.54 128.10 627.65 337.34 930.95 1189.73 530.78 400.26 905.07 622.54 374.76 792.44 783.72 1013.33 230.15 599.27 542.09 364.80 353.62 836.19 942.31 743.36 739.22 318.35 966.57 973.04 687.43 472.52 777.14 783.30 423.57 671.01 1001.97 1006.74 865.52 249.24 880.44 463.89 43.36 568.90 812.64 1080.57 930.26 580.18 42.19 387.07 130.45 1032.93 974.23 568.02 560.13 812.78 554.95 697.53 609.44 781.60 344.32 772.58 889.99 904.19 1288.74 406.19 766.56 72.50 894.96 282.15 852.14 548.71 683.10 829.61 553.29 1127.28 1145.61 929.45 528.49 408.78 841.38 399.41 605.95 800.42 499.74 669.13 825.46 405.86 456.82 887.83 479.22 774.36 689.65 801.19 422.12 565.87 1126.64 825.94 879.53 1024.08 763.57 790.83 135.18 553.12 724.95 404.40 470.24 820.86 1071.66 763.95 821.47 669.61 809.23 697.51 550.61 916.06 634.40 937.31 1033.85 163.40 627.48 645.60 889.18 465.74 859.68 481.68 650.24 847.24 975.71
891.54 1048.83 667.12 799.29 485.74 683.07 135.42 499.02 433.66 826.14 761.82 0.00 570.51 714.00 580.52 811.68 379.27 399.09 857.96 588.16 684.26 479.59 566.31 99.46 143.55 321.90 158.18 714.31 425.97 326.38 411.15 708.62 285.98 983.90 447.85 613.88 514.80 594.41 532.07 613.18 644.34 805.16 203.32 691.97 782.80 767.19 538.98 688.36 207.44 779.99 399.97 653.45 855.34 711.31 366.58 562.55 443.05 188.72 711.70 752.85 599.70 183.52 375.15 767.94 689.93 681.23 422.09 466.10 133.46 554.49 361.71 358.50 74.39 692.65 800.15 208.82 460.83 576.04 390.58 312.66 147.92 732.26 349.00 371.20 745.04 528.81 287.46 758.19 650.58 383.30 762.33 435.54 631.37 335.81 507.90 418.98 838.68 605.50 511.36 129.98 460.40 250.85 479.97 514.32 280.88 945.48 666.66 529.91 228.10 807.48 240.20 648.78 245.79 490.83 119.34 424.99 328.30 507.33 470.15 398.83 799.11 353.04 168.30 428.10 366.85 292.41 756.13 113.66 243.54 468.76 829.60 151.85 703.56 80.33 788.34 243.12 717.30 394.16 489.12 309.91 453.87 735.47 765.61 108.55 711.66 797.27 572.16 811.40 514.94 312.85 393.77 791.80 309.74 619.26 233.89 155.03 477.44 370.63 186.30 613.59 472.38 649.24 381.54 539.49 206.90 698.62 348.76 696.99 141.12 330.69 388.84
490.02 1098.40 639.54 346.02 378.29 121.98 493.42 168.06 604.83 680.71 406.04 570.51 0.00 648.17 820.35 724.27 490.44 291.55 926.98 752.51 681.45 946.41 391.76 471.05 673.99 570.53 485.18 420.50 153.17 793.20 870.24 234.07 573.01 1071.63 240.33 43.37 1002.15 353.26 357.52 609.99 390.72 762.34 468.71 373.60 1263.65 471.09 391.84 390.51 470.71 655.68 543.96 1089.91 775.83 640.40 587.20 667.70 266.67 462.82 833.59 1026.27 377.63 430.85 259.91 683.14 638.53 939.19 557.86 717.65 570.67 512.14 696.81 789.36 547.36 683.47 933.77 406.30 266.89 747.21 845.65 827.77 607.01 222.49 814.42 400.13 379.84 184.24 518.71 1132.88 982.57 554.47 363.85 260.99 388.51 785.67 990.32 223.80 817.41 845.33 193.98 528.98 236.48 662.94 320.59 754.96 597.64 1104.00 1154.01 464.08 499.96 386.77 724.66 474.23 568.19 187.50 545.28 759.07 287.01 970.96 994.16 665.13 743.97 343.49 680.32 242.02 308.12 530.93 728.55 500.71 528.44 145.61 730.50 618.67 675.98 616.61 834.90 727.88 655.27 482.59 975.19 515.26 837.95 1055.72 917.67 571.22 515.14 810.40 838.96 713.32 64.20 524.93 830.32 854.25 528.30 749.26 684.21 537.65 182.48 573.34 448.24 1019.56 955.37 349.42 314.97 644.64 669.57 688.42 554.11 679.60 501.36 491.97 632.99
648.93 500.43 87.69 450.55 311.40 647.22 629.32 675.40 396.70 152.94 376.72 714.00 648.17 0.00 556.52 179.66 935.33 493.14 389.74 286.50 103.38 985.83 332.39 712.43 766.45 862.68 609.43 374.08 655.74 866.90 829.75 503.78 879.16 549.66 681.97 620.57 947.99 310.68 364.65 171.76 379.53 192.70 558.29 354.00 1085.46 392.32 284.71 413.60 575.53 130.58 950.60 973.21 185.10 23.54 907.36 314.42 416.85 754.97 430.77 719.35 319.31 584.23 602.77 126.79 77.82 616.85 909.23 396.67 653.64 182.92 974.68 700.01 639.61 95.80 400.42 698.45 432.59 411.81 807.85 745.85 789.38 573.72 699.33 426.95 420.08 625.00 810.86 830.44 680.13 358.63 418.91 387.18 361.53 985.11 763.60 653.10 236.83 532.71 701.32 611.95 694.52 641.36 349.65 440.32 889.79 575.62 974.01 184.09 792.11 449.22 780.39 205.20 860.34 674.24 625.01 567.13 522.08 933.16 953.67 1002.79 178.89 360.96 648.55 428.22 673.65 823.08 176.70 643.93 820.59 607.42 186.16 825.41 102.50 674.48 312.93 620.57 45.40 359.99 934.70 848.60 611.18 748.80 440.95 816.91 296.26 212.43 474.82 170.17 642.02 843.52 1003.91 394.56 844.13 292.89 644.21 637.00 676.37 916.40 578.76 668.88 852.74 398.45 737.13 337.48 905.42 89.02 863.44 104.96 687.56 895.16 976.05
999.24 579.63 514.69 851.60 493.93 881.79 513.07 845.51 243.79 561.51 787.80 580.52 820.35 556.52 0.00 517.95 896.38 649.97 433.86 270.50 503.32 687.82 666.81 579.24 551.42 801.68 525.08 709.31 757.44 675.00 599.28 818.98 765.76 594.24 820.99 858.30 613.59 582.36 655.89 407.42 695.19 528.66 545.52 748.80 577.73 771.63 632.83 719.12 533.98 627.79 889.60 474.66 578.84 554.48 846.36 293.62 631.25 668.50 331.98 285.49 612.73 575.64 660.47 655.25 608.76 153.51 895.45 159.85 535.41 581.69 768.55 518.38 551.56 560.22 289.51 725.02 626.39 166.17 552.90 552.31 607.08 856.08 453.18 541.39 797.35 850.74 797.63 312.53 162.22 294.15 799.53 559.36 682.51 783.08 456.95 849.86 611.09 24.98 844.03 506.67 891.28 404.54 613.30 138.86 729.13 500.74 598.36 510.07 707.88 829.60 564.15 657.45 748.00 825.30 554.36 177.47 677.19 592.89 650.35 805.67 510.29 539.06 433.52 606.60 754.50 791.54 553.27 555.17 760.65 687.70 594.45 610.38 536.17 500.19 404.23 359.34 511.60 420.08 631.38 817.06 241.09 256.04 321.09 625.66 652.62 594.94 94.42 583.47 807.47 808.09 812.01 322.60 806.10 264.80 346.63 481.62 850.67 855.40 556.45 199.21 516.59 702.56 826.58 304.34 690.39 488.96 830.15 498.50 539.85 837.25 841.01
727.31 374.13 144.56 499.23 458.07 778.90 745.85 804.32 472.44 43.56 466.99 811.68 724.27 179.66 517.95 0.00 1075.01 625.72 309.38 355.36 178.86 1128.97 486.18 866.93 897.53 995.26 709.62 442.83 791.78 975.76 962.33 611.18 1011.74 440.96 787.00 741.96 1057.40 432.07 496.35 302.84 457.33 107.44 674.50 479.65 1095.68 453.75 464.37 486.95 693.14 129.65 1074.15 992.61 103.83 156.12 1039.94 377.95 593.64 887.55 427.18 782.88 441.23 688.15 728.77 157.11 193.05 627.87 1007.59 563.95 766.01 315.50 1023.13 832.59 772.09 179.02 433.85 831.03 596.10 442.65 940.43 878.43 926.45 699.37 838.47 550.97 504.12 804.66 943.44 818.91 668.60 509.02 509.18 551.02 474.66 1113.82 837.73 785.68 93.14 542.93 807.78 724.32 802.30 711.39 529.31 571.40 1007.84 437.20 1112.72 363.75 924.69 539.49 891.22 337.78 970.98 721.80 770.39 624.00 612.97 1027.32 1086.25 1060.25 98.53 540.62 779.63 606.07 836.48 955.66 55.55 758.01 953.17 749.02 76.50 936.66 149.22 731.35 302.51 740.49 165.10 536.98 1067.28 969.14 702.88 762.42 393.32 920.23 334.74 86.13 535.65 65.52 788.47 959.47 1112.77 369.58 976.71 382.25 783.23 749.37 825.90 1048.98 694.97 705.59 895.85 500.46 849.27 401.01 1016.67 184.43 996.02 168.49 804.44 1027.74 1108.63
958.14 1312.89 930.45 836.46 698.44 612.42 414.84 421.03 763.19 1041.91 896.48 379.27 490.44 935.33 896.38 1075.01 0.00 583.23 1107.96 844.74 980.58 621.33 704.48 335.01 373.49 117.43 484.46 864.09 509.10 468.12 652.62 724.51 162.21 1246.06 424.64 533.81 752.21 765.37 670.24 834.61 834.48 1067.67 470.15 854.43 971.76 926.76 709.94 842.77 460.11 1002.57 53.52 916.06 1110.47 919.53 96.76 787.70 644.31 261.51 973.86 1017.50 760.73 406.10 452.60 1015.66 912.51 999.62 67.42 775.66 479.72 816.21 277.86 595.00 409.40 915.23 1059.23 244.62 618.27 905.57 667.57 610.15 389.39 712.93 663.75 611.70 870.28 493.98 132.21 1069.77 1029.61 712.83 854.29 665.65 857.79 434.51 823.75 422.48 1092.67 921.36 446.95 470.73 381.06 540.46 585.68 860.21 219.61 1241.09 904.07 751.24 206.37 877.21 484.94 842.92 236.48 461.56 446.45 787.27 550.88 693.88 685.78 240.74 1060.06 653.98 491.39 664.25 387.51 136.17 1019.46 372.74 175.66 557.93 1090.50 393.37 966.89 459.60 1093.93 605.40 920.37 671.58 692.94 125.40 776.71 988.05 1047.73 270.72 918.77 1131.84 917.94 1045.14 524.89 115.73 435.98 1084.19 148.19 869.26 549.75 493.70 442.61 148.95 454.41 992.62 769.87 791.91 401.14 784.91 313.36 987.77 95.29 981.88 385.59 125.57 146.48
657.71 917.15 514.99 490.26 231.76 395.48 273.36 276.44 406.18 608.75 468.52 399.09 291.55 493.14 649.97 625.72 583.23 0.00 788.76 541.43 508.54 785.70 233.70 375.31 427.16 502.84 297.33 425.30 286.36 632.49 676.02 378.31 467.35 926.49 325.82 334.92 740.49 298.35 239.56 459.28 370.63 613.44 280.86 367.64 1029.90 487.97 242.92 380.45 272.34 563.60 590.76 902.06 563.26 469.60 547.52 494.79 93.76 395.13 654.29 858.49 301.99 243.94 165.83 591.06 523.88 712.59 585.65 519.00 311.32 310.22 602.73 612.17 324.70 535.82 750.26 338.61 112.94 540.75 645.79 605.81 510.55 390.18 601.47 108.58 484.52 224.36 451.02 946.69 812.19 388.62 457.98 143.29 398.50 663.64 698.77 332.47 670.56 651.50 250.52 329.12 341.12 442.12 160.96 574.50 529.95 892.53 892.35 326.52 432.27 505.09 524.32 356.53 500.50 260.62 279.75 560.42 99.16 771.10 799.94 592.85 631.81 187.40 414.40 94.37 273.54 463.24 604.00 289.41 460.75 287.43 641.31 500.14 540.65 364.45 753.06 507.06 536.30 255.99 780.97 488.76 639.30 887.94 730.32 389.07 455.98 629.15 658.50 640.78 227.35 483.68 704.23 707.72 484.29 574.78 501.29 330.51 275.73 556.56 260.39 836.26 694.70 353.71 308.42 471.73 487.42 515.51 503.60 529.52 338.48 535.32 616.21
975.05 238.61 342.84 779.51 557.00 966.21 750.85 939.18 446.76 323.84 739.34 857.96 926.98 389.74 433.86 309.38 1107.96 788.76 0.00 272.05 336.60 1038.49 709.72 889.29 839.13 1057.80 755.96 689.56 851.11 943.04 964.05 833.07 1052.88 193.23 914.66 955.07 965.25 678.53 675.48 457.98 671.00 229.22 715.86 724.61 961.63 723.17 674.45 715.02 730.31 416.23 1122.59 858.56 279.40 413.28 1096.71 320.26 721.29 938.85 221.59 625.06 673.04 762.58 841.28 388.77 406.20 422.28 1119.21 436.96 769.83 536.65 996.17 883.98 783.57 355.68 228.97 966.28 762.93 357.62 816.79 869.22 916.91 936.78 739.62 680.18 777.60 944.41 984.58 652.10 501.79 474.82 781.53 674.30 683.55 1073.34 709.41 943.53 326.65 408.88 937.70 728.14 984.95 681.65 705.63 405.65 1040.88 237.55 982.26 548.30 993.00 800.12 799.26 594.94 1007.89 924.22 741.20 567.95 725.48 942.10 992.17 1033.29 210.85 725.17 750.83 709.85 927.02 992.06 253.83 746.55 973.72 781.37 336.24 912.38 320.44 812.50 92.08 694.46 376.52 562.79 1011.14 1017.58 622.27 595.61 269.50 939.05 604.16 285.24 473.51 334.94 901.14 1012.50 1080.05 111.26 1013.11 238.70 751.47 753.19 944.34 1111.52 736.33 489.50 810.82 715.45 989.98 343.32 992.39 331.56 1051.32 315.62 798.46 1071.05 1121.28
866.85 489.83 244.19 705.63 389.34 736.85 478.80 785.06 213.70 330.92 663.22 588.16 752.51 286.50 270.50 355.36 844.74 541.43 272.05 0.00 232.82 806.25 534.42 617.24 596.68 790.49 517.67 569.78 726.36 737.69 728.60 686.59 780.83 465.28 700.79 737.28 747.28 449.97 541.52 209.12 562.80 289.61 476.90 616.41 825.92 602.71 504.98 586.73 458.26 357.29 855.28 722.85 339.79 307.80 829.40 84.81 485.84 666.80 248.00 525.04 480.34 490.53 605.83 384.75 338.71 330.35 847.16 267.72 556.72 453.97 790.82 643.86 529.75 291.43 273.41 694.23 534.65 142.25 667.12 643.78 657.68 781.12 570.38 474.75 657.82 765.79 712.53 583.03 432.72 264.06 667.14 494.91 550.12 828.34 504.06 729.66 399.54 273.17 791.95 517.38 771.08 512.41 507.44 239.50 768.83 484.64 846.55 364.33 737.40 690.07 593.91 489.46 796.17 747.38 530.44 295.90 490.03 726.92 801.96 827.94 304.36 508.97 478.78 510.49 705.46 724.75 309.86 474.50 759.22 674.89 380.71 655.64 279.60 579.44 313.77 454.34 241.10 327.34 820.92 750.27 374.78 526.54 257.32 667.00 545.07 363.49 268.16 363.53 744.08 745.19 874.70 334.83 745.80 33.35 553.79 529.23 806.64 844.21 480.73 446.80 595.45 570.17 754.53 107.87 735.65 218.46 784.01 228.00 526.41 799.00 849.23
715.56 483.10 50.13 548.19 330.39 710.67 640.61 742.78 322.04 148.60 480.10 684.26 681.45 103.38 503.32 178.86 980.58 508.54 336.60 232.82 0.00 965.26 435.77 765.63 777.91 932.43 575.93 428.99 667.84 907.58 874.23 520.79 912.60 481.25 658.51 666.22 975.47 394.01 447.98 199.44 415.84 120.90 600.78 437.33 1014.41 475.65 388.09 459.86 608.72 185.11 983.09 939.37 171.08 106.87 957.21 230.44 414.78 836.40 327.39 635.37 402.64 578.04 624.28 182.37 145.30 528.08 913.16 416.44 657.06 266.25 1004.97 779.61 675.15 68.91 316.44 781.78 463.59 357.89 812.49 789.41 799.03 657.05 690.96 453.57 517.03 708.93 878.91 749.61 631.21 368.50 522.29 447.69 366.35 993.20 736.88 687.38 230.83 505.99 754.43 621.82 728.80 563.88 433.58 436.98 913.41 520.41 1009.32 268.02 845.86 517.38 763.80 288.53 851.74 676.32 634.88 528.72 578.12 937.80 947.59 1000.27 128.19 400.32 675.93 439.43 671.58 866.69 133.92 647.90 903.92 626.41 198.39 809.24 75.50 603.93 244.52 590.09 100.31 426.87 966.56 878.08 607.60 664.82 356.97 792.81 363.74 228.34 459.80 181.21 673.02 868.41 1044.59 326.15 880.64 266.17 639.45 638.77 760.30 981.40 612.87 594.22 811.09 432.23 759.41 253.50 889.25 14.36 907.23 20.98 674.80 937.59 1022.63
1275.15 1227.43 989.79 1140.04 845.59 1029.84 561.19 832.95 660.53 1113.86 1087.86 479.59 946.41 985.83 687.82 1128.97 621.33 785.70 1038.49 806.25 965.26 0.00 931.09 486.98 376.34 509.90 518.03 1040.35 804.48 153.21 277.73 1087.56 477.77 1163.69 763.81 936.69 302.24 984.61 896.85 871.44 1006.90 1086.16 565.07 1028.45 569.00 1095.78 929.18 1050.92 567.07 1076.88 597.82 466.09 1132.44 996.57 554.58 789.42 803.01 498.60 891.49 815.65 959.55 583.75 750.04 1059.73 999.75 803.78 634.80 645.89 475.81 883.89 426.32 320.10 510.79 1001.67 963.53 555.12 828.26 746.57 221.70 282.79 365.49 1043.40 343.23 730.83 1128.39 863.95 533.34 680.97 776.50 688.19 1130.05 800.32 957.41 269.67 480.94 764.48 1187.50 691.16 816.22 480.24 805.90 426.65 856.93 678.36 401.72 1082.21 415.13 898.27 548.22 1133.52 262.81 981.97 417.12 792.04 524.17 510.35 705.83 286.33 201.66 406.95 1076.76 789.44 394.65 778.36 666.56 532.13 1073.42 553.51 515.59 826.89 1103.01 327.74 1026.23 422.68 991.93 472.54 1030.59 722.37 182.69 528.20 535.16 807.76 923.00 396.71 1097.33 1153.51 696.33 1144.35 893.45 530.56 211.71 971.59 540.88 823.37 438.15 455.19 854.53 498.74 544.60 739.51 331.42 1023.29 664.57 766.36 313.97 968.21 526.04 969.55 537.30 598.90 513.60
440.98 795.44 420.08 330.11 210.06 324.97 447.57 423.34 436.72 459.47 275.38 566.31 391.76 332.39 666.81 486.18 704.48 233.70 709.72 534.42 435.77 931.09 0.00 522.42 632.42 702.04 413.06 211.40 335.27 777.88 870.83 274.54 697.51 781.41 407.05 360.11 935.88 84.45 34.24 334.51 136.93 514.52 401.99 190.54 1140.91 274.07 47.68 180.95 383.35 386.87 758.00 1019.39 517.49 355.93 735.50 470.88 139.94 609.38 637.07 906.60 68.29 403.14 349.44 414.33 337.54 803.04 733.10 517.62 504.40 204.68 758.54 747.52 491.92 428.19 732.81 562.40 188.75 579.10 779.38 793.36 680.32 364.58 699.31 219.59 297.57 397.25 648.52 933.64 783.33 408.38 271.03 130.77 181.92 831.31 903.29 413.70 548.85 673.93 421.86 462.71 422.35 616.07 118.80 603.07 703.84 819.22 1044.44 179.30 651.06 292.30 681.27 200.14 695.96 341.85 486.45 671.43 312.75 904.69 967.23 793.21 511.28 213.27 614.05 164.59 396.74 636.30 509.09 473.00 614.15 304.19 409.68 693.22 434.89 557.53 645.32 565.74 377.79 349.48 948.26 659.55 715.93 877.15 699.51 622.77 276.61 507.44 665.24 452.92 357.97 656.74 872.30 656.79 657.35 511.95 621.65 475.90 442.31 755.76 405.82 809.67 805.71 181.38 469.32 471.80 721.12 421.41 695.56 437.35 502.05 677.84 795.48
900.12 1063.37 743.96 780.63 460.73 583.61 155.95 414.58 470.12 847.05 728.45 99.46 471.05 712.43 579.24 866.93 335.01 375.31 889.29 617.24 765.63 486.98 522.42 0.00 207.25 222.44 189.70 680.94 326.51 333.77 489.19 705.12 186.52 1037.10 354.47 514.42 614.26 591.33 522.90 676.16 647.49 845.67 192.43 669.04 882.26 723.60 535.90 691.51 173.79 784.51 310.36 752.91 895.85 735.97 267.12 599.01 458.56 89.26 764.90 811.09 590.71 206.95 332.28 757.05 713.36 732.75 353.02 524.22 157.48 641.61 262.25 441.23 157.56 716.08 829.23 145.78 488.25 612.50 483.11 412.12 225.96 693.54 444.56 337.55 768.98 436.45 218.39 842.36 741.46 419.76 759.25 471.99 598.00 379.05 607.36 381.99 922.57 604.22 413.10 191.01 423.41 279.53 474.08 549.33 181.42 981.94 758.79 566.63 128.64 774.11 324.73 664.68 211.03 409.55 153.38 509.52 351.73 592.54 569.61 299.37 827.30 416.37 242.66 433.91 320.10 212.30 811.38 142.74 187.54 396.25 843.75 250.49 717.71 164.86 816.21 327.65 757.83 431.26 588.58 237.82 514.90 781.64 801.57 104.48 732.19 896.73 631.73 835.83 415.48 228.85 398.47 849.92 226.86 650.59 268.08 180.89 433.55 276.16 196.26 709.89 571.84 663.88 282.08 575.95 202.83 751.27 251.35 761.53 90.83 258.01 289.38
910.55 984.90 784.03 884.47 545.14 676.21 184.85 539.29 482.30 875.38 846.69 143.55 673.99 766.45 551.42 897.53 373.49 427.16 839.13 596.68 777.91 376.34 632.42 207.25 0.00 349.19 240.93 785.26 533.76 223.13 335.16 772.52 312.66 919.97 498.03 654.68 482.25 658.31 607.31 594.69 708.24 876.45 256.20 761.85 705.41 831.09 602.88 752.26 258.20 843.89 388.36 602.27 919.43 789.99 358.83 588.17 492.48 296.51 647.77 644.01 676.83 247.42 459.60 820.82 753.83 704.93 416.31 402.17 214.66 698.04 332.69 249.73 185.73 724.92 772.38 267.69 451.92 565.23 357.57 295.57 93.98 817.34 319.80 421.96 852.77 585.55 281.68 765.70 708.38 431.94 826.23 523.22 742.71 257.21 517.77 469.16 966.43 558.48 561.54 178.62 510.58 230.69 534.86 539.21 281.40 883.02 551.54 630.08 296.66 881.78 129.23 736.46 240.01 541.01 227.99 472.19 392.20 423.92 448.81 312.15 864.14 464.38 117.90 476.74 372.62 286.63 841.98 226.95 237.76 532.66 907.52 73.25 781.48 200.08 809.50 290.32 753.84 489.01 440.11 304.13 470.73 614.56 731.85 102.77 761.09 940.82 549.79 878.61 616.54 307.07 284.56 727.87 303.96 630.03 204.79 203.67 560.87 379.13 235.73 744.76 433.84 739.24 444.87 581.90 153.26 772.87 342.98 756.93 218.15 352.98 393.28
925.67 1242.46 895.52 897.87 621.62 635.55 378.39 453.52 656.62 978.29 866.16 321.90 570.53 862.68 801.68 995.26 117.43 502.84 1057.80 790.49 932.43 509.90 702.04 222.44 349.19 0.00 412.14 862.23 472.89 356.69 535.59 804.60 81.83 1175.63 425.99 542.40 685.83 751.56 667.80 849.93 777.51 1027.03 414.87 822.15 991.56 924.90 708.34 821.53 396.23 946.18 87.92 845.43 1047.78 839.14 44.68 737.54 573.88 212.20 903.43 982.37 721.19 356.79 398.35 963.09 863.20 927.36 184.85 746.66 379.92 792.88 163.43 514.62 380.00 865.92 1028.04 164.23 537.88 799.00 550.14 518.46 309.01 746.13 593.84 509.99 908.55 505.54 77.96 973.09 912.18 606.26 908.35 625.64 820.44 320.08 743.37 397.12 1026.29 826.66 445.29 412.94 363.19 501.97 620.82 756.33 132.15 1168.44 837.69 748.93 149.40 857.12 397.73 837.12 178.84 443.69 375.82 731.96 498.62 627.50 628.82 144.06 1010.75 588.81 442.77 597.21 317.08 65.74 984.53 365.18 114.61 533.88 1028.08 275.94 930.51 387.30 1011.30 550.09 905.84 605.20 622.51 67.76 736.83 952.92 987.51 248.89 848.48 1067.70 840.33 1010.90 557.38 66.42 337.05 1013.76 71.37 819.10 490.52 387.89 454.17 53.72 406.03 875.19 659.86 798.55 337.21 714.48 195.93 927.39 28.91 911.45 313.27 123.71 113.37
765.60 940.62 596.84 691.76 327.56 579.59 70.41 449.66 374.42 689.74 634.67 158.18 485.18 609.43 525.08 709.62 484.46 297.33 755.96 517.67 575.93 518.03 413.06 189.70 240.93 412.14 0.00 598.84 384.55 364.82 481.46 606.14 376.22 873.79 390.80 486.44 547.49 471.89 378.82 495.21 533.22 688.36 51.14 533.79 835.91 654.12 421.52 556.50 59.41 643.22 460.64 678.61 738.54 629.51 448.68 435.70 331.75 261.23 601.59 698.02 441.52 81.04 268.31 615.76 587.45 625.57 481.06 365.23 107.87 506.51 429.04 392.83 99.22 590.17 699.76 294.26 370.92 493.80 390.99 417.07 306.10 579.01 398.02 223.17 652.50 494.49 387.94 699.26 661.21 324.06 627.17 282.29 555.15 480.65 569.68 380.57 732.87 521.54 423.74 74.32 406.33 213.31 362.26 431.28 371.12 886.24 699.35 425.34 293.61 682.72 275.53 495.53 335.57 428.08 73.39 370.16 198.17 516.30 580.63 466.16 669.99 301.99 225.66 307.10 235.12 377.27 654.07 112.51 341.25 366.28 686.44 296.69 560.40 161.00 674.92 278.25 617.50 298.39 561.66 381.08 371.80 722.15 683.37 239.46 635.36 760.84 512.85 678.52 473.52 371.41 497.87 690.93 391.83 517.26 208.59 62.84 471.24 443.11 36.94 629.90 500.71 558.17 324.77 412.64 337.81 561.57 389.17 577.51 98.87 420.16 479.08
344.60 752.09 378.86 142.29 330.81 395.43 600.41 530.19 571.42 416.12 108.72 714.31 420.50 374.08 709.31 442.83 864.09 425.30 689.56 569.78 428.99 1040.35 211.40 680.94 785.26 862.23 598.84 0.00 507.87 887.14 1033.66 237.38 853.31 738.06 551.75 435.12 1105.33 126.95 234.39 395.82 87.77 460.34 558.61 112.85 1287.04 62.67 182.38 53.25 544.49 425.27 912.06 1127.43 492.07 360.87 901.88 606.06 331.54 746.47 675.00 994.80 157.32 537.84 464.62 406.44 366.73 849.30 860.77 684.24 673.85 285.83 890.20 922.70 639.92 386.33 695.38 715.67 342.02 638.59 948.83 960.45 852.86 293.92 832.93 380.73 88.04 550.80 785.01 1021.84 871.53 530.59 114.58 330.92 82.94 966.01 1033.67 558.40 505.50 734.29 556.11 632.16 567.05 734.09 293.98 664.38 843.58 827.28 1205.58 314.48 715.88 120.29 865.89 256.72 846.98 486.55 635.59 754.76 502.95 1074.14 1138.47 927.32 478.71 361.27 783.50 356.19 572.33 797.23 467.87 607.70 774.78 467.01 366.33 844.52 385.78 723.60 670.67 753.68 328.68 490.38 1119.50 822.75 833.64 965.35 654.85 731.38 148.29 464.09 748.38 417.51 473.38 817.67 1023.97 713.27 814.10 603.13 761.72 653.20 551.77 865.38 566.96 908.52 966.85 116.99 614.02 606.98 829.73 434.93 844.20 447.13 659.61 738.52 916.13
601.76 1035.56 698.85 499.19 365.76 257.10 366.08 88.07 530.93 748.22 475.60 425.97 153.17 655.74 757.44 791.78 509.10 286.36 851.11 726.36 667.84 804.48 335.27 326.51 533.76 472.89 384.55 507.87 0.00 651.27 779.72 387.24 499.44 995.76 150.84 196.54 885.93 380.92 301.03 614.60 442.25 744.29 367.56 495.86 1124.27 563.15 371.03 478.77 357.52 683.34 525.92 993.57 794.47 642.14 482.68 641.55 253.06 355.27 807.44 950.40 350.55 303.51 120.53 707.48 604.33 910.95 523.25 643.75 449.48 482.76 557.43 649.98 420.02 639.74 805.78 349.08 290.71 673.31 729.43 695.82 531.14 375.66 718.08 384.50 518.96 109.94 440.92 1064.11 919.66 565.54 517.02 321.21 464.18 705.56 892.13 121.97 854.22 756.02 86.59 412.76 163.39 535.60 320.26 721.39 507.93 1017.01 1037.79 485.82 366.67 539.94 600.40 506.14 486.11 108.15 417.94 683.20 236.33 854.74 886.80 594.55 762.66 365.58 556.86 262.80 186.89 438.23 768.32 373.37 413.38 69.74 744.95 568.89 674.65 486.10 759.03 600.54 682.93 503.37 884.67 461.75 736.65 979.85 846.31 430.99 585.82 823.66 791.37 749.39 88.97 458.67 724.98 840.66 447.72 723.11 531.04 387.71 107.04 516.17 351.90 942.30 838.38 451.35 171.90 618.49 529.34 674.81 443.98 688.82 361.98 418.88 524.65
1130.42 1082.52 890.44 986.83 692.38 899.34 407.98 679.74 624.46 982.51 934.65 326.38 793.20 866.90 675.00 975.76 468.12 632.49 943.04 737.69 907.58 153.21 777.88 333.77 223.13 356.69 364.82 887.14 651.27 0.00 296.63 934.35 324.56 1015.69 612.26 811.02 409.29 831.40 743.64 752.41 853.69 979.62 411.86 875.24 698.39 942.57 775.97 897.71 413.86 950.40 444.61 535.24 1029.80 843.36 401.37 746.40 649.80 423.03 864.37 796.73 806.34 430.54 596.83 967.31 897.64 702.53 481.59 625.30 344.91 832.20 294.71 166.89 379.13 882.64 915.14 424.03 675.05 698.56 274.73 212.73 212.28 924.37 368.79 577.62 975.18 710.74 380.13 682.86 713.08 580.35 976.84 647.11 804.20 138.06 434.93 611.27 1068.90 660.29 663.01 327.03 652.69 417.24 703.72 670.42 248.51 1106.15 561.15 786.06 433.65 980.31 143.78 860.35 323.92 638.83 372.63 512.79 552.62 394.73 330.37 315.24 963.19 646.95 275.62 625.15 528.96 385.77 920.21 422.94 386.46 673.68 949.80 174.53 925.22 303.65 958.79 356.41 910.06 619.11 335.90 382.31 433.91 791.97 874.61 259.11 944.12 1034.48 647.94 1002.22 740.24 377.35 137.01 951.00 387.67 704.34 351.13 301.98 701.32 407.03 391.39 750.07 363.19 870.08 511.36 723.34 160.76 921.94 372.83 920.31 399.70 466.54 360.39
1228.07 1040.79 907.31 1069.60 780.98 988.51 457.48 867.36 584.52 945.36 1021.69 411.15 870.24 829.75 599.28 962.33 652.62 676.02 964.05 728.60 874.23 277.73 870.83 489.19 335.16 535.59 481.46 1033.66 779.72 296.63 0.00 957.65 490.41 1015.76 805.01 895.36 189.44 913.33 843.02 738.41 974.42 972.77 509.30 920.81 491.26 1073.96 857.90 980.41 511.33 913.25 623.51 353.29 1014.85 806.21 580.27 643.79 730.89 552.61 775.72 660.43 922.98 520.05 659.19 930.16 860.49 575.03 659.82 589.20 418.93 860.88 463.20 129.74 415.57 868.64 845.34 549.63 777.09 675.11 168.02 120.25 263.23 986.52 286.54 659.55 1039.52 878.49 529.46 525.75 558.58 581.20 1060.59 763.75 972.55 331.40 386.77 776.14 1055.47 623.14 864.63 408.12 817.56 384.20 758.46 614.35 491.43 1028.53 337.39 771.24 530.68 1094.19 205.93 958.96 425.83 783.28 457.49 501.13 650.09 131.11 123.92 468.68 960.46 694.22 261.62 706.24 654.56 540.55 966.19 470.82 491.68 724.63 995.15 300.98 914.60 365.80 921.64 319.26 872.91 595.34 104.95 536.91 481.48 652.40 804.81 384.71 1026.03 1042.18 578.14 977.97 844.40 546.58 273.44 886.05 557.88 725.35 313.98 418.62 881.23 560.47 488.86 595.57 237.25 964.69 725.45 656.16 339.66 869.19 557.33 853.25 478.51 606.90 580.06
303.67 962.40 517.09 111.95 404.39 271.16 587.67 402.13 650.43 567.62 171.97 708.62 234.07 503.78 818.98 611.18 724.51 378.31 833.07 686.59 520.79 1087.56 274.54 705.12 772.52 804.60 606.14 237.38 387.24 934.35 957.65 0.00 807.08 975.44 459.94 277.44 1075.89 236.62 308.33 519.01 162.07 614.21 589.15 149.78 1363.89 237.02 281.70 206.09 579.11 509.31 778.03 1196.26 657.01 480.24 821.27 685.58 284.55 696.89 821.57 1104.47 206.25 525.10 486.42 508.22 483.05 972.49 791.93 719.12 649.01 342.64 903.15 827.91 641.61 524.56 817.83 640.37 333.36 710.09 923.99 873.75 788.05 241.74 904.43 442.57 156.32 418.31 752.78 1124.33 981.20 600.07 129.78 345.64 154.44 1009.76 1077.08 457.87 674.16 843.96 411.40 607.32 470.55 757.19 265.67 786.66 831.71 1013.26 1227.75 422.35 734.03 152.70 845.06 336.40 772.93 421.57 639.53 867.22 465.16 1049.30 1081.57 899.20 622.22 405.48 758.66 309.20 541.35 765.00 606.10 594.96 762.51 326.65 603.71 825.80 512.63 702.14 745.57 778.37 466.91 549.77 1062.60 749.33 903.82 1075.02 858.36 767.38 294.36 680.39 845.88 563.58 298.27 759.00 1057.08 787.57 762.37 719.94 798.66 632.37 416.55 807.41 574.34 1013.03 1028.69 145.05 548.27 662.52 865.73 506.43 788.18 522.37 646.87 726.04 867.06
921.14 1221.34 890.99 890.84 582.21 687.76 328.63 443.86 654.15 994.77 861.63 285.98 573.01 879.16 765.76 1011.74 162.21 467.35 1052.88 780.83 912.60 477.77 697.51 186.52 312.66 81.83 376.22 853.31 499.44 324.56 490.41 807.08 0.00 1154.51 426.40 594.61 627.98 751.67 663.27 831.05 772.98 1019.06 378.95 817.62 933.71 910.12 710.27 817.00 360.31 954.26 158.45 788.73 1030.61 855.62 126.43 733.01 561.11 213.20 898.90 905.96 765.35 357.79 388.69 943.57 864.20 845.53 202.93 710.74 344.00 763.09 173.83 432.79 344.08 866.92 1015.75 180.71 554.36 796.53 525.86 447.94 227.18 736.47 585.49 524.07 898.89 513.92 68.30 948.76 903.20 603.79 903.82 610.64 784.52 325.91 661.54 397.53 1010.46 790.74 440.76 350.47 374.08 466.05 628.31 735.85 76.05 1165.97 779.84 709.52 144.87 876.71 344.83 823.88 102.43 454.58 339.90 653.34 494.09 569.65 578.97 202.41 1000.69 566.14 383.59 561.72 312.55 61.21 980.00 329.26 110.08 529.35 1017.14 264.93 891.10 308.68 1002.73 471.47 922.32 596.79 595.36 57.75 674.36 876.51 982.98 209.89 843.95 1051.87 800.51 990.47 547.72 67.42 383.87 1009.23 82.26 814.18 454.60 367.41 465.44 115.93 379.51 866.21 607.66 802.64 339.64 709.95 204.82 922.86 66.92 906.92 277.35 146.31 175.58
1082.66 66.83 463.64 877.19 745.63 1106.38 931.86 1083.83 566.98 421.52 828.55 983.90 1071.63 549.66 594.24 440.96 1246.06 926.49 193.23 465.28 481.25 1163.69 781.41 1037.10 919.97 1175.63 873.79 738.06 995.76 1015.69 1015.76 975.44 1154.51 0.00 1059.31 1090.56 1052.03 792.62 815.65 574.76 825.83 361.99 860.51 838.28 1093.11 800.73 829.09 791.31 879.15 522.49 1240.42 1049.56 405.51 560.67 1214.54 484.21 839.12 1087.84 272.20 647.50 819.19 924.56 959.11 538.54 538.97 440.73 1256.74 517.80 893.36 706.16 1173.75 989.46 909.51 522.75 332.45 1140.72 887.93 438.01 941.99 997.06 1003.80 1031.98 820.46 817.91 826.10 1089.06 1122.11 754.82 604.51 617.34 852.64 862.93 821.00 1153.75 833.09 1088.18 355.07 602.11 1082.35 870.66 1129.60 762.49 873.08 536.38 1127.49 140.43 1126.38 729.87 1130.10 858.35 992.49 706.85 1052.08 1068.87 883.72 704.39 843.31 1022.68 1095.65 1210.87 380.36 862.25 904.11 863.77 1066.82 1109.89 421.40 939.78 1157.73 926.02 371.73 993.22 489.95 932.72 236.73 799.94 509.29 704.25 1112.15 1135.41 702.66 676.95 356.28 1022.74 693.37 354.83 573.80 424.15 1045.79 1130.33 1152.70 304.49 1130.94 431.93 832.31 882.51 1088.99 1229.35 880.98 641.50 891.21 855.05 1107.81 461.15 1073.23 476.21 1169.15 460.27 946.27 1189.76 1239.37
700.92 1099.11 708.64 571.89 429.31 291.97 376.29 84.27 594.48 797.58 539.15 447.85 240.33 681.97 820.99 787.00 424.64 325.82 914.66 700.79 658.51 763.81 407.05 354.47 498.03 425.99 390.80 551.75 150.84 612.26 805.01 459.94 426.40 1059.31 0.00 277.09 905.35 473.35 392.18 678.15 513.69 772.07 368.06 531.76 1175.44 614.42 454.73 557.71 386.70 741.80 454.92 1019.92 822.25 658.43 411.68 615.98 326.74 265.21 827.99 1013.95 466.83 404.05 223.03 769.26 695.48 961.07 431.95 707.30 459.76 499.05 529.28 717.80 389.44 703.29 916.54 278.08 364.54 736.86 748.85 734.80 547.01 439.70 744.43 408.60 582.51 113.19 377.90 1083.53 983.21 629.09 581.34 384.76 535.12 573.85 870.57 28.87 863.44 845.97 108.72 432.18 70.29 565.56 393.94 816.64 466.64 1098.47 1049.57 554.10 295.67 611.65 611.89 524.26 426.77 65.20 403.19 746.75 322.82 874.16 906.86 523.91 767.30 429.13 543.39 326.35 155.68 375.67 773.03 334.19 354.57 133.29 816.73 549.83 705.29 474.60 822.58 630.50 725.13 556.01 906.50 368.65 756.07 1043.40 876.01 425.53 634.96 873.13 848.96 823.41 188.13 378.32 631.81 883.80 354.62 697.54 563.55 453.64 105.85 445.17 378.25 959.70 858.57 469.24 100.90 639.04 523.88 644.15 407.50 660.09 386.10 325.78 502.51
472.86 1096.40 662.08 389.39 421.66 93.15 495.62 192.82 634.89 710.97 427.94 613.88 43.37 620.57 858.30 741.96 533.81 334.92 955.07 737.28 666.22 936.69 360.11 514.42 654.68 542.40 486.44 435.12 196.54 811.02 895.36 277.44 594.61 1090.56 277.09 0.00 1003.41 309.89 325.87 566.62 347.35 759.20 469.97 400.96 1272.26 497.79 348.47 391.37 471.97 612.31 587.33 1091.17 793.26 597.03 587.08 652.47 251.44 506.19 818.36 1054.36 334.26 433.05 303.28 639.77 595.16 971.15 601.23 747.71 571.93 468.77 673.15 832.73 549.56 669.55 942.97 449.67 300.25 777.27 846.91 833.56 632.13 205.33 815.68 409.46 411.21 196.07 545.62 1125.52 1008.75 588.54 407.22 304.36 396.84 826.48 1021.67 267.17 835.10 833.32 218.74 530.24 279.85 665.14 318.64 719.44 641.01 1083.51 1155.27 484.20 534.70 418.35 749.78 439.66 581.28 212.46 529.57 787.16 288.27 972.22 1002.48 686.46 777.57 372.37 642.15 276.09 282.06 533.40 741.51 502.91 571.81 173.70 730.78 662.04 669.00 618.81 862.99 730.08 611.90 516.66 983.51 558.63 854.13 1083.81 902.44 551.91 502.90 808.40 803.44 678.36 107.57 553.84 849.08 897.62 554.45 734.03 689.93 538.91 171.24 596.12 449.50 1012.55 956.63 371.59 339.93 629.41 650.26 673.19 571.31 687.20 544.73 535.34 655.77
1311.17 1068.40 930.82 1187.84 829.25 1096.56 561.43 919.88 679.83 1063.60 1164.95 514.80 1002.15 947.99 613.59 1057.40 752.21 740.49 965.25 747.28 975.47 302.24 935.88 614.26 482.25 685.83 547.49 1105.33 885.93 409.29 189.44 1075.89 627.98 1052.03 905.35 1003.41 0.00 978.38 909.95 870.34 1063.97 999.64 574.35 1069.82 305.73 1074.08 922.95 1079.71 576.38 1031.09 759.67 163.85 1049.82 924.45 716.43 753.55 795.94 703.52 779.83 538.63 989.01 603.15 777.43 1044.18 941.03 641.12 815.18 587.01 458.18 919.42 652.64 247.98 528.50 989.93 736.28 700.72 805.04 637.15 162.98 202.14 414.32 1115.82 284.51 724.60 1155.79 943.54 680.55 452.97 544.39 629.47 1129.25 829.78 1034.50 504.80 263.60 876.48 964.26 613.53 934.31 473.17 917.90 464.79 849.86 619.39 641.44 947.51 151.86 849.34 681.77 1183.40 375.27 1017.50 576.92 848.33 522.54 451.38 715.14 58.33 138.52 657.56 981.27 794.30 393.55 771.29 756.14 676.32 1019.83 571.16 642.77 875.72 1093.30 452.07 967.26 486.01 883.29 423.06 981.00 673.44 119.55 685.73 372.50 568.08 695.75 535.80 1104.13 1005.67 559.04 1085.38 967.84 695.40 462.88 861.14 697.37 734.31 389.22 498.22 941.46 733.55 553.91 581.38 189.80 1056.09 841.49 730.49 517.19 965.74 656.92 954.49 568.35 757.99 698.97
416.88 790.13 352.19 269.24 266.09 363.60 473.46 468.99 444.47 401.08 230.60 594.41 353.26 310.68 582.36 432.07 765.37 298.35 678.53 449.97 394.01 984.61 84.45 591.33 658.31 751.56 471.89 126.95 380.92 831.40 913.33 236.62 751.67 792.62 473.35 309.89 978.38 0.00 118.69 342.74 112.83 449.31 436.18 166.44 1160.09 189.62 55.43 136.76 417.54 302.42 815.94 1000.48 489.37 287.14 788.02 479.11 204.59 645.22 645.30 867.85 30.37 410.89 410.18 329.88 341.42 735.87 797.75 557.29 546.90 158.88 823.19 808.41 527.40 359.66 710.45 627.05 253.40 586.85 821.88 847.96 725.91 331.15 782.76 253.78 214.99 423.85 724.95 894.89 744.58 416.13 217.17 208.55 100.15 839.06 921.41 498.15 525.21 607.34 449.12 505.21 506.80 642.98 179.69 550.04 772.75 812.76 1078.63 187.53 678.71 247.24 742.11 129.77 741.67 426.30 525.32 683.28 385.20 947.19 1011.52 854.10 467.68 279.22 656.55 229.24 461.39 712.73 441.20 480.75 698.60 340.06 420.89 726.69 359.11 596.65 623.61 639.51 302.01 363.43 992.55 710.93 720.06 838.40 707.29 604.43 240.07 504.51 634.04 368.47 417.46 701.26 897.02 664.54 717.29 483.32 647.65 529.42 475.22 805.28 440.01 781.57 839.90 120.20 551.04 480.03 702.78 399.70 728.51 414.99 532.66 759.12 845.34
439.28 810.63 442.21 343.55 213.83 290.73 422.46 389.10 463.97 452.79 309.62 532.07 357.52 364.65 655.89 496.35 670.24 239.56 675.48 541.52 447.98 896.85 34.24 522.90 607.31 667.80 378.82 234.39 301.03 743.64 843.02 308.33 663.27 815.65 392.18 325.87 909.95 118.69 0.00 332.40 171.17 480.28 367.75 224.78 1106.67 297.06 81.92 215.19 349.11 393.36 723.76 1013.25 530.46 341.11 704.44 492.75 151.76 576.79 634.96 940.84 102.08 403.12 337.68 406.45 303.30 787.82 737.66 538.01 478.47 181.73 739.14 713.28 457.68 418.82 705.80 541.15 167.50 606.35 753.45 759.12 679.99 330.34 696.13 185.35 322.43 392.74 614.28 967.88 817.57 413.61 305.27 96.53 215.71 803.18 908.99 421.05 564.04 680.87 387.62 436.78 456.59 590.14 84.56 600.96 704.32 849.29 1010.20 213.54 627.73 326.54 654.35 234.38 675.78 376.09 452.21 637.19 278.51 878.76 943.09 758.97 498.65 179.03 588.12 145.19 408.56 602.06 522.80 445.04 579.91 293.58 443.92 662.28 438.32 531.60 677.58 571.44 400.91 331.22 924.12 625.31 716.07 911.39 665.27 606.58 284.79 522.63 677.28 485.40 376.93 622.50 838.06 689.79 623.11 546.19 587.41 441.66 408.07 721.52 371.58 831.92 771.47 215.62 472.93 498.31 704.93 451.88 661.32 467.82 467.81 695.13 761.24
720.52 641.59 209.33 518.66 248.84 618.34 565.62 669.07 306.76 280.69 504.02 613.18 609.99 171.76 407.42 302.84 834.61 459.28 457.98 209.12 199.44 871.44 334.51 676.16 594.69 849.93 495.21 395.82 614.60 752.41 738.41 519.01 831.05 574.76 678.15 566.62 870.34 342.74 332.40 0.00 416.47 301.43 529.41 462.32 935.19 393.59 295.86 449.07 521.05 275.34 888.13 832.12 324.74 195.30 894.61 216.11 365.52 733.20 302.56 614.13 373.11 575.06 549.23 298.55 249.58 503.25 880.35 402.11 551.41 244.85 811.82 685.15 567.73 183.28 427.17 754.91 381.26 338.20 717.24 668.20 655.69 594.96 661.59 372.02 483.86 596.12 811.83 708.18 557.87 256.40 510.40 358.30 442.89 826.35 689.99 698.91 371.74 382.44 676.61 509.72 707.49 486.02 298.32 268.56 807.28 516.89 809.88 155.21 788.82 516.11 608.63 306.10 731.87 627.06 522.78 436.57 496.57 842.55 862.33 848.94 283.06 332.08 476.79 376.89 622.32 799.61 247.29 597.76 832.45 544.86 315.60 653.65 192.74 532.85 424.56 518.34 159.15 331.11 843.36 817.98 515.45 584.68 386.64 697.46 463.12 383.14 352.56 283.92 590.69 811.02 879.25 412.89 778.56 219.28 561.59 534.77 647.49 903.65 532.15 558.34 740.14 432.51 711.97 238.23 733.66 185.08 848.67 201.02 585.33 857.43 919.16
304.05 825.25 387.00 205.59 299.44 322.89 523.39 510.69 531.33 457.38 138.45 644.34 390.72 379.53 695.19 457.33 834.48 370.63 671.00 562.80 415.84 1006.90 136.93 647.49 708.24 777.51 533.22 87.77 442.25 853.69 974.42 162.07 772.98 825.83 513.69 347.35 1063.97 112.83 171.17 416.47 0.00 478.52 523.04 53.61 1261.96 150.44 142.29 44.02 504.40 373.61 842.30 1090.88 528.70 355.99 815.84 574.52 276.87 658.70 719.03 963.14 91.70 460.82 486.37 346.15 373.99 848.70 840.43 644.15 609.69 208.93 861.72 879.40 577.33 400.25 707.37 678.77 325.68 605.14 907.47 905.56 787.24 273.33 799.48 340.64 172.32 486.24 723.99 1007.72 857.41 499.22 180.64 267.70 49.49 925.92 965.97 540.76 546.25 720.17 510.45 590.80 549.41 692.91 250.68 662.87 771.04 857.32 1165.49 282.94 628.11 208.06 802.07 174.33 759.21 468.91 575.25 745.53 449.68 1032.78 1097.11 869.21 460.15 327.82 731.28 301.52 504.07 711.77 444.23 530.68 687.01 425.24 454.10 776.62 350.56 646.58 635.45 702.67 407.66 458.84 1078.14 737.29 770.11 951.23 742.62 665.76 155.55 543.46 740.93 424.77 406.83 732.21 983.88 625.50 726.33 596.15 728.27 589.38 518.59 777.61 510.06 894.40 926.76 44.45 593.72 575.44 764.11 401.48 771.03 411.91 582.59 757.48 837.26
782.57 395.44 148.42 585.09 436.85 771.01 724.59 832.36 429.37 129.42 528.91 805.16 762.34 192.70 528.66 107.44 1067.67 613.44 229.22 289.61 120.90 1086.16 514.52 845.67 876.45 1027.03 688.36 460.34 744.29 979.62 972.77 614.21 1019.06 361.99 772.07 759.20 999.64 449.31 480.28 301.43 478.52 0.00 653.24 510.25 1008.81 512.74 477.41 513.59 671.88 221.81 1075.29 991.59 50.18 212.84 1049.41 328.98 535.68 898.00 347.02 711.71 479.68 672.33 741.25 194.35 176.98 547.71 1009.40 514.98 774.74 344.17 1026.99 879.67 775.95 163.20 353.69 887.75 584.49 362.49 871.99 887.95 909.70 729.97 750.46 554.83 548.38 817.70 977.45 738.75 588.44 479.73 571.10 554.15 479.91 1103.78 757.57 800.94 109.93 541.91 830.88 733.05 838.49 662.42 542.35 496.81 1011.70 466.77 1099.76 376.79 930.38 580.63 862.65 394.50 972.64 788.12 746.11 585.51 625.45 947.16 1046.13 1017.25 18.37 521.22 768.39 557.10 789.97 965.23 59.41 742.19 978.02 674.55 166.08 930.14 127.96 724.83 246.25 690.15 147.30 500.52 1041.16 970.28 627.14 682.26 313.16 913.71 393.73 107.44 498.28 124.51 793.92 960.61 1116.63 289.42 986.28 302.09 730.59 745.49 837.52 1073.60 673.71 625.43 815.69 522.97 855.10 352.04 1010.15 127.92 999.43 119.52 784.12 1031.88 1116.92
772.07 900.31 561.72 668.69 305.58 563.12 71.35 398.52 333.65 654.62 633.46 203.32 468.71 558.29 545.52 674.50 470.15 280.86 715.86 476.90 600.78 565.07 401.99 192.43 256.20 414.87 51.14 558.61 367.56 411.86 509.30 589.15 378.95 860.51 368.06 469.97 574.35 436.18 367.75 529.41 523.04 653.24 0.00 553.99 843.23 621.28 380.75 505.36 18.64 592.08 444.17 662.14 703.42 581.83 443.22 462.54 331.16 244.76 628.43 729.92 453.03 64.05 251.84 564.62 570.46 652.43 478.65 385.67 142.87 463.84 454.68 405.82 128.93 573.18 697.38 301.28 352.54 467.28 417.85 443.93 346.16 630.15 386.65 182.40 630.64 453.09 344.02 750.40 707.74 283.29 604.10 333.43 532.99 508.54 582.67 369.85 747.53 541.98 372.60 101.18 411.27 254.54 377.93 478.32 373.85 845.47 726.21 374.20 277.14 659.65 322.57 509.53 366.85 419.88 121.62 402.06 181.70 543.16 607.49 491.80 634.87 254.66 252.52 325.48 265.49 356.24 618.95 113.45 324.78 349.29 651.32 324.58 525.28 196.00 623.78 319.48 582.38 281.92 588.52 364.09 422.94 735.14 656.85 271.47 594.59 725.72 533.29 643.40 456.53 354.42 470.31 705.41 375.36 498.36 221.58 109.88 420.10 426.64 20.47 678.13 527.57 517.40 355.14 439.48 369.82 586.42 393.24 586.63 130.88 406.51 481.81
357.66 840.60 431.56 164.03 320.99 321.37 577.00 528.76 555.37 446.74 100.88 691.97 373.60 354.00 748.80 479.65 854.43 367.64 724.61 616.41 437.33 1028.45 190.54 669.04 761.85 822.15 533.79 112.85 495.86 875.24 920.81 149.78 817.62 838.28 531.76 400.96 1069.82 166.44 224.78 462.32 53.61 510.25 553.99 0.00 1309.64 153.15 195.90 59.60 555.99 409.54 886.94 1130.32 539.10 330.46 861.06 598.69 273.88 712.31 764.72 1016.75 145.31 514.43 441.21 399.76 333.27 845.92 841.43 661.99 638.34 217.47 878.11 897.47 628.02 426.11 734.43 682.42 322.69 626.69 913.32 905.86 814.26 219.72 821.03 394.25 118.71 539.85 761.60 1061.33 911.02 520.77 143.07 321.31 71.04 973.52 999.99 560.63 572.79 773.78 554.68 596.65 529.05 722.19 268.75 716.48 789.11 910.93 1219.10 307.11 678.56 173.38 809.32 227.94 804.29 522.52 607.18 761.11 454.49 1038.63 1044.73 915.23 513.76 349.37 747.99 298.53 505.07 756.41 497.84 584.29 737.46 476.43 466.55 817.53 404.17 691.47 662.51 741.78 397.16 483.01 1025.76 781.93 778.65 1004.84 767.70 719.37 144.91 552.60 762.48 414.13 424.90 776.85 1012.25 679.11 776.78 639.76 742.38 596.63 538.25 828.06 533.52 948.01 974.44 62.52 594.72 599.61 817.72 423.03 815.67 438.97 632.66 784.54 887.71
1545.95 1107.40 1064.54 1407.61 990.42 1279.77 849.85 1168.44 821.52 1138.23 1365.53 782.80 1263.65 1085.46 577.73 1095.68 971.76 1029.90 961.63 825.92 1014.41 569.00 1140.91 882.26 705.41 991.56 835.91 1287.04 1124.27 698.39 491.26 1363.89 933.71 1093.11 1175.44 1272.26 305.73 1160.09 1106.67 935.19 1261.96 1008.81 843.23 1309.64 0.00 1294.34 1119.67 1296.85 845.23 1183.21 1025.28 181.09 1058.99 1109.00 1022.16 783.97 1079.34 971.52 820.91 539.59 1190.46 872.00 1003.74 1177.98 1145.13 668.22 1039.18 709.06 750.34 1150.23 868.66 540.76 820.66 1078.09 784.32 934.59 1086.98 743.53 444.92 494.92 715.68 1377.12 488.61 921.32 1369.56 1226.99 955.30 426.02 504.44 843.13 1343.02 1080.40 1238.60 712.01 461.42 1146.57 1118.74 552.75 1185.51 761.59 1187.99 682.34 1116.85 666.63 908.20 995.55 153.87 1075.55 970.66 1398.57 668.05 1185.22 878.28 1131.78 810.96 667.93 983.99 364.06 405.28 905.78 1027.18 1000.14 685.37 1059.71 1044.56 943.08 1068.22 859.58 943.17 1157.24 1163.79 739.71 1054.78 788.30 914.15 631.86 1067.02 907.94 386.31 968.60 589.05 510.14 779.72 808.18 1230.35 1116.25 655.75 1111.37 1213.24 963.52 764.70 850.37 964.13 792.57 671.16 786.64 1190.02 997.57 822.76 541.43 335.20 1256.32 1077.76 807.03 799.13 1009.37 962.65 993.43 860.51 1041.77 980.91
351.04 814.76 430.53 125.07 388.32 406.63 646.24 568.92 613.22 420.84 110.43 767.19 471.09 392.32 771.63 453.75 926.76 487.97 723.17 602.71 475.65 1095.78 274.07 723.60 831.09 924.90 654.12 62.67 563.15 942.57 1073.96 237.02 910.12 800.73 614.42 497.79 1074.08 189.62 297.06 393.59 150.44 512.74 621.28 153.15 1294.34 0.00 245.05 115.92 607.16 404.62 974.73 1190.10 514.61 368.78 962.84 606.37 394.21 776.27 696.15 1007.72 212.60 583.67 527.29 377.16 337.45 820.02 923.44 726.04 732.54 319.03 952.87 985.37 695.35 438.00 758.05 778.34 404.69 654.84 911.10 989.02 848.05 313.07 888.36 443.40 107.19 607.14 847.68 1006.69 933.85 562.86 121.02 390.78 138.37 1028.68 1012.59 621.07 546.89 764.80 594.84 694.83 629.72 789.52 356.65 662.15 879.99 833.60 1203.47 377.15 778.55 165.82 914.83 220.95 909.65 549.22 691.02 817.43 565.62 1036.41 1129.47 989.99 512.32 416.70 846.17 418.86 635.00 859.90 490.85 653.53 837.45 516.29 429.00 870.36 437.45 756.89 705.25 809.11 380.35 549.70 1140.05 883.71 880.21 978.27 717.52 773.36 119.01 526.76 746.15 388.23 515.78 874.04 1079.58 760.16 876.77 612.87 817.15 712.23 590.50 928.05 629.63 951.08 959.14 153.40 676.69 629.43 871.71 478.30 906.87 494.24 632.77 801.19 978.80
446.34 785.14 372.40 287.94 210.66 372.65 418.03 459.10 389.04 437.65 265.54 538.98 391.84 284.71 632.83 464.37 709.94 242.92 674.45 504.98 388.09 929.18 47.68 535.90 602.88 708.34 421.52 182.38 371.03 775.97 857.90 281.70 710.27 829.09 454.73 348.47 922.95 55.43 81.92 295.86 142.29 477.41 380.75 195.90 1119.67 245.05 0.00 186.31 362.11 357.85 760.51 1019.99 469.81 308.25 734.63 432.23 149.16 589.79 598.42 909.99 85.80 355.46 358.66 385.31 362.53 755.36 742.32 501.86 491.47 168.90 767.76 752.98 471.97 380.51 685.13 571.62 197.97 531.42 766.45 792.53 686.90 386.58 735.88 198.35 249.89 386.46 669.52 929.26 795.05 360.70 223.35 178.45 155.58 783.63 903.28 461.38 521.54 632.29 457.62 449.78 470.03 587.55 124.26 561.19 717.32 780.57 1023.20 140.65 623.28 278.90 686.68 185.20 689.25 389.53 469.89 627.85 329.77 891.76 956.09 798.67 463.60 223.79 601.12 173.81 405.96 657.30 461.41 425.32 661.83 351.87 457.36 671.26 387.21 541.22 597.64 592.63 330.11 316.55 937.12 655.50 706.73 880.54 682.50 614.41 295.50 497.14 643.07 423.90 375.35 645.83 841.59 609.11 661.86 473.30 600.77 473.99 437.83 758.82 384.58 761.99 784.47 136.65 495.61 433.15 712.76 373.73 684.65 389.67 477.23 703.69 789.91
348.07 805.34 431.02 191.40 343.46 366.91 567.41 476.94 575.35 454.04 128.10 688.36 390.51 413.60 719.12 486.95 842.77 380.45 715.02 586.73 459.86 1050.92 180.95 691.51 752.26 821.53 556.50 53.25 478.77 897.71 980.41 206.09 817.00 791.31 557.71 391.37 1079.71 136.76 215.19 449.07 44.02 513.59 505.36 59.60 1296.85 115.92 186.31 0.00 524.00 417.63 886.32 1134.90 539.45 390.06 859.86 559.08 286.69 702.72 728.25 1001.19 128.22 504.84 496.19 390.17 370.65 853.22 879.85 688.17 648.23 252.95 905.29 885.81 621.35 439.58 748.63 709.15 335.50 649.16 923.21 931.65 823.76 279.32 843.50 384.66 137.15 522.76 768.01 1031.65 881.34 543.24 163.69 306.40 93.51 969.94 1005.82 584.78 558.75 744.10 502.86 606.54 588.65 736.93 257.09 686.80 815.06 880.53 1209.51 324.29 672.13 173.54 812.64 218.35 803.23 512.93 619.27 701.51 466.06 1048.52 1104.33 913.23 504.17 363.24 757.88 311.34 543.49 755.79 488.25 574.70 731.03 461.76 419.58 820.64 394.58 689.86 679.47 746.69 381.93 500.19 1085.36 781.31 780.39 971.74 708.10 702.28 152.21 517.34 770.80 421.43 450.85 776.23 975.67 669.52 770.35 620.08 726.94 599.95 498.52 821.63 525.83 918.33 970.78 88.47 633.14 582.14 800.63 445.50 815.05 455.93 626.61 791.77 881.28
762.03 889.58 570.17 650.05 286.94 565.12 73.35 405.32 315.01 673.26 627.65 207.44 470.71 575.53 533.98 693.14 460.11 272.34 730.31 458.26 608.72 567.07 383.35 173.79 258.20 396.23 59.41 544.49 357.52 413.86 511.33 579.11 360.31 879.15 386.70 471.97 576.38 417.54 349.11 521.05 504.40 671.88 18.64 555.99 845.23 607.16 362.11 524.00 0.00 610.72 446.17 664.14 722.06 588.89 433.18 443.90 312.52 227.68 609.79 731.92 447.91 54.01 253.84 583.26 560.42 654.46 497.29 374.13 144.90 467.82 436.04 424.46 133.05 563.14 678.74 284.20 333.90 448.64 419.88 445.96 343.55 619.56 386.60 163.76 612.00 467.46 362.66 754.56 696.20 264.65 585.46 322.84 517.69 510.54 601.31 371.85 766.17 530.44 391.24 103.21 413.27 251.34 359.29 465.14 355.21 826.83 728.24 392.84 279.14 641.01 324.57 490.89 384.82 421.88 132.80 404.06 183.70 545.19 609.52 473.16 653.51 242.58 254.55 337.17 247.20 362.80 637.59 95.93 326.78 339.25 669.96 326.58 543.92 198.03 642.42 308.38 587.17 283.92 590.55 354.05 427.10 753.78 638.21 278.27 575.95 744.36 521.75 662.04 446.49 344.38 488.95 699.83 376.84 491.61 240.22 111.88 426.90 428.64 22.47 689.31 529.60 498.76 336.85 420.84 376.62 603.68 383.20 587.74 138.47 408.51 463.17
609.55 503.78 134.98 411.17 408.99 666.02 659.04 758.90 483.80 135.50 337.34 779.99 655.68 130.58 627.79 129.65 1002.57 563.60 416.23 357.29 185.11 1076.88 386.87 784.51 843.89 946.18 643.22 425.27 683.34 950.40 913.25 509.31 954.26 522.49 741.80 612.31 1031.09 302.42 393.36 275.34 373.61 221.81 592.08 409.54 1183.21 404.62 357.85 417.63 610.72 0.00 1001.52 1044.00 220.96 107.04 975.64 401.52 502.24 836.84 512.50 806.45 332.79 596.47 689.59 27.46 90.06 687.64 998.01 527.25 734.95 262.28 1046.76 783.51 712.98 173.84 487.52 781.95 519.41 495.35 868.11 829.35 882.20 580.35 746.58 455.02 374.47 726.27 894.36 901.23 750.92 489.21 379.53 430.78 381.00 1083.55 861.35 732.46 222.79 630.46 751.54 693.26 766.83 731.89 458.49 543.90 960.66 566.85 1085.22 314.67 864.29 409.84 869.28 217.54 930.26 728.72 675.73 614.42 603.19 993.42 1030.11 1083.88 205.38 491.54 752.13 504.19 738.58 906.58 162.40 666.33 904.09 642.48 150.76 899.59 150.66 721.77 415.60 666.95 116.19 475.62 1018.20 896.51 693.30 835.90 500.17 855.42 285.61 215.78 545.61 141.85 719.88 886.84 1062.39 476.43 918.53 390.64 734.32 701.96 777.64 999.83 612.55 730.36 899.99 404.47 816.49 424.58 930.01 176.12 925.66 192.06 718.24 956.02 1041.06
990.46 1307.25 960.31 889.98 694.68 665.94 429.61 474.55 744.54 1060.95 930.95 399.97 543.96 950.60 889.60 1074.15 53.52 590.76 1122.59 855.28 983.09 597.82 758.00 310.36 388.36 87.92 460.64 912.06 525.92 444.61 623.51 778.03 158.45 1240.42 454.92 587.33 759.67 815.94 723.76 888.13 842.30 1075.29 444.17 886.94 1025.28 974.73 760.51 886.32 446.17 1001.52 0.00 923.52 1125.47 927.06 43.24 802.33 638.67 260.46 968.22 1019.62 809.11 405.05 463.14 1008.79 911.46 997.04 120.94 773.82 467.84 830.13 244.46 591.24 438.79 914.18 1092.83 252.15 625.80 886.92 638.06 599.45 378.69 748.15 671.21 597.91 923.80 547.50 142.75 1036.37 1000.10 694.18 907.81 677.67 891.79 401.11 813.05 444.79 1100.13 914.58 477.32 493.23 429.03 529.13 639.20 844.25 198.24 1248.91 911.53 804.76 214.19 923.97 461.39 890.91 216.09 481.49 455.60 775.94 549.83 701.34 684.73 207.34 1059.01 652.93 481.79 658.02 381.87 130.53 1049.32 426.26 156.43 575.64 1095.49 363.86 969.45 463.90 1067.95 594.07 971.83 679.04 687.30 105.01 797.41 990.17 1052.30 291.42 913.27 1130.79 921.44 1087.57 578.41 114.68 402.58 1078.55 144.43 883.89 566.78 475.81 496.13 115.55 423.70 963.11 747.78 845.43 354.02 779.27 283.85 986.72 102.75 976.24 393.05 173.54 123.76
1394.93 1004.33 962.95 1241.91 809.33 1098.68 692.55 1060.66 712.40 1018.91 1189.73 653.45 1089.91 973.21 474.66 992.61 916.06 902.06 858.56 722.85 939.37 466.09 1019.39 752.91 602.27 845.43 678.61 1127.43 993.57 535.24 353.29 1196.26 788.73 1049.56 1019.92 1091.17 163.85 1000.48 1013.25 832.12 1090.88 991.59 662.14 1130.32 181.09 1190.10 1019.99 1134.90 664.14 1044.00 923.52 0.00 1027.61 994.51 880.28 708.93 959.79 842.17 789.50 473.77 1030.85 690.91 873.04 1071.46 1025.42 608.83 962.41 605.99 622.03 969.14 797.76 368.35 686.15 984.92 764.17 847.95 968.89 634.18 326.83 340.79 561.55 1223.35 393.14 827.90 1215.47 1102.31 827.78 363.40 513.71 662.04 1217.65 926.63 1059.28 641.11 280.33 991.05 1050.68 449.68 1034.74 637.02 1032.47 601.33 957.96 563.56 783.75 975.40 123.70 907.02 828.61 1235.39 513.92 1067.22 724.15 1012.18 681.49 486.84 802.90 222.18 284.37 782.08 973.22 906.72 532.20 935.14 911.34 829.66 1016.20 734.65 790.00 976.15 1068.70 569.49 979.74 647.95 828.93 536.39 927.81 794.67 283.40 835.23 407.96 444.32 725.06 683.03 1127.28 1019.64 498.39 1051.52 1082.54 844.90 626.73 747.30 850.71 689.50 552.59 662.07 1082.24 873.87 641.67 550.70 307.06 1120.68 1000.99 685.87 649.50 934.33 820.77 918.39 732.20 905.22 836.07
778.87 353.89 198.60 550.79 487.03 808.85 774.77 839.70 472.74 95.12 530.78 855.34 775.83 185.10 578.84 103.83 1110.47 563.26 279.40 339.79 171.08 1132.44 517.49 895.85 919.43 1047.78 738.54 492.07 794.47 1029.80 1014.85 657.01 1030.61 405.51 822.25 793.26 1049.82 489.37 530.46 324.74 528.70 50.18 703.42 539.10 1058.99 514.61 469.81 539.45 722.06 220.96 1125.47 1027.61 0.00 208.64 1092.46 372.35 585.86 940.07 350.58 731.66 459.00 722.51 725.08 196.19 227.16 551.27 1059.58 558.35 799.45 368.02 1077.17 885.11 824.43 213.38 373.00 883.55 617.69 412.67 922.17 930.95 953.07 758.82 800.64 605.01 574.14 787.62 995.96 758.70 608.39 523.10 572.97 572.28 530.09 1151.09 805.73 838.20 107.30 577.93 813.78 762.73 879.62 705.79 534.75 512.25 1061.88 429.08 1130.26 369.19 977.21 591.54 912.83 390.30 1022.54 823.88 789.48 635.69 662.42 997.34 1089.50 1067.43 68.55 546.06 801.53 600.47 832.79 1008.18 109.59 792.37 1005.69 724.73 125.74 978.39 178.14 775.01 198.68 740.33 190.10 545.09 1091.34 1020.46 677.32 702.21 363.34 952.33 395.60 65.89 548.46 126.38 790.61 1010.79 1166.81 280.31 1029.23 352.27 780.77 737.68 838.99 1101.50 723.89 645.38 865.87 530.41 871.68 395.41 1050.68 178.10 1048.54 162.89 834.30 1080.26 1161.15
660.04 523.97 101.10 441.32 301.95 631.84 623.26 651.86 420.24 139.15 400.26 711.31 640.40 23.54 554.48 156.12 919.53 469.60 413.28 307.80 106.87 996.57 355.93 735.97 789.99 839.14 629.51 360.87 642.14 843.36 806.21 480.24 855.62 560.67 658.43 597.03 924.45 287.14 341.11 195.30 355.99 212.84 581.83 330.46 1109.00 368.78 308.25 390.06 588.89 107.04 927.06 994.51 208.64 0.00 883.82 337.31 440.39 731.43 434.26 742.24 295.77 560.69 603.74 123.95 54.28 634.95 921.95 420.21 654.94 159.38 973.59 676.47 636.92 95.65 423.31 674.91 439.98 388.31 784.31 722.31 779.30 550.18 710.80 425.13 443.62 648.54 787.32 831.86 701.43 382.17 442.45 394.90 347.44 981.42 783.39 629.56 249.26 556.25 677.78 635.49 670.98 659.52 373.19 463.86 866.25 593.32 997.55 207.63 768.57 472.76 803.93 181.66 836.80 653.22 614.27 580.54 545.62 909.62 930.13 979.25 202.43 384.50 672.09 451.76 697.19 799.54 190.11 630.55 797.05 597.97 188.94 817.05 119.03 687.89 336.47 631.17 66.70 383.53 911.16 825.06 634.72 771.69 463.84 817.41 272.72 235.97 496.12 171.76 649.41 819.98 980.37 391.38 820.59 316.43 667.75 641.40 673.44 892.86 602.30 692.42 841.51 374.91 713.59 335.75 897.06 112.56 839.90 127.85 676.82 871.62 952.51
964.58 1281.37 934.43 928.47 666.30 680.23 403.73 460.00 701.30 1022.97 905.07 366.58 587.20 907.36 846.36 1039.94 96.76 547.52 1096.71 829.40 957.21 554.58 735.50 267.12 358.83 44.68 448.68 901.88 482.68 401.37 580.27 821.27 126.43 1214.54 411.68 587.08 716.43 788.02 704.44 894.61 815.84 1049.41 443.22 861.06 1022.16 962.84 734.63 859.86 433.18 975.64 43.24 880.28 1092.46 883.82 0.00 776.45 612.79 234.58 942.34 993.74 765.87 379.17 437.26 988.73 885.58 971.16 164.18 761.00 424.60 804.25 201.22 559.22 412.91 888.30 1066.95 208.91 582.56 843.68 594.82 563.14 352.81 704.91 627.97 554.67 910.79 514.57 116.87 993.13 956.86 650.94 937.33 666.74 865.12 357.87 787.17 410.69 1056.89 871.34 434.08 449.99 407.87 518.45 665.50 801.01 155.00 1213.12 868.29 793.61 187.73 887.72 438.67 877.03 190.21 438.25 412.36 760.76 523.95 658.10 657.92 164.10 1033.13 627.05 438.55 637.44 355.99 104.65 1023.44 401.72 145.50 532.40 1072.76 320.62 968.50 431.98 1055.98 583.39 945.95 635.80 661.42 79.13 773.88 964.29 1026.42 271.72 887.39 1098.30 885.01 1055.58 563.86 88.80 359.34 1052.67 116.05 858.01 523.54 432.57 481.58 72.31 428.41 919.87 704.54 843.23 310.78 753.39 240.61 960.84 59.51 950.36 349.81 165.19 91.97
878.57 538.04 280.57 696.37 307.54 652.04 484.56 700.25 128.89 379.04 622.54 562.55 667.70 314.42 293.62 377.95 787.70 494.79 320.26 84.81 230.44 789.42 470.88 599.01 588.17 737.54 435.70 606.06 641.55 746.40 643.79 685.58 733.01 484.21 615.98 652.47 753.55 479.11 492.75 216.11 574.52 328.98 462.54 598.69 783.97 606.37 432.23 559.08 443.90 401.52 802.33 708.93 372.35 337.31 776.45 0.00 401.03 656.05 212.01 496.01 508.70 497.91 521.02 394.01 373.98 412.70 818.65 186.00 471.91 381.22 826.87 586.46 490.58 294.12 300.56 712.57 449.84 127.45 610.19 558.97 671.92 704.05 488.66 389.94 665.90 717.11 684.02 519.17 438.29 179.25 655.58 410.10 557.49 844.69 509.02 644.85 427.77 318.23 724.70 432.57 686.27 430.69 444.05 206.54 761.35 511.79 832.63 291.58 692.01 695.04 642.12 479.30 712.32 662.57 445.63 361.59 405.22 712.12 717.15 863.99 316.67 424.16 563.59 425.68 628.73 671.80 322.40 505.17 720.67 590.08 396.85 660.73 270.81 494.63 398.58 396.94 325.91 242.53 736.12 697.32 392.10 525.46 260.03 648.77 487.36 411.70 232.98 388.93 659.27 692.24 870.11 322.34 692.85 81.56 496.39 444.42 721.83 791.26 466.37 445.34 580.65 568.88 669.72 23.06 738.76 225.40 731.06 209.46 508.18 770.49 850.91
580.92 897.88 464.91 396.50 177.50 344.59 307.63 341.13 387.46 563.38 374.76 443.05 266.67 416.85 631.25 593.64 644.31 93.76 721.29 485.84 414.78 803.01 139.94 458.56 492.48 573.88 331.75 331.54 253.06 649.80 730.89 284.55 561.11 839.12 326.74 251.44 795.94 204.59 151.76 365.52 276.87 535.68 331.16 273.88 1079.34 394.21 149.16 286.69 312.52 502.24 638.67 959.79 585.86 440.39 612.79 401.03 0.00 469.44 566.92 880.41 208.23 325.39 209.50 504.18 455.06 721.82 593.16 500.28 364.46 297.73 618.60 653.61 368.66 466.10 691.53 422.46 48.81 528.48 639.44 665.52 540.38 366.27 654.61 158.02 392.59 318.12 520.36 874.08 793.20 337.10 369.33 95.25 304.74 737.24 792.53 333.39 641.04 651.47 339.65 322.77 342.04 476.13 67.20 537.59 596.66 872.68 947.80 232.76 514.42 411.33 560.51 284.70 556.02 261.54 359.68 604.25 180.61 764.75 829.08 655.72 542.97 120.93 474.11 24.65 256.80 508.14 548.70 349.73 526.24 215.60 549.62 553.28 455.49 417.59 659.30 513.34 462.25 265.22 810.11 533.66 646.66 887.02 651.00 482.83 416.55 629.28 587.89 573.06 258.24 528.58 777.04 653.46 529.19 482.59 514.11 347.82 360.10 627.60 334.99 800.25 744.14 273.43 346.45 377.97 581.18 421.75 567.40 435.76 372.75 554.53 687.25
839.43 1117.26 797.85 728.58 514.62 557.18 221.04 349.48 527.16 870.58 792.44 188.72 462.82 754.97 668.50 887.55 261.51 395.13 938.85 666.80 836.40 498.60 609.38 89.26 296.51 212.20 261.23 746.47 355.27 423.03 552.61 696.89 213.20 1087.84 265.21 506.19 703.52 645.22 576.79 733.20 658.70 898.00 244.76 712.31 971.52 776.27 589.79 702.72 227.68 836.84 260.46 842.17 940.07 731.43 234.58 656.05 469.44 0.00 815.64 900.35 675.59 262.16 297.99 809.38 768.57 760.20 303.56 570.04 246.74 695.50 306.91 530.49 178.33 771.29 878.79 56.52 430.17 669.54 561.38 501.38 315.22 685.31 524.29 391.44 782.83 378.40 168.93 896.06 803.92 476.80 793.17 517.93 687.26 435.89 696.62 292.73 980.69 693.48 344.47 244.71 334.15 347.73 513.11 633.52 247.86 1038.98 848.05 618.96 73.30 769.33 346.68 718.57 173.16 320.29 210.42 589.78 385.52 681.80 658.87 314.40 879.63 456.98 322.39 489.50 230.84 156.96 863.71 192.30 132.20 398.50 896.08 284.62 770.04 254.12 868.54 407.91 798.13 485.74 657.56 155.45 568.60 870.90 859.11 193.74 657.26 967.40 717.52 888.16 444.24 145.78 467.52 879.03 171.52 700.15 357.34 265.08 371.06 222.80 224.29 766.93 655.91 690.84 192.82 632.99 292.09 822.80 184.60 815.42 180.09 197.68 282.45
1019.60 339.03 377.52 817.29 473.43 864.05 672.00 870.49 294.78 441.64 783.72 711.70 833.59 430.77 331.98 427.18 973.86 654.29 221.59 248.00 327.39 891.49 637.07 764.90 647.77 903.43 601.59 675.00 807.44 864.37 775.72 821.57 898.90 272.20 827.99 818.36 779.83 645.30 634.96 302.56 719.03 347.02 628.43 764.72 820.91 696.15 598.42 728.25 609.79 512.50 968.22 789.50 350.58 434.26 942.34 212.01 566.92 815.64 0.00 466.56 674.59 658.40 686.91 506.57 448.80 200.69 984.54 245.60 621.16 547.41 901.55 717.26 637.31 396.30 124.61 868.52 615.73 165.81 669.79 724.86 731.60 887.45 548.26 545.71 763.04 878.65 849.91 509.67 359.36 345.14 789.58 590.73 693.74 904.98 560.89 856.86 413.71 339.82 894.03 598.46 898.28 490.29 600.88 264.18 927.24 335.84 870.68 457.77 857.90 795.29 731.39 608.66 878.21 828.46 611.52 432.19 571.11 750.48 858.92 938.67 328.65 590.05 631.91 591.57 794.62 837.69 371.63 671.06 885.53 755.97 476.32 721.02 402.89 660.52 191.96 527.74 427.70 432.05 839.95 863.21 430.46 453.18 84.08 750.54 667.24 416.47 301.60 452.74 825.16 858.13 932.33 110.33 858.74 214.65 560.11 610.31 892.07 957.15 632.26 396.35 619.01 735.07 835.61 188.95 801.03 341.75 896.95 348.37 674.07 936.38 1016.80
1267.19 580.67 685.50 1085.10 779.42 1147.51 760.33 1038.47 529.28 783.97 1013.33 752.85 1026.27 719.35 285.49 782.88 1017.50 858.49 625.06 525.04 635.37 815.65 906.60 811.09 644.01 982.37 698.02 994.80 950.40 796.73 660.43 1104.47 905.96 647.50 1013.95 1054.36 538.63 867.85 940.84 614.13 963.14 711.71 729.92 1016.75 539.59 1007.72 909.99 1001.19 731.92 806.45 1019.62 473.77 731.66 742.24 993.74 496.01 880.41 900.35 466.56 0.00 898.22 758.69 940.82 798.94 751.88 265.87 1060.32 445.34 705.54 858.98 963.10 650.65 753.09 699.05 439.08 911.70 906.10 443.03 615.51 643.40 737.99 1141.57 540.83 779.70 1056.69 1043.70 925.69 134.68 123.27 579.64 1055.52 844.85 968.00 901.22 392.00 1042.82 821.64 310.47 1036.99 686.71 1084.24 574.67 898.79 397.75 878.94 649.82 506.24 769.34 849.89 1085.83 680.43 825.44 803.53 1023.51 716.77 327.86 870.68 529.32 639.61 956.16 693.34 824.55 629.90 892.09 933.14 918.54 727.33 784.70 881.77 880.66 801.78 717.26 675.74 672.52 532.98 509.73 732.84 687.64 632.96 914.61 362.82 29.45 398.55 746.78 938.11 797.55 328.58 793.86 1000.43 924.28 928.57 563.94 939.59 550.29 543.01 711.76 1043.63 999.39 709.45 160.26 541.52 988.05 1022.79 502.44 797.27 630.33 953.46 614.39 736.23 979.26 990.82
395.75 762.14 382.56 296.26 278.35 392.81 503.83 438.62 474.29 397.67 230.15 599.70 377.63 319.31 612.73 441.23 760.73 301.99 673.04 480.34 402.64 959.55 68.29 590.71 676.83 721.19 441.52 157.32 350.55 806.34 922.98 206.25 765.35 819.19 466.83 334.26 989.01 30.37 102.08 373.11 91.70 479.68 453.03 145.31 1190.46 212.60 85.80 128.22 447.91 332.79 809.11 1030.85 459.00 295.77 765.87 508.70 208.23 675.59 674.59 898.22 0.00 441.26 417.73 360.25 350.05 766.24 790.98 580.91 549.39 136.39 826.83 803.77 539.33 373.48 719.08 630.69 257.04 612.77 832.51 849.61 695.54 355.27 767.60 284.15 245.36 394.54 716.36 918.08 774.95 446.50 235.38 178.18 113.63 848.63 918.91 472.52 514.53 637.71 418.75 515.84 490.64 633.68 175.05 580.41 772.13 807.01 1109.00 217.90 709.08 277.61 717.05 160.14 711.30 410.14 514.91 713.65 380.59 957.82 1022.15 849.46 462.19 260.68 667.18 232.88 465.03 704.14 467.68 511.12 681.99 333.54 447.46 720.07 389.48 602.52 632.24 634.03 332.38 393.80 1003.18 727.39 697.57 868.77 737.66 574.06 243.53 474.14 664.41 398.84 426.26 724.58 906.59 687.15 725.19 513.69 650.11 504.36 445.91 774.91 470.38 811.94 870.27 116.97 522.45 485.64 672.41 408.33 750.10 423.62 540.39 746.13 834.56
708.02 943.59 568.24 637.05 340.95 526.20 62.57 391.58 369.02 655.90 599.27 183.52 430.85 584.23 575.64 688.15 406.10 243.94 762.58 490.53 578.04 583.75 403.14 206.95 247.42 356.79 81.04 537.84 303.51 430.54 520.05 525.10 357.79 924.56 404.05 433.05 603.15 410.89 403.12 575.06 460.82 672.33 64.05 514.43 872.00 583.67 355.46 504.84 54.01 596.47 405.05 690.91 722.51 560.69 379.17 497.91 325.39 262.16 658.40 758.69 441.26 0.00 214.86 609.56 506.41 681.23 453.74 428.14 148.87 466.25 451.94 449.72 116.51 509.13 732.75 289.59 314.54 502.65 446.65 461.87 331.44 614.86 415.42 217.77 605.35 413.45 323.03 780.30 707.93 318.66 578.81 363.33 510.31 499.76 634.58 375.18 767.15 565.16 390.10 129.98 368.39 232.09 353.75 461.78 364.19 880.84 755.01 438.25 267.82 634.36 341.25 540.66 333.79 382.90 114.43 430.83 144.78 571.96 636.29 489.06 653.96 296.59 270.46 326.63 301.21 310.81 646.03 69.86 326.72 285.24 705.69 315.80 589.33 185.76 687.83 297.03 566.78 307.88 617.32 300.04 452.84 788.14 692.22 258.95 616.37 725.74 545.78 688.51 392.48 290.37 531.98 753.84 322.83 523.88 285.63 128.56 410.55 403.36 49.24 670.94 556.37 492.11 322.22 474.85 357.30 581.67 329.19 593.79 121.77 359.55 444.59
702.30 999.91 670.38 564.45 363.53 377.63 277.43 208.60 483.32 695.86 542.09 375.15 259.91 602.77 660.47 728.77 452.60 165.83 841.28 605.83 624.28 750.04 349.44 332.28 459.60 398.35 268.31 464.62 120.53 596.83 659.19 486.42 388.69 959.11 223.03 303.28 777.43 410.18 337.68 549.23 486.37 741.25 251.84 441.21 1003.74 527.29 358.66 496.19 253.84 689.59 463.14 873.04 725.08 603.74 437.26 521.02 209.50 297.99 686.91 940.82 417.73 214.86 0.00 690.10 640.98 813.98 444.07 545.35 348.92 450.78 436.90 529.45 308.18 641.35 811.52 285.06 170.18 625.70 623.90 575.29 456.73 434.77 597.55 263.97 510.20 229.27 320.39 958.58 822.69 506.61 536.74 258.81 510.33 593.55 795.76 220.07 821.91 635.49 207.12 307.23 248.54 446.95 253.12 600.86 452.01 1013.28 929.29 418.68 304.92 584.91 520.02 472.05 406.90 168.04 304.00 612.96 115.80 749.21 783.11 474.02 722.88 281.34 458.57 229.34 107.71 332.61 758.20 284.72 326.90 159.77 715.67 479.04 664.99 365.57 838.00 511.89 648.17 411.38 764.14 358.13 631.12 916.51 770.99 369.29 586.12 790.97 684.86 663.25 209.50 353.05 651.51 797.24 353.66 602.58 434.67 307.33 227.57 452.07 231.37 821.77 733.62 457.50 197.36 497.96 467.64 631.25 391.87 645.26 241.45 398.06 508.23
637.01 488.34 159.64 438.63 412.95 655.45 635.97 775.81 492.02 147.00 364.80 767.94 683.14 126.79 655.25 157.11 1015.66 591.06 388.77 384.75 182.37 1059.73 414.33 757.05 820.82 963.09 615.76 406.44 707.48 967.31 930.16 508.22 943.57 538.54 769.26 639.77 1044.18 329.88 406.45 298.55 346.15 194.35 564.62 399.76 1177.98 377.16 385.31 390.17 583.26 27.46 1008.79 1071.46 196.19 123.95 988.73 394.01 504.18 809.38 506.57 798.94 360.25 609.56 690.10 0.00 103.15 707.26 1022.67 523.46 707.49 283.33 1019.30 800.42 693.55 185.69 480.01 798.86 519.92 512.26 881.20 846.26 903.25 607.81 759.67 482.48 401.93 751.79 908.64 898.30 747.99 485.42 406.99 458.24 395.64 1073.16 888.81 753.51 200.10 657.92 779.00 665.80 794.29 727.45 436.98 567.11 938.47 549.39 1100.80 310.88 841.76 437.30 887.19 245.00 931.47 756.18 686.24 635.42 630.65 1006.51 1002.65 1056.42 177.92 487.75 775.34 515.55 760.98 920.37 134.94 678.07 889.40 669.94 166.81 889.20 123.20 746.43 394.87 680.04 143.65 486.78 1021.62 909.60 714.30 828.39 472.71 836.09 258.15 241.51 573.07 114.39 729.35 899.93 1034.93 448.97 932.39 418.10 761.78 674.50 797.39 991.26 585.09 743.45 913.08 377.01 837.54 417.07 902.55 184.34 938.75 184.55 695.50 969.11 1046.43
625.83 507.33 147.79 427.45 352.10 594.03 568.98 692.40 456.26 149.49 353.62 689.93 638.53 77.82 608.76 193.05 912.51 523.88 406.20 338.71 145.30 999.75 337.54 713.36 753.83 863.20 587.45 366.73 604.33 897.64 860.49 483.05 864.20 538.97 695.48 595.16 941.03 341.42 303.30 249.58 373.99 176.98 570.46 333.27 1145.13 337.45 362.53 370.65 560.42 90.06 911.46 1025.42 227.16 54.28 885.58 373.98 455.06 768.57 448.80 751.88 350.05 506.41 640.98 103.15 0.00 649.49 949.93 474.49 655.28 213.66 958.35 730.75 622.92 124.02 459.98 729.19 470.80 442.59 778.05 776.59 830.08 552.99 656.52 467.65 396.98 665.70 829.44 827.60 677.29 436.45 395.81 399.83 358.36 1006.17 837.67 675.21 260.74 610.53 690.92 636.39 716.63 641.83 387.86 518.14 870.60 582.52 1051.83 224.79 774.23 426.12 847.66 235.94 840.20 679.39 599.99 627.23 581.81 903.36 967.18 995.47 195.35 401.66 726.37 448.49 711.86 817.22 219.50 576.27 833.13 568.30 199.28 822.21 135.02 692.17 388.06 576.89 97.61 400.69 948.21 806.45 689.00 761.95 490.14 765.36 218.44 219.33 527.03 182.10 680.23 796.78 1024.47 445.66 829.24 370.71 676.34 634.97 711.37 909.77 555.65 640.30 809.93 384.16 767.87 390.03 863.71 148.58 835.60 164.52 628.18 865.96 951.00
1108.40 465.76 574.54 910.02 647.44 1035.30 639.51 989.03 397.30 642.33 836.19 681.23 939.19 616.85 153.51 627.87 999.62 712.59 422.28 330.35 528.08 803.78 803.04 732.75 704.93 927.36 625.57 849.30 910.95 702.53 575.03 972.49 845.53 440.73 961.07 971.15 641.12 735.87 787.82 503.25 848.70 547.71 652.43 845.92 668.22 820.02 755.36 853.22 654.46 687.64 997.04 608.83 551.27 634.95 971.16 412.70 721.82 760.20 200.69 265.87 766.24 681.23 813.98 707.26 649.49 0.00 1017.23 313.36 592.94 722.14 888.66 560.45 617.63 596.99 272.82 816.72 770.63 317.06 582.08 606.29 618.35 988.01 480.71 604.01 879.55 936.95 884.58 314.09 163.78 447.66 878.38 691.29 836.02 840.06 494.05 932.20 614.40 178.49 963.11 551.25 973.62 540.89 756.17 251.71 856.36 468.77 685.65 632.50 833.50 908.69 645.89 770.30 780.95 926.41 600.62 330.98 752.18 681.98 698.95 920.97 529.34 668.78 587.03 697.17 834.22 895.67 572.32 626.88 846.80 841.21 677.01 656.10 603.58 646.07 392.65 484.44 571.45 456.60 679.98 892.03 268.62 257.60 264.62 739.83 701.01 617.16 181.27 653.43 939.94 901.70 839.54 311.02 913.00 363.70 500.14 576.30 988.32 961.46 631.99 200.77 603.44 856.07 923.87 389.64 736.11 542.44 912.45 549.06 651.43 938.57 954.90
944.95 1323.57 863.03 903.88 684.56 679.84 481.70 488.45 769.66 1022.05 942.31 422.09 557.86 909.23 895.45 1007.59 67.42 585.65 1119.21 847.16 913.16 634.80 733.10 353.02 416.31 184.85 481.06 860.77 523.25 481.59 659.82 791.93 202.93 1256.74 431.95 601.23 815.18 797.75 737.66 880.35 840.43 1009.40 478.65 841.43 1039.18 923.44 742.32 879.85 497.29 998.01 120.94 962.41 1059.58 921.95 164.18 818.65 593.16 303.56 984.54 1060.32 790.98 453.74 444.07 1022.67 949.93 1017.23 0.00 818.48 494.40 814.78 320.90 635.72 443.19 922.14 1109.15 247.04 604.99 912.04 699.54 621.62 400.86 780.35 701.34 597.82 937.70 465.54 134.63 1109.07 1057.67 719.30 921.71 662.23 874.55 477.55 835.22 403.08 1077.84 920.43 476.45 465.98 377.74 583.28 653.10 841.95 233.08 1265.23 936.06 725.14 230.51 944.63 453.89 857.40 261.86 437.28 478.22 807.97 559.87 761.30 722.59 308.16 995.02 596.22 499.44 617.81 336.36 146.85 952.04 440.16 181.32 553.16 1025.51 407.02 899.47 463.31 1102.43 626.10 913.21 739.00 703.62 171.28 789.87 1030.87 1068.62 313.54 867.76 1087.89 925.95 1017.59 580.28 166.77 503.40 1094.87 134.31 880.51 548.82 473.51 467.47 216.37 485.63 1023.24 781.34 859.33 412.97 795.59 361.22 927.52 162.71 934.14 431.44 122.25 213.90
948.20 582.73 466.57 789.80 362.96 818.37 435.64 725.27 112.82 549.61 743.36 466.10 717.65 396.67 159.85 563.95 775.66 519.00 436.96 267.72 416.44 645.89 517.62 524.22 402.17 746.66 365.23 684.24 643.75 625.30 589.20 719.12 710.74 517.80 707.30 747.71 587.01 557.29 538.01 402.11 644.15 514.98 385.67 661.99 709.06 726.04 501.86 688.17 374.13 527.25 773.82 605.99 558.35 420.21 761.00 186.00 500.28 570.04 245.60 445.34 580.91 428.14 545.35 523.46 474.49 313.36 818.48 0.00 375.56 444.52 655.95 498.75 391.71 460.46 370.21 622.92 466.54 163.48 424.19 485.44 491.97 776.98 302.66 410.42 744.00 737.05 683.85 472.38 322.07 163.18 725.21 480.26 612.91 659.38 439.94 736.17 605.92 156.31 730.34 398.05 765.58 244.69 453.45 153.04 683.57 581.44 665.51 408.16 643.34 780.76 485.79 542.60 635.82 685.08 407.06 291.31 519.84 549.50 613.32 693.07 502.67 408.09 386.31 475.63 600.35 688.80 508.40 446.96 639.93 574.01 582.83 475.42 456.81 428.69 407.33 309.63 442.07 286.80 594.35 706.30 214.51 415.89 329.68 504.94 673.36 564.51 147.62 566.84 675.97 704.22 686.73 325.70 706.13 234.37 314.51 395.16 736.98 713.71 396.60 342.59 456.07 638.51 690.00 179.73 555.43 411.40 743.04 395.46 458.44 712.65 773.36
856.89 958.29 639.92 760.96 416.30 665.08 129.95 461.70 345.37 794.09 739.22 133.46 570.67 653.64 535.41 766.01 479.72 311.32 769.83 556.72 657.06 475.81 504.40 157.48 214.66 379.92 107.87 673.85 449.48 344.91 418.93 649.01 344.00 893.36 459.76 571.93 458.18 546.90 478.47 551.41 609.69 774.74 142.87 638.34 750.34 732.54 491.47 648.23 144.90 734.95 467.84 622.03 799.45 654.94 424.60 471.91 364.46 246.74 621.16 705.54 549.39 148.87 348.92 707.49 655.28 592.94 494.40 375.56 0.00 592.83 419.73 300.85 70.32 619.95 717.85 247.36 413.27 487.75 358.36 346.69 226.57 657.64 290.15 293.12 724.31 512.06 359.77 693.04 654.99 295.01 697.77 390.16 625.75 372.78 525.45 430.89 840.74 531.87 487.62 41.69 472.31 130.87 418.38 430.21 338.90 857.19 610.04 517.07 286.12 746.95 213.00 577.81 300.94 416.85 73.10 377.68 283.66 480.81 532.58 453.69 762.43 347.42 168.88 339.81 306.71 369.78 728.93 125.57 345.02 434.11 794.19 188.82 668.15 53.13 700.05 195.81 677.60 368.59 523.88 380.10 365.58 708.27 677.32 242.01 705.31 839.00 474.25 786.27 538.45 370.43 430.74 701.26 384.34 531.13 206.44 61.77 483.28 397.90 122.43 629.61 415.14 624.61 396.36 451.20 268.83 653.05 400.47 655.22 110.17 391.26 446.86
512.98 683.35 260.48 357.74 180.88 472.46 528.82 570.83 337.90 298.53 318.35 554.49 512.14 182.92 581.69 315.50 816.21 310.22 536.65 453.97 266.25 883.89 204.68 641.61 698.04 792.88 506.51 285.83 482.76 832.20 860.88 342.64 763.09 706.16 499.05 468.77 919.42 158.88 181.73 244.85 208.93 344.17 463.84 217.47 1150.23 319.03 168.90 252.95 467.82 262.28 830.13 969.14 368.02 159.38 804.25 381.22 297.73 695.50 547.41 858.98 136.39 466.25 450.78 283.33 213.66 722.14 814.78 444.52 592.83 0.00 887.68 731.14 545.16 237.09 582.69 648.83 280.60 476.38 756.44 776.98 619.92 411.71 684.87 304.06 332.78 530.55 761.24 878.25 743.91 334.62 306.24 278.26 246.89 841.63 782.52 470.18 408.64 600.83 555.14 555.49 511.60 570.73 230.53 513.41 823.03 729.56 1054.73 89.64 734.07 361.79 737.57 98.08 782.52 542.03 540.83 590.88 409.38 881.75 943.11 903.07 325.80 266.51 636.65 309.10 554.53 750.64 349.49 536.11 754.79 469.93 348.32 657.67 278.41 581.00 495.85 541.62 226.08 265.54 924.14 725.12 561.18 829.53 620.59 663.04 319.76 395.35 592.06 331.14 490.03 734.79 899.59 550.76 731.13 422.29 549.76 531.06 581.92 846.60 484.31 780.90 838.28 225.85 554.21 382.14 737.68 271.94 763.97 287.23 564.30 713.57 880.90
999.68 1213.95 970.82 1001.35 722.98 766.30 395.29 561.83 697.98 1037.59 966.57 361.71 696.81 974.68 768.55 1023.13 277.86 602.73 996.17 790.82 1004.97 426.32 758.54 262.25 332.69 163.43 429.04 890.20 557.43 294.71 463.20 903.15 173.83 1173.75 529.28 673.15 652.64 823.19 739.14 811.82 861.72 1026.99 454.68 878.11 868.66 952.87 767.76 905.29 436.04 1046.76 244.46 797.76 1077.17 973.59 201.22 826.87 618.60 306.91 901.55 963.10 826.83 451.94 436.90 1019.30 958.35 888.66 320.90 655.95 419.73 887.68 0.00 450.85 396.90 942.05 1021.97 298.68 607.08 819.43 537.87 491.07 270.31 854.44 536.93 599.80 947.10 634.78 186.27 866.15 930.77 647.62 971.34 667.36 860.25 156.65 618.27 528.29 1116.27 793.53 564.41 403.42 493.88 476.65 672.52 796.40 107.54 1209.80 769.20 817.30 233.61 1010.49 381.23 856.42 159.57 555.85 381.24 689.32 552.70 594.31 555.73 37.12 1010.56 655.56 335.03 593.95 391.09 186.60 967.58 382.08 219.32 596.67 1087.38 259.44 979.96 407.38 1052.66 507.45 970.97 641.40 536.76 212.12 687.86 933.65 981.44 296.81 922.49 1087.61 803.57 1070.20 635.01 207.04 214.61 981.65 207.65 757.47 421.92 428.47 583.41 128.91 446.17 897.70 647.59 834.13 428.38 803.81 236.06 990.61 192.34 1006.55 330.17 272.74 157.90
1131.58 1026.21 777.57 939.86 651.24 907.08 419.10 738.05 457.57 815.62 973.04 358.50 789.36 700.01 518.38 832.59 595.00 612.17 883.98 643.86 779.61 320.10 747.52 441.23 249.73 514.62 392.83 922.70 649.98 166.89 129.74 827.91 432.79 989.46 717.80 832.73 247.98 808.41 713.28 685.15 879.40 879.67 405.82 897.47 540.76 985.37 752.98 885.81 424.46 783.51 591.24 368.35 885.11 676.47 559.22 586.46 653.61 530.49 717.26 650.65 803.77 449.72 529.45 800.42 730.75 560.45 635.72 498.75 300.85 731.14 450.85 0.00 362.31 772.12 748.25 517.42 699.63 551.45 107.84 45.84 266.60 958.49 201.90 582.27 957.39 758.72 501.09 515.97 546.19 451.46 930.85 664.43 860.26 304.95 268.04 718.89 925.73 493.40 736.57 330.84 760.31 254.46 628.72 539.40 415.40 959.48 399.84 641.50 534.05 980.61 218.97 829.22 406.38 697.49 373.95 371.39 572.81 233.15 253.66 413.73 861.30 581.93 208.36 628.96 592.11 494.00 866.58 416.41 487.49 689.22 865.41 304.35 795.50 324.11 791.90 189.52 743.17 465.60 234.69 490.54 405.34 630.59 707.72 352.50 896.29 912.44 481.05 848.23 738.95 500.21 303.90 791.02 515.05 668.02 184.24 333.72 757.02 505.52 411.58 583.18 205.56 834.95 663.53 563.40 327.65 765.25 499.71 767.42 364.50 579.10 527.28
824.53 974.44 684.75 724.90 419.99 642.71 61.03 471.21 361.69 769.62 687.43 74.39 547.36 639.61 551.56 772.09 409.40 324.70 783.57 529.75 675.15 510.79 491.92 157.56 185.73 380.00 99.22 639.92 420.02 379.13 415.57 641.61 344.08 909.51 389.44 549.56 528.50 527.40 457.68 567.73 577.33 775.95 128.93 628.02 820.66 695.35 471.97 621.35 133.05 712.98 438.79 686.15 824.43 636.92 412.91 490.58 368.66 178.33 637.31 753.09 539.33 116.51 308.18 693.55 622.92 617.63 443.19 391.71 70.32 545.16 396.90 362.31 0.00 625.64 734.17 234.85 395.61 504.07 383.05 345.36 222.31 657.87 355.85 296.81 670.65 476.96 347.26 717.73 638.45 311.33 695.32 361.15 556.98 388.56 582.29 360.57 832.09 548.02 452.95 66.38 401.99 201.19 421.56 455.19 338.98 873.51 680.36 455.52 251.63 733.09 283.32 574.39 311.64 432.42 44.95 448.00 261.29 508.36 539.49 434.02 759.52 278.65 153.95 364.50 292.46 335.29 716.54 55.25 310.53 401.75 780.25 204.60 654.21 123.45 716.37 266.13 654.85 324.75 520.52 333.78 390.27 732.27 693.64 182.94 637.27 842.25 539.19 737.01 508.99 324.11 446.52 717.41 325.22 544.87 240.84 86.75 474.33 401.13 111.91 601.46 485.46 574.85 336.93 467.52 281.29 660.79 357.03 671.54 66.73 320.94 429.98
704.30 527.17 59.11 528.62 396.97 709.55 571.70 727.81 380.65 179.19 472.52 692.65 683.47 95.80 560.22 179.02 915.23 535.82 355.68 291.43 68.91 1001.67 428.19 716.08 724.92 865.92 590.17 386.33 639.74 882.64 868.64 524.56 866.92 522.75 703.29 669.55 989.93 359.66 418.82 183.28 400.25 163.20 573.18 426.11 1078.09 438.00 380.51 439.58 563.14 173.84 914.18 984.92 213.38 95.65 888.30 294.12 466.10 771.29 396.30 699.05 373.48 509.13 641.35 185.69 124.02 596.99 922.14 460.46 619.95 237.09 942.05 772.12 625.64 0.00 380.12 770.56 514.91 414.34 831.15 798.43 785.92 645.83 754.64 459.50 474.37 710.57 832.16 813.29 689.82 366.16 500.67 472.75 424.96 956.58 766.13 707.27 272.16 535.24 726.33 578.26 748.69 627.56 435.22 451.84 873.32 569.11 993.16 269.66 776.95 506.62 738.86 277.29 842.92 712.85 623.56 538.55 584.09 956.46 992.56 979.17 144.83 392.26 607.02 441.45 722.90 819.94 136.90 578.99 835.85 570.00 221.59 783.88 95.55 614.06 308.20 628.10 57.65 445.56 973.59 809.17 617.43 728.50 420.65 766.01 342.46 239.17 487.07 182.42 658.48 799.50 1009.48 389.83 831.96 295.42 604.91 603.31 732.97 912.49 558.37 652.83 828.54 444.70 779.05 317.18 863.89 72.97 838.32 84.66 625.42 868.68 953.72
1011.42 356.45 366.57 832.61 598.04 952.60 728.59 893.85 372.48 448.31 777.14 800.15 933.77 400.42 289.51 433.85 1059.23 750.26 228.97 273.41 316.44 963.53 732.81 829.23 772.38 1028.04 699.76 695.38 805.78 915.14 845.34 817.83 1015.75 332.45 916.54 942.97 736.28 710.45 705.80 427.17 707.37 353.69 697.38 734.43 784.32 758.05 685.13 748.63 678.74 487.52 1092.83 764.17 373.00 423.31 1066.95 300.56 691.53 878.79 124.61 439.08 719.08 732.75 811.52 480.01 459.98 272.82 1109.15 370.21 717.85 582.69 1021.97 748.25 734.17 380.12 0.00 906.22 740.34 230.10 754.72 725.09 856.21 954.15 633.19 666.60 783.42 915.72 974.52 466.12 315.81 422.84 809.96 672.78 663.39 987.35 625.18 927.75 428.24 314.49 892.37 676.16 969.17 614.90 725.49 303.70 980.82 211.23 827.13 565.06 952.09 791.86 825.06 604.97 955.91 913.93 689.22 453.18 695.72 767.91 763.20 1059.09 335.32 667.75 723.03 716.18 862.90 962.30 378.30 686.49 999.52 833.67 482.85 845.63 356.81 738.22 174.32 592.03 413.91 519.19 782.17 987.82 494.75 409.63 40.53 875.15 670.69 438.89 267.20 459.41 894.75 982.74 1045.31 124.86 983.35 264.50 636.14 672.14 912.82 1081.76 701.21 352.80 683.30 729.27 952.55 313.56 912.59 311.40 1021.56 295.46 738.40 1045.00 1061.22
785.94 1173.78 776.01 752.32 519.77 528.28 261.83 335.79 583.68 814.06 783.30 208.82 406.30 698.45 725.02 831.03 244.62 338.61 966.28 694.23 781.78 555.12 562.40 145.78 267.69 164.23 294.26 715.67 349.08 424.03 549.63 640.37 180.71 1140.72 278.08 449.67 700.72 627.05 541.15 754.91 678.77 887.75 301.28 682.42 934.59 778.34 571.62 709.15 284.20 781.95 252.15 847.95 883.55 674.91 208.91 712.57 422.46 56.52 868.52 911.70 630.69 289.59 285.06 798.86 729.19 816.72 247.04 622.92 247.36 648.83 298.68 517.42 234.85 770.56 906.22 0.00 373.65 726.06 585.08 507.16 286.40 628.79 537.51 447.19 776.42 364.48 112.41 919.09 859.40 533.32 758.72 461.41 700.20 379.37 716.72 277.09 924.17 750.00 328.83 289.05 318.51 378.23 456.59 677.57 191.34 1095.50 819.23 622.15 93.66 793.07 390.39 674.65 161.89 304.65 266.94 585.89 400.81 680.74 646.25 304.34 877.34 513.50 362.07 432.98 177.35 124.63 865.02 219.73 122.14 394.15 863.85 310.93 793.94 277.84 925.06 404.02 741.61 530.96 654.58 150.15 612.94 882.25 915.63 164.92 708.75 910.88 721.61 846.67 421.27 145.07 437.33 935.55 145.68 727.58 413.86 309.13 357.37 217.95 280.81 822.41 599.39 634.32 177.18 689.51 263.27 787.47 164.99 802.76 236.61 196.71 277.60
606.78 933.02 513.72 445.31 205.93 377.56 334.58 313.29 436.27 579.13 423.57 460.83 266.89 432.59 626.39 596.10 618.27 112.94 762.93 534.65 463.59 828.26 188.75 488.25 451.92 537.88 370.92 342.02 290.71 675.05 777.09 333.36 554.36 887.93 364.54 300.25 805.04 253.40 167.50 381.26 325.68 584.49 352.54 322.69 1086.98 404.69 197.97 335.50 333.90 519.41 625.80 968.89 617.69 439.98 582.56 449.84 48.81 430.17 615.73 906.10 257.04 314.54 170.18 519.92 470.80 770.63 604.99 466.54 413.27 280.60 607.08 699.63 395.61 514.91 740.34 373.65 0.00 577.29 642.06 706.88 545.90 373.51 687.01 206.83 402.77 329.47 486.06 922.89 788.61 385.91 385.07 88.63 344.02 709.13 811.71 337.68 669.42 622.85 339.21 371.58 326.23 499.27 82.94 586.40 564.99 888.42 956.90 248.50 467.31 440.62 581.15 301.87 535.54 310.35 392.69 653.06 212.10 767.37 860.43 644.20 591.78 151.35 515.47 73.46 277.89 498.28 597.51 347.17 495.79 264.41 598.43 525.17 504.30 466.40 708.11 543.76 477.99 314.03 858.92 523.80 681.05 876.65 699.81 502.01 452.29 645.02 614.16 602.76 209.43 518.72 736.48 681.89 519.33 531.40 562.92 396.63 330.65 591.60 356.37 809.13 751.78 287.32 367.54 426.78 600.36 470.56 538.64 484.57 399.08 541.27 651.25
909.19 504.84 386.44 738.28 392.52 779.49 521.99 754.83 142.38 457.11 671.01 576.04 747.21 411.81 166.17 442.65 905.57 540.75 357.62 142.25 357.89 746.57 579.10 612.50 565.23 799.00 493.80 638.59 673.31 698.56 675.11 710.09 796.53 438.01 736.86 777.27 637.15 586.85 606.35 338.20 605.14 362.49 467.28 626.69 743.53 654.84 531.42 649.16 448.64 495.35 886.92 634.18 412.67 388.31 843.68 127.45 528.48 669.54 165.81 443.03 612.77 502.65 625.70 512.26 442.59 317.06 912.04 163.48 487.75 476.38 819.43 551.45 504.07 414.34 230.10 726.06 577.29 0.00 524.87 593.68 654.67 806.54 455.59 439.98 714.37 765.11 802.71 478.70 328.39 192.74 713.20 509.82 555.65 822.44 395.08 765.73 472.42 190.78 759.90 446.06 804.39 408.17 527.14 134.32 774.84 441.33 757.88 419.03 727.78 731.76 649.27 569.97 725.81 723.89 459.12 302.33 532.67 584.67 694.96 856.55 344.12 437.65 534.35 505.19 632.80 799.25 387.10 534.10 775.42 603.57 506.90 638.48 398.26 508.12 357.77 361.93 383.35 318.67 678.67 802.69 264.65 422.21 189.57 662.26 535.83 449.06 135.79 468.21 723.34 793.02 835.57 276.14 789.61 118.92 461.38 458.24 766.54 852.72 471.11 348.15 453.20 621.53 722.45 150.51 718.49 352.85 811.97 336.91 521.67 825.01 877.01
1154.67 1005.73 862.62 1035.94 666.27 940.06 404.93 776.55 516.85 923.46 1001.97 390.58 845.65 807.85 552.90 940.43 667.57 645.79 816.79 667.12 812.49 221.70 779.38 483.11 357.57 550.14 390.99 948.83 729.43 274.73 168.02 923.99 525.86 941.99 748.85 846.91 162.98 821.88 753.45 717.24 907.47 871.99 417.85 913.32 444.92 911.10 766.45 923.21 419.88 868.11 638.06 326.83 922.17 784.31 594.82 610.19 639.44 561.38 669.79 615.51 832.51 446.65 623.90 881.20 778.05 582.08 699.54 424.19 358.36 756.44 537.87 107.84 383.05 831.15 754.72 585.08 642.06 524.87 0.00 77.92 298.68 970.00 121.53 568.10 999.29 787.04 564.91 501.49 554.80 466.49 972.75 673.28 871.52 381.22 259.24 719.98 981.92 527.92 777.81 316.67 761.40 301.81 693.36 506.18 523.24 860.51 314.84 686.36 525.74 1026.90 247.62 854.52 461.28 691.83 366.04 392.34 558.64 125.31 218.37 521.57 868.99 637.80 240.45 614.79 599.64 576.00 904.45 414.66 527.13 731.89 973.25 336.43 852.86 356.20 819.75 264.78 844.37 510.46 228.95 572.36 313.46 586.06 714.19 420.16 941.15 972.62 487.52 956.07 818.40 582.03 411.74 749.89 581.12 643.79 226.24 341.72 798.13 595.64 397.41 517.81 109.72 899.59 689.29 603.92 354.21 807.45 579.05 791.51 416.85 642.35 535.99
1169.89 1057.21 823.41 985.70 697.08 926.71 406.39 783.89 503.41 861.46 1006.74 312.66 827.77 745.85 552.31 878.43 610.15 605.81 869.22 643.78 789.41 282.79 793.36 412.12 295.57 518.46 417.07 960.45 695.82 212.73 120.25 873.75 447.94 997.06 734.80 833.56 202.14 847.96 759.12 668.20 905.56 887.95 443.93 905.86 494.92 989.02 792.53 931.65 445.96 829.35 599.45 340.79 930.95 722.31 563.14 558.97 665.52 501.38 724.86 643.40 849.61 461.87 575.29 846.26 776.59 606.29 621.62 485.44 346.69 776.98 491.07 45.84 345.36 798.43 725.09 507.16 706.88 593.68 77.92 0.00 220.76 953.72 182.78 594.18 991.18 804.56 486.99 508.72 592.03 497.30 976.69 681.68 877.51 350.79 284.34 705.93 971.57 539.24 782.41 342.75 747.35 300.30 674.56 520.31 458.63 936.32 354.00 687.34 488.21 1026.45 173.13 875.06 383.36 717.91 390.31 417.23 584.72 194.67 244.17 459.57 875.64 599.18 191.41 640.87 612.09 498.08 881.37 400.61 449.21 682.16 911.25 258.51 829.78 307.16 833.88 235.36 789.01 511.44 225.20 494.44 391.38 646.89 684.56 342.24 942.13 958.28 457.89 894.07 784.79 504.11 349.74 811.14 515.41 640.53 230.08 360.56 790.10 551.36 423.49 567.81 159.72 880.79 682.29 535.91 322.53 784.37 514.86 768.43 410.34 564.43 557.31
999.92 1070.63 781.89 900.00 630.49 725.28 278.83 604.13 560.79 918.45 865.52 147.92 607.01 789.38 607.08 926.45 389.39 510.55 916.91 657.68 799.03 365.49 680.32 225.96 93.98 309.01 306.10 852.86 531.14 212.28 263.23 788.05 227.18 1003.80 547.01 632.13 414.32 725.91 679.99 655.69 787.24 909.70 346.16 814.26 715.68 848.05 686.90 823.76 343.55 882.20 378.69 561.55 953.07 779.30 352.81 671.92 540.38 315.22 731.60 737.99 695.54 331.44 456.73 903.25 830.08 618.35 400.86 491.97 226.57 619.92 270.31 266.60 222.31 785.92 856.21 286.40 545.90 654.67 298.68 220.76 0.00 787.37 380.80 507.31 892.96 624.44 266.23 729.48 759.83 521.58 900.66 583.46 779.29 221.71 434.36 536.78 986.60 632.06 601.40 268.26 573.84 247.28 598.53 567.03 238.01 977.00 566.18 605.29 267.45 938.02 117.65 718.00 162.60 584.29 261.61 474.61 476.22 394.34 387.15 302.62 897.39 500.96 178.90 565.03 391.33 277.32 870.90 261.58 228.45 461.40 944.37 37.75 818.33 195.10 880.60 292.74 799.59 429.39 368.18 273.68 508.56 708.54 815.68 121.48 855.07 945.19 621.78 924.36 581.17 283.35 279.67 817.67 294.65 678.21 260.45 288.34 618.67 343.11 329.71 722.84 380.48 797.16 462.22 666.62 117.76 806.12 294.10 790.18 215.28 343.67 336.55
267.53 1046.01 651.28 260.13 414.02 163.73 649.42 390.55 664.16 666.46 249.24 732.26 222.49 573.72 856.08 699.37 712.93 390.18 936.78 781.12 657.05 1043.40 364.58 693.54 817.34 746.13 579.01 293.92 375.66 924.37 986.52 241.74 736.47 1031.98 439.70 205.33 1115.82 331.15 330.34 594.96 273.33 729.97 630.15 219.72 1377.12 313.07 386.58 279.32 619.56 580.35 748.15 1223.35 758.82 550.18 704.91 704.05 366.27 685.31 887.45 1141.57 355.27 614.86 434.77 607.81 552.99 988.01 780.35 776.98 657.64 411.71 854.44 958.49 657.87 645.83 954.15 628.79 373.51 806.54 970.00 953.72 787.37 0.00 896.53 455.80 205.88 328.41 668.17 1168.61 1018.30 613.80 232.42 296.72 290.76 1003.37 1088.95 410.83 792.51 881.06 408.90 653.33 452.25 788.51 376.69 814.29 799.79 1079.67 1267.68 439.75 705.51 284.91 780.59 447.66 775.90 405.98 643.93 834.71 489.34 1095.31 1100.17 869.01 733.48 379.22 804.58 370.13 487.39 680.39 717.56 651.10 711.56 329.62 660.25 825.12 623.89 710.77 844.70 771.63 616.88 531.41 1091.47 705.91 913.59 1112.12 948.77 757.24 364.63 758.01 877.47 633.85 286.69 700.83 981.42 889.98 700.26 772.40 787.60 641.85 376.57 777.22 615.95 1055.29 1041.92 258.67 510.74 698.50 855.59 642.75 739.65 658.69 676.22 707.74 796.88
1103.53 885.39 741.09 932.62 604.97 908.83 416.88 751.85 411.30 806.01 880.44 349.00 814.42 699.33 453.18 838.47 663.75 601.47 739.62 570.38 690.96 343.23 699.31 444.56 319.80 593.84 398.02 832.93 718.08 368.79 286.54 904.43 585.49 820.46 744.43 815.68 284.51 782.76 696.13 661.59 799.48 750.46 386.65 821.03 488.61 888.36 735.88 843.50 386.60 746.58 671.21 393.14 800.64 710.80 627.97 488.66 654.61 524.29 548.26 540.83 767.60 415.42 597.55 759.67 656.52 480.71 701.34 302.66 290.15 684.87 536.93 201.90 355.85 754.64 633.19 537.51 687.01 455.59 121.53 182.78 380.80 896.53 0.00 550.36 920.97 796.33 566.71 539.55 501.50 405.19 922.63 599.81 749.99 502.75 235.30 715.56 860.39 444.10 759.25 331.84 756.98 208.19 679.78 449.99 568.42 844.42 436.37 595.23 573.20 926.10 282.92 782.95 531.38 701.12 363.25 290.97 527.41 246.84 310.66 543.79 768.83 535.66 201.90 629.96 596.86 578.93 782.92 411.10 557.56 700.66 855.80 378.76 731.33 306.04 709.99 143.25 744.73 419.33 291.69 604.45 212.09 511.38 592.66 422.57 850.02 857.77 365.99 838.62 807.05 599.37 465.54 628.36 599.98 537.03 242.70 351.92 773.43 633.12 366.18 538.49 153.41 815.87 686.51 482.39 458.77 685.92 568.46 669.98 395.89 612.36 657.52
624.63 856.17 406.41 486.29 123.18 476.08 237.11 385.02 297.60 561.41 463.89 371.20 400.13 426.95 541.39 550.97 611.70 108.58 680.18 474.75 453.57 730.83 219.59 337.55 421.96 509.99 223.17 380.73 384.50 577.62 659.55 442.57 524.07 817.91 408.60 409.46 724.60 253.78 185.35 372.02 340.64 554.83 182.40 394.25 921.32 443.40 198.35 384.66 163.76 455.02 597.91 827.90 605.01 425.13 554.67 389.94 158.02 391.44 545.71 779.70 284.15 217.77 263.97 482.48 467.65 604.01 597.82 410.42 293.12 304.06 599.80 582.27 296.81 459.50 666.60 447.19 206.83 439.98 568.10 594.18 507.31 455.80 550.36 0.00 448.24 332.94 496.78 838.11 703.61 280.04 421.70 159.08 353.93 665.90 735.64 415.25 621.22 542.92 359.10 251.43 423.90 404.79 195.53 480.53 518.97 783.95 824.85 242.86 442.90 477.25 488.33 327.13 548.58 343.40 296.56 451.84 148.17 693.41 757.74 636.92 538.40 78.82 402.77 181.60 297.71 484.56 495.42 259.69 490.54 368.18 558.11 481.94 432.07 346.25 652.28 423.49 456.59 147.41 738.77 502.93 530.72 797.43 629.55 434.44 412.19 631.27 558.04 532.20 335.93 495.97 652.71 599.14 463.51 471.50 403.98 275.64 384.31 563.71 186.23 729.20 586.12 335.00 387.36 390.51 532.79 450.88 533.62 466.82 302.23 542.38 623.36
256.56 840.13 466.90 54.25 418.85 369.61 667.92 547.90 631.18 480.37 43.36 745.04 379.84 420.08 797.35 504.12 870.28 484.52 777.60 657.82 517.03 1128.39 297.57 768.98 852.77 908.55 652.50 88.04 518.96 975.18 1039.52 156.32 898.89 826.10 582.51 411.21 1155.79 214.99 322.43 483.86 172.32 548.38 630.64 118.71 1369.56 107.19 249.89 137.15 612.00 374.47 923.80 1215.47 574.14 443.62 910.79 665.90 392.59 782.83 763.04 1056.69 245.36 605.35 510.20 401.93 396.98 879.55 937.70 744.00 724.31 332.78 947.10 957.39 670.65 474.37 783.42 776.42 402.77 714.37 999.29 991.18 892.96 205.88 920.97 448.24 0.00 534.29 830.59 1109.88 959.57 580.82 26.54 371.42 170.98 1016.15 1017.59 603.64 593.54 822.33 556.64 682.62 616.32 822.13 328.67 752.42 890.34 915.32 1273.09 390.54 797.27 79.03 920.36 287.94 895.50 538.27 666.32 838.66 537.64 1124.60 1163.44 972.81 566.75 392.00 824.60 407.24 617.91 842.81 536.87 675.21 837.10 449.22 454.37 875.25 473.82 777.44 733.01 784.41 416.72 566.44 1144.47 868.33 893.96 1053.39 742.89 819.42 178.54 552.13 768.31 447.76 444.04 863.25 1074.11 797.82 863.86 691.17 849.76 707.67 558.33 946.77 634.47 980.67 1034.36 163.75 665.74 683.04 917.77 509.10 902.07 525.04 693.60 826.56 1002.22
595.94 1034.91 712.69 530.26 456.12 270.32 463.81 72.95 624.23 777.94 568.90 528.81 184.24 625.00 850.74 804.66 493.98 224.36 944.41 765.79 708.93 863.95 397.25 436.45 585.55 505.54 494.49 550.80 109.94 710.74 878.49 418.31 513.92 1089.06 113.19 196.07 943.54 423.85 392.74 596.12 486.24 817.70 453.09 539.85 1226.99 607.14 386.46 522.76 467.46 726.27 547.50 1102.31 787.62 648.54 514.57 717.11 318.12 378.40 878.65 1043.70 394.54 413.45 229.27 751.79 665.70 936.95 465.54 737.05 512.06 530.55 634.78 758.72 476.96 710.57 915.72 364.48 329.47 765.11 787.04 804.56 624.44 328.41 796.33 332.94 534.29 0.00 448.51 1121.72 1012.96 612.98 548.09 367.65 508.17 687.04 904.42 116.39 861.83 864.76 80.49 470.37 157.81 607.03 385.32 798.86 554.16 1080.83 1095.40 440.91 408.86 571.01 708.11 537.17 519.29 95.21 496.69 756.76 311.89 912.35 955.48 607.78 803.89 404.36 621.71 318.73 261.84 460.04 767.29 421.71 467.76 163.04 806.93 629.99 727.50 562.12 852.33 671.97 670.40 480.35 936.51 456.17 794.26 1073.15 954.68 529.40 638.07 837.43 882.86 792.32 120.04 465.84 653.01 866.76 442.14 773.56 640.98 495.42 51.37 515.99 460.64 989.10 891.79 482.42 214.09 694.05 549.98 694.57 495.02 710.51 470.72 413.30 575.64
872.15 1188.94 842.00 822.54 583.52 630.42 347.59 375.56 660.33 926.47 812.64 287.46 518.71 810.86 797.63 943.44 132.21 451.02 984.58 712.53 878.91 533.34 648.52 218.39 281.68 77.96 387.94 785.01 440.92 380.13 529.46 752.78 68.30 1122.11 377.90 545.62 680.55 724.95 614.28 811.83 723.99 977.45 344.02 761.60 955.30 847.68 669.52 768.01 362.66 894.36 142.75 827.78 995.96 787.32 116.87 684.02 520.36 168.93 849.91 925.69 716.36 323.03 320.39 908.64 829.44 884.58 134.63 683.85 359.77 761.24 186.27 501.09 347.26 832.16 974.52 112.41 486.06 802.71 564.91 486.99 266.23 668.17 566.71 496.78 830.59 448.51 0.00 977.79 937.09 609.97 854.83 567.93 773.48 342.92 700.59 349.03 1036.58 822.61 391.77 392.01 307.61 448.65 569.00 756.18 131.62 1130.60 801.43 710.83 95.88 856.70 375.69 781.17 127.23 388.11 343.59 689.89 432.06 637.95 587.96 218.19 965.14 570.91 364.81 545.01 263.56 12.22 931.01 332.14 46.69 480.16 976.26 272.39 869.30 345.23 967.80 508.02 854.02 612.45 568.99 37.74 684.90 896.24 933.99 178.91 794.96 1023.29 831.47 959.08 479.42 32.66 382.01 960.24 33.27 745.88 451.70 387.74 397.14 131.68 351.00 900.10 646.71 746.73 289.59 660.96 253.26 873.87 71.48 857.93 296.81 86.47 191.33
1311.77 715.35 796.93 1131.76 780.59 1171.21 739.61 1111.23 556.32 833.37 1080.57 758.19 1132.88 830.44 312.53 818.91 1069.77 946.69 652.10 583.03 749.61 680.97 933.64 842.36 765.70 973.09 699.26 1021.84 1064.11 682.86 525.75 1124.33 948.76 754.82 1083.53 1125.52 452.97 894.89 967.88 708.18 1007.72 738.75 750.40 1061.33 426.02 1006.69 929.26 1031.65 754.56 901.23 1036.37 363.40 758.70 831.86 993.13 519.17 874.08 896.06 509.67 134.68 918.08 780.30 958.58 898.30 827.60 314.09 1109.07 472.38 693.04 878.25 866.15 515.97 717.73 813.29 466.12 919.09 922.89 478.70 501.49 508.72 729.48 1168.61 539.55 838.11 1109.88 1121.72 977.79 0.00 150.31 606.68 1112.06 871.89 995.04 813.33 400.87 1054.66 842.86 337.51 1112.49 651.35 1096.08 580.01 925.83 439.62 931.37 677.35 371.56 788.61 964.52 1142.13 681.85 958.21 892.08 1026.51 700.72 386.27 878.27 394.64 504.93 829.03 720.38 851.59 680.29 898.73 934.32 965.57 763.36 749.34 957.93 999.73 883.16 705.40 789.98 677.86 560.02 515.07 785.04 732.61 498.28 957.72 327.46 164.13 425.59 833.45 965.15 801.45 355.62 844.47 1119.50 967.39 799.19 590.98 986.62 577.33 614.52 676.40 1132.81 920.82 732.09 187.30 505.16 1015.09 1023.97 496.11 785.41 744.57 993.23 728.63 751.53 986.82 949.81
1161.46 629.54 646.62 1004.09 656.15 1044.01 675.29 1007.73 406.01 683.06 930.26 650.58 982.57 680.13 162.22 668.60 1029.61 812.19 501.79 432.72 631.21 776.50 783.33 741.46 708.38 912.18 661.21 871.53 919.66 713.08 558.58 981.20 903.20 604.51 983.21 1008.75 544.39 744.58 817.57 557.87 857.41 588.44 707.74 911.02 504.44 933.85 795.05 881.34 696.20 750.92 1000.10 513.71 608.39 701.43 956.86 438.29 793.20 803.92 359.36 123.27 774.95 707.93 822.69 747.99 677.29 163.78 1057.67 322.07 654.99 743.91 930.77 546.19 638.45 689.82 315.81 859.40 788.61 328.39 554.80 592.03 759.83 1018.30 501.50 703.61 959.57 1012.96 937.09 150.31 0.00 456.37 961.75 721.58 844.73 851.14 396.59 973.80 698.37 187.20 1006.25 613.30 1015.22 561.68 775.52 289.31 827.15 527.04 521.87 672.29 870.10 991.82 667.49 807.90 860.19 987.52 593.50 339.69 797.39 544.95 655.24 915.19 570.07 701.28 595.74 768.82 841.01 940.64 613.05 668.48 894.12 849.92 732.85 772.60 672.62 662.41 409.71 505.23 634.73 582.30 636.39 947.72 289.41 93.82 275.28 759.13 814.84 674.28 205.31 694.16 969.69 949.70 832.02 440.67 943.16 427.02 508.85 615.89 1012.89 965.90 694.04 36.99 445.08 864.78 930.66 415.23 716.25 616.85 941.09 611.27 656.05 959.39 939.03
803.27 681.57 418.63 632.36 199.78 655.19 338.00 633.30 50.36 505.62 580.18 383.30 554.47 358.63 294.15 509.02 712.83 388.62 474.82 264.06 368.50 688.19 408.38 419.76 431.94 606.26 324.06 530.59 565.54 580.35 581.20 600.07 603.79 617.34 629.09 588.54 629.47 416.13 413.61 256.40 499.22 479.73 283.29 520.77 843.13 562.86 360.70 543.24 264.65 489.21 694.18 662.04 523.10 382.17 650.94 179.25 337.10 476.80 345.14 579.64 446.50 318.66 506.61 485.42 436.45 447.66 719.30 163.18 295.01 334.62 647.62 451.46 311.33 366.16 422.84 533.32 385.91 192.74 466.49 497.30 521.58 613.80 405.19 280.04 580.82 612.98 609.97 606.68 456.37 0.00 584.05 317.08 449.73 667.79 571.46 636.50 577.33 314.37 607.38 253.32 677.92 317.06 334.40 200.49 582.10 562.18 781.33 244.98 543.79 625.84 491.06 432.70 533.07 598.64 266.38 267.15 390.81 591.80 663.43 684.74 467.42 342.95 404.66 312.45 511.85 613.52 453.47 341.36 591.43 495.80 534.61 483.83 419.18 348.14 405.04 261.94 384.08 132.63 644.46 618.70 346.03 550.19 382.31 469.52 563.32 543.99 284.49 508.85 595.34 609.03 690.86 440.64 596.87 236.12 361.39 278.37 654.88 659.98 287.12 493.36 551.28 479.95 601.50 156.19 559.51 358.04 619.23 360.21 328.93 632.27 684.27
230.02 866.67 493.20 64.59 422.59 396.15 641.38 531.91 612.39 479.20 42.19 762.33 363.85 418.91 799.53 509.18 854.29 457.98 781.53 667.14 522.29 1130.05 271.03 759.25 826.23 908.35 627.17 114.58 517.02 976.84 1060.59 129.78 903.82 852.64 581.34 407.22 1129.25 217.17 305.27 510.40 180.64 571.10 604.10 143.07 1343.02 121.02 223.35 163.69 585.46 379.53 907.81 1217.65 572.97 442.45 937.33 655.58 369.33 793.17 789.58 1055.52 235.38 578.81 536.74 406.99 395.81 878.38 921.71 725.21 697.77 306.24 971.34 930.85 695.32 500.67 809.96 758.72 385.07 713.20 972.75 976.69 900.66 232.42 922.63 421.70 26.54 548.09 854.83 1112.06 961.75 584.05 0.00 344.88 172.64 1006.98 1016.42 587.65 602.32 824.51 530.10 656.08 600.33 809.44 302.13 767.21 863.80 941.86 1246.55 364.00 808.75 55.55 893.82 314.48 894.33 551.35 692.86 851.20 511.10 1098.06 1162.39 971.64 570.68 418.54 807.42 380.70 626.13 842.61 541.93 648.67 863.64 448.05 480.91 886.59 500.12 750.90 731.84 810.95 443.02 539.90 1143.42 868.13 867.42 1055.57 769.43 809.44 177.37 578.67 767.14 446.59 428.05 863.05 1064.94 806.14 863.66 696.65 824.12 681.13 546.33 937.19 607.93 979.50 1007.82 137.21 669.67 656.50 907.79 507.93 883.76 523.87 685.38 853.10 975.68
535.81 850.29 462.63 409.47 117.30 382.97 352.70 380.85 367.44 514.01 387.07 435.54 260.99 387.18 559.36 551.02 665.65 143.29 674.30 494.91 447.69 800.32 130.77 471.99 523.22 625.64 282.29 330.92 321.21 647.11 763.75 345.64 610.64 862.93 384.76 304.36 829.78 208.55 96.53 358.30 267.70 554.15 333.43 321.31 1080.40 390.78 178.45 306.40 322.84 430.78 677.67 926.63 572.28 394.90 666.74 410.10 95.25 517.93 590.73 844.85 178.18 363.33 258.81 458.24 399.83 691.29 662.23 480.26 390.16 278.26 667.36 664.43 361.15 472.75 672.78 461.41 88.63 509.82 673.28 681.68 583.46 296.72 599.81 159.08 371.42 367.65 567.93 871.89 721.58 317.08 344.88 0.00 291.81 706.65 812.46 413.63 617.40 584.34 393.81 356.61 414.86 495.60 79.97 517.57 645.42 843.01 981.64 203.09 555.07 400.43 557.82 213.24 617.86 356.79 355.68 584.23 242.45 798.59 862.92 703.44 535.78 82.50 507.95 73.41 352.05 570.11 519.86 354.38 521.24 251.47 540.45 565.75 426.19 443.29 674.89 474.91 428.16 234.69 843.95 587.61 654.09 815.40 670.13 510.05 381.32 599.61 580.75 542.76 298.06 590.55 764.61 593.26 587.44 489.83 490.88 345.13 402.43 679.36 319.23 758.57 745.20 286.20 441.70 401.78 608.40 456.75 626.40 468.67 381.16 629.90 702.57
353.54 830.05 416.48 182.63 249.95 344.32 572.88 494.30 500.09 441.75 130.45 631.37 388.51 361.53 682.51 474.66 857.79 398.50 683.55 550.12 366.35 957.41 181.92 598.00 742.71 820.44 555.15 82.94 464.18 804.20 972.55 154.44 784.52 821.00 535.12 396.84 1034.50 100.15 215.71 442.89 49.49 479.91 532.99 71.04 1238.60 138.37 155.58 93.51 517.69 381.00 891.79 1059.28 530.09 347.44 865.12 557.49 304.74 687.26 693.74 968.00 113.63 510.31 510.33 395.64 358.36 836.02 874.55 612.91 625.75 246.89 860.25 860.26 556.98 424.96 663.39 700.20 344.02 555.65 871.52 877.51 779.29 290.76 749.99 353.93 170.98 508.17 773.48 995.04 844.73 449.73 172.64 291.81 0.00 902.48 950.73 563.99 567.80 707.49 520.22 599.46 598.23 651.15 272.11 650.19 779.42 867.36 1178.78 287.68 677.60 176.11 814.01 191.90 808.70 518.40 552.65 716.88 470.16 996.83 1060.65 897.37 475.14 278.33 710.93 329.39 553.56 761.26 480.87 580.17 736.50 440.21 449.27 761.58 400.05 678.88 591.47 670.74 402.16 463.58 1041.68 786.78 795.76 938.55 703.92 687.69 139.92 547.03 691.44 409.14 390.44 781.70 941.21 673.10 775.82 583.47 678.78 617.99 487.78 827.10 540.16 881.72 903.40 65.88 636.02 534.43 786.04 351.99 820.52 367.93 615.20 806.97 886.75
1153.01 1220.58 976.06 1070.40 789.08 865.82 437.19 658.12 718.15 1107.04 1032.93 335.81 785.67 985.11 783.08 1113.82 434.51 663.64 1073.34 828.34 993.20 269.67 831.31 379.05 257.21 320.08 480.65 966.01 705.56 138.06 331.40 1009.76 325.91 1153.75 573.85 826.48 504.80 839.06 803.18 826.35 925.92 1103.78 508.54 973.52 712.01 1028.68 783.63 969.94 510.54 1083.55 401.11 641.11 1151.09 981.42 357.87 844.69 737.24 435.89 904.98 901.22 848.63 499.76 593.55 1073.16 1006.17 840.06 477.55 659.38 372.78 841.63 156.65 304.95 388.56 956.58 987.35 379.37 709.13 822.44 381.22 350.79 221.71 1003.37 502.75 665.90 1016.15 687.04 342.92 813.33 851.14 667.79 1006.98 706.65 902.48 0.00 572.99 602.72 1174.49 798.35 682.57 414.47 644.14 468.99 776.09 788.74 249.86 1140.23 656.66 801.02 363.50 1062.53 281.23 911.02 316.22 639.05 407.82 650.85 644.54 446.47 455.32 193.77 1101.25 624.15 349.56 712.59 544.42 343.25 1058.27 443.81 374.88 683.11 1087.86 183.96 1012.50 389.27 1066.71 494.47 985.50 651.10 436.35 368.77 571.97 871.77 946.82 274.57 1013.43 1133.08 720.15 1110.27 761.98 363.69 57.96 985.08 364.30 834.64 436.45 434.55 679.70 285.56 488.07 888.13 490.94 920.28 556.55 823.98 235.95 1007.56 348.99 1005.93 415.16 429.39 297.12
1246.44 899.92 744.16 1048.06 752.26 1094.25 619.43 893.93 537.46 834.98 974.23 507.90 990.32 763.60 456.95 837.73 823.75 698.77 709.41 504.06 736.88 480.94 903.29 607.36 517.77 743.37 569.68 1033.67 892.13 434.93 386.77 1077.08 661.54 833.09 870.57 1021.67 263.60 921.41 908.99 689.99 965.97 757.57 582.67 999.99 461.42 1012.59 903.28 1005.82 601.31 861.35 813.05 280.33 805.73 783.39 787.17 509.02 792.53 696.62 560.89 392.00 918.91 634.58 795.76 888.81 837.67 494.05 835.22 439.94 525.45 782.52 618.27 268.04 582.29 766.13 625.18 716.72 811.71 395.08 259.24 284.34 434.36 1088.95 235.30 735.64 1017.59 904.42 700.59 400.87 396.59 571.46 1016.42 812.46 950.73 572.99 0.00 841.70 842.26 431.97 895.19 549.32 883.12 402.49 859.73 472.32 672.37 836.41 404.03 762.63 701.81 1046.73 457.47 791.64 596.96 809.21 549.98 304.31 762.71 280.99 391.28 655.39 739.20 729.96 437.20 793.14 768.96 711.68 782.18 606.22 662.81 895.76 884.77 472.11 779.83 500.34 752.85 337.55 745.16 613.63 374.99 708.04 225.43 362.55 584.65 555.84 930.91 800.85 490.29 863.29 926.12 717.71 571.94 671.22 729.01 470.71 361.09 552.96 915.51 747.18 601.48 375.14 149.52 992.75 858.61 485.96 552.12 722.52 728.46 718.48 554.31 778.03 770.91
678.36 1127.98 730.66 569.82 458.18 320.84 347.42 113.14 623.35 768.71 568.02 418.98 223.80 653.10 849.86 785.68 422.48 332.47 943.53 729.66 687.38 764.48 413.70 381.99 469.16 397.12 380.57 558.40 121.97 611.27 776.14 457.87 397.53 1088.18 28.87 267.17 876.48 498.15 421.05 698.91 540.76 800.94 369.85 560.63 1146.57 621.07 461.38 584.78 371.85 732.46 444.79 991.05 838.20 629.56 410.69 644.85 333.39 292.73 856.86 1042.82 472.52 375.18 220.07 753.51 675.21 932.20 403.08 736.17 430.89 470.18 528.29 718.89 360.57 707.27 927.75 277.09 337.68 765.73 719.98 705.93 536.78 410.83 715.56 415.25 603.64 116.39 349.03 1054.66 973.80 636.50 587.65 413.63 563.99 602.72 841.70 0.00 878.82 855.56 92.38 403.31 41.42 542.67 400.59 794.72 437.77 1127.34 1020.70 557.30 294.68 610.57 596.02 553.13 425.78 71.85 380.30 730.97 329.47 845.29 889.13 510.67 795.98 416.41 514.52 355.22 145.45 346.80 801.90 305.32 353.58 162.16 818.50 542.41 734.16 445.73 851.45 607.61 696.26 562.66 881.09 339.78 727.20 1064.01 904.88 415.30 663.83 865.53 850.52 801.32 194.10 349.45 660.68 890.45 325.75 726.41 550.45 426.28 113.76 444.18 349.38 936.81 829.70 498.11 99.91 667.91 502.91 673.02 378.63 688.96 357.23 296.91 473.64
820.45 288.24 214.81 592.37 531.14 854.77 803.28 897.46 526.97 136.70 560.13 838.68 817.41 236.83 611.09 93.14 1092.67 670.56 326.65 399.54 230.83 1187.50 548.85 922.57 966.43 1026.29 732.87 505.50 854.22 1068.90 1055.47 674.16 1010.46 355.07 863.44 835.10 964.26 525.21 564.04 371.74 546.25 109.93 747.53 572.79 1118.74 546.89 521.54 558.75 766.17 222.79 1100.13 1050.68 107.30 249.26 1056.89 427.77 641.04 980.69 413.71 821.64 514.53 767.15 821.91 200.10 260.74 614.40 1077.84 605.92 840.74 408.64 1116.27 925.73 832.09 272.16 428.24 924.17 669.42 472.42 981.92 971.57 986.60 792.51 860.39 621.22 593.54 861.83 1036.58 842.86 698.37 577.33 602.32 617.40 567.80 1174.49 842.26 878.82 0.00 601.00 900.92 807.19 895.44 761.21 586.48 540.83 1078.09 404.60 1116.12 420.92 1017.83 625.79 932.11 430.92 1049.41 814.94 806.26 694.25 706.11 1022.59 1102.78 1127.18 128.30 597.79 848.53 655.89 835.18 1044.59 148.69 837.01 1046.31 784.48 139.17 990.53 222.25 801.60 305.98 795.02 257.23 596.82 1083.81 1036.23 700.57 792.19 423.09 947.23 427.88 41.41 606.36 158.66 878.85 1036.20 1205.91 303.38 1065.64 371.55 836.78 795.71 913.20 1080.01 768.00 735.36 925.62 577.11 924.83 450.83 1045.58 219.29 997.38 218.31 831.74 1103.06 1139.66
1024.22 554.65 513.27 876.58 514.15 856.81 538.05 844.09 268.77 586.49 812.78 605.50 845.33 532.71 24.98 542.93 921.36 651.50 408.88 273.17 505.99 691.16 673.93 604.22 558.48 826.66 521.54 734.29 756.02 660.29 623.14 843.96 790.74 602.11 845.97 833.32 613.53 607.34 680.87 382.44 720.17 541.91 541.98 773.78 552.75 764.80 632.29 744.10 530.44 630.46 914.58 449.68 577.93 556.25 871.34 318.23 651.47 693.48 339.82 310.47 637.71 565.16 635.49 657.92 610.53 178.49 920.43 156.31 531.87 600.83 793.53 493.40 548.02 535.24 314.49 750.00 622.85 190.78 527.92 539.24 632.06 881.06 444.10 542.92 822.33 864.76 822.61 337.51 187.20 314.37 824.51 584.34 707.49 798.35 431.97 855.56 601.00 0.00 842.61 507.37 884.03 401.00 609.76 113.88 754.11 525.72 573.38 535.05 732.86 848.47 567.49 632.47 772.98 803.53 555.06 180.81 676.15 567.91 675.33 830.65 523.54 564.04 458.50 626.82 743.20 816.52 566.52 559.25 785.63 712.68 619.43 631.73 549.71 525.17 379.25 362.68 514.27 416.75 656.36 842.04 259.69 281.02 329.67 650.64 677.60 569.96 103.00 608.45 832.28 833.07 797.30 297.62 831.08 239.82 371.61 482.32 863.06 870.02 552.91 186.28 503.08 727.54 832.85 312.92 711.74 491.63 855.13 501.17 564.83 862.23 865.99
642.57 1115.40 765.51 523.35 452.35 297.91 439.80 25.92 617.52 816.42 554.95 511.36 193.98 701.32 844.03 807.78 446.95 250.52 937.70 791.95 754.43 816.22 421.86 413.10 561.54 445.29 423.74 556.11 86.59 663.01 864.63 411.40 440.76 1082.35 108.72 218.74 934.31 449.12 387.62 676.61 510.45 830.88 372.60 554.68 1185.51 594.84 457.62 502.86 391.24 751.54 477.32 1034.74 813.78 677.78 434.08 724.70 339.65 344.47 894.03 1036.99 418.75 390.10 207.12 779.00 690.92 963.11 476.45 730.34 487.62 555.14 564.41 736.57 452.95 726.33 892.37 328.83 339.21 759.90 777.81 782.41 601.40 408.90 759.25 359.10 556.64 80.49 391.77 1112.49 1006.25 607.38 530.10 393.81 520.22 682.57 895.19 92.38 900.92 842.61 0.00 461.14 98.71 614.45 406.85 807.87 514.21 1103.60 1086.17 521.40 346.42 564.10 686.99 578.89 438.80 85.98 452.08 769.79 322.92 903.12 946.25 527.29 849.25 395.85 606.90 339.93 237.83 379.55 847.78 397.70 405.32 156.33 831.54 605.54 761.24 538.11 845.62 679.39 744.48 506.51 927.28 405.07 785.03 1066.44 932.90 493.75 655.07 879.67 877.96 817.59 129.78 399.99 722.53 904.58 390.53 806.26 594.18 474.30 47.50 435.50 393.07 1008.59 850.31 492.16 151.65 705.08 536.58 752.87 438.81 768.81 448.57 354.20 495.15
838.00 934.89 637.37 719.27 374.61 623.39 88.26 459.88 303.68 755.80 697.53 129.98 528.98 611.95 506.67 724.32 470.73 329.12 728.14 517.38 621.82 480.24 462.71 191.01 178.62 412.94 74.32 632.16 412.76 327.03 408.12 607.32 350.47 870.66 432.18 530.24 473.17 505.21 436.78 509.72 590.80 733.05 101.18 596.65 761.59 694.83 449.78 606.54 103.21 693.26 493.23 637.02 762.73 635.49 449.99 432.57 322.77 244.71 598.46 686.71 515.84 129.98 307.23 665.80 636.39 551.25 465.98 398.05 41.69 555.49 403.42 330.84 66.38 578.26 676.16 289.05 371.58 446.06 316.67 342.75 268.26 653.33 331.84 251.43 682.62 470.37 392.01 651.35 613.30 253.32 656.08 356.61 599.46 414.47 549.32 403.31 807.19 507.37 461.14 0.00 444.73 153.36 376.69 393.49 328.78 815.50 625.03 475.38 318.01 710.23 237.74 569.85 316.06 375.16 49.37 400.17 241.97 441.98 506.31 440.54 720.74 321.13 151.34 298.12 282.97 379.79 706.79 97.99 350.97 415.22 752.50 230.51 626.46 94.82 658.36 218.30 635.91 342.19 487.34 400.16 323.89 681.95 635.63 238.53 663.62 797.31 477.49 744.58 501.73 390.49 463.18 693.96 391.60 489.44 191.34 25.05 481.46 439.59 80.74 605.88 426.39 582.92 372.62 409.51 310.52 611.36 390.48 613.53 100.18 387.32 430.95
689.74 1156.13 741.37 582.50 499.60 358.46 388.84 124.63 662.01 810.13 609.44 460.40 236.48 694.52 891.28 802.30 381.06 341.12 984.95 771.08 728.80 805.90 422.35 423.41 510.58 363.19 406.33 567.05 163.39 652.69 817.56 470.55 374.08 1129.60 70.29 279.85 917.90 506.80 456.59 707.49 549.41 838.49 411.27 529.05 1187.99 629.72 470.03 588.65 413.27 766.83 429.03 1032.47 879.62 670.98 407.87 686.27 342.04 334.15 898.28 1084.24 490.64 368.39 248.54 794.29 716.63 973.62 377.74 765.58 472.31 511.60 493.88 760.31 401.99 748.69 969.17 318.51 326.23 804.39 761.40 747.35 573.84 452.25 756.98 423.90 616.32 157.81 307.61 1096.08 1015.22 677.92 600.33 414.86 598.23 644.14 883.12 41.42 895.44 884.03 98.71 444.73 0.00 584.09 409.17 818.37 439.23 1168.76 1062.12 574.73 336.10 623.25 637.44 549.29 427.88 80.50 421.72 772.39 338.12 886.71 888.61 476.74 837.40 457.83 555.94 366.69 186.87 312.87 830.38 346.74 354.30 203.58 832.03 554.93 737.66 487.15 892.87 649.03 691.19 571.31 869.64 331.24 768.62 1105.43 946.30 456.72 673.96 888.43 891.94 815.96 218.69 324.28 671.98 899.10 291.82 767.83 591.87 449.93 110.45 416.91 390.80 978.23 871.12 539.53 141.33 709.33 518.73 714.44 361.17 730.38 398.65 255.49 433.10
940.11 827.42 614.01 833.78 516.84 758.29 241.62 592.57 317.01 712.48 781.60 250.85 662.94 641.36 404.54 711.39 540.46 442.12 681.65 512.41 563.88 426.65 616.07 279.53 230.69 501.97 213.31 734.09 535.60 417.24 384.20 757.19 466.05 762.49 565.56 665.14 464.79 642.98 590.14 486.02 692.91 662.42 254.54 722.19 682.34 789.52 587.55 736.93 251.34 731.89 529.13 601.33 705.79 659.52 518.45 430.69 476.13 347.73 490.29 574.67 633.68 232.09 446.95 727.45 641.83 540.89 583.28 244.69 130.87 570.73 476.65 254.46 201.19 627.56 614.90 378.23 499.27 408.17 301.81 300.30 247.28 788.51 208.19 404.79 822.13 607.03 448.65 580.01 561.68 317.06 809.44 495.60 651.15 468.99 402.49 542.67 761.21 401.00 614.45 153.36 584.09 0.00 530.05 319.75 458.07 826.13 607.39 481.09 408.17 827.26 273.46 668.81 391.13 528.52 162.37 246.81 376.87 427.12 466.43 464.07 650.11 436.69 141.62 451.48 409.88 453.60 655.84 237.35 404.73 517.33 730.29 285.03 604.25 184.00 633.32 64.94 645.17 305.19 447.46 471.10 272.27 589.13 574.37 269.74 689.60 763.95 392.31 722.37 616.06 474.04 515.25 570.39 470.93 479.06 75.57 150.47 614.15 528.77 234.10 565.33 347.14 717.03 499.53 422.84 365.04 558.84 509.95 542.90 224.92 519.95 568.91
523.84 850.08 437.34 366.72 148.63 375.29 374.83 396.23 384.76 502.59 344.32 479.97 320.59 349.65 613.30 529.31 585.68 160.96 705.63 507.44 433.58 856.93 118.80 474.08 534.86 620.82 362.26 293.98 320.26 703.72 758.46 265.67 628.31 873.08 393.94 318.64 849.86 179.69 84.56 298.32 250.68 542.35 377.93 268.75 1116.85 356.65 124.26 257.09 359.29 458.49 639.20 957.96 534.75 373.19 665.50 444.05 67.20 513.11 600.88 898.79 175.05 353.75 253.12 436.98 387.86 756.17 653.10 453.45 418.38 230.53 672.52 628.72 421.56 435.22 725.49 456.59 82.94 527.14 693.36 674.56 598.53 376.69 679.78 195.53 328.67 385.32 569.00 925.83 775.52 334.40 302.13 79.97 272.11 776.09 859.73 400.59 586.48 609.76 406.85 376.69 409.17 530.05 0.00 534.89 647.93 805.48 1001.72 165.56 550.25 357.68 614.43 257.24 618.48 328.74 426.06 601.55 208.97 818.67 882.38 674.41 528.54 151.94 528.03 78.57 324.00 575.34 526.35 366.31 578.73 271.63 528.48 607.20 452.15 471.51 639.22 544.35 395.05 314.66 863.41 600.86 667.96 869.34 684.96 523.84 369.35 562.08 601.07 519.82 292.37 595.78 819.42 624.59 596.39 498.21 568.03 401.74 413.59 674.54 370.20 747.36 781.65 206.23 413.65 433.11 622.19 419.22 621.58 435.16 383.25 621.73 732.16
966.92 590.10 477.89 778.25 400.27 812.59 481.75 809.46 222.16 549.25 772.58 514.32 754.96 440.32 138.86 571.40 860.21 574.50 405.65 239.50 436.98 678.36 603.07 549.33 539.21 756.33 431.28 664.38 721.39 670.42 614.35 786.66 735.85 536.38 816.64 719.44 619.39 550.04 600.96 268.56 662.87 496.81 478.32 716.48 666.63 662.15 561.19 686.80 465.14 543.90 844.25 563.56 512.25 463.86 801.01 206.54 537.59 633.52 264.18 397.75 580.41 461.78 600.86 567.11 518.14 251.71 841.95 153.04 430.21 513.41 796.40 539.40 455.19 451.84 303.70 677.57 586.40 134.32 506.18 520.31 567.03 814.29 449.99 480.53 752.42 798.86 756.18 439.62 289.31 200.49 767.21 517.57 650.19 788.74 472.32 794.72 540.83 113.88 807.87 393.49 818.37 319.75 534.89 0.00 722.27 514.93 687.26 423.77 677.97 784.67 554.69 518.59 707.87 768.65 441.18 168.01 584.51 584.71 683.31 783.82 478.44 517.43 461.37 512.94 666.40 743.96 515.85 489.40 724.48 683.35 584.16 604.78 461.30 468.52 313.57 349.88 427.71 333.12 688.35 761.82 246.89 368.30 263.17 589.49 670.15 577.70 84.00 552.48 795.83 752.15 807.43 359.78 765.01 247.56 395.32 368.44 828.43 793.36 457.85 293.11 471.58 670.24 756.05 202.35 684.79 431.94 782.04 416.00 491.74 776.13 824.44
977.28 1194.32 863.28 928.39 642.15 719.62 336.43 507.18 632.46 1002.83 889.99 280.88 597.64 889.79 729.13 1007.84 219.61 529.95 1040.88 768.83 913.41 401.72 703.84 181.42 281.40 132.15 371.12 843.58 507.93 248.51 491.43 831.71 76.05 1127.49 466.64 641.01 641.44 772.75 704.32 807.28 771.04 1011.70 373.85 789.11 908.20 879.99 717.32 815.06 355.21 960.66 198.24 783.75 1061.88 866.25 155.00 761.35 596.66 247.86 927.24 878.94 772.13 364.19 452.01 938.47 870.60 856.36 233.08 683.57 338.90 823.03 107.54 415.40 338.98 873.32 980.82 191.34 564.99 774.84 523.24 458.63 238.01 799.79 568.42 518.97 890.34 554.16 131.62 931.37 827.15 582.10 863.80 645.42 779.42 249.86 672.37 437.77 1078.09 754.11 514.21 328.78 439.23 458.07 647.93 722.27 0.00 1144.28 754.33 748.05 196.85 919.35 285.50 846.10 75.41 495.99 334.80 663.82 508.97 613.21 502.92 143.06 995.27 597.79 399.30 572.01 368.69 137.26 952.29 294.33 137.95 521.69 1025.17 238.20 899.13 320.97 987.14 481.95 913.46 612.68 521.89 133.80 652.67 849.49 964.41 212.65 892.31 1078.15 806.27 1017.25 596.90 128.84 307.82 1009.27 158.31 802.18 382.50 353.83 528.76 161.98 377.68 790.16 611.70 726.59 368.52 738.29 177.75 927.77 124.32 934.39 272.25 218.09 111.88
1161.37 145.22 510.00 936.43 761.96 1103.05 900.18 1105.08 583.71 480.76 904.19 945.48 1104.00 575.62 500.74 437.20 1241.09 892.53 237.55 484.64 520.41 1082.21 819.22 981.94 883.02 1168.44 886.24 827.28 1017.01 1106.15 1028.53 1013.26 1165.97 140.43 1098.47 1083.51 947.51 812.76 849.29 516.89 857.32 466.77 845.47 910.93 995.55 833.60 780.57 880.53 826.83 566.85 1248.91 975.40 429.08 593.32 1213.12 511.79 872.68 1038.98 335.84 649.82 807.01 880.84 1013.28 549.39 582.52 468.77 1265.23 581.44 857.19 729.56 1209.80 959.48 873.51 569.11 211.23 1095.50 888.42 441.33 860.51 936.32 977.00 1079.67 844.42 783.95 915.32 1080.83 1130.60 677.35 527.04 562.18 941.86 843.01 867.36 1140.23 836.41 1127.34 404.60 525.72 1103.60 815.50 1168.76 826.13 805.48 514.93 1144.28 0.00 1038.36 639.92 1034.72 947.57 1012.25 682.99 1095.25 1108.03 828.56 664.41 906.95 979.14 974.43 1195.17 448.40 816.79 911.23 874.63 1074.03 1118.38 491.38 897.72 1093.62 965.18 460.95 956.27 546.44 910.32 275.89 803.26 560.18 636.54 993.40 1143.90 705.98 620.37 251.76 985.79 771.94 363.19 478.43 502.72 1084.95 1138.82 1167.58 336.09 1132.94 475.73 847.37 840.55 1124.05 1184.22 849.30 564.03 894.53 884.10 1163.68 524.79 1036.28 515.37 1177.64 499.43 891.11 1164.09 1243.87
1449.48 1086.91 1019.21 1311.14 933.03 1222.38 713.29 1071.74 778.33 1090.57 1288.74 666.66 1154.01 974.01 598.36 1112.72 904.07 892.35 982.26 846.55 1009.32 415.13 1044.44 758.79 551.54 837.69 699.35 1205.58 1037.79 561.15 337.39 1227.75 779.84 1126.38 1049.57 1155.27 151.86 1078.63 1010.20 809.88 1165.49 1099.76 726.21 1219.10 153.87 1203.47 1023.20 1209.51 728.24 1085.22 911.53 123.70 1130.26 997.55 868.29 832.63 947.80 848.05 870.68 506.24 1109.00 755.01 929.29 1100.80 1051.83 685.65 936.06 665.51 610.04 1054.73 769.20 399.84 680.36 993.16 827.13 819.23 956.90 757.88 314.84 354.00 566.18 1267.68 436.37 824.85 1273.09 1095.40 801.43 371.56 521.87 781.33 1246.55 981.64 1178.78 656.66 404.03 1020.70 1116.12 573.38 1086.17 625.03 1062.12 607.39 1001.72 687.26 754.33 1038.36 0.00 965.09 833.63 1302.10 527.13 1115.98 728.78 1000.19 674.40 583.96 867.00 210.19 251.41 770.45 1081.39 903.67 545.41 923.15 908.00 789.21 1057.17 723.02 789.30 1027.58 1125.48 585.84 1002.62 637.87 931.58 574.92 969.03 816.04 232.44 814.73 524.36 535.69 786.60 654.31 1237.04 1143.34 622.09 1093.80 1119.70 809.65 610.83 871.00 810.26 813.20 531.82 650.08 1093.32 846.44 705.77 558.86 310.68 1159.85 993.35 809.57 665.85 994.96 808.78 994.37 720.21 887.90 836.89
586.99 684.52 271.78 428.59 127.31 463.13 445.23 513.86 295.34 337.03 406.19 529.91 464.08 184.09 510.07 363.75 751.24 326.52 548.30 364.33 268.02 898.27 179.30 566.63 630.08 748.93 425.34 314.48 485.82 786.06 771.24 422.35 709.52 729.87 554.10 484.20 849.34 187.53 213.54 155.21 282.94 376.79 374.20 307.11 1075.55 377.15 140.65 324.29 392.84 314.67 804.76 907.02 369.19 207.63 793.61 291.58 232.76 618.96 457.77 769.34 217.90 438.25 418.68 310.88 224.79 632.50 725.14 408.16 517.07 89.64 817.30 641.50 455.52 269.66 565.06 622.15 248.50 419.03 686.36 687.34 605.29 439.75 595.23 242.86 390.54 440.91 710.83 788.61 672.29 244.98 364.00 203.09 287.68 801.02 762.63 557.30 420.92 535.05 521.40 475.38 574.73 481.09 165.56 423.77 748.05 639.92 965.09 0.00 651.34 419.55 651.23 187.72 717.88 494.30 451.19 512.13 368.70 811.67 853.47 839.97 362.98 176.87 547.01 244.13 489.56 698.61 360.79 487.33 698.98 423.33 370.25 643.04 286.59 491.36 493.14 451.98 229.49 175.90 834.50 716.98 591.01 739.89 541.85 638.46 353.41 396.52 502.42 354.26 457.93 710.02 844.51 568.10 677.56 332.65 460.12 484.08 492.28 800.84 394.67 709.28 748.64 277.30 563.66 292.50 723.05 253.66 747.67 269.60 505.08 756.43 845.36
879.60 1168.72 836.06 801.88 566.08 587.64 284.59 363.15 594.15 907.72 766.56 228.10 499.96 792.11 707.88 924.69 206.37 432.27 993.00 737.40 845.86 548.22 651.06 128.64 296.66 149.40 293.61 715.88 366.67 433.65 530.68 734.03 144.87 1130.10 295.67 534.70 681.77 678.71 627.73 788.82 628.11 930.38 277.14 678.56 970.66 778.55 623.28 672.13 279.14 864.29 214.19 828.61 977.21 768.57 187.73 692.01 514.42 73.30 857.90 849.89 709.08 267.82 304.92 841.76 774.23 833.50 230.51 643.34 286.12 734.07 233.61 534.05 251.63 776.95 952.09 93.66 467.31 727.78 525.74 488.21 267.45 705.51 573.20 442.90 797.27 408.86 95.88 964.52 870.10 543.79 808.75 555.07 677.60 363.50 701.81 294.68 1017.83 732.86 346.42 318.01 336.10 408.17 550.25 677.97 196.85 1034.72 833.63 651.34 0.00 836.17 379.56 768.31 131.10 322.24 282.02 617.77 349.22 651.05 618.32 241.10 912.01 521.72 371.30 526.64 271.01 83.66 896.09 265.60 58.90 416.39 928.46 259.12 802.42 293.50 900.92 456.29 818.19 518.12 635.63 109.18 641.90 879.34 917.35 193.89 730.56 993.56 760.37 896.67 455.64 104.10 394.22 952.33 98.22 770.75 396.72 309.53 384.73 149.50 256.67 838.53 635.46 672.56 194.77 668.95 292.24 849.49 142.92 861.61 219.47 129.37 209.15
268.83 872.38 499.15 40.75 426.06 423.86 696.93 554.83 667.94 496.42 72.50 807.48 386.77 449.22 829.60 539.49 877.21 505.09 800.12 690.07 517.38 1133.52 292.30 774.11 881.78 857.12 682.72 120.29 539.94 980.31 1094.19 152.70 876.71 858.35 611.65 418.35 1183.40 247.24 326.54 516.11 208.06 580.63 659.65 173.38 1398.57 165.82 278.90 173.54 641.01 409.84 923.97 1235.39 591.54 472.76 887.72 695.04 411.33 769.33 795.29 1085.83 277.61 634.36 584.91 437.30 426.12 908.69 944.63 780.76 746.95 361.79 1010.49 980.61 733.09 506.62 791.86 793.07 440.62 731.76 1026.90 1026.45 938.02 284.91 926.10 477.25 79.03 571.01 856.70 1142.13 991.82 625.84 55.55 400.43 176.11 1062.53 1046.73 610.57 625.79 848.47 564.10 710.23 623.25 827.26 357.68 784.67 919.35 947.57 1302.10 419.55 836.17 0.00 897.87 300.41 924.64 556.57 728.76 875.05 566.65 1152.21 1215.17 993.11 589.27 454.44 854.33 435.98 668.13 844.48 562.33 704.22 885.33 478.36 486.62 935.77 479.68 785.26 719.94 813.68 448.97 537.60 1196.20 818.96 922.97 1085.64 775.14 851.67 207.68 584.38 797.45 476.90 450.97 828.63 1117.32 801.57 858.38 723.42 821.82 685.18 569.25 910.84 663.48 962.18 1063.37 192.76 684.04 710.54 950.02 512.34 828.21 496.40 722.74 858.81 970.49
1039.78 1017.04 746.66 938.62 603.09 805.44 314.08 668.52 525.61 889.32 894.96 240.20 724.66 780.39 564.15 891.22 484.94 524.32 799.26 593.91 763.80 262.81 681.27 324.73 129.23 397.73 275.53 865.89 600.40 143.78 205.93 845.06 344.83 992.49 611.89 749.78 375.27 742.11 654.35 608.63 802.07 862.65 322.57 809.32 668.05 914.83 686.68 812.64 324.57 869.28 461.39 513.92 912.83 803.93 438.67 642.12 560.51 346.68 731.39 680.43 717.05 341.25 520.02 887.19 847.66 645.89 453.89 485.79 213.00 737.57 381.23 218.97 283.32 738.86 825.06 390.39 581.15 649.27 247.62 173.13 117.65 780.59 282.92 488.33 920.36 708.11 375.69 681.85 667.49 491.06 893.82 557.82 814.01 281.23 457.47 596.02 932.11 567.49 686.99 237.74 637.44 273.46 614.43 554.69 285.50 1012.25 527.13 651.23 379.56 897.87 0.00 771.06 248.46 612.90 261.36 386.68 463.33 337.04 319.58 386.66 844.28 535.68 131.84 535.86 495.32 363.47 835.67 290.70 346.10 579.05 909.14 121.79 783.10 159.87 868.26 304.26 767.78 475.33 310.88 359.54 420.37 709.88 784.53 225.47 890.32 890.70 572.66 892.55 689.37 369.21 280.79 811.49 384.52 560.56 218.73 212.69 690.10 418.58 302.10 704.48 332.85 820.66 539.50 631.44 201.80 778.16 398.39 776.53 282.06 430.24 397.38
478.38 705.63 282.76 259.66 278.96 479.55 564.24 594.09 435.98 320.81 282.15 648.78 474.23 205.20 657.45 337.78 842.92 356.53 594.94 489.46 288.53 981.97 200.14 664.68 736.46 837.12 495.53 256.72 506.14 860.35 958.96 336.40 823.88 706.85 524.26 439.66 1017.50 129.77 234.38 306.10 174.33 394.50 509.53 227.94 1185.22 220.95 185.20 218.35 490.89 217.54 890.91 1067.22 390.30 181.66 877.03 479.30 284.70 718.57 608.66 825.44 160.14 540.66 472.05 245.00 235.94 770.30 857.40 542.60 577.81 98.08 856.42 829.22 574.39 277.29 604.97 674.65 301.87 569.97 854.52 875.06 718.00 447.66 782.95 327.13 287.94 537.17 781.17 958.21 807.90 432.70 314.48 213.24 191.90 911.02 791.64 553.13 430.92 632.47 578.89 569.85 549.29 668.81 257.24 518.59 846.10 682.99 1115.98 187.72 768.31 300.41 771.06 0.00 820.26 541.99 568.92 686.60 455.69 979.83 1041.19 893.54 384.09 295.74 721.19 286.65 521.04 772.38 371.77 567.62 734.48 464.71 335.12 727.06 300.69 630.94 518.13 639.70 248.36 363.62 1022.22 797.90 659.26 854.89 645.50 723.29 221.68 417.63 602.59 344.08 511.30 792.82 968.98 573.04 790.64 498.09 647.84 558.37 588.54 890.84 513.36 811.70 913.25 201.11 610.69 480.22 807.07 294.22 831.64 309.51 594.40 804.78 915.81
907.81 1118.91 834.60 884.88 663.13 674.43 335.42 464.72 583.43 927.42 852.14 245.79 568.19 860.34 748.00 970.98 236.48 500.50 1007.89 796.17 851.74 417.12 695.96 211.03 240.01 178.84 335.57 846.98 486.11 323.92 425.83 772.93 102.43 1052.08 426.77 581.28 576.92 741.67 675.78 731.87 759.21 972.64 366.85 804.29 878.28 909.65 689.25 803.23 384.82 930.26 216.09 724.15 1022.54 836.80 190.21 712.32 556.02 173.16 878.21 803.53 711.30 333.79 406.90 931.47 840.20 780.95 261.86 635.82 300.94 782.52 159.57 406.38 311.64 842.92 955.91 161.89 535.54 725.81 461.28 383.36 162.60 775.90 531.38 548.58 895.50 519.29 127.23 892.08 860.19 533.07 894.33 617.86 808.70 316.22 596.96 425.78 1049.41 772.98 438.80 316.06 427.88 391.13 618.48 707.87 75.41 1095.25 728.78 717.88 131.10 924.64 248.46 820.26 0.00 453.34 266.69 592.47 478.57 556.94 549.75 196.69 956.03 541.01 341.50 575.60 299.22 115.01 923.61 321.67 125.46 446.28 977.21 200.35 871.04 247.81 938.11 410.60 876.59 563.27 530.78 111.08 626.42 774.08 915.38 137.24 830.42 1043.06 739.64 960.03 533.47 120.75 374.18 961.52 136.06 769.19 401.37 339.43 486.30 206.30 372.51 823.20 543.08 796.21 325.87 689.26 218.94 866.10 149.93 864.47 277.83 181.78 187.29
673.51 1075.63 726.45 515.82 438.87 305.61 419.27 84.72 581.51 765.36 548.71 490.83 187.50 674.24 825.30 721.80 461.56 260.62 924.22 747.38 676.32 792.04 341.85 409.55 541.01 443.69 428.08 486.55 108.15 638.83 783.28 421.57 454.58 1068.87 65.20 212.46 848.33 426.30 376.09 627.06 468.91 788.12 419.88 522.52 1131.78 549.22 389.53 512.93 421.88 728.72 481.49 1012.18 823.88 653.22 438.25 662.57 261.54 320.29 828.46 1023.51 410.14 382.90 168.04 756.18 679.39 926.41 437.28 685.08 416.85 542.03 555.85 697.49 432.42 712.85 913.93 304.65 310.35 723.89 691.83 717.91 584.29 405.98 701.12 343.40 538.27 95.21 388.11 1026.51 987.52 598.64 551.35 356.79 518.40 639.05 809.21 71.85 814.94 803.53 85.98 375.16 80.50 528.52 328.74 768.65 495.99 1108.03 1000.19 494.30 322.24 556.57 612.90 541.99 453.34 0.00 424.53 756.31 257.62 817.14 860.27 557.24 769.75 382.47 526.50 286.19 192.96 393.37 777.35 377.17 381.14 142.85 751.53 581.36 717.03 469.98 832.14 593.46 719.64 490.81 841.30 411.63 699.05 1052.96 912.54 462.81 618.46 807.93 832.70 787.32 162.31 404.78 697.01 818.60 372.32 744.13 566.50 400.21 106.30 471.74 399.41 981.04 796.58 507.72 127.47 639.51 561.16 683.29 441.67 697.30 409.49 335.99 513.60
822.45 947.95 660.08 720.57 400.95 622.72 105.38 478.00 316.74 731.44 683.10 119.34 545.28 625.01 554.36 770.39 446.45 279.75 741.20 530.44 634.88 524.17 486.45 153.38 227.99 375.82 73.39 635.59 417.94 372.63 457.49 639.53 339.90 883.72 403.19 529.57 522.54 525.32 452.21 522.78 575.25 746.11 121.62 607.18 810.96 691.02 469.89 619.27 132.80 675.73 455.60 681.49 789.48 614.27 412.36 445.63 359.68 210.42 611.52 716.77 514.91 114.43 304.00 686.24 599.99 600.62 478.22 407.06 73.10 540.83 381.24 373.95 44.95 623.56 689.22 266.94 392.69 459.12 366.04 390.31 261.61 643.93 363.25 296.56 666.32 496.69 343.59 700.72 593.50 266.38 692.86 355.68 552.65 407.82 549.98 380.30 806.26 555.06 452.08 49.37 421.72 162.37 426.06 441.18 334.80 828.56 674.40 451.19 282.02 728.76 261.36 568.92 266.69 424.53 0.00 409.18 259.21 491.35 555.68 418.36 733.80 274.32 198.90 347.49 247.51 347.14 719.85 74.98 338.13 399.67 759.83 223.86 633.79 126.23 671.42 227.31 609.90 349.13 536.71 365.87 373.26 687.32 648.69 203.14 681.62 810.37 525.18 734.67 491.43 356.20 424.48 707.02 368.19 502.50 231.32 72.74 494.06 429.54 110.33 556.51 475.76 570.52 337.16 422.57 293.13 624.42 352.85 626.59 62.55 365.89 442.76
1049.58 735.46 479.44 892.91 466.93 880.31 432.47 771.27 252.98 626.82 829.61 424.99 759.07 567.13 177.47 624.00 787.27 560.42 567.95 295.90 528.72 510.35 671.43 509.52 472.19 731.96 370.16 754.76 683.20 512.79 501.13 867.22 653.34 704.39 746.75 787.16 451.38 683.28 637.19 436.57 745.53 585.51 402.06 761.11 667.93 817.43 627.85 701.51 404.06 614.42 775.94 486.84 635.69 580.54 760.76 361.59 604.25 589.78 432.19 327.86 713.65 430.83 612.96 635.42 627.23 330.98 807.97 291.31 377.68 590.88 689.32 371.39 448.00 538.55 453.18 585.89 653.06 302.33 392.34 417.23 474.61 834.71 290.97 451.84 838.66 756.76 689.89 386.27 339.69 267.15 851.20 584.23 716.88 650.85 304.31 730.97 694.25 180.81 769.79 400.17 772.39 246.81 601.55 168.01 663.82 664.41 583.96 512.13 617.77 875.05 386.68 686.60 592.47 756.31 409.18 0.00 542.82 509.71 515.30 710.88 600.26 530.66 354.29 579.60 605.28 700.41 568.45 474.57 651.54 613.46 641.92 494.06 515.88 344.66 481.58 181.87 529.62 399.78 534.27 681.63 78.88 357.31 412.65 516.55 830.09 659.39 185.98 634.00 733.23 691.30 649.80 478.43 715.99 329.25 281.32 397.28 776.43 767.27 381.59 318.52 444.38 747.10 694.93 338.53 574.07 514.36 720.26 523.90 468.78 747.14 775.70
663.88 884.11 554.58 575.69 247.73 381.42 207.35 299.38 441.17 580.06 553.29 328.30 287.01 522.08 677.19 612.97 550.88 99.16 725.48 490.03 578.12 705.83 312.75 351.73 392.20 498.62 198.17 502.95 236.33 552.62 650.09 465.16 494.09 843.31 322.82 288.27 715.14 385.20 278.51 496.57 449.68 625.45 181.70 454.49 983.99 565.62 329.77 466.06 183.70 603.19 549.83 802.90 662.42 545.62 523.95 405.22 180.61 385.52 571.11 870.68 380.59 144.78 115.80 630.65 581.81 752.18 559.87 519.84 283.66 409.38 552.70 572.81 261.29 584.09 695.72 400.81 212.10 532.67 558.64 584.72 476.22 489.34 527.41 148.17 537.64 311.89 432.06 878.27 797.39 390.81 511.10 242.45 470.16 644.54 762.71 329.47 706.11 676.15 322.92 241.97 338.12 376.87 208.97 584.51 508.97 906.95 867.00 368.70 349.22 566.65 463.33 455.69 478.57 257.62 259.21 542.82 0.00 683.95 724.71 589.82 607.08 191.83 393.31 181.85 223.51 432.88 643.59 214.64 408.12 275.57 599.87 460.58 556.62 330.54 763.07 441.81 567.48 295.58 705.74 444.82 565.86 891.21 655.19 403.73 555.14 697.63 592.08 547.45 325.30 435.15 652.01 681.44 447.44 486.78 403.28 250.64 320.96 498.72 161.23 804.44 668.36 415.20 313.16 382.16 502.08 592.48 473.97 599.10 266.55 478.59 558.37
1279.98 1089.51 971.11 1161.25 791.58 1065.37 530.24 901.86 642.16 1021.23 1127.28 507.33 970.96 933.16 592.89 1027.32 693.88 771.10 942.10 726.92 937.80 286.33 904.69 592.54 423.92 627.50 516.30 1074.14 854.74 394.73 131.11 1049.30 569.65 1022.68 874.16 972.22 58.33 947.19 878.76 842.55 1032.78 947.16 543.16 1038.63 364.06 1036.41 891.76 1048.52 545.19 993.42 701.34 222.18 997.34 909.62 658.10 712.12 764.75 681.80 750.48 529.32 957.82 571.96 749.21 1006.51 903.36 681.98 761.30 549.50 480.81 881.75 594.31 233.15 508.36 956.46 767.91 680.74 767.37 584.67 125.31 194.67 394.34 1095.31 246.84 693.41 1124.60 912.35 637.95 394.64 544.95 591.80 1098.06 798.59 996.83 446.47 280.99 845.29 1022.59 567.91 903.12 441.98 886.71 427.12 818.67 584.71 613.21 979.14 210.19 811.67 651.05 1152.21 337.04 979.83 556.94 817.14 491.35 509.71 683.95 0.00 110.29 599.79 928.79 763.11 365.76 740.10 724.95 630.86 971.77 539.97 622.79 855.74 1071.02 432.09 978.17 427.68 898.28 390.09 930.13 635.77 103.64 627.40 430.83 558.77 727.38 515.82 1066.46 1033.73 500.71 1052.88 943.71 637.07 404.55 860.81 651.91 703.59 351.55 467.03 923.44 681.22 522.72 539.56 131.47 1024.90 783.16 710.63 470.77 932.76 598.59 916.82 542.16 704.27 661.30
1325.02 1119.65 994.74 1193.52 863.21 1095.63 581.40 944.99 669.54 1049.19 1145.61 470.15 994.16 953.67 650.35 1086.25 685.78 799.94 992.17 801.96 947.59 201.66 967.23 569.61 448.81 628.82 580.63 1138.47 886.80 330.37 123.92 1081.57 578.97 1095.65 906.86 1002.48 138.52 1011.52 943.09 862.33 1097.11 1046.13 607.49 1044.73 405.28 1129.47 956.09 1104.33 609.52 1030.11 684.73 284.37 1089.50 930.13 657.92 717.15 829.08 658.87 858.92 639.61 1022.15 636.29 783.11 1002.65 967.18 698.95 722.59 613.32 532.58 943.11 555.73 253.66 539.49 992.56 763.20 646.25 860.43 694.96 218.37 244.17 387.15 1100.17 310.66 757.74 1163.44 955.48 587.96 504.93 655.24 663.43 1162.39 862.92 1060.65 455.32 391.28 889.13 1102.78 675.33 946.25 506.31 888.61 466.43 882.38 683.31 502.92 974.43 251.41 853.47 618.32 1215.17 319.58 1041.19 549.75 860.27 555.68 515.30 724.71 110.29 0.00 519.04 1032.14 793.90 385.54 804.43 751.18 575.74 1039.55 583.81 615.60 848.55 1098.43 424.90 987.96 479.45 937.52 401.49 996.83 677.57 18.97 579.72 491.98 669.06 803.73 481.33 1108.26 1128.85 611.00 1081.80 968.32 570.05 397.36 888.06 596.79 798.71 437.90 531.36 947.59 595.03 587.05 618.37 241.76 1088.61 813.09 740.21 463.58 942.55 599.91 926.61 572.01 674.43 585.48
1036.80 1251.07 950.14 1003.28 735.17 779.61 432.41 553.21 735.10 1074.71 929.45 398.83 665.13 1002.79 805.67 1060.25 240.74 592.85 1033.29 827.94 1000.27 406.95 793.21 299.37 312.15 144.06 466.16 927.32 594.55 315.24 468.68 899.20 202.41 1210.87 523.91 686.46 657.56 854.10 758.97 848.94 869.21 1017.25 491.80 915.23 905.78 989.99 798.67 913.23 473.16 1083.88 207.34 782.08 1067.43 979.25 164.10 863.99 655.72 314.40 938.67 956.16 849.46 489.06 474.02 1056.42 995.47 920.97 308.16 693.07 453.69 903.07 37.12 413.73 434.02 979.17 1059.09 304.34 644.20 856.55 521.57 459.57 302.62 869.01 543.79 636.92 972.81 607.78 218.19 829.03 915.19 684.74 971.64 703.44 897.37 193.77 655.39 510.67 1127.18 830.65 527.29 440.54 476.74 464.07 674.41 783.82 143.06 1195.17 770.45 839.97 241.10 993.11 386.66 893.54 196.69 557.24 418.36 710.88 589.82 599.79 519.04 0.00 1035.62 692.68 372.15 631.07 428.21 205.97 1004.70 419.20 182.20 633.79 1112.62 264.87 986.58 444.50 1082.39 529.01 1000.32 678.52 538.01 211.82 724.98 926.71 1018.56 297.29 959.61 1124.69 840.69 1104.70 657.07 202.35 195.24 1000.76 184.92 794.59 459.04 465.59 574.79 91.79 483.29 878.20 619.29 869.65 435.87 840.93 198.94 1014.63 172.97 1006.97 367.29 263.79 120.78
764.20 413.81 131.99 568.66 418.48 783.04 706.22 850.73 417.06 112.99 528.49 799.11 743.97 178.89 510.29 98.53 1060.06 631.81 210.85 304.36 128.19 1076.76 511.28 827.30 864.14 1010.75 669.99 478.71 762.66 963.19 960.46 622.22 1000.69 380.36 767.30 777.57 981.27 467.68 498.65 283.06 460.15 18.37 634.87 513.76 1027.18 512.32 463.60 504.17 653.51 205.38 1059.01 973.22 68.55 202.43 1033.13 316.67 542.97 879.63 328.65 693.34 462.19 653.96 722.88 177.92 195.35 529.34 995.02 502.67 762.43 325.80 1010.56 861.30 759.52 144.83 335.32 877.34 591.78 344.12 868.99 875.64 897.39 733.48 768.83 538.40 566.75 803.89 965.14 720.38 570.07 467.42 570.68 535.78 475.14 1101.25 739.20 795.98 128.30 523.54 849.25 720.74 837.40 650.11 528.54 478.44 995.27 448.40 1081.39 362.98 912.01 589.27 844.28 384.09 956.03 769.75 733.80 600.26 607.08 928.79 1032.14 1035.62 0.00 528.51 751.85 544.79 777.66 952.92 42.98 723.82 959.65 692.92 162.78 924.09 109.59 718.78 227.88 671.78 165.67 482.15 1022.79 954.00 608.77 663.89 294.79 906.34 393.31 125.81 479.91 124.09 801.21 944.33 1100.20 271.05 968.73 283.72 712.22 732.83 855.26 1057.32 655.34 607.06 797.32 504.60 836.73 339.73 1004.10 123.15 983.15 107.21 765.75 1013.51 1098.55
618.31 861.39 448.65 446.25 192.38 428.21 303.60 369.93 295.27 513.90 408.78 353.04 343.49 360.96 539.06 540.62 653.98 187.40 725.17 508.97 400.32 789.44 213.27 416.37 464.38 588.81 301.99 361.27 365.58 646.95 694.22 405.48 566.14 862.25 429.13 372.37 794.30 279.22 179.03 332.08 327.82 521.22 254.66 349.37 1000.14 416.70 223.79 363.24 242.58 491.54 652.93 906.72 546.06 384.50 627.05 424.16 120.93 456.98 590.05 824.55 260.68 296.59 281.34 487.75 401.66 668.78 596.22 408.09 347.42 266.51 655.56 581.93 278.65 392.26 667.75 513.50 151.35 437.65 637.80 599.18 500.96 379.22 535.66 78.82 392.00 404.36 570.91 851.59 701.28 342.95 418.54 82.50 278.33 624.15 729.96 416.41 597.79 564.04 395.85 321.13 457.83 436.69 151.94 517.43 597.79 816.79 903.67 176.87 521.72 454.44 535.68 295.74 541.01 382.47 274.32 530.66 191.83 763.11 793.90 692.68 528.51 0.00 432.60 102.78 376.53 558.69 529.16 333.90 569.36 295.84 547.12 483.25 463.46 400.55 644.84 392.41 406.36 212.18 774.93 547.92 608.23 795.10 627.22 461.59 418.25 573.39 498.25 531.13 360.78 538.25 682.11 668.34 542.33 505.72 476.24 346.18 391.51 642.53 265.05 710.61 664.94 296.20 386.79 401.10 559.94 414.68 577.07 421.30 336.87 599.59 700.14
978.48 968.61 666.13 870.61 525.95 735.30 214.98 611.22 440.47 757.48 841.38 168.30 680.32 648.55 433.52 779.63 491.39 414.40 750.83 478.78 675.93 394.65 614.05 242.66 117.90 442.77 225.66 783.50 556.86 275.62 261.62 758.66 383.59 904.11 543.39 642.15 393.55 656.55 588.12 476.79 731.28 768.39 252.52 747.99 685.37 846.17 601.12 757.88 254.55 752.13 481.79 532.20 801.53 672.09 438.55 563.59 474.11 322.39 631.91 629.90 667.18 270.46 458.57 775.34 726.37 587.03 499.44 386.31 168.88 636.65 335.03 208.36 153.95 607.02 723.03 362.07 515.47 534.35 240.45 191.41 178.90 804.58 201.90 402.77 824.60 621.71 364.81 680.29 595.74 404.66 807.42 507.95 710.93 349.56 437.20 514.52 848.53 458.50 606.90 151.34 555.94 141.62 528.03 461.37 399.30 911.23 545.41 547.01 371.30 854.33 131.84 721.19 341.50 526.50 198.90 354.29 393.31 365.76 385.54 372.15 751.85 432.60 0.00 449.46 434.31 377.03 724.08 209.20 355.66 555.70 792.39 176.86 669.53 115.75 774.80 172.42 635.94 371.11 366.57 402.55 352.83 600.45 715.99 220.67 791.22 842.27 501.46 760.71 641.75 397.47 402.46 712.01 398.08 512.13 86.89 169.15 628.28 431.22 232.08 632.73 350.17 728.80 490.88 546.30 256.87 661.87 436.29 677.81 220.68 451.28 490.87
584.47 885.84 489.56 421.15 152.85 364.00 332.28 350.87 362.81 581.16 399.41 428.10 242.02 428.22 606.60 606.07 664.25 94.37 709.85 510.49 439.43 778.36 164.59 433.91 476.74 597.21 307.10 356.19 262.80 625.15 706.24 309.20 561.72 863.77 326.35 276.09 771.29 229.24 145.19 376.89 301.52 557.10 325.48 298.53 1059.71 418.86 173.81 311.34 337.17 504.19 658.02 935.14 600.47 451.76 637.44 425.68 24.65 489.50 591.57 892.09 232.88 326.63 229.34 515.55 448.49 697.17 617.81 475.63 339.81 309.10 593.95 628.96 364.50 441.45 716.18 432.98 73.46 505.19 614.79 640.87 565.03 370.13 629.96 181.60 407.24 318.73 545.01 898.73 768.82 312.45 380.70 73.41 329.39 712.59 793.14 355.22 655.89 626.82 339.93 298.12 366.69 451.48 78.57 512.94 572.01 874.63 923.15 244.13 526.64 435.98 535.86 286.65 575.60 286.19 347.49 579.60 181.85 740.10 804.43 631.07 544.79 102.78 449.46 0.00 281.45 532.79 550.52 361.54 501.59 193.06 546.94 528.63 461.74 392.94 661.12 495.19 473.62 240.57 785.46 558.31 622.01 862.64 675.65 483.44 429.98 640.65 596.94 578.31 282.89 553.23 761.30 628.81 553.84 507.24 489.46 323.17 356.03 650.93 343.08 805.81 724.51 284.80 371.10 402.62 581.79 446.40 592.05 437.58 397.40 579.18 682.92
608.59 1107.62 704.12 653.30 420.89 375.21 298.28 239.95 562.21 803.57 605.95 366.85 308.12 673.65 754.50 836.48 387.51 273.54 927.02 705.46 671.58 666.56 396.74 320.10 372.62 317.08 235.12 572.33 186.89 528.96 654.56 541.35 312.55 1066.82 155.68 282.06 756.14 461.39 408.56 622.32 504.07 789.97 265.49 505.07 1044.56 635.00 405.96 543.49 247.20 738.58 381.87 911.34 832.79 697.19 355.99 628.73 256.80 230.84 794.62 933.14 465.03 301.21 107.71 760.98 711.86 834.22 336.36 600.35 306.71 554.53 391.09 592.11 292.46 722.90 862.90 177.35 277.89 632.80 599.64 612.09 391.33 487.39 596.86 297.71 617.91 261.84 263.56 934.32 841.01 511.85 626.13 352.05 553.56 544.42 768.96 145.45 835.18 743.20 237.83 282.97 186.87 409.88 324.00 666.40 368.69 1074.03 908.00 489.56 271.01 668.13 495.32 521.04 299.22 192.96 247.51 605.28 223.51 724.95 751.18 428.21 777.66 376.53 434.31 281.45 0.00 251.34 783.39 318.87 299.49 216.80 806.42 415.86 712.29 359.84 834.94 474.82 719.05 445.12 759.51 276.86 606.86 921.43 822.37 269.85 531.40 876.59 747.97 770.96 243.92 271.78 602.38 896.85 272.39 710.29 407.87 297.96 259.21 370.80 269.67 804.02 709.36 530.23 89.65 605.67 368.20 678.55 310.60 670.45 310.06 297.73 430.45
859.93 1176.72 829.78 834.76 571.30 626.55 335.37 387.78 663.88 938.69 800.42 292.41 530.93 823.08 791.54 955.66 136.17 463.24 992.06 724.75 866.69 532.13 636.30 212.30 286.63 65.74 377.27 797.23 438.23 385.77 540.55 765.00 61.21 1109.89 375.67 533.40 676.32 712.73 602.06 799.61 711.77 965.23 356.24 756.41 943.08 859.90 657.30 755.79 362.80 906.58 130.53 829.66 1008.18 799.54 104.65 671.80 508.14 156.96 837.69 918.54 704.14 310.81 332.61 920.37 817.22 895.67 146.85 688.80 369.78 750.64 186.60 494.00 335.29 819.94 962.30 124.63 498.28 799.25 576.00 498.08 277.32 680.39 578.93 484.56 842.81 460.04 12.22 965.57 940.64 613.52 842.61 570.11 761.26 343.25 711.68 346.80 1044.59 816.52 379.55 379.79 312.87 453.60 575.34 743.96 137.26 1118.38 789.21 698.61 83.66 844.48 363.47 772.38 115.01 393.37 347.14 700.41 432.88 630.86 575.74 205.97 952.92 558.69 377.03 532.79 251.34 0.00 918.79 336.50 48.87 468.14 988.48 260.17 866.22 357.45 980.02 518.54 866.24 601.78 556.77 25.52 689.85 889.09 921.77 183.86 782.74 1035.51 827.96 971.30 491.64 20.44 384.19 948.02 21.05 753.36 447.67 375.52 409.36 119.46 340.33 903.65 657.80 756.22 278.43 648.74 241.04 861.65 59.26 845.71 284.59 98.69 179.11
748.28 423.85 89.01 525.68 402.56 767.12 690.30 840.24 422.79 70.01 499.74 756.13 728.55 176.70 553.27 55.55 1019.46 604.00 253.83 309.86 133.92 1073.42 509.09 811.38 841.98 984.53 654.07 467.87 768.32 920.21 966.19 606.10 980.00 421.40 773.03 741.51 1019.83 441.20 522.80 247.29 444.23 59.41 618.95 497.84 1068.22 490.85 461.41 488.25 637.59 162.40 1049.32 1016.20 109.59 190.11 1023.44 322.40 548.70 863.71 371.63 727.33 467.68 646.03 758.20 134.94 219.50 572.32 952.04 508.40 728.93 349.49 967.58 866.58 716.54 136.90 378.30 865.02 597.51 387.10 904.45 881.37 870.90 717.56 782.92 495.42 536.87 767.29 931.01 763.36 613.05 453.47 541.93 519.86 480.87 1058.27 782.18 801.90 148.69 566.52 847.78 706.79 830.38 655.84 526.35 515.85 952.29 491.38 1057.17 360.79 896.09 562.33 835.67 371.77 923.61 777.35 719.85 568.45 643.59 971.77 1039.55 1004.70 42.98 529.16 724.08 550.52 783.39 918.79 0.00 715.89 943.73 698.58 119.80 881.11 93.67 675.80 270.86 690.84 139.19 499.21 1058.52 944.31 647.33 706.87 337.77 864.68 371.84 135.85 522.89 102.62 792.75 936.40 1057.22 314.03 939.84 326.70 731.41 716.91 818.66 1038.25 639.42 650.04 840.30 488.68 820.81 345.46 961.12 128.88 975.22 112.94 749.83 994.48 1064.17
777.88 964.33 638.10 706.91 382.87 596.06 42.10 418.46 391.72 725.76 669.13 113.66 500.71 643.93 555.17 758.01 372.74 289.41 746.55 474.50 647.90 553.51 473.00 142.74 226.95 365.18 112.51 607.70 373.37 422.94 470.82 594.96 329.26 939.78 334.19 502.91 571.16 480.75 445.04 597.76 530.68 742.19 113.45 584.29 859.58 653.53 425.32 574.70 95.93 666.33 426.26 734.65 792.37 630.55 401.72 505.17 349.73 192.30 671.06 784.70 511.12 69.86 284.72 678.07 576.27 626.88 440.16 446.96 125.57 536.11 382.08 416.41 55.25 578.99 686.49 219.73 347.17 534.10 414.66 400.61 261.58 651.10 411.10 259.69 675.21 421.71 332.14 749.34 668.48 341.36 648.67 354.38 580.17 443.81 606.22 305.32 837.01 559.25 397.70 97.99 346.74 237.35 366.31 489.40 294.33 897.72 723.02 487.33 265.60 704.22 290.70 567.62 321.67 377.17 74.98 474.57 214.64 539.97 583.81 419.20 723.82 333.90 209.20 361.54 318.87 336.50 715.89 0.00 324.50 355.10 764.77 259.85 638.73 140.41 737.23 302.29 636.64 354.43 575.77 347.75 421.88 758.69 723.67 192.50 618.34 795.60 545.20 756.85 462.34 338.08 499.46 772.66 326.02 507.85 245.13 120.96 419.08 415.10 92.98 631.49 524.38 561.97 341.03 482.11 290.85 651.53 342.21 663.65 51.91 358.51 374.73
908.08 1191.50 878.65 860.78 613.72 646.54 340.70 422.05 641.11 936.20 825.46 243.54 528.44 820.59 760.65 953.17 175.66 460.75 973.72 759.22 903.92 515.59 614.15 187.54 237.76 114.61 341.25 774.78 413.38 386.46 491.68 762.51 110.08 1157.73 354.57 571.81 642.77 698.60 579.91 832.45 687.01 978.02 324.78 737.46 943.17 837.45 661.83 731.03 326.78 904.09 156.43 790.00 1005.69 797.05 145.50 720.67 526.24 132.20 885.53 881.77 681.99 326.72 326.90 889.40 833.13 846.80 181.32 639.93 345.02 754.79 219.32 487.49 310.53 835.85 999.52 122.14 495.79 775.42 527.13 449.21 228.45 711.56 557.56 490.54 837.10 467.76 46.69 957.93 894.12 591.43 863.64 521.24 736.50 374.88 662.81 353.58 1046.31 785.63 405.32 350.97 354.30 404.73 578.73 724.48 137.95 1093.62 789.30 698.98 58.90 885.33 346.10 734.48 125.46 381.14 338.13 651.54 408.12 622.79 615.60 182.20 959.65 569.36 355.66 501.59 299.49 48.87 943.73 324.50 0.00 475.29 976.10 266.20 850.06 323.87 948.56 469.67 863.75 565.76 596.63 66.37 640.98 852.32 958.99 134.99 789.46 1033.02 787.55 955.57 502.35 69.31 335.32 965.63 66.20 735.02 414.02 362.94 443.63 168.33 304.31 857.13 608.93 731.46 253.67 697.61 233.34 902.82 105.22 894.58 275.58 115.22 181.33
597.15 965.82 629.11 438.60 296.02 266.85 347.81 157.81 461.19 717.79 405.86 468.76 145.61 607.42 687.70 749.02 557.93 287.43 781.37 674.89 626.41 826.89 304.19 396.25 532.66 533.88 366.28 467.01 69.74 673.68 724.63 326.65 529.35 926.02 133.29 173.70 875.72 340.06 293.58 544.86 425.24 674.55 349.29 476.43 1157.24 516.29 351.87 461.76 339.25 642.48 575.64 976.15 724.73 597.97 532.40 590.08 215.60 398.50 755.97 880.66 333.54 285.24 159.77 669.94 568.30 841.21 553.16 574.01 434.11 469.93 596.67 689.22 401.75 570.00 833.67 394.15 264.41 603.57 731.89 682.16 461.40 329.62 700.66 368.18 449.22 163.04 480.16 999.73 849.92 495.80 448.05 251.47 440.21 683.11 895.76 162.16 784.48 712.68 156.33 415.22 203.58 517.33 271.63 683.35 521.69 965.18 1027.58 423.33 416.39 478.36 579.05 464.71 446.28 142.85 399.67 613.46 275.57 855.74 848.55 633.79 692.92 295.84 555.70 193.06 216.80 468.14 698.58 355.10 475.29 0.00 713.87 499.15 604.91 471.00 689.29 582.27 627.65 433.63 829.58 493.66 692.34 910.11 793.14 486.65 541.04 781.99 721.63 708.53 119.77 488.58 741.07 770.92 487.91 668.55 570.87 413.80 162.97 565.89 334.48 886.91 841.61 418.87 221.62 567.02 579.16 637.35 513.72 630.64 401.22 459.07 594.39
710.93 385.76 162.48 505.46 434.93 734.65 722.67 833.02 494.86 49.79 456.82 829.60 730.50 186.16 594.45 76.50 1090.50 641.31 336.24 380.71 198.39 1103.01 409.68 843.75 907.52 1028.08 686.44 366.33 744.95 949.80 995.15 603.71 1017.14 371.73 816.73 730.78 1093.30 420.89 443.92 315.60 454.10 166.08 651.32 466.55 1163.79 429.00 457.36 419.58 669.96 150.76 1095.49 1068.70 125.74 188.94 1072.76 396.85 549.62 896.08 476.32 801.78 447.46 705.69 715.67 166.81 199.28 677.01 1025.51 582.83 794.19 348.32 1087.38 865.41 780.25 221.59 482.85 863.85 598.43 506.90 973.25 911.25 944.37 660.25 855.80 558.11 454.37 806.93 976.26 883.16 732.85 534.61 480.91 540.45 449.27 1087.86 884.77 818.50 139.17 619.43 831.54 752.50 832.03 730.29 528.48 584.16 1025.17 460.95 1125.48 370.25 928.46 486.62 909.14 335.12 977.21 751.53 759.83 641.92 599.87 1071.02 1098.43 1112.62 162.78 547.12 792.39 546.94 806.42 988.48 119.80 764.77 976.10 713.87 0.00 954.58 126.04 749.27 324.42 762.91 170.13 546.15 1100.10 1005.73 720.80 826.67 457.57 922.79 321.64 97.76 570.31 52.42 767.65 996.06 1086.81 406.05 985.18 414.06 788.26 749.28 851.99 1077.96 671.79 767.04 960.10 483.32 853.18 419.91 1021.14 187.18 1028.84 187.39 782.20 1057.83 1133.13
983.80 1058.15 792.10 929.50 605.12 740.65 253.23 612.54 534.19 934.34 887.83 151.85 618.67 825.41 610.38 936.66 393.37 500.14 912.38 655.64 809.24 327.74 693.22 250.49 73.25 275.94 296.69 844.52 568.89 174.53 300.98 825.80 264.93 993.22 549.83 662.04 452.07 726.69 662.28 653.65 776.62 930.14 324.58 817.53 739.71 870.36 671.26 820.64 326.58 899.59 363.86 569.49 978.39 817.05 320.62 660.73 553.28 284.62 721.02 717.26 720.07 315.80 479.04 889.20 822.21 656.10 407.02 475.42 188.82 657.67 259.44 304.35 204.60 783.88 845.63 310.93 525.17 638.48 336.43 258.51 37.75 825.12 378.76 481.94 875.25 629.99 272.39 705.40 772.60 483.83 886.59 565.75 761.58 183.96 472.11 542.41 990.53 631.73 605.54 230.51 554.93 285.03 607.20 604.78 238.20 956.27 585.84 643.04 259.12 935.77 121.79 727.06 200.35 581.36 223.86 494.06 460.58 432.09 424.90 264.87 924.09 483.25 176.86 528.63 415.86 260.17 881.11 259.85 266.20 499.15 954.58 0.00 828.54 205.31 882.75 312.19 812.80 467.14 405.93 285.69 528.01 687.81 805.10 146.01 829.47 949.12 623.04 937.57 618.92 280.61 241.92 801.12 281.22 682.35 263.75 250.59 629.29 329.66 304.11 759.27 418.23 779.45 453.89 640.02 80.01 823.60 304.85 821.97 237.59 358.86 350.08
654.61 488.44 36.44 520.43 308.89 673.45 596.63 762.72 368.82 129.34 479.22 703.56 675.98 102.50 536.17 149.22 966.89 540.65 320.44 279.60 75.50 1026.23 434.89 717.71 781.48 930.51 560.40 385.78 674.65 925.22 914.60 512.63 891.10 489.95 705.29 669.00 967.26 359.11 438.32 192.74 350.56 127.96 525.28 404.17 1054.78 437.45 387.21 394.58 543.92 150.66 969.45 979.74 178.14 119.03 968.50 270.81 455.49 770.04 402.89 675.74 389.48 589.33 664.99 123.20 135.02 603.58 899.47 456.81 668.15 278.41 979.96 795.50 654.21 95.55 356.81 793.94 504.30 398.26 852.86 829.78 818.33 623.89 731.33 432.07 473.82 727.50 869.30 789.98 672.62 419.18 500.12 426.19 400.05 1012.50 779.83 734.16 222.25 549.71 761.24 626.46 737.66 604.25 452.15 461.30 899.13 546.44 1002.62 286.59 802.42 479.68 783.10 300.69 871.04 717.03 633.79 515.88 556.62 978.17 987.96 986.58 109.59 463.46 669.53 461.74 712.29 866.22 93.67 638.73 850.06 604.91 126.04 828.54 0.00 623.23 284.89 636.87 57.10 458.92 1006.93 889.37 594.76 705.19 397.34 796.75 353.46 200.44 486.52 118.12 713.73 879.70 995.59 366.52 859.14 309.89 675.23 623.24 767.88 951.92 545.75 641.00 851.46 395.01 727.14 293.87 895.10 61.14 918.52 61.35 656.16 931.79 1007.09
893.78 996.95 586.79 814.09 469.43 711.96 182.51 514.83 365.74 745.81 774.36 80.33 616.61 674.48 500.19 731.35 459.60 364.45 812.50 579.44 603.93 422.68 557.53 164.86 200.08 387.30 161.00 723.60 486.10 303.65 365.80 702.14 308.68 932.72 474.60 618.81 486.01 596.65 531.60 532.85 646.58 724.83 196.00 691.47 788.30 756.89 541.22 689.86 198.03 721.77 463.90 647.95 775.01 687.89 431.98 494.63 417.59 254.12 660.52 672.52 602.52 185.76 365.57 746.43 692.17 646.07 463.31 428.69 53.13 581.00 407.38 324.11 123.45 614.06 738.22 277.84 466.40 508.12 356.20 307.16 195.10 710.77 306.04 346.25 777.44 562.12 345.23 677.86 662.41 348.14 750.90 443.29 678.88 389.27 500.34 445.73 801.60 525.17 538.11 94.82 487.15 184.00 471.51 468.52 320.97 910.32 637.87 491.36 293.50 785.26 159.87 630.94 247.81 469.98 126.23 344.66 330.54 427.68 479.45 444.50 718.78 400.55 115.75 392.94 359.84 357.45 675.80 140.41 323.87 471.00 749.27 205.31 623.23 0.00 720.42 162.79 636.97 315.46 470.75 358.89 378.61 655.14 697.69 188.88 746.15 811.65 491.83 741.35 558.51 368.56 440.66 754.39 378.50 576.19 153.56 100.08 536.41 424.61 175.56 663.18 459.45 677.74 435.60 471.57 285.32 618.29 375.60 616.66 124.12 411.02 432.85
939.50 276.53 294.65 749.47 557.59 935.79 695.13 847.10 354.68 293.80 689.65 788.34 834.90 312.93 404.23 302.51 1093.93 753.06 92.08 313.77 244.52 991.93 645.32 816.21 809.50 1011.30 674.92 670.67 759.03 958.79 921.64 745.57 1002.73 236.73 822.58 862.99 883.29 623.61 677.58 424.56 635.45 246.25 623.78 662.51 914.15 705.25 597.64 679.47 642.42 415.60 1067.95 828.93 198.68 336.47 1055.98 398.58 659.30 868.54 191.96 532.98 632.24 687.83 838.00 394.87 388.06 392.65 1102.43 407.33 700.05 495.85 1052.66 791.90 716.37 308.20 174.32 925.06 708.11 357.77 819.75 833.88 880.60 844.70 709.99 652.28 733.01 852.33 967.80 560.02 409.71 405.04 731.84 674.89 591.47 1066.71 752.85 851.45 305.98 379.25 845.62 658.36 892.87 633.32 639.22 313.57 987.14 275.89 931.58 493.14 900.92 719.94 868.26 518.13 938.11 832.14 671.42 481.58 763.07 898.28 937.52 1082.39 227.88 644.84 774.80 661.12 834.94 980.02 270.86 737.23 948.56 689.29 324.42 882.75 284.89 720.42 0.00 602.38 341.99 530.97 956.49 987.87 560.46 503.53 187.54 874.56 594.28 264.57 397.57 325.06 809.06 978.20 1094.06 81.63 999.14 330.78 701.83 682.01 852.26 1050.42 644.25 446.70 785.15 657.35 910.91 380.91 962.76 239.48 1017.02 223.54 733.97 1030.29 1089.31
1005.05 866.77 640.22 838.66 461.72 820.62 306.56 657.51 268.05 726.38 801.19 243.12 727.88 620.57 359.34 740.49 605.40 507.06 694.46 454.34 590.09 472.54 565.74 327.65 290.32 550.09 278.25 753.68 600.54 356.41 319.26 778.37 471.47 799.94 630.50 730.08 423.06 639.51 571.44 518.34 702.67 690.15 319.48 741.78 631.86 809.11 592.63 746.69 308.38 666.95 594.07 536.39 740.33 631.17 583.39 396.94 513.34 407.91 527.74 509.73 634.03 297.03 511.89 680.04 576.89 484.44 626.10 309.63 195.81 541.62 507.45 189.52 266.13 628.10 592.03 404.02 543.76 361.93 264.78 235.36 292.74 771.63 143.25 423.49 784.41 671.97 508.02 515.07 505.23 261.94 810.95 474.91 670.74 494.47 337.55 607.61 795.02 362.68 679.39 218.30 649.03 64.94 544.35 349.88 481.95 803.26 574.92 451.98 456.29 813.68 304.26 639.70 410.60 593.46 227.31 181.87 441.81 390.09 401.49 529.01 671.78 392.41 172.42 495.19 474.82 518.54 690.84 302.29 469.67 582.27 762.91 312.19 636.87 162.79 602.38 0.00 646.02 276.08 382.52 521.68 215.82 539.18 551.50 334.68 706.77 761.68 329.04 754.99 681.00 531.35 493.42 635.33 535.87 478.50 99.45 215.41 679.09 587.40 299.04 500.39 296.66 688.61 564.47 373.88 392.20 575.73 538.39 577.90 286.91 573.81 593.83
673.04 539.23 50.18 470.97 356.80 665.61 629.35 718.56 416.60 121.54 422.12 717.30 655.27 45.40 511.60 165.10 920.37 536.30 376.52 241.10 100.31 1030.59 377.79 757.83 753.84 905.84 617.50 328.68 682.93 910.06 872.91 466.91 922.32 509.29 725.13 611.90 981.00 302.01 400.91 159.15 407.66 147.30 582.38 397.16 1067.02 380.35 330.11 381.93 587.17 116.19 971.83 927.81 190.10 66.70 945.95 325.91 462.25 798.13 427.70 732.84 332.38 566.78 648.17 143.65 97.61 571.45 913.21 442.07 677.60 226.08 970.97 743.17 654.85 57.65 413.91 741.61 477.99 383.35 844.37 789.01 799.59 616.88 744.73 456.59 416.72 670.40 854.02 785.04 634.73 384.08 443.02 428.16 402.16 985.50 745.16 696.26 257.23 514.27 744.48 635.91 691.19 645.17 395.05 427.71 913.46 560.18 969.03 229.49 818.19 448.97 767.78 248.36 876.59 719.64 609.90 529.62 567.48 930.13 996.83 1000.32 165.67 406.36 635.94 473.62 719.05 866.24 139.19 636.64 863.75 627.65 170.13 812.80 57.10 636.97 341.99 646.02 0.00 405.39 977.86 866.82 608.50 728.55 442.71 813.04 303.97 251.23 429.42 124.77 687.42 857.15 1034.38 423.62 887.29 274.45 618.13 660.96 721.77 959.56 602.85 641.78 836.55 413.34 780.29 348.97 892.81 108.92 895.97 118.45 672.45 926.33 1011.37
762.89 771.08 422.48 578.35 267.34 604.57 312.33 532.43 176.29 512.93 565.87 394.16 482.59 359.99 420.08 536.98 671.58 255.99 562.79 327.34 426.87 722.37 349.48 431.26 489.01 605.20 298.39 490.38 503.37 619.11 595.34 549.77 596.79 704.25 556.01 516.66 673.44 363.43 331.22 331.11 458.84 500.52 281.92 483.01 907.94 549.70 316.55 500.19 283.92 475.62 679.04 794.67 545.09 383.53 635.80 242.53 265.22 485.74 432.05 687.64 393.80 307.88 411.38 486.78 400.69 456.60 739.00 286.80 368.59 265.54 641.40 465.60 324.75 445.56 519.19 530.96 314.03 318.67 510.46 511.44 429.39 531.41 419.33 147.41 566.44 480.35 612.45 732.61 582.30 132.63 539.90 234.69 463.58 651.10 613.63 562.66 596.82 416.75 506.51 342.19 571.31 305.19 314.66 333.12 612.68 636.54 816.04 175.90 518.12 537.60 475.33 363.62 563.27 490.81 349.13 399.78 295.58 635.77 677.57 678.52 482.15 212.18 371.11 240.57 445.12 601.78 499.21 354.43 565.76 433.63 546.15 467.14 458.92 315.46 530.97 276.08 405.39 0.00 658.60 607.92 454.30 676.12 502.56 481.02 430.69 572.42 417.12 530.16 483.34 598.25 709.06 542.38 610.92 324.09 284.22 323.96 531.72 658.92 261.45 603.03 572.74 453.20 534.77 243.10 547.15 429.56 576.29 445.50 340.43 645.69 718.57
1306.05 1138.62 1012.26 1174.55 844.24 1076.66 562.43 926.02 650.57 1050.31 1126.64 489.12 975.19 934.70 631.38 1067.28 692.94 780.97 1011.14 820.92 966.56 182.69 948.26 588.58 440.11 622.51 561.66 1119.50 884.67 335.90 104.95 1062.60 595.36 1112.15 906.50 983.51 119.55 992.55 924.12 843.36 1078.14 1041.16 588.52 1025.76 386.31 1140.05 937.12 1085.36 590.55 1018.20 687.30 283.40 1091.34 911.16 661.42 736.12 810.11 657.56 839.95 632.96 1003.18 617.32 764.14 1021.62 948.21 679.98 703.62 594.35 523.88 924.14 536.76 234.69 520.52 973.59 782.17 654.58 858.92 678.67 228.95 225.20 368.18 1091.47 291.69 738.77 1144.47 936.51 568.99 498.28 636.39 644.46 1143.42 843.95 1041.68 436.35 374.99 881.09 1083.81 656.36 927.28 487.34 869.64 447.46 863.41 688.35 521.89 993.40 232.44 834.50 635.63 1196.20 310.88 1022.22 530.78 841.30 536.71 534.27 705.74 103.64 18.97 538.01 1022.79 774.93 366.57 785.46 759.51 556.77 1058.52 575.77 596.63 829.58 1100.10 405.93 1006.93 470.75 956.49 382.52 977.86 658.60 0.00 582.29 492.05 662.41 815.30 489.66 1089.29 1125.22 604.35 1082.92 949.35 577.21 378.39 907.03 577.82 797.59 418.93 512.39 947.60 614.00 568.08 599.40 225.47 1069.64 830.40 756.40 444.61 958.25 616.03 945.58 583.46 655.46 604.45
885.45 1202.24 855.30 859.71 589.67 637.24 324.60 413.30 669.06 955.94 825.94 309.91 515.26 848.60 817.06 969.14 125.40 488.76 1017.58 750.27 878.08 528.20 659.55 237.82 304.13 67.76 381.08 822.75 461.75 382.31 536.91 749.33 57.75 1135.41 368.65 558.63 685.73 710.93 625.31 817.98 737.29 970.28 364.09 781.93 968.60 883.71 655.50 781.31 354.05 896.51 105.01 835.23 1020.46 825.06 79.13 697.32 533.66 155.45 863.21 914.61 727.39 300.04 358.13 909.60 806.45 892.03 171.28 706.30 380.10 725.12 212.12 490.54 333.78 809.17 987.82 150.15 523.80 802.69 572.36 494.44 273.68 705.91 604.45 502.93 868.33 456.17 37.74 957.72 947.72 618.70 868.13 587.61 786.78 368.77 708.04 339.78 1036.23 842.04 405.07 400.16 331.24 471.10 600.86 761.82 133.80 1143.90 814.73 716.98 109.18 818.96 359.54 797.90 111.08 411.63 365.87 681.63 444.82 627.40 579.72 211.82 954.00 547.92 402.55 558.31 276.86 25.52 944.31 347.75 66.37 493.66 1005.73 285.69 889.37 358.89 987.87 521.68 866.82 607.92 582.29 0.00 707.35 885.16 947.29 201.36 808.26 1025.78 845.82 988.55 517.16 9.67 380.84 973.54 39.42 778.88 473.19 401.04 434.88 121.48 349.28 910.73 654.16 781.74 303.95 674.26 231.47 881.71 38.85 871.23 310.11 112.35 155.78
1074.16 734.38 558.32 918.92 545.81 947.28 412.15 783.77 327.33 705.70 879.53 453.87 837.95 611.18 241.09 702.88 776.71 639.30 622.27 374.78 607.60 535.16 715.93 514.90 470.73 736.83 371.80 833.64 736.65 433.91 481.48 903.82 674.36 702.66 756.07 854.13 372.50 720.06 716.07 515.45 770.11 627.14 422.94 778.65 589.05 880.21 706.73 780.39 427.10 693.30 797.41 407.96 677.32 634.72 773.88 392.10 646.66 568.60 430.46 362.82 697.57 452.84 631.12 714.30 689.00 268.62 789.87 214.51 365.58 561.18 687.86 405.34 390.27 617.43 494.75 612.94 681.05 264.65 313.46 391.38 508.56 913.59 212.09 530.72 893.96 794.26 684.90 327.46 289.41 346.03 867.42 654.09 795.76 571.97 225.43 727.20 700.57 259.69 785.03 323.89 768.62 272.27 667.96 246.89 652.67 705.98 524.36 591.01 641.90 922.97 420.37 659.26 626.42 699.05 373.26 78.88 565.86 430.83 491.98 724.98 608.77 608.23 352.83 622.01 606.86 689.85 647.33 421.88 640.98 692.34 720.80 528.01 594.76 378.61 560.46 215.82 608.50 454.30 492.05 707.35 0.00 358.06 454.22 505.99 800.48 659.16 264.86 712.88 812.11 710.29 570.92 540.21 707.18 383.57 315.27 348.94 805.35 763.48 404.63 326.40 365.50 787.03 696.51 394.24 594.67 593.24 714.37 601.56 424.07 711.21 754.84
1255.28 610.12 714.95 1097.91 749.97 1137.83 769.11 1067.92 499.83 776.88 1024.08 735.47 1055.72 748.80 256.04 762.42 988.05 887.94 595.61 526.54 664.82 807.76 877.15 781.64 614.56 952.92 722.15 965.35 979.85 791.97 652.40 1075.02 876.51 676.95 1043.40 1083.81 568.08 838.40 911.39 584.68 951.23 682.26 735.14 1004.84 510.14 978.27 880.54 971.74 753.78 835.90 990.17 444.32 702.21 771.69 964.29 525.46 887.02 870.90 453.18 29.45 868.77 788.14 916.51 828.39 761.95 257.60 1030.87 415.89 708.27 829.53 933.65 630.59 732.27 728.50 409.63 882.25 876.65 422.21 586.06 646.89 708.54 1112.12 511.38 797.43 1053.39 1073.15 896.24 164.13 93.82 550.19 1055.57 815.40 938.55 871.77 362.55 1064.01 792.19 281.02 1066.44 681.95 1105.43 589.13 869.34 368.30 849.49 620.37 535.69 739.89 879.34 1085.64 709.88 854.89 774.08 1052.96 687.32 357.31 891.21 558.77 669.06 926.71 663.89 795.10 600.45 862.64 921.43 889.09 706.87 758.69 852.32 910.11 826.67 687.81 705.19 655.14 503.53 539.18 728.55 676.12 662.41 885.16 358.06 0.00 369.10 717.33 908.66 768.10 299.13 787.98 1029.88 894.83 899.12 534.49 910.14 520.84 513.56 707.00 1073.08 980.38 738.90 130.81 512.07 958.60 1011.08 509.05 767.82 659.78 924.01 643.84 706.78 955.86 961.37
999.45 372.65 392.53 797.14 557.51 912.07 711.56 934.38 331.95 407.78 763.57 765.61 917.67 440.95 321.09 393.32 1047.73 730.32 269.50 257.32 356.97 923.00 699.51 801.57 731.85 987.51 683.37 654.85 846.31 874.61 804.81 858.36 982.98 356.28 876.01 902.44 695.75 707.29 665.27 386.64 742.62 313.16 656.85 767.70 779.72 717.52 682.50 708.10 638.21 500.17 1052.30 725.06 363.34 463.84 1026.42 260.03 651.00 859.11 84.08 398.55 737.66 692.22 770.99 472.71 490.14 264.62 1068.62 329.68 677.32 620.59 981.44 707.72 693.64 420.65 40.53 915.63 699.81 189.57 714.19 684.56 815.68 948.77 592.66 629.55 742.89 954.68 933.99 425.59 275.28 382.31 769.43 670.13 703.92 946.82 584.65 904.88 423.09 329.67 932.90 635.63 946.30 574.37 684.96 263.17 964.41 251.76 786.60 541.85 917.35 775.14 784.53 645.50 915.38 912.54 648.69 412.65 655.19 727.38 803.73 1018.56 294.79 627.22 715.99 675.65 822.37 921.77 337.77 723.67 958.99 793.14 457.57 805.10 397.34 697.69 187.54 551.50 442.71 502.56 815.30 947.29 454.22 369.10 0.00 834.62 688.10 420.60 226.67 418.88 909.24 942.21 1004.78 165.39 942.82 223.97 644.19 631.61 953.35 1041.23 660.68 312.27 642.77 769.80 912.02 273.03 872.06 351.93 981.03 335.99 711.24 1014.58 1066.58
878.44 1087.67 775.67 864.66 557.62 645.06 205.71 500.71 519.88 914.85 790.83 108.55 571.22 816.91 625.66 920.23 270.72 389.07 939.05 667.00 792.81 396.71 622.77 104.48 102.77 248.89 239.46 731.38 430.99 259.11 384.71 767.38 209.89 1022.74 425.53 551.91 535.80 604.43 606.58 697.46 665.76 913.71 271.47 719.37 808.18 773.36 614.41 702.28 278.27 855.42 291.42 683.03 952.33 817.41 271.72 648.77 482.83 193.74 750.54 746.78 574.06 258.95 369.29 836.09 765.36 739.83 313.54 504.94 242.01 663.04 296.81 352.50 182.94 766.01 875.15 164.92 502.01 662.26 420.16 342.24 121.48 757.24 422.57 434.44 819.42 529.40 178.91 833.45 759.13 469.52 809.44 510.05 687.69 274.57 555.84 415.30 947.23 650.64 493.75 238.53 456.72 269.74 523.84 589.49 212.65 985.79 654.31 638.46 193.89 851.67 225.47 723.29 137.24 462.81 203.14 516.55 403.73 515.82 481.33 297.29 906.34 461.59 220.67 483.44 269.85 183.86 864.68 192.50 134.99 486.65 922.79 146.01 796.75 188.88 874.56 334.68 813.04 481.02 489.66 201.36 505.99 717.33 834.62 0.00 781.95 905.82 652.56 893.38 513.77 204.30 332.53 830.64 201.19 700.35 279.03 227.95 497.19 276.36 256.59 722.14 501.96 691.03 342.10 625.71 98.35 801.03 240.21 805.54 140.59 250.21 316.32
407.39 707.40 354.15 209.01 389.87 444.16 576.24 629.15 606.98 301.83 135.18 711.66 515.14 296.26 652.62 334.74 918.77 455.98 604.16 545.07 363.74 1097.33 276.61 732.19 761.09 848.48 635.36 148.29 585.82 944.12 1026.03 294.36 843.95 693.37 634.96 502.90 1104.13 240.07 284.79 463.12 155.55 393.73 594.59 144.91 1230.35 119.01 295.50 152.21 575.95 285.61 913.27 1127.28 395.60 272.72 887.39 487.36 416.55 657.26 667.24 938.11 243.53 616.37 586.12 258.15 218.44 701.01 867.76 673.36 705.31 319.76 922.49 896.29 637.27 342.46 670.69 708.75 452.29 535.83 941.15 942.13 855.07 364.63 850.02 412.19 178.54 638.07 794.96 965.15 814.84 563.32 177.37 381.32 139.92 1013.43 930.91 663.83 427.88 677.60 655.07 663.62 673.96 689.60 369.35 670.15 892.31 771.94 1237.04 353.41 730.56 207.68 890.32 221.68 830.42 618.46 681.62 830.09 555.14 1066.46 1108.26 959.61 393.31 418.25 791.22 429.98 531.40 782.74 371.84 618.34 789.46 541.04 321.64 829.47 353.46 746.15 594.28 706.77 303.97 430.69 1089.29 808.26 800.48 908.66 688.10 781.95 0.00 419.40 671.62 269.22 528.10 803.04 1045.65 664.10 803.79 568.92 714.91 687.83 627.70 880.06 598.42 851.83 989.03 165.72 621.05 510.42 880.30 359.29 841.86 375.23 641.36 829.13 939.71
808.69 288.00 224.86 585.36 509.33 813.36 788.31 887.83 493.63 129.69 553.12 797.27 810.40 212.43 594.94 86.13 1131.84 629.15 285.24 363.49 228.34 1153.51 507.44 896.73 940.82 1067.70 760.84 464.09 823.66 1034.48 1042.18 680.39 1051.87 354.83 873.13 808.40 1005.67 504.51 522.63 383.14 543.46 107.44 725.72 552.60 1116.25 526.76 497.14 517.34 744.36 215.78 1130.79 1019.64 65.89 235.97 1098.30 411.70 629.28 967.40 416.47 797.55 474.14 725.74 790.97 241.51 219.33 617.16 1087.89 564.51 839.00 395.35 1087.61 912.44 842.25 239.17 438.89 910.88 645.02 449.06 972.62 958.28 945.19 758.01 857.77 631.27 552.13 837.43 1023.29 801.45 674.28 543.99 578.67 599.61 547.03 1133.08 800.85 865.53 41.41 569.96 879.67 797.31 888.43 763.95 562.08 577.70 1078.15 363.19 1143.34 396.52 993.56 584.38 890.70 417.63 1043.06 807.93 810.37 659.39 697.63 1033.73 1128.85 1124.69 125.81 573.39 842.27 640.65 876.59 1035.51 135.85 795.60 1033.02 781.99 97.76 949.12 200.44 811.65 264.57 761.68 251.23 572.42 1125.22 1025.78 659.16 768.10 420.60 905.82 419.40 0.00 564.95 150.18 854.45 1016.11 1171.49 344.79 1048.57 330.14 838.03 803.57 888.80 1121.42 746.19 711.27 902.26 581.08 927.58 434.76 1004.17 235.36 1038.79 221.05 847.51 1085.29 1170.33
997.16 599.32 479.60 798.78 484.27 885.02 565.75 868.18 260.44 520.52 724.95 572.16 838.96 474.82 94.42 535.65 917.94 658.50 473.51 268.16 459.80 696.33 665.24 631.73 549.79 840.33 512.85 748.38 791.37 647.94 578.14 845.88 800.51 573.80 848.96 803.44 559.04 634.04 677.28 352.56 740.93 498.28 533.29 762.48 655.75 746.15 643.07 770.80 521.75 545.61 921.44 498.39 548.46 496.12 885.01 232.98 587.89 717.52 301.60 328.58 664.41 545.78 684.86 573.07 527.03 181.27 925.95 147.62 474.25 592.06 803.57 481.05 539.19 487.07 267.20 721.61 614.16 135.79 487.52 457.89 621.78 877.47 365.99 558.04 768.31 882.86 831.47 355.62 205.31 284.49 767.14 580.75 691.44 720.15 490.29 850.52 606.36 103.00 877.96 477.49 891.94 392.31 601.07 84.00 806.27 478.43 622.09 502.42 760.37 797.45 572.66 602.59 739.64 832.70 525.18 185.98 592.08 500.71 611.00 840.69 479.91 498.25 501.46 596.94 747.97 827.96 522.89 545.20 787.55 721.63 570.31 623.04 486.52 491.83 397.57 329.04 429.42 417.12 604.35 845.82 264.86 299.13 226.67 652.56 671.62 564.95 0.00 553.13 823.59 836.15 778.11 368.30 849.01 234.81 428.49 452.44 884.60 861.33 541.85 212.36 422.17 754.24 837.62 209.92 645.39 454.76 851.81 438.82 561.51 860.13 908.44
676.61 438.18 154.56 478.23 425.46 713.38 714.75 823.62 486.94 32.61 404.40 811.40 713.32 170.17 583.47 65.52 1045.14 640.78 334.94 363.53 181.21 1144.35 452.92 835.83 878.61 1010.90 678.52 417.51 749.39 1002.22 977.97 563.58 990.47 424.15 823.41 678.36 1085.38 368.47 485.40 283.92 424.77 124.51 643.40 414.13 1111.37 388.23 423.90 421.43 662.04 141.85 1087.57 1051.52 126.38 171.76 1055.58 388.93 573.06 888.16 452.74 793.86 398.84 688.51 663.25 114.39 182.10 653.43 1017.59 566.84 786.27 331.14 1070.20 848.23 737.01 182.42 459.41 846.67 602.76 468.21 956.07 894.07 924.36 633.85 838.62 532.20 447.76 792.32 959.08 844.47 694.16 508.85 446.59 542.76 409.14 1110.27 863.29 801.32 158.66 608.45 817.59 744.58 815.96 722.37 519.82 552.48 1017.25 502.72 1093.80 354.26 896.67 476.90 892.55 344.08 960.03 787.32 734.67 634.00 547.45 1052.88 1081.80 1104.70 124.09 531.13 760.71 578.31 770.96 971.30 102.62 756.85 955.57 708.53 52.42 937.57 118.12 741.35 325.06 754.99 124.77 530.16 1082.92 988.55 712.88 787.98 418.88 893.38 269.22 150.18 553.13 0.00 777.52 978.88 1113.71 395.14 975.71 396.88 742.90 741.36 843.69 1046.17 663.87 731.15 921.41 434.94 845.26 411.99 991.73 179.26 1011.66 179.47 774.28 1026.04 1100.79
512.79 1085.59 703.74 410.22 415.36 168.13 455.05 103.86 580.96 744.91 470.24 514.94 64.20 642.02 807.47 788.47 524.89 227.35 901.14 744.08 673.02 893.45 357.97 415.48 616.54 557.38 473.52 473.38 88.97 740.24 844.40 298.27 547.72 1045.79 188.13 107.57 967.84 417.46 376.93 590.69 406.83 793.92 456.53 424.90 1213.24 515.78 375.35 450.85 446.49 719.88 578.41 1082.54 790.61 649.41 563.86 659.27 258.24 444.24 825.16 1000.43 426.26 392.48 209.50 729.35 680.23 939.94 580.28 675.97 538.45 490.03 635.01 738.95 508.99 658.48 894.75 421.27 209.43 723.34 818.40 784.79 581.17 286.69 807.05 335.93 444.04 120.04 479.42 1119.50 969.69 595.34 428.05 298.06 390.44 761.98 926.12 194.10 878.85 832.28 129.78 501.73 218.69 616.06 292.37 795.83 596.90 1084.95 1119.70 457.93 455.64 450.97 689.37 511.30 533.47 162.31 491.43 733.23 325.30 943.71 968.32 657.07 801.21 360.78 641.75 282.89 243.92 491.64 792.75 462.34 502.35 119.77 767.65 618.92 713.73 558.51 809.06 681.00 687.42 483.34 949.35 517.16 812.11 1029.88 909.24 513.77 528.10 854.45 823.59 777.52 0.00 512.08 773.05 890.69 510.51 740.83 620.01 476.68 121.22 565.28 440.87 1006.68 922.05 362.38 260.87 636.21 612.12 679.99 532.95 694.00 450.95 474.18 613.62
880.37 1197.16 850.22 855.20 582.71 646.91 314.93 408.22 659.39 946.27 820.86 312.85 524.93 843.52 808.09 959.47 115.73 483.68 1012.50 745.19 868.41 530.56 656.74 228.85 307.07 66.42 371.41 817.67 458.67 377.35 546.58 759.00 67.42 1130.33 378.32 553.84 695.40 701.26 622.50 811.02 732.21 960.61 354.42 776.85 963.52 874.04 645.83 776.23 344.38 886.84 114.68 844.90 1010.79 819.98 88.80 692.24 528.58 145.78 858.13 924.28 724.58 290.37 353.05 899.93 796.78 901.70 166.77 704.22 370.43 734.79 207.04 500.21 324.11 799.50 982.74 145.07 518.72 793.02 582.03 504.11 283.35 700.83 599.37 495.97 863.25 465.84 32.66 967.39 949.70 609.03 863.05 590.55 781.70 363.69 717.71 349.45 1036.20 833.07 399.99 390.49 324.28 474.04 595.78 752.15 128.84 1138.82 809.65 710.02 104.10 828.63 369.21 792.82 120.75 404.78 356.20 691.30 435.15 637.07 570.05 202.35 944.33 538.25 397.47 553.23 271.78 20.44 936.40 338.08 69.31 488.58 996.06 280.61 879.70 368.56 978.20 531.35 857.15 598.25 577.21 9.67 710.29 894.83 942.21 204.30 803.04 1016.11 836.15 978.88 512.08 0.00 380.81 968.46 32.46 773.80 468.11 395.96 429.80 112.99 339.61 912.71 663.83 776.66 298.87 669.18 241.14 872.04 38.82 866.15 305.03 111.33 161.89
1195.11 1219.53 1027.45 1123.84 775.89 923.33 469.41 716.08 741.22 1119.52 1071.66 393.77 830.32 1003.91 812.01 1112.77 435.98 704.23 1080.05 874.70 1044.59 211.71 872.30 398.47 284.56 337.05 497.87 1023.97 724.98 137.01 273.44 1057.08 383.87 1152.70 631.81 849.08 462.88 897.02 838.06 879.25 983.88 1116.63 470.31 1012.25 764.70 1079.58 841.59 975.67 488.95 1062.39 402.58 626.73 1166.81 980.37 359.34 870.11 777.04 467.52 932.33 928.57 906.59 531.98 651.51 1034.93 1024.47 839.54 503.40 686.73 430.74 899.59 214.61 303.90 446.52 1009.48 1045.31 437.33 736.48 835.57 411.74 349.74 279.67 981.42 465.54 652.71 1074.11 653.01 382.01 799.19 832.02 690.86 1064.94 764.61 941.21 57.96 571.94 660.68 1205.91 797.30 722.53 463.18 671.98 515.25 819.42 807.43 307.82 1167.58 610.83 844.51 394.22 1117.32 280.79 968.98 374.18 697.01 424.48 649.80 652.01 404.55 397.36 195.24 1100.20 682.11 402.46 761.30 602.38 384.19 1057.22 499.46 335.32 741.07 1086.81 241.92 995.59 440.66 1094.06 493.42 1034.38 709.06 378.39 380.84 570.92 899.12 1004.78 332.53 1045.65 1171.49 778.11 1113.71 773.05 380.81 0.00 1012.43 380.16 841.35 488.14 438.99 704.38 287.03 490.78 869.01 468.12 978.24 588.99 847.05 293.91 1048.90 341.99 1041.49 473.12 447.67 306.62
929.55 257.03 376.28 831.09 475.96 931.37 761.34 903.32 405.11 375.43 763.95 791.80 854.25 394.56 322.60 369.58 1084.19 707.72 111.26 334.83 326.15 971.59 656.79 849.92 727.87 1013.76 690.93 713.27 840.66 951.00 886.05 787.57 1009.23 304.49 883.80 897.62 861.14 664.54 689.79 412.89 625.50 289.42 705.41 679.11 850.37 760.16 609.11 669.52 699.83 476.43 1078.55 747.30 280.31 391.38 1052.67 322.34 653.46 879.03 110.33 563.94 687.15 753.84 797.24 448.97 445.66 311.02 1094.87 325.70 701.26 550.76 981.65 791.02 717.41 389.83 124.86 935.55 681.89 276.14 749.89 811.14 817.67 889.98 628.36 599.14 797.82 866.76 960.24 590.98 440.67 440.64 806.14 593.26 673.10 985.08 671.22 890.45 303.38 297.62 904.58 693.96 899.10 570.39 624.59 359.78 1009.27 336.09 871.00 568.10 952.33 801.57 811.49 573.04 961.52 818.60 707.02 478.43 681.44 860.81 888.06 1000.76 271.05 668.34 712.01 628.81 896.85 948.02 314.03 772.66 965.63 770.92 406.05 801.12 366.52 754.39 81.63 635.33 423.62 542.38 907.03 973.54 540.21 534.49 165.39 830.64 664.10 344.79 368.30 395.14 890.69 968.46 1012.43 0.00 969.07 324.98 640.21 719.01 918.13 1039.41 722.30 477.66 729.34 669.95 945.94 299.28 881.13 321.11 1007.28 305.17 769.57 1038.35 1099.06
880.98 1197.77 850.83 855.81 550.25 646.59 347.39 408.83 647.23 959.74 821.47 309.74 528.30 844.13 806.10 976.71 148.19 484.29 1013.11 745.80 880.64 540.88 657.35 226.86 303.96 71.37 391.83 814.10 447.72 387.67 557.88 762.37 82.26 1130.94 354.62 554.45 697.37 717.29 623.11 778.56 726.33 986.28 375.36 776.78 964.13 876.77 661.86 770.35 376.84 918.53 144.43 850.71 1029.23 820.59 116.05 692.85 529.19 171.52 858.74 939.59 725.19 322.83 353.66 932.39 829.24 913.00 134.31 706.13 384.34 731.13 207.65 515.05 325.22 831.96 983.35 145.68 519.33 789.61 581.12 515.41 294.65 700.26 599.98 463.51 863.86 442.14 33.27 986.62 943.16 596.87 863.66 587.44 775.82 364.30 729.01 325.75 1065.64 831.08 390.53 391.60 291.82 470.93 596.39 765.01 158.31 1132.94 810.26 677.56 98.22 858.38 384.52 790.64 136.06 372.32 368.19 715.99 447.44 651.91 596.79 184.92 968.73 542.33 398.08 553.84 272.39 21.05 939.84 326.02 66.20 487.91 985.18 281.22 859.14 378.50 999.14 535.87 887.29 610.92 577.82 39.42 707.18 910.14 942.82 201.19 803.79 1048.57 849.01 975.71 510.51 32.46 380.16 969.07 0.00 774.41 468.72 396.57 402.27 125.09 354.89 906.17 675.13 770.78 278.66 669.79 226.91 882.70 70.11 866.76 305.64 78.87 167.80
900.20 456.48 273.45 737.94 372.53 733.60 512.15 781.81 210.45 364.27 669.61 619.26 749.26 292.89 264.80 382.25 869.26 574.78 238.70 33.35 266.17 823.37 511.95 650.59 630.03 819.10 517.26 603.13 723.11 704.34 725.35 719.94 814.18 431.93 697.54 734.03 734.31 483.32 546.19 219.28 596.15 302.09 498.36 639.76 792.57 612.87 473.30 620.08 491.61 390.64 883.89 689.50 352.27 316.43 858.01 81.56 482.59 700.15 214.65 550.29 513.69 523.88 602.58 418.10 370.71 363.70 880.51 234.37 531.13 422.29 757.47 668.02 544.87 295.42 264.50 727.58 531.40 118.92 643.79 640.53 678.21 772.40 537.03 471.50 691.17 773.56 745.88 577.33 427.02 236.12 696.65 489.83 583.47 834.64 470.71 726.41 371.55 239.82 806.26 489.44 767.83 479.06 498.21 247.56 802.18 475.73 813.20 332.65 770.75 723.42 560.56 498.09 769.19 744.13 502.50 329.25 486.78 703.59 798.71 794.59 283.72 505.72 512.13 507.24 710.29 753.36 326.70 507.85 735.02 668.55 414.06 682.35 309.89 576.19 330.78 478.50 274.45 324.09 797.59 778.88 383.57 520.84 223.97 700.35 568.92 330.14 234.81 396.88 740.83 773.80 841.35 324.98 774.41 0.00 548.88 514.49 803.39 872.82 514.08 413.45 572.12 603.52 751.28 104.62 762.36 251.81 812.62 261.35 559.76 832.35 882.58
974.19 897.24 664.02 861.41 527.16 783.08 258.34 619.11 367.50 739.67 809.23 233.89 684.21 644.21 346.63 783.23 549.75 501.29 751.47 553.79 639.45 438.15 621.65 268.08 204.79 490.52 208.59 761.72 531.04 351.13 313.98 798.66 454.60 832.31 563.55 689.93 389.22 647.65 587.41 561.59 728.27 730.59 221.58 742.38 671.16 817.15 600.77 726.94 240.22 734.32 566.78 552.59 780.77 667.75 523.54 496.39 514.11 357.34 560.11 543.01 650.11 285.63 434.67 761.78 676.34 500.14 548.82 314.51 206.44 549.76 421.92 184.24 240.84 604.91 636.14 413.86 562.92 461.38 226.24 230.08 260.45 787.60 242.70 403.98 849.76 640.98 451.70 614.52 508.85 361.39 824.12 490.88 678.78 436.45 361.09 550.45 836.78 371.61 594.18 191.34 591.87 75.57 568.03 395.32 382.50 847.37 531.82 460.12 396.72 821.82 218.73 647.84 401.37 566.50 231.32 281.32 403.28 351.55 437.90 459.04 712.22 476.24 86.89 489.46 407.87 447.67 731.41 245.13 414.02 570.87 788.26 263.75 675.23 153.56 701.83 99.45 618.13 284.22 418.93 473.19 315.27 513.56 644.19 279.03 714.91 838.03 428.49 742.90 620.01 468.11 488.14 640.21 468.72 548.88 0.00 216.39 638.08 518.11 242.05 545.84 335.96 737.42 497.52 473.33 343.76 634.41 483.52 618.47 193.22 509.79 494.38
828.44 949.34 659.68 725.93 390.40 632.06 113.31 475.78 328.73 752.58 697.51 155.03 537.65 637.00 481.62 749.37 493.70 330.51 753.19 529.23 638.77 455.19 475.90 180.89 203.67 387.89 62.84 653.20 387.71 301.98 418.62 632.37 367.41 882.51 453.64 538.91 498.22 529.42 441.66 534.77 589.38 745.49 109.88 596.63 786.64 712.23 473.99 599.95 111.88 701.96 475.81 662.07 737.68 641.40 432.57 444.42 347.82 265.08 610.31 711.76 504.36 128.56 307.33 674.50 634.97 576.30 473.51 395.16 61.77 531.06 428.47 333.72 86.75 603.31 672.14 309.13 396.63 458.24 341.72 360.56 288.34 641.85 351.92 275.64 707.67 495.42 387.74 676.40 615.89 278.37 681.13 345.13 617.99 434.55 552.96 426.28 795.71 482.32 474.30 25.05 449.93 150.47 401.74 368.44 353.83 840.55 650.08 484.08 309.53 685.18 212.69 558.37 339.43 400.21 72.74 397.28 250.64 467.03 531.36 465.59 732.83 346.18 169.15 323.17 297.96 375.52 716.91 120.96 362.94 413.80 749.28 250.59 623.24 100.08 682.01 215.41 660.96 323.96 512.39 401.04 348.94 707.00 631.61 227.95 687.83 803.57 452.44 741.36 476.68 395.96 438.99 719.01 396.57 514.49 216.39 0.00 494.75 424.92 89.41 629.25 451.44 607.97 387.61 421.36 326.30 624.41 413.60 638.58 123.30 407.69 456.00
634.01 1086.28 764.06 528.50 458.99 264.39 423.75 21.58 624.16 812.59 550.61 477.44 182.48 676.37 850.67 825.90 442.61 275.73 944.34 806.64 760.30 854.53 442.31 433.55 560.87 454.17 471.24 551.77 107.04 701.32 881.23 416.55 465.44 1088.99 105.85 171.24 941.46 475.22 408.07 647.49 518.59 837.52 420.10 538.25 1190.02 590.50 437.83 498.52 426.90 777.64 496.13 1082.24 838.99 673.44 481.58 721.83 360.10 371.06 892.07 1043.63 445.91 410.55 227.57 797.39 711.37 988.32 467.47 736.98 483.28 581.92 583.41 757.02 474.33 732.97 912.82 357.37 330.65 766.54 798.13 790.10 618.67 376.57 773.43 384.31 558.33 51.37 397.14 1132.81 1012.89 654.88 546.33 402.43 487.78 679.70 915.51 113.76 913.20 863.06 47.50 481.46 110.45 614.15 413.59 828.43 528.76 1124.05 1093.32 492.28 384.73 569.25 690.10 588.54 486.30 106.30 494.06 776.43 320.96 923.44 947.59 574.79 855.26 391.51 628.28 356.03 259.21 409.36 818.66 419.08 443.63 162.97 851.99 629.29 767.88 536.41 852.26 679.09 721.77 531.72 947.60 434.88 805.35 1073.08 953.35 497.19 627.70 888.80 884.60 843.69 121.22 429.80 704.38 918.13 402.27 803.39 638.08 494.75 0.00 483.00 440.57 1040.47 854.82 483.60 189.96 703.12 584.08 745.94 468.62 761.88 469.02 365.94 542.65
979.39 1296.18 949.24 919.36 675.34 689.27 427.92 461.42 710.34 1032.01 916.06 370.63 573.34 916.40 855.40 1048.98 148.95 556.56 1111.52 844.21 981.40 498.74 755.76 276.16 379.13 53.72 443.11 865.38 516.17 407.03 560.47 807.41 115.93 1229.35 445.17 596.12 733.55 805.28 721.52 903.65 777.61 1073.60 426.64 828.06 997.57 928.05 758.82 821.63 428.64 999.83 115.55 873.87 1101.50 892.86 72.31 791.26 627.60 222.80 957.15 999.39 774.91 403.36 452.07 991.26 909.77 961.46 216.37 713.71 397.90 846.60 128.91 505.52 401.13 912.49 1081.76 217.95 591.60 852.72 595.64 551.36 343.11 777.22 633.12 563.71 946.77 515.99 131.68 920.82 965.90 659.98 937.19 679.36 827.10 285.56 747.18 444.18 1080.01 870.02 435.50 439.59 416.91 528.77 674.54 793.36 161.98 1184.22 846.44 800.84 149.50 910.84 418.58 890.84 206.30 471.74 429.54 767.27 498.72 681.22 595.03 91.79 1057.32 642.53 431.22 650.93 370.80 119.46 1038.25 415.10 168.33 565.89 1077.96 329.66 951.92 424.61 1050.42 587.40 959.56 658.92 614.00 121.48 763.48 980.38 1041.23 276.36 880.06 1121.42 861.33 1046.17 565.28 112.99 287.03 1039.41 125.09 872.82 518.11 424.92 483.00 0.00 406.17 928.91 705.36 822.06 344.27 768.20 249.65 981.11 82.63 965.17 366.99 177.43 59.65
757.26 912.05 582.19 672.52 309.41 542.65 50.88 418.99 337.48 675.09 634.40 186.30 448.24 578.76 556.45 694.97 454.41 260.39 736.33 480.73 612.87 544.60 405.82 196.26 235.73 406.03 36.94 566.96 351.90 391.39 488.86 574.34 379.51 880.98 378.25 449.50 553.91 440.01 371.58 532.15 510.06 673.71 20.47 533.52 822.76 629.63 384.58 525.83 22.47 612.55 423.70 641.67 723.89 602.30 428.41 466.37 334.99 224.29 632.26 709.45 470.38 49.24 231.37 585.09 555.65 631.99 485.63 396.60 122.43 484.31 446.17 411.58 111.91 558.37 701.21 280.81 356.37 471.11 397.41 423.49 329.71 615.95 366.18 186.23 634.47 460.64 351.00 732.09 694.04 287.12 607.93 319.23 540.16 488.07 601.48 349.38 768.00 552.91 393.07 80.74 390.80 234.10 370.20 457.85 377.68 849.30 705.77 394.67 256.67 663.48 302.10 513.36 372.51 399.41 110.33 381.59 161.23 522.72 587.05 483.29 655.34 265.05 232.08 343.08 269.67 340.33 639.42 92.98 304.31 334.48 671.79 304.11 545.75 175.56 644.25 299.04 602.85 261.45 568.08 349.28 404.63 738.90 660.68 256.59 598.42 746.19 541.85 663.87 440.87 339.61 490.78 722.30 354.89 514.08 242.05 89.41 440.57 406.17 0.00 666.84 507.13 521.23 359.32 443.31 354.94 598.51 378.43 607.10 116.00 386.04 465.82
1198.45 666.53 609.63 1002.93 693.14 1043.09 661.89 1030.37 443.00 720.05 937.31 613.59 1019.56 668.88 199.21 705.59 992.62 836.26 489.50 446.80 594.22 739.51 809.67 709.89 744.76 875.19 629.90 908.52 942.30 750.07 595.57 1013.03 866.21 641.50 959.70 1012.55 581.38 781.57 831.92 558.34 894.40 625.43 678.13 948.01 541.43 951.08 761.99 918.33 689.31 730.36 963.11 550.70 645.38 692.42 919.87 445.34 800.25 766.93 396.35 160.26 811.94 670.94 821.77 743.45 640.30 200.77 1023.24 342.59 629.61 780.90 897.70 583.18 601.46 652.83 352.80 822.41 809.13 348.15 517.81 567.81 722.84 1055.29 538.49 729.20 980.67 989.10 900.10 187.30 36.99 493.36 979.50 758.57 881.72 888.13 375.14 936.81 735.36 186.28 1008.59 605.88 978.23 565.33 747.36 293.11 790.16 564.03 558.86 709.28 838.53 962.18 704.48 811.70 823.20 981.04 556.51 318.52 804.44 539.56 618.37 878.20 607.06 710.61 632.73 805.81 804.02 903.65 650.04 631.49 857.13 886.91 767.04 759.27 641.00 663.18 446.70 500.39 641.78 603.03 599.40 910.73 326.40 130.81 312.27 722.14 851.83 711.27 212.36 731.15 1006.68 912.71 869.01 477.66 906.17 413.45 545.84 629.25 1040.47 928.91 666.84 0.00 408.09 898.64 893.67 422.28 679.26 579.86 904.10 595.80 619.06 922.40 902.04
1210.75 958.04 839.64 1072.41 709.30 1049.78 514.65 833.24 534.05 910.31 1033.85 472.38 955.37 852.74 516.59 895.85 769.87 694.70 810.82 595.45 811.09 331.42 805.71 571.84 433.84 659.86 500.71 966.85 838.38 363.19 237.25 1028.69 607.66 891.21 858.57 956.63 189.80 839.90 771.47 740.14 926.76 815.69 527.57 974.44 335.20 959.14 784.47 970.78 529.60 899.99 747.78 307.06 865.87 841.51 704.54 580.65 744.14 655.91 619.01 541.52 870.27 556.37 733.62 913.08 809.93 603.44 781.34 456.07 415.14 838.28 647.59 205.56 485.46 828.54 683.30 599.39 751.78 453.20 109.72 159.72 380.48 1041.92 153.41 586.12 1034.36 891.79 646.71 505.16 445.08 551.28 1007.82 745.20 903.40 490.94 149.52 829.70 925.62 503.08 850.31 426.39 871.12 347.14 781.65 471.58 611.70 894.53 310.68 748.64 635.46 1063.37 332.85 913.25 543.08 796.58 475.76 444.38 668.36 131.47 241.76 619.29 797.32 664.94 350.17 724.51 709.36 657.80 840.30 524.38 608.93 841.61 960.10 418.23 851.46 459.45 785.15 296.66 836.55 572.74 225.47 654.16 365.50 512.07 642.77 501.96 989.03 902.26 422.17 921.41 922.05 663.83 468.12 729.34 675.13 572.12 335.96 451.44 854.82 705.36 507.13 408.09 0.00 921.12 776.57 603.71 463.93 806.05 674.58 790.11 525.31 724.15 645.71
348.50 865.35 431.45 201.80 315.83 278.44 554.68 466.24 525.69 467.55 163.40 649.24 349.42 398.45 702.56 500.46 791.91 353.71 715.45 570.17 432.23 1023.29 181.38 663.88 739.24 798.55 558.17 116.99 451.35 870.08 964.69 145.05 802.64 855.05 469.24 371.59 1056.09 120.20 215.62 432.51 44.45 522.97 517.40 62.52 1256.32 153.40 136.65 88.47 498.76 404.47 845.43 1120.68 530.41 374.91 843.23 568.88 273.43 690.84 735.07 988.05 116.97 492.11 457.50 377.01 384.16 856.07 859.33 638.51 624.61 225.85 834.13 834.95 574.85 444.70 729.27 634.32 287.32 621.53 899.59 880.79 797.16 258.67 815.87 335.00 163.75 482.42 746.73 1015.09 864.78 479.95 137.21 286.20 65.88 920.28 992.75 498.11 577.11 727.54 492.16 582.92 539.53 717.03 206.23 670.24 726.59 884.10 1159.85 277.30 672.56 192.76 820.66 201.11 796.21 507.72 570.52 747.10 415.20 1024.90 1088.61 869.65 504.60 296.20 728.80 284.80 530.23 756.22 488.68 561.97 731.46 418.87 483.32 779.45 395.01 677.74 657.35 688.61 413.34 453.20 1069.64 781.74 787.03 958.60 769.80 691.03 165.72 581.08 754.24 434.94 362.38 776.66 978.24 669.95 770.78 603.52 737.42 607.97 483.60 822.06 521.23 898.64 921.12 0.00 570.14 569.80 789.38 417.87 799.31 433.81 589.48 795.02 838.47
698.24 1174.64 763.58 643.29 510.54 392.87 376.60 168.38 582.79 852.74 627.48 381.54 314.97 737.13 826.58 849.27 401.14 308.42 989.98 754.53 759.41 664.57 469.32 282.08 444.87 337.21 324.77 614.02 171.90 511.36 725.45 548.27 339.64 1107.81 100.90 339.93 841.49 551.04 472.93 711.97 593.72 855.10 355.14 594.72 1077.76 676.69 495.61 633.14 336.85 816.49 354.02 1000.99 871.68 713.59 310.78 669.72 346.45 192.82 835.61 1022.79 522.45 322.22 197.36 837.54 767.87 923.87 412.97 690.00 396.36 554.21 428.38 663.53 336.93 779.05 952.55 177.18 367.54 722.45 689.29 682.29 462.22 510.74 686.51 387.36 665.74 214.09 289.59 1023.97 930.66 601.50 669.67 441.70 636.02 556.55 858.61 99.91 924.83 832.85 151.65 372.62 141.33 499.53 413.65 756.05 368.52 1163.68 993.35 563.66 194.77 684.04 539.50 610.69 325.87 127.47 337.16 694.93 313.16 783.16 813.09 435.87 836.73 386.79 490.88 371.10 89.65 278.43 820.81 341.03 253.67 221.62 853.18 453.89 727.14 435.60 910.91 564.47 780.29 534.77 830.40 303.95 696.51 1011.08 912.02 342.10 621.05 927.58 837.62 845.26 260.87 298.87 588.99 945.94 278.66 751.28 497.52 387.61 189.96 344.27 359.32 893.67 776.57 570.14 0.00 646.66 440.45 745.05 337.69 760.10 311.48 324.14 402.75
879.49 527.98 303.63 677.23 284.48 675.10 483.05 681.54 105.83 402.10 645.60 539.49 644.64 337.48 304.34 401.01 784.91 471.73 343.32 107.87 253.50 766.36 471.80 575.95 581.90 714.48 412.64 606.98 618.49 723.34 656.16 662.52 709.95 461.15 639.04 629.41 730.49 480.03 498.31 238.23 575.44 352.04 439.48 599.61 807.03 629.43 433.15 582.14 420.84 424.58 779.27 685.87 395.41 335.75 753.39 23.06 377.97 632.99 188.95 502.44 485.64 474.85 497.96 417.07 390.03 389.64 795.59 179.73 451.20 382.14 803.81 563.40 467.52 317.18 313.56 689.51 426.78 150.51 603.92 535.91 666.62 698.50 482.39 390.51 683.04 694.05 660.96 496.11 415.23 156.19 656.50 401.78 534.43 823.98 485.96 667.91 450.83 312.92 705.08 409.51 709.33 422.84 433.11 202.35 738.29 524.79 809.57 292.50 668.95 710.54 631.44 480.22 689.26 639.51 422.57 338.53 382.16 710.63 740.21 840.93 339.73 401.10 546.30 402.62 605.67 648.74 345.46 482.11 697.61 567.02 419.91 640.02 293.87 471.57 380.91 373.88 348.97 243.10 756.40 674.26 394.24 509.05 273.03 625.71 510.42 434.76 209.92 411.99 636.21 669.18 847.05 299.28 669.79 104.62 473.33 421.36 703.12 768.20 443.31 422.28 603.71 569.80 646.66 0.00 715.70 248.46 708.00 232.52 485.12 747.43 827.85
976.79 1138.16 872.11 927.14 655.97 743.41 304.06 562.50 609.87 1013.20 889.18 206.90 669.57 905.42 690.39 1016.67 313.36 487.42 992.39 735.65 889.25 313.97 721.12 202.83 153.26 195.93 337.81 829.73 529.34 160.76 339.66 865.73 204.82 1073.23 523.88 650.26 517.19 702.78 704.93 733.66 764.11 1010.15 369.82 817.72 799.13 871.71 712.76 800.63 376.62 930.01 283.85 649.50 1050.68 897.06 240.61 738.76 581.18 292.09 801.03 797.27 672.41 357.30 467.64 902.55 863.71 736.11 361.22 555.43 268.83 737.68 236.06 327.65 281.29 863.89 912.59 263.27 600.36 718.49 354.21 322.53 117.76 855.59 458.77 532.79 917.77 549.98 253.26 785.41 716.25 559.51 907.79 608.40 786.04 235.95 552.12 502.91 1045.58 711.74 536.58 310.52 518.73 365.04 622.19 684.79 177.75 1036.28 665.85 723.05 292.24 950.02 201.80 807.07 218.94 561.16 293.13 574.07 502.08 470.77 463.58 198.94 1004.10 559.94 256.87 581.79 368.20 241.04 961.12 290.85 233.34 579.16 1021.14 80.01 895.10 285.32 962.76 392.20 892.81 547.15 444.61 231.47 594.67 767.82 872.06 98.35 880.30 1004.17 645.39 991.73 612.12 241.14 293.91 881.13 226.91 762.36 343.76 326.30 584.08 249.65 354.94 679.26 463.93 789.38 440.45 715.70 0.00 899.38 224.84 901.98 238.94 305.78 289.63
705.53 478.06 64.49 534.62 344.75 696.31 631.98 728.42 307.68 158.39 465.74 698.62 688.42 89.02 488.96 184.43 987.77 515.51 331.56 218.46 14.36 968.21 421.41 751.27 772.87 927.39 561.57 434.93 674.81 921.94 869.19 506.43 922.86 476.21 644.15 673.19 965.74 399.70 451.88 185.08 401.48 127.92 586.42 423.03 1009.37 478.30 373.73 445.50 603.68 176.12 986.72 934.33 178.10 112.56 960.84 225.40 421.75 822.80 341.75 630.33 408.33 581.67 631.25 184.34 148.58 542.44 927.52 411.40 653.05 271.94 990.61 765.25 660.79 72.97 311.40 787.47 470.56 352.85 807.45 784.37 806.12 642.75 685.92 450.88 509.10 694.57 873.87 744.57 616.85 358.04 507.93 456.75 351.99 1007.56 722.52 673.02 219.29 491.63 752.87 611.36 714.44 558.84 419.22 431.94 927.77 515.37 994.96 253.66 849.49 512.34 778.16 294.22 866.10 683.29 624.42 514.36 592.48 932.76 942.55 1014.63 123.15 414.68 661.87 446.40 678.55 861.65 128.88 651.53 902.82 637.35 187.18 823.60 61.14 618.29 239.48 575.73 108.92 429.56 958.25 881.71 593.24 659.78 351.93 801.03 359.29 235.36 454.76 179.26 679.99 872.04 1048.90 321.11 882.70 251.81 634.41 624.41 745.94 981.11 598.51 579.86 806.05 417.87 745.05 248.46 899.38 0.00 910.86 15.94 660.44 941.22 1026.26
919.19 1235.98 889.04 868.96 620.36 628.05 353.75 447.04 669.59 979.05 859.68 348.76 554.11 863.44 830.15 996.02 95.29 503.60 1051.32 784.01 907.23 526.04 695.56 251.35 342.98 28.91 389.17 844.20 443.98 372.83 557.33 788.18 66.92 1169.15 407.50 571.31 656.92 728.51 661.32 848.67 771.03 999.43 393.24 815.67 962.65 906.87 684.65 815.05 383.20 925.66 102.75 820.77 1048.54 839.90 59.51 731.06 567.40 184.60 896.95 953.46 750.10 329.19 391.87 938.75 835.60 912.45 162.71 743.04 400.47 763.97 192.34 499.71 357.03 838.32 1021.56 164.99 538.64 811.97 579.05 514.86 294.10 739.65 568.46 533.62 902.07 495.02 71.48 993.23 941.09 619.23 883.76 626.40 820.52 348.99 728.46 378.63 997.38 855.13 438.81 390.48 361.17 509.95 621.58 782.04 124.32 1177.64 808.78 747.67 142.92 828.21 398.39 831.64 149.93 441.67 352.85 720.26 473.97 598.59 599.91 172.97 983.15 577.07 436.29 592.05 310.60 59.26 975.22 342.21 105.22 513.72 1028.84 304.85 918.52 375.60 1017.02 538.39 895.97 576.29 616.03 38.85 714.37 924.01 981.03 240.21 841.86 1038.79 851.81 1011.66 532.95 38.82 341.99 1007.28 70.11 812.62 483.52 413.60 468.62 82.63 378.43 904.10 674.58 799.31 337.69 708.00 224.84 910.86 0.00 904.97 290.30 105.68 142.28
715.96 462.12 71.11 537.15 351.37 712.25 647.92 744.36 309.85 169.58 481.68 696.99 679.60 104.96 498.50 168.49 981.88 529.52 315.62 228.00 20.98 969.55 437.35 761.53 756.93 911.45 577.51 447.13 688.82 920.31 853.25 522.37 906.92 460.27 660.09 687.20 954.49 414.99 467.82 201.02 411.91 119.52 586.63 438.97 993.43 494.24 389.67 455.93 587.74 192.06 976.24 918.39 162.89 127.85 950.36 209.46 435.76 815.42 348.37 614.39 423.62 593.79 645.26 184.55 164.52 549.06 934.14 395.46 655.22 287.23 1006.55 767.42 671.54 84.66 295.46 802.76 484.57 336.91 791.51 768.43 790.18 658.69 669.98 466.82 525.04 710.51 857.93 728.63 611.27 360.21 523.87 468.67 367.93 1005.93 718.48 688.96 218.31 501.17 768.81 613.53 730.38 542.90 435.16 416.00 934.39 499.43 994.37 269.60 861.61 496.40 776.53 309.51 864.47 697.30 626.59 523.90 599.10 916.82 926.61 1006.97 107.21 421.30 677.81 437.58 670.45 845.71 112.94 663.65 894.58 630.64 187.39 821.97 61.35 616.66 223.54 577.90 118.45 445.50 945.58 871.23 601.56 643.84 335.99 805.54 375.23 221.05 438.82 179.47 694.00 866.15 1041.49 305.17 866.76 261.35 618.47 638.58 761.88 965.17 607.10 595.80 790.11 433.81 760.10 232.52 901.98 15.94 904.97 0.00 676.38 944.40 1024.82
809.29 1010.50 684.53 724.07 425.41 619.08 65.12 450.05 379.29 777.67 650.24 141.12 501.36 687.56 539.85 804.44 385.59 338.48 798.46 526.41 674.80 537.30 502.05 90.83 218.15 313.27 98.87 659.61 361.98 399.70 478.51 646.87 277.35 946.27 386.10 544.73 568.35 532.66 467.81 585.33 582.59 784.12 130.88 632.66 860.51 632.77 477.23 626.61 138.47 718.24 393.05 732.20 834.30 676.82 349.81 508.18 372.75 180.09 674.07 736.23 540.39 121.77 241.45 695.50 628.18 651.43 431.44 458.44 110.17 564.30 330.17 364.50 66.73 625.42 738.40 236.61 399.08 521.67 416.85 410.34 215.28 676.22 395.89 302.23 693.60 470.72 296.81 751.53 656.05 328.93 685.38 381.16 615.20 415.16 554.31 357.23 831.74 564.83 448.57 100.18 398.65 224.92 383.25 491.74 272.25 891.11 720.21 505.08 219.47 722.74 282.06 594.40 277.83 409.49 62.55 468.78 266.55 542.16 572.01 367.29 765.75 336.87 220.68 397.40 310.06 284.59 749.83 51.91 275.58 401.22 782.20 237.59 656.16 124.12 733.97 286.91 672.45 340.43 583.46 310.11 424.07 706.78 711.24 140.59 641.36 847.51 561.51 774.28 450.95 305.03 473.12 769.57 305.64 559.76 193.22 123.30 469.02 366.99 116.00 619.06 525.31 589.48 311.48 485.12 238.94 660.44 290.30 676.38 0.00 348.84 380.21
832.57 1256.59 927.79 837.99 629.12 613.95 381.97 380.12 682.63 1010.77 847.24 330.69 491.97 895.16 837.25 1027.74 125.57 535.32 1071.05 799.00 937.59 598.90 677.84 258.01 352.98 123.71 420.16 738.52 418.88 466.54 606.90 726.04 146.31 1189.76 325.78 535.34 757.99 759.12 695.13 857.43 757.48 1031.88 406.51 784.54 1041.77 801.19 703.69 791.77 408.51 956.02 173.54 905.22 1080.26 871.62 165.19 770.49 554.53 197.68 936.38 979.26 746.13 359.55 398.06 969.11 865.96 938.57 122.25 712.65 391.26 713.57 272.74 579.10 320.94 868.68 1045.00 196.71 541.27 825.01 642.35 564.43 343.67 707.74 612.36 542.38 826.56 413.30 86.47 986.82 959.39 632.27 853.10 629.90 806.97 429.39 778.03 296.91 1103.06 862.23 354.20 387.32 255.49 519.95 621.73 776.13 218.09 1164.09 887.90 756.43 129.37 858.81 430.24 804.78 181.78 335.99 365.89 747.14 478.59 704.27 674.43 263.79 1013.51 599.59 451.28 579.18 297.73 98.69 994.48 358.51 115.22 459.07 1057.83 358.86 931.79 411.02 1030.29 573.81 926.33 645.69 655.46 112.35 711.21 955.86 1014.58 250.21 829.13 1085.29 860.13 1026.04 474.18 111.33 447.67 1038.35 78.87 832.35 509.79 407.69 365.94 177.43 386.04 922.40 724.15 795.02 324.14 747.43 305.78 941.22 105.68 944.40 348.84 0.00 177.61
1010.18 1253.59 975.16 979.01 718.05 748.92 416.83 521.07 734.63 1091.66 975.71 388.84 632.99 976.05 841.01 1108.63 146.48 616.21 1121.28 849.23 1022.63 513.60 795.48 289.38 393.28 113.37 479.08 916.13 524.65 360.39 580.06 867.06 175.58 1239.37 502.51 655.77 698.97 845.34 761.24 919.16 837.26 1116.92 481.81 887.71 980.91 978.80 789.91 881.28 463.17 1041.06 123.76 836.07 1161.15 952.51 91.97 850.91 687.25 282.45 1016.80 990.82 834.56 444.59 508.23 1046.43 951.00 954.90 213.90 773.36 446.86 880.90 157.90 527.28 429.98 953.72 1061.22 277.60 651.25 877.01 535.99 557.31 336.55 796.88 657.52 623.36 1002.22 575.64 191.33 949.81 939.03 684.27 975.68 702.57 886.75 297.12 770.91 473.64 1139.66 865.99 495.15 430.95 433.10 568.91 732.16 824.44 111.88 1243.87 836.89 845.36 209.15 970.49 397.38 915.81 187.29 513.60 442.76 775.70 558.37 661.30 585.48 120.78 1098.55 700.14 490.87 682.92 430.45 179.11 1064.17 374.73 181.33 594.39 1133.13 350.08 1007.09 432.85 1089.31 593.83 1011.37 718.57 604.45 155.78 754.84 961.37 1066.58 316.32 939.71 1170.33 908.44 1100.79 613.62 161.89 306.62 1099.06 167.80 882.58 494.38 456.00 542.65 59.65 465.82 902.04 645.71 838.47 402.75 827.85 289.63 1026.26 142.28 1024.82 380.21 177.61 0.00
DEMAND_SECTION
1 0
2 29
3 7
4 54
5 86
6 61
7 38
8 66
9 34
10 37
11 80
12 12
13 74
14 43
15 37
16 13
17 43
18 90
19 13
20 37
21 30
22 80
23 90
24 43
25 5
26 3
27 44
28 88
29 100
30 4
31 85
32 89
33 24
34 2
35 90
36 82
37 95
38 74
39 51
40 23
41 60
42 8
43 37
44 78
45 67
46 64
47 80
48 100
49 26
50 34
51 47
52 67
53 33
54 48
55 28
56 45
57 83
58 22
59 38
60 88
61 77
62 12
63 56
64 18
65 31
66 41
67 11
68 9
69 48
70 73
71 45
72 98
73 43
74 36
75 46
76 29
77 72
78 13
79 67
80 77
81 2
82 64
83 66
84 52
85 67
86 51
87 16
88 77
89 63
90 47
91 61
92 74
93 99
94 4
95 58
96 7
97 19
98 96
99 87
100 15
101 17
102 90
103 61
104 28
105 17
106 43
107 90
108 94
109 49
110 88
111 10
112 58
113 3
114 95
115 17
116 66
117 99
118 79
119 58
120 33
121 13
122 83
123 29
124 54
125 44
126 31
127 33
128 37
129 30
130 75
131 5
132 33
133 46
134 5
135 27
136 68
137 18
138 53
139 94
140 42
141 97
142 92
143 23
144 9
145 79
146 35
147 18
148 42
149 61
150 29
151 14
152 8
153 43
154 13
155 89
156 44
157 93
158 22
159 21
160 65
161 79
162 90
163 10
164 13
165 34
166 8
167 13
168 5
169 20
170 37
171 8
DEPOT_SECTION
1
-1
EOF
