NAME: LDG105_2172_snow_105_0312
COMMENT: CVRP with travel times.  rootPos=2,custPos=1,demandType=7,avgRouteSizeIndex=2,weather=snow,lambda_cluster=1,lambda_random=4, T1=300,T2=700,beta=1, alpha(i,j) ~ U(0.8,1.2)
TYPE: CVRP
DIMENSION: 106
EDGE_WEIGHT_TYPE: EXPLICIT
EDGE_WEIGHT_FORMAT: FULL_MATRIX
CAPACITY: 139
NODE_COORD_SECTION
1 500 500
2 267 98
3 708 540
4 565 85
5 793 644
6 138 795
7 289 532
8 396 854
9 883 150
10 664 860
11 332 39
12 66 753
13 273 771
14 277 981
15 330 664
16 713 164
17 150 511
18 542 537
19 766 992
20 122 445
21 632 247
22 387 975
23 377 511
24 878 556
25 411 863
26 464 249
27 729 858
28 990 41
29 496 68
30 622 294
31 824 965
32 361 611
33 216 886
34 406 615
35 670 374
36 296 728
37 263 154
38 385 549
39 606 387
40 50 2
41 78 323
42 591 271
43 401 625
44 20 56
45 979 546
46 827 413
47 270 169
48 327 541
49 919 868
50 724 418
51 431 737
52 308 874
53 127 389
54 811 159
55 943 545
56 633 358
57 709 730
58 383 432
59 905 445
60 773 291
61 458 311
62 498 180
63 36 787
64 190 682
65 850 875
66 630 930
67 991 308
68 45 436
69 139 101
70 961 190
71 742 182
72 512 528
73 740 891
74 646 348
75 712 391
76 982 61
77 907 132
78 243 573
79 918 840
80 684 90
81 57 85
82 151 703
83 640 23
84 938 591
85 91 675
86 477 419
87 972 770
88 850 96
89 363 348
90 34 868
91 453 827
92 908 374
93 231 384
94 98 4
95 964 977
96 114 919
97 696 407
98 496 117
99 172 145
100 199 736
101 972 400
102 875 172
103 408 116
104 829 772
105 526 476
106 901 487
EDGE_WEIGHT_SECTION
0.00 601.50 226.24 548.61 449.51 609.17 288.74 484.76 550.94 567.13 630.06 566.59 435.24 656.22 330.29 485.77 436.27 76.22 742.54 508.44 361.47 605.96 139.67 513.88 449.91 352.58 583.72 741.08 520.49 301.38 774.87 255.21 605.46 244.40 365.07 421.74 517.94 181.19 250.76 804.66 558.53 274.84 222.63 802.14 558.71 449.74 487.29 230.25 725.60 302.76 325.53 490.15 468.96 613.42 498.04 301.00 429.39 172.20 572.49 489.68 281.64 438.99 636.07 471.92 642.39 632.56 643.33 545.30 647.69 687.09 523.13 45.40 609.00 329.63 325.58 732.79 596.02 314.09 693.44 555.06 783.73 525.62 569.81 583.02 538.21 108.17 672.79 597.90 252.49 712.87 373.36 553.30 318.65 832.39 863.87 714.57 349.40 442.12 614.40 480.13 600.85 606.22 532.00 550.81 82.95 524.06
601.50 0.00 819.23 364.80 905.26 858.79 607.90 909.64 796.94 1144.59 125.56 828.98 725.03 1035.75 729.62 616.40 493.91 661.46 1253.95 498.73 573.08 1022.94 545.37 951.41 874.79 375.66 1107.08 911.48 377.74 568.83 1302.85 680.04 924.85 611.48 650.11 673.35 83.56 599.64 612.36 312.96 494.23 498.88 589.71 344.30 1007.03 822.69 134.73 547.71 1238.88 698.11 789.09 850.73 506.96 701.24 952.33 603.81 1022.38 513.46 925.06 692.33 434.80 391.94 863.09 736.51 1211.17 1082.13 932.05 529.36 169.80 864.92 630.40 617.29 1147.11 632.44 664.61 910.38 834.50 594.61 1176.28 518.95 312.52 795.47 512.08 1006.87 746.82 493.33 1190.72 745.22 369.53 975.26 908.39 827.45 432.47 289.45 1360.65 1011.36 651.47 313.22 192.91 778.78 915.14 801.95 233.08 1080.41 596.23 875.30
226.24 819.23 0.00 652.40 239.77 758.09 514.98 609.64 552.05 378.69 801.81 792.83 598.54 847.55 556.53 510.07 662.51 302.46 545.71 734.68 440.30 740.88 365.91 356.56 627.73 510.25 357.48 706.33 618.57 385.17 548.63 444.43 789.61 470.64 268.59 538.11 735.67 407.43 274.99 980.94 784.77 430.16 448.87 1028.38 332.47 271.57 684.50 456.49 529.25 186.16 551.77 686.42 695.20 607.01 374.85 325.23 203.15 398.44 346.25 324.87 507.88 596.66 861.16 675.40 416.15 473.46 450.43 771.54 873.93 576.15 498.91 271.64 404.96 302.09 201.65 733.90 597.13 540.33 518.25 586.63 1009.97 751.86 604.06 396.15 764.45 334.41 472.60 639.03 478.73 939.11 586.19 375.61 544.89 1036.48 678.28 876.12 227.92 634.30 840.64 699.32 437.87 568.29 669.22 379.81 223.00 297.82
548.61 364.80 652.40 0.00 827.41 920.39 615.15 990.65 433.55 1014.38 332.96 961.47 914.47 1182.64 768.89 277.52 696.26 562.93 1176.94 723.88 318.64 1063.27 565.52 648.89 986.18 223.91 993.17 546.68 140.43 344.82 1118.54 730.92 1050.92 699.12 442.77 865.78 448.36 619.79 428.94 570.80 739.49 273.77 701.10 642.65 773.84 547.41 402.99 656.10 1091.37 537.94 765.75 1023.46 649.92 349.74 704.53 378.70 838.84 486.54 564.48 327.53 300.49 137.50 1030.95 782.03 986.06 1060.77 567.25 740.69 534.60 500.12 265.60 594.01 1040.65 407.33 502.16 561.48 478.63 678.76 1058.73 154.15 677.32 895.33 147.28 762.75 940.52 457.76 997.60 380.42 397.38 1107.75 918.22 528.98 499.61 649.48 1156.72 1100.24 500.29 119.83 527.07 870.71 616.67 437.15 217.96 878.74 511.16 645.91
449.51 905.26 239.77 827.41 0.00 824.17 555.13 647.29 581.34 349.34 944.84 928.21 687.59 798.02 692.15 616.50 725.38 470.28 475.87 834.76 609.77 716.61 589.18 250.21 612.44 653.81 294.11 771.48 847.54 547.18 438.66 676.98 734.52 627.99 419.22 627.16 821.70 573.86 452.13 1158.08 953.59 588.22 606.22 1190.26 314.83 280.00 828.06 639.29 342.76 425.93 471.97 600.02 885.25 677.04 242.86 483.29 173.80 535.07 376.44 499.88 674.48 740.22 964.05 748.77 306.18 444.11 529.78 855.11 1002.12 644.45 563.15 450.67 335.12 478.59 430.62 763.19 626.42 635.09 278.48 708.39 1130.01 839.94 760.86 200.10 914.62 501.01 325.27 668.32 668.44 990.88 604.44 384.04 734.94 1159.89 462.85 861.47 467.69 802.79 957.77 772.57 416.86 602.93 786.79 175.15 366.56 295.01
609.17 858.79 758.09 920.39 824.17 0.00 430.64 393.96 1092.88 702.90 984.35 144.21 206.83 288.88 363.20 1001.01 415.47 541.27 803.14 477.23 813.78 437.91 488.45 978.93 359.11 715.78 670.38 1283.02 905.94 751.19 836.71 401.52 178.64 440.83 860.83 219.98 862.02 477.55 746.52 941.51 568.63 827.85 453.94 869.66 1090.56 938.23 810.85 397.87 942.85 832.42 375.17 224.15 515.26 1065.73 1034.54 796.76 707.42 602.87 1043.92 982.89 619.90 782.89 202.42 219.68 829.75 689.83 1172.99 527.58 808.07 1207.46 972.94 563.77 717.86 803.86 873.83 1259.43 1137.96 350.68 951.60 1004.87 900.11 125.14 1041.86 1024.27 154.94 598.94 1032.46 1168.57 642.89 253.39 426.45 1042.27 595.85 1014.66 1007.30 205.24 868.71 842.49 890.03 204.00 1102.54 1096.77 895.20 884.08 594.66 962.49
288.74 607.90 514.98 615.15 555.13 430.64 0.00 431.47 824.07 681.04 642.51 405.63 315.67 597.08 176.17 695.77 170.25 296.03 766.65 279.63 584.06 562.71 149.07 733.69 434.75 410.54 657.24 981.97 600.70 521.47 844.54 145.36 487.12 198.62 507.80 326.90 524.34 112.34 478.43 642.58 414.84 548.66 206.15 713.77 823.21 727.24 497.14 84.16 800.81 587.18 350.37 441.37 339.62 813.07 786.78 443.73 636.37 235.92 770.90 693.99 314.66 477.65 475.11 261.26 816.61 611.72 895.55 299.98 566.89 899.73 743.22 311.36 704.72 472.36 572.80 1005.92 869.15 79.96 833.61 761.59 702.51 305.50 762.43 745.51 366.37 330.85 880.40 886.64 368.53 546.94 427.43 803.90 209.52 723.26 941.15 501.44 565.32 537.25 585.62 306.91 837.54 860.31 589.96 730.28 319.64 797.17
484.76 909.64 609.64 990.65 647.29 393.96 431.47 0.00 1003.51 387.85 982.62 487.54 196.25 237.91 320.65 942.88 511.82 516.63 541.09 621.20 819.12 131.24 425.13 798.08 34.85 786.04 465.77 1193.65 967.31 756.53 589.64 286.11 247.73 341.70 729.54 245.07 883.73 370.86 701.56 1061.79 756.41 754.32 319.93 1041.62 728.89 805.53 839.85 441.92 661.58 780.88 244.30 169.81 681.19 929.38 800.86 665.47 473.49 530.49 848.05 776.33 690.16 853.15 460.29 348.59 548.48 361.17 1016.05 689.12 926.30 1119.86 926.67 504.03 418.29 684.84 785.28 1185.36 1048.59 389.64 652.03 985.17 960.65 368.96 1049.29 795.92 496.77 569.11 747.21 1044.31 605.05 506.96 111.40 904.88 575.78 1089.52 772.04 377.55 765.72 912.75 939.40 324.77 931.23 1031.76 901.75 612.67 515.41 860.62
550.94 796.94 552.05 433.55 581.34 1092.88 824.07 1003.51 0.00 914.02 671.38 1117.53 970.60 1207.16 871.13 221.30 943.15 627.16 1040.86 965.93 279.10 1124.71 690.61 544.76 968.66 498.58 852.63 190.14 508.66 341.69 1020.00 800.93 1156.40 795.34 372.74 972.68 799.14 732.13 466.10 1004.35 931.12 365.73 773.57 988.03 537.19 340.09 761.93 781.19 855.14 392.18 846.77 1041.09 923.56 95.70 506.08 427.23 738.48 695.61 366.03 227.18 509.41 460.24 1187.01 972.26 887.52 986.22 303.52 1014.33 874.26 136.15 167.95 596.34 900.11 417.31 401.81 181.85 45.08 865.03 790.86 291.29 1030.98 1076.56 365.66 531.60 1089.15 584.74 773.19 86.98 644.27 1260.73 924.30 318.70 773.25 946.91 975.23 1255.41 430.26 498.12 852.72 1031.07 321.60 55.28 619.50 756.49 582.81 447.46
567.13 1144.59 378.69 1014.38 349.34 702.90 681.04 387.85 914.02 0.00 1160.41 761.88 572.12 594.08 527.71 863.87 793.30 490.91 285.19 764.56 778.84 463.27 626.69 582.05 353.00 868.63 217.83 1053.77 957.11 723.71 294.81 588.43 613.25 541.34 613.73 511.69 1061.03 572.42 619.46 1281.84 960.60 740.61 563.11 1215.30 630.84 573.93 1009.86 596.88 396.73 564.85 414.99 478.75 866.70 915.10 582.95 635.68 175.54 739.33 710.97 703.56 848.77 916.34 813.64 648.98 299.14 120.67 827.65 873.27 1201.78 926.67 857.08 535.08 170.35 640.63 540.19 1084.64 959.10 671.12 332.45 931.77 1187.44 643.30 982.75 497.97 687.31 675.30 454.18 903.58 782.84 800.83 276.45 677.97 858.69 1334.83 508.58 671.42 581.72 895.60 1154.69 642.92 714.73 896.86 1006.41 352.20 601.69 629.54
630.06 125.56 801.81 332.96 944.84 984.35 642.51 982.62 671.38 1160.41 0.00 954.54 850.59 1147.21 784.88 490.84 619.47 669.50 1281.79 575.16 498.45 1113.86 597.03 894.41 986.16 306.43 1143.25 854.00 252.18 500.51 1268.62 747.87 1050.41 679.31 573.59 798.91 207.36 635.78 579.02 437.52 464.80 423.85 701.08 410.16 994.57 778.90 227.77 640.75 1221.46 641.11 856.92 976.29 603.94 575.68 939.99 528.78 988.92 527.09 855.95 660.49 402.31 317.31 986.89 862.07 1136.14 1128.42 900.21 596.05 295.36 766.16 544.19 625.33 1141.04 557.41 647.13 823.37 708.94 714.01 1182.30 457.19 367.04 876.84 480.24 955.46 872.38 529.06 1142.61 642.31 377.57 1100.82 976.22 838.60 518.10 316.52 1354.18 1101.23 631.11 287.68 318.47 871.82 895.07 689.73 158.05 1043.14 578.81 862.96
566.59 828.98 792.83 961.47 928.21 144.21 405.63 487.54 1117.53 761.88 954.54 0.00 291.29 433.09 370.56 940.65 335.07 626.16 811.31 393.90 872.60 582.12 426.92 1063.82 503.32 787.83 804.12 1300.15 944.03 810.01 889.20 462.55 301.88 484.29 849.91 316.73 765.95 470.17 747.45 916.49 565.30 841.43 473.32 844.64 1096.43 995.48 795.57 413.95 1074.68 862.26 456.24 368.36 496.04 1110.41 1064.63 797.69 805.03 559.20 1104.92 986.37 691.95 854.94 69.48 179.44 963.49 756.32 1202.83 434.05 816.11 1228.52 994.00 611.99 844.12 790.54 875.90 1299.38 1162.61 344.12 1077.86 1063.69 816.78 118.58 1035.30 1103.34 162.98 623.11 1166.20 1164.49 633.95 146.28 551.97 1072.92 542.63 934.26 1076.41 275.69 858.21 914.54 891.62 218.34 1157.50 1119.78 901.50 981.69 649.54 1059.24
435.24 725.03 598.54 914.47 687.59 206.83 315.67 196.25 970.60 572.12 850.59 291.29 0.00 323.70 177.95 882.81 357.89 480.94 604.98 448.80 691.50 297.91 358.09 900.24 231.10 714.29 600.31 1143.64 909.16 727.54 682.87 241.97 260.20 281.28 669.47 60.43 708.04 303.82 636.22 958.25 602.48 710.08 295.07 899.54 925.14 731.40 656.87 354.48 783.39 650.50 215.62 125.70 527.26 943.45 874.99 605.40 528.53 444.67 870.79 821.90 623.12 776.97 343.05 152.34 726.41 483.00 991.07 535.19 825.11 1061.40 897.05 436.77 552.83 634.03 691.91 1137.15 1015.68 235.71 786.57 919.24 871.68 172.71 971.23 845.08 300.52 524.97 881.75 1033.14 562.03 402.72 295.67 835.44 525.19 957.08 847.75 289.82 697.14 845.71 743.15 169.45 923.13 987.62 841.90 705.19 511.12 802.94
656.22 1035.75 847.55 1182.64 798.02 288.88 597.08 237.91 1207.16 594.08 1147.21 433.09 323.70 0.00 445.42 1120.17 628.87 658.85 659.67 637.40 979.28 226.59 631.72 995.03 241.08 965.72 703.68 1381.00 1159.47 916.69 737.56 451.72 159.24 520.28 906.83 362.40 1031.74 577.45 877.89 1159.99 833.44 931.06 526.16 1088.14 966.80 1011.76 980.57 576.03 880.47 946.49 470.10 198.00 739.54 1135.61 1038.77 842.76 679.72 696.10 1054.28 982.56 896.75 1045.14 471.16 428.13 786.39 569.19 1202.06 746.11 1091.91 1298.76 1138.44 614.68 656.20 871.39 965.84 1389.01 1252.24 559.41 888.31 1153.98 1060.28 414.02 1226.03 998.12 443.82 730.31 985.12 1250.54 822.02 349.94 317.63 1113.51 773.43 1207.67 924.77 283.20 924.31 1098.34 1066.85 339.45 1089.14 1197.37 1097.50 818.90 698.79 1092.33
330.29 729.62 556.53 768.89 692.15 363.20 176.17 320.65 871.13 527.71 784.88 370.56 177.95 445.42 0.00 779.60 307.79 332.79 735.45 417.17 660.11 451.89 203.37 770.45 327.81 564.28 642.18 1040.43 754.44 597.52 766.51 160.36 335.28 161.68 566.26 190.58 665.18 149.10 531.61 818.75 548.63 574.30 139.91 867.91 757.58 732.81 622.48 209.50 800.95 585.11 220.18 269.67 477.16 871.53 828.33 502.19 568.97 335.65 821.16 643.95 468.40 631.39 440.04 216.10 768.28 610.73 883.67 476.15 743.06 948.25 819.27 348.12 594.70 530.82 580.00 1052.98 916.21 185.61 828.44 805.15 840.05 329.40 869.27 782.27 314.04 419.43 856.59 902.04 407.31 513.69 251.26 835.65 385.69 837.30 852.31 384.28 538.47 690.99 761.79 304.78 874.30 906.01 704.01 745.63 356.40 827.49
485.77 616.40 510.07 277.52 616.50 1001.01 695.77 942.88 221.30 863.87 490.84 940.65 882.81 1120.17 779.60 0.00 814.85 509.31 1002.28 832.27 192.03 1002.10 625.44 549.69 930.40 285.23 814.05 411.44 350.09 254.62 938.35 680.16 1028.15 667.09 256.82 861.70 623.15 630.50 327.65 848.32 816.52 210.93 645.32 874.48 586.09 336.50 580.21 710.18 860.72 328.79 735.72 922.17 758.31 169.76 514.12 277.41 713.22 540.81 400.53 242.61 381.11 279.11 1010.13 885.19 877.81 899.47 434.99 849.08 693.13 287.87 53.35 531.17 861.53 306.04 323.68 403.15 266.38 775.73 832.41 123.37 849.85 984.34 180.43 599.10 1023.98 475.23 720.08 248.28 515.97 1086.93 859.13 347.76 608.00 807.36 1016.78 1118.76 282.15 357.83 660.30 929.44 415.59 249.98 436.35 779.54 495.74 481.96
436.27 493.91 662.51 696.26 725.38 415.47 170.25 511.82 943.15 793.30 619.47 335.07 357.89 628.87 307.79 814.85 0.00 466.28 936.90 109.38 692.86 633.02 296.60 857.39 476.97 529.62 827.49 1101.69 661.14 640.55 1014.79 315.61 469.63 332.70 627.52 377.89 524.55 282.59 513.21 631.97 244.59 648.76 354.47 560.12 982.34 799.74 505.30 254.41 971.06 683.07 453.60 483.59 169.37 932.79 934.31 563.45 785.53 318.88 870.68 748.91 433.74 596.73 404.55 242.60 986.86 781.97 988.63 177.30 489.96 1003.19 862.30 423.05 874.97 592.08 641.66 1077.59 988.23 122.18 1003.86 850.41 532.26 301.56 819.21 915.76 269.39 455.94 1050.65 1009.24 298.88 481.35 544.66 838.68 207.56 599.19 1085.73 543.66 653.82 656.33 571.92 331.28 923.26 985.40 595.58 900.53 484.13 916.89
76.22 661.46 302.46 562.93 470.28 541.27 296.03 516.63 627.16 490.91 669.50 626.16 480.94 658.85 332.79 509.31 466.28 0.00 666.32 575.66 367.40 637.83 199.24 437.66 481.78 415.45 528.42 772.20 571.84 304.81 734.74 276.30 623.42 273.89 321.96 420.51 577.90 183.69 247.75 872.76 634.75 351.06 266.14 800.91 562.61 490.64 526.73 263.37 696.15 291.15 324.30 488.92 545.18 603.30 548.31 291.22 501.19 248.42 586.18 486.67 357.86 425.43 674.11 474.42 687.79 573.64 631.72 596.01 723.91 713.89 509.56 44.17 575.90 262.59 332.56 809.01 672.24 373.66 631.87 558.49 843.30 551.57 646.03 551.52 536.98 184.39 596.57 674.12 291.93 736.37 449.58 541.69 394.87 908.61 816.24 708.23 327.44 504.15 663.78 482.63 629.38 650.39 584.69 627.03 128.28 534.96
742.54 1253.95 545.71 1176.94 475.87 803.14 766.65 541.09 1040.86 285.19 1281.79 811.31 604.98 659.67 735.45 1002.28 936.90 666.32 0.00 1046.28 921.41 530.45 708.58 528.05 506.24 1024.71 188.23 1190.05 1138.23 883.88 77.89 700.11 764.57 699.11 777.65 665.41 1170.39 654.31 786.48 1394.81 1146.52 907.63 680.27 1420.33 652.58 700.77 1146.97 733.99 309.83 679.90 596.87 641.20 1052.37 1056.77 607.54 802.70 342.56 829.75 706.78 849.41 973.61 1091.75 880.79 747.69 210.37 187.85 866.71 1066.63 1257.97 984.40 983.92 710.49 140.75 810.51 721.31 1152.25 1085.94 827.65 332.74 1085.74 1352.64 777.69 1149.77 581.63 905.50 850.71 407.52 1070.60 912.52 957.59 512.73 770.75 940.58 1454.32 265.10 848.94 720.13 1073.36 1271.95 725.83 753.79 1017.53 1123.74 324.13 737.46 625.35
508.44 498.73 734.68 723.88 834.76 477.23 279.63 621.20 965.93 764.56 575.16 393.90 448.80 637.40 417.17 832.27 109.38 575.66 1046.28 0.00 720.02 742.40 405.98 936.88 586.35 547.04 884.87 1113.23 623.03 694.92 1059.37 424.99 478.16 442.08 714.96 487.27 415.17 391.97 622.59 522.59 196.04 633.39 463.85 450.74 1037.04 877.94 401.67 363.79 1080.44 683.58 562.98 574.50 102.14 971.97 1006.48 669.21 730.54 336.24 975.70 738.75 488.11 633.45 463.38 351.98 1038.23 885.23 978.47 108.71 478.66 1080.22 885.62 532.43 932.35 687.74 719.86 1147.78 1011.01 231.56 1097.01 827.28 422.88 352.09 713.83 997.93 345.39 484.37 1100.95 1052.91 385.35 540.18 654.04 934.12 224.27 570.27 1195.11 526.07 723.72 701.40 497.72 440.66 1021.81 966.88 586.70 907.20 591.39 960.60
361.47 573.08 440.30 318.64 609.77 813.78 584.06 819.12 279.10 778.84 498.45 872.60 691.50 979.28 660.11 192.03 692.86 367.40 921.41 720.02 0.00 882.67 483.87 488.38 784.27 219.48 733.18 469.24 327.55 62.59 882.54 611.35 903.85 542.79 190.55 751.93 534.00 511.01 193.32 755.62 765.20 86.63 521.02 708.93 611.65 396.73 482.83 571.03 849.55 268.82 667.95 781.28 683.55 251.95 556.95 157.98 618.12 416.51 485.15 289.97 269.40 181.14 942.08 693.16 765.34 833.20 509.54 774.32 595.16 415.25 205.55 387.82 780.66 138.21 238.65 445.65 324.18 658.29 810.01 227.74 751.88 806.46 279.73 572.11 859.01 337.09 770.32 354.79 404.26 981.63 727.05 484.31 533.24 798.68 983.38 981.32 226.34 259.86 594.55 781.84 396.62 334.38 340.40 672.34 303.71 479.92
605.96 1022.94 740.88 1063.27 716.61 437.91 562.71 131.24 1124.71 463.27 1113.86 582.12 297.91 226.59 451.89 1002.10 633.02 637.83 530.45 742.40 882.67 0.00 556.37 846.72 156.05 839.36 553.29 1262.93 1072.18 846.83 608.34 417.35 311.85 462.90 788.76 358.34 1005.95 502.10 734.36 1193.03 877.61 829.62 441.13 1172.86 860.13 844.28 954.78 563.12 712.31 839.35 337.01 213.76 802.39 1050.58 920.29 724.69 594.69 661.73 969.25 897.53 821.40 925.77 561.67 450.25 599.21 342.60 1125.68 797.50 1057.54 1180.69 1019.38 617.14 539.56 753.32 853.76 1303.91 1169.79 510.84 724.36 1051.05 1091.89 470.62 1124.59 916.71 591.11 700.35 846.09 1165.51 736.29 473.81 232.60 948.32 707.02 1220.76 795.55 438.75 846.28 1004.49 1041.06 403.72 1036.01 1163.00 1018.78 728.47 636.61 944.02
139.67 545.37 365.91 565.52 589.18 488.45 149.07 425.13 690.61 626.69 597.03 426.92 358.09 631.72 203.37 625.44 296.60 199.24 708.58 405.98 483.87 556.37 0.00 636.90 420.66 360.91 595.33 873.23 551.07 421.28 786.47 180.00 507.37 157.35 422.99 354.78 461.81 54.27 347.36 718.01 471.88 414.51 135.58 725.03 698.38 589.41 444.30 90.58 796.62 442.43 334.55 473.04 382.31 704.33 637.71 392.25 569.06 132.28 704.83 586.28 265.03 428.02 496.40 345.00 754.70 628.00 783.00 406.99 642.23 814.92 643.03 185.07 642.81 363.62 464.06 872.46 735.69 174.42 831.11 674.96 644.06 385.95 709.48 687.44 486.66 216.06 795.81 737.57 219.46 573.20 429.56 672.83 232.00 745.74 911.13 587.65 480.51 487.62 574.48 353.21 740.52 745.52 516.16 690.48 222.62 663.73
513.88 951.41 356.56 648.89 250.21 978.93 733.69 798.08 544.76 582.05 894.41 1063.82 900.24 995.03 770.45 549.69 857.39 437.66 528.05 936.88 488.38 846.72 636.90 0.00 763.23 628.51 447.47 662.00 711.63 463.69 493.36 713.96 931.53 663.43 354.06 839.81 922.49 621.35 423.16 1123.83 1060.66 482.73 685.20 1149.63 124.95 259.72 878.93 701.03 442.48 253.30 722.18 797.03 921.52 581.48 110.65 412.54 406.51 678.33 178.73 321.36 571.25 669.52 1111.77 912.08 360.88 617.49 338.66 1033.67 1039.18 456.35 496.34 481.83 447.71 383.91 294.71 624.20 561.51 735.21 466.56 627.49 1154.96 960.75 694.05 113.86 974.64 570.74 364.17 590.77 706.11 1171.71 731.12 242.70 831.26 1129.54 507.83 1058.48 299.94 719.30 957.22 920.29 225.74 489.48 736.36 229.85 565.94 97.30
449.91 874.79 627.73 986.18 612.44 359.11 434.75 34.85 968.66 353.00 986.16 503.32 231.10 241.08 327.81 930.40 476.97 481.78 506.24 586.35 784.27 156.05 420.66 763.23 0.00 767.81 500.62 1158.80 970.40 721.68 554.79 320.96 269.46 306.85 724.76 215.78 862.06 391.08 666.71 1077.33 721.56 719.47 285.08 1025.14 763.74 770.68 820.05 407.07 639.39 752.67 229.02 134.96 646.34 894.53 821.59 694.02 438.64 507.08 813.20 741.48 685.69 848.68 481.40 353.07 583.33 396.02 981.20 654.27 961.15 1085.01 911.39 495.31 453.14 665.39 765.83 1150.51 1013.74 354.79 685.45 950.32 995.50 389.68 1014.44 761.07 477.31 558.08 750.96 1009.46 608.59 472.11 76.55 874.72 610.63 1076.16 770.45 342.70 730.87 892.03 949.28 289.92 896.38 1008.58 905.29 577.82 480.56 860.53
352.58 375.66 510.25 223.91 653.81 715.78 410.54 786.04 498.58 868.63 306.43 787.83 714.29 965.72 564.28 285.23 529.62 415.45 1024.71 547.04 219.48 839.36 360.91 628.51 767.81 0.00 847.42 688.72 232.82 234.10 972.79 514.00 852.52 483.27 274.45 695.54 337.92 415.18 283.19 659.42 562.65 173.17 491.62 615.72 695.55 506.07 327.04 435.73 929.90 375.21 651.49 816.11 473.08 454.99 640.85 232.95 693.09 269.62 560.12 414.53 95.88 86.41 857.31 609.08 840.31 836.86 654.25 563.85 457.03 565.41 338.58 371.36 894.90 261.58 347.99 665.13 543.66 490.50 897.74 351.05 608.41 716.04 360.85 689.56 763.68 244.41 876.71 518.11 230.74 934.11 725.94 608.66 322.77 622.95 1058.35 911.98 331.97 165.13 375.07 697.76 616.10 535.21 179.42 747.31 287.25 563.82
583.72 1107.08 357.48 993.17 294.11 670.38 657.24 465.77 852.63 217.83 1143.25 804.12 600.31 703.68 642.18 814.05 827.49 528.42 188.23 884.87 733.18 553.29 595.33 447.47 500.62 847.42 0.00 1027.23 976.05 695.65 206.32 511.88 576.34 539.14 589.42 658.31 1057.14 623.37 598.25 1299.82 1026.44 719.40 517.37 1257.43 572.42 512.54 1039.63 639.36 272.47 543.64 503.12 635.58 970.58 910.99 536.97 614.47 154.33 727.61 626.20 682.35 832.63 914.32 777.26 674.46 159.37 210.69 786.13 918.77 1152.07 876.99 795.69 572.59 47.48 643.10 559.13 1027.94 897.71 737.20 281.22 897.51 1239.39 685.54 961.54 476.76 773.17 691.89 362.08 882.37 814.79 859.08 434.65 616.58 827.33 1341.07 401.23 818.59 531.90 951.26 1169.81 585.78 673.21 835.47 985.20 217.62 580.48 544.77
741.08 911.48 706.33 546.68 771.48 1283.02 981.97 1193.65 190.14 1053.77 854.00 1300.15 1143.64 1381.00 1040.43 411.44 1101.69 772.20 1190.05 1113.23 469.24 1262.93 873.23 662.00 1158.80 688.72 1027.23 0.00 606.29 531.83 1155.36 969.16 1317.50 934.13 562.88 1150.70 865.41 891.33 588.48 1117.48 1110.65 555.87 955.90 1137.50 670.09 530.23 892.04 963.81 961.68 554.99 1036.91 1183.00 1113.70 278.32 643.17 538.24 909.48 861.11 518.00 417.32 699.55 644.27 1369.63 1162.40 1022.88 1086.20 326.52 1204.47 998.72 250.22 358.09 786.48 1074.71 509.61 513.58 40.98 145.06 1047.65 908.70 438.84 1155.44 1259.18 399.40 656.20 1261.48 736.06 963.33 212.57 834.41 1446.43 1098.45 503.88 963.39 1072.50 1093.07 1355.59 555.11 666.51 973.92 1190.27 439.44 223.51 718.28 891.85 766.27 579.49
520.49 377.74 618.57 140.43 847.54 905.94 600.70 967.31 508.66 957.11 252.18 944.03 909.16 1159.47 754.44 350.09 661.14 571.84 1138.23 623.03 327.55 1072.18 551.07 711.63 970.40 232.82 976.05 606.29 0.00 333.98 1114.65 731.07 1000.23 664.00 461.94 884.85 336.92 605.34 487.43 581.55 660.03 332.26 685.77 646.13 811.79 575.00 285.75 641.65 1063.80 458.33 822.55 1010.64 520.89 422.31 804.99 437.19 821.72 490.25 702.59 467.96 286.04 146.41 1013.51 799.24 1007.35 1069.68 707.68 655.53 490.72 568.74 371.96 565.89 1023.53 427.49 416.92 600.35 463.58 680.66 999.52 226.72 619.22 880.01 287.71 772.68 930.53 459.51 959.83 439.19 362.26 1090.31 893.85 647.42 549.88 568.70 1180.77 1102.14 458.45 78.37 450.68 887.92 724.17 480.50 208.00 941.48 520.07 734.22
301.38 568.83 385.17 344.82 547.18 751.19 521.47 756.53 341.69 723.71 500.51 810.01 727.54 916.69 597.52 254.62 640.55 304.81 883.88 694.92 62.59 846.83 421.28 463.69 721.68 234.10 695.65 531.83 333.98 0.00 819.95 556.59 853.19 489.31 127.96 701.57 524.03 448.42 162.80 818.21 702.61 76.66 480.78 771.52 549.06 341.60 472.86 508.44 815.19 210.39 605.36 718.69 620.96 314.54 494.36 122.14 574.96 360.08 441.86 317.34 206.81 243.73 879.49 630.57 729.50 770.61 516.70 711.73 657.75 456.27 221.75 325.23 743.13 93.51 183.52 508.24 386.77 595.70 751.58 253.68 721.95 743.87 342.32 509.52 796.42 274.50 710.91 417.38 341.67 956.29 672.76 445.64 470.65 794.43 932.83 956.43 163.75 255.61 609.17 719.25 459.21 345.58 342.46 636.50 241.12 417.33
774.87 1302.85 548.63 1118.54 438.66 836.71 844.54 589.64 1020.00 294.81 1268.62 889.20 682.87 737.56 766.51 938.35 1014.79 734.74 77.89 1059.37 882.54 608.34 786.47 493.36 554.79 972.79 206.32 1155.36 1114.65 819.95 0.00 718.20 782.66 691.37 713.72 743.30 1235.36 732.20 790.08 1316.92 1224.41 844.77 713.14 1388.77 601.62 718.66 1184.19 811.88 231.94 681.50 605.92 689.75 1130.26 978.88 529.65 739.84 346.96 884.53 669.70 814.72 958.00 1059.20 958.68 825.58 132.48 265.74 832.02 1125.09 1335.86 929.94 989.70 778.91 171.81 768.47 697.73 1117.56 1035.10 901.89 254.85 1031.76 1430.53 855.58 1118.78 503.74 979.49 883.04 372.58 1075.00 990.41 1026.90 558.98 736.06 1018.47 1437.92 304.57 897.49 656.20 1075.56 1326.73 792.10 719.10 980.45 1110.57 263.51 762.87 590.66
255.21 680.04 444.43 730.92 676.98 401.52 145.36 286.11 800.93 588.43 747.87 462.55 241.97 451.72 160.36 680.16 315.61 276.30 700.11 424.99 611.35 417.35 180.00 713.96 320.96 514.00 511.88 969.16 731.07 556.59 718.20 0.00 433.04 68.56 542.89 181.54 641.81 125.73 430.58 787.94 514.56 524.72 90.33 830.39 776.90 639.69 605.10 205.41 751.37 494.77 205.01 367.67 484.98 848.16 753.25 478.82 553.80 244.38 779.08 648.27 445.03 593.42 490.07 314.60 671.25 579.82 835.34 406.89 640.19 858.99 733.51 232.13 559.36 507.45 533.61 960.87 824.10 225.32 768.58 702.26 796.91 343.97 815.71 758.90 402.29 283.00 807.01 853.11 370.30 571.89 311.98 743.73 354.88 868.62 837.14 519.55 536.12 667.62 686.58 298.59 831.42 745.65 645.78 641.68 316.24 734.37
605.46 924.85 789.61 1050.92 734.52 178.64 487.12 247.73 1156.40 613.25 1050.41 301.88 260.20 159.24 335.28 1028.15 469.63 623.42 764.57 478.16 903.85 311.85 507.37 931.53 269.46 852.52 576.34 1317.50 1000.23 853.19 782.66 433.04 0.00 404.60 843.33 251.50 875.43 479.15 742.43 1000.75 674.20 817.22 382.83 928.90 976.62 975.73 824.26 416.79 848.81 863.46 324.65 134.50 580.30 1123.43 967.41 779.26 586.51 604.83 1061.30 944.24 772.40 935.39 368.85 268.89 735.71 608.90 1109.21 586.87 956.82 1232.41 1007.02 579.25 623.82 807.89 869.65 1338.25 1201.48 407.16 857.56 1048.07 901.04 279.97 1112.19 908.94 333.58 679.35 938.42 1203.36 706.34 327.36 336.80 1059.18 677.19 1048.43 956.78 242.79 828.62 994.99 927.71 180.21 996.29 1178.69 978.99 763.17 622.49 982.67
244.40 611.48 470.64 699.12 627.99 440.83 198.62 341.70 795.34 541.34 679.31 484.29 281.28 520.28 161.68 667.09 332.70 273.89 699.11 442.08 542.79 462.90 157.35 663.43 306.85 483.27 539.14 934.13 664.00 489.31 691.37 68.56 404.60 0.00 506.91 220.85 587.71 127.77 425.60 833.68 577.29 456.16 21.77 761.83 788.38 571.13 536.54 143.76 682.81 506.46 177.61 406.98 474.98 794.74 742.44 442.84 494.36 213.65 710.52 639.68 417.86 562.69 509.63 315.65 693.86 511.26 833.63 475.45 708.75 877.34 711.06 256.64 586.62 471.47 465.05 975.11 840.42 210.52 700.02 687.01 801.41 365.71 751.13 760.94 470.85 284.94 738.45 842.30 301.74 591.45 296.91 675.17 380.16 893.90 809.74 545.96 467.56 640.45 655.85 318.15 762.86 814.21 598.44 671.02 261.43 665.81
365.07 650.11 268.59 442.77 419.22 860.83 507.80 729.54 372.74 613.73 573.59 849.91 669.47 906.83 566.26 256.82 627.52 321.96 777.65 714.96 190.55 788.76 422.99 354.06 724.76 274.45 589.42 562.88 461.94 127.96 713.72 542.89 843.33 506.91 0.00 690.10 581.63 417.16 114.31 799.29 778.03 169.00 503.31 860.61 421.10 231.62 565.20 496.84 706.23 100.76 587.32 708.83 679.10 362.12 366.40 64.07 471.74 378.72 313.90 189.38 282.23 359.13 907.58 705.56 649.78 642.65 429.10 751.82 729.29 391.93 310.17 324.22 636.90 59.37 73.54 554.59 417.82 552.06 641.95 318.04 849.91 777.60 431.49 415.11 817.03 261.89 602.26 459.72 417.09 989.40 648.21 335.66 546.07 830.43 823.20 950.54 57.52 383.57 647.33 716.10 423.35 418.74 434.80 578.43 300.46 289.37
421.74 673.35 538.11 865.78 627.16 219.98 326.90 245.07 972.68 511.69 798.91 316.73 60.43 362.40 190.58 861.70 377.89 420.51 665.41 487.27 751.93 358.34 354.78 839.81 215.78 695.54 658.31 1150.70 884.85 701.57 743.30 181.54 251.50 220.85 690.10 0.00 708.50 300.51 575.79 954.74 622.48 669.03 234.64 916.98 870.58 791.83 715.70 302.72 795.09 649.44 155.19 186.13 546.34 953.97 814.56 626.03 503.98 425.92 823.94 762.91 619.81 774.96 352.69 137.29 755.35 543.43 988.54 555.19 821.73 1040.53 837.56 376.34 613.26 654.66 685.90 1142.41 1005.64 255.71 813.52 883.80 910.15 233.14 964.00 826.41 303.14 464.54 874.39 1019.57 522.59 434.51 235.24 894.72 536.42 962.80 787.32 338.01 680.43 842.40 803.58 161.21 882.56 927.19 819.29 680.64 460.45 742.51
517.94 83.56 735.67 448.36 821.70 862.02 524.34 883.73 799.14 1061.03 207.36 765.95 708.04 1031.74 665.18 623.15 524.55 577.90 1170.39 415.17 534.00 1005.95 461.81 922.49 862.06 337.92 1057.14 865.41 336.92 524.03 1235.36 641.81 875.43 587.71 581.63 708.50 0.00 516.08 557.35 382.81 451.72 447.37 586.14 368.56 1002.73 813.25 51.17 464.15 1155.32 682.39 765.32 833.74 448.37 751.36 948.03 552.30 938.82 458.38 841.50 627.63 351.24 362.16 779.53 759.11 1127.88 1062.28 867.35 505.67 180.42 796.48 660.16 533.73 1063.55 576.23 655.17 893.22 800.50 577.81 1092.72 563.64 308.31 759.52 466.01 992.07 710.48 409.77 1107.16 712.16 285.97 900.75 884.62 743.89 348.91 338.19 1277.09 941.24 639.15 365.83 136.07 695.22 831.58 817.42 236.20 996.85 512.67 871.00
181.19 599.64 407.43 619.79 573.86 477.55 112.34 370.86 732.13 572.42 635.78 470.17 303.82 577.45 149.10 630.50 282.59 183.69 654.31 391.97 511.01 502.10 54.27 621.35 391.08 415.18 623.37 891.33 605.34 448.42 732.20 125.73 479.15 127.77 417.16 300.51 516.08 0.00 382.51 754.92 492.21 456.03 106.00 779.30 710.87 616.60 492.66 79.68 767.04 474.84 285.97 418.77 398.06 722.43 679.23 353.09 578.59 186.55 680.26 603.35 319.30 482.29 490.42 290.73 782.74 598.42 795.72 412.32 679.23 809.09 670.17 199.02 670.85 381.72 482.16 913.98 777.21 192.30 815.56 679.45 698.33 367.88 751.00 633.17 432.39 270.33 780.26 778.27 258.21 572.24 375.29 707.98 286.27 800.01 918.10 533.38 474.68 541.89 628.75 298.94 725.20 787.41 554.91 716.41 207.30 705.25
250.76 612.36 274.99 428.94 452.13 746.52 478.43 701.56 466.10 619.46 579.02 747.45 636.22 877.89 531.61 327.65 513.21 247.75 786.48 622.59 193.32 734.36 347.36 423.16 666.71 283.19 598.25 588.48 487.43 162.80 790.08 430.58 742.43 425.60 114.31 575.79 557.35 382.51 0.00 705.95 713.80 155.17 403.83 777.80 521.20 286.53 551.37 437.94 770.70 169.86 527.77 695.00 645.89 419.58 449.23 50.24 443.92 295.71 357.47 238.92 238.21 369.60 816.93 591.25 657.60 650.93 478.64 654.92 715.24 489.98 368.17 270.26 645.73 78.87 128.45 629.46 511.18 481.34 711.05 376.60 840.69 704.55 450.14 443.07 757.10 147.58 671.36 534.51 352.86 893.73 602.89 325.47 495.58 799.18 875.64 902.82 140.61 418.41 658.26 679.93 410.05 508.38 420.97 564.60 186.15 403.68
804.66 312.96 980.94 570.80 1158.08 941.51 642.58 1061.79 1004.35 1281.84 437.52 916.49 958.25 1159.99 818.75 848.32 631.97 872.76 1394.81 522.59 755.62 1193.03 718.01 1123.83 1077.33 659.42 1299.82 1117.48 581.55 818.21 1316.92 787.94 1000.75 833.68 799.29 954.74 382.81 754.92 705.95 0.00 592.19 775.78 811.91 71.85 1220.39 992.48 407.36 726.74 1443.39 870.53 992.95 1061.44 542.70 920.54 1155.18 756.19 1149.87 685.88 1063.42 898.33 650.23 574.48 985.97 848.95 1363.55 1254.30 1138.05 580.45 202.39 1070.92 836.40 828.59 1347.30 739.92 834.40 1132.28 1010.85 722.54 1411.72 724.95 134.74 816.37 718.08 1149.02 800.32 770.05 1372.03 951.22 642.16 1062.77 1063.83 1031.42 486.01 121.00 1581.59 1048.66 846.56 626.18 284.35 908.85 1116.00 1007.95 509.98 1270.55 868.86 1088.66
558.53 494.23 784.77 739.49 953.59 568.63 414.84 756.41 931.12 960.60 464.80 565.30 602.48 833.44 548.63 816.52 244.59 634.75 1146.52 196.04 765.20 877.61 471.88 1060.66 721.56 562.65 1026.44 1110.65 660.03 702.61 1224.41 514.56 674.20 577.29 778.03 622.48 451.72 492.21 713.80 592.19 0.00 733.92 592.35 625.12 1117.24 934.51 400.55 470.36 1215.65 807.36 669.76 714.99 139.14 879.58 1056.57 713.96 922.66 439.75 1041.13 861.69 495.80 649.06 634.78 487.19 1185.81 1015.62 1062.74 131.25 389.80 997.69 763.17 603.93 1073.92 742.59 776.43 1112.97 976.20 366.77 1197.52 886.75 544.15 529.26 851.53 1121.71 513.98 566.22 1231.32 994.51 360.94 711.58 789.25 1038.55 239.88 475.32 1301.89 722.11 760.72 682.80 414.77 545.59 1104.93 960.19 585.58 1099.32 587.03 1067.40
274.84 498.88 430.16 273.77 588.22 827.85 548.66 754.32 365.73 740.61 423.85 841.43 710.08 931.06 574.30 210.93 648.76 351.06 907.63 633.39 86.63 829.62 414.51 482.73 719.47 173.17 719.40 555.87 332.26 76.66 844.77 524.72 817.22 456.16 169.00 669.03 447.37 456.03 155.17 775.78 733.92 0.00 434.39 703.93 590.10 386.93 396.20 505.09 825.39 264.17 600.37 749.69 646.25 338.58 535.40 104.93 565.07 329.88 432.10 263.96 269.05 214.66 910.91 707.23 712.29 806.10 503.68 702.98 601.17 498.80 264.28 320.24 766.88 133.56 234.00 532.28 410.81 588.93 805.36 314.37 715.70 773.41 294.97 578.52 813.05 264.81 765.67 441.42 372.98 987.71 648.20 465.41 495.94 740.37 930.33 958.58 226.52 293.38 548.24 730.77 483.25 421.01 265.80 619.29 317.78 458.37
222.63 589.71 448.87 701.10 606.22 453.94 206.15 319.93 773.57 563.11 701.08 473.32 295.07 526.16 139.91 645.32 354.47 266.14 680.27 463.85 521.02 441.13 135.58 685.20 285.08 491.62 517.37 955.90 685.77 480.78 713.14 90.33 382.83 21.77 503.31 234.64 586.14 106.00 403.83 811.91 592.35 434.39 0.00 740.06 781.34 592.90 534.97 121.99 661.04 492.43 199.38 409.58 453.21 772.97 720.67 454.07 472.59 222.00 728.48 642.75 400.61 563.60 487.86 293.88 676.74 492.42 828.08 497.22 726.89 855.57 698.67 268.03 564.85 470.70 486.82 955.42 818.65 232.29 721.79 665.24 779.64 387.48 729.36 739.17 453.95 296.52 716.68 820.53 323.51 569.68 318.68 696.94 367.58 879.16 831.51 524.19 445.79 623.20 664.20 296.38 757.56 825.98 620.21 649.25 239.66 687.58
802.14 344.30 1028.38 642.65 1190.26 869.66 713.77 1041.62 988.03 1215.30 410.16 844.64 899.54 1088.14 867.91 874.48 560.12 800.91 1420.33 450.74 708.93 1172.86 725.03 1149.63 1025.14 615.72 1257.43 1137.50 646.13 771.52 1388.77 830.39 928.90 761.83 860.61 916.98 368.56 779.30 777.80 71.85 625.12 703.93 740.06 0.00 1274.58 1049.44 394.71 797.93 1401.10 921.19 939.44 1024.88 487.86 946.10 1212.69 796.54 1181.28 682.85 1123.71 967.89 578.38 597.39 914.12 779.69 1403.90 1232.48 1175.03 508.60 237.69 1064.21 829.69 756.74 1304.91 811.77 891.36 1115.43 1033.11 682.30 1432.78 796.80 80.97 744.52 738.10 1220.87 728.47 751.85 1397.48 1016.81 599.96 990.92 1010.06 1103.27 557.86 156.88 1571.57 976.81 918.13 567.76 240.65 837.00 1105.55 1026.71 438.13 1310.90 840.85 1149.98
558.71 1007.03 332.47 773.84 314.83 1090.56 823.21 728.89 537.19 630.84 994.57 1096.43 925.14 966.80 757.58 586.09 982.34 562.61 652.58 1037.04 611.65 860.13 698.38 124.95 763.74 695.55 572.42 670.09 811.79 549.06 601.62 776.90 976.62 788.38 421.10 870.58 1002.73 710.87 521.20 1220.39 1117.24 590.10 781.34 1274.58 0.00 294.15 986.30 788.96 465.38 353.46 731.34 898.70 1021.68 587.22 71.97 485.17 455.30 730.91 212.02 446.31 696.20 739.88 1165.91 973.68 485.83 649.66 343.57 1104.01 1139.34 496.85 559.20 604.11 568.24 480.47 394.87 629.11 560.36 860.16 446.47 680.48 1255.12 1078.75 742.10 132.87 1071.62 666.88 324.74 624.17 811.20 1235.85 817.01 259.78 877.36 1229.70 630.84 1106.44 400.10 804.67 1057.38 1000.24 230.65 481.91 836.52 354.80 555.47 131.73
449.74 822.69 271.57 547.41 280.00 938.23 727.24 805.53 340.09 573.93 778.90 995.48 731.40 1011.76 732.81 336.50 799.74 490.64 700.77 877.94 396.73 844.28 589.41 259.72 770.68 506.07 512.54 530.23 575.00 341.60 718.66 639.69 975.73 571.13 231.62 791.83 813.25 616.60 286.53 992.48 934.51 386.93 592.90 1049.44 294.15 0.00 783.13 679.99 622.76 199.49 738.30 857.10 821.19 399.56 239.45 287.15 398.39 541.70 139.39 219.88 505.31 558.28 1051.48 816.04 586.18 668.70 281.40 914.80 902.55 364.45 283.15 495.14 560.02 258.52 158.08 521.94 385.17 763.83 558.48 428.39 1054.63 904.11 480.86 293.99 974.77 434.11 578.74 427.07 639.39 1133.30 815.44 104.04 694.63 992.91 742.85 1021.22 199.61 555.03 820.59 860.00 191.73 322.93 652.73 455.15 452.95 162.42
487.29 134.73 684.50 402.99 828.06 810.85 497.14 839.85 761.93 1009.86 227.77 795.57 656.87 980.57 622.48 580.21 505.30 526.73 1146.97 401.67 482.83 954.78 444.30 878.93 820.05 327.04 1039.63 892.04 285.75 472.86 1184.19 605.10 824.26 536.54 565.20 715.70 51.17 492.66 551.37 407.36 400.55 396.20 534.97 394.71 986.30 783.13 0.00 412.98 1104.15 655.67 714.15 782.57 397.20 708.06 931.60 501.13 887.65 407.21 813.41 576.46 369.66 310.99 800.89 707.94 1100.65 1011.11 816.18 454.50 204.97 847.65 633.56 482.56 1012.38 525.06 625.50 862.33 749.33 526.64 1041.55 512.47 359.48 708.35 517.18 970.02 679.84 440.08 1123.30 724.94 234.80 917.35 833.45 777.91 297.74 389.36 1225.92 927.74 622.72 314.66 164.93 644.05 865.60 766.25 185.03 1003.21 461.50 854.57
230.25 547.71 456.49 656.10 639.29 397.87 84.16 441.92 781.19 596.88 640.75 413.95 354.48 576.03 209.50 710.18 254.41 263.37 733.99 363.79 571.03 563.12 90.58 701.03 407.07 435.73 639.36 963.81 641.65 508.44 811.88 205.41 416.79 143.76 496.84 302.72 464.15 79.68 437.94 726.74 470.36 505.09 121.99 797.93 788.96 679.99 412.98 0.00 783.03 533.01 321.37 479.17 331.22 792.28 728.29 432.77 594.58 222.86 759.94 676.86 355.61 518.60 465.71 337.49 798.73 614.41 873.58 384.14 604.90 888.77 696.45 275.65 686.84 454.20 547.74 963.04 826.27 160.72 843.78 759.13 734.64 295.37 796.58 712.85 428.71 306.64 838.67 828.15 310.04 560.23 440.67 763.41 293.68 802.34 953.50 582.20 506.21 578.20 577.91 334.43 804.88 836.10 562.20 682.49 286.98 754.31
725.60 1238.88 529.25 1091.37 342.76 942.85 800.81 661.58 855.14 396.73 1221.46 1074.68 783.39 880.47 800.95 860.72 971.06 696.15 309.83 1080.44 849.55 712.31 796.62 442.48 639.39 929.90 272.47 961.68 1063.80 815.19 231.94 751.37 848.81 682.81 706.23 795.09 1155.32 767.04 770.70 1443.39 1215.65 825.39 661.04 1401.10 465.38 622.76 1104.15 783.03 0.00 605.47 639.90 765.14 1114.25 873.90 458.24 720.46 389.29 877.83 598.29 763.84 938.62 985.51 1049.73 916.70 113.10 369.71 646.46 1100.79 1309.12 841.60 880.72 688.72 286.68 721.68 646.88 920.70 900.22 880.77 64.28 984.09 1440.68 956.10 1041.15 491.43 1045.64 777.10 140.64 942.12 936.48 1111.50 562.84 621.23 1010.33 1394.34 185.48 982.09 652.11 1064.23 1269.08 858.25 533.54 894.70 1088.53 212.63 642.65 529.98
302.76 698.11 186.16 537.94 425.93 832.42 587.18 780.88 392.18 564.85 641.11 862.26 650.50 946.49 585.11 328.79 683.07 291.15 679.90 683.58 268.82 839.35 442.43 253.30 752.67 375.21 543.64 554.99 458.33 210.39 681.50 494.77 863.46 506.46 100.76 649.44 682.39 474.84 169.86 870.53 807.36 264.17 492.43 921.19 353.46 199.49 655.67 533.01 605.47 0.00 538.81 776.20 668.22 425.73 354.05 159.24 389.31 425.03 295.03 210.65 377.40 430.37 931.74 682.82 549.02 659.62 340.57 792.29 785.88 456.42 367.97 335.32 591.12 130.61 41.41 574.03 437.26 616.85 541.19 418.80 901.66 796.12 509.22 314.35 828.13 317.44 501.50 479.16 512.26 1008.54 676.12 250.54 577.96 876.24 722.44 940.32 46.64 466.00 703.92 771.50 338.23 382.13 483.06 483.15 336.28 277.02
325.53 789.09 551.77 765.75 471.97 375.17 350.37 244.30 846.77 414.99 856.92 456.24 215.62 470.10 220.18 735.72 453.60 324.30 596.87 562.98 667.95 337.01 334.55 722.18 229.02 651.49 503.12 1036.91 822.55 605.36 605.92 205.01 324.65 177.61 587.32 155.19 765.32 285.97 527.77 992.95 669.76 600.37 199.38 939.44 731.34 738.30 714.15 321.37 639.90 538.81 0.00 341.32 622.97 798.78 659.37 575.81 348.79 391.26 739.45 619.59 595.47 737.90 492.08 276.80 656.48 409.02 859.31 611.90 845.20 916.89 682.37 280.13 521.36 547.18 580.22 1028.62 891.85 331.42 658.33 827.61 978.61 380.73 880.08 671.22 442.65 433.70 719.20 889.96 479.35 573.90 152.47 789.35 557.77 1043.22 632.13 493.20 585.45 767.65 833.46 300.60 798.07 879.39 776.05 525.45 364.24 658.02
490.15 850.73 686.42 1023.46 600.02 224.15 441.37 169.81 1041.09 478.75 976.29 368.36 125.70 198.00 269.67 922.17 483.59 488.92 641.20 574.50 781.28 213.76 473.04 797.03 134.96 816.11 635.58 1183.00 1010.64 718.69 689.75 367.67 134.50 406.98 708.83 186.13 833.74 418.77 695.00 1061.44 714.99 749.69 409.58 1024.88 898.70 857.10 782.57 479.17 765.14 776.20 341.32 0.00 652.96 1014.10 842.88 644.76 483.27 570.37 935.35 876.44 738.07 901.06 426.57 278.04 718.29 530.98 1004.06 583.74 950.81 1100.76 940.44 444.75 588.10 673.39 773.83 1222.94 1086.17 361.41 811.20 971.12 943.91 298.41 1044.66 800.12 379.09 598.32 853.68 1088.05 676.98 390.86 202.30 961.14 575.43 1051.22 905.41 261.45 744.99 932.27 868.85 295.15 891.14 1064.27 967.60 659.93 528.86 894.33
468.96 506.96 695.20 649.92 885.25 515.26 339.62 681.19 923.56 866.70 603.94 496.04 527.26 739.54 477.16 758.31 169.37 545.18 1052.37 102.14 683.55 802.39 382.31 921.52 646.34 473.08 970.58 1113.70 520.89 620.96 1130.26 484.98 580.30 474.98 679.10 546.34 448.37 398.06 645.89 542.70 139.14 646.25 453.21 487.86 1021.68 821.19 397.20 331.22 1114.25 668.22 622.97 652.96 0.00 928.07 967.00 632.31 832.68 350.18 904.27 772.12 414.15 559.49 560.46 409.05 1111.35 945.63 1008.79 134.64 510.94 1031.36 811.66 514.36 1018.06 660.94 663.11 1105.41 968.64 291.55 1153.78 747.61 410.42 390.12 761.96 982.57 438.76 498.31 1141.75 960.08 454.44 642.32 683.28 918.76 150.31 557.81 1255.10 628.21 621.58 599.26 428.98 489.88 1006.45 966.54 576.20 1009.34 543.29 945.24
613.42 701.24 607.01 349.74 677.04 1065.73 813.07 929.38 95.70 915.10 575.68 1110.41 943.45 1135.61 871.53 169.76 932.79 603.30 1056.77 971.97 251.95 1050.58 704.33 581.48 894.53 454.99 910.99 278.32 422.31 314.54 978.88 848.16 1123.43 794.74 362.12 953.97 751.36 722.43 419.58 920.54 879.58 338.58 772.97 946.10 587.22 399.56 708.06 792.28 873.90 425.73 798.78 1014.10 928.07 0.00 561.77 369.34 797.95 668.46 424.80 305.67 521.35 433.09 1179.89 945.11 846.40 1004.77 362.29 1010.83 847.11 190.48 116.41 639.77 958.47 340.71 420.62 270.03 133.26 878.75 809.62 195.59 942.72 1058.41 285.35 592.90 1058.21 567.16 868.89 114.93 656.21 1233.58 929.55 338.78 777.76 892.20 993.99 1233.27 379.09 439.68 787.16 1021.37 417.30 114.05 567.70 811.33 555.66 484.74
498.04 952.33 374.85 704.53 242.86 1034.54 786.78 800.86 506.08 582.95 939.99 1064.63 874.99 1038.77 828.33 514.12 934.31 548.31 607.54 1006.48 556.95 920.29 637.71 110.65 821.59 640.85 536.97 643.17 804.99 494.36 529.65 753.25 967.41 742.44 366.40 814.56 948.03 679.23 449.23 1155.18 1056.57 535.40 720.67 1212.69 71.97 239.45 931.60 728.29 458.24 354.05 659.37 842.88 967.00 561.77 0.00 430.47 407.41 670.24 140.05 377.00 648.63 667.91 1119.75 936.17 463.19 577.69 316.65 1043.34 1081.93 432.61 487.23 542.44 550.02 425.77 388.07 602.19 529.25 812.13 393.96 632.47 1201.56 1023.66 684.94 84.98 1035.25 596.81 339.29 593.06 750.53 1201.57 745.04 229.24 816.69 1196.83 578.33 1104.33 346.54 735.34 1013.73 928.27 217.08 450.80 801.20 332.16 514.69 77.03
301.00 603.81 325.23 378.70 483.29 796.76 443.73 665.47 427.23 635.68 528.78 797.69 605.40 842.76 502.19 277.41 563.45 291.22 802.70 669.21 157.98 724.69 392.25 412.54 694.02 232.95 614.47 538.24 437.19 122.14 739.84 478.82 779.26 442.84 64.07 626.03 552.30 353.09 50.24 756.19 713.96 104.93 454.07 796.54 485.17 287.15 501.13 432.77 720.46 159.24 575.81 644.76 632.31 369.34 430.47 0.00 460.14 332.97 327.17 250.26 218.16 319.36 843.51 641.49 607.36 701.17 451.82 705.16 689.98 456.00 317.93 320.50 661.95 28.63 129.07 579.22 472.31 523.69 700.43 326.36 820.63 720.97 399.90 473.59 785.48 197.82 660.74 484.27 353.02 925.33 617.47 375.71 482.00 799.69 825.40 886.47 121.59 377.75 608.02 652.03 437.57 467.72 370.73 514.36 236.39 353.44
429.39 1022.38 203.15 838.84 173.80 707.42 636.37 473.49 738.48 175.54 988.92 805.03 528.53 679.72 568.97 713.22 785.53 501.19 342.56 730.54 618.12 594.69 569.06 406.51 438.64 693.09 154.33 909.48 821.72 574.96 346.96 553.80 586.51 494.36 471.74 503.98 938.82 578.59 443.92 1149.87 922.66 565.07 472.59 1181.28 455.30 398.39 887.65 594.58 389.29 389.31 348.79 483.27 832.68 797.95 407.41 460.14 0.00 601.59 535.43 528.02 678.30 779.50 840.87 625.59 307.69 270.31 652.11 839.25 1077.08 751.13 681.54 457.02 201.81 488.77 404.80 909.10 783.56 680.21 393.85 786.50 1153.42 701.24 807.21 322.43 791.44 537.56 370.41 728.04 679.07 874.13 430.64 502.43 748.04 1239.63 495.39 744.72 431.07 830.57 1043.79 649.39 539.19 721.32 830.87 176.66 426.15 454.00
172.20 513.46 398.44 486.54 535.07 602.87 235.92 530.49 695.61 739.33 527.09 559.20 444.67 696.10 335.65 540.81 318.88 248.42 829.75 336.24 416.51 661.73 132.28 678.33 507.08 269.62 727.61 861.11 490.25 360.08 884.53 244.38 604.83 213.65 378.72 425.92 458.38 186.55 295.71 685.88 439.75 329.88 222.00 682.85 730.91 541.70 407.21 222.86 877.83 425.03 391.26 570.37 350.18 668.46 670.24 332.97 601.59 0.00 653.18 534.63 204.21 349.04 628.68 402.75 814.59 641.90 752.20 373.10 524.16 770.65 554.71 217.60 712.72 351.50 383.62 862.16 740.69 306.70 813.55 585.01 642.64 485.36 624.85 735.17 515.57 148.13 839.74 770.10 172.41 705.48 510.56 621.18 199.87 698.03 997.92 719.93 425.15 426.80 442.20 485.49 705.76 677.59 401.40 710.22 255.15 668.09
572.49 925.06 346.25 564.48 376.44 1043.92 770.90 848.05 366.03 710.97 855.95 1104.92 870.79 1054.28 821.16 400.53 870.68 586.18 706.78 975.70 485.15 969.25 704.83 178.73 813.20 560.12 626.20 518.00 702.59 441.86 669.70 779.08 1061.30 710.52 313.90 823.94 841.50 680.26 357.47 1063.42 1041.13 432.10 728.48 1123.71 212.02 139.39 813.41 759.94 598.29 295.03 739.45 935.35 904.27 424.80 140.05 327.17 535.43 653.18 0.00 236.95 545.33 631.56 1170.68 948.72 539.61 717.74 191.48 1012.39 1017.15 358.02 347.18 572.35 626.44 355.80 297.09 477.02 389.20 838.81 534.01 492.42 1137.71 1043.50 544.89 213.00 1065.16 505.05 479.34 453.01 680.19 1231.03 876.87 97.61 809.17 1126.86 686.56 1155.90 282.69 624.22 935.19 979.20 130.95 310.75 697.90 408.58 508.91 81.43
489.68 692.33 324.87 327.53 499.88 982.89 693.99 776.33 227.18 703.56 660.49 986.37 821.90 982.56 643.95 242.61 748.91 486.67 849.41 738.75 289.97 897.53 586.28 321.36 741.48 414.53 682.35 417.32 467.96 317.34 814.72 648.27 944.24 639.68 189.38 762.91 627.63 603.35 238.92 898.33 861.69 263.96 642.75 967.89 446.31 219.88 576.46 676.86 763.84 210.65 619.59 876.44 772.12 305.67 377.00 250.26 528.02 534.63 236.95 0.00 468.42 394.61 1029.41 830.17 682.24 798.33 239.72 847.46 781.43 363.33 189.26 509.18 729.83 248.75 174.63 409.03 272.26 720.26 751.84 306.13 935.94 937.69 376.19 435.22 957.99 386.50 685.53 314.16 591.78 1111.23 772.06 201.45 621.81 965.82 829.19 1028.23 216.16 447.36 741.39 837.93 289.14 273.80 529.76 551.21 425.07 318.38
281.64 434.80 507.88 300.49 674.48 619.90 314.66 690.16 509.41 848.77 402.31 691.95 623.12 896.75 468.40 381.11 433.74 357.86 973.61 488.11 269.40 821.40 265.03 571.25 685.69 95.88 832.63 699.55 286.04 206.81 958.00 445.03 772.40 417.86 282.23 619.81 351.24 319.30 238.21 650.23 495.80 269.05 400.61 578.38 696.20 505.31 369.66 355.61 938.62 377.40 595.47 738.07 414.15 521.35 648.63 218.16 678.30 204.21 545.33 468.42 0.00 162.99 761.43 513.20 825.52 846.11 669.98 504.92 531.66 645.56 428.56 327.04 880.11 246.79 347.23 691.26 554.49 394.62 918.41 446.93 659.35 620.16 447.77 681.28 679.05 173.47 878.90 575.50 134.86 838.23 634.85 563.68 263.84 689.43 1043.56 816.10 339.75 222.59 470.95 601.88 648.26 552.39 275.30 732.52 307.92 571.60
438.99 391.94 596.66 137.50 740.22 782.89 477.65 853.15 460.24 916.34 317.31 854.94 776.97 1045.14 631.39 279.11 596.73 425.43 1091.75 633.45 181.14 925.77 428.02 669.52 848.68 86.41 914.32 644.27 146.41 243.73 1059.20 593.42 935.39 562.69 359.13 774.96 362.16 482.29 369.60 574.48 649.06 214.66 563.60 597.39 739.88 558.28 310.99 518.60 985.51 430.37 737.90 901.06 559.49 433.09 667.91 319.36 779.50 349.04 631.56 394.61 162.99 0.00 924.42 676.19 926.72 923.27 634.33 650.26 414.02 566.98 332.46 457.77 961.80 299.76 400.20 612.76 505.32 541.26 921.23 291.65 570.74 766.80 284.78 744.72 841.34 330.82 931.87 431.70 297.85 1001.22 797.84 596.06 409.18 617.54 1105.60 962.74 407.48 78.72 461.48 764.87 577.76 465.16 159.26 833.72 373.66 648.50
636.07 863.09 861.16 1030.95 964.05 202.42 475.11 460.29 1187.01 813.64 986.89 69.48 343.05 471.16 440.04 1010.13 404.55 674.11 880.79 463.38 942.08 561.67 496.40 1111.77 481.40 857.31 777.26 1369.63 1013.51 879.49 958.68 490.07 368.85 509.63 907.58 352.69 779.53 490.42 816.93 985.97 634.78 910.91 487.86 914.12 1165.91 1051.48 800.89 465.71 1049.73 931.74 492.08 426.57 560.46 1179.89 1119.75 843.51 840.87 628.68 1170.68 1029.41 761.43 924.42 0.00 248.92 936.63 729.46 1269.13 503.53 842.24 1298.00 1063.48 681.47 824.74 860.02 945.38 1368.86 1232.09 395.88 1058.48 1133.17 886.26 170.34 1087.06 1123.59 189.11 692.59 1139.34 1233.97 688.09 121.22 557.95 1142.40 612.11 1003.74 1124.21 250.63 927.69 984.02 915.60 191.48 1215.47 1189.26 953.26 994.88 697.72 1095.20
471.92 736.51 675.40 782.03 748.77 219.68 261.26 348.59 972.26 648.98 862.07 179.44 152.34 428.13 216.10 885.19 242.60 474.42 747.69 351.98 693.16 450.25 345.00 912.08 353.07 609.08 674.46 1162.40 799.24 630.57 825.58 314.60 268.89 315.65 705.56 137.29 759.11 290.73 591.25 848.95 487.19 707.23 293.88 779.69 973.68 816.04 707.94 337.49 916.70 682.82 276.80 278.04 409.05 945.11 936.17 641.49 625.59 402.75 948.72 830.17 513.20 676.19 248.92 0.00 833.83 626.66 1023.39 417.94 732.56 1053.68 852.32 435.25 705.17 670.12 719.70 1138.81 1017.34 181.30 935.13 884.25 774.86 113.30 929.31 923.90 165.85 443.67 996.00 1047.95 517.74 325.72 372.53 916.72 443.86 841.79 908.93 424.92 678.77 735.79 814.52 88.68 1001.30 940.34 776.23 802.25 498.03 879.80
642.39 1211.17 416.15 986.06 306.18 829.75 816.61 548.48 887.52 299.14 1136.14 963.49 726.41 786.39 768.28 877.81 986.86 687.79 210.37 1038.23 765.34 599.21 754.70 360.88 583.33 840.31 159.37 1022.88 1007.35 729.50 132.48 671.25 735.71 693.86 649.78 755.35 1127.88 782.74 657.60 1363.55 1185.81 712.29 676.74 1403.90 485.83 586.18 1100.65 798.73 113.10 549.02 656.48 718.29 1111.35 846.40 463.19 607.36 307.69 814.59 539.61 682.24 825.52 926.72 936.63 833.83 0.00 256.61 699.54 1078.14 1290.08 817.23 857.22 687.79 173.58 635.99 590.43 985.08 906.64 896.57 125.15 933.72 1393.81 844.91 1007.26 474.74 932.54 750.56 246.88 951.65 894.88 1018.45 520.11 603.58 961.04 1396.69 262.13 926.03 595.66 985.11 1215.38 745.15 586.62 850.36 978.09 131.03 639.15 458.18
632.56 1082.13 473.46 1060.77 444.11 689.83 611.72 361.17 986.22 120.67 1128.42 756.32 483.00 569.19 610.73 899.47 781.97 573.64 187.85 885.23 833.20 342.60 628.00 617.49 396.02 836.86 210.69 1086.20 1069.68 770.61 265.74 579.82 608.90 511.26 642.65 543.43 1062.28 598.42 650.93 1254.30 1015.62 806.10 492.42 1232.48 649.66 668.70 1011.11 614.41 369.71 659.62 409.02 530.98 945.63 1004.77 577.69 701.17 270.31 641.90 717.74 798.33 846.11 923.27 729.46 626.66 256.61 0.00 894.34 884.37 1166.06 947.66 951.85 617.81 196.96 701.12 660.86 1077.91 941.14 691.68 381.76 960.69 1272.06 637.74 1074.14 592.74 725.37 684.06 503.49 998.35 813.00 811.28 359.47 772.74 821.24 1334.98 452.95 738.72 700.17 1001.99 1084.10 537.98 794.77 991.63 1016.28 387.64 549.61 654.72
643.33 932.05 450.43 567.25 529.78 1172.99 895.55 1016.05 303.52 827.65 900.21 1202.83 991.07 1202.06 883.67 434.99 988.63 631.72 866.71 978.47 509.54 1125.68 783.00 338.66 981.20 654.25 786.13 326.52 707.68 516.70 832.02 835.34 1109.21 833.63 429.10 988.54 867.35 795.72 478.64 1138.05 1062.74 503.68 828.08 1175.03 343.57 281.40 816.18 873.58 646.46 340.57 859.31 1004.06 1008.79 362.29 316.65 451.82 652.11 752.20 191.48 239.72 669.98 634.33 1269.13 1023.39 699.54 894.34 0.00 1087.18 1021.15 195.14 384.71 672.53 786.37 423.19 368.58 285.54 278.39 957.42 582.18 529.95 1094.06 1136.69 582.42 329.68 1165.34 626.22 655.94 390.50 804.84 1349.11 932.75 177.36 861.53 1194.25 766.55 1265.51 387.21 687.08 981.11 1077.65 112.92 248.24 769.48 568.51 588.42 252.97
545.30 529.36 771.54 740.69 855.11 527.58 299.98 689.12 1014.33 873.27 596.05 434.05 535.19 746.11 476.15 849.08 177.30 596.01 1066.63 108.71 774.32 797.50 406.99 1033.67 654.27 563.85 918.77 1204.47 655.53 711.73 1125.09 406.89 586.87 475.45 751.82 555.19 505.67 412.32 654.92 580.45 131.25 702.98 497.22 508.60 1104.01 914.80 454.50 384.14 1100.79 792.29 611.90 583.74 134.64 1010.83 1043.34 705.16 839.25 373.10 1012.39 847.46 504.92 650.26 503.53 417.94 1078.14 884.37 1087.18 0.00 479.20 1128.94 894.42 590.70 966.25 724.60 756.72 1196.18 1059.41 299.48 1133.59 882.25 531.59 460.80 822.54 1045.49 436.09 507.34 1180.38 1080.42 476.18 580.33 718.87 980.39 241.08 606.57 1241.13 634.78 756.22 727.51 539.59 469.95 1064.97 1036.80 639.53 1015.91 619.62 1041.19
647.69 169.80 873.93 534.60 1002.12 808.07 566.89 926.30 874.26 1201.78 295.36 816.11 825.11 1091.91 743.06 693.13 489.96 723.91 1257.97 478.66 595.16 1057.54 642.23 1039.18 961.15 457.03 1152.07 998.72 490.72 657.75 1335.86 640.19 956.82 708.75 729.29 821.73 180.42 679.23 715.24 202.39 389.80 601.17 726.89 237.69 1139.34 902.55 204.97 604.90 1309.12 785.88 845.20 950.81 510.94 847.11 1081.93 689.98 1077.08 524.16 1017.15 781.43 531.66 414.02 842.24 732.56 1290.08 1166.06 1021.15 479.20 0.00 976.90 746.48 687.53 1199.55 686.51 744.47 1014.90 919.34 612.14 1246.52 673.53 156.72 786.47 599.32 1100.23 653.13 567.66 1287.38 845.72 439.77 962.39 952.17 924.31 435.24 249.72 1430.89 957.34 786.00 483.02 81.96 821.24 991.78 879.18 353.54 1177.27 666.47 1018.66
687.09 864.92 576.15 500.12 644.45 1207.46 899.73 1119.86 136.15 926.67 766.16 1228.52 1061.40 1298.76 948.25 287.87 1003.19 713.89 984.40 1080.22 415.25 1180.69 814.92 456.35 1085.01 565.41 876.99 250.22 568.74 456.27 929.94 858.99 1232.41 877.34 391.93 1040.53 796.48 809.09 489.98 1070.92 997.69 498.80 855.57 1064.21 496.85 364.45 847.65 888.77 841.60 456.42 916.89 1100.76 1031.36 190.48 432.61 456.00 751.13 770.65 358.02 363.33 645.56 566.98 1298.00 1053.68 817.23 947.66 195.14 1128.94 976.90 0.00 234.52 716.15 904.06 451.30 451.31 241.93 105.16 943.99 777.32 379.76 1104.79 1166.98 432.23 496.69 1208.96 637.56 771.90 223.13 780.42 1355.07 1040.14 260.41 888.18 1038.81 961.69 1332.53 409.78 619.95 919.29 1108.03 308.06 113.34 718.08 686.20 676.13 365.12
523.13 630.40 498.91 265.60 563.15 972.94 743.22 926.67 167.95 857.08 544.19 994.00 897.05 1138.44 819.27 53.35 862.30 509.56 983.92 885.62 205.55 1019.38 643.03 496.34 911.39 338.58 795.69 358.09 371.96 221.75 989.70 733.51 1007.02 711.06 310.17 837.56 660.16 670.17 368.17 836.40 763.17 264.28 698.67 829.69 559.20 283.15 633.56 696.45 880.72 367.97 682.37 940.44 811.66 116.41 487.23 317.93 681.54 554.71 347.18 189.26 428.56 332.46 1063.48 852.32 857.22 951.85 384.71 894.42 746.48 234.52 0.00 546.98 843.17 289.30 326.56 349.80 213.03 817.45 816.44 145.24 903.20 965.62 197.71 560.18 1018.17 496.25 773.43 231.34 563.42 1140.28 834.84 387.19 661.35 860.71 1000.81 1172.11 335.50 385.43 684.77 941.00 468.94 197.02 483.56 726.19 462.87 428.61
45.40 617.29 271.64 594.01 450.67 563.77 311.36 504.03 596.34 535.08 625.33 611.99 436.77 614.68 348.12 531.17 423.05 44.17 710.49 532.43 387.82 617.14 185.07 481.83 495.31 371.36 572.59 786.48 565.89 325.23 778.91 232.13 579.25 256.64 324.22 376.34 533.73 199.02 270.26 828.59 603.93 320.24 268.03 756.74 604.11 495.14 482.56 275.65 688.72 335.32 280.13 444.75 514.36 639.77 542.44 320.50 457.02 217.60 572.35 509.18 327.04 457.77 681.47 435.25 687.79 617.81 672.53 590.70 687.53 716.15 546.98 0.00 620.07 306.76 351.16 778.19 641.42 359.49 676.04 574.67 829.13 533.47 615.21 595.69 492.81 153.57 640.74 643.30 247.76 758.27 418.76 585.86 364.05 871.92 820.53 706.20 309.63 487.52 619.61 497.96 602.01 651.62 544.46 596.21 84.11 569.46
609.00 1147.11 404.96 1040.65 335.12 717.86 704.72 418.29 900.11 170.35 1141.04 844.12 552.83 656.20 594.70 861.53 874.97 575.90 140.75 932.35 780.66 539.56 642.81 447.71 453.14 894.90 47.48 1074.71 1023.53 743.13 171.81 559.36 623.82 586.62 636.90 613.26 1063.55 670.85 645.73 1347.30 1073.92 766.88 564.85 1304.91 568.24 560.02 1012.38 686.84 286.68 591.12 521.36 588.10 1018.06 958.47 550.02 661.95 201.81 712.72 626.44 729.83 880.11 961.80 824.74 705.17 173.58 196.96 786.37 966.25 1199.55 904.06 843.17 620.07 0.00 690.58 606.61 1071.91 945.19 780.31 233.74 944.99 1286.87 725.54 1009.02 524.24 820.65 717.17 328.92 929.85 861.49 900.52 387.17 664.06 874.81 1388.55 353.75 771.11 579.38 998.74 1154.92 633.26 673.45 882.95 982.99 217.86 627.96 545.01
329.63 632.44 302.09 407.33 478.59 803.86 472.36 684.84 417.31 640.63 557.41 790.54 634.03 871.39 530.82 306.04 592.08 262.59 810.51 687.74 138.21 753.32 363.62 383.91 665.39 261.58 643.10 509.61 427.49 93.51 768.47 507.45 807.89 471.47 59.37 654.66 576.23 381.72 78.87 739.92 742.59 133.56 470.70 811.77 480.47 258.52 525.06 454.20 721.68 130.61 547.18 673.39 660.94 340.71 425.77 28.63 488.77 351.50 355.80 248.75 246.79 299.76 860.02 670.12 635.99 701.12 423.19 724.60 686.51 451.30 289.30 306.76 690.58 0.00 100.44 550.59 462.39 538.04 671.80 347.19 815.46 749.57 417.94 444.96 779.18 226.45 632.11 455.64 381.65 936.82 588.84 362.56 510.63 771.06 853.05 915.10 116.89 349.12 604.55 680.66 408.94 439.09 399.36 542.99 256.66 348.74
325.58 664.61 201.65 502.16 430.62 873.83 572.80 785.28 401.81 540.19 647.13 875.90 691.91 965.84 580.00 323.68 641.66 332.56 721.31 719.86 238.65 853.76 464.06 294.71 765.83 347.99 559.13 513.58 416.92 183.52 697.73 533.61 869.65 465.05 73.54 685.90 655.17 482.16 128.45 834.40 776.43 234.00 486.82 891.36 394.87 158.08 625.50 547.74 646.88 41.41 580.22 773.83 663.11 420.62 388.07 129.07 404.80 383.62 297.09 174.63 347.23 400.20 945.38 719.70 590.43 660.86 368.58 756.72 744.47 451.31 326.56 351.16 606.61 100.44 0.00 554.56 446.89 609.79 582.60 391.58 896.55 818.95 504.11 355.76 843.97 276.03 542.91 488.79 481.31 1014.56 689.28 262.12 536.55 834.83 763.85 964.28 41.53 432.65 662.51 781.10 349.81 423.54 499.80 524.56 294.87 317.30
732.79 910.38 733.90 561.48 763.19 1259.43 1005.92 1185.36 181.85 1084.64 823.37 1299.38 1137.15 1389.01 1052.98 403.15 1077.59 809.01 1152.25 1147.78 445.65 1303.91 872.46 624.20 1150.51 665.13 1027.94 40.98 600.35 508.24 1117.56 960.87 1338.25 975.11 554.59 1142.41 893.22 913.98 629.46 1132.28 1112.97 532.28 955.42 1115.43 629.11 521.94 862.33 963.04 920.70 574.03 1028.62 1222.94 1105.41 270.03 602.19 579.22 909.10 862.16 477.02 409.03 691.26 612.76 1368.86 1138.81 985.08 1077.91 285.54 1196.18 1014.90 241.93 349.80 778.19 1071.91 550.59 554.56 0.00 136.77 1046.88 867.72 407.33 1171.62 1252.11 440.38 615.22 1220.50 744.68 930.02 181.06 813.00 1427.28 1080.46 462.90 955.10 1040.99 1052.09 1314.61 596.09 651.42 932.94 1212.92 398.46 215.22 677.30 854.05 749.36 538.51
596.02 834.50 597.13 478.63 626.42 1137.96 869.15 1048.59 45.08 959.10 708.94 1162.61 1015.68 1252.24 916.21 266.38 988.23 672.24 1085.94 1011.01 324.18 1169.79 735.69 561.51 1013.74 543.66 897.71 145.06 463.58 386.77 1035.10 824.10 1201.48 840.42 417.82 1005.64 800.50 777.21 511.18 1010.85 976.20 410.81 818.65 1033.11 560.36 385.17 749.33 826.27 900.22 437.26 891.85 1086.17 968.64 133.26 529.25 472.31 783.56 740.69 389.20 272.26 554.49 505.32 1232.09 1017.34 906.64 941.14 278.39 1059.41 919.34 105.16 213.03 641.42 945.19 462.39 446.89 136.77 0.00 910.11 835.94 328.85 1075.98 1121.64 410.74 576.68 1134.23 607.91 818.27 129.22 689.35 1305.81 969.38 363.78 818.33 989.15 1020.31 1300.49 475.34 541.95 897.80 1076.15 366.68 78.45 664.58 775.61 627.89 470.28
314.09 594.61 540.33 678.76 635.09 350.68 79.96 389.64 865.03 671.12 714.01 344.12 235.71 559.41 185.61 775.73 122.18 373.66 827.65 231.56 658.29 510.84 174.42 735.21 354.79 490.50 737.20 1047.65 680.66 595.70 901.89 225.32 407.16 210.52 552.06 255.71 577.81 192.30 481.34 722.54 366.77 588.93 232.29 682.30 860.16 763.83 526.64 160.72 880.77 616.85 331.42 361.41 291.55 878.75 812.13 523.69 680.21 306.70 838.81 720.26 394.62 541.26 395.88 181.30 896.57 691.68 957.42 299.48 612.14 943.99 817.45 359.49 780.31 538.04 609.79 1046.88 910.11 0.00 910.54 832.91 654.44 225.54 826.04 825.47 320.36 333.76 939.14 911.99 336.44 466.98 431.34 806.81 289.48 721.37 963.55 421.48 609.58 617.21 665.58 226.95 891.39 863.22 633.14 810.24 397.04 832.51
693.44 1176.28 518.25 1058.73 278.48 951.60 833.61 652.03 790.86 332.45 1182.30 1077.86 786.57 888.31 828.44 832.41 1003.86 631.87 332.74 1097.01 810.01 724.36 831.11 466.56 685.45 897.74 281.22 908.70 999.52 751.58 254.85 768.58 857.56 700.02 641.95 813.52 1092.72 815.56 711.05 1411.72 1197.52 805.36 721.79 1432.78 446.47 558.48 1041.55 843.78 64.28 541.19 658.33 811.20 1153.78 809.62 393.96 700.43 393.85 813.55 534.01 751.84 918.41 921.23 1058.48 935.13 125.15 381.76 582.18 1133.59 1246.52 777.32 816.44 676.04 233.74 671.80 582.60 867.72 835.94 910.54 0.00 955.78 1401.03 959.28 1012.84 458.79 1019.76 744.94 121.73 877.84 912.37 1133.28 608.90 556.95 1012.09 1417.43 184.37 1003.87 587.83 999.95 1206.48 867.00 469.26 830.42 1024.25 256.18 610.49 465.70
555.06 518.95 586.63 154.15 708.39 1004.87 761.59 985.17 291.29 931.77 457.19 1063.69 919.24 1153.98 805.15 123.37 850.41 558.49 1085.74 827.28 227.74 1051.05 674.96 627.49 950.32 351.05 897.51 438.84 226.72 253.68 1031.76 702.26 1048.07 687.01 318.04 883.80 563.64 679.45 376.60 724.95 886.75 314.37 665.24 796.80 680.48 428.39 512.47 759.13 984.09 418.80 827.61 971.12 747.61 195.59 632.47 326.36 786.50 585.01 492.42 306.13 446.93 291.65 1133.17 884.25 933.72 960.69 529.95 882.25 673.53 379.76 145.24 574.67 944.99 347.19 391.58 407.33 328.85 832.91 955.78 0.00 824.23 997.55 113.45 704.48 1050.10 524.18 843.45 226.27 551.53 1209.37 926.44 420.70 653.76 773.71 1135.32 1189.43 375.56 244.09 591.57 961.62 508.39 309.64 372.11 840.72 490.56 572.91
783.73 312.52 1009.97 677.32 1130.01 900.11 702.51 960.65 1030.98 1187.44 367.04 816.78 871.68 1060.28 840.05 849.85 532.26 843.30 1352.64 422.88 751.88 1091.89 644.06 1154.96 995.50 608.41 1239.39 1155.44 619.22 721.95 1430.53 796.91 901.04 801.41 849.91 910.15 308.31 698.33 840.69 134.74 544.15 715.70 779.64 80.97 1255.12 1054.63 359.48 734.64 1440.68 901.66 978.61 943.91 410.42 942.72 1201.56 820.63 1153.42 642.64 1137.71 935.94 659.35 570.74 886.26 774.86 1393.81 1272.06 1094.06 531.59 156.72 1104.79 903.20 829.13 1286.87 815.46 896.55 1171.62 1075.98 654.44 1401.03 824.23 0.00 774.97 756.04 1216.01 768.27 718.08 1348.24 1002.44 594.28 963.06 929.09 1052.20 560.73 147.39 1555.19 948.95 855.02 625.74 238.68 863.54 1139.89 1035.90 510.26 1305.16 820.98 1139.28
525.62 795.47 751.86 895.33 839.94 125.14 305.50 368.96 1076.56 643.30 876.84 118.58 172.71 414.02 329.40 984.34 301.56 551.57 777.69 352.09 806.46 470.62 385.95 960.75 389.68 716.04 685.54 1259.18 880.01 743.87 855.58 343.97 279.97 365.71 777.60 233.14 759.52 367.88 704.55 816.37 529.26 773.41 387.48 744.52 1078.75 904.11 708.35 295.37 956.10 796.12 380.73 298.41 390.12 1058.41 1023.66 720.97 701.24 485.36 1043.50 937.69 620.16 766.80 170.34 113.30 844.91 637.74 1136.69 460.80 786.47 1166.98 965.62 533.47 725.54 749.57 818.95 1252.11 1121.64 225.54 959.28 997.55 774.97 0.00 916.72 1001.05 133.34 556.97 1047.62 1123.52 517.75 264.86 466.23 1008.15 509.12 900.75 1012.86 330.38 777.42 842.75 819.10 99.76 1093.08 1053.64 782.92 877.90 575.18 975.65
569.81 512.08 604.06 147.28 760.86 1041.86 762.43 1049.29 365.66 982.75 480.24 1035.30 971.23 1226.03 869.27 180.43 819.21 646.03 1149.77 713.83 279.73 1124.59 709.48 694.05 1014.44 360.85 961.54 399.40 287.71 342.32 1118.78 815.71 1112.19 751.13 431.49 964.00 466.01 751.00 450.14 718.08 851.53 294.97 729.36 738.10 742.10 480.86 517.18 796.58 1041.15 509.22 880.08 1044.66 761.96 285.35 684.94 399.90 807.21 624.85 544.89 376.19 447.77 284.78 1087.06 929.31 1007.26 1074.14 582.42 822.54 599.32 432.23 197.71 615.21 1009.02 417.94 504.11 440.38 410.74 826.04 1012.84 113.45 756.04 916.72 0.00 741.94 1050.06 559.78 900.51 339.72 544.66 1181.58 943.17 528.19 611.65 782.57 1128.00 1239.90 462.58 267.11 602.08 1016.48 596.02 394.73 365.24 914.26 583.44 610.37
583.02 1006.87 396.15 762.75 200.10 1024.27 745.51 795.92 531.60 497.97 955.46 1103.34 845.08 998.12 782.27 599.10 915.76 551.52 581.63 997.93 572.11 916.71 687.44 113.86 761.07 689.56 476.76 656.20 772.68 509.52 503.74 758.90 908.94 760.94 415.11 826.41 992.07 633.17 443.07 1149.02 1121.71 578.52 739.17 1220.87 132.87 293.99 970.02 712.85 491.43 314.35 671.22 800.12 982.57 592.90 84.98 473.59 322.43 735.17 213.00 435.22 681.28 744.72 1123.59 923.90 474.74 592.74 329.68 1045.49 1100.23 496.69 560.18 595.69 524.24 444.96 355.76 615.22 576.68 825.47 458.79 704.48 1216.01 1001.05 741.94 0.00 1065.56 590.65 350.79 618.58 795.93 1190.98 753.07 283.78 892.31 1190.59 519.37 1061.57 360.99 765.13 1018.27 932.11 216.76 523.75 797.41 343.71 566.66 131.57
538.21 746.82 764.45 940.52 914.62 154.94 366.37 496.77 1089.15 687.31 872.38 162.98 300.52 443.82 314.04 1023.98 269.39 536.98 905.50 345.39 859.01 591.11 486.66 974.64 477.31 763.68 773.17 1261.48 930.53 796.42 979.49 402.29 333.58 470.85 817.03 303.14 710.48 432.39 757.10 800.32 513.98 813.05 453.95 728.47 1071.62 974.77 679.84 428.71 1045.64 828.13 442.65 379.09 438.76 1058.21 1035.25 785.48 791.44 515.57 1065.16 957.99 679.05 841.34 189.11 165.85 932.54 725.37 1165.34 436.09 653.13 1208.96 1018.17 492.81 820.65 779.18 843.97 1220.50 1134.23 320.36 1019.76 1050.10 768.27 133.34 1050.06 1065.56 0.00 609.52 1133.55 1136.11 568.27 309.26 538.38 1078.67 440.91 868.58 1074.78 304.21 802.44 901.64 735.09 187.39 1094.82 1106.19 845.80 968.10 576.92 1045.65
108.17 493.33 334.41 457.76 501.01 598.94 330.85 569.11 584.74 675.30 529.06 623.11 524.97 730.31 419.43 475.23 455.94 184.39 850.71 484.37 337.09 700.35 216.06 570.74 558.08 244.41 691.89 736.06 459.51 274.50 883.04 283.00 679.35 284.94 261.89 464.54 409.77 270.33 147.58 770.05 566.22 264.81 296.52 751.85 666.88 434.11 440.08 306.64 777.10 317.44 433.70 598.32 498.31 567.16 596.81 197.82 537.56 148.13 505.05 386.50 173.47 330.82 692.59 443.67 750.56 684.06 626.22 507.34 567.66 637.56 496.25 153.57 717.17 226.45 276.03 744.68 607.91 333.76 744.94 524.18 718.08 556.97 559.78 590.65 609.52 0.00 780.96 671.72 205.28 769.39 481.53 473.05 348.00 747.96 929.31 755.24 288.19 396.06 545.84 532.35 557.63 529.46 423.83 658.98 134.45 551.26
672.79 1190.72 472.60 997.60 325.27 1032.46 880.40 747.21 773.19 454.18 1142.61 1166.20 881.75 985.12 856.59 720.08 1050.65 596.57 407.52 1100.95 770.32 846.09 795.81 364.17 750.96 876.71 362.08 963.33 959.83 710.91 372.58 807.01 938.42 738.45 602.26 874.39 1107.16 780.26 671.36 1372.03 1231.32 765.67 716.68 1397.48 324.74 578.74 1123.30 838.67 140.64 501.50 719.20 853.68 1141.75 868.89 339.29 660.74 370.41 839.74 479.34 685.53 878.90 931.87 1139.34 996.00 246.88 503.49 655.94 1180.38 1287.38 771.90 773.43 640.74 328.92 632.11 542.91 930.02 818.27 939.14 121.73 843.45 1348.24 1047.62 900.51 350.79 1133.55 780.96 0.00 860.17 888.50 1221.16 674.41 568.53 991.44 1377.74 306.10 1093.66 548.14 966.52 1205.42 947.86 555.39 790.09 984.56 219.85 691.83 416.32
597.90 745.22 639.03 380.42 668.32 1168.57 886.64 1044.31 86.98 903.58 642.31 1164.49 1033.14 1250.54 902.04 248.28 1009.24 674.12 1070.60 1052.91 354.79 1165.51 737.57 590.77 1009.46 518.11 882.37 212.57 439.19 417.38 1075.00 853.11 1203.36 842.30 459.72 1019.57 712.16 778.27 534.51 951.22 994.51 441.42 820.53 1016.81 624.17 427.07 724.94 828.15 942.12 479.16 889.96 1088.05 960.08 114.93 593.06 484.27 728.04 770.10 453.01 314.16 575.50 431.70 1233.97 1047.95 951.65 998.35 390.50 1080.42 845.72 223.13 231.34 643.30 929.85 455.64 488.79 181.06 129.22 911.99 877.84 226.27 1002.44 1123.52 339.72 618.58 1136.11 671.72 860.17 0.00 710.36 1310.77 971.26 405.68 839.34 859.93 1062.21 1286.32 494.02 470.36 817.84 1077.21 408.58 142.26 590.96 820.62 658.50 534.44
252.49 369.53 478.73 397.38 668.44 642.89 368.53 605.05 644.27 782.84 377.57 633.95 562.03 822.02 407.31 515.97 298.88 291.93 912.52 385.35 404.26 736.29 219.46 706.11 608.59 230.74 814.79 834.41 362.26 341.67 990.41 370.30 706.34 301.74 417.09 522.59 285.97 258.21 352.86 642.16 360.94 372.98 323.51 599.96 811.20 639.39 234.80 310.04 936.48 512.26 479.35 676.98 454.44 656.21 750.53 353.02 679.07 172.41 680.19 591.78 134.86 297.85 688.09 517.74 894.88 813.00 804.84 476.18 439.77 780.42 563.42 247.76 861.49 381.65 481.31 813.00 689.35 336.44 912.37 551.53 594.28 517.75 544.66 795.93 568.27 205.28 888.50 710.36 0.00 780.23 598.65 678.33 372.28 624.16 1068.29 757.92 474.61 357.45 371.85 557.15 762.91 687.25 296.70 803.30 301.88 706.46
712.87 975.26 939.11 1107.75 990.88 253.39 546.94 506.96 1260.73 800.83 1100.82 146.28 402.72 349.94 513.69 1086.93 481.35 736.37 957.59 540.18 981.63 473.81 573.20 1171.71 472.11 934.11 859.08 1446.43 1090.31 956.29 1026.90 571.89 327.36 591.45 989.40 434.51 900.75 572.24 893.73 1062.77 711.58 987.71 569.68 990.92 1235.85 1133.30 917.35 560.23 1111.50 1008.54 573.90 390.86 642.32 1233.58 1201.57 925.33 874.13 705.48 1231.03 1111.23 838.23 1001.22 121.22 325.72 1018.45 811.28 1349.11 580.33 962.39 1355.07 1140.28 758.27 900.52 936.82 1014.56 1427.28 1305.81 466.98 1133.28 1209.37 963.06 264.86 1181.58 1190.98 309.26 769.39 1221.16 1310.77 780.23 0.00 548.66 1219.20 688.91 1080.54 1206.03 129.41 973.03 1060.82 1020.80 273.30 1282.00 1241.73 1047.78 1049.93 779.13 1149.60
373.36 908.39 586.19 918.22 604.44 426.45 427.43 111.40 924.30 276.45 976.22 551.97 295.67 317.63 251.26 859.13 544.66 449.58 512.73 654.04 727.05 232.60 429.56 731.12 76.55 725.94 434.65 1098.45 893.85 672.76 558.98 311.98 336.80 296.91 648.21 235.24 884.62 375.29 602.89 1063.83 789.25 648.20 318.68 1010.06 817.01 815.44 833.45 440.67 562.84 676.12 152.47 202.30 683.28 929.55 745.04 617.47 430.64 510.56 876.87 772.06 634.85 797.84 557.95 372.53 520.11 359.47 932.75 718.87 952.17 1040.14 834.84 418.76 387.17 588.84 689.28 1080.46 969.38 431.34 608.90 926.44 929.09 466.23 943.17 753.07 538.38 481.53 674.41 971.26 598.65 548.66 0.00 907.52 636.95 1076.48 740.92 419.25 705.73 815.48 952.76 366.47 819.83 979.58 895.35 501.27 456.31 810.49
553.30 827.45 375.61 528.98 384.04 1042.27 803.90 904.88 318.70 677.97 838.60 1072.92 835.44 1113.51 835.65 347.76 838.68 541.69 770.75 934.12 484.31 948.32 672.83 242.70 874.72 608.66 616.58 503.88 647.42 445.64 736.06 743.73 1059.18 675.17 335.66 894.72 743.89 707.98 325.47 1031.42 1038.55 465.41 696.94 1103.27 259.78 104.04 777.91 763.41 621.23 250.54 789.35 961.14 918.76 338.78 229.24 375.71 502.43 621.18 97.61 201.45 563.68 596.06 1142.40 916.72 603.58 772.74 177.36 980.39 924.31 260.41 387.19 585.86 664.06 362.56 262.12 462.90 363.78 806.81 556.95 420.70 1052.20 1008.15 528.19 283.78 1078.67 473.05 568.53 405.68 678.33 1219.20 907.52 0.00 798.67 1082.08 741.32 1125.26 297.18 648.81 879.96 964.04 87.69 373.75 731.21 472.55 507.00 152.21
318.65 432.47 544.89 499.61 734.94 595.85 209.52 575.78 773.25 858.69 518.10 542.63 525.19 773.43 385.69 608.00 207.56 394.87 940.58 224.27 533.24 707.02 232.00 831.26 610.63 322.77 827.33 963.39 549.88 470.65 1018.47 354.88 677.19 380.16 546.07 536.42 348.91 286.27 495.58 486.01 239.88 495.94 367.58 557.86 877.36 694.63 297.74 293.68 1010.33 577.96 557.77 575.43 150.31 777.76 816.69 482.00 748.04 199.87 809.17 621.81 263.84 409.18 612.11 443.86 961.04 821.24 861.53 241.08 435.24 888.18 661.35 364.05 874.81 510.63 536.55 955.10 818.33 289.48 1012.09 653.76 560.73 509.12 611.65 892.31 440.91 348.00 991.44 839.34 372.28 688.91 636.95 798.67 0.00 513.74 1143.13 710.96 578.08 486.43 397.34 516.43 886.36 816.23 425.89 869.46 401.60 835.44
832.39 289.45 1036.48 649.48 1159.89 1014.66 723.26 1089.52 946.91 1334.83 316.52 934.26 957.08 1207.67 837.30 807.36 599.19 908.61 1454.32 570.27 798.68 1220.76 745.74 1129.54 1076.16 622.95 1341.07 1072.50 568.70 794.43 1437.92 868.62 1048.43 893.90 830.43 962.80 338.19 800.01 799.18 121.00 475.32 740.37 879.16 156.88 1229.70 992.91 389.36 802.34 1394.34 876.24 1043.22 1051.22 557.81 892.20 1196.83 799.69 1239.63 698.03 1126.86 965.82 689.43 617.54 1003.74 841.79 1396.69 1334.98 1194.25 606.57 249.72 1038.81 860.71 871.92 1388.55 771.06 834.83 1040.99 989.15 721.37 1417.43 773.71 147.39 900.75 782.57 1190.59 868.58 747.96 1377.74 859.93 624.16 1080.54 1076.48 1082.08 513.74 0.00 1579.82 1096.34 876.36 538.82 255.83 930.47 1169.77 1002.19 474.57 1265.66 850.86 1119.80
863.87 1360.65 678.28 1156.72 462.85 1007.30 941.15 772.04 975.23 508.58 1354.18 1076.41 847.75 924.77 852.31 1016.78 1085.73 816.24 265.10 1195.11 983.38 795.55 911.13 507.83 770.45 1058.35 401.23 1093.07 1180.77 932.83 304.57 837.14 956.78 809.74 823.20 787.32 1277.09 918.10 875.64 1581.59 1301.89 930.33 831.51 1571.57 630.84 742.85 1225.92 953.50 185.48 722.44 632.13 905.41 1255.10 993.99 578.33 825.40 495.39 997.92 686.56 829.19 1043.56 1105.60 1124.21 908.93 262.13 452.95 766.55 1241.13 1430.89 961.69 1000.81 820.53 353.75 853.05 763.85 1052.09 1020.31 963.55 184.37 1135.32 1555.19 1012.86 1128.00 519.37 1074.78 929.31 306.10 1062.21 1068.29 1206.03 740.92 741.32 1143.13 1579.82 0.00 1113.15 769.08 1184.32 1390.85 932.73 653.63 997.31 1196.13 318.73 794.86 605.13
714.57 1011.36 876.12 1100.24 861.47 205.24 501.44 377.55 1255.41 671.42 1101.23 275.69 289.82 283.20 384.28 1118.76 543.66 708.23 848.94 526.07 981.32 438.75 587.65 1058.48 342.70 911.98 818.59 1355.59 1102.14 956.43 897.49 519.55 242.79 545.96 950.54 338.01 941.24 533.38 902.82 1048.66 722.11 958.58 524.19 976.81 1106.44 1021.22 927.74 582.20 982.09 940.32 493.20 261.45 628.21 1233.27 1104.33 886.47 744.72 719.93 1155.90 1028.23 816.10 962.74 250.63 424.92 926.03 738.72 1265.51 634.78 957.34 1332.53 1172.11 706.20 771.11 915.10 964.28 1314.61 1300.49 421.48 1003.87 1189.43 948.95 330.38 1239.90 1061.57 304.21 755.24 1093.66 1286.32 757.92 129.41 419.25 1125.26 710.96 1096.34 1113.15 0.00 922.75 1038.69 991.24 376.89 1152.59 1265.20 1004.19 920.52 740.68 1080.52
349.40 651.47 227.92 500.29 467.69 868.71 565.32 765.72 430.26 581.72 631.11 858.21 697.14 924.31 538.47 282.15 653.82 327.44 720.13 723.72 226.34 846.28 480.51 299.94 730.87 331.97 531.90 555.11 458.45 163.75 656.20 536.12 828.62 467.56 57.52 680.43 639.15 474.68 140.61 846.56 760.72 226.52 445.79 918.13 400.10 199.61 622.72 506.21 652.11 46.64 585.45 744.99 621.58 379.09 346.54 121.59 431.07 425.15 282.69 216.16 339.75 407.48 927.69 678.77 595.66 700.17 387.21 756.22 786.00 409.78 335.50 309.63 579.38 116.89 41.53 596.09 475.34 609.58 587.83 375.56 855.02 777.42 462.58 360.99 802.44 288.19 548.14 494.02 474.61 973.03 705.73 297.18 578.08 876.36 769.08 922.75 0.00 419.36 704.04 742.17 384.87 428.77 492.32 529.79 326.76 323.66
442.12 313.22 634.30 119.83 802.79 842.49 537.25 912.75 498.12 895.60 287.68 914.54 845.71 1098.34 690.99 357.83 656.33 504.15 1073.36 701.40 259.86 1004.49 487.62 719.30 892.03 165.13 951.26 666.51 78.37 255.61 1075.56 667.62 994.99 640.45 383.57 842.40 365.83 541.89 418.41 626.18 682.80 293.38 623.20 567.76 804.67 555.03 314.66 578.20 1064.23 466.00 767.65 932.27 599.26 439.68 735.34 377.75 830.57 426.80 624.22 447.36 222.59 78.72 984.02 735.79 985.11 1001.99 687.08 727.51 483.02 619.95 385.43 487.52 998.74 349.12 432.65 651.42 541.95 617.21 999.95 244.09 625.74 842.75 267.11 765.13 901.64 396.06 966.52 470.36 357.45 1060.82 815.48 648.81 486.43 538.82 1184.32 1038.69 419.36 0.00 438.74 824.47 656.48 543.88 129.63 892.11 452.38 672.94
614.40 192.91 840.64 527.07 957.77 890.03 585.62 939.40 852.72 1154.69 318.47 891.62 743.15 1066.85 761.79 660.30 571.92 663.78 1271.95 497.72 594.55 1041.06 574.48 957.22 949.28 375.07 1169.81 973.92 450.68 609.17 1326.73 686.58 927.71 655.85 647.33 803.58 136.07 628.75 658.26 284.35 414.77 548.24 664.20 240.65 1057.38 820.59 164.93 577.91 1269.08 703.92 833.46 868.85 428.98 787.16 1013.73 608.02 1043.79 442.20 935.19 741.39 470.95 461.48 915.60 814.52 1215.38 1084.10 981.11 539.59 81.96 919.29 684.77 619.61 1154.92 604.55 662.51 932.94 897.80 665.58 1206.48 591.57 238.68 819.10 602.08 1018.27 735.09 545.84 1205.42 817.84 371.85 1020.80 952.76 879.96 397.34 255.83 1390.85 991.24 704.04 438.74 0.00 747.50 967.65 881.79 309.11 1122.38 626.43 936.70
480.13 778.78 699.32 870.71 772.57 204.00 306.91 324.77 1031.07 642.92 871.82 218.34 169.45 339.45 304.78 929.44 331.28 482.63 725.83 440.66 781.84 403.72 353.21 920.29 289.92 697.76 585.78 1190.27 887.92 719.25 792.10 298.59 180.21 318.15 716.10 161.21 695.22 298.94 679.93 908.85 545.59 730.77 296.38 837.00 1000.24 860.00 644.05 334.43 858.25 771.50 300.60 295.15 489.88 1021.37 928.27 652.03 649.39 485.49 979.20 837.93 601.88 764.87 191.48 88.68 745.15 537.98 1077.65 469.95 821.24 1108.03 941.00 497.96 633.26 680.66 781.10 1212.92 1076.15 226.95 867.00 961.62 863.54 99.76 1016.48 932.11 187.39 532.35 947.86 1077.21 557.15 273.30 366.47 964.04 516.43 930.47 932.73 376.89 742.17 824.47 747.50 0.00 1023.99 1029.02 829.08 803.40 506.24 903.72
600.85 915.14 437.87 616.67 416.86 1102.54 837.54 931.23 321.60 714.73 895.07 1157.50 923.13 1089.14 874.30 415.59 923.26 629.38 753.79 1021.81 396.62 1036.01 740.52 225.74 896.38 616.10 673.21 439.44 724.17 459.21 719.10 831.42 996.29 762.86 423.35 882.56 831.58 725.20 410.05 1116.00 1104.93 483.25 757.56 1105.55 230.65 191.73 865.60 804.88 533.54 338.23 798.07 891.14 1006.45 417.30 217.08 437.57 539.19 705.76 130.95 289.14 648.26 577.76 1215.47 1001.30 586.62 794.77 112.92 1064.97 991.78 308.06 468.94 602.01 673.45 408.94 349.81 398.46 366.68 891.39 469.26 508.39 1139.89 1093.08 596.02 216.76 1094.82 557.63 555.39 408.58 762.91 1282.00 819.83 87.69 886.36 1169.77 653.63 1152.59 384.87 656.48 967.65 1023.99 0.00 361.16 737.02 455.59 517.90 140.05
606.22 801.95 568.29 437.15 602.93 1096.77 860.31 1031.76 55.28 896.86 689.73 1119.78 987.62 1197.37 906.01 249.98 985.40 650.39 1017.53 966.88 334.38 1163.00 745.52 489.48 1008.58 535.21 835.47 223.51 480.50 345.58 980.45 745.65 1178.69 814.21 418.74 927.19 817.42 787.41 508.38 1007.95 960.19 421.01 825.98 1026.71 481.91 322.93 766.25 836.10 894.70 382.13 879.39 1064.27 966.54 114.05 450.80 467.72 721.32 677.59 310.75 273.80 552.39 465.16 1189.26 940.34 850.36 991.63 248.24 1036.80 879.18 113.34 197.02 651.62 882.95 439.09 423.54 215.22 78.45 863.22 830.42 309.64 1035.90 1053.64 394.73 523.75 1106.19 529.46 790.09 142.26 687.25 1241.73 979.58 373.75 816.23 1002.19 997.31 1265.20 428.77 543.88 881.79 1029.02 361.16 0.00 624.42 719.33 586.70 392.18
532.00 233.08 669.22 217.96 786.79 895.20 589.96 901.75 619.50 1006.41 158.05 901.50 841.90 1097.50 704.01 436.35 595.58 584.69 1123.74 586.70 340.40 1018.78 516.16 736.36 905.29 179.42 985.20 718.28 208.00 342.46 1110.57 645.78 978.99 598.44 434.80 819.29 236.20 554.91 420.97 509.98 585.58 265.80 620.21 438.13 836.52 652.73 185.03 562.20 1088.53 483.06 776.05 967.60 576.20 567.70 801.20 370.73 830.87 401.40 697.90 529.76 275.30 159.26 953.26 776.23 978.09 1016.28 769.48 639.53 353.54 718.08 483.56 544.46 982.99 399.36 499.80 677.30 664.58 633.14 1024.25 372.11 510.26 782.92 365.24 797.41 845.80 423.83 984.56 590.96 296.70 1047.78 895.35 731.21 425.89 474.57 1196.13 1004.19 492.32 129.63 309.11 829.08 737.02 624.42 0.00 885.09 466.67 724.17
550.81 1080.41 379.81 878.74 175.15 884.08 730.28 612.67 756.49 352.20 1043.14 981.69 705.19 818.90 745.63 779.54 900.53 627.03 324.13 907.20 672.34 728.47 690.48 229.85 577.82 747.31 217.62 891.85 941.48 636.50 263.51 641.68 763.17 671.02 578.43 680.64 996.85 716.41 564.60 1270.55 1099.32 619.29 649.25 1310.90 354.80 455.15 1003.21 682.49 212.63 483.15 525.45 659.93 1009.34 811.33 332.16 514.36 176.66 710.22 408.58 551.21 732.52 833.72 994.88 802.25 131.03 387.64 568.51 1015.91 1177.27 686.20 726.19 596.21 217.86 542.99 524.56 854.05 775.61 810.24 256.18 840.72 1305.16 877.90 914.26 343.71 968.10 658.98 219.85 820.62 803.30 1049.93 501.27 472.55 869.46 1265.66 318.73 920.52 529.79 892.11 1122.38 803.40 455.59 719.33 885.09 0.00 541.71 327.15
82.95 596.23 223.00 511.16 366.56 594.66 319.64 515.41 582.81 601.69 578.81 649.54 511.12 698.79 356.40 495.74 484.13 128.28 737.46 591.39 303.71 636.61 222.62 565.94 480.56 287.25 580.48 766.27 520.07 241.12 762.87 316.24 622.49 261.43 300.46 460.45 512.67 207.30 186.15 868.86 587.03 317.78 239.66 840.85 555.47 452.95 461.50 286.98 642.65 336.28 364.24 528.86 543.29 555.66 514.69 236.39 426.15 255.15 508.91 425.07 307.92 373.66 697.72 498.03 639.15 549.61 588.42 619.62 666.47 676.13 462.87 84.11 627.96 256.66 294.87 749.36 627.89 397.04 610.49 490.56 820.98 575.18 583.44 566.66 576.92 134.45 691.83 658.50 301.88 779.13 456.31 507.00 401.60 850.86 794.86 740.68 326.76 452.38 626.43 506.24 517.90 586.70 466.67 541.71 0.00 520.82
524.06 875.30 297.82 645.91 295.01 962.49 797.17 860.62 447.46 629.54 862.96 1059.24 802.94 1092.33 827.49 481.96 916.89 534.96 625.35 960.60 479.92 944.02 663.73 97.30 860.53 563.82 544.77 579.49 734.22 417.33 590.66 734.37 982.67 665.81 289.37 742.51 871.00 705.25 403.68 1088.66 1067.40 458.37 687.58 1149.98 131.73 162.42 854.57 754.31 529.98 277.02 658.02 894.33 945.24 484.74 77.03 353.44 454.00 668.09 81.43 318.38 571.60 648.50 1095.20 879.80 458.18 654.72 252.97 1041.19 1018.66 365.12 428.61 569.46 545.01 348.74 317.30 538.51 470.28 832.51 465.70 572.91 1139.28 975.65 610.37 131.57 1045.65 551.26 416.32 534.44 706.46 1149.60 810.49 152.21 835.44 1119.80 605.13 1080.52 323.66 672.94 936.70 903.72 140.05 392.18 724.17 327.15 520.82 0.00
DEMAND_SECTION
1 0
2 97
3 89
4 70
5 92
6 64
7 59
8 100
9 100
10 77
11 95
12 82
13 73
14 74
15 79
16 61
17 95
18 85
19 87
20 84
21 71
22 87
23 70
24 98
25 73
26 93
27 94
28 94
29 56
30 4
31 10
32 8
33 3
34 1
35 10
36 9
37 2
38 9
39 4
40 6
41 8
42 1
43 5
44 7
45 8
46 1
47 5
48 7
49 5
50 4
51 7
52 2
53 4
54 6
55 8
56 1
57 9
58 9
59 4
60 10
61 7
62 7
63 2
64 8
65 9
66 1
67 8
68 10
69 5
70 10
71 1
72 5
73 2
74 4
75 4
76 6
77 7
78 4
79 1
80 9
81 5
82 6
83 2
84 6
85 8
86 4
87 1
88 2
89 8
90 5
91 8
92 4
93 5
94 3
95 9
96 6
97 3
98 8
99 7
100 8
101 6
102 8
103 4
104 5
105 10
106 10
DEPOT_SECTION
1
-1
EOF
