NAME: LDG180_1251_none_180_0194
COMMENT: CVRP with travel times.  rootPos=1,custPos=2,demandType=5,avgRouteSizeIndex=1,weather=none,lambda_cluster=1,lambda_random=4, T1=300,T2=700,beta=1, alpha(i,j) ~ U(0.8,1.2)
TYPE: CVRP
DIMENSION: 181
EDGE_WEIGHT_TYPE: EXPLICIT
EDGE_WEIGHT_FORMAT: FULL_MATRIX
CAPACITY: 310
NODE_COORD_SECTION
1 740 877
2 427 222
3 447 202
4 550 332
5 422 278
6 307 716
7 730 843
8 852 911
9 910 754
10 363 762
11 696 726
12 747 868
13 245 695
14 395 159
15 346 770
16 987 727
17 808 883
18 115 906
19 685 317
20 231 648
21 747 784
22 440 132
23 485 607
24 720 727
25 406 305
26 230 694
27 285 85
28 210 555
29 556 121
30 573 135
31 433 311
32 313 719
33 310 698
34 866 989
35 494 155
36 403 230
37 373 224
38 793 903
39 255 734
40 882 924
41 318 784
42 428 140
43 346 662
44 195 796
45 798 917
46 605 220
47 805 961
48 227 282
49 742 783
50 278 700
51 912 972
52 467 95
53 358 110
54 855 954
55 478 160
56 464 90
57 407 234
58 764 923
59 529 73
60 742 817
61 342 152
62 868 931
63 894 708
64 287 750
65 165 102
66 273 660
67 270 797
68 194 651
69 202 37
70 246 794
71 201 879
72 220 669
73 422 146
74 300 773
75 484 273
76 295 816
77 444 122
78 306 756
79 884 928
80 841 946
81 212 777
82 360 171
83 430 201
84 316 729
85 833 847
86 247 687
87 353 188
88 370 843
89 518 135
90 432 760
91 145 796
92 352 654
93 740 994
94 281 718
95 314 59
96 443 167
97 913 642
98 856 929
99 738 892
100 462 275
101 444 106
102 501 237
103 743 745
104 678 658
105 286 748
106 372 100
107 327 749
108 292 738
109 368 685
110 344 238
111 156 849
112 249 776
113 259 733
114 412 126
115 448 671
116 325 717
117 273 645
118 775 953
119 448 109
120 434 101
121 741 939
122 776 275
123 212 845
124 293 700
125 251 809
126 134 833
127 886 886
128 803 873
129 583 856
130 346 208
131 267 305
132 192 183
133 383 805
134 380 100
135 887 883
136 309 731
137 329 795
138 822 965
139 767 884
140 102 138
141 824 625
142 503 615
143 500 78
144 442 82
145 433 170
146 601 69
147 370 667
148 738 969
149 415 76
150 463 81
151 759 964
152 380 209
153 349 128
154 700 929
155 418 157
156 939 880
157 402 136
158 225 845
159 910 821
160 801 847
161 470 248
162 336 380
163 418 187
164 155 660
165 338 94
166 457 68
167 798 924
168 399 728
169 912 695
170 349 101
171 975 729
172 316 786
173 431 655
174 872 969
175 762 840
176 292 717
177 160 192
178 384 103
179 565 122
180 774 899
181 281 710
EDGE_WEIGHT_SECTION
0.00 715.66 764.67 618.22 735.01 453.71 78.26 141.02 265.17 437.50 195.15 34.34 516.70 808.09 408.65 338.37 104.96 662.47 594.22 508.48 116.93 746.81 437.38 204.22 711.83 520.82 931.71 594.98 739.05 695.74 664.14 448.22 459.17 169.09 760.27 767.15 786.97 67.64 465.62 161.08 441.08 762.95 370.87 547.55 95.37 618.98 150.28 776.74 125.01 462.85 225.97 810.35 849.42 160.94 781.40 796.08 764.07 73.24 774.54 80.07 845.26 149.61 251.24 435.96 931.98 456.45 496.66 576.03 1007.05 512.92 556.45 526.53 774.59 474.04 714.61 483.64 761.11 465.09 170.36 161.35 533.95 839.54 742.00 429.12 117.41 502.67 834.90 424.96 738.44 469.64 589.20 393.87 156.80 480.73 898.16 793.06 324.85 169.57 28.54 751.86 787.79 715.87 167.58 253.30 428.60 839.08 441.79 447.15 429.35 783.17 572.35 492.40 474.27 798.05 409.10 454.89 470.56 124.47 794.32 795.27 114.56 602.76 562.77 476.43 513.91 613.15 181.73 97.44 227.56 810.01 762.87 883.09 419.90 821.00 173.56 445.78 464.48 128.12 70.23 931.90 288.18 421.73 808.55 806.96 782.05 808.01 409.44 112.28 836.83 815.89 107.46 809.58 836.93 107.70 778.48 228.92 787.44 543.35 162.80 96.38 768.19 695.06 770.77 597.85 865.04 838.47 97.38 371.85 285.74 853.88 341.35 435.16 363.27 205.19 68.82 461.21 827.88 811.61 739.20 50.57 479.33
715.66 0.00 49.01 230.63 50.24 503.21 694.64 807.59 786.68 584.07 604.88 681.32 529.02 111.25 562.34 682.96 743.90 660.70 346.62 469.80 598.73 84.41 394.82 639.45 96.13 537.66 235.97 475.27 185.24 213.42 121.11 503.99 496.36 832.45 112.07 51.49 89.44 740.35 541.29 819.62 534.18 100.55 484.46 627.75 764.42 223.80 783.34 237.14 606.81 503.12 880.91 147.95 155.61 821.26 102.45 133.68 48.41 770.05 167.23 654.49 144.81 816.91 710.63 523.22 274.62 485.21 583.92 548.79 317.20 563.31 661.94 515.13 93.14 529.10 130.59 570.96 98.71 537.98 828.90 794.08 599.82 123.88 26.34 523.09 718.57 531.43 124.62 636.18 136.25 571.31 592.50 500.75 826.67 521.44 216.52 82.69 664.94 831.27 725.69 110.33 125.39 84.16 649.38 591.66 518.24 158.65 543.32 499.69 471.11 110.70 654.01 558.27 532.64 117.05 466.06 498.68 524.61 799.88 130.89 132.87 775.55 452.14 636.31 480.49 601.17 652.09 781.57 742.83 682.81 94.35 251.97 290.91 616.84 134.55 773.40 524.62 561.18 792.09 723.28 347.84 553.43 429.07 188.06 144.56 66.39 254.50 466.76 782.15 166.52 153.49 806.57 93.92 166.85 737.50 93.21 843.89 116.88 631.16 791.14 720.11 75.38 192.12 55.11 501.97 188.22 176.07 770.09 528.61 742.76 188.32 702.99 545.32 511.89 838.04 673.24 504.14 261.71 134.79 201.63 746.38 520.11
764.67 49.01 0.00 207.14 99.25 506.32 743.65 842.29 783.01 587.18 612.29 730.33 560.47 75.86 565.45 679.29 792.91 709.71 344.69 518.81 647.74 80.74 443.83 612.17 145.14 538.64 211.12 471.60 195.99 209.14 146.05 523.23 534.40 878.72 108.40 77.41 89.02 774.10 559.72 820.21 578.18 68.78 491.87 649.04 806.29 231.21 811.40 236.72 655.82 525.96 890.57 142.16 150.37 850.56 98.06 130.01 66.84 818.94 163.56 703.50 123.13 837.64 759.64 564.90 323.63 534.22 595.67 558.95 295.52 581.74 695.71 516.11 88.28 578.11 97.70 610.57 95.04 567.77 829.42 823.38 613.67 114.76 22.67 530.91 767.58 538.31 122.09 652.50 144.65 595.63 641.51 514.87 805.28 538.38 209.87 58.06 713.95 832.11 774.70 110.92 121.72 91.57 680.95 617.58 567.25 138.29 558.30 548.70 520.12 129.37 698.69 597.03 551.07 71.27 515.07 537.00 556.37 811.06 127.22 112.62 785.29 428.65 654.74 529.04 621.84 690.52 777.81 791.84 659.32 124.46 202.96 309.34 619.95 129.73 769.64 527.73 605.18 788.42 772.29 345.31 602.44 478.08 170.01 140.89 62.35 249.64 515.77 814.99 141.06 149.82 796.83 91.39 145.50 704.61 85.94 794.88 95.53 665.80 840.15 769.12 123.99 241.13 51.44 501.55 163.82 139.45 803.84 577.62 742.02 153.85 699.32 585.35 501.86 873.66 722.25 525.48 293.26 120.34 170.90 774.21 531.94
618.22 230.63 207.14 0.00 200.11 462.62 627.80 685.50 636.73 534.91 560.83 583.88 458.98 244.89 521.75 639.44 644.18 696.76 137.55 442.63 617.73 215.04 485.28 533.79 154.22 471.97 380.38 529.13 301.22 276.96 143.26 459.71 453.23 671.58 226.07 208.35 246.30 642.91 472.08 736.35 532.30 231.18 474.27 565.06 666.98 286.11 701.51 341.07 609.65 440.43 755.78 277.20 284.85 729.80 238.64 257.68 197.78 655.96 343.47 602.80 299.31 718.20 596.65 496.39 475.54 390.60 518.02 520.84 463.09 543.94 629.12 471.34 242.82 512.50 139.02 479.87 229.34 506.50 727.37 724.82 557.93 274.92 229.81 478.81 665.72 436.82 257.06 540.84 262.32 421.12 609.81 497.27 722.06 449.67 338.40 221.06 514.36 719.73 630.49 195.71 256.02 146.47 585.40 426.62 494.05 280.53 502.73 495.71 498.17 267.56 635.17 530.44 480.73 258.14 525.49 485.58 430.00 694.15 262.55 263.50 633.05 221.51 587.81 439.90 538.44 648.69 721.91 650.61 452.18 223.45 309.17 440.28 541.06 256.43 730.08 483.74 552.82 712.44 602.72 504.70 425.01 451.03 319.72 275.19 197.79 377.06 512.84 677.54 304.20 277.49 670.54 250.78 292.18 657.24 232.89 717.26 242.21 572.41 690.44 645.92 166.66 314.53 254.32 557.29 319.25 300.07 672.65 526.28 562.15 310.20 619.41 528.35 479.66 712.91 630.38 458.89 421.90 265.82 291.97 634.89 452.05
735.01 50.24 99.25 200.11 0.00 452.97 716.53 781.90 770.79 533.83 630.55 731.56 478.78 156.04 512.10 733.20 756.82 610.46 337.66 520.04 648.97 134.65 344.58 650.37 45.89 502.09 267.90 466.35 235.48 263.66 70.87 453.75 446.12 824.68 162.31 77.27 115.22 755.17 505.02 786.25 522.06 150.79 435.53 577.51 716.27 207.06 778.69 262.92 657.05 452.88 846.87 198.19 205.85 781.84 152.69 183.92 87.84 719.81 217.47 658.30 170.59 801.34 730.71 472.98 324.86 479.55 533.68 500.42 334.35 546.19 611.70 519.91 143.38 478.86 105.10 520.72 148.95 487.74 795.53 789.36 549.58 155.81 76.58 472.85 768.81 485.39 128.32 602.19 186.49 566.15 542.26 450.51 812.68 471.20 262.49 132.93 684.54 791.57 763.55 76.96 175.63 109.83 680.81 543.20 468.00 208.89 493.08 449.45 420.87 136.48 603.77 508.03 502.86 167.29 499.79 478.38 512.20 770.90 181.13 183.11 777.26 421.62 599.79 430.25 550.93 601.85 831.81 749.66 652.29 142.70 236.78 330.34 566.60 184.79 823.64 474.38 545.28 785.99 739.40 351.54 573.03 378.83 213.01 194.80 116.63 304.74 416.52 788.68 216.76 203.73 763.01 97.62 192.91 712.01 143.45 869.40 167.12 580.92 841.38 758.56 83.48 141.88 105.35 498.14 234.15 226.31 725.79 478.37 696.21 238.56 752.62 517.74 463.24 826.09 701.40 453.90 311.95 185.03 251.87 761.07 469.87
453.71 503.21 506.32 462.62 452.97 0.00 490.11 521.54 620.59 80.86 431.86 488.05 77.48 551.84 59.13 688.40 527.80 293.44 600.17 113.16 448.78 541.72 247.55 418.69 407.08 75.39 635.67 210.55 638.24 643.50 454.77 16.91 28.08 612.77 569.38 511.44 511.75 484.14 72.37 572.69 71.86 535.13 84.09 148.97 509.63 612.26 526.55 445.29 440.70 42.91 635.52 591.06 592.16 575.20 559.76 588.02 500.87 514.81 613.25 431.88 555.77 554.24 603.05 58.58 594.93 72.02 89.35 140.67 716.12 119.20 189.39 91.17 515.63 74.09 479.51 104.25 556.02 61.45 563.41 572.00 132.26 537.09 483.65 24.59 521.39 77.86 552.85 161.09 589.34 153.27 184.67 107.02 518.60 32.06 611.61 540.00 584.11 555.77 482.25 475.87 554.99 484.39 458.88 355.30 61.08 587.84 51.98 43.97 90.60 524.69 192.37 90.71 63.72 548.86 169.52 30.68 104.67 526.21 561.52 578.09 498.21 673.60 182.52 22.72 122.74 216.21 563.13 519.01 335.80 519.24 419.86 553.73 113.63 563.74 571.30 21.41 98.86 561.29 461.57 566.01 589.43 221.97 585.77 590.25 523.70 676.99 115.52 489.94 589.01 604.95 511.98 550.59 588.16 419.76 539.58 643.25 556.90 159.48 584.92 506.61 505.50 339.37 512.42 173.74 582.56 604.08 513.88 112.39 589.71 566.40 668.37 79.03 161.00 592.65 474.98 19.16 529.25 573.13 621.80 493.74 44.37
78.26 694.64 743.65 627.80 716.53 490.11 0.00 176.33 273.48 423.16 173.31 43.92 542.02 787.07 452.01 362.59 131.99 640.63 515.96 576.52 95.91 724.97 387.49 183.20 713.26 550.32 909.87 627.97 717.21 673.90 706.74 483.24 462.03 195.05 682.01 746.13 784.08 102.95 526.30 171.44 468.17 741.11 449.13 567.48 127.02 626.32 161.55 825.13 87.83 506.27 236.04 762.03 827.58 174.55 703.14 774.24 743.05 95.11 752.70 58.23 834.05 154.65 229.40 514.22 853.72 524.66 524.86 590.00 984.08 500.18 534.61 540.50 752.75 495.91 724.19 505.51 739.27 488.99 162.16 147.37 539.20 818.52 720.98 502.34 96.44 533.13 819.26 434.54 718.26 435.09 620.85 472.13 177.50 504.35 876.32 743.14 287.67 174.61 50.41 746.84 760.21 694.03 146.56 234.41 506.86 817.24 484.54 514.17 473.64 786.22 602.06 521.44 517.65 776.21 451.97 494.38 540.42 146.34 756.42 773.43 132.13 580.92 573.18 483.64 537.53 561.26 186.71 110.65 237.14 788.99 774.95 879.49 432.26 799.16 194.88 507.12 474.08 173.20 73.28 987.44 297.76 421.74 786.71 785.12 746.30 802.45 454.08 152.83 814.99 793.90 138.31 788.56 815.57 117.28 757.46 234.33 765.60 557.56 220.27 105.96 752.37 655.07 749.75 627.58 843.20 805.03 132.69 416.14 263.90 832.04 342.56 457.03 441.53 193.17 66.20 501.99 837.46 789.77 717.36 95.65 488.91
141.02 807.59 842.29 685.50 781.90 521.54 176.33 0.00 231.12 492.12 258.38 132.41 592.37 872.01 520.08 258.99 105.34 753.69 658.94 607.95 208.86 810.04 472.44 287.56 736.01 581.75 969.35 682.50 789.15 787.91 783.70 514.67 493.46 108.64 849.51 840.37 823.69 73.38 567.55 51.15 538.23 826.18 511.89 641.84 65.63 711.39 91.46 823.15 216.94 537.70 113.98 856.32 897.91 53.72 848.08 856.73 829.80 97.21 866.71 192.51 823.03 32.70 288.04 563.47 1013.23 556.09 606.86 649.48 995.42 588.43 647.67 604.28 837.82 558.01 805.16 571.64 824.34 546.73 41.87 50.46 624.53 857.26 833.93 533.77 89.02 570.21 829.77 471.69 813.26 464.43 684.98 534.89 175.34 535.78 958.95 856.29 350.69 34.23 141.91 760.44 833.31 755.91 255.13 328.12 564.15 902.31 553.22 545.60 512.20 824.35 690.13 590.38 567.44 861.28 524.64 525.81 571.85 120.26 826.78 851.82 143.38 612.14 612.94 515.07 589.57 691.93 64.48 108.43 274.29 844.15 768.61 908.79 533.27 884.23 72.65 536.11 511.23 85.42 111.41 1013.46 260.49 479.26 869.08 869.26 873.98 849.12 521.64 152.38 893.38 876.54 127.29 799.07 868.32 198.25 853.53 139.21 850.67 639.08 106.05 108.04 792.16 740.02 839.02 659.31 898.51 888.32 75.15 482.53 253.54 891.03 279.02 540.55 504.29 71.11 169.94 533.42 925.95 874.84 789.79 106.03 553.75
265.17 786.68 783.01 636.73 770.79 620.59 273.48 231.12 0.00 581.11 236.47 253.78 648.91 740.74 570.57 103.72 238.79 811.52 499.18 708.58 200.82 788.13 566.59 201.90 790.42 672.22 891.73 712.69 800.55 763.28 779.99 615.10 636.31 203.64 797.48 783.22 816.55 237.14 629.70 214.07 603.00 796.45 619.40 689.78 198.24 689.48 260.66 933.24 192.74 651.34 232.33 851.67 815.25 261.86 776.35 837.40 793.79 261.87 841.70 240.42 811.53 238.89 89.77 585.32 1013.40 672.82 646.02 738.84 983.92 677.00 716.80 689.34 776.95 633.17 760.68 636.71 802.43 614.45 212.64 269.86 683.31 779.64 760.34 596.00 248.90 671.07 810.41 587.04 794.21 467.32 746.35 629.15 287.05 632.04 897.22 800.53 164.99 242.25 236.63 788.56 829.11 733.18 231.28 309.07 592.68 806.71 597.85 604.60 578.55 842.43 778.64 641.76 628.20 798.30 572.57 613.77 667.25 252.87 835.64 827.28 221.96 523.71 712.13 629.80 663.27 783.56 187.95 218.57 392.16 830.99 883.06 952.60 578.26 829.16 179.78 612.03 607.39 264.61 275.21 1063.56 234.37 562.87 805.72 848.28 777.26 820.08 595.16 266.45 850.33 851.47 276.48 825.65 824.01 302.64 770.35 191.19 774.04 707.43 125.07 232.28 770.42 763.18 789.11 762.63 851.23 847.87 207.76 521.05 74.58 848.67 83.69 611.36 563.19 220.61 207.28 639.75 897.39 819.77 771.01 243.04 650.01
437.50 584.07 587.18 534.91 533.83 80.86 423.16 492.12 581.11 0.00 413.78 422.67 154.78 632.70 28.85 666.60 459.49 296.04 588.20 194.02 420.69 622.58 216.73 379.21 487.94 141.04 716.53 270.46 700.30 677.00 535.63 97.77 108.94 550.66 645.67 586.92 592.61 445.53 103.14 538.97 61.28 615.99 162.02 169.30 457.68 586.60 504.13 503.97 412.61 123.77 588.28 671.92 654.15 523.25 624.54 668.88 576.35 433.95 694.11 364.93 614.45 524.82 536.10 94.96 675.79 152.88 114.74 213.07 674.12 138.77 237.02 163.57 596.49 91.58 560.37 120.90 636.88 65.83 533.99 502.81 132.41 617.95 564.51 83.27 481.94 158.49 602.83 120.55 652.99 113.79 225.87 171.22 437.74 112.92 692.47 620.86 528.04 526.35 422.40 537.93 635.85 562.32 419.40 419.04 102.32 652.04 61.38 101.78 134.43 551.10 237.05 136.83 94.49 629.72 210.63 92.74 159.00 485.18 642.38 658.95 463.64 646.00 199.81 103.58 148.13 265.81 518.78 438.15 317.95 591.97 500.72 613.64 57.56 627.94 526.95 86.47 88.28 490.43 380.71 620.34 549.94 182.48 666.63 671.11 604.56 731.04 137.23 419.15 669.87 685.81 473.41 627.18 659.74 397.34 620.44 573.56 622.18 185.72 530.01 465.19 556.90 420.23 587.23 212.79 636.89 684.94 451.77 86.87 570.60 620.73 649.26 72.42 184.47 560.11 408.03 100.02 610.11 637.33 702.66 412.88 125.23
195.15 604.88 612.29 560.83 630.55 431.86 173.31 258.38 236.47 413.78 0.00 170.01 483.88 615.65 403.24 286.65 212.13 640.54 585.89 472.11 99.79 551.66 411.17 34.57 656.04 480.66 736.56 551.49 620.50 596.79 608.35 447.77 452.10 320.71 624.23 636.62 674.57 229.04 462.37 279.19 419.63 567.80 415.61 522.45 251.71 453.01 287.64 706.56 91.71 463.24 336.57 615.20 654.27 271.54 612.89 600.93 626.05 249.42 671.52 115.08 660.74 287.09 246.86 417.99 844.96 436.35 478.69 507.63 832.85 499.15 546.76 458.13 579.44 459.05 584.51 469.38 565.96 447.12 288.47 244.36 515.98 654.55 609.73 428.67 169.36 474.99 685.32 353.09 621.16 299.99 579.02 438.61 306.42 448.74 703.01 597.91 268.39 281.55 216.62 573.53 592.64 520.72 70.08 136.02 425.35 643.93 418.95 428.46 381.17 695.72 604.52 474.43 467.24 602.90 363.03 446.44 475.75 285.91 599.17 600.12 217.41 629.88 504.16 454.58 495.94 583.15 254.37 213.15 155.69 679.16 656.38 796.56 416.08 625.85 262.54 433.13 392.63 279.32 196.18 896.87 205.75 376.92 656.34 611.81 618.37 642.04 406.98 261.90 641.68 620.74 292.62 662.93 642.26 240.16 595.15 315.15 592.29 530.30 292.20 205.01 579.06 536.50 622.98 545.21 669.89 643.32 246.98 342.15 257.87 658.73 266.62 421.95 326.72 301.66 154.93 451.02 845.19 616.46 590.96 228.07 430.77
34.34 681.32 730.33 583.88 731.56 488.05 43.92 132.41 253.78 422.67 170.01 0.00 498.10 773.75 442.99 331.11 88.07 665.57 559.88 532.87 82.59 721.67 431.41 169.88 738.10 519.95 906.57 614.65 748.58 705.27 691.29 482.56 493.40 151.13 725.93 732.81 770.76 59.03 499.96 152.47 457.16 737.81 405.21 538.83 83.10 623.02 117.63 808.80 90.67 477.46 213.70 785.21 824.28 148.67 747.06 770.94 729.73 89.30 784.07 89.60 823.60 138.81 260.77 470.30 897.64 490.79 521.06 564.78 995.99 531.55 565.98 523.73 749.45 492.11 680.27 501.71 735.97 488.50 161.75 143.48 501.94 805.20 707.66 463.46 110.52 489.21 805.94 390.62 704.10 435.30 595.40 428.21 173.64 462.96 873.02 764.01 290.51 158.40 46.61 736.96 762.65 690.73 133.24 218.96 462.94 813.94 476.13 481.49 460.19 754.90 606.69 517.64 494.62 772.91 443.44 489.23 504.90 118.56 769.18 770.13 94.23 587.24 541.69 484.61 541.91 605.18 153.36 66.73 193.22 775.67 754.26 848.75 437.97 795.86 161.53 480.12 430.16 151.68 41.96 966.24 253.84 431.50 808.80 781.82 747.71 812.05 434.38 138.72 811.69 790.75 125.25 775.24 812.27 73.36 744.14 202.14 762.30 567.83 188.68 62.04 749.07 698.99 736.43 610.81 839.90 813.33 88.77 406.19 268.21 828.74 335.56 453.23 397.61 192.46 46.50 470.20 793.54 786.47 748.73 74.13 444.99
516.70 529.02 560.47 458.98 478.78 77.48 542.02 592.37 648.91 154.78 483.88 498.10 0.00 557.59 136.61 673.02 560.47 285.23 596.53 75.69 503.83 549.95 293.80 478.88 461.66 23.31 630.78 200.41 652.42 668.82 509.35 94.39 98.91 647.00 564.83 510.42 492.22 551.30 51.96 612.62 142.22 556.61 153.96 145.43 568.79 586.52 592.63 473.04 495.75 66.83 668.29 588.20 574.97 617.28 543.70 585.16 520.99 554.63 621.99 502.71 563.69 609.47 608.83 95.46 581.55 68.38 152.47 95.34 714.11 101.51 215.01 45.84 548.39 131.02 506.24 142.81 564.25 108.36 612.43 590.10 140.53 518.69 537.80 102.07 566.80 22.16 531.02 224.59 598.08 223.38 169.44 142.79 572.05 71.08 618.41 503.70 649.79 617.21 540.98 449.55 552.13 504.93 486.09 420.04 88.10 604.33 115.48 106.65 121.91 553.27 221.91 111.34 60.29 565.26 200.83 76.93 89.82 516.97 558.66 575.23 497.18 680.49 174.51 77.30 141.61 197.92 632.01 545.38 371.84 515.60 451.33 543.59 179.31 595.32 640.18 88.57 162.29 566.14 535.49 551.16 637.07 291.66 615.83 588.08 526.97 704.77 147.72 541.67 594.62 604.97 540.58 534.53 576.19 497.24 556.91 680.79 561.19 156.18 648.85 515.35 484.50 401.55 510.51 121.66 557.71 619.17 567.90 179.41 574.33 541.55 652.99 142.96 207.25 643.42 535.60 78.32 588.41 592.39 643.90 528.08 53.11
808.09 111.25 75.86 244.89 156.04 551.84 787.07 872.01 740.74 632.70 615.65 773.75 557.59 0.00 610.97 741.53 827.24 766.50 382.44 542.77 691.16 63.99 498.02 650.22 201.93 534.28 150.99 496.99 182.08 184.85 198.64 534.93 556.14 916.47 111.39 109.90 75.81 798.63 589.48 862.57 607.52 55.71 513.99 646.20 837.53 247.34 858.55 205.98 699.24 575.90 930.82 115.11 74.51 887.19 107.47 113.26 113.48 845.54 167.96 730.73 83.90 872.32 700.66 583.73 303.38 537.59 641.19 554.86 256.29 628.38 725.69 511.75 36.21 615.60 173.56 640.78 65.87 589.85 853.29 860.01 609.31 38.90 84.91 554.03 785.01 546.27 69.67 690.50 139.04 570.78 676.50 490.99 881.14 571.47 156.48 70.37 751.18 892.28 818.12 159.40 92.55 116.10 685.73 624.18 589.48 65.97 589.53 570.93 524.36 121.40 710.39 626.38 580.83 57.56 546.74 563.91 567.68 864.39 99.08 86.54 833.06 442.11 693.29 553.27 649.28 677.31 835.02 805.90 697.07 90.37 252.81 254.92 637.37 88.42 843.19 558.96 607.85 840.46 811.83 322.82 664.68 530.06 156.25 108.29 47.10 197.57 524.98 874.58 109.59 125.53 872.69 96.09 83.27 780.47 29.61 839.35 33.30 667.15 813.65 812.54 150.59 256.73 56.14 488.34 110.49 124.66 828.37 581.86 666.16 107.93 744.82 608.47 550.77 913.25 761.44 559.96 266.46 79.03 204.42 828.17 583.27
408.65 562.34 565.45 521.75 512.10 59.13 452.01 520.08 570.57 28.85 403.24 442.99 136.61 610.97 0.00 663.54 487.45 290.83 617.05 172.29 415.47 600.85 224.83 368.67 466.21 129.52 694.80 253.71 671.45 671.77 513.90 76.04 87.21 577.74 617.43 570.17 570.88 473.49 94.90 535.09 32.43 594.26 133.78 177.22 485.64 615.45 532.63 487.22 407.39 102.04 603.34 650.19 625.30 551.21 596.30 647.15 559.60 461.91 672.38 393.78 597.70 552.78 564.95 84.75 654.06 131.15 101.99 199.80 702.97 109.92 211.65 150.30 574.76 74.28 538.64 92.05 615.15 66.81 525.81 530.77 148.94 596.22 542.78 66.52 502.55 136.99 603.81 117.49 643.73 103.25 199.77 151.89 466.59 91.19 668.99 599.13 524.98 554.31 437.19 509.08 614.12 534.08 408.86 411.25 77.39 632.71 33.14 72.93 106.19 552.08 219.75 107.98 103.55 607.99 185.11 63.89 130.15 513.14 620.65 637.22 458.78 674.85 170.96 81.85 132.25 236.96 546.74 466.11 296.37 572.64 478.99 596.89 54.50 608.61 554.91 63.71 59.43 518.39 408.67 591.49 578.79 211.33 644.90 649.38 582.83 702.19 132.00 448.00 648.14 664.08 502.26 598.33 632.34 426.19 598.71 601.52 605.43 156.87 549.46 494.04 528.66 398.50 558.38 227.87 608.04 663.21 479.73 79.08 594.65 591.88 654.26 43.57 176.68 567.95 436.88 78.29 588.38 618.00 680.93 440.84 103.50
338.37 682.96 679.29 639.44 733.20 688.40 362.59 258.99 103.72 666.60 286.65 331.11 673.02 741.53 663.54 0.00 314.29 854.94 501.89 748.71 304.54 714.69 559.91 305.62 726.76 696.33 866.25 791.38 803.26 765.99 774.45 686.70 690.07 307.36 733.82 717.79 722.97 296.56 691.97 279.26 652.20 730.83 686.23 792.62 301.96 714.77 284.03 870.67 296.46 713.34 306.55 778.23 785.89 262.18 712.69 763.96 707.22 288.14 797.51 304.36 776.24 283.20 133.19 689.04 957.58 723.00 717.60 768.36 948.63 731.72 779.33 718.86 731.87 678.91 697.02 698.25 728.99 688.63 269.98 235.00 755.73 754.16 656.62 683.49 271.52 695.18 756.04 639.74 770.07 571.04 758.05 709.23 360.09 720.46 846.80 712.97 138.56 272.19 332.84 744.87 755.67 757.29 309.97 396.86 696.40 788.93 678.21 705.32 667.82 773.92 824.38 714.18 700.62 747.33 619.22 657.72 756.97 319.13 761.17 763.15 325.68 627.43 736.73 705.85 738.45 815.72 258.22 293.27 442.34 770.42 882.25 949.72 609.04 764.83 266.39 690.93 625.20 269.96 341.38 979.26 248.19 525.66 818.34 774.84 696.67 811.70 693.63 337.72 803.89 783.77 331.34 725.34 797.13 390.82 723.49 241.69 747.16 762.87 175.57 269.07 758.34 798.99 685.39 794.68 823.55 806.35 311.48 624.77 98.69 818.60 20.03 649.77 610.07 292.30 311.00 707.56 940.81 770.12 773.72 313.88 712.96
104.96 743.90 792.91 644.18 756.82 527.80 131.99 105.34 238.79 459.49 212.13 88.07 560.47 827.24 487.45 314.29 0.00 648.35 647.95 602.58 145.17 763.79 412.65 221.35 710.93 550.10 948.69 639.63 733.36 747.28 722.55 514.63 531.29 148.96 771.61 771.58 809.53 61.59 509.39 118.90 455.94 779.93 473.12 591.32 40.55 665.14 96.38 811.36 137.09 545.75 171.15 805.33 866.40 106.12 792.74 813.06 782.15 97.87 814.08 134.03 797.95 111.41 237.35 479.73 979.21 558.70 525.50 611.45 970.34 535.46 542.33 570.30 791.57 495.36 768.34 506.74 778.09 492.37 109.62 133.30 564.22 842.95 770.24 512.70 42.77 557.83 843.45 389.40 735.36 449.72 617.47 468.54 119.48 515.51 915.14 810.04 290.84 104.44 90.24 764.82 804.77 732.85 168.04 250.22 472.37 856.06 481.95 490.92 460.36 791.72 632.19 522.67 503.55 815.03 491.80 524.29 545.23 94.38 811.30 812.25 120.79 587.06 540.47 526.52 543.32 619.46 77.73 21.34 192.00 838.25 756.82 897.00 452.39 837.98 85.90 509.99 428.94 110.27 78.78 989.11 288.28 392.17 813.29 823.94 810.29 788.91 434.55 127.30 853.81 832.87 96.20 814.01 843.24 161.43 806.72 156.75 804.42 566.61 143.29 54.13 791.19 665.50 799.01 648.45 873.43 848.33 50.07 465.40 239.66 870.86 294.26 458.26 468.23 150.37 90.93 523.26 872.56 828.59 703.82 54.39 513.61
662.47 660.70 709.71 696.76 610.46 293.44 640.63 753.69 811.52 296.04 640.54 665.57 285.23 766.50 290.83 854.94 648.35 0.00 834.31 306.52 638.16 745.11 474.85 639.49 656.35 266.83 846.13 407.25 845.94 874.12 681.33 280.69 296.30 757.16 772.77 687.73 714.29 685.76 258.37 744.74 263.24 761.25 348.31 200.52 688.90 817.52 680.69 618.82 630.08 256.33 758.70 808.65 800.56 754.47 763.15 794.38 698.30 675.99 827.93 582.40 776.35 747.29 721.75 256.07 784.16 306.16 222.95 310.69 894.38 183.72 106.02 261.19 753.84 236.02 715.56 234.30 759.41 261.77 754.02 729.72 163.63 734.04 687.04 275.20 691.12 269.55 738.78 303.35 796.95 394.08 172.38 363.53 592.45 277.99 854.61 743.39 795.78 727.33 676.21 687.42 786.09 720.29 683.27 623.06 248.71 819.35 280.14 267.26 353.19 722.17 146.86 205.18 260.74 777.75 404.25 296.80 325.16 647.53 791.59 793.57 662.56 884.89 148.62 278.96 210.25 112.79 726.08 669.69 484.85 753.16 564.28 704.46 333.52 795.25 734.25 288.38 260.15 696.70 659.34 761.23 845.98 478.52 823.47 805.26 727.09 915.20 370.31 636.97 827.22 814.19 670.16 708.08 791.54 636.84 753.91 805.10 777.58 133.96 775.48 682.66 693.94 591.05 715.81 301.76 803.05 836.77 698.42 356.94 756.25 786.89 834.91 269.59 403.17 715.83 625.50 276.25 759.67 795.49 862.33 682.57 269.51
594.22 346.62 344.69 137.55 337.66 600.17 515.96 658.94 499.18 588.20 585.89 559.88 596.53 382.44 617.05 501.89 647.95 834.31 0.00 580.18 611.87 352.59 596.35 551.32 291.77 609.52 516.10 666.68 301.37 264.10 280.81 597.26 590.78 702.82 363.62 326.06 364.01 618.91 609.63 687.40 649.48 368.73 582.51 702.61 642.98 212.88 677.51 478.62 603.79 577.98 731.51 373.34 422.40 667.90 376.19 392.86 335.33 611.07 342.90 574.19 419.38 670.61 459.10 625.26 609.11 528.15 655.57 658.39 591.77 681.49 766.67 608.89 369.27 650.05 276.57 617.42 345.50 644.05 678.12 640.72 695.48 412.47 367.36 616.36 612.40 574.37 394.61 661.07 337.21 558.67 747.36 605.51 693.46 587.22 475.95 358.61 522.70 677.91 566.37 306.19 372.18 284.02 619.27 460.49 631.60 418.08 638.57 633.26 565.52 385.27 772.72 667.99 618.28 395.69 521.38 598.72 567.55 662.30 378.71 390.33 648.09 234.73 725.36 577.45 675.99 786.24 661.12 626.61 589.73 361.00 446.72 530.45 645.76 393.98 652.95 621.29 676.48 675.68 589.24 622.41 562.56 588.58 376.91 391.35 335.34 356.92 591.33 668.79 426.17 405.21 654.27 368.49 429.73 633.24 370.44 597.79 379.76 709.96 552.89 621.92 271.24 452.08 375.77 694.84 456.80 413.07 648.65 619.31 424.60 447.75 481.86 660.62 567.21 698.02 582.16 596.44 559.45 403.37 271.83 611.61 589.60
508.48 469.80 518.81 442.63 520.04 113.16 576.52 607.95 708.58 194.02 472.11 532.87 75.69 542.77 172.29 748.71 602.58 306.52 580.18 0.00 536.59 554.21 318.95 506.68 477.24 67.86 615.68 124.72 655.04 668.31 524.93 112.79 114.49 677.57 581.87 510.79 536.77 576.12 123.06 659.10 184.85 546.73 137.61 179.78 584.47 529.97 633.66 476.46 529.94 70.25 715.07 593.72 570.39 650.04 572.25 590.68 500.22 581.72 637.03 518.29 548.87 640.65 667.77 135.71 592.91 52.03 195.33 78.99 721.26 177.20 259.27 45.33 527.23 159.30 549.67 169.82 568.51 150.47 649.82 658.41 142.89 503.87 496.14 131.70 611.35 79.85 530.51 253.29 601.89 249.46 180.58 160.61 602.67 99.32 591.26 552.49 697.27 632.79 537.02 507.24 557.65 537.91 542.19 464.59 130.73 576.93 155.71 112.18 159.60 550.38 260.26 159.96 114.41 548.91 238.52 125.87 89.28 592.66 564.18 580.75 572.87 664.14 226.87 92.88 212.61 240.17 667.87 581.24 422.83 499.25 434.98 467.90 226.79 586.96 676.04 128.60 197.88 636.60 569.38 550.62 652.16 284.70 621.35 593.60 536.19 688.59 168.03 558.15 600.61 610.49 612.41 544.33 561.37 526.87 551.18 713.41 568.50 200.73 671.28 564.96 542.19 404.97 510.00 132.41 530.31 615.68 593.99 213.62 650.02 546.47 728.68 186.14 222.88 679.06 555.91 94.00 523.11 577.57 667.27 559.05 102.72
116.93 598.73 647.74 617.73 648.97 448.78 95.91 208.86 200.82 420.69 99.79 82.59 503.83 691.16 415.47 304.54 145.17 638.16 611.87 536.59 0.00 651.45 392.68 87.29 670.82 490.09 834.70 532.06 714.74 671.43 623.13 451.40 459.56 233.72 710.80 650.22 688.17 141.62 452.19 227.58 446.69 667.59 452.73 565.01 165.69 552.80 200.22 760.06 8.08 466.34 287.56 714.99 754.06 222.53 701.18 700.72 647.14 171.66 727.09 55.76 741.01 218.18 196.70 464.54 873.35 494.44 503.38 554.18 913.40 497.71 532.14 504.68 679.23 457.31 684.30 479.26 665.75 446.86 234.45 195.35 536.73 722.61 625.07 444.03 119.84 500.28 723.35 432.59 679.02 352.71 604.11 453.69 227.94 462.32 802.80 681.42 207.92 232.54 126.96 673.32 692.43 620.51 50.65 193.88 457.44 743.72 413.19 469.46 393.89 709.43 601.69 499.96 443.54 702.69 372.97 460.58 527.09 201.15 698.96 699.91 176.82 578.45 546.48 445.14 524.23 624.75 182.84 144.10 235.19 693.08 730.01 799.74 377.44 725.64 174.67 427.37 434.95 225.20 124.55 907.69 225.08 426.93 756.13 711.60 665.12 741.83 419.70 183.42 741.47 720.53 207.84 692.65 742.05 155.95 661.55 256.08 692.08 559.37 192.41 121.38 674.11 636.29 653.84 588.44 769.68 743.11 171.36 336.39 231.20 758.52 284.51 435.55 418.80 252.65 74.51 442.59 845.93 716.25 690.75 147.65 467.80
746.81 84.41 80.74 215.04 134.65 541.72 724.97 810.04 788.13 622.58 551.66 721.67 549.95 63.99 600.85 714.69 763.79 745.11 352.59 554.21 651.45 0.00 479.23 586.23 180.54 558.52 184.90 488.56 130.51 170.56 181.45 526.50 547.71 872.37 72.57 119.24 124.42 780.70 601.55 830.85 599.09 16.14 527.87 670.44 803.37 223.87 839.30 269.97 643.37 561.36 888.23 63.54 102.61 823.20 86.25 49.27 108.67 801.08 143.30 666.74 109.08 808.33 764.65 575.30 293.30 546.60 631.07 585.49 281.19 623.57 720.27 535.99 27.78 607.17 169.43 632.35 14.30 581.42 832.42 796.02 633.55 102.89 58.07 545.60 721.02 570.51 133.66 690.21 108.62 634.77 676.91 504.87 858.08 563.04 151.35 46.25 711.61 828.29 768.28 146.32 40.98 154.60 621.74 593.76 581.05 92.27 581.10 562.50 538.24 158.10 701.96 623.08 592.90 51.24 538.31 555.48 580.06 837.57 47.51 48.46 769.07 390.54 696.57 564.44 653.25 712.35 806.03 764.81 667.22 127.50 244.38 259.87 651.25 74.19 814.20 550.53 619.61 823.82 747.84 350.92 637.84 509.80 104.68 60.15 66.71 189.14 538.86 813.56 90.02 69.08 844.28 111.27 90.60 776.34 43.49 866.81 40.63 691.39 843.86 756.67 159.79 271.91 71.32 536.95 118.23 91.66 798.64 595.74 730.15 118.33 734.72 600.04 517.11 853.32 706.59 551.53 293.53 64.80 160.05 779.73 576.74
437.38 394.82 443.83 485.28 344.58 247.55 387.49 472.44 566.59 216.73 411.17 431.41 293.80 498.02 224.83 559.91 412.65 474.85 596.35 318.95 392.68 479.23 0.00 395.22 390.47 303.89 607.82 337.43 580.06 582.15 415.45 245.85 247.78 515.27 497.35 395.11 433.06 443.80 263.79 492.54 257.26 490.91 189.61 345.72 438.86 438.37 470.48 437.64 400.76 271.73 560.79 526.08 479.78 504.43 497.27 526.49 384.54 375.23 562.05 357.31 486.07 495.15 510.16 234.13 632.12 266.92 294.83 327.94 658.46 311.09 368.83 311.34 487.96 281.98 449.68 309.04 493.53 263.26 483.26 510.59 332.12 495.73 421.16 242.64 448.87 309.67 468.24 324.58 531.07 221.57 402.13 185.03 481.54 279.61 574.53 477.51 513.22 506.67 419.93 421.54 503.07 454.41 342.03 288.05 226.77 522.32 249.90 245.32 176.85 454.32 416.25 290.57 266.78 511.87 164.49 216.87 261.72 426.46 496.54 521.58 432.68 518.53 360.94 265.00 312.08 438.13 490.38 405.08 313.83 482.62 387.46 527.64 261.59 508.20 498.55 249.54 256.16 475.63 428.47 627.95 401.71 34.25 528.25 539.02 461.21 627.40 151.04 444.10 552.62 546.30 418.43 437.54 509.37 403.51 468.41 540.49 504.78 341.52 527.03 457.57 428.06 267.58 442.84 379.40 520.20 558.08 429.34 216.26 544.66 513.20 579.94 268.40 118.66 543.55 400.41 264.35 582.71 517.59 576.32 453.91 272.11
204.22 639.45 612.17 533.79 650.37 418.69 183.20 287.56 201.90 379.21 34.57 169.88 478.88 650.22 368.67 305.62 221.35 639.49 551.32 506.68 87.29 586.23 395.22 0.00 627.19 483.00 771.13 528.28 653.32 631.36 579.50 413.20 434.41 311.30 628.56 647.34 685.29 228.91 427.80 310.71 401.10 602.37 417.50 487.88 221.93 487.58 265.31 731.34 95.37 449.44 352.53 649.77 688.84 287.50 647.46 635.50 657.91 258.95 639.80 143.05 695.31 305.47 249.33 383.42 879.53 470.92 444.12 538.21 867.42 475.10 543.53 488.71 614.01 431.27 619.08 434.81 600.53 412.55 319.99 278.93 481.41 689.12 634.84 394.10 203.93 480.48 719.89 385.14 592.31 265.42 544.45 440.50 315.23 430.14 737.58 632.48 233.82 297.23 214.25 608.10 627.21 555.29 72.55 107.17 390.78 678.50 401.81 402.70 405.33 706.55 576.74 439.86 436.45 637.47 370.67 411.87 465.35 272.96 633.74 634.69 235.23 632.35 510.23 441.41 461.37 581.66 270.13 219.25 190.26 713.73 681.16 821.34 385.36 660.42 261.96 410.76 405.49 278.75 211.84 921.65 240.32 360.97 690.91 646.38 652.94 676.61 420.53 270.71 676.25 655.31 295.13 689.77 676.83 243.24 629.72 343.37 626.86 505.53 279.70 208.67 613.63 561.28 657.55 575.79 704.46 677.89 212.41 370.58 276.48 693.30 285.59 409.46 361.29 331.75 161.80 437.85 867.83 651.03 625.53 234.94 448.11
711.83 96.13 145.14 154.22 45.89 407.08 713.26 736.01 790.42 487.94 656.04 738.10 461.66 201.93 466.21 726.76 710.93 656.35 291.77 477.24 670.82 180.54 390.47 627.19 0.00 457.97 273.12 484.78 262.43 289.62 47.69 407.86 405.97 778.79 174.84 104.36 142.31 709.28 459.13 787.16 476.23 196.68 409.20 531.62 670.38 252.95 732.80 251.39 678.90 406.99 800.98 242.86 230.56 735.95 175.97 229.81 93.79 734.01 263.36 655.03 195.32 764.42 750.87 427.09 370.75 433.66 487.79 454.53 367.71 506.43 578.24 474.02 189.27 453.93 125.63 493.20 194.84 441.85 777.88 763.13 521.11 164.04 122.47 426.96 752.73 439.50 169.34 556.30 211.09 525.74 496.37 404.62 780.09 425.31 303.51 178.82 668.58 745.68 740.37 122.85 221.52 152.14 678.80 520.02 422.11 254.78 447.19 403.56 374.98 117.61 583.32 479.56 456.97 203.72 453.90 432.49 466.31 725.01 227.02 229.00 750.62 375.73 553.90 384.36 505.04 555.96 788.66 731.74 606.40 168.74 196.85 322.89 520.71 230.68 791.33 428.49 500.20 740.10 736.13 357.94 579.23 424.72 258.90 240.69 162.52 337.04 370.63 757.13 261.87 249.62 746.85 143.51 220.48 696.67 177.66 841.51 213.01 536.86 842.06 741.43 98.42 160.31 151.24 521.05 261.72 272.20 679.90 432.48 716.37 263.98 706.73 481.40 450.34 780.20 698.13 408.01 267.68 230.92 276.47 715.18 423.98
520.82 537.66 538.64 471.97 502.09 75.39 550.32 581.75 672.22 141.04 480.66 519.95 23.31 534.28 129.52 696.33 550.10 266.83 609.52 67.86 490.09 558.52 303.89 483.00 457.97 0.00 607.47 192.58 651.45 645.51 505.66 92.30 88.29 670.31 588.14 506.86 468.91 559.01 55.20 615.86 139.39 560.95 155.19 156.98 577.43 563.21 601.94 469.42 482.01 63.21 672.55 601.19 561.90 635.47 567.01 598.15 517.43 574.99 643.84 492.09 540.38 614.45 632.14 99.58 604.86 81.37 129.26 72.03 690.80 124.82 195.29 22.53 557.55 133.86 519.23 166.12 572.82 111.60 616.55 613.41 120.09 495.38 515.97 99.98 543.49 35.15 507.71 228.56 590.44 220.77 192.75 147.52 573.98 62.93 623.40 527.01 636.05 615.98 549.36 462.54 565.12 517.92 499.08 396.73 92.22 591.18 127.37 83.49 145.22 529.96 207.60 134.65 46.55 578.25 224.14 100.24 84.56 540.28 571.65 588.22 520.49 693.48 159.01 85.84 162.65 176.88 627.83 567.23 358.10 521.30 428.02 535.76 165.57 578.47 636.00 96.80 166.39 589.45 521.75 545.90 646.54 279.08 628.82 589.17 550.28 718.91 171.03 529.46 614.30 617.96 563.89 511.22 552.88 495.15 533.60 689.28 567.58 132.87 645.98 537.20 497.49 397.93 487.20 98.35 562.45 633.19 586.95 187.78 597.64 546.29 676.30 150.53 215.21 629.68 535.19 86.96 590.97 569.08 652.67 551.39 74.96
931.71 235.97 211.12 380.38 267.90 635.67 909.87 969.35 891.73 716.53 736.56 906.57 630.78 150.99 694.80 866.25 948.69 846.13 516.10 615.68 834.70 184.90 607.82 771.13 273.12 607.47 0.00 570.09 286.81 330.12 309.53 632.76 626.28 999.99 228.87 212.71 212.44 934.71 645.13 936.76 705.35 187.80 603.67 689.90 914.49 355.58 957.87 279.17 828.27 613.48 1002.22 207.88 142.39 980.06 238.54 197.94 223.28 959.08 282.75 851.64 157.09 957.29 851.65 669.44 271.13 563.65 724.46 634.44 169.07 716.99 754.39 584.94 187.20 685.55 305.46 727.41 170.60 679.55 927.48 980.92 682.50 112.09 209.63 651.86 905.92 609.87 151.86 763.69 245.72 643.97 746.47 580.67 1013.04 622.72 76.76 204.84 883.27 971.33 953.18 286.58 179.94 267.09 806.64 730.86 667.10 99.85 675.78 668.76 640.47 203.59 799.87 699.57 653.78 176.04 639.28 658.63 574.54 965.52 184.89 159.85 950.49 529.50 764.87 612.95 723.19 784.35 971.65 949.71 832.56 163.56 309.75 226.91 727.05 123.95 979.82 656.79 725.87 971.31 916.53 225.38 789.40 642.07 242.06 178.28 189.95 348.56 614.66 994.98 162.08 213.84 989.13 170.28 149.20 912.37 180.60 990.34 160.14 740.34 964.64 940.04 272.71 395.92 207.13 624.97 107.96 209.44 904.97 697.97 817.15 112.81 886.28 706.30 636.83 959.35 891.49 631.94 282.12 127.32 298.02 948.70 625.10
594.98 475.27 471.60 529.13 466.35 210.55 627.97 682.50 712.69 270.46 551.49 614.65 200.41 496.99 253.71 791.38 639.63 407.25 666.68 124.72 532.06 488.56 337.43 528.28 484.78 192.58 570.09 0.00 619.07 636.01 457.11 206.29 201.16 742.74 534.66 479.87 503.73 658.88 220.01 674.62 252.77 480.28 224.11 304.50 679.65 641.72 689.15 388.47 540.14 188.36 754.94 534.57 530.01 689.91 525.04 518.08 469.30 668.22 589.82 587.82 508.49 649.80 658.19 231.31 468.19 138.53 292.01 165.48 663.97 291.70 357.21 170.05 460.78 254.52 511.50 286.69 502.86 228.77 679.61 698.00 267.61 463.49 448.93 187.19 651.90 184.75 464.27 333.23 563.80 300.62 305.30 239.07 683.03 197.60 493.33 505.28 739.98 669.76 623.52 534.40 503.09 502.08 481.41 556.98 231.54 539.99 224.12 219.65 230.89 491.82 381.75 253.54 228.66 494.01 309.81 212.96 177.93 688.81 505.03 479.99 663.04 750.64 346.48 187.83 309.26 364.89 704.92 618.29 507.89 497.88 333.93 343.18 308.21 544.13 706.73 203.85 270.95 714.61 624.87 578.78 670.64 303.18 562.20 513.79 488.98 622.14 205.08 665.62 521.55 533.98 674.58 461.42 502.55 582.36 484.73 753.70 502.05 320.34 724.47 653.44 525.42 324.47 477.70 222.60 543.79 529.58 688.62 255.34 692.69 551.87 771.35 241.63 313.00 725.04 592.96 206.82 398.39 537.19 618.16 637.06 199.98
739.05 185.24 195.99 301.22 235.48 638.24 717.21 789.15 800.55 700.30 620.50 748.58 652.42 182.08 671.45 803.26 733.36 845.94 301.37 655.04 714.74 130.51 580.06 653.32 262.43 651.45 286.81 619.07 0.00 43.31 282.76 636.54 639.91 831.14 87.59 210.97 224.34 752.61 659.59 811.45 684.73 146.65 570.96 742.69 773.38 167.49 803.82 372.04 706.66 638.45 847.00 131.05 218.35 781.97 108.72 140.46 200.40 793.32 98.25 658.98 239.59 786.63 760.47 666.00 387.01 648.51 701.95 670.54 389.66 710.05 777.00 628.92 158.29 673.92 181.53 663.80 116.21 648.17 807.27 754.79 711.86 220.98 173.32 633.33 755.81 650.20 234.90 718.44 61.01 682.37 758.80 593.96 852.84 619.28 271.25 148.72 767.61 791.98 759.82 223.89 142.89 178.31 690.58 546.15 673.02 200.83 658.64 655.16 598.83 267.86 812.00 697.77 650.94 173.09 648.07 607.56 652.80 818.37 137.10 140.83 828.88 334.80 735.86 638.32 669.95 814.85 754.92 712.02 753.40 249.28 374.89 374.90 725.95 189.93 763.09 640.77 702.91 789.75 740.08 458.12 656.10 571.61 79.93 160.65 151.88 97.06 583.08 839.75 182.39 125.68 822.42 204.20 219.27 784.06 174.00 842.28 171.14 746.24 833.97 759.24 220.58 364.84 164.25 636.87 210.30 122.08 782.35 656.33 725.97 226.46 783.23 673.59 618.17 812.09 702.08 631.19 409.27 180.54 29.54 772.25 605.98
695.74 213.42 209.14 276.96 263.66 643.50 673.90 787.91 763.28 677.00 596.79 705.27 668.82 184.85 671.77 765.99 747.28 874.12 264.10 668.31 671.43 170.56 582.15 631.36 289.62 645.51 330.12 636.01 43.31 0.00 276.89 638.38 636.51 838.52 130.90 217.62 218.40 761.59 673.51 785.06 690.29 179.34 577.16 757.43 769.77 143.78 820.73 366.10 663.35 643.41 853.31 144.97 230.43 806.79 152.03 164.49 216.61 750.01 78.80 615.67 234.70 783.26 723.20 675.44 419.89 657.68 732.85 669.47 407.09 727.47 814.66 622.98 179.19 674.06 163.99 707.11 159.52 672.30 775.78 779.61 720.54 223.75 187.08 647.35 723.27 648.07 228.96 729.12 101.73 680.92 784.22 573.76 817.70 633.20 302.76 192.03 724.30 780.74 716.51 220.68 152.88 176.86 666.87 586.87 674.93 231.39 638.63 674.38 565.58 224.55 813.84 715.98 664.86 209.10 633.76 650.87 650.45 787.21 146.35 171.39 785.57 348.72 779.17 620.78 713.26 819.90 723.43 725.94 729.14 243.34 382.44 413.33 720.14 226.51 731.60 638.27 691.64 806.49 696.77 452.18 612.79 547.90 112.81 174.57 190.34 128.55 539.77 808.02 209.39 153.02 793.21 198.26 234.81 740.75 155.24 810.79 184.84 776.12 816.99 715.93 235.20 358.90 158.31 630.93 253.61 154.96 767.83 623.08 688.70 261.69 745.96 679.15 632.31 836.91 658.77 644.43 444.51 217.12 43.46 728.94 646.70
664.14 121.11 146.05 143.26 70.87 454.77 706.74 783.70 779.99 535.63 608.35 691.29 509.35 198.64 513.90 774.45 722.55 681.33 280.81 524.93 623.13 181.45 415.45 579.50 47.69 505.66 309.53 457.11 282.76 276.89 0.00 455.55 453.66 814.84 209.11 127.82 122.83 731.78 506.82 797.01 523.92 197.59 409.04 579.31 718.07 225.79 757.60 220.45 631.21 454.68 825.82 221.17 202.38 760.79 196.62 210.82 117.25 737.38 264.27 648.51 218.08 800.90 733.87 474.78 388.07 481.35 525.51 502.22 342.91 520.26 625.93 521.71 181.60 501.62 138.11 540.89 195.75 489.54 806.29 787.97 559.28 197.44 123.38 474.65 711.43 487.19 195.84 603.99 243.88 545.07 544.06 432.04 820.94 473.00 267.61 179.73 657.62 793.37 692.68 87.72 198.16 104.45 631.11 472.33 469.80 234.52 494.88 451.25 422.67 165.30 631.01 527.25 504.66 214.09 501.59 480.18 508.73 772.70 191.63 216.67 776.31 364.77 593.26 432.05 552.73 603.65 800.28 743.89 595.44 178.75 165.91 306.09 568.40 230.80 797.80 476.18 547.89 787.79 723.36 405.63 559.31 449.70 248.80 234.11 157.29 342.96 418.32 776.42 254.98 230.63 771.60 165.14 172.79 744.36 190.25 857.22 207.78 584.55 815.54 693.74 110.20 193.94 152.15 535.36 214.03 253.17 727.59 480.17 705.41 222.11 754.42 529.09 495.61 811.55 691.61 455.70 315.37 234.31 279.93 714.71 471.67
448.22 503.99 523.23 459.71 453.75 16.91 483.24 514.67 615.10 97.77 447.77 482.56 94.39 534.93 76.04 686.70 514.63 280.69 597.26 112.79 451.40 526.50 245.85 413.20 407.86 92.30 632.76 206.29 636.54 638.38 455.55 0.00 21.21 615.39 582.70 512.22 504.88 486.76 75.85 565.82 72.59 518.22 101.00 153.95 515.50 614.88 521.06 439.80 443.32 42.54 628.65 584.10 575.25 568.39 569.98 575.77 501.65 510.02 619.12 425.01 550.28 547.37 596.18 48.80 594.56 69.11 106.26 157.58 722.67 125.07 193.77 108.08 498.72 80.67 496.42 105.85 540.80 54.92 556.54 565.13 117.06 554.00 500.56 19.10 524.01 80.90 544.47 163.71 595.21 147.78 179.18 90.11 514.94 36.54 614.58 543.41 601.02 548.90 476.76 474.17 562.62 501.30 453.39 372.21 54.55 570.93 54.60 36.00 92.14 514.79 175.46 96.58 68.20 531.95 171.06 28.98 99.60 520.72 569.15 562.06 494.95 656.69 175.61 39.63 126.75 216.26 557.64 511.82 322.63 510.86 402.95 543.13 130.54 546.83 565.81 24.03 93.11 555.80 456.78 560.94 606.34 238.88 602.68 573.34 540.61 660.08 98.61 481.97 572.10 588.04 506.49 547.19 587.58 414.27 522.67 645.00 539.99 169.30 578.90 512.48 506.28 322.46 523.05 187.06 577.49 587.17 516.50 115.01 588.01 561.33 666.67 73.54 159.17 585.78 468.11 25.03 535.12 556.22 626.28 488.95 50.24
459.17 496.36 534.40 453.23 446.12 28.08 462.03 493.46 636.31 108.94 452.10 493.40 98.91 556.14 87.21 690.07 531.29 296.30 590.78 114.49 459.56 547.71 247.78 434.41 405.97 88.29 626.28 201.16 639.91 636.51 453.66 21.21 0.00 602.10 578.36 510.33 483.67 507.97 74.09 544.61 93.80 539.43 88.30 168.87 513.27 627.58 542.27 450.45 451.48 44.24 607.44 604.32 573.54 547.18 561.04 596.98 499.76 531.23 629.17 403.80 571.49 526.16 574.97 70.01 596.26 62.63 117.43 156.02 743.88 136.59 210.19 110.82 519.93 79.02 478.40 120.88 562.01 53.27 535.33 543.92 132.67 535.98 511.73 40.31 522.71 76.75 543.46 184.92 598.25 168.99 191.52 111.30 536.15 42.32 617.23 564.62 612.19 527.69 487.71 477.54 568.25 488.60 474.60 383.38 70.69 592.12 75.81 52.14 70.93 498.41 196.67 111.51 73.98 553.16 149.85 32.35 78.39 541.54 574.78 583.27 504.00 654.82 196.82 21.61 147.96 233.89 557.94 509.95 343.84 509.85 424.16 544.34 141.71 568.02 566.11 45.24 114.32 554.65 477.99 539.73 586.09 247.08 584.66 594.55 551.78 681.29 96.74 498.11 593.31 609.25 517.93 525.98 589.44 435.48 543.88 623.81 561.20 181.08 557.69 504.06 503.73 343.67 540.50 165.85 556.28 608.38 522.79 128.43 591.38 540.12 670.04 94.75 162.67 564.57 446.90 39.96 550.05 577.41 631.35 477.10 60.29
169.09 832.45 878.72 671.58 824.68 612.77 195.05 108.64 203.64 550.66 320.71 151.13 647.00 916.47 577.74 307.36 148.96 757.16 702.82 677.57 233.72 872.37 515.27 311.30 778.79 670.31 999.99 742.74 831.14 838.52 814.84 615.39 602.10 0.00 876.25 855.59 872.02 128.63 628.78 68.12 576.17 888.51 539.96 669.62 108.41 773.72 112.27 878.40 241.80 622.63 84.20 891.85 905.15 58.22 897.38 892.26 845.02 153.00 917.32 240.29 846.77 92.94 293.41 605.05 1048.77 625.54 616.23 715.91 1019.16 609.24 691.29 674.86 900.15 605.61 810.60 578.08 886.67 613.28 77.40 76.35 648.26 887.90 858.79 598.21 177.95 640.34 860.41 510.31 840.00 499.96 726.19 562.96 186.54 614.09 958.70 892.64 368.63 100.21 197.63 777.41 868.84 811.16 284.37 354.86 597.69 900.83 602.86 616.24 559.38 882.89 738.32 643.58 624.46 923.61 531.08 620.35 639.65 131.46 862.31 887.35 149.82 654.92 661.38 622.53 628.15 736.28 115.09 169.22 312.91 874.79 823.86 964.04 562.31 876.73 123.26 591.36 549.85 111.31 169.95 1068.71 369.13 540.05 892.12 904.79 869.37 866.09 578.53 179.07 928.91 912.07 155.07 829.71 892.06 216.97 895.27 171.43 906.70 678.42 214.69 192.48 803.99 782.85 869.66 743.94 922.25 923.85 98.89 537.78 278.22 930.50 287.33 579.17 532.36 41.33 197.19 598.88 944.67 886.12 840.47 153.21 596.12
760.27 112.07 108.40 226.07 162.31 569.38 682.01 849.51 797.48 645.67 624.23 725.93 564.83 111.39 617.43 733.82 771.61 772.77 363.62 581.87 710.80 72.57 497.35 628.56 174.84 588.14 228.87 534.66 87.59 130.90 209.11 582.70 578.36 876.25 0.00 123.38 146.35 784.96 605.69 853.45 635.95 88.71 513.60 655.10 809.03 239.58 806.66 294.05 707.19 579.38 918.05 80.02 151.26 856.56 21.13 99.54 112.81 777.12 117.40 697.57 177.64 836.66 785.06 601.93 365.87 583.82 615.75 625.40 302.07 622.46 689.41 579.17 90.68 628.41 99.96 640.93 58.27 616.69 844.17 829.38 661.48 150.29 85.73 593.97 760.49 584.04 181.06 630.85 36.25 617.36 671.21 536.60 807.54 597.70 214.25 61.13 740.43 856.62 732.42 156.65 78.20 113.30 680.17 521.39 596.95 158.29 584.29 578.40 511.24 182.59 733.38 651.69 597.04 115.15 566.78 600.06 613.29 813.32 74.41 99.45 787.55 406.89 648.27 556.75 582.36 727.26 827.01 783.11 678.25 165.74 307.28 312.30 671.93 146.76 835.18 590.79 625.04 841.40 755.29 399.57 651.08 531.60 131.34 104.12 64.29 182.20 537.05 817.25 138.94 111.89 799.09 154.45 163.17 706.87 99.01 903.28 113.20 658.65 884.32 742.80 132.99 304.19 114.50 558.88 190.80 123.02 814.70 568.74 766.97 184.68 713.79 624.81 530.58 875.18 740.67 580.40 366.10 137.37 101.63 764.50 581.22
767.15 51.49 77.41 208.35 77.27 511.44 746.13 840.37 783.22 586.92 636.62 732.81 510.42 109.90 570.17 717.79 771.58 687.73 326.06 510.79 650.22 119.24 395.11 647.34 104.36 506.86 212.71 479.87 210.97 217.62 127.82 512.22 510.33 855.59 123.38 0.00 37.95 790.83 503.45 796.33 569.23 107.64 510.49 592.77 774.74 200.09 806.45 185.65 658.30 511.35 877.16 158.80 155.63 840.31 103.18 155.76 10.57 770.34 202.06 705.98 93.32 821.15 743.14 531.45 283.05 534.73 578.34 517.00 265.71 525.47 641.07 524.77 94.33 556.13 92.75 597.56 129.49 544.48 799.63 845.57 564.49 100.62 61.17 503.65 770.06 514.43 73.13 598.48 158.35 568.20 566.60 508.26 800.33 526.46 207.30 89.68 716.43 808.73 766.03 87.04 122.73 115.90 603.54 540.17 526.47 172.96 540.58 507.92 479.34 59.21 655.17 563.63 494.80 126.76 462.95 529.42 570.67 765.71 129.26 145.83 780.34 429.86 598.47 488.72 565.57 626.19 797.16 750.24 660.53 87.51 217.10 253.07 594.25 155.36 805.33 520.31 587.41 814.88 772.15 296.35 604.92 429.36 172.23 158.68 66.41 255.69 474.99 810.04 167.71 175.57 789.32 42.43 131.35 699.66 80.29 872.29 116.87 624.61 842.63 761.58 121.99 211.68 68.87 450.48 168.80 182.78 784.26 536.84 708.64 161.67 737.82 558.09 504.21 874.80 724.73 512.37 279.17 161.06 220.68 783.28 528.34
786.97 89.44 89.02 246.30 115.22 511.75 784.08 823.69 816.55 592.61 674.57 770.76 492.22 75.81 570.88 722.97 809.53 714.29 364.01 536.77 688.17 124.42 433.06 685.29 142.31 468.91 212.44 503.73 224.34 218.40 122.83 504.88 483.67 872.02 146.35 37.95 0.00 828.78 524.11 808.79 577.47 129.95 499.67 593.45 812.69 238.04 844.40 147.70 696.25 527.91 877.04 187.96 150.32 859.15 125.22 173.69 48.52 808.29 207.24 743.93 108.97 819.04 776.47 553.68 265.24 503.14 598.17 479.05 279.04 563.42 664.20 491.44 112.02 562.69 130.70 604.55 138.72 536.94 799.51 853.71 556.56 100.35 66.35 523.98 808.01 504.06 73.01 636.43 163.33 606.15 604.55 476.67 838.28 525.43 200.83 113.67 754.38 816.52 803.98 124.15 160.68 153.85 641.49 578.12 554.36 141.78 559.48 535.81 517.29 61.05 642.30 595.18 515.46 133.37 500.90 516.02 539.82 803.66 167.21 162.35 818.29 430.45 627.92 505.28 595.50 601.50 759.21 788.19 698.48 55.92 202.24 276.02 623.05 122.69 767.38 528.91 597.99 832.10 773.99 296.23 642.87 467.31 210.18 184.10 104.36 273.38 510.66 847.99 177.30 193.50 827.27 42.31 147.92 737.61 102.60 846.57 109.11 601.78 867.44 799.53 159.10 249.63 60.09 412.53 139.88 186.69 822.21 571.37 741.97 123.72 743.00 578.42 541.32 874.68 762.68 523.63 281.01 132.08 225.53 806.16 507.46
67.64 740.35 774.10 642.91 755.17 484.14 102.95 73.38 237.14 445.53 229.04 59.03 551.30 798.63 473.49 296.56 61.59 685.76 618.91 576.12 141.62 780.70 443.80 228.91 709.28 559.01 934.71 658.88 752.61 761.59 731.78 486.76 507.97 128.63 784.96 790.83 828.78 0.00 521.11 93.44 464.85 796.84 438.51 597.57 38.90 682.05 82.64 749.77 149.70 521.08 169.50 824.58 852.50 104.47 774.70 829.97 787.86 68.57 833.33 145.92 777.62 98.47 256.60 499.90 944.25 524.09 534.41 623.81 950.01 544.37 591.98 575.31 808.48 504.27 739.30 515.65 795.00 501.28 102.72 123.84 560.97 822.62 766.69 479.39 84.38 548.24 829.49 398.31 760.90 448.07 626.38 461.51 120.84 497.68 913.54 814.70 345.80 107.61 77.89 737.91 821.68 682.53 187.29 275.76 496.24 864.60 485.95 504.82 438.82 777.76 639.99 531.58 512.46 831.94 474.30 491.72 538.20 65.76 828.21 829.16 93.04 585.41 549.38 506.86 555.85 628.37 127.22 40.59 200.91 828.89 695.23 835.41 461.30 854.89 135.39 462.73 437.85 96.08 64.82 940.08 265.80 411.42 832.54 840.85 806.74 808.16 453.80 87.14 870.72 849.78 83.02 830.33 822.91 132.39 803.17 176.00 821.33 575.52 162.54 115.72 740.87 684.75 790.38 657.36 853.10 831.33 29.74 409.15 258.91 869.26 276.53 467.17 430.91 142.36 105.53 503.30 852.57 845.50 723.07 32.65 504.02
465.62 541.29 559.72 472.08 505.02 72.37 526.30 567.55 629.70 103.14 462.37 499.96 51.96 589.48 94.90 691.97 509.39 258.37 609.63 123.06 452.19 601.55 263.79 427.80 459.13 55.20 645.13 220.01 659.59 673.51 506.82 75.85 74.09 628.78 605.69 503.45 524.11 521.11 0.00 560.66 91.14 594.07 139.59 131.63 549.39 618.41 573.11 474.90 444.11 68.69 634.65 621.39 606.23 614.96 595.66 618.35 492.88 537.09 627.16 468.07 594.41 585.48 624.78 44.38 620.71 81.48 105.08 127.23 746.00 79.32 181.26 77.73 574.57 79.06 534.39 119.29 612.00 56.40 561.35 593.99 94.74 550.58 543.48 79.48 550.68 55.35 562.31 190.38 603.25 192.85 179.71 144.12 540.88 40.31 649.92 555.66 598.15 601.78 494.16 482.74 585.32 538.12 472.26 427.67 37.02 624.94 81.27 55.57 145.02 541.67 212.11 90.14 8.65 578.36 213.78 87.60 111.08 544.67 591.85 608.42 501.07 693.59 138.66 77.60 119.42 206.36 587.12 530.73 320.20 528.70 478.80 563.19 127.67 600.84 595.29 62.82 118.14 591.79 483.85 572.42 608.64 241.18 640.65 621.27 569.86 699.98 161.32 501.54 646.58 638.16 521.06 545.88 602.07 474.65 576.75 658.69 602.62 143.46 604.08 520.52 517.69 398.31 542.40 153.55 588.97 653.39 550.85 153.80 626.29 572.81 671.94 98.19 208.65 591.78 510.54 58.92 569.01 610.23 630.05 516.02 58.28
161.08 819.62 820.21 736.35 786.25 572.69 171.44 51.15 214.07 538.97 279.19 152.47 612.62 862.57 535.09 279.26 118.90 744.74 687.40 659.10 227.58 830.85 492.54 310.71 787.16 615.86 936.76 674.62 811.45 785.06 797.01 565.82 544.61 68.12 853.45 796.33 808.79 93.44 560.66 0.00 558.29 846.99 531.95 637.27 116.78 732.20 86.74 843.21 234.92 588.85 85.95 823.73 878.27 64.93 853.05 824.14 785.76 117.31 863.86 211.59 859.77 24.82 266.08 540.97 1007.10 607.24 601.67 681.04 1003.21 583.71 661.23 631.54 857.49 578.11 765.98 565.37 827.40 570.10 9.28 66.50 622.73 824.67 797.54 560.52 109.83 616.01 797.18 491.75 830.91 431.84 693.84 554.95 152.29 586.93 931.35 853.89 318.10 44.78 162.01 709.29 800.72 764.67 238.16 345.77 533.61 879.23 568.23 552.16 532.26 820.19 723.09 597.41 569.31 867.73 518.37 576.96 623.00 99.11 794.19 819.23 137.11 663.29 623.49 566.22 595.80 702.48 61.63 114.89 294.35 811.56 788.67 928.85 551.78 874.35 69.06 556.17 531.29 97.21 158.26 1020.40 311.64 485.72 851.36 836.67 837.59 797.97 528.10 169.22 860.79 843.95 122.72 766.48 872.09 193.53 839.08 106.62 843.47 648.36 157.20 124.36 744.24 759.05 806.43 710.46 913.33 855.73 123.18 502.59 271.13 909.53 259.23 560.61 524.35 84.45 168.49 584.50 942.79 864.96 781.91 126.09 586.60
441.08 534.18 578.18 532.30 522.06 71.86 468.17 538.23 603.00 61.28 419.63 457.16 142.22 607.52 32.43 652.20 455.94 263.24 649.48 184.85 446.69 599.09 257.26 401.10 476.23 139.39 705.35 252.77 684.73 690.29 523.92 72.59 93.80 576.17 635.95 569.23 577.47 464.85 91.14 558.29 0.00 590.81 149.22 146.82 493.90 647.88 534.35 486.28 438.61 114.77 578.39 656.69 647.11 546.45 614.82 648.36 558.66 462.46 685.11 426.21 596.76 538.64 588.92 61.48 666.79 141.70 69.56 201.55 735.40 79.52 179.22 152.05 571.31 43.20 551.37 59.62 613.39 65.76 558.24 519.27 117.10 608.95 555.51 65.58 498.71 132.15 602.76 149.92 652.92 135.68 167.34 161.97 499.02 103.92 683.47 611.02 557.41 556.46 417.76 522.36 626.85 549.52 424.82 427.16 54.12 642.79 51.66 72.67 124.71 551.03 188.67 75.55 92.84 604.54 203.63 77.17 162.58 494.85 633.38 634.65 426.35 707.28 138.53 94.58 99.82 206.56 533.67 477.28 263.94 582.72 475.54 574.47 86.93 618.69 541.84 82.23 27.00 526.65 441.10 623.92 611.22 243.76 657.63 645.93 587.75 669.76 150.52 470.84 644.69 660.63 482.30 611.66 642.05 458.62 595.26 583.15 604.49 145.26 517.03 510.07 547.18 395.05 576.08 237.74 631.73 659.76 494.59 111.51 562.22 624.31 640.88 11.14 201.99 535.52 469.31 91.02 601.11 618.99 693.66 449.10 116.23
762.95 100.55 68.78 231.18 150.79 535.13 741.11 826.18 796.45 615.99 567.80 737.81 556.61 55.71 594.26 730.83 779.93 761.25 368.73 546.73 667.59 16.14 490.91 602.37 196.68 560.95 187.80 480.28 146.65 179.34 197.59 518.22 539.43 888.51 88.71 107.64 129.95 796.84 594.07 846.99 590.81 0.00 511.73 672.17 816.73 237.42 855.44 261.69 659.51 560.76 904.37 79.68 92.27 839.34 90.76 65.41 111.22 815.59 151.25 682.88 106.81 824.47 756.37 567.02 282.96 546.28 624.48 587.92 279.20 626.12 711.99 538.42 19.50 598.89 166.48 624.07 30.44 573.14 845.97 812.16 635.28 94.61 74.21 537.32 737.16 572.94 125.38 681.93 102.98 626.49 674.24 488.73 874.06 554.76 143.07 52.91 695.47 836.96 784.04 157.14 57.12 160.35 637.88 588.12 572.77 87.95 572.82 554.22 522.10 141.96 693.68 614.80 586.42 49.40 530.03 547.20 565.42 844.74 61.06 43.84 785.21 406.68 693.83 557.85 644.97 696.21 822.17 775.32 683.36 118.28 236.10 243.73 635.11 63.85 830.34 542.25 611.32 839.96 763.98 340.58 653.98 523.35 118.23 76.29 50.57 180.86 522.72 829.70 78.16 85.22 844.45 110.51 83.49 773.39 27.35 863.66 50.57 687.52 860.00 767.63 166.28 274.34 73.75 542.48 109.79 93.43 814.78 579.60 721.87 116.18 750.86 591.76 533.25 869.46 705.73 543.25 291.38 62.65 168.36 778.87 568.46
370.87 484.46 491.87 474.27 435.53 84.09 449.13 511.89 619.40 162.02 415.61 405.21 153.96 513.99 133.78 686.23 473.12 348.31 582.51 137.61 452.73 527.87 189.61 417.50 409.20 155.19 603.67 224.11 570.96 577.16 409.04 101.00 88.30 539.96 513.60 510.49 499.67 438.51 139.59 531.95 149.22 511.73 0.00 216.61 466.24 539.94 521.15 405.87 444.65 91.98 596.84 575.87 508.14 531.81 492.47 561.96 499.92 444.11 591.10 450.94 539.95 520.48 622.11 116.62 600.35 85.58 173.44 215.47 683.39 185.07 250.58 166.32 508.33 144.76 464.09 182.02 540.60 125.22 541.23 532.22 188.46 495.22 510.80 83.64 488.28 131.80 477.36 209.75 509.95 152.08 243.72 23.00 527.67 115.18 561.69 532.47 612.84 540.44 399.41 423.45 546.97 400.30 457.69 414.37 109.26 503.82 100.64 116.10 58.84 494.88 276.46 146.91 130.94 538.18 132.18 93.61 99.69 495.34 548.91 523.87 468.33 596.65 243.43 106.81 194.57 294.69 538.41 451.78 377.50 443.75 460.41 534.19 169.38 479.72 541.28 99.18 153.65 498.99 441.10 561.03 528.03 160.57 553.92 557.67 519.48 653.54 38.57 483.15 534.33 577.86 478.33 488.83 537.73 478.57 484.38 587.19 520.96 224.01 533.67 467.25 458.40 416.47 508.15 226.98 542.54 573.46 468.25 116.34 627.85 533.49 682.23 138.08 88.89 576.06 426.45 90.34 556.24 489.11 575.33 421.44 115.55
547.55 627.75 649.04 565.06 577.51 148.97 567.48 641.84 689.78 169.30 522.45 538.83 145.43 646.20 177.22 792.62 591.32 200.52 702.61 179.78 565.01 670.44 345.72 487.88 531.62 156.98 689.90 304.50 742.69 757.43 579.31 153.95 168.87 669.62 655.10 592.77 593.45 597.57 131.63 637.27 146.82 672.17 216.61 0.00 592.79 709.75 564.27 530.84 556.93 124.63 689.48 716.15 673.82 638.65 676.23 713.11 582.20 557.75 711.65 509.25 638.84 619.47 677.28 111.59 621.15 174.46 106.13 183.95 773.54 67.30 117.57 134.45 652.67 131.56 604.05 131.31 684.74 140.72 643.28 611.47 36.89 607.30 627.89 148.46 573.29 156.81 618.71 249.39 687.74 222.46 56.57 217.54 573.60 154.65 722.26 649.13 679.36 632.49 549.47 584.20 680.08 616.91 528.07 504.27 118.95 698.36 163.20 135.12 217.31 625.99 127.18 78.44 134.00 671.34 290.89 168.46 193.46 538.16 686.61 703.18 559.57 786.57 74.97 147.26 72.74 116.16 664.93 605.56 409.11 621.68 521.79 647.68 216.14 674.26 673.10 148.76 172.17 587.33 550.01 647.45 667.00 351.78 710.31 701.09 659.18 814.03 243.12 568.81 726.05 715.49 514.55 625.93 664.80 543.63 645.52 714.86 679.50 91.53 648.74 560.78 619.15 459.35 599.12 180.92 671.35 741.12 598.71 239.74 693.93 655.19 772.59 142.85 277.70 654.55 552.35 129.81 639.90 681.00 744.39 580.13 142.77
95.37 764.42 806.29 666.98 716.27 509.63 127.02 65.63 198.24 457.68 251.71 83.10 568.79 837.53 485.64 301.96 40.55 688.90 642.98 584.47 165.69 803.37 438.86 221.93 670.38 577.43 914.49 679.65 773.38 769.77 718.07 515.50 513.27 108.41 809.03 774.74 812.69 38.90 549.39 116.78 493.90 816.73 466.24 592.79 0.00 704.72 62.42 788.67 173.77 514.22 130.60 831.83 832.28 65.57 813.60 839.43 764.17 63.63 848.57 154.10 757.40 94.04 266.86 520.28 976.88 551.82 546.65 635.47 929.79 559.39 582.88 593.08 831.15 524.43 763.37 508.50 817.67 523.51 107.50 92.75 585.04 802.40 790.76 514.65 82.35 559.90 819.99 429.95 773.05 409.17 649.36 489.24 109.71 515.31 893.32 844.76 331.39 75.30 90.04 776.81 844.35 721.43 208.06 287.91 512.92 847.14 518.78 531.47 450.97 787.99 648.95 561.07 540.74 850.11 461.50 530.62 565.93 54.63 850.88 851.83 80.24 546.51 581.02 514.12 551.32 660.01 118.28 61.36 232.55 839.12 734.13 874.31 472.94 854.54 122.96 501.63 469.49 69.72 76.97 978.98 304.70 432.19 853.31 861.43 830.81 828.93 474.57 86.75 872.88 841.84 78.24 813.89 802.69 156.46 827.24 171.13 825.85 607.16 171.68 94.68 758.58 705.52 816.83 654.57 832.88 870.23 9.52 448.05 271.96 848.31 281.93 496.66 458.64 109.82 111.00 490.47 876.64 845.15 743.84 44.80 515.68
618.98 223.80 231.21 286.11 207.06 612.26 626.32 711.39 689.48 586.60 453.01 623.02 586.52 247.34 615.45 714.77 665.14 817.52 212.88 529.97 552.80 223.87 438.37 487.58 252.95 563.21 355.58 641.72 167.49 143.78 225.79 614.88 627.58 773.72 239.58 200.09 238.04 682.05 618.41 732.20 647.88 237.42 539.94 709.75 704.72 0.00 740.65 385.74 544.72 600.22 789.58 205.90 260.05 724.55 230.95 206.31 189.52 692.22 218.51 568.09 282.49 740.10 671.98 628.02 450.74 582.00 688.72 608.96 454.88 688.03 758.50 575.30 246.79 656.64 149.18 673.69 209.57 630.89 741.48 697.37 672.86 286.24 240.12 607.51 622.37 598.36 273.22 658.72 203.33 635.59 710.55 562.94 759.43 625.80 313.60 258.43 721.40 734.56 647.52 187.02 182.89 139.64 523.09 545.38 630.52 255.73 621.42 632.94 598.78 259.30 770.81 684.46 609.76 238.30 534.36 618.85 619.25 738.92 176.36 201.40 670.42 395.82 722.22 605.97 705.97 740.09 707.38 666.16 608.70 287.60 391.70 413.00 595.73 231.63 715.55 590.85 662.63 732.33 649.19 496.44 658.76 404.12 233.53 218.84 253.44 189.03 578.51 714.91 242.96 226.12 726.44 242.52 264.01 693.17 250.62 768.16 214.04 696.08 745.21 658.02 197.98 348.94 247.49 650.57 294.45 237.90 699.99 586.13 637.48 285.40 694.74 659.02 488.53 754.67 607.94 623.97 421.15 241.02 137.95 669.55 632.69
150.28 783.34 811.40 701.51 778.69 526.55 161.55 91.46 260.66 504.13 287.64 117.63 592.63 858.55 532.63 284.03 96.38 680.69 677.51 633.66 200.22 839.30 470.48 265.31 732.80 601.94 957.87 689.15 803.82 820.73 757.60 521.06 542.27 112.27 806.66 806.45 844.40 82.64 573.11 86.74 534.35 855.44 521.15 564.27 62.42 740.65 0.00 832.41 208.30 563.41 133.15 863.45 861.26 76.21 819.82 853.87 795.88 95.25 840.77 205.06 800.78 91.00 291.31 545.84 1015.27 590.17 549.84 621.86 973.17 496.97 612.57 617.72 867.08 542.46 713.70 551.88 853.60 516.71 96.02 49.03 535.99 845.78 800.49 501.96 139.15 601.96 863.37 467.81 770.41 471.59 620.84 544.15 97.44 553.57 936.70 856.84 354.91 86.22 139.95 742.91 869.00 765.17 224.52 285.27 546.31 880.82 538.89 534.42 513.39 824.62 653.36 535.13 579.52 872.73 504.88 527.73 620.66 75.66 875.53 887.76 123.62 608.93 569.97 549.27 537.07 624.01 143.53 117.72 270.41 875.75 777.87 918.05 516.32 862.74 148.69 518.62 507.35 34.74 123.96 1022.72 348.44 444.98 883.75 882.74 840.54 884.71 530.93 106.31 898.57 862.87 52.05 848.88 846.07 106.79 849.73 189.42 848.47 596.11 197.51 140.28 707.96 718.31 812.49 680.02 876.26 894.18 52.90 491.79 256.81 892.42 304.06 536.67 513.55 90.28 164.13 545.71 911.17 853.35 800.20 107.22 562.62
776.74 237.14 236.72 341.07 262.92 445.29 825.13 823.15 933.24 503.97 706.56 808.80 473.04 205.98 487.22 870.67 811.36 618.82 478.62 476.46 760.06 269.97 437.64 731.34 251.39 469.42 279.17 388.47 372.04 366.10 220.45 439.80 450.45 878.40 294.05 185.65 147.70 749.77 474.90 843.21 486.28 261.69 405.87 530.84 788.67 385.74 832.41 0.00 751.98 406.21 919.27 317.57 233.60 854.24 272.92 301.08 196.22 812.20 354.94 794.95 212.08 848.24 902.08 464.82 194.48 456.04 525.52 410.53 364.92 530.00 600.19 460.03 242.19 477.30 278.40 519.16 271.85 462.28 852.49 873.61 532.27 167.08 214.05 420.70 834.15 482.90 210.13 566.74 311.03 528.83 499.24 427.53 870.61 436.99 278.47 259.83 855.43 857.38 805.28 260.58 286.09 301.55 776.64 638.41 465.05 260.40 457.63 453.16 419.35 208.75 587.81 501.51 468.65 263.54 498.27 446.47 475.04 815.53 288.03 262.99 842.81 562.58 569.50 428.84 503.59 558.83 876.99 790.36 702.59 203.62 54.54 128.32 541.72 236.30 885.16 437.36 504.46 845.85 814.59 190.31 766.08 443.39 345.20 296.79 250.30 403.55 393.54 836.91 282.10 316.98 832.79 190.01 224.58 812.65 235.59 925.77 239.28 579.36 912.31 843.32 295.53 170.06 207.79 477.05 265.82 312.58 779.51 423.67 872.14 267.02 890.70 475.14 494.76 892.13 781.42 429.96 150.37 236.88 373.23 782.42 438.68
125.01 606.81 655.82 609.65 657.05 440.70 87.83 216.94 192.74 412.61 91.71 90.67 495.75 699.24 407.39 296.46 137.09 630.08 603.79 529.94 8.08 643.37 400.76 95.37 678.90 482.01 828.27 540.14 706.66 663.35 631.21 443.32 451.48 241.80 707.19 658.30 696.25 149.70 444.11 234.92 438.61 659.51 444.65 556.93 173.77 544.72 208.30 751.98 0.00 459.69 279.48 706.91 745.98 214.45 704.60 692.64 655.22 176.29 735.17 47.68 749.09 210.10 204.78 456.46 881.43 486.36 495.30 546.10 921.48 489.63 524.06 496.60 671.15 449.23 676.22 475.95 657.67 438.78 228.38 187.27 528.65 730.69 633.15 435.95 127.92 492.20 731.43 424.51 670.94 347.26 596.03 445.61 219.86 454.24 794.72 689.50 199.84 224.46 135.04 665.24 684.35 612.43 58.73 185.80 449.36 735.64 405.11 461.38 385.81 717.51 594.70 491.88 435.46 694.61 381.05 452.50 519.01 197.92 690.88 691.83 184.90 570.37 538.40 437.06 516.15 616.67 190.92 136.02 227.11 701.16 738.09 791.66 385.52 717.56 182.75 419.29 426.87 217.12 128.78 899.61 217.00 435.01 748.05 703.52 673.20 733.75 411.62 175.34 733.39 712.45 205.15 700.73 733.97 164.03 669.63 264.16 684.00 551.29 200.49 113.30 670.77 628.21 661.92 580.36 761.60 735.03 179.44 328.31 239.28 750.44 276.43 427.47 418.43 244.57 66.43 450.67 846.87 708.17 682.67 139.57 472.21
462.85 503.12 525.96 440.43 452.88 42.91 506.27 537.70 651.34 123.77 463.24 477.46 66.83 575.90 102.04 713.34 545.75 256.33 577.98 70.25 466.34 561.36 271.73 449.44 406.99 63.21 613.48 188.36 638.45 643.41 454.68 42.54 44.24 622.63 579.38 511.35 527.91 521.08 68.69 588.85 114.77 560.76 91.98 124.63 514.22 600.22 563.41 406.21 459.69 0.00 644.82 591.52 563.98 579.79 579.40 588.48 500.78 536.09 601.35 448.04 582.00 570.40 619.21 66.02 552.02 49.83 125.08 135.24 736.69 123.79 193.98 85.74 541.26 89.05 479.42 130.91 575.66 95.15 579.57 588.16 136.85 537.00 503.29 61.45 554.87 76.69 530.66 192.93 577.44 190.13 181.20 114.98 555.51 30.78 607.67 559.64 627.02 562.54 491.39 500.81 555.45 492.28 493.90 398.21 73.38 593.34 85.46 67.64 111.25 524.60 212.96 95.30 62.44 546.71 190.17 55.62 68.83 563.07 561.98 578.55 527.27 661.94 192.83 22.63 143.97 234.91 599.99 524.74 354.29 497.05 445.49 531.54 156.54 571.70 608.16 58.35 127.63 583.94 499.13 530.17 604.94 237.48 585.68 591.40 543.34 698.75 130.55 510.99 610.51 590.86 548.84 542.13 576.26 456.62 565.21 643.16 570.97 188.13 601.93 494.71 505.41 334.72 532.06 161.56 546.72 622.17 523.74 149.33 614.65 530.56 693.31 115.89 153.07 608.81 491.14 23.75 533.84 581.09 620.52 513.42 32.47
225.97 880.91 890.57 755.78 846.87 635.52 236.04 113.98 232.33 588.28 336.57 213.70 668.29 930.82 603.34 306.55 171.15 758.70 731.51 715.07 287.56 888.23 560.79 352.53 800.98 672.55 1002.22 754.94 847.00 853.31 825.82 628.65 607.44 84.20 918.05 877.16 877.04 169.50 634.65 85.95 578.39 904.37 596.84 689.48 130.60 789.58 133.15 919.27 279.48 644.82 0.00 891.98 906.69 65.03 917.39 892.39 871.71 185.56 932.11 256.15 888.00 105.14 312.01 609.22 1075.35 670.07 627.30 744.58 1060.39 630.12 705.52 695.08 916.01 617.81 846.85 589.15 895.65 614.82 77.53 92.21 669.14 892.92 867.90 628.77 188.78 674.64 865.43 511.85 892.72 500.09 739.92 619.84 206.40 637.96 960.24 924.25 360.11 113.44 220.64 795.24 868.97 850.62 324.11 407.58 601.86 902.37 604.40 620.41 581.57 900.51 763.28 645.12 626.00 935.98 566.39 639.79 685.83 151.32 862.44 887.48 185.13 677.11 662.92 629.05 647.72 741.91 129.88 191.96 314.45 879.81 864.73 1004.91 574.84 878.27 137.31 632.23 551.39 102.15 207.57 1088.65 374.47 562.79 919.61 904.92 907.95 883.92 600.93 189.60 929.04 912.20 174.93 834.73 933.29 239.94 921.08 148.63 911.72 689.06 214.75 192.61 805.53 828.37 874.68 770.90 941.09 923.98 140.12 578.65 306.91 932.04 286.52 580.71 589.24 42.87 213.05 621.07 1007.24 887.66 855.26 175.40 646.28
810.35 147.95 142.16 277.20 198.19 591.06 762.03 856.32 851.67 671.92 615.20 785.21 588.20 115.11 650.19 778.23 805.33 808.65 373.34 593.72 714.99 63.54 526.08 649.77 242.86 601.19 207.88 534.57 131.05 144.97 221.17 584.10 604.32 891.85 80.02 158.80 187.96 824.58 621.39 823.73 656.69 79.68 575.87 716.15 831.83 205.90 863.45 317.57 706.91 591.52 891.98 0.00 113.62 884.37 101.15 19.52 149.07 768.20 106.09 730.28 158.77 844.26 792.97 632.90 323.33 541.69 680.41 637.38 311.28 663.97 764.05 587.88 85.38 663.59 179.98 689.95 49.24 639.02 814.45 859.56 685.44 154.01 121.61 603.20 784.56 566.04 175.37 710.87 102.98 679.63 725.40 566.42 874.16 600.76 191.67 109.79 775.15 858.30 812.44 207.38 36.07 175.57 685.28 588.12 638.65 114.58 638.70 620.10 591.26 218.01 759.56 680.68 630.04 82.71 585.88 613.08 581.09 819.08 29.54 54.58 825.65 385.63 727.77 590.99 662.38 775.89 826.89 783.99 729.38 177.28 301.98 274.76 694.98 109.70 835.06 608.13 673.07 868.25 811.38 361.93 700.71 491.83 61.00 29.60 112.32 174.07 597.36 837.07 64.42 31.87 811.40 152.00 143.21 786.89 106.40 911.79 104.17 701.63 905.94 809.53 194.58 335.45 134.86 600.49 153.74 43.00 822.31 627.66 781.27 144.37 793.81 657.64 552.05 889.62 770.13 609.13 329.04 100.31 101.51 831.23 603.14
849.42 155.61 150.37 284.85 205.85 592.16 827.58 897.91 815.25 654.15 654.27 824.28 574.97 74.51 625.30 785.89 866.40 800.56 422.40 570.39 754.06 102.61 479.78 688.84 230.56 561.90 142.39 530.01 218.35 230.43 202.38 575.25 573.54 905.15 151.26 155.63 150.32 852.50 606.23 878.27 647.11 92.27 508.14 673.82 832.28 260.05 861.26 233.60 745.98 563.98 906.69 113.62 0.00 897.85 139.97 114.03 165.16 848.25 193.26 769.35 74.88 898.80 775.17 600.79 247.53 534.55 661.49 588.87 247.27 675.95 748.03 539.37 103.98 634.27 229.27 676.13 110.62 623.11 868.99 898.63 636.93 66.52 129.27 581.53 823.63 552.81 104.50 650.96 181.16 583.56 702.51 485.14 936.85 591.35 94.75 99.97 787.74 907.58 870.89 188.25 83.94 190.61 724.35 666.30 608.15 42.54 608.78 598.92 544.94 148.56 691.61 654.00 608.45 86.88 549.77 573.14 495.15 883.31 84.08 95.69 871.68 433.50 706.89 577.10 640.98 732.41 908.64 867.42 737.03 117.99 288.14 244.90 631.52 28.42 916.81 598.19 649.97 889.10 850.45 248.31 704.33 514.03 141.25 113.35 89.22 254.32 519.13 916.17 83.03 133.84 891.45 124.71 29.59 836.18 99.29 913.86 62.71 688.40 888.16 844.51 153.30 294.71 130.65 562.85 40.42 134.22 822.76 602.44 740.67 33.42 805.92 635.97 517.22 863.82 798.00 587.73 266.54 37.81 194.40 871.14 573.38
160.94 821.26 850.56 729.80 781.84 575.20 174.55 53.72 261.86 523.25 271.54 148.67 617.28 887.19 551.21 262.18 106.12 754.47 667.90 650.04 222.53 823.20 504.43 287.50 735.95 635.47 980.06 689.91 781.97 806.79 760.79 568.39 547.18 58.22 856.56 840.31 859.15 104.47 614.96 64.93 546.45 839.34 531.81 638.65 65.57 724.55 76.21 854.24 214.45 579.79 65.03 884.37 897.85 0.00 877.69 872.47 829.74 129.20 880.22 191.12 822.97 40.11 276.59 585.85 1028.27 609.81 586.51 698.07 995.36 573.18 648.45 657.44 850.98 556.44 789.91 548.36 837.50 582.19 69.92 27.18 612.20 867.97 827.89 578.17 142.74 622.92 857.82 495.52 838.62 474.74 695.22 554.81 166.39 580.88 958.89 869.45 324.69 55.27 155.61 774.22 861.36 787.00 273.18 353.48 578.49 910.26 584.35 575.87 516.54 835.48 701.91 609.56 606.31 874.44 501.36 579.53 625.57 111.31 854.83 871.66 120.10 612.08 633.98 567.78 606.93 700.22 99.94 126.93 298.12 872.20 799.70 939.88 538.51 886.16 108.11 567.20 535.06 62.14 142.54 1044.55 314.21 497.76 861.90 883.35 867.94 862.90 535.90 129.90 913.22 892.28 124.10 827.12 868.26 183.00 866.69 113.21 863.83 648.70 159.77 160.25 784.17 771.09 856.66 713.03 898.45 904.05 75.09 513.62 254.58 913.88 245.50 557.59 524.21 50.76 148.02 556.04 942.21 888.00 797.20 110.37 581.25
781.40 102.45 98.06 238.64 152.69 559.76 703.14 848.08 776.35 624.54 612.89 747.06 543.70 107.47 596.30 712.69 792.74 763.15 376.19 572.25 701.18 86.25 497.27 647.46 175.97 567.01 238.54 525.04 108.72 152.03 196.62 569.98 561.04 897.38 21.13 103.18 125.22 774.70 595.66 853.05 614.82 90.76 492.47 676.23 813.60 230.95 819.82 272.92 704.60 579.40 917.39 101.15 139.97 877.69 0.00 116.78 113.75 798.25 138.53 718.70 156.51 857.79 785.27 603.06 362.85 578.05 636.88 604.27 301.02 628.65 710.54 558.25 71.26 607.28 121.09 649.14 79.40 596.83 862.33 850.51 655.81 132.75 76.11 576.11 781.62 565.86 162.38 609.72 57.38 596.23 669.78 515.47 828.67 591.82 194.83 40.00 753.00 877.75 753.55 143.76 87.02 92.17 682.97 542.52 598.08 138.69 563.16 579.53 490.11 162.39 745.44 639.38 597.98 104.49 555.28 586.08 592.16 834.45 86.92 78.69 808.68 395.06 669.40 560.33 603.49 726.72 842.88 799.98 690.82 168.81 287.86 291.17 650.80 143.74 851.05 581.17 616.17 841.86 776.42 387.45 655.88 531.52 115.41 89.29 63.27 161.07 515.92 838.38 120.25 130.63 820.22 133.53 147.46 728.00 77.88 892.94 97.49 679.78 888.26 763.93 111.86 294.17 93.58 537.75 180.39 128.28 804.44 547.61 750.77 173.39 692.66 603.68 509.45 874.52 761.80 577.61 346.38 141.80 117.50 785.63 596.81
796.08 133.68 130.01 257.68 183.92 588.02 774.24 856.73 837.40 668.88 600.93 770.94 585.16 113.26 647.15 763.96 813.06 794.38 392.86 590.68 700.72 49.27 526.49 635.50 229.81 598.15 197.94 518.08 140.46 164.49 210.82 575.77 596.98 892.26 99.54 155.76 173.69 829.97 618.35 824.14 648.36 65.41 561.96 713.11 839.43 206.31 853.87 301.08 692.64 588.48 892.39 19.52 114.03 872.47 116.78 0.00 157.94 775.80 94.03 716.01 155.73 844.67 797.53 624.57 311.27 538.65 677.37 634.76 291.76 672.84 761.01 585.26 77.05 656.44 199.50 681.62 53.53 630.69 814.86 845.29 682.82 152.16 107.34 594.87 770.29 563.00 182.93 726.50 83.46 674.64 722.36 554.14 862.10 597.72 183.10 95.52 760.88 858.71 794.46 195.32 33.03 193.83 671.01 568.60 630.32 98.09 630.37 611.77 587.51 207.37 751.23 672.35 627.00 86.45 569.39 604.75 578.05 807.02 29.95 38.09 818.34 382.59 724.73 587.95 681.90 761.62 846.41 803.51 709.86 176.77 293.65 292.50 699.27 101.13 854.58 599.80 668.88 856.19 797.11 362.34 682.69 492.24 65.56 47.34 115.98 178.63 588.13 844.67 46.52 19.81 819.00 156.29 133.33 806.41 92.76 912.20 89.90 698.59 893.13 790.01 201.78 321.18 120.59 586.22 137.25 42.39 829.91 611.17 779.42 126.47 783.99 649.31 556.34 890.03 755.86 600.80 320.47 91.74 121.03 811.71 600.10
764.07 48.41 66.84 197.78 87.84 500.87 743.05 829.80 793.79 576.35 626.05 729.73 520.99 113.48 559.60 707.22 782.15 698.30 335.33 500.22 647.14 108.67 384.54 657.91 93.79 517.43 223.28 469.30 200.40 216.61 117.25 501.65 499.76 845.02 112.81 10.57 48.52 787.86 492.88 785.76 558.66 111.22 499.92 582.20 764.17 189.52 795.88 196.22 655.22 500.78 871.71 149.07 165.16 829.74 113.75 157.94 0.00 759.77 191.49 702.90 101.53 810.58 753.71 520.88 293.62 527.45 567.77 527.57 273.92 514.90 630.50 522.97 104.90 547.72 82.18 586.99 122.97 534.66 795.04 835.35 553.92 111.19 50.60 493.08 766.98 503.86 83.70 609.05 149.06 578.77 577.17 498.41 789.76 515.89 217.87 100.25 712.14 798.16 774.10 76.47 133.30 105.33 614.11 550.74 515.90 162.39 530.01 497.35 468.77 69.78 663.00 553.06 484.23 137.33 473.52 518.85 560.10 755.14 139.83 155.06 769.77 419.29 587.90 478.15 555.00 636.76 807.73 760.81 649.96 98.08 227.67 242.50 603.25 158.81 815.90 509.74 576.84 804.31 771.69 306.92 601.84 418.79 182.80 168.82 76.98 266.26 464.42 799.47 168.08 177.75 778.75 53.00 141.92 689.09 83.87 861.72 120.45 614.04 839.55 768.52 111.42 201.11 58.30 461.05 177.01 192.07 773.69 526.27 719.21 172.24 727.25 547.52 493.64 868.73 721.65 501.80 289.74 164.10 214.44 793.85 517.77
73.24 770.05 818.94 655.96 719.81 514.81 95.11 97.21 261.87 433.95 249.42 89.30 554.63 845.54 461.91 288.14 97.87 675.99 611.07 581.72 171.66 801.08 375.23 258.95 734.01 574.99 959.08 668.22 793.32 750.01 737.38 510.02 531.23 153.00 777.12 770.34 808.29 68.57 537.09 117.31 462.46 815.59 444.11 557.75 63.63 692.22 95.25 812.20 176.29 536.09 185.56 768.20 848.25 129.20 798.25 775.80 759.77 0.00 828.81 134.34 801.99 129.91 305.51 508.65 948.83 529.69 519.15 647.02 974.38 541.96 610.72 597.52 828.86 460.80 742.33 485.71 815.38 486.55 108.03 135.36 555.47 846.99 796.39 490.92 126.18 572.33 817.91 435.72 755.70 472.80 614.32 467.11 106.31 534.01 931.70 838.25 373.04 131.44 44.70 729.90 804.27 751.10 222.31 270.56 501.84 867.81 491.84 511.17 484.85 766.18 606.27 513.92 528.44 850.91 438.71 508.75 543.80 51.23 797.74 813.89 57.45 598.52 586.79 534.82 540.00 647.07 160.38 95.61 238.32 817.31 762.69 902.87 436.06 849.73 164.82 507.58 475.26 100.40 53.24 1002.51 334.37 409.48 829.20 797.80 836.44 863.18 482.68 68.87 822.32 795.61 43.20 812.77 847.28 135.42 833.21 205.37 835.46 562.86 203.26 142.72 694.95 642.81 799.48 646.74 877.47 811.20 54.11 445.09 313.93 881.67 268.11 451.32 436.51 168.32 109.86 533.97 882.84 840.34 778.09 78.68 534.29
774.54 167.23 163.56 343.47 217.47 613.25 752.70 866.71 841.70 694.11 671.52 784.07 621.99 167.96 672.38 797.51 814.08 827.93 342.90 637.03 727.09 143.30 562.05 639.80 263.36 643.84 282.75 589.82 98.25 78.80 264.27 619.12 629.17 917.32 117.40 202.06 207.24 833.33 627.16 863.86 685.11 151.25 591.10 711.65 848.57 218.51 840.77 354.94 735.17 601.35 932.11 106.09 193.26 880.22 138.53 94.03 191.49 828.81 0.00 694.47 215.99 862.06 795.02 633.57 365.68 630.33 668.24 683.83 360.94 681.12 764.32 634.33 131.75 660.06 217.36 692.34 147.14 651.28 854.58 853.04 674.76 206.86 140.89 637.84 802.07 613.10 237.63 741.55 81.15 724.64 759.73 593.97 896.50 586.85 246.81 159.88 803.10 859.54 792.15 229.14 126.75 220.58 712.35 566.29 640.59 182.92 652.37 633.22 628.64 258.19 792.13 660.67 618.51 164.98 633.29 624.12 648.08 861.43 120.22 128.21 864.37 406.38 752.89 608.50 699.76 808.16 802.23 792.74 716.70 231.47 348.35 349.63 726.88 164.84 810.40 621.80 702.85 875.51 775.57 441.57 691.59 582.51 63.05 104.47 173.09 110.01 618.57 886.82 139.29 74.22 872.01 209.61 202.39 819.55 155.70 889.59 173.02 748.69 895.79 787.70 222.09 359.35 169.66 619.77 208.88 90.76 846.63 686.14 767.50 208.98 817.54 682.97 646.31 910.34 737.57 594.09 384.18 155.45 110.26 807.74 568.88
80.07 654.49 703.50 602.80 658.30 431.88 58.23 192.51 240.42 364.93 115.08 89.60 502.71 730.73 393.78 304.36 134.03 582.40 574.19 518.29 55.76 666.74 357.31 143.05 655.03 492.09 851.64 587.82 658.98 615.67 648.51 425.01 403.80 240.29 697.57 705.98 743.93 145.92 468.07 211.59 426.21 682.88 450.94 509.25 154.10 568.09 205.06 794.95 47.68 448.04 256.15 730.28 769.35 191.12 718.70 716.01 702.90 134.34 694.47 0.00 775.82 186.77 171.17 459.89 911.95 466.43 479.67 531.77 947.93 441.95 476.38 482.27 694.52 456.51 687.27 485.83 681.04 430.76 215.34 163.94 480.97 769.63 680.83 444.11 118.91 480.55 779.11 464.92 661.32 394.94 565.82 464.76 202.03 446.12 818.09 712.99 247.52 201.13 108.61 688.61 707.72 635.80 106.41 176.18 467.25 759.01 426.31 455.94 433.49 765.19 566.24 480.11 459.42 717.98 428.73 436.15 482.19 171.54 714.25 715.20 169.90 522.69 514.95 425.41 482.05 568.99 199.32 112.69 270.77 748.84 744.77 839.34 401.93 740.93 207.49 449.04 453.21 190.82 81.10 943.53 264.68 391.56 728.48 726.89 720.88 744.22 430.77 192.35 756.76 735.82 177.54 748.41 757.34 125.08 710.23 242.38 707.37 538.80 234.64 100.26 694.14 624.89 709.60 569.35 784.97 758.40 152.16 375.99 205.67 773.81 284.33 437.35 427.25 221.24 43.10 443.76 883.14 731.54 659.13 113.27 464.09
845.26 144.81 123.13 299.31 170.59 555.77 834.05 823.03 811.53 614.45 660.74 823.60 563.69 83.90 597.70 776.24 797.95 776.35 419.38 548.87 741.01 109.08 486.07 695.31 195.32 540.38 157.09 508.49 239.59 234.70 218.08 550.28 571.49 846.77 177.64 93.32 108.97 777.62 594.41 859.77 596.76 106.81 539.95 638.84 757.40 282.49 800.78 212.08 749.09 582.00 888.00 158.77 74.88 822.97 156.51 155.73 101.53 801.99 215.99 775.82 0.00 850.00 784.56 575.30 219.48 543.42 599.49 567.35 172.39 606.20 673.15 517.85 91.15 598.51 168.89 624.67 123.38 572.76 850.49 845.79 615.41 45.00 119.62 531.18 830.10 552.37 62.59 666.66 194.17 576.88 659.92 516.95 863.51 582.79 135.92 125.94 802.28 832.70 846.69 178.00 122.70 179.88 696.86 633.49 575.53 89.74 568.11 563.64 531.27 102.32 717.12 631.74 585.76 92.71 554.66 556.95 553.37 808.43 129.23 131.58 818.60 472.26 632.01 559.37 566.10 710.47 868.18 818.21 751.49 96.20 259.15 235.13 652.20 97.14 869.82 547.84 614.94 814.22 815.26 265.50 698.24 520.32 184.63 143.44 114.56 252.51 550.94 844.15 115.48 167.08 832.04 93.29 45.29 775.80 79.46 918.01 68.45 642.39 897.55 852.08 187.63 286.38 97.02 521.50 75.48 177.94 747.88 588.77 750.06 91.64 796.27 585.62 532.92 867.22 812.54 574.93 272.56 87.75 242.36 802.20 589.08
149.61 816.91 837.64 718.20 801.34 554.24 154.65 32.70 238.89 524.82 287.09 138.81 609.47 872.32 552.78 283.20 111.41 747.29 670.61 640.65 218.18 808.33 495.15 305.47 764.42 614.45 957.29 649.80 786.63 783.26 800.90 547.37 526.16 92.94 836.66 821.15 819.04 98.47 585.48 24.82 538.64 824.47 520.48 619.47 94.04 740.10 91.00 848.24 210.10 570.40 105.14 844.26 898.80 40.11 857.79 844.67 810.58 129.91 862.06 186.77 850.00 0.00 286.76 561.50 1008.37 588.79 578.70 680.18 1022.39 587.97 641.27 636.98 836.11 577.46 790.80 540.55 822.63 569.58 29.81 48.20 626.99 845.20 822.36 566.47 121.72 602.91 817.71 490.56 818.86 452.37 676.04 537.27 177.11 568.48 951.88 854.58 338.63 19.96 158.97 734.11 821.25 781.00 236.77 357.77 554.14 899.76 583.11 572.69 529.09 795.37 699.54 614.19 594.13 859.57 493.55 558.51 604.55 123.93 814.72 839.76 112.29 640.55 598.67 547.77 579.71 677.66 59.83 90.07 293.16 832.09 793.70 933.88 550.33 882.52 68.00 561.20 530.10 81.53 144.11 1038.55 293.19 460.90 866.56 857.20 862.41 822.79 503.28 150.92 881.32 864.48 104.92 787.01 892.62 192.97 851.82 127.15 848.96 624.81 138.75 140.74 769.06 734.23 826.96 692.01 925.48 876.26 103.56 507.62 286.24 923.73 279.76 549.78 512.88 75.24 143.67 566.12 932.35 873.13 757.09 130.89 582.34
251.24 710.63 759.64 596.65 730.71 603.05 229.40 288.04 89.77 536.10 246.86 260.77 608.83 700.66 564.95 133.19 237.35 721.75 459.10 667.77 196.70 764.65 510.16 249.33 750.87 632.14 851.65 658.19 760.47 723.20 733.87 596.18 574.97 293.41 785.06 743.14 776.47 256.60 624.78 266.08 588.92 756.37 622.11 677.28 266.86 671.98 291.31 902.08 204.78 619.21 312.01 792.97 775.17 276.59 785.27 797.53 753.71 305.51 795.02 171.17 784.56 286.76 0.00 593.57 923.63 637.60 609.64 702.94 953.99 613.12 647.55 653.44 736.87 545.72 735.67 587.58 766.53 571.47 260.72 303.77 640.39 739.56 736.97 611.07 230.37 630.99 770.33 599.95 748.81 482.39 713.36 635.93 356.83 617.29 857.14 760.45 89.20 284.24 279.78 748.48 793.21 693.10 176.78 263.67 600.93 766.63 589.84 596.09 590.59 802.35 691.19 598.84 630.59 758.22 569.67 593.53 653.36 317.89 789.14 787.20 307.21 580.84 673.92 596.58 643.03 731.99 226.93 216.01 402.55 790.91 847.54 862.83 559.68 789.08 235.10 611.51 612.14 302.30 252.27 1014.05 174.56 475.91 731.97 808.95 737.18 816.02 601.94 324.52 810.25 777.72 300.41 783.97 783.93 296.25 730.27 163.38 733.96 647.78 181.99 234.89 730.34 749.24 756.80 730.49 811.15 774.12 257.34 533.09 34.50 808.59 113.16 584.60 560.32 310.38 214.27 614.93 807.62 779.69 730.93 234.83 635.26
435.96 523.22 564.90 496.39 472.98 58.58 514.22 563.47 585.32 94.96 417.99 470.30 95.46 583.73 84.75 689.04 479.73 256.07 625.26 135.71 464.54 575.30 234.13 383.42 427.09 99.58 669.44 231.31 666.00 675.44 474.78 48.80 70.01 605.05 601.93 531.45 553.68 499.90 44.38 540.97 61.48 567.02 116.62 111.59 520.28 628.02 545.84 464.82 456.46 66.02 609.22 632.90 600.79 585.85 603.06 624.57 520.88 508.65 633.57 459.89 575.30 561.50 593.57 0.00 618.04 105.79 60.70 154.79 746.15 91.68 160.11 105.29 547.52 47.85 518.30 89.63 589.60 29.13 531.69 572.22 97.99 575.88 542.23 44.12 521.02 97.06 556.99 160.72 609.66 160.81 168.16 123.74 514.02 46.72 645.92 592.21 609.73 575.54 464.50 506.55 611.41 516.92 427.88 413.88 7.36 604.56 51.61 23.53 124.66 514.40 193.32 56.44 53.03 580.75 179.30 61.36 134.85 517.40 617.94 610.86 483.96 693.75 126.81 61.51 77.95 205.80 557.46 501.07 303.09 544.49 451.75 574.49 139.25 580.46 565.63 37.17 88.48 564.08 475.67 596.19 623.74 267.41 624.56 622.14 582.28 708.88 135.67 469.50 620.90 636.84 493.79 570.60 608.48 439.29 571.47 629.03 583.03 122.11 572.19 526.93 525.51 371.26 554.62 192.37 584.97 635.97 529.64 128.15 617.38 596.58 669.01 66.30 183.00 574.67 502.99 58.25 568.34 589.85 636.46 486.53 64.69
931.98 274.62 323.63 475.54 324.86 594.93 853.72 1013.23 1013.40 675.79 844.96 897.64 581.55 303.38 654.06 957.58 979.21 784.16 609.11 592.91 873.35 293.30 632.12 879.53 370.75 604.86 271.13 468.19 387.01 419.89 388.07 594.56 596.26 1048.77 365.87 283.05 265.24 944.25 620.71 1007.10 666.79 282.96 600.35 621.15 976.88 450.74 1015.27 194.48 881.43 552.02 1075.35 323.33 247.53 1028.27 362.85 311.27 293.62 948.83 365.68 911.95 219.48 1008.37 923.63 618.04 0.00 601.85 677.10 605.01 195.78 675.81 738.72 627.39 302.46 641.07 375.80 682.93 307.60 647.17 997.82 1001.09 658.04 264.48 300.96 613.47 950.16 603.71 271.32 744.95 373.89 723.31 677.72 622.01 1031.22 582.80 275.16 322.85 939.56 1028.33 904.13 370.09 292.74 358.78 886.59 823.22 625.40 243.21 637.48 619.66 613.83 277.16 748.33 647.32 614.46 277.57 692.75 607.64 611.76 1000.06 299.27 286.38 985.85 628.76 696.12 574.65 693.89 737.31 1015.41 964.37 897.07 262.87 249.02 125.01 708.56 219.11 1007.24 610.37 679.65 1026.92 927.00 150.42 828.05 637.87 307.08 308.54 324.72 420.15 588.02 1006.55 273.72 291.46 992.03 240.62 264.77 971.00 298.94 973.30 274.23 712.68 907.18 925.08 350.00 364.54 280.57 616.95 281.93 322.77 967.36 618.15 958.13 272.88 977.61 667.91 678.33 1046.89 919.92 575.77 116.01 228.50 412.40 949.37 584.49
456.45 485.21 534.22 390.60 479.55 72.02 524.66 556.09 672.82 152.88 436.35 490.79 68.38 537.59 131.15 723.00 558.70 306.16 528.15 52.03 494.44 546.60 266.92 470.92 433.66 81.37 563.65 138.53 648.51 657.68 481.35 69.11 62.63 625.54 583.82 534.73 503.14 524.09 81.48 607.24 141.70 546.28 85.58 174.46 551.82 582.00 590.17 456.04 486.36 49.83 670.07 541.69 534.55 609.81 578.05 538.65 527.45 529.69 630.33 466.43 543.42 588.79 637.60 105.79 601.85 0.00 160.81 130.24 686.86 153.34 238.52 80.74 530.11 121.90 506.09 163.76 532.30 115.90 597.96 606.55 167.33 498.69 511.55 88.21 573.86 46.22 480.83 201.26 595.53 216.89 219.21 108.58 583.80 59.07 578.24 567.90 656.13 589.21 484.99 473.61 505.62 485.88 506.43 419.23 103.45 563.91 112.13 105.11 107.57 498.35 244.57 139.84 90.13 496.88 186.49 94.98 39.40 580.92 512.15 528.72 546.93 612.11 207.95 49.30 178.98 258.25 620.57 537.36 382.58 447.22 414.97 481.71 185.65 554.90 626.86 93.14 162.22 584.57 525.89 500.74 600.13 232.67 569.32 541.57 551.60 682.39 124.15 539.28 566.67 558.46 563.91 492.30 544.94 483.38 538.15 669.83 521.14 181.81 619.25 523.69 508.56 372.15 532.25 166.69 517.29 573.69 553.83 165.07 642.71 501.13 702.97 142.65 174.47 627.20 509.53 68.29 536.92 545.95 625.28 507.02 61.45
496.66 583.92 595.67 518.02 533.68 89.35 524.86 606.86 646.02 114.74 478.69 521.06 152.47 641.19 101.99 717.60 525.50 222.95 655.57 195.33 503.38 631.07 294.83 444.12 487.79 129.26 724.46 292.01 701.95 732.85 525.51 106.26 117.43 616.23 615.75 578.34 598.17 534.41 105.08 601.67 69.56 624.48 173.44 106.13 546.65 688.72 549.84 525.52 495.30 125.08 627.30 680.41 661.49 586.51 636.88 677.37 567.77 519.15 668.24 479.67 599.49 578.70 609.64 60.70 677.10 160.81 0.00 201.29 771.88 52.87 122.28 151.79 604.98 63.92 568.86 38.15 645.37 89.67 592.39 559.33 70.44 624.64 573.00 104.82 532.12 138.97 617.28 199.31 644.33 205.24 162.70 184.44 467.47 107.42 700.96 629.35 610.45 593.14 474.45 565.22 644.34 573.74 481.51 444.65 68.06 665.26 108.04 84.23 179.95 574.94 155.75 57.03 100.50 638.21 237.50 120.03 178.56 522.55 650.87 667.44 466.41 739.53 93.17 112.07 33.39 172.16 603.23 543.35 333.50 605.19 482.44 622.62 139.97 641.16 611.40 97.87 96.56 571.72 495.45 639.90 664.68 297.22 675.12 679.60 613.05 739.32 196.37 510.90 678.36 694.30 525.67 586.58 643.15 499.99 628.93 639.84 627.67 88.99 573.72 514.53 586.21 428.72 601.77 214.47 645.67 693.43 537.13 181.07 618.91 640.29 697.57 67.83 224.24 605.08 522.77 108.51 617.65 650.55 697.16 518.66 99.36
576.03 548.79 558.95 520.84 500.42 140.67 590.00 649.48 738.84 213.07 507.63 564.78 95.34 554.86 199.80 768.36 611.45 310.69 658.39 78.99 554.18 585.49 327.94 538.21 454.53 72.03 634.44 165.48 670.54 669.47 502.22 157.58 156.02 715.91 625.40 517.00 479.05 623.81 127.23 681.04 201.55 587.92 215.47 183.95 635.47 608.96 621.86 410.53 546.10 135.24 744.58 637.38 588.87 698.07 604.27 634.76 527.57 647.02 683.83 531.77 567.35 680.18 702.94 154.79 605.01 130.24 201.29 0.00 659.14 186.08 263.44 49.50 572.59 193.33 568.10 229.70 599.79 167.58 671.76 670.89 147.06 522.35 542.94 165.26 615.52 84.02 534.68 292.46 617.41 273.20 200.40 192.78 615.74 134.96 646.32 567.75 708.08 679.07 604.57 511.41 613.99 566.79 547.95 468.76 147.43 618.15 191.68 155.52 202.71 513.88 264.43 164.13 118.58 605.82 281.63 171.35 116.09 612.31 620.52 623.11 592.52 734.98 231.04 139.16 216.78 248.91 676.74 590.11 430.13 534.97 355.99 496.17 237.60 601.74 684.91 162.08 224.15 656.60 593.78 533.05 694.05 326.59 677.69 610.19 581.32 733.95 176.90 601.49 641.27 654.40 607.29 521.36 579.85 515.07 560.57 725.52 588.16 204.90 710.92 582.03 546.36 469.96 514.17 66.52 593.98 661.04 644.99 217.79 669.67 577.82 748.33 205.03 242.18 701.71 564.78 145.00 551.38 596.05 682.79 608.88 119.79
1007.05 317.20 295.52 463.09 334.35 716.12 984.08 995.42 983.92 674.12 832.85 995.99 714.11 256.29 702.97 948.63 970.34 894.38 591.77 721.26 913.40 281.19 658.46 867.42 367.71 690.80 169.07 663.97 389.66 407.09 342.91 722.67 743.88 1019.16 302.07 265.71 279.04 950.01 746.00 1003.21 735.40 279.20 683.39 773.54 929.79 454.88 973.17 364.92 921.48 736.69 1060.39 311.28 247.27 995.36 301.02 291.76 273.92 974.38 360.94 947.93 172.39 1022.39 953.99 746.15 195.78 686.86 771.88 659.14 0.00 775.67 845.54 679.70 263.54 742.77 341.28 784.63 295.49 717.02 993.93 1018.18 736.65 217.39 292.01 703.57 1002.21 714.22 206.03 794.67 338.32 749.27 830.11 660.39 1035.90 745.93 245.83 298.33 974.67 1005.09 1012.39 350.39 295.09 352.27 869.25 805.88 747.92 262.13 735.50 736.03 703.66 257.76 822.39 778.20 737.35 265.10 727.05 729.34 710.23 980.82 301.62 277.88 990.99 624.87 804.40 731.76 738.49 781.59 1038.25 990.60 915.27 239.64 415.65 320.79 731.68 269.53 1042.21 720.23 762.40 986.61 970.70 278.74 870.63 637.56 332.47 311.68 286.95 424.90 694.38 1016.54 287.87 286.72 1004.43 236.73 217.68 948.19 251.85 1090.40 240.84 814.78 1069.94 949.05 360.02 450.09 269.41 592.62 247.87 318.03 920.27 760.99 922.45 248.50 968.66 746.54 705.31 1039.61 984.93 735.28 292.39 260.14 403.70 974.59 748.31
512.92 563.31 581.74 543.94 546.19 119.20 500.18 588.43 677.00 138.77 499.15 531.55 101.51 628.38 109.92 731.72 535.46 183.72 681.49 177.20 497.71 623.57 311.09 475.10 506.43 124.82 716.99 291.70 710.05 727.47 520.26 125.07 136.59 609.24 622.46 525.47 563.42 544.37 79.32 583.71 79.52 626.12 185.07 67.30 559.39 688.03 496.97 530.00 489.63 123.79 630.12 663.97 675.95 573.18 628.65 672.84 514.90 541.96 681.12 441.95 606.20 587.97 613.12 91.68 675.81 153.34 52.87 186.08 775.67 0.00 115.60 136.58 619.80 85.24 580.48 91.02 637.87 110.99 592.99 546.00 39.02 609.43 565.50 128.67 540.65 123.67 598.60 197.47 657.21 213.17 123.87 206.26 520.34 94.27 692.49 605.21 612.06 583.19 497.26 551.06 648.20 585.37 504.32 474.50 84.32 677.29 111.76 102.87 184.81 584.68 156.39 38.16 87.97 650.22 263.73 127.51 190.40 536.79 654.73 669.96 505.87 765.45 73.00 123.69 40.10 127.04 613.19 554.64 343.46 600.56 489.15 629.33 164.42 662.98 621.36 123.99 106.52 531.71 518.59 649.58 683.19 315.73 686.74 683.72 591.88 749.28 210.62 548.84 682.98 692.65 549.02 567.90 651.49 523.84 598.77 662.65 635.35 99.14 596.53 520.50 586.01 447.53 573.20 183.05 659.22 706.97 549.87 188.56 641.72 643.06 720.38 90.64 231.32 587.25 485.05 100.04 610.13 672.37 684.01 528.62 112.24
556.45 661.94 695.71 629.12 611.70 189.39 534.61 647.67 716.80 237.02 546.76 565.98 215.01 725.69 211.65 779.33 542.33 106.02 766.67 259.27 532.14 720.27 368.83 543.53 578.24 195.29 754.39 357.21 777.00 814.66 625.93 193.77 210.19 691.29 689.41 641.07 664.20 591.98 181.26 661.23 179.22 711.99 250.58 117.57 582.88 758.50 612.57 600.19 524.06 193.98 705.52 764.05 748.03 648.45 710.54 761.01 630.50 610.72 764.32 476.38 673.15 641.27 647.55 160.11 738.72 238.52 122.28 263.44 845.54 115.60 0.00 213.94 692.49 150.86 650.67 150.54 734.57 176.61 651.95 640.32 116.38 686.79 673.04 204.23 585.10 198.01 690.94 197.33 725.66 291.69 126.90 273.58 589.75 195.07 762.68 718.71 697.98 621.31 574.70 625.40 727.98 650.88 581.76 544.69 167.47 754.40 194.98 183.64 257.73 661.88 89.86 103.67 189.91 725.72 332.71 220.07 257.14 589.71 734.51 751.08 571.94 841.62 42.60 193.88 107.05 121.59 620.06 563.67 391.07 685.74 556.10 696.28 227.50 730.30 628.23 197.28 154.13 637.78 557.48 718.48 741.06 403.08 756.93 763.93 707.48 848.98 283.54 616.43 765.87 780.82 589.15 660.24 718.44 530.82 714.37 699.08 729.15 62.42 673.97 576.64 660.35 516.23 678.61 260.41 733.56 780.94 592.40 271.78 682.05 717.40 760.71 168.08 331.63 662.65 519.48 170.23 680.32 739.69 784.81 576.55 195.44
526.53 515.13 516.11 471.34 519.91 91.17 540.50 604.28 689.34 163.57 458.13 523.73 45.84 511.75 150.30 718.86 570.30 261.19 608.89 45.33 504.68 535.99 311.34 488.71 474.02 22.53 584.94 170.05 628.92 622.98 521.71 108.08 110.82 674.86 579.17 524.77 491.44 575.31 77.73 631.54 152.05 538.42 166.32 134.45 593.08 575.30 617.72 460.03 496.60 85.74 695.08 587.88 539.37 657.44 558.25 585.26 522.97 597.52 634.33 482.27 517.85 636.98 653.44 105.29 627.39 80.74 151.79 49.50 679.70 136.58 213.94 0.00 535.02 143.83 518.60 180.20 550.29 118.08 622.26 635.94 97.56 472.85 493.44 115.76 566.02 34.52 485.18 246.10 567.91 243.30 191.02 150.98 596.51 85.46 613.13 518.25 658.58 629.57 555.07 461.91 564.49 517.29 498.45 419.26 97.93 568.65 142.18 106.02 167.34 536.91 214.93 114.63 69.08 568.25 238.51 121.85 74.29 562.81 571.02 573.61 543.02 692.85 181.54 89.66 167.28 199.41 648.03 571.01 380.63 518.79 405.49 513.23 188.10 555.94 656.20 112.58 174.65 611.98 544.28 535.63 644.55 277.09 628.19 566.64 531.82 696.38 184.97 551.99 591.77 604.90 582.74 504.62 530.35 510.93 511.07 706.42 545.05 155.40 661.42 540.98 496.86 420.46 464.67 87.08 552.18 620.27 602.60 168.29 620.17 536.02 698.83 155.53 192.68 652.21 525.37 102.61 568.44 546.55 633.29 573.51 78.74
774.59 93.14 88.28 242.82 143.38 515.63 752.75 837.82 776.95 596.49 579.44 749.45 548.39 36.21 574.76 731.87 791.57 753.84 369.27 527.23 679.23 27.78 487.96 614.01 189.27 557.55 187.20 460.78 158.29 179.19 181.60 498.72 519.93 900.15 90.68 94.33 112.02 808.48 574.57 857.49 571.31 19.50 508.33 652.67 831.15 246.79 867.08 242.19 671.15 541.26 916.01 85.38 103.98 850.98 71.26 77.05 104.90 828.86 131.75 694.52 91.15 836.11 736.87 547.52 302.46 530.11 604.98 572.59 263.54 619.80 692.49 535.02 0.00 579.39 185.98 604.57 42.08 553.64 848.21 823.80 615.78 75.11 75.25 517.82 748.80 569.54 105.88 662.43 103.02 606.99 660.93 485.33 885.86 535.26 123.57 44.69 714.97 856.07 796.06 153.74 63.90 152.31 649.52 588.16 553.27 101.56 553.32 534.72 518.70 144.12 674.18 595.30 566.92 33.23 510.53 527.70 562.02 860.04 70.43 63.34 796.85 413.46 674.33 538.35 625.47 713.52 833.81 792.59 695.00 99.72 216.60 263.23 629.26 83.35 841.98 522.75 591.83 841.00 775.62 344.93 646.57 522.21 127.60 74.62 59.05 161.36 519.32 841.34 73.38 89.32 863.95 91.01 91.24 792.89 23.95 875.56 41.27 668.02 849.86 784.45 165.72 270.94 70.35 524.55 125.78 88.45 826.42 576.20 702.37 130.87 751.90 572.26 544.89 881.10 725.23 523.75 302.67 82.15 168.40 798.37 548.96
474.04 529.10 578.11 512.50 478.86 74.09 495.91 558.01 633.17 91.58 459.05 492.11 131.02 615.60 74.28 678.91 495.36 236.02 650.05 159.30 457.31 607.17 281.98 431.27 453.93 133.86 685.55 254.52 673.92 674.06 501.62 80.67 79.02 605.61 628.41 556.13 562.69 504.27 79.06 578.11 43.20 598.89 144.76 131.56 524.43 656.64 542.46 477.30 449.23 89.05 617.81 663.59 634.27 556.44 607.28 656.44 547.72 460.80 660.06 456.51 598.51 577.46 545.72 47.85 641.07 121.90 63.92 193.33 742.77 85.24 150.86 143.83 579.39 0.00 530.81 41.86 621.47 25.75 568.83 529.26 94.67 588.39 555.44 67.33 513.53 124.59 562.75 138.22 612.91 177.53 167.64 160.55 529.32 73.21 665.69 602.44 583.74 566.45 445.50 530.19 627.52 545.06 452.56 429.39 55.21 641.37 44.12 50.37 117.17 511.02 145.47 53.12 87.71 612.62 196.09 93.10 139.12 512.03 634.05 642.73 469.55 692.37 128.20 74.02 97.31 186.27 573.09 514.40 303.36 562.15 473.14 597.70 113.26 617.27 581.26 65.79 66.42 561.20 472.29 600.46 632.33 274.06 637.07 654.01 595.49 712.96 134.29 496.34 652.77 668.71 490.41 576.48 634.97 462.50 603.34 610.89 606.24 102.06 544.77 535.46 539.64 403.13 577.83 199.18 617.01 667.84 514.91 120.92 580.22 600.85 658.88 38.88 194.45 574.94 499.61 73.24 583.33 626.66 662.95 490.74 91.18
714.61 130.59 97.70 139.02 105.10 479.51 724.19 805.16 760.68 560.37 584.51 680.27 506.24 173.56 538.64 697.02 768.34 715.56 276.57 549.67 684.30 169.43 449.68 619.08 125.63 519.23 305.46 511.50 181.53 163.99 138.11 496.42 478.40 810.60 99.96 92.75 130.70 739.30 534.39 765.98 551.37 166.48 464.09 604.05 763.37 149.18 713.70 278.40 676.22 479.42 846.85 179.98 229.27 789.91 121.09 199.50 82.18 742.33 217.36 687.27 168.89 790.80 735.67 518.30 375.80 506.09 568.86 568.10 341.28 580.48 650.67 518.60 185.98 530.81 0.00 572.67 158.23 531.67 775.26 762.73 593.54 193.37 120.37 504.10 753.87 484.08 165.88 616.80 136.21 560.14 622.00 487.09 707.58 497.74 300.05 150.85 653.38 799.92 711.33 56.69 178.16 63.79 654.59 565.64 510.94 235.99 519.62 513.43 500.61 151.96 671.88 551.99 529.40 168.97 469.77 501.88 538.74 713.36 174.37 199.41 687.59 360.53 645.11 456.79 596.25 669.07 822.45 747.00 591.20 180.26 294.69 324.68 593.14 227.43 814.28 500.92 572.63 748.44 701.40 389.10 564.03 464.34 231.30 204.08 159.16 238.04 496.26 717.29 238.76 211.85 699.13 135.18 214.18 606.91 166.05 856.28 193.23 619.67 829.46 742.31 75.97 246.98 140.48 543.23 244.37 222.98 758.31 558.11 701.17 251.55 676.99 558.54 473.86 803.98 726.77 480.44 371.92 218.04 152.95 733.57 496.41
483.64 570.96 610.57 479.87 520.72 104.25 505.51 571.64 636.71 120.90 469.38 501.71 142.81 640.78 92.05 698.25 506.74 234.30 617.42 169.82 479.26 632.35 309.04 434.81 493.20 166.12 727.41 286.69 663.80 707.11 540.89 105.85 120.88 578.08 640.93 597.56 604.55 515.65 119.29 565.37 59.62 624.07 182.02 131.31 508.50 673.69 551.88 519.16 475.95 130.91 589.15 689.95 676.13 548.36 649.14 681.62 586.99 485.71 692.34 485.83 624.67 540.55 587.58 89.63 682.93 163.76 38.15 229.70 784.63 91.02 150.54 180.20 604.57 41.86 572.67 0.00 646.65 67.61 570.36 521.18 108.59 630.25 587.90 99.50 493.97 164.97 604.61 161.16 654.77 169.39 187.88 195.89 505.62 105.49 707.55 644.25 572.30 558.37 455.10 559.70 659.24 582.32 462.16 459.55 82.27 676.71 85.98 92.23 159.03 552.88 175.07 94.98 127.94 637.80 237.95 114.51 180.98 496.76 665.77 667.91 428.26 701.38 107.94 115.88 58.57 168.82 584.47 524.00 314.74 604.01 507.62 629.87 101.82 652.61 592.64 82.84 77.80 545.93 496.79 642.32 670.84 303.38 678.93 679.19 627.95 729.38 176.15 472.75 677.95 693.89 503.91 611.76 667.25 494.67 628.52 620.49 638.41 100.34 554.37 552.68 581.50 428.31 610.00 241.04 658.87 693.02 498.98 162.78 599.56 642.71 678.22 48.48 228.67 578.48 528.93 115.10 625.19 656.33 693.34 500.34 123.46
761.11 98.71 95.04 229.34 148.95 556.02 739.27 824.34 802.43 636.88 565.96 735.97 564.25 65.87 615.15 728.99 778.09 759.41 345.50 568.51 665.75 14.30 493.53 600.53 194.84 572.82 170.60 502.86 116.21 159.52 195.75 540.80 562.01 886.67 58.27 129.49 138.72 795.00 612.00 827.40 613.39 30.44 540.60 684.74 817.67 209.57 853.60 271.85 657.67 575.66 895.65 49.24 110.62 837.50 79.40 53.53 122.97 815.38 147.14 681.04 123.38 822.63 766.53 589.60 307.60 532.30 645.37 599.79 295.49 637.87 734.57 550.29 42.08 621.47 158.23 646.65 0.00 595.72 818.12 810.32 647.85 104.77 72.37 559.90 735.32 556.65 133.46 689.12 94.32 636.65 691.21 519.17 865.81 577.34 165.65 60.55 725.91 842.59 782.58 160.62 26.68 140.30 636.04 579.46 595.35 103.22 595.40 576.80 552.54 172.40 716.26 637.38 607.20 56.88 548.64 569.78 571.70 851.87 33.21 44.83 783.37 376.24 706.54 578.74 640.63 726.65 820.33 779.11 681.52 141.80 258.68 274.17 645.74 88.49 828.50 564.83 623.83 838.12 762.14 356.68 651.47 495.50 90.38 45.85 63.08 203.44 548.12 827.86 80.67 72.92 857.36 102.76 104.90 765.14 57.79 881.11 54.93 692.24 858.16 770.97 154.16 286.21 85.62 551.25 132.53 92.24 812.94 600.41 732.03 132.63 749.02 614.34 502.81 867.62 720.89 565.83 307.83 79.10 145.75 794.03 591.04
465.09 537.98 567.77 506.50 487.74 61.45 488.99 546.73 614.45 65.83 447.12 488.50 108.36 589.85 66.81 688.63 492.37 261.77 644.05 150.47 446.86 581.42 263.26 412.55 441.85 111.60 679.55 228.77 648.17 672.30 489.54 54.92 53.27 613.28 616.69 544.48 536.94 501.28 56.40 570.10 65.76 573.14 125.22 140.72 523.51 630.89 516.71 462.28 438.78 95.15 614.82 639.02 623.11 582.19 596.83 630.69 534.66 486.55 651.28 430.76 572.76 569.58 571.47 29.13 647.17 115.90 89.67 167.58 717.02 110.99 176.61 118.08 553.64 25.75 531.67 67.61 595.72 0.00 560.82 555.01 120.42 580.05 545.10 41.58 503.08 111.75 537.00 142.78 587.16 170.06 193.39 137.97 503.57 64.43 668.30 598.33 591.79 580.96 467.06 504.44 616.44 525.52 457.01 416.75 36.49 618.79 33.67 38.29 106.72 485.27 171.22 78.87 65.05 586.87 185.64 67.35 131.66 488.27 622.97 616.98 481.24 690.61 153.95 74.88 107.08 209.02 570.10 503.98 300.37 536.40 447.39 571.95 121.31 594.69 578.27 40.04 63.43 537.44 446.54 593.00 615.77 248.31 637.93 628.26 585.15 715.00 132.53 484.26 627.02 642.96 464.66 567.70 611.91 436.75 577.59 632.45 580.49 127.81 566.33 531.02 529.19 377.38 552.08 173.43 609.55 642.09 517.60 110.47 605.97 593.39 684.63 60.44 171.65 571.95 473.86 75.85 585.94 604.08 652.54 478.71 82.40
170.36 828.90 829.42 727.37 795.53 563.41 162.16 41.87 212.64 533.99 288.47 161.75 612.43 853.29 525.81 269.98 109.62 754.02 678.12 649.82 234.45 832.42 483.26 319.99 777.88 616.55 927.48 679.61 807.27 775.78 806.29 556.54 535.33 77.40 844.17 799.63 799.51 102.72 561.35 9.28 558.24 845.97 541.23 643.28 107.50 741.48 96.02 852.49 228.38 579.57 77.53 814.45 868.99 69.92 862.33 814.86 795.04 108.03 854.58 215.34 850.49 29.81 260.72 531.69 997.82 597.96 592.39 671.76 993.93 592.99 651.95 622.26 848.21 568.83 775.26 570.36 818.12 560.82 0.00 57.22 629.68 815.39 806.82 551.24 119.11 612.08 787.90 499.02 821.63 422.56 699.85 564.23 161.57 577.65 922.07 850.73 308.82 43.85 152.73 718.57 791.44 773.95 247.44 336.49 524.33 869.95 558.95 542.88 541.54 825.18 713.81 588.13 570.00 858.45 523.36 567.68 613.72 108.39 784.91 809.95 142.10 654.01 622.56 556.94 603.60 701.55 52.35 119.88 301.62 802.28 797.95 938.13 542.50 865.07 59.78 564.00 538.56 92.18 153.28 1011.12 302.36 490.71 842.08 827.39 846.87 807.25 533.09 159.94 851.51 834.67 132.00 757.20 862.81 202.81 843.55 97.34 834.19 639.08 147.92 115.08 753.52 750.84 797.15 701.18 904.05 846.45 117.02 511.87 270.53 900.25 249.95 559.35 533.63 75.17 173.48 575.22 933.51 855.68 777.73 135.37 577.32
161.35 794.08 823.38 724.82 789.36 572.00 147.37 50.46 269.86 502.81 244.36 143.48 590.10 860.01 530.77 235.00 133.30 729.72 640.72 658.41 195.35 796.02 510.59 278.93 763.13 613.41 980.92 698.00 754.79 779.61 787.97 565.13 543.92 76.35 829.38 845.57 853.71 123.84 593.99 66.50 519.27 812.16 532.22 611.47 92.75 697.37 49.03 873.61 187.27 588.16 92.21 859.56 898.63 27.18 850.51 845.29 835.35 135.36 853.04 163.94 845.79 48.20 303.77 572.22 1001.09 606.55 559.33 670.89 1018.18 546.00 640.32 635.94 823.80 529.26 762.73 521.18 810.32 555.01 57.22 0.00 585.02 872.61 800.71 550.99 139.48 612.26 845.12 471.19 815.80 479.78 668.04 542.71 139.21 582.93 947.37 842.27 351.87 37.19 132.81 775.79 837.00 765.08 246.00 334.30 567.24 888.29 563.74 548.69 518.68 835.04 674.73 582.38 585.34 847.26 474.18 564.57 619.40 84.13 842.13 844.48 92.92 639.26 615.90 565.53 579.75 673.04 94.50 138.27 273.79 859.50 819.07 959.25 524.17 870.21 99.66 567.65 510.73 34.96 122.10 1059.56 310.95 489.85 834.72 856.17 840.76 851.85 508.72 102.72 886.04 865.10 96.92 814.42 886.62 155.82 839.51 140.39 836.65 621.52 156.51 142.45 756.99 763.18 829.48 709.77 914.25 876.87 97.91 506.08 281.76 903.09 255.03 530.41 504.99 57.30 120.84 583.22 937.02 860.82 784.33 112.51 588.47
533.95 599.82 613.67 557.93 549.58 132.26 539.20 624.53 683.31 132.41 515.98 501.94 140.53 609.31 148.94 755.73 564.22 163.63 695.48 142.89 536.73 633.55 332.12 481.41 521.11 120.09 682.50 267.61 711.86 720.54 559.28 117.06 132.67 648.26 661.48 564.49 556.56 560.97 94.74 622.73 117.10 635.28 188.46 36.89 585.04 672.86 535.99 532.27 528.65 136.85 669.14 685.44 636.93 612.20 655.81 682.82 553.92 555.47 674.76 480.97 615.41 626.99 640.39 97.99 658.04 167.33 70.44 147.06 736.65 39.02 116.38 97.56 615.78 94.67 593.54 108.59 647.85 120.42 629.68 585.02 0.00 570.41 591.00 111.57 579.67 132.08 581.82 225.50 650.85 240.25 93.46 199.90 537.91 123.85 705.55 615.81 649.73 622.21 512.58 559.47 662.05 588.76 519.64 487.56 105.35 666.21 138.79 118.85 200.60 605.69 117.37 41.55 97.11 649.01 277.29 137.34 171.85 575.05 668.58 671.17 536.85 773.75 111.86 136.75 79.12 153.05 641.95 568.67 372.22 612.48 503.05 610.79 179.25 653.50 650.12 128.23 135.28 570.73 513.12 610.56 682.35 314.89 699.80 664.20 629.38 777.14 215.67 551.56 689.16 702.46 551.44 598.87 627.91 506.74 608.63 677.97 642.61 103.25 611.85 523.89 594.42 439.52 562.23 144.03 649.74 704.23 584.18 215.59 657.04 633.58 735.70 105.96 251.64 626.27 524.07 113.10 623.19 644.11 713.59 545.29 105.88
839.54 123.88 114.76 274.92 155.81 537.09 818.52 857.26 779.64 617.95 654.55 805.20 518.69 38.90 596.22 754.16 842.95 734.04 412.47 503.87 722.61 102.89 495.73 689.12 164.04 495.38 112.09 463.49 220.98 223.75 197.44 554.00 535.98 887.90 150.29 100.62 100.35 822.62 550.58 824.67 608.95 94.61 495.22 607.30 802.40 286.24 845.78 167.08 730.69 537.00 892.92 154.01 66.52 867.97 132.75 152.16 111.19 846.99 206.86 769.63 45.00 845.20 739.56 575.88 264.48 498.69 624.64 522.35 217.39 609.43 686.79 472.85 75.11 588.39 193.37 630.25 104.77 580.05 815.39 872.61 570.41 0.00 97.54 561.68 823.91 507.37 43.05 651.60 177.94 531.88 643.74 472.22 900.95 555.32 152.32 92.75 788.82 859.24 849.41 174.49 131.45 155.00 704.16 630.28 568.52 95.80 577.20 567.60 532.02 94.78 687.78 587.48 541.93 96.46 563.57 560.22 538.09 853.43 137.98 125.44 863.60 446.33 654.39 514.37 611.10 672.26 859.56 844.80 727.10 51.47 221.62 221.16 618.60 83.09 867.73 558.50 630.21 859.22 807.72 284.20 677.31 529.98 195.15 147.19 86.00 236.47 506.21 889.15 118.92 164.43 877.04 58.19 57.50 800.28 68.51 878.25 72.20 628.25 852.55 843.99 172.49 287.11 95.04 512.88 98.74 163.56 792.88 589.52 705.06 99.94 774.19 616.12 537.63 890.56 797.12 538.02 227.56 73.70 243.32 839.89 551.59
742.00 26.34 22.67 229.81 76.58 483.65 720.98 833.93 760.34 564.51 609.73 707.66 537.80 84.91 542.78 656.62 770.24 687.04 367.36 496.14 625.07 58.07 421.16 634.84 122.47 515.97 209.63 448.93 173.32 187.08 123.38 500.56 511.73 858.79 85.73 61.17 66.35 766.69 543.48 797.54 555.51 74.21 510.80 627.89 790.76 240.12 800.49 214.05 633.15 503.29 867.90 121.61 129.27 827.89 76.11 107.34 50.60 796.39 140.89 680.83 119.62 822.36 736.97 542.23 300.96 511.55 573.00 542.94 292.01 565.50 673.04 493.44 75.25 555.44 120.37 587.90 72.37 545.10 806.82 800.71 591.00 97.54 0.00 508.24 744.91 515.64 99.42 644.74 121.98 595.69 618.84 527.09 827.95 515.71 190.18 56.35 691.28 837.90 752.03 88.25 99.05 110.50 664.71 595.71 544.58 132.31 535.63 526.03 497.45 117.30 676.02 574.36 534.83 90.71 492.40 514.33 533.70 805.74 104.55 106.53 801.89 448.61 638.50 506.37 605.60 667.85 800.48 769.17 681.99 113.80 225.63 293.10 597.28 108.21 792.31 505.06 582.51 765.75 749.62 322.64 579.77 455.41 161.72 118.22 40.05 236.61 493.10 808.49 147.27 127.15 819.50 68.72 140.51 727.28 66.87 817.55 90.54 643.13 817.48 746.45 101.72 218.46 28.77 478.88 166.93 149.73 796.43 554.95 742.73 161.98 676.65 562.68 505.42 850.99 699.58 502.81 288.05 113.50 187.36 772.72 528.02
429.12 523.09 530.91 478.81 472.85 24.59 502.34 533.77 596.00 83.27 428.67 463.46 102.07 554.03 66.52 683.49 512.70 275.20 616.36 131.70 444.03 545.60 242.64 394.10 426.96 99.98 651.86 187.19 633.33 647.35 474.65 19.10 40.31 598.21 593.97 503.65 523.98 479.39 79.48 560.52 65.58 537.32 83.64 148.46 514.65 607.51 501.96 420.70 435.95 61.45 628.77 603.20 581.53 578.17 576.11 594.87 493.08 490.92 637.84 444.11 531.18 566.47 611.07 44.12 613.47 88.21 104.82 165.26 703.57 128.67 204.23 115.76 517.82 67.33 504.10 99.50 559.90 41.58 551.24 550.99 111.57 561.68 508.24 0.00 506.34 100.00 550.75 146.04 593.59 128.68 160.08 96.39 495.84 51.61 633.68 562.51 591.50 568.00 457.66 470.96 579.58 483.94 434.29 379.89 44.35 577.21 36.93 32.46 109.98 526.85 194.56 100.56 77.56 551.05 177.41 25.77 118.70 501.62 586.11 581.16 475.85 665.66 170.93 47.31 122.07 219.67 538.54 495.12 320.70 517.14 422.05 530.37 121.02 553.11 546.71 16.66 83.76 536.70 437.68 580.04 591.94 224.48 610.36 592.44 548.29 679.18 107.58 478.43 591.20 607.14 487.39 546.08 576.47 395.17 541.77 625.90 538.91 159.10 560.33 525.50 505.91 341.56 510.50 198.33 596.59 606.27 508.74 107.64 584.80 580.43 663.46 54.44 140.07 592.24 487.21 43.75 553.84 562.50 641.35 469.85 68.96
117.41 718.57 767.58 665.72 768.81 521.39 96.44 89.02 248.90 481.94 169.36 110.52 566.80 785.01 502.55 271.52 42.77 691.12 612.40 611.35 119.84 721.02 448.87 203.93 752.73 543.49 905.92 651.90 755.81 723.27 711.43 524.01 522.71 177.95 760.49 770.06 808.01 84.38 550.68 109.83 498.71 737.16 488.28 573.29 82.35 622.37 139.15 834.15 127.92 554.87 188.78 784.56 823.63 142.74 781.62 770.29 766.98 126.18 802.07 118.91 830.10 121.72 230.37 521.02 950.16 573.86 532.12 615.52 1002.21 540.65 585.10 566.02 748.80 513.53 753.87 493.97 735.32 503.08 119.11 139.48 579.67 823.91 744.91 506.34 0.00 574.09 843.19 432.17 724.24 469.35 629.86 490.99 162.25 534.93 872.37 767.27 319.57 123.25 112.69 742.89 762.00 690.08 170.49 239.10 513.66 813.29 469.41 529.59 482.81 814.17 651.57 549.97 546.32 772.26 492.81 520.49 567.68 136.98 768.53 769.48 158.29 628.86 566.46 532.24 500.55 645.45 91.64 43.79 234.77 812.92 779.61 919.58 495.16 795.21 99.81 499.98 471.71 132.50 101.23 1011.56 331.05 414.62 825.70 781.17 784.96 811.36 457.00 169.10 811.04 790.10 138.97 812.49 811.62 183.88 764.51 145.79 761.65 576.84 123.83 67.63 748.42 687.95 773.68 641.84 839.25 812.68 91.87 456.23 262.11 828.09 251.49 501.03 467.51 160.13 83.36 540.55 886.06 785.82 726.27 85.91 529.87
502.67 531.43 538.31 436.82 485.39 77.86 533.13 570.21 671.07 158.49 474.99 489.21 22.16 546.27 136.99 695.18 557.83 269.55 574.37 79.85 500.28 570.51 309.67 480.48 439.50 35.15 609.87 184.75 650.20 648.07 487.19 80.90 76.75 640.34 584.04 514.43 504.06 548.24 55.35 616.01 132.15 572.94 131.80 156.81 559.90 598.36 601.96 482.90 492.20 76.69 674.64 566.04 552.81 622.92 565.86 563.00 503.86 572.33 613.10 480.55 552.37 602.91 630.99 97.06 603.71 46.22 138.97 84.02 714.22 123.67 198.01 34.52 569.54 124.59 484.08 164.97 556.65 111.75 612.08 612.26 132.08 507.37 515.64 100.00 574.09 0.00 519.70 216.89 589.19 228.68 191.60 138.24 586.92 62.19 596.25 525.86 653.50 595.05 527.63 427.39 529.97 482.77 463.93 431.88 89.70 582.17 117.97 97.99 132.82 544.57 210.32 125.16 64.00 543.10 211.74 99.09 71.73 539.13 536.50 553.07 519.34 658.33 161.73 55.14 132.76 212.03 623.12 536.49 375.55 493.44 440.01 527.93 183.02 573.16 631.29 97.14 140.13 588.30 531.17 533.07 646.35 278.89 593.67 565.92 549.13 706.74 158.63 542.40 594.63 582.81 562.74 538.52 564.87 495.17 545.59 671.90 567.36 135.59 626.90 506.46 462.34 389.79 499.19 121.60 535.55 598.04 569.42 188.12 596.49 519.39 675.15 121.01 215.73 641.32 514.17 69.43 579.52 572.92 621.74 538.99 44.22
834.90 124.62 122.09 257.06 128.32 552.85 819.26 829.77 810.41 602.83 685.32 805.94 531.02 69.67 603.81 756.04 843.45 738.78 394.61 530.51 723.35 133.66 468.24 719.89 169.34 507.71 151.86 464.27 234.90 228.96 195.84 544.47 543.46 860.41 181.06 73.13 73.01 829.49 562.31 797.18 602.76 125.38 477.36 618.71 819.99 273.22 863.37 210.13 731.43 530.66 865.43 175.37 104.50 857.82 162.38 182.93 83.70 817.91 237.63 779.11 62.59 817.71 770.33 556.99 271.32 480.83 617.28 534.68 206.03 598.60 690.94 485.18 105.88 562.75 165.88 604.61 133.46 537.00 787.90 845.12 581.82 43.05 99.42 550.75 843.19 519.70 0.00 663.73 173.89 574.93 625.88 454.36 873.46 539.90 134.17 124.23 771.42 831.75 806.36 151.20 160.14 178.50 676.67 613.30 564.35 126.08 570.67 568.14 514.16 51.73 699.19 599.81 554.26 124.98 536.08 542.36 520.23 838.84 160.83 156.21 853.47 418.84 649.80 530.13 583.89 674.51 832.22 822.11 709.24 33.61 209.62 264.21 600.74 101.98 840.39 567.41 600.43 865.17 764.67 284.62 678.05 502.49 214.25 145.77 116.77 267.24 488.35 883.17 156.59 191.45 861.11 30.70 74.91 772.79 99.28 885.24 100.72 640.58 883.32 834.71 168.39 244.06 70.65 485.54 116.15 175.08 810.47 571.66 735.83 124.23 776.07 597.44 562.54 863.07 797.86 549.12 270.61 111.37 215.79 796.84 542.28
424.96 636.18 652.50 540.84 602.19 161.09 434.54 471.69 587.04 120.55 353.09 390.62 224.59 690.50 117.49 639.74 389.40 303.35 661.07 253.29 432.59 690.21 324.58 385.14 556.30 228.56 763.69 333.23 718.44 729.12 603.99 163.71 184.92 510.31 630.85 598.48 636.43 398.31 190.38 491.75 149.92 681.93 209.75 249.39 429.95 658.72 467.81 566.74 424.51 192.93 511.85 710.87 650.96 495.52 609.72 726.50 609.05 435.72 741.55 464.92 666.66 490.56 599.95 160.72 744.95 201.26 199.31 292.46 794.67 197.47 197.33 246.10 662.43 138.22 616.80 161.16 689.12 142.78 499.02 471.19 225.50 651.60 644.74 146.04 432.17 216.89 663.73 0.00 667.10 119.72 298.47 209.37 467.28 174.63 716.19 649.72 533.47 493.84 437.23 605.38 696.74 610.05 423.17 489.11 153.36 683.10 109.11 169.29 182.16 628.05 283.69 183.95 182.01 695.60 170.12 160.19 240.66 439.37 696.64 688.41 378.27 747.43 239.93 171.94 205.21 318.92 467.13 410.74 197.40 630.12 566.66 676.41 62.99 666.09 475.30 139.68 136.36 440.45 432.58 702.00 558.84 290.33 725.13 699.01 664.89 770.79 189.35 422.76 720.70 740.35 415.76 640.91 621.37 405.47 670.75 546.15 671.34 240.28 531.26 443.53 604.63 486.17 656.54 316.21 662.61 738.00 428.05 181.31 610.96 670.69 619.71 149.63 205.92 468.98 437.12 169.18 679.27 675.48 727.22 412.41 172.67
738.44 136.25 144.65 262.32 186.49 589.34 718.26 813.26 794.21 652.99 621.16 704.10 598.08 139.04 643.73 770.07 735.36 796.95 337.21 601.89 679.02 108.62 531.07 592.31 211.09 590.44 245.72 563.80 61.01 101.73 243.88 595.21 598.25 840.00 36.25 158.35 163.33 760.90 603.25 830.91 652.92 102.98 509.95 687.74 773.05 203.33 770.41 311.03 670.94 577.44 892.72 102.98 181.16 838.62 57.38 83.46 149.06 755.70 81.15 661.32 194.17 818.86 748.81 609.66 373.89 595.53 644.33 617.41 338.32 657.21 725.66 567.91 103.02 612.91 136.21 654.77 94.32 587.16 821.63 815.80 650.85 177.94 121.98 593.59 724.24 589.19 173.89 667.10 0.00 643.49 707.46 532.95 843.79 562.94 226.59 97.38 776.68 838.82 711.00 192.90 98.59 139.43 643.92 485.14 616.68 145.87 610.59 609.31 547.49 217.56 758.38 636.76 594.60 136.25 587.06 600.21 591.79 806.93 105.12 121.55 797.02 370.64 684.52 584.59 618.61 763.51 790.76 747.86 714.50 188.27 319.62 313.89 679.33 154.78 798.93 597.89 650.59 805.15 736.17 397.11 687.33 565.32 140.94 130.80 91.94 150.47 548.52 813.42 129.98 103.27 793.83 143.19 186.47 743.12 126.97 870.03 142.43 694.90 848.07 706.55 169.24 303.83 103.24 575.86 192.49 125.85 782.57 604.99 761.81 198.92 750.04 647.60 566.83 860.69 704.42 570.18 369.10 145.39 65.38 728.25 544.97
469.64 571.31 595.63 421.12 566.15 153.27 435.09 464.43 467.32 113.79 299.99 435.30 223.38 570.78 103.25 571.04 449.72 394.08 558.67 249.46 352.71 634.77 221.57 265.42 525.74 220.77 643.97 300.62 682.37 680.92 545.07 147.78 168.99 499.96 617.36 568.20 606.15 448.07 192.85 431.84 135.68 626.49 152.08 222.46 409.17 635.59 471.59 528.83 347.26 190.13 500.09 679.63 583.56 474.74 596.23 674.64 578.77 472.80 724.64 394.94 576.88 452.37 482.39 160.81 723.31 216.89 205.24 273.20 749.27 213.17 291.69 243.30 606.99 177.53 560.14 169.39 636.65 170.06 422.56 479.78 240.25 531.88 595.69 128.68 469.35 228.68 574.93 119.72 643.49 0.00 279.03 175.08 498.71 180.29 648.79 624.63 499.24 466.41 462.08 507.44 659.65 504.06 305.61 372.59 155.83 615.70 136.39 137.28 162.66 626.66 323.00 206.56 201.50 628.20 105.25 146.45 199.93 443.63 661.59 636.55 486.51 642.63 249.09 175.99 227.96 328.08 448.12 452.31 313.22 583.35 550.73 643.80 119.94 611.98 456.29 145.34 140.07 478.89 476.04 661.27 505.74 231.47 693.31 670.35 617.88 757.30 155.11 495.92 650.80 682.95 467.24 572.79 553.97 508.66 600.39 519.90 603.94 260.12 545.12 460.56 542.39 470.24 611.91 318.61 595.21 686.14 418.69 105.16 516.89 603.29 551.01 144.04 151.08 497.73 413.69 172.43 679.20 605.58 701.79 453.97 197.64
589.20 592.50 641.51 609.81 542.26 184.67 620.85 684.98 746.35 225.87 579.02 595.40 169.44 676.50 199.77 758.05 617.47 172.38 747.36 180.58 604.11 676.91 402.13 544.45 496.37 192.75 746.47 305.30 758.80 784.22 544.06 179.18 191.52 726.19 671.21 566.60 604.55 626.38 179.71 693.84 167.34 674.24 243.72 56.57 649.36 710.55 620.84 499.24 596.03 181.20 739.92 725.40 702.51 695.22 669.78 722.36 577.17 614.32 759.73 565.82 659.92 676.04 713.36 168.16 677.72 219.21 162.70 200.40 830.11 123.87 126.90 191.02 660.93 167.64 622.00 187.88 691.21 193.39 699.85 668.04 93.46 643.74 618.84 160.08 629.86 191.60 625.88 298.47 707.46 279.03 0.00 256.47 630.17 210.86 760.05 656.28 724.75 663.01 585.10 618.99 689.33 644.02 584.64 539.97 175.52 733.42 197.01 191.69 225.28 613.98 88.57 114.52 188.36 693.36 304.20 185.85 250.03 594.73 695.86 712.43 593.69 809.17 84.30 169.91 129.31 59.59 695.20 636.41 425.47 592.27 553.78 627.56 254.27 709.32 703.37 176.74 188.53 643.90 597.76 679.02 723.57 384.56 732.96 725.28 633.01 822.29 251.09 625.38 734.31 742.17 571.12 609.03 697.95 555.25 646.89 750.49 683.47 110.44 684.37 596.86 594.79 501.64 635.47 237.49 710.89 749.38 655.28 267.72 729.56 710.99 738.02 178.48 300.15 697.05 608.92 186.07 649.61 717.44 772.84 616.44 199.34
393.87 500.75 514.87 497.27 450.51 107.02 472.13 534.89 629.15 171.22 438.61 428.21 142.79 490.99 151.89 709.23 468.54 363.53 605.51 160.61 453.69 504.87 185.03 440.50 404.62 147.52 580.67 239.07 593.96 573.76 432.04 90.11 111.30 562.96 536.60 508.26 476.67 461.51 144.12 554.95 161.97 488.73 23.00 217.54 489.24 562.94 544.15 427.53 445.61 114.98 619.84 566.42 485.14 554.81 515.47 554.14 498.41 467.11 593.97 464.76 516.95 537.27 635.93 123.74 622.01 108.58 184.44 192.78 660.39 206.26 273.58 150.98 485.33 160.55 487.09 195.89 519.17 137.97 564.23 542.71 199.90 472.22 527.09 96.39 490.99 138.24 454.36 209.37 532.95 175.08 256.47 0.00 550.67 111.99 538.69 516.45 616.86 557.23 422.41 446.45 530.35 423.30 480.69 437.37 131.10 480.82 123.64 113.78 59.80 471.88 265.57 169.91 135.47 515.18 138.72 88.00 76.69 518.34 536.88 523.99 491.33 592.07 250.55 126.03 201.69 271.69 533.83 447.20 372.92 420.75 482.07 555.85 146.38 456.72 542.00 113.05 176.65 521.99 464.10 538.03 551.03 183.57 530.92 546.15 496.48 643.99 33.99 506.15 511.33 565.74 501.33 465.83 514.73 471.70 461.38 582.61 497.96 245.85 556.67 483.77 481.40 412.57 505.78 203.98 519.54 573.07 491.25 117.30 637.68 510.49 705.23 150.83 111.89 599.06 421.87 113.34 577.90 466.11 584.74 444.44 94.02
156.80 826.67 805.28 722.06 812.68 518.60 177.50 175.34 287.05 437.74 306.42 173.64 572.05 881.14 466.59 360.09 119.48 592.45 693.46 602.67 227.94 858.08 481.54 315.23 780.09 573.98 1013.04 683.03 852.84 817.70 820.94 514.94 536.15 186.54 807.54 800.33 838.28 120.84 540.88 152.29 499.02 874.06 527.67 573.60 109.71 759.43 97.44 870.61 219.86 555.51 206.40 874.16 936.85 166.39 828.67 862.10 789.76 106.31 896.50 202.03 863.51 177.11 356.83 514.02 1031.22 583.80 467.47 615.74 1035.90 520.34 589.75 596.51 885.86 529.32 707.58 505.62 865.81 503.57 161.57 139.21 537.91 900.95 827.95 495.84 162.25 586.92 873.46 467.28 843.79 498.71 630.17 550.67 0.00 524.73 999.43 858.43 410.32 176.40 146.94 764.27 885.74 771.37 278.59 369.70 509.04 939.65 499.12 490.49 527.36 859.54 623.22 524.50 532.23 876.55 448.44 521.61 596.74 55.08 881.95 879.65 89.01 656.22 560.64 541.32 500.86 639.63 197.21 140.82 269.88 887.84 816.07 956.25 495.30 932.27 202.47 512.50 506.82 104.25 159.55 929.83 386.64 469.93 888.04 887.97 866.74 908.39 553.17 44.52 908.62 842.29 77.71 842.76 908.80 100.67 873.63 258.91 898.71 556.46 262.77 173.61 783.55 743.26 848.06 650.53 938.99 873.60 115.63 524.61 354.25 955.15 340.06 510.16 494.27 187.72 194.09 534.38 967.18 922.88 823.30 134.21 542.70
480.73 521.44 538.38 449.67 471.20 32.06 504.35 535.78 632.04 112.92 448.74 462.96 71.08 571.47 91.19 720.46 515.51 277.99 587.22 99.32 462.32 563.04 279.61 430.14 425.31 62.93 622.72 197.60 619.28 633.20 473.00 36.54 42.32 614.09 597.70 526.46 525.43 497.68 40.31 586.93 103.92 554.76 115.18 154.65 515.31 625.80 553.57 436.99 454.24 30.78 637.96 600.76 591.35 580.88 591.82 597.72 515.89 534.01 586.85 446.12 582.79 568.48 617.29 46.72 582.80 59.07 107.42 134.96 745.93 94.27 195.07 85.46 535.26 73.21 497.74 105.49 577.34 64.43 577.65 582.93 123.85 555.32 515.71 51.61 534.93 62.19 539.90 174.63 562.94 180.29 210.86 111.99 524.73 0.00 617.29 572.06 616.17 570.01 502.74 489.58 564.69 515.48 474.60 387.36 53.74 592.81 65.52 46.37 104.87 540.73 212.00 96.39 31.66 555.95 183.79 62.74 97.17 550.87 571.22 587.79 504.38 671.18 166.04 40.95 124.67 221.31 590.15 510.24 323.51 506.29 439.49 540.78 145.69 568.71 598.32 34.95 116.00 585.03 489.29 558.51 620.03 254.03 604.00 600.64 555.76 674.83 130.68 480.21 608.64 617.53 529.09 551.37 561.76 446.78 559.21 645.65 576.53 168.49 600.01 480.21 523.73 359.00 544.48 161.28 575.06 623.71 524.83 125.93 621.77 558.90 700.43 96.12 180.78 595.09 489.22 24.84 534.93 578.10 589.74 511.04 17.97
898.16 216.52 209.87 338.40 262.49 611.61 876.32 958.95 897.22 692.47 703.01 873.02 618.41 156.48 668.99 846.80 915.14 854.61 475.95 591.26 802.80 151.35 574.53 737.58 303.51 623.40 76.76 493.33 271.25 302.76 267.61 614.58 617.23 958.70 214.25 207.30 200.83 913.54 649.92 931.35 683.47 143.07 561.69 722.26 893.32 313.60 936.70 278.47 794.72 607.67 960.24 191.67 94.75 958.89 194.83 183.10 217.87 931.70 246.81 818.09 135.92 951.88 857.14 645.92 275.16 578.24 700.96 646.32 245.83 692.49 762.68 613.13 123.57 665.69 300.05 707.55 165.65 668.30 922.07 947.37 705.55 152.32 190.18 633.68 872.37 596.25 134.17 716.19 226.59 648.79 760.05 538.69 999.43 617.29 0.00 168.26 838.54 965.92 919.63 271.70 155.60 272.58 773.09 711.73 638.56 90.51 662.33 636.34 598.49 185.90 786.36 664.00 642.72 140.43 603.32 626.69 538.84 944.35 162.13 149.24 920.42 505.16 757.98 616.10 702.02 800.28 957.38 916.16 790.58 167.78 290.33 150.15 685.07 81.97 965.55 633.02 696.58 950.14 898.84 302.14 757.88 608.78 219.30 171.40 173.94 284.93 572.68 964.91 136.58 190.99 967.96 164.87 94.82 906.96 147.52 995.83 123.45 731.84 970.13 898.06 236.75 359.94 193.92 613.36 60.95 198.83 883.80 655.99 822.64 77.11 866.83 688.12 582.45 917.37 848.80 592.45 205.36 91.36 275.26 921.94 617.66
793.06 82.69 58.06 221.06 132.93 540.00 743.14 856.29 800.53 620.86 597.91 764.01 503.70 70.37 599.13 712.97 810.04 743.39 358.61 552.49 681.42 46.25 477.51 632.48 178.82 527.01 204.84 505.28 148.72 192.03 179.73 543.41 564.62 892.64 61.13 89.68 113.67 814.70 555.66 853.89 611.02 52.91 532.47 649.13 844.76 258.43 856.84 259.83 689.50 559.64 924.25 109.79 99.97 869.45 40.00 95.52 100.25 838.25 159.88 712.99 125.94 854.58 760.45 592.21 322.85 567.90 629.35 567.75 298.33 605.21 718.71 518.25 44.69 602.44 150.85 644.25 60.55 598.33 850.73 842.27 615.81 92.75 56.35 562.51 767.27 525.86 124.23 649.72 97.38 624.63 656.28 516.45 858.43 572.06 168.26 0.00 735.42 874.54 793.55 144.60 87.23 132.17 667.99 582.52 591.80 117.78 591.98 579.41 530.11 148.89 716.06 615.04 563.99 77.92 548.75 570.68 590.05 855.39 82.07 94.71 815.32 435.06 678.21 562.72 643.49 701.62 835.87 811.06 673.24 132.36 261.02 296.64 653.63 103.74 827.70 561.41 584.02 822.10 794.09 347.45 636.12 511.76 122.06 106.40 23.27 201.07 549.45 859.81 90.92 115.33 849.98 93.53 107.46 757.76 55.07 852.94 57.49 659.88 873.44 802.80 151.86 254.17 53.58 526.20 140.39 133.14 844.44 580.31 725.95 133.39 732.66 613.34 549.45 899.57 752.84 559.16 320.31 101.80 157.50 799.96 556.81
324.85 664.94 713.95 514.36 684.54 584.11 287.67 350.69 164.99 528.04 268.39 290.51 649.79 751.18 524.98 138.56 290.84 795.78 522.70 697.27 207.92 711.61 513.22 233.82 668.58 636.05 883.27 739.98 767.61 724.30 657.62 601.02 612.19 368.63 740.43 716.43 754.38 345.80 598.15 318.10 557.41 695.47 612.84 679.36 331.39 721.40 354.91 855.43 199.84 627.02 360.11 775.15 787.74 324.69 753.00 760.88 712.14 373.04 803.10 247.52 802.28 338.63 89.20 609.73 939.56 656.13 610.45 708.08 974.67 612.06 697.98 658.58 714.97 583.74 653.38 572.30 725.91 591.79 308.82 351.87 649.73 788.82 691.28 591.50 319.57 653.50 771.42 533.47 776.68 499.24 724.75 616.86 410.32 616.17 838.54 735.42 0.00 352.67 328.34 710.07 752.59 660.83 258.57 340.99 602.37 783.42 558.12 597.91 559.58 775.64 694.73 626.55 589.50 744.87 480.66 588.87 655.13 385.22 756.53 739.31 384.74 491.64 655.38 606.83 630.87 734.37 298.84 305.21 424.08 737.81 823.53 939.20 470.48 759.32 292.89 588.69 543.85 382.36 328.62 1012.78 111.51 478.97 813.70 771.76 712.15 788.01 585.39 375.18 762.76 780.69 387.04 758.86 778.96 363.87 722.82 211.48 746.04 672.64 245.59 287.74 681.02 740.83 720.05 734.40 805.26 788.90 340.91 528.15 98.10 811.65 158.59 568.55 526.49 368.21 266.27 603.27 887.84 758.12 767.76 324.03 628.48
169.57 831.27 832.11 719.73 791.57 555.77 174.61 34.23 242.25 526.35 281.55 158.40 617.21 892.28 554.31 272.19 104.44 727.33 677.91 632.79 232.54 828.29 506.67 297.23 745.68 615.98 971.33 669.76 791.98 780.74 793.37 548.90 527.69 100.21 856.62 808.73 816.52 107.61 601.78 44.78 556.46 836.96 540.44 632.49 75.30 734.56 86.22 857.38 224.46 562.54 113.44 858.30 907.58 55.27 877.75 858.71 798.16 131.44 859.54 201.13 832.70 19.96 284.24 575.54 1028.33 589.21 593.14 679.07 1005.09 583.19 621.31 629.57 856.07 566.45 799.92 558.37 842.59 580.96 43.85 37.19 622.21 859.24 837.90 568.00 123.25 595.05 831.75 493.84 838.82 466.41 663.01 557.23 176.40 570.01 965.92 874.54 352.67 0.00 165.34 754.07 835.29 790.14 254.61 354.66 568.18 913.80 586.39 579.83 526.27 815.33 679.58 619.57 601.67 879.53 511.37 560.04 606.08 121.32 828.76 853.80 130.11 621.81 578.71 539.91 559.75 657.70 57.31 110.03 296.44 846.13 802.84 943.02 548.24 900.81 62.47 570.34 533.38 72.15 145.64 1047.69 294.72 480.86 871.91 871.24 875.14 842.75 523.24 139.91 895.36 878.52 124.88 801.05 877.99 193.01 864.31 141.19 868.92 604.85 140.28 142.27 789.02 754.19 841.00 693.54 908.18 890.30 84.82 516.76 287.77 923.61 292.22 562.70 532.84 70.57 158.03 563.56 951.94 893.09 777.05 120.10 579.53
28.54 725.69 774.70 630.49 763.55 482.25 50.41 141.91 236.63 422.40 216.62 46.61 540.98 818.12 437.19 332.84 90.24 676.21 566.37 537.02 126.96 768.28 419.93 214.25 740.37 549.36 953.18 623.52 759.82 716.51 692.68 476.76 487.71 197.63 732.42 766.03 803.98 77.89 494.16 162.01 417.76 784.04 399.41 549.47 90.04 647.52 139.95 805.28 135.04 491.39 220.64 812.44 870.89 155.61 753.55 794.46 774.10 44.70 792.15 108.61 846.69 158.97 279.78 464.50 904.13 484.99 474.45 604.57 1012.39 497.26 574.70 555.07 796.06 445.50 711.33 455.10 782.58 467.06 152.73 132.81 512.58 849.41 752.03 457.66 112.69 527.63 806.36 437.23 711.00 462.08 585.10 422.41 146.94 502.74 919.63 793.55 328.34 165.34 0.00 768.02 809.26 737.34 177.61 225.86 457.14 856.87 447.14 475.69 451.41 754.63 590.97 471.03 502.81 819.52 401.56 464.05 499.10 95.93 806.83 816.74 86.02 586.97 547.47 504.97 495.30 611.67 153.19 68.90 239.83 805.76 773.12 895.36 391.36 842.47 145.02 474.32 435.94 122.79 41.69 960.44 300.45 439.73 829.32 823.33 792.08 836.47 437.98 102.42 840.98 814.27 87.90 808.46 858.88 104.42 788.51 204.31 808.91 547.56 190.85 98.02 739.65 687.51 780.80 626.39 886.51 836.85 98.81 400.39 287.22 875.35 312.81 406.62 391.81 184.92 78.31 489.75 840.15 833.08 751.38 45.24 491.60
751.86 110.33 110.92 195.71 76.96 475.87 746.84 760.44 788.56 537.93 573.53 736.96 449.55 159.40 509.08 744.87 764.82 687.42 306.19 507.24 673.32 146.32 421.54 608.10 122.85 462.54 286.58 534.40 223.89 220.68 87.72 474.17 477.54 777.41 156.65 87.04 124.15 737.91 482.74 709.29 522.36 157.14 423.45 584.20 776.81 187.02 742.91 260.58 665.24 500.81 795.24 207.38 188.25 774.22 143.76 195.32 76.47 729.90 229.14 688.61 178.00 734.11 748.48 506.55 370.09 473.61 565.22 511.41 350.39 551.06 625.40 461.91 153.74 530.19 56.69 559.70 160.62 504.44 718.57 775.79 559.47 174.49 88.25 470.96 742.89 427.39 151.20 605.38 192.90 507.44 618.99 446.45 764.27 489.58 271.70 144.60 710.07 754.07 768.02 0.00 187.30 55.38 643.61 560.05 511.34 207.81 496.27 492.79 467.75 146.25 637.71 552.55 491.39 178.96 463.00 445.19 499.12 770.05 192.80 194.78 744.28 373.29 589.12 482.53 560.15 639.42 770.92 778.50 647.89 174.55 253.63 314.48 560.10 189.73 778.35 478.40 540.54 777.65 758.09 383.39 620.72 421.24 216.35 206.47 128.30 279.44 462.02 773.98 203.75 175.51 755.82 129.47 216.34 663.60 129.79 815.91 166.37 562.98 804.73 778.54 34.95 209.93 117.02 527.67 228.67 206.82 767.65 514.77 713.98 221.67 733.68 511.22 417.17 793.74 728.46 495.03 359.90 180.34 194.35 770.56 471.61
787.79 125.39 121.72 256.02 175.63 554.99 760.21 833.31 829.11 635.85 592.64 762.65 552.13 92.55 614.12 755.67 804.77 786.09 372.18 557.65 692.43 40.98 503.07 627.21 221.52 565.12 179.94 503.09 142.89 152.88 198.16 562.62 568.25 868.84 78.20 122.73 160.68 821.68 585.32 800.72 626.85 57.12 546.97 680.08 844.35 182.89 869.00 286.09 684.35 555.45 868.97 36.07 83.94 861.36 87.02 33.03 133.30 804.27 126.75 707.72 122.70 821.25 793.21 611.41 292.74 505.62 644.34 613.99 295.09 648.20 727.98 564.49 63.90 627.52 178.16 659.24 26.68 616.44 791.44 837.00 662.05 131.45 99.05 579.58 762.00 529.97 160.14 696.74 98.59 659.65 689.33 530.35 885.74 564.69 155.60 87.23 752.59 835.29 809.26 187.30 0.00 166.98 662.72 583.73 609.07 80.09 606.97 598.62 577.13 181.94 738.08 645.46 593.97 79.48 554.40 585.67 545.02 840.05 6.53 23.10 810.05 349.56 691.70 554.92 660.56 742.00 843.79 802.14 708.20 154.27 280.50 281.11 668.62 73.63 851.22 576.40 650.51 864.80 788.82 332.25 678.15 468.82 63.70 35.95 89.76 176.77 564.34 854.54 64.66 52.84 847.47 129.44 113.53 785.07 83.39 888.78 68.44 665.56 884.84 797.65 178.36 310.19 109.60 573.21 117.67 68.07 839.62 596.18 758.71 108.81 775.70 634.02 529.49 866.61 747.57 573.91 292.97 64.24 119.66 820.71 567.07
715.87 84.16 91.57 146.47 109.83 484.39 694.03 755.91 733.18 562.32 520.72 690.73 504.93 116.10 534.08 757.29 732.85 720.29 284.02 537.91 620.51 154.60 454.41 555.29 152.14 517.92 267.09 502.08 178.31 176.86 104.45 501.30 488.60 811.16 113.30 115.90 153.85 682.53 538.12 764.67 549.52 160.35 400.30 616.91 721.43 139.64 765.17 301.55 612.43 492.28 850.62 175.57 190.61 787.00 92.17 193.83 105.33 751.10 220.58 635.80 179.88 781.00 693.10 516.92 358.78 485.88 573.74 566.79 352.27 585.37 650.88 517.29 152.31 545.06 63.79 582.32 140.30 525.52 773.95 765.08 588.76 155.00 110.50 483.94 690.08 482.77 178.50 610.05 139.43 504.06 644.02 423.30 771.37 515.48 272.58 132.17 660.83 790.14 737.34 55.38 166.98 0.00 590.80 530.48 509.56 182.07 500.94 516.40 459.14 175.00 676.76 547.21 531.24 162.84 508.89 493.91 499.99 748.29 173.51 165.11 738.13 367.98 643.73 507.11 594.87 694.80 775.09 723.12 598.65 178.51 270.36 347.83 569.68 204.52 783.26 499.48 553.95 778.61 716.90 401.72 571.48 476.62 207.58 181.46 135.73 253.24 438.87 769.67 206.67 207.44 762.92 147.80 199.37 670.70 145.71 831.79 149.40 618.36 806.09 725.73 58.34 251.71 107.85 566.38 226.59 214.70 712.27 516.64 658.60 224.03 737.26 538.38 472.55 821.00 675.65 490.64 345.87 195.13 204.81 715.18 515.85
167.58 649.38 680.95 585.40 680.81 458.88 146.56 255.13 231.28 419.40 70.08 133.24 486.09 685.73 408.86 309.97 168.04 683.27 619.27 542.19 50.65 621.74 342.03 72.55 678.80 499.08 806.64 481.41 690.58 666.87 631.11 453.39 474.60 284.37 680.17 603.54 641.49 187.29 472.26 238.16 424.82 637.88 457.69 528.07 208.06 523.09 224.52 776.64 58.73 493.90 324.11 685.28 724.35 273.18 682.97 671.01 614.11 222.31 712.35 106.41 696.86 236.77 176.78 427.88 886.59 506.43 481.51 547.95 869.25 504.32 581.76 498.45 649.52 452.56 654.59 462.16 636.04 457.01 247.44 246.00 519.64 704.16 664.71 434.29 170.49 463.93 676.67 423.17 643.92 305.61 584.64 480.69 278.59 474.60 773.09 667.99 258.57 254.61 177.61 643.61 662.72 590.80 0.00 158.78 435.24 714.01 442.00 442.89 444.54 662.75 598.03 478.09 480.91 672.98 410.86 452.06 505.54 251.80 669.25 670.20 195.34 559.80 554.53 481.60 502.36 630.98 233.33 146.70 225.77 691.05 726.46 824.59 425.55 695.93 225.32 450.95 443.00 259.26 175.20 899.89 275.73 376.28 726.42 681.89 669.95 712.12 460.72 234.07 711.76 690.82 255.57 645.97 712.34 206.60 665.23 282.11 662.37 549.99 243.06 172.03 649.14 606.58 672.41 585.53 739.97 713.40 217.03 387.04 211.28 728.81 289.94 413.68 396.80 303.30 125.16 478.04 795.28 686.54 661.04 198.30 492.57
253.30 591.66 617.58 426.62 543.20 355.30 234.41 328.12 309.07 419.04 136.02 218.96 420.04 624.18 411.25 396.86 250.22 623.06 460.49 464.59 193.88 593.76 288.05 107.17 520.02 396.73 730.86 556.98 546.15 586.87 472.33 372.21 383.38 354.86 521.39 540.17 578.12 275.76 427.67 345.77 427.16 588.12 414.37 504.27 287.91 545.38 285.27 638.41 185.80 398.21 407.58 588.12 666.30 353.48 542.52 568.60 550.74 270.56 566.29 176.18 633.49 357.77 263.67 413.88 823.22 419.23 444.65 468.76 805.88 474.50 544.69 419.26 588.16 429.39 565.64 459.55 579.46 416.75 336.49 334.30 487.56 630.28 595.71 379.89 239.10 431.88 613.30 489.11 485.14 372.59 539.97 437.37 369.70 387.36 711.73 582.52 340.99 354.66 225.86 560.05 583.73 530.48 158.78 0.00 416.38 631.01 407.28 399.27 389.67 599.38 547.67 446.01 419.02 621.39 322.41 385.98 458.63 321.79 590.26 606.69 311.88 648.13 537.82 378.02 478.04 571.51 327.95 271.56 291.71 627.68 583.87 724.05 450.97 639.92 336.12 376.71 454.16 320.01 251.03 828.72 288.48 253.80 626.08 597.47 577.08 635.61 415.48 328.28 615.12 588.41 308.69 582.60 645.12 292.32 612.11 384.89 627.57 514.78 362.93 221.41 582.53 527.13 588.38 495.08 677.63 610.99 297.43 332.17 298.17 684.06 376.83 434.33 338.21 375.55 219.28 374.46 779.26 630.53 550.52 243.11 399.67
428.60 518.24 567.25 494.05 468.00 61.08 506.86 564.15 592.68 102.32 425.35 462.94 88.10 589.48 77.39 696.40 472.37 248.71 631.60 130.73 457.44 581.05 226.77 390.78 422.11 92.22 667.10 231.54 673.02 674.93 469.80 54.55 70.69 597.69 596.95 526.47 554.36 496.24 37.02 533.61 54.12 572.77 109.26 118.95 512.92 630.52 546.31 465.05 449.36 73.38 601.86 638.65 608.15 578.49 598.08 630.32 515.90 501.84 640.59 467.25 575.53 554.14 600.93 7.36 625.40 103.45 68.06 147.43 747.92 84.32 167.47 97.93 553.27 55.21 510.94 82.27 595.35 36.49 524.33 567.24 105.35 568.52 544.58 44.35 513.66 89.70 564.35 153.36 616.68 155.83 175.52 131.10 509.04 53.74 638.56 591.80 602.37 568.18 457.14 511.34 609.07 509.56 435.24 416.38 0.00 611.92 44.25 18.55 117.30 521.76 189.48 63.80 45.67 586.50 186.66 66.15 136.10 524.76 615.60 616.61 476.60 696.25 134.17 54.15 85.31 211.36 550.10 493.71 295.73 550.67 457.50 574.72 131.89 587.82 558.27 39.67 81.12 556.72 482.03 597.44 628.48 261.02 617.20 627.89 584.63 714.63 138.17 464.52 626.65 637.48 501.15 565.62 615.50 439.52 577.22 621.67 583.26 114.75 567.06 524.98 520.53 377.01 554.85 185.01 577.61 641.72 522.44 121.05 612.25 593.77 676.37 61.17 184.42 567.31 497.42 50.89 560.98 597.21 643.48 479.17 71.71
839.08 158.65 138.29 280.53 208.89 587.84 817.24 902.31 806.71 652.04 643.93 813.94 604.33 65.97 632.71 788.93 856.06 819.35 418.08 576.93 743.72 92.27 522.32 678.50 254.78 591.18 99.85 539.99 200.83 231.39 234.52 570.93 592.12 900.83 158.29 172.96 141.78 864.60 624.94 879.23 642.79 87.95 503.82 698.36 847.14 255.73 880.82 260.40 735.64 593.34 902.37 114.58 42.54 910.26 138.69 98.09 162.39 867.81 182.92 759.01 89.74 899.76 766.63 604.56 243.21 563.91 665.26 618.15 262.13 677.29 754.40 568.65 101.56 641.37 235.99 676.71 103.22 618.79 869.95 888.29 666.21 95.80 132.31 577.21 813.29 582.17 126.08 683.10 145.87 615.70 733.42 480.82 939.65 592.81 90.51 117.78 783.42 913.80 856.87 207.81 80.09 182.07 714.01 631.01 611.92 0.00 604.46 594.60 540.62 144.24 734.15 650.73 616.29 76.54 539.43 568.82 524.51 898.17 85.04 60.00 850.64 429.65 721.75 606.46 655.84 743.28 898.30 857.08 732.71 141.87 302.13 240.66 627.20 24.10 906.47 593.87 657.47 898.06 840.11 290.85 700.01 547.33 142.21 93.80 110.78 251.11 514.81 895.13 62.23 113.99 911.01 137.28 61.73 842.90 95.58 905.32 60.29 717.76 879.62 840.19 172.86 322.70 122.11 554.31 46.62 109.59 837.62 598.12 732.13 62.78 808.96 631.65 549.36 859.50 793.68 594.16 244.90 27.47 198.17 866.82 574.84
441.79 543.32 558.30 502.73 493.08 51.98 484.54 553.22 597.85 61.38 418.95 476.13 115.48 589.53 33.14 678.21 481.95 280.14 638.57 155.71 413.19 581.10 249.90 401.81 447.19 127.37 675.78 224.12 658.64 638.63 494.88 54.60 75.81 602.86 584.29 540.58 559.48 485.95 81.27 568.23 51.66 572.82 100.64 163.20 518.78 621.42 538.89 457.63 405.11 85.46 604.40 638.70 608.78 584.35 563.16 630.37 530.01 491.84 652.37 426.31 568.11 583.11 589.84 51.61 637.48 112.13 108.04 191.68 735.50 111.76 194.98 142.18 553.32 44.12 519.62 85.98 595.40 33.67 558.95 563.74 138.79 577.20 535.63 36.93 469.41 117.97 570.67 109.11 610.59 136.39 197.01 123.64 499.12 65.52 662.33 591.98 558.12 586.39 447.14 496.27 606.97 500.94 442.00 407.28 44.25 604.46 0.00 60.18 73.05 518.94 189.59 97.24 82.84 586.55 151.97 51.08 144.78 521.94 613.50 616.66 470.82 656.94 164.54 62.83 129.20 230.39 559.68 499.25 289.95 544.39 457.55 567.30 87.64 580.36 567.85 30.57 53.01 549.56 441.81 606.12 588.21 234.74 625.88 627.94 575.68 714.68 98.86 480.53 626.70 642.64 498.33 583.01 613.40 432.10 567.80 605.65 575.84 146.18 546.41 518.41 495.52 377.06 547.43 207.10 621.86 641.77 512.87 76.80 591.60 606.51 670.26 40.52 150.33 561.53 469.41 71.14 581.23 589.75 655.26 473.98 83.49
447.15 499.69 548.70 495.71 449.45 43.97 514.17 545.60 604.60 101.78 428.46 481.49 106.65 570.93 72.93 705.32 490.92 267.26 633.26 112.18 469.46 562.50 245.32 402.70 403.56 83.49 668.76 219.65 655.16 674.38 451.25 36.00 52.14 616.24 578.40 507.92 535.81 504.82 55.57 552.16 72.67 554.22 116.10 135.12 531.47 632.94 534.42 453.16 461.38 67.64 620.41 620.10 598.92 575.87 579.53 611.77 497.35 511.17 633.22 455.94 563.64 572.69 596.09 23.53 619.66 105.11 84.23 155.52 736.03 102.87 183.64 106.02 534.72 50.37 513.43 92.23 576.80 38.29 542.88 548.69 118.85 567.60 526.03 32.46 529.59 97.99 568.14 169.29 609.31 137.28 191.69 113.78 490.49 46.37 636.34 579.41 597.91 579.83 475.69 492.79 598.62 516.40 442.89 399.27 18.55 594.60 60.18 0.00 123.07 521.17 195.84 79.97 64.22 567.95 176.30 47.60 130.53 516.63 605.15 598.06 490.46 692.69 150.34 56.64 101.48 229.33 568.65 512.26 314.28 534.53 438.95 562.83 127.43 570.50 576.82 42.09 99.67 565.80 470.14 591.87 618.92 256.94 619.69 609.34 566.08 696.08 134.61 445.97 608.10 624.04 500.23 547.07 608.13 427.63 558.67 617.59 571.37 133.30 585.61 526.58 501.98 358.46 542.96 181.33 596.16 623.17 534.56 133.07 606.63 592.26 685.29 79.72 172.53 585.86 499.04 43.89 553.98 579.89 636.11 497.72 64.34
429.35 471.11 520.12 498.17 420.87 90.60 473.64 512.20 578.55 134.43 381.17 460.19 121.91 524.36 106.19 667.82 460.36 353.19 565.52 159.60 393.89 538.24 176.85 405.33 374.98 145.22 640.47 230.89 598.83 565.58 422.67 92.14 70.93 559.38 511.24 479.34 517.29 438.82 145.02 532.26 124.71 522.10 58.84 217.31 450.97 598.78 513.39 419.35 385.81 111.25 581.57 591.26 544.94 516.54 490.11 587.51 468.77 484.85 628.64 433.49 531.27 529.09 590.59 124.66 613.83 107.57 179.95 202.71 703.66 184.81 257.73 167.34 518.70 117.17 500.61 159.03 552.54 106.72 541.54 518.68 200.60 532.02 497.45 109.98 482.81 132.82 514.16 182.16 547.49 162.66 225.28 59.80 527.36 104.87 598.49 530.11 559.58 526.27 451.41 467.75 577.13 459.14 444.54 389.67 117.30 540.62 73.05 123.07 0.00 492.59 262.64 159.05 136.53 551.93 78.92 102.30 136.49 492.18 571.61 565.94 439.36 583.89 235.71 92.54 202.25 284.87 525.65 439.02 336.42 480.55 473.89 547.67 160.69 516.52 533.82 94.89 126.06 483.72 438.34 597.83 515.16 199.33 590.72 579.40 529.85 651.18 25.81 482.84 571.13 607.32 471.75 518.49 574.53 505.15 494.75 574.43 531.33 219.23 560.97 475.59 432.80 357.63 526.22 236.78 579.34 607.15 460.49 57.50 625.09 570.29 647.79 113.57 114.92 560.79 413.69 87.50 569.72 525.91 607.61 406.17 112.71
783.17 110.70 129.37 267.56 136.48 524.69 786.22 824.35 842.43 551.10 695.72 754.90 553.27 121.40 552.08 773.92 791.72 722.17 385.27 550.38 709.43 158.10 454.32 706.55 117.61 529.96 203.59 491.82 267.86 224.55 165.30 514.79 498.41 882.89 182.59 59.21 61.05 777.76 541.67 820.19 551.03 141.96 494.88 625.99 787.99 259.30 824.62 208.75 717.51 524.60 900.51 218.01 148.56 835.48 162.39 207.37 69.78 766.18 258.19 765.19 102.32 795.37 802.35 514.40 277.16 498.35 574.94 513.88 257.76 584.68 661.88 536.91 144.12 511.02 151.96 552.88 172.40 485.27 825.18 835.04 605.69 94.78 117.30 526.85 814.17 544.57 51.73 628.05 217.56 626.66 613.98 471.88 859.54 540.73 185.90 148.89 775.64 815.33 754.63 146.25 181.94 175.00 662.75 599.38 521.76 144.24 518.94 521.17 492.59 0.00 654.22 564.14 550.32 149.38 522.16 530.76 537.75 817.41 188.47 185.80 801.74 470.57 639.22 501.97 592.35 662.55 820.26 770.38 719.74 51.13 157.89 268.97 606.58 120.14 828.43 525.31 548.70 818.86 712.94 321.26 664.13 465.66 231.44 197.50 125.62 305.48 472.12 834.80 174.75 209.84 809.38 82.43 126.64 758.87 120.17 905.79 125.12 613.08 892.33 807.70 116.66 192.33 121.14 473.58 167.88 226.81 784.00 550.09 767.85 169.01 793.95 545.71 550.07 870.61 783.94 525.62 219.96 129.53 267.52 745.11 541.59
572.35 654.01 698.69 635.17 603.77 192.37 602.06 690.13 778.64 237.05 604.52 606.69 221.91 710.39 219.75 824.38 632.19 146.86 772.72 260.26 601.69 701.96 416.25 576.74 583.32 207.60 799.87 381.75 812.00 813.84 631.01 175.46 196.67 738.32 733.38 655.17 642.30 639.99 212.11 723.09 188.67 693.68 276.46 127.18 648.95 770.81 653.36 587.81 594.70 212.96 763.28 759.56 691.61 701.91 745.44 751.23 663.00 606.27 792.13 566.24 717.12 699.54 691.19 193.32 748.33 244.57 155.75 264.43 822.39 156.39 89.86 214.93 674.18 145.47 671.88 175.07 716.26 171.22 713.81 674.73 117.37 687.78 676.02 194.56 651.57 210.32 699.19 283.69 758.38 323.00 88.57 265.57 623.22 212.00 786.36 716.06 694.73 679.58 590.97 637.71 738.08 676.76 598.03 547.67 189.48 734.15 189.59 195.84 262.64 654.22 0.00 158.92 214.48 707.41 341.56 204.44 266.72 647.71 744.61 737.52 603.33 812.90 100.87 215.09 151.02 40.80 709.92 652.98 448.83 680.84 578.41 716.13 224.25 720.03 718.09 199.49 211.89 688.10 617.76 689.24 777.80 414.34 778.14 748.80 713.05 835.54 274.07 641.81 747.56 763.50 635.88 684.61 721.20 589.73 698.13 756.36 715.45 74.73 690.24 641.26 662.84 461.89 662.48 229.77 732.03 762.63 639.43 266.39 725.69 725.03 804.35 184.35 334.63 720.41 609.34 200.49 710.58 729.42 801.74 622.92 223.25
492.40 558.27 597.03 530.44 508.03 90.71 521.44 590.38 641.76 136.83 474.43 517.64 111.34 626.38 107.98 714.18 522.67 205.18 667.99 159.96 499.96 623.08 290.57 439.86 479.56 134.65 699.57 253.54 697.77 715.98 527.25 96.58 111.51 643.58 651.69 563.63 595.18 531.58 90.14 597.41 75.55 614.80 146.91 78.44 561.07 684.46 535.13 501.51 491.88 95.30 645.12 680.68 654.00 609.56 639.38 672.35 553.06 513.92 660.67 480.11 631.74 614.19 598.84 56.44 647.32 139.84 57.03 164.13 778.20 38.16 103.67 114.63 595.30 53.12 551.99 94.98 637.38 78.87 588.13 582.38 41.55 587.48 574.36 100.56 549.97 125.16 599.81 183.95 636.76 206.56 114.52 169.91 524.50 96.39 664.00 615.04 626.55 619.57 471.03 552.55 645.46 547.21 478.09 446.01 63.80 650.73 97.24 79.97 159.05 564.14 158.92 0.00 98.79 628.53 235.74 117.80 164.13 539.56 651.99 658.64 501.90 742.94 111.16 95.20 69.33 165.20 600.40 539.93 330.67 587.06 499.53 596.72 156.07 626.63 608.57 93.61 93.73 569.87 512.72 625.47 674.21 307.48 658.25 669.92 614.41 745.31 184.86 525.94 668.68 684.62 515.95 605.65 635.58 495.73 619.25 636.42 636.57 114.12 570.30 482.34 577.98 419.04 579.30 185.58 641.41 683.75 561.32 174.04 615.49 625.86 694.15 64.41 235.80 602.25 523.21 71.55 581.64 636.02 686.13 516.27 91.79
474.27 532.64 551.07 480.73 502.86 63.72 517.65 567.44 628.20 94.49 467.24 494.62 60.29 580.83 103.55 700.62 503.55 260.74 618.28 114.41 443.54 592.90 266.78 436.45 456.97 46.55 653.78 228.66 650.94 664.86 504.66 68.20 73.98 624.46 597.04 494.80 515.46 512.46 8.65 569.31 92.84 586.42 130.94 134.00 540.74 609.76 579.52 468.65 435.46 62.44 626.00 630.04 608.45 606.31 597.98 627.00 484.23 528.44 618.51 459.42 585.76 594.13 630.59 53.03 614.46 90.13 100.50 118.58 737.35 87.97 189.91 69.08 566.92 87.71 529.40 127.94 607.20 65.05 570.00 585.34 97.11 541.93 534.83 77.56 546.32 64.00 554.26 182.01 594.60 201.50 188.36 135.47 532.23 31.66 642.72 563.99 589.50 601.67 502.81 491.39 593.97 531.24 480.91 419.02 45.67 616.29 82.84 64.22 136.53 550.32 214.48 98.79 0.00 587.01 215.45 94.40 119.73 553.32 600.50 617.07 492.42 702.24 147.31 72.61 128.07 215.01 581.28 524.89 311.55 522.84 471.15 571.84 119.02 592.19 589.45 66.61 119.84 583.14 475.20 581.07 599.99 232.53 635.66 629.92 561.21 691.33 162.19 510.19 640.30 646.81 529.71 537.23 593.42 472.73 568.10 660.30 604.68 152.11 609.87 511.87 526.34 390.66 533.75 144.90 597.62 655.37 542.20 146.12 634.62 581.46 680.59 103.98 212.44 583.13 501.89 50.27 560.36 601.58 621.40 507.37 49.63
798.05 117.05 71.27 258.14 167.29 548.86 776.21 861.28 798.30 629.72 602.90 772.91 565.26 57.56 607.99 747.33 815.03 777.75 395.69 548.91 702.69 51.24 511.87 637.47 203.72 578.25 176.04 494.01 173.09 209.10 214.09 531.95 553.16 923.61 115.15 126.76 133.37 831.94 578.36 867.73 604.54 49.40 538.18 671.34 850.11 238.30 872.73 263.54 694.61 546.71 935.98 82.71 86.88 874.44 104.49 86.45 137.33 850.91 164.98 717.98 92.71 859.57 758.22 580.75 277.57 496.88 638.21 605.82 265.10 650.22 725.72 568.25 33.23 612.62 168.97 637.80 56.88 586.87 858.45 847.26 649.01 96.46 90.71 551.05 772.26 543.10 124.98 695.60 136.25 628.20 693.36 515.18 876.55 555.95 140.43 77.92 744.87 879.53 819.52 178.96 79.48 162.84 672.98 621.39 586.50 76.54 586.55 567.95 551.93 149.38 707.41 628.53 587.01 0.00 543.76 560.93 536.28 882.33 81.42 56.38 820.31 429.04 704.83 546.18 646.36 734.87 849.08 816.05 710.32 123.12 249.83 290.58 661.56 58.46 840.91 555.98 621.10 856.46 799.08 335.19 670.48 543.71 138.59 90.18 60.35 194.59 549.17 864.80 69.79 106.26 868.10 101.25 74.23 775.88 57.18 866.15 24.26 678.69 871.21 807.91 164.77 304.17 103.58 545.90 92.55 103.64 840.59 609.43 723.72 97.64 767.36 605.49 559.69 893.86 755.13 556.98 277.80 49.07 181.51 828.27 558.33
409.10 466.06 515.07 525.49 499.79 169.52 451.97 524.64 572.57 210.63 363.03 443.44 200.83 546.74 185.11 619.22 491.80 404.25 521.38 238.52 372.97 538.31 164.49 370.67 453.90 224.14 639.28 309.81 648.07 633.76 501.59 171.06 149.85 531.08 566.78 462.95 500.90 474.30 213.78 518.37 203.63 530.03 132.18 290.89 461.50 534.36 504.88 498.27 381.05 190.17 566.39 585.88 549.77 501.36 555.28 569.39 473.52 438.71 633.29 428.73 554.66 493.55 569.67 179.30 692.75 186.49 237.50 281.63 727.05 263.73 332.71 238.51 510.53 196.09 469.77 237.95 548.64 185.64 523.36 474.18 277.29 563.57 492.40 177.41 492.81 211.74 536.08 170.12 587.06 105.25 304.20 138.72 448.44 183.79 603.32 548.75 480.66 511.37 401.56 463.00 554.40 508.89 410.86 322.41 186.66 539.43 151.97 176.30 78.92 522.16 341.56 235.74 215.45 543.76 0.00 151.64 215.41 449.76 556.34 531.30 381.26 614.52 296.43 171.46 257.25 363.79 509.53 470.46 319.34 550.46 523.45 626.59 188.76 521.35 501.36 173.81 204.98 498.93 443.25 676.75 497.70 130.24 613.51 565.10 529.36 671.89 104.73 403.92 557.18 585.29 456.91 505.38 533.46 461.94 534.48 555.15 551.80 270.29 489.03 491.88 450.55 403.57 521.17 315.70 565.39 580.89 451.98 127.11 578.76 565.49 629.65 192.49 45.83 531.48 429.98 166.42 585.78 511.96 622.72 446.80 191.63
454.89 498.68 537.00 485.58 478.38 30.68 494.38 525.81 613.77 92.74 446.44 489.23 76.93 563.91 63.89 657.72 524.29 296.80 598.72 125.87 460.58 555.48 216.87 411.87 432.49 100.24 658.63 212.96 607.56 650.87 480.18 28.98 32.35 620.35 600.06 529.42 516.02 491.72 87.60 576.96 77.17 547.20 93.61 168.46 530.62 618.85 527.73 446.47 452.50 55.62 639.79 613.08 573.14 579.53 586.08 604.75 518.85 508.75 624.12 436.15 556.95 558.51 593.53 61.36 607.64 94.98 120.03 171.35 729.34 127.51 220.07 121.85 527.70 93.10 501.88 114.51 569.78 67.35 567.68 564.57 137.34 560.22 514.33 25.77 520.49 99.09 542.36 160.19 600.21 146.45 185.85 88.00 521.61 62.74 626.69 570.68 588.87 560.04 464.05 445.19 585.67 493.91 452.06 385.98 66.15 568.82 51.08 47.60 102.30 530.76 204.44 117.80 94.40 560.93 151.64 0.00 99.25 527.39 592.20 591.04 471.65 680.07 188.17 48.13 139.31 227.98 564.31 520.89 332.29 508.75 431.93 556.14 118.39 544.72 572.48 33.21 95.35 562.47 463.45 560.59 582.19 214.73 611.18 602.32 554.38 689.06 121.99 493.57 599.33 617.02 513.16 553.83 568.45 420.94 549.38 638.04 564.68 162.84 571.92 517.48 480.14 351.44 536.27 198.20 577.14 616.15 521.46 124.19 559.03 560.98 637.69 66.03 130.32 596.92 479.25 49.84 559.93 554.11 637.10 495.62 55.24
470.56 524.61 556.37 430.00 512.20 104.67 540.42 571.85 667.25 159.00 475.75 504.90 89.82 567.68 130.15 756.97 545.23 325.16 567.55 89.28 527.09 580.06 261.72 465.35 466.31 84.56 574.54 177.93 652.80 650.45 508.73 99.60 78.39 639.65 613.29 570.67 539.82 538.20 111.08 623.00 162.58 565.42 99.69 193.46 565.93 619.25 620.66 475.04 519.01 68.83 685.83 581.09 495.15 625.57 592.16 578.05 560.10 543.80 648.08 482.19 553.37 604.55 653.36 134.85 611.76 39.40 178.56 116.09 710.23 190.40 257.14 74.29 562.02 139.12 538.74 180.98 571.70 131.66 613.72 619.40 171.85 538.09 533.70 118.70 567.68 71.73 520.23 240.66 591.79 199.93 250.03 76.69 596.74 97.17 538.84 590.05 655.13 606.08 499.10 499.12 545.02 499.99 505.54 458.63 136.10 524.51 144.78 130.53 136.49 537.75 266.72 164.13 119.73 536.28 215.41 99.25 0.00 595.03 551.55 568.00 564.18 651.51 233.46 81.95 204.49 261.44 610.52 523.89 383.31 486.62 454.37 521.11 184.65 515.50 618.69 123.63 157.74 598.68 538.82 461.34 627.72 260.26 607.61 576.50 573.17 720.68 110.68 576.50 541.68 597.86 578.02 531.70 511.05 513.87 538.07 659.30 557.86 207.32 633.36 541.44 534.07 403.55 538.96 127.29 477.89 599.62 567.94 193.99 658.28 461.73 736.94 165.28 188.58 642.96 498.56 92.58 556.68 515.26 657.17 521.13 79.20
124.47 799.88 811.06 694.15 770.90 526.21 146.34 120.26 252.87 485.18 285.91 118.56 516.97 864.39 513.14 319.13 94.38 647.53 662.30 592.66 201.15 837.57 426.46 272.96 725.01 540.28 965.52 688.81 818.37 787.21 772.70 520.72 541.54 131.46 813.32 765.71 803.66 65.76 544.67 99.11 494.85 844.74 495.34 538.16 54.63 738.92 75.66 815.53 197.92 563.07 151.32 819.08 883.31 111.31 834.45 807.02 755.14 51.23 861.43 171.54 808.43 123.93 317.89 517.40 1000.06 580.92 522.55 612.31 980.82 536.79 589.71 562.81 860.04 512.03 713.36 496.76 851.87 488.27 108.39 84.13 575.05 853.43 805.74 501.62 136.98 539.13 838.84 439.37 806.93 443.63 594.73 518.34 55.08 550.87 944.35 855.39 385.22 121.32 95.93 770.05 840.05 748.29 251.80 321.79 524.76 898.17 521.94 516.63 492.18 817.41 647.71 539.56 553.32 882.33 449.76 527.39 595.03 0.00 836.97 841.20 68.50 601.14 562.60 548.93 496.69 609.13 155.56 106.35 241.97 853.22 760.99 901.17 487.29 896.23 147.39 518.28 478.91 49.17 104.47 984.91 331.56 416.54 832.96 832.89 832.12 873.92 517.99 70.66 853.54 787.21 23.61 808.14 853.72 106.45 839.01 205.73 875.59 572.98 226.31 148.51 746.18 689.87 813.44 638.63 883.91 818.52 60.55 474.91 322.99 900.07 319.34 502.55 487.74 134.41 139.01 545.10 912.10 886.84 788.83 86.01 563.55
794.32 130.89 127.22 262.55 181.13 561.52 756.42 826.78 835.64 642.38 599.17 769.18 558.66 99.08 620.65 761.17 811.30 791.59 378.71 564.18 698.96 47.51 496.54 633.74 227.02 571.65 184.89 505.03 137.10 146.35 191.63 569.15 574.78 862.31 74.41 129.26 167.21 828.21 591.85 794.19 633.38 61.06 548.91 686.61 850.88 176.36 875.53 288.03 690.88 561.98 862.44 29.54 84.08 854.83 86.92 29.95 139.83 797.74 120.22 714.25 129.23 814.72 789.14 617.94 299.27 512.15 650.87 620.52 301.62 654.73 734.51 571.02 70.43 634.05 174.37 665.77 33.21 622.97 784.91 842.13 668.58 137.98 104.55 586.11 768.53 536.50 160.83 696.64 105.12 661.59 695.86 536.88 881.95 571.22 162.13 82.07 756.53 828.76 806.83 192.80 6.53 173.51 669.25 590.26 615.60 85.04 613.50 605.15 571.61 188.47 744.61 651.99 600.50 81.42 556.34 592.20 551.55 836.97 0.00 25.04 815.68 356.09 698.23 561.45 656.77 748.53 837.26 795.61 714.73 147.74 287.03 287.64 675.15 80.16 844.69 582.93 657.04 870.30 795.35 332.39 684.32 462.29 57.17 42.48 96.29 170.24 570.87 860.17 66.60 49.76 840.94 135.97 113.67 781.28 76.86 882.25 74.97 672.09 891.37 804.18 171.83 316.72 116.13 579.74 124.20 61.54 846.15 598.12 765.24 115.34 779.58 640.55 536.02 860.08 754.10 580.44 299.50 70.77 113.13 827.24 573.60
795.27 132.87 112.62 263.50 183.11 578.09 773.43 851.82 827.28 658.95 600.12 770.13 575.23 86.54 637.22 763.15 812.25 793.57 390.33 580.75 699.91 48.46 521.58 634.69 229.00 588.22 159.85 479.99 140.83 171.39 216.67 562.06 583.27 887.35 99.45 145.83 162.35 829.16 608.42 819.23 634.65 43.84 523.87 703.18 851.83 201.40 887.76 262.99 691.83 578.55 887.48 54.58 95.69 871.66 78.69 38.09 155.06 813.89 128.21 715.20 131.58 839.76 787.20 610.86 286.38 528.72 667.44 623.11 277.88 669.96 751.08 573.61 63.34 642.73 199.41 667.91 44.83 616.98 809.95 844.48 671.17 125.44 106.53 581.16 769.48 553.07 156.21 688.41 121.55 636.55 712.43 523.99 879.65 587.79 149.24 94.71 739.31 853.80 816.74 194.78 23.10 165.11 670.20 606.69 616.61 60.00 616.66 598.06 565.94 185.80 737.52 658.64 617.07 56.38 531.30 591.04 568.00 841.20 25.04 0.00 790.64 372.66 714.80 578.02 681.81 740.05 854.49 813.27 715.68 162.12 279.94 278.96 670.37 67.27 850.68 586.09 655.16 872.28 796.30 344.00 686.30 487.33 82.21 33.80 94.41 191.11 557.98 835.13 41.56 53.99 857.09 147.59 121.73 806.32 71.19 907.29 80.64 688.66 892.32 805.13 190.55 309.53 108.94 574.88 106.62 49.59 847.10 573.08 752.70 106.27 771.35 635.60 547.64 885.12 749.57 587.09 304.90 76.66 138.17 822.71 573.87
114.56 775.55 785.29 633.05 777.26 498.21 132.13 143.38 221.96 463.64 217.41 94.23 497.18 833.06 458.78 325.68 120.79 662.56 648.09 572.87 176.82 769.07 432.68 235.23 750.62 520.49 950.49 663.04 828.88 785.57 776.31 494.95 504.00 149.82 787.55 780.34 818.29 93.04 501.07 137.11 426.35 785.21 468.33 559.57 80.24 670.42 123.62 842.81 184.90 527.27 185.13 825.65 871.68 120.10 808.68 818.34 769.77 57.45 864.37 169.90 818.60 112.29 307.21 483.96 985.85 546.93 466.41 592.52 990.99 505.87 571.94 543.02 796.85 469.55 687.59 428.26 783.37 481.24 142.10 92.92 536.85 863.60 801.89 475.85 158.29 519.34 853.47 378.27 797.02 486.51 593.69 491.33 89.01 504.38 920.42 815.32 384.74 130.11 86.02 744.28 810.05 738.13 195.34 311.88 476.60 850.64 470.82 490.46 439.36 801.74 603.33 501.90 492.42 820.31 381.26 471.65 564.18 68.50 815.68 790.64 0.00 626.75 529.34 519.78 486.83 597.08 172.12 133.40 180.87 852.87 788.27 928.45 441.26 843.26 180.29 492.51 417.81 117.67 88.80 1018.68 348.07 449.94 872.85 824.44 830.84 859.45 465.17 44.49 832.20 838.15 75.65 822.77 859.67 80.68 812.56 233.31 809.70 528.60 249.43 136.20 752.40 700.26 828.07 618.84 887.30 840.23 70.72 447.38 296.54 876.14 305.65 437.49 427.09 150.22 140.73 517.37 887.77 833.87 808.37 72.38 522.35
602.76 452.14 428.65 221.51 421.62 673.60 580.92 612.14 523.71 646.00 629.88 587.24 680.49 442.11 674.85 627.43 587.06 884.89 234.73 664.14 578.45 390.54 518.53 632.35 375.73 693.48 529.50 750.64 334.80 348.72 364.77 656.69 654.82 654.92 406.89 429.86 430.45 585.41 693.59 663.29 707.28 406.68 596.65 786.57 546.51 395.82 608.93 562.58 570.37 661.94 677.11 385.63 433.50 612.08 395.06 382.59 419.29 598.52 406.38 522.69 472.26 640.55 580.84 693.75 628.76 612.11 739.53 734.98 624.87 765.45 841.62 692.85 413.46 692.37 360.53 701.38 376.24 690.61 654.01 639.26 773.75 446.33 448.61 665.66 628.86 658.33 418.84 747.43 370.64 642.63 809.17 592.07 656.22 671.18 505.16 435.06 491.64 621.81 586.97 373.29 349.56 367.98 559.80 648.13 696.25 429.65 656.94 692.69 583.89 470.57 812.90 742.94 702.24 429.04 614.52 680.07 651.51 601.14 356.09 372.66 626.75 0.00 809.32 661.41 759.95 772.10 664.79 602.72 673.69 433.22 530.68 630.67 703.56 423.19 669.47 656.58 709.95 616.23 545.28 642.06 603.15 484.28 409.44 385.51 419.30 296.37 558.08 633.26 414.22 402.40 624.75 388.14 463.09 639.77 432.95 703.12 418.00 793.92 648.78 622.95 388.17 536.04 428.09 778.80 467.23 417.63 556.03 641.39 589.74 458.37 607.40 697.46 568.69 656.33 565.79 671.39 642.53 413.80 305.26 577.45 673.56
562.77 636.31 654.74 587.81 599.79 182.52 573.18 612.94 712.13 199.81 504.16 541.69 174.51 693.29 170.96 736.73 540.47 148.62 725.36 226.87 546.48 696.57 360.94 510.23 553.90 159.01 764.87 346.48 735.86 779.17 593.26 175.61 196.82 661.38 648.27 598.47 627.92 549.38 138.66 623.49 138.53 693.83 243.43 74.97 581.02 722.22 569.97 569.50 538.40 192.83 662.92 727.77 706.89 633.98 669.40 724.73 587.90 586.79 752.89 514.95 632.01 598.67 673.92 126.81 696.12 207.95 93.17 231.04 804.40 73.00 42.60 181.54 674.33 128.20 645.11 107.94 706.54 153.95 622.56 615.90 111.86 654.39 638.50 170.93 566.46 161.73 649.80 239.93 684.52 249.09 84.30 250.55 560.64 166.04 757.98 678.21 655.38 578.71 547.47 589.12 691.70 643.73 554.53 537.82 134.17 721.75 164.54 150.34 235.71 639.22 100.87 111.16 147.31 704.83 296.43 188.17 233.46 562.60 698.23 714.80 529.34 809.32 0.00 188.32 65.91 78.99 618.20 552.11 348.47 655.17 514.96 655.14 184.90 707.27 626.37 163.98 111.53 604.71 579.63 694.80 707.95 370.04 751.37 727.65 664.88 808.29 261.52 573.83 747.49 744.54 566.83 619.10 677.30 556.54 671.77 687.52 688.01 26.14 646.74 593.50 624.07 498.07 646.20 234.01 697.28 759.77 579.12 238.98 691.93 681.12 756.76 140.85 295.35 620.05 558.05 173.04 683.13 716.66 749.90 563.48 184.01
476.43 480.49 529.04 439.90 430.25 22.72 483.64 515.07 629.80 103.58 454.58 484.61 77.30 553.27 81.85 705.85 526.52 278.96 577.45 92.88 445.14 564.44 265.00 441.41 384.36 85.84 612.95 187.83 638.32 620.78 432.05 39.63 21.61 622.53 556.75 488.72 505.28 506.86 77.60 566.22 94.58 557.85 106.81 147.26 514.12 605.97 549.27 428.84 437.06 22.63 629.05 590.99 577.10 567.78 560.33 587.95 478.15 534.82 608.50 425.41 559.37 547.77 596.58 61.51 574.65 49.30 112.07 139.16 731.76 123.69 193.88 89.66 538.35 74.02 456.79 115.88 578.74 74.88 556.94 565.53 136.75 514.37 506.37 47.31 532.24 55.14 530.13 171.94 584.59 175.99 169.91 126.03 541.32 40.95 616.10 562.72 606.83 539.91 504.97 482.53 554.92 507.11 481.60 378.02 54.15 606.46 62.83 56.64 92.54 501.97 215.09 95.20 72.61 546.18 171.46 48.13 81.95 548.93 561.45 578.02 519.78 661.41 188.32 0.00 139.46 212.28 579.55 531.56 349.88 496.52 442.58 531.01 136.35 582.75 587.72 44.13 115.84 576.26 484.29 543.29 607.70 244.69 563.05 590.87 546.42 676.12 118.35 502.61 611.73 607.76 534.70 527.87 571.87 442.48 562.02 620.53 570.44 168.90 579.30 501.86 482.78 357.35 535.14 176.74 559.84 605.20 523.64 135.11 607.16 543.68 685.82 101.75 175.70 586.18 468.51 23.65 533.74 588.07 609.74 498.71 39.62
513.91 601.17 621.84 538.44 550.93 122.74 537.53 589.57 663.27 148.13 495.94 541.91 141.61 649.28 132.25 738.45 543.32 210.25 675.99 212.61 524.23 653.25 312.08 461.37 505.04 162.65 723.19 309.26 669.95 713.26 552.73 126.75 147.96 628.15 582.36 565.57 595.50 555.85 119.42 595.80 99.82 644.97 194.57 72.74 551.32 705.97 537.07 503.59 516.15 143.97 647.72 662.38 640.98 606.93 603.49 681.90 555.00 540.00 699.76 482.05 566.10 579.71 643.03 77.95 693.89 178.98 33.39 216.78 738.49 40.10 107.05 167.28 625.47 97.31 596.25 58.57 640.63 107.08 603.60 579.75 79.12 611.10 605.60 122.07 500.55 132.76 583.89 205.21 618.61 227.96 129.31 201.69 500.86 124.67 702.02 643.49 630.87 559.75 495.30 560.15 660.56 594.87 502.36 478.04 85.31 655.84 129.20 101.48 202.25 592.35 151.02 69.33 128.07 646.36 257.25 139.31 204.49 496.69 656.77 681.81 486.83 759.95 65.91 139.46 0.00 144.90 592.19 544.34 354.94 598.27 449.05 589.23 160.39 658.41 600.36 115.12 118.00 545.86 528.84 665.83 698.07 330.61 702.51 686.48 631.98 764.56 213.62 531.32 681.58 694.25 520.30 553.19 611.39 517.24 638.87 646.34 622.10 76.29 594.57 547.92 595.10 449.21 593.14 223.15 641.58 697.57 557.24 206.00 639.76 652.15 718.42 88.68 257.63 626.52 525.15 126.65 636.74 653.85 683.99 540.54 132.75
613.15 652.09 690.52 648.69 601.85 216.21 561.26 691.93 783.56 265.81 583.15 605.18 197.92 677.31 236.96 815.72 619.46 112.79 786.24 240.17 624.75 712.35 438.13 581.66 555.96 176.88 784.35 364.89 814.85 819.90 603.65 216.26 233.89 736.28 727.26 626.19 601.50 628.37 206.36 702.48 206.56 696.21 294.69 116.16 660.01 740.09 624.01 558.83 616.67 234.91 741.91 775.89 732.41 700.22 726.72 761.62 636.76 647.07 808.16 568.99 710.47 677.66 731.99 205.80 737.31 258.25 172.16 248.91 781.59 127.04 121.59 199.41 713.52 186.27 669.07 168.82 726.65 209.02 701.55 673.04 153.05 672.26 667.85 219.67 645.45 212.03 674.51 318.92 763.51 328.08 59.59 271.69 639.63 221.31 800.28 701.62 734.37 657.70 611.67 639.42 742.00 694.80 630.98 571.51 211.36 743.28 230.39 229.33 284.87 662.55 40.80 165.20 215.01 734.87 363.79 227.98 261.44 609.13 748.53 740.05 597.08 772.10 78.99 212.28 144.90 0.00 697.19 631.10 427.46 651.86 593.95 687.15 263.89 724.19 705.36 236.33 190.52 658.30 634.54 648.44 783.16 438.18 775.33 766.05 692.60 874.88 305.68 641.57 774.37 781.43 630.71 643.81 729.76 614.84 704.10 766.51 710.61 105.13 723.19 647.54 654.38 502.69 661.59 188.97 739.33 788.19 658.11 307.19 766.49 723.17 797.61 217.30 358.30 699.04 612.09 227.08 704.38 733.58 811.05 642.47 239.28
181.73 781.57 777.81 721.91 831.81 563.13 186.71 64.48 187.95 518.78 254.37 153.36 632.01 835.02 546.74 258.22 77.73 726.08 661.12 667.87 182.84 806.03 490.38 270.13 788.66 627.83 971.65 704.92 754.92 723.43 800.28 557.64 557.94 115.09 827.01 797.16 759.21 127.22 587.12 61.63 533.67 822.17 538.41 664.93 118.28 707.38 143.53 876.99 190.92 599.99 129.88 826.89 908.64 99.94 842.88 846.41 807.73 160.38 802.23 199.32 868.18 59.83 226.93 557.46 1015.41 620.57 603.23 676.74 1038.25 613.19 620.06 648.03 833.81 573.09 822.45 584.47 820.33 570.10 52.35 94.50 641.95 859.56 800.48 538.54 91.64 623.12 832.22 467.13 790.76 448.12 695.20 533.83 197.21 590.15 957.38 835.87 298.84 57.31 153.19 770.92 843.79 775.09 233.33 327.95 550.10 898.30 559.68 568.65 525.65 820.26 709.92 600.40 581.28 849.08 509.53 564.31 610.52 155.56 837.26 854.49 172.12 664.79 618.20 579.55 592.19 697.19 0.00 86.63 269.73 815.13 822.45 962.63 530.12 880.22 8.17 555.20 506.67 129.46 138.07 1054.40 324.97 457.46 834.85 825.05 840.16 810.47 499.84 197.22 859.87 858.76 164.75 801.52 896.63 215.54 844.39 87.36 846.66 644.34 108.23 131.86 805.87 730.79 819.30 723.79 899.09 869.89 127.80 519.23 255.72 882.93 263.17 535.99 540.37 127.52 156.22 582.29 946.90 870.83 725.38 132.12 578.90
97.44 742.83 791.84 650.61 749.66 519.01 110.65 108.43 218.57 438.15 213.15 66.73 545.38 805.90 466.11 293.27 21.34 669.69 626.61 581.24 144.10 764.81 405.08 219.25 731.74 567.23 949.71 618.29 712.02 725.94 743.89 511.82 509.95 169.22 783.11 750.24 788.19 40.59 530.73 114.89 477.28 775.32 451.78 605.56 61.36 666.16 117.72 790.36 136.02 524.74 191.96 783.99 867.42 126.93 799.98 803.51 760.81 95.61 792.74 112.69 818.21 90.07 216.01 501.07 964.37 537.36 543.35 590.11 990.60 554.64 563.67 571.01 792.59 514.40 747.00 524.00 779.11 503.98 119.88 138.27 568.67 844.80 769.17 495.12 43.79 536.49 822.11 410.74 747.86 452.31 636.41 447.20 140.82 510.24 916.16 811.06 305.21 110.03 68.90 778.50 802.14 723.12 146.70 271.56 493.71 857.08 499.25 512.26 439.02 770.38 652.98 539.93 524.89 816.05 470.46 520.89 523.89 106.35 795.61 813.27 133.40 602.72 552.11 531.56 544.34 631.10 86.63 0.00 213.34 821.51 735.82 876.00 460.26 839.00 94.80 503.32 450.28 131.08 57.44 967.77 306.39 370.83 791.95 813.59 809.22 767.57 413.21 127.73 848.41 815.86 110.40 792.67 855.41 140.09 802.67 135.41 805.44 578.25 121.95 75.47 781.46 644.16 797.94 650.94 883.04 826.99 70.33 449.74 218.32 871.88 295.28 475.52 453.74 165.31 69.59 517.48 860.27 829.61 682.48 73.24 492.27
227.56 682.81 659.32 452.18 652.29 335.80 237.14 274.29 392.16 317.95 155.69 193.22 371.84 697.07 296.37 442.34 192.00 484.85 589.73 422.83 235.19 667.22 313.83 190.26 606.40 358.10 832.56 507.89 753.40 729.14 595.44 322.63 343.84 312.91 678.25 660.53 698.48 200.91 320.20 294.35 263.94 683.36 377.50 409.11 232.55 608.70 270.41 702.59 227.11 354.29 314.45 729.38 737.03 298.12 690.82 709.86 649.96 238.32 716.70 270.77 751.49 293.16 402.55 303.09 897.07 382.58 333.50 430.13 915.27 343.46 391.07 380.63 695.00 303.36 591.20 314.74 681.52 300.37 301.62 273.79 372.22 727.10 681.99 320.70 234.77 375.55 709.24 197.40 714.50 313.22 425.47 372.92 269.88 323.51 790.58 673.24 424.08 296.44 239.83 647.89 708.20 598.65 225.77 291.71 295.73 732.71 289.95 314.28 336.42 719.74 448.83 330.67 311.55 710.32 319.34 332.29 383.31 241.97 714.73 715.68 180.87 673.69 348.47 349.88 354.94 427.46 269.73 213.34 0.00 675.63 672.71 812.89 260.39 708.61 277.90 317.99 236.94 291.14 235.18 844.65 361.44 345.66 771.90 727.37 649.97 797.73 338.93 225.36 756.38 729.67 218.36 702.96 744.36 208.07 685.07 348.75 694.39 374.61 333.86 246.13 618.84 552.83 706.50 456.45 771.43 752.25 230.65 278.92 413.56 762.38 422.31 266.26 365.17 271.58 239.72 346.62 816.67 718.00 744.15 215.01 341.48
810.01 94.35 124.46 223.45 142.70 519.24 788.99 844.15 830.99 591.97 679.16 775.67 515.60 90.37 572.64 770.42 838.25 753.16 361.00 499.25 693.08 127.50 482.62 713.73 168.74 521.30 163.56 497.88 249.28 243.34 178.75 510.86 509.85 874.79 165.74 87.51 55.92 828.89 528.70 811.56 582.72 118.28 443.75 621.68 839.12 287.60 875.75 203.62 701.16 497.05 879.81 177.28 117.99 872.20 168.81 176.77 98.08 817.31 231.47 748.84 96.20 832.09 790.91 544.49 262.87 447.22 605.19 534.97 239.64 600.56 685.74 518.79 99.72 562.15 180.26 604.01 141.80 536.40 802.28 859.50 612.48 51.47 113.80 517.14 812.92 493.44 33.61 630.12 188.27 583.35 592.27 420.75 887.84 506.29 167.78 132.36 737.81 846.13 805.76 174.55 154.27 178.51 691.05 627.68 550.67 141.87 544.39 534.53 480.55 51.13 680.84 587.06 522.84 123.12 550.46 508.75 486.62 853.22 147.74 162.12 852.87 433.22 655.17 496.52 598.27 651.86 815.13 821.51 675.63 0.00 209.02 272.63 567.13 117.77 823.30 533.80 597.40 869.99 764.07 299.00 647.78 500.40 204.46 173.85 126.03 261.08 454.74 863.30 170.39 158.71 860.51 45.08 108.52 787.17 90.93 899.62 98.86 629.03 885.49 814.46 167.79 243.46 85.03 468.45 140.44 188.17 835.13 538.05 756.41 124.28 790.45 571.58 532.64 877.45 767.59 515.51 268.97 125.17 249.40 796.24 508.67
762.87 251.97 202.96 309.17 236.78 419.86 774.95 768.61 883.06 500.72 656.38 754.26 451.33 252.81 478.99 882.25 756.82 564.28 446.72 434.98 730.01 244.38 387.46 681.16 196.85 428.02 309.75 333.93 374.89 382.44 165.91 402.95 424.16 823.86 307.28 217.10 202.24 695.23 478.80 788.67 475.54 236.10 460.41 521.79 734.13 391.70 777.87 54.54 738.09 445.49 864.73 301.98 288.14 799.70 287.86 293.65 227.67 762.69 348.35 744.77 259.15 793.70 847.54 451.75 249.02 414.97 482.44 355.99 415.65 489.15 556.10 405.49 216.60 473.14 294.69 507.62 258.68 447.39 797.95 819.07 503.05 221.62 225.63 422.05 779.61 440.01 209.62 566.66 319.62 550.73 553.78 482.07 816.07 439.49 290.33 261.02 823.53 802.84 773.12 253.63 280.50 270.36 726.46 583.87 457.50 302.13 457.55 438.95 473.89 157.89 578.41 499.53 471.15 249.83 523.45 431.93 454.37 760.99 287.03 279.94 788.27 530.68 514.96 442.58 449.05 593.95 822.45 735.82 672.71 209.02 0.00 140.18 533.49 278.03 830.62 426.98 496.06 791.31 760.05 244.85 725.22 393.21 344.20 291.22 264.78 377.96 448.08 782.37 289.98 305.92 778.25 240.32 279.12 762.47 229.68 871.23 257.87 525.34 857.77 805.28 274.55 119.88 254.40 422.51 293.30 305.05 724.97 478.21 871.32 277.14 867.87 476.49 477.62 837.59 787.87 427.98 195.39 287.42 373.86 727.88 453.19
883.09 290.91 309.34 440.28 330.34 553.73 879.49 908.79 952.60 613.64 796.56 848.75 543.59 254.92 596.89 949.72 897.00 704.46 530.45 467.90 799.74 259.87 527.64 821.34 322.89 535.76 226.91 343.18 374.90 413.33 306.09 543.13 544.34 964.04 312.30 253.07 276.02 835.41 563.19 928.85 574.47 243.73 534.19 647.68 874.31 413.00 918.05 128.32 791.66 531.54 1004.91 274.76 244.90 939.88 291.17 292.50 242.50 902.87 349.63 839.34 235.13 933.88 862.83 574.49 125.01 481.71 622.62 496.17 320.79 629.33 696.28 513.23 263.23 597.70 324.68 629.87 274.17 571.95 938.13 959.25 610.79 221.16 293.10 530.37 919.58 527.93 264.21 676.41 313.89 643.80 627.56 555.85 956.25 540.78 150.15 296.64 939.20 943.02 895.36 314.48 281.11 347.83 824.59 724.05 574.72 240.66 567.30 562.83 547.67 268.97 716.13 596.72 571.84 290.58 626.59 556.14 521.11 901.17 287.64 278.96 928.45 630.67 655.14 531.01 589.23 687.15 962.63 876.00 812.89 272.63 140.18 0.00 651.39 232.12 970.80 547.03 601.47 931.49 890.71 254.89 838.07 533.39 335.76 245.16 293.19 417.53 521.86 922.55 279.98 290.84 918.43 279.35 216.97 902.65 258.09 1011.41 266.94 663.52 992.15 873.64 349.43 260.06 300.80 562.69 211.10 298.79 865.15 551.99 897.33 227.26 969.75 584.81 617.80 977.77 858.09 550.00 55.21 241.51 376.27 868.06 543.16
419.90 616.84 619.95 541.06 566.60 113.63 432.26 533.27 578.26 57.56 416.08 437.97 179.31 637.37 54.50 609.04 452.39 333.52 645.76 226.79 377.44 651.25 261.59 385.36 520.71 165.57 727.05 308.21 725.95 720.14 568.40 130.54 141.71 562.31 671.93 594.25 623.05 461.30 127.67 551.78 86.93 635.11 169.38 216.14 472.94 595.73 516.32 541.72 385.52 156.54 574.84 694.98 631.52 538.51 650.80 699.27 603.25 436.06 726.88 401.93 652.20 550.33 559.68 139.25 708.56 185.65 139.97 237.60 731.68 164.42 227.50 188.10 629.26 113.26 593.14 101.82 645.74 121.31 542.50 524.17 179.25 618.60 597.28 121.02 495.16 183.02 600.74 62.99 679.33 119.94 254.27 146.38 495.30 145.69 685.07 653.63 470.48 548.24 391.36 560.10 668.62 569.68 425.55 450.97 131.89 627.20 87.64 127.43 160.69 606.58 224.25 156.07 119.02 661.56 188.76 118.39 184.65 487.29 675.15 670.37 441.26 703.56 184.90 136.35 160.39 263.89 530.12 460.26 260.39 567.13 533.49 651.39 0.00 603.10 536.38 118.21 73.37 503.44 433.05 645.99 581.99 227.34 677.30 691.59 634.12 756.69 180.37 476.71 657.71 712.12 478.75 612.21 630.56 454.90 607.76 595.67 644.34 202.16 569.85 489.38 583.16 453.00 612.88 263.92 662.54 717.71 463.42 118.80 568.58 646.38 629.07 98.07 142.93 531.97 445.03 132.79 642.88 612.49 731.12 436.60 158.00
821.00 134.55 129.73 256.43 184.79 563.74 799.16 884.23 829.16 627.94 625.85 795.86 595.32 88.42 608.61 764.83 837.98 795.25 393.98 586.96 725.64 74.19 508.20 660.42 230.68 578.47 123.95 544.13 189.93 226.51 230.80 546.83 568.02 876.73 146.76 155.36 122.69 854.89 600.84 874.35 618.69 63.85 479.72 674.26 854.54 231.63 862.74 236.30 717.56 571.70 878.27 109.70 28.42 886.16 143.74 101.13 158.81 849.73 164.84 740.93 97.14 882.52 789.08 580.46 219.11 554.90 641.16 601.74 269.53 662.98 730.30 555.94 83.35 617.27 227.43 652.61 88.49 594.69 865.07 870.21 653.50 83.09 108.21 553.11 795.21 573.16 101.98 666.09 154.78 611.98 709.32 456.72 932.27 568.71 81.97 103.74 759.32 900.81 842.47 189.73 73.63 204.52 695.93 639.92 587.82 24.10 580.36 570.50 516.52 120.14 720.03 626.63 592.19 58.46 521.35 544.72 515.50 896.23 80.16 67.27 843.26 423.19 707.27 582.75 658.41 724.19 880.22 839.00 708.61 117.77 278.03 232.12 603.10 0.00 888.39 569.77 633.37 873.96 822.03 276.73 675.91 542.45 137.33 89.43 105.61 238.33 490.71 887.75 54.61 109.02 892.93 132.11 58.01 834.34 91.20 924.61 55.12 702.57 902.07 816.09 154.78 312.47 136.98 535.22 62.82 116.86 845.02 574.02 754.58 53.77 784.86 607.55 545.64 835.40 769.58 570.06 238.12 9.39 193.29 842.72 550.74
173.56 773.40 769.64 730.08 823.64 571.30 194.88 72.65 179.78 526.95 262.54 161.53 640.18 843.19 554.91 266.39 85.90 734.25 652.95 676.04 174.67 814.20 498.55 261.96 791.33 636.00 979.82 706.73 763.09 731.60 797.80 565.81 566.11 123.26 835.18 805.33 767.38 135.39 595.29 69.06 541.84 830.34 541.28 673.10 122.96 715.55 148.69 885.16 182.75 608.16 137.31 835.06 916.81 108.11 851.05 854.58 815.90 164.82 810.40 207.49 869.82 68.00 235.10 565.63 1007.24 626.86 611.40 684.91 1042.21 621.36 628.23 656.20 841.98 581.26 814.28 592.64 828.50 578.27 59.78 99.66 650.12 867.73 792.31 546.71 99.81 631.29 840.39 475.30 798.93 456.29 703.37 542.00 202.47 598.32 965.55 827.70 292.89 62.47 145.02 778.35 851.22 783.26 225.32 336.12 558.27 906.47 567.85 576.82 533.82 828.43 718.09 608.57 589.45 840.91 501.36 572.48 618.69 147.39 844.69 850.68 180.29 669.47 626.37 587.72 600.36 705.36 8.17 94.80 277.90 823.30 830.62 970.80 536.38 888.39 0.00 563.37 514.84 134.62 146.24 1062.57 333.14 465.63 843.02 816.88 831.99 818.64 508.01 202.38 851.70 862.56 171.00 809.69 904.80 207.37 836.22 81.41 854.83 652.51 100.06 140.03 813.30 738.96 821.08 731.96 907.26 870.51 121.94 511.06 247.55 891.10 255.00 544.16 536.83 133.04 164.39 590.46 955.07 879.00 733.55 140.29 587.07
445.78 524.62 527.73 483.74 474.38 21.41 507.12 536.11 612.03 86.47 433.13 480.12 88.57 558.96 63.71 690.93 509.99 288.38 621.29 128.60 427.37 550.53 249.54 410.76 428.49 96.80 656.79 203.85 640.77 638.27 476.18 24.03 45.24 591.36 590.79 520.31 528.91 462.73 62.82 556.17 82.23 542.25 99.18 148.76 501.63 590.85 518.62 437.36 419.29 58.35 632.23 608.13 598.19 567.20 581.17 599.80 509.74 507.58 621.80 449.04 547.84 561.20 611.51 37.17 610.37 93.14 97.87 162.08 720.23 123.99 197.28 112.58 522.75 65.79 500.92 82.84 564.83 40.04 564.00 567.65 128.23 558.50 505.06 16.66 499.98 97.14 567.41 139.68 597.89 145.34 176.74 113.05 512.50 34.95 633.02 561.41 588.69 570.34 474.32 478.40 576.40 499.48 450.95 376.71 39.67 593.87 30.57 42.09 94.89 525.31 199.49 93.61 66.61 555.98 173.81 33.21 123.63 518.28 582.93 586.09 492.51 656.58 163.98 44.13 115.12 236.33 555.20 503.32 317.99 533.80 426.98 547.03 118.21 569.77 563.37 0.00 81.05 553.36 454.34 584.97 597.70 230.24 607.18 597.37 545.11 684.11 98.50 488.06 596.13 612.07 504.05 562.74 593.13 411.83 546.70 636.22 555.57 154.42 576.98 515.16 513.35 346.49 527.16 195.15 601.52 611.20 492.47 90.98 592.24 585.36 670.90 71.09 145.83 589.57 477.21 40.57 550.66 579.16 624.69 486.51 52.92
464.48 561.18 605.18 552.82 545.28 98.86 474.08 511.23 607.39 88.28 392.63 430.16 162.29 607.85 59.43 625.20 428.94 260.15 676.48 197.88 434.95 619.61 256.16 405.49 500.20 166.39 725.87 270.95 702.91 691.64 547.89 93.11 114.32 549.85 625.04 587.41 597.99 437.85 118.14 531.29 27.00 611.32 153.65 172.17 469.49 662.63 507.35 504.46 426.87 127.63 551.39 673.07 649.97 535.06 616.17 668.88 576.84 475.26 702.85 453.21 614.94 530.10 612.14 88.48 679.65 162.22 96.56 224.15 762.40 106.52 154.13 174.65 591.83 66.42 572.63 77.80 623.83 63.43 538.56 510.73 135.28 630.21 582.51 83.76 471.71 140.13 600.43 136.36 650.59 140.07 188.53 176.65 506.82 116.00 696.58 584.02 543.85 533.38 435.94 540.54 650.51 553.95 443.00 454.16 81.12 657.47 53.01 99.67 126.06 548.70 211.89 93.73 119.84 621.10 204.98 95.35 157.74 478.91 657.04 655.16 417.81 709.95 111.53 115.84 118.00 190.52 506.67 450.28 236.94 597.40 496.06 601.47 73.37 633.37 514.84 81.05 0.00 528.08 468.10 619.08 598.38 258.51 678.89 666.45 560.75 696.76 151.87 462.30 665.21 676.28 455.30 629.84 660.23 445.01 595.85 585.69 611.24 137.67 535.21 483.07 548.53 415.57 594.26 236.86 635.63 680.28 467.59 127.45 580.40 619.47 645.23 29.32 203.34 508.52 476.66 118.02 579.73 637.17 705.74 451.95 133.97
128.12 792.09 788.42 712.44 785.99 561.29 173.20 85.42 264.61 490.43 279.32 151.68 566.14 840.46 518.39 269.96 110.27 696.70 675.68 636.60 225.20 823.82 475.63 278.75 740.10 589.45 971.31 714.61 789.75 806.49 787.79 555.80 554.65 111.31 841.40 814.88 832.10 96.08 591.79 97.21 526.65 839.96 498.99 587.33 69.72 732.33 34.74 845.85 217.12 583.94 102.15 868.25 889.10 62.14 841.86 856.19 804.31 100.40 875.51 190.82 814.22 81.53 302.30 564.08 1026.92 584.57 571.72 656.60 986.61 531.71 637.78 611.98 841.00 561.20 748.44 545.93 838.12 537.44 92.18 34.96 570.73 859.22 765.75 536.70 132.50 588.30 865.17 440.45 805.15 478.89 643.90 521.99 104.25 585.03 950.14 822.10 382.36 72.15 122.79 777.65 864.80 778.61 259.26 320.01 556.72 898.06 549.56 565.80 483.72 818.86 688.10 569.87 583.14 856.46 498.93 562.47 598.68 49.17 870.30 872.28 117.67 616.23 604.71 576.26 545.86 658.30 129.46 131.08 291.14 869.99 791.31 931.49 503.44 873.96 134.62 553.36 528.08 0.00 109.72 1024.60 345.91 465.71 869.68 882.06 805.80 886.81 509.53 119.83 902.71 836.38 72.78 834.47 859.51 141.53 832.62 170.88 856.29 622.15 191.47 164.40 742.70 739.04 794.52 687.80 889.70 867.69 66.34 499.97 291.55 905.86 289.99 529.41 491.39 85.24 150.69 560.19 945.22 879.25 813.56 77.55 585.40
70.23 723.28 772.29 602.72 739.40 461.57 73.28 111.41 275.21 380.71 196.18 41.96 535.49 811.83 408.67 341.38 78.78 659.34 589.24 569.38 124.55 747.84 428.47 211.84 736.13 521.75 916.53 624.87 740.08 696.77 723.36 456.78 477.99 169.95 755.29 772.15 773.99 64.82 483.85 158.26 441.10 763.98 441.10 550.01 76.97 649.19 123.96 814.59 128.78 499.13 207.57 811.38 850.45 142.54 776.42 797.11 771.69 53.24 775.57 81.10 815.26 144.11 252.27 475.67 927.00 525.89 495.45 593.78 970.70 518.59 557.48 544.28 775.62 472.29 701.40 496.79 762.14 446.54 153.28 122.10 513.12 807.72 749.62 437.68 101.23 531.17 764.67 432.58 736.17 476.04 597.76 464.10 159.55 489.29 898.84 794.09 328.62 145.64 41.69 758.09 788.82 716.90 175.20 251.03 482.03 840.11 441.81 470.14 438.34 712.94 617.76 512.72 475.20 799.08 443.25 463.45 538.82 104.47 795.35 796.30 88.80 545.28 579.63 484.29 528.84 634.54 138.07 57.44 235.18 764.07 760.05 890.71 433.05 822.03 146.24 454.34 468.10 109.72 0.00 979.22 295.80 428.27 809.58 807.99 789.67 825.01 462.39 121.86 837.86 816.92 96.44 795.37 838.44 94.49 786.10 192.85 788.47 565.54 179.39 94.76 748.19 696.05 778.39 593.50 866.07 839.50 71.06 442.08 275.76 854.91 321.35 448.31 433.50 179.40 74.51 480.73 835.50 812.64 739.92 32.17 486.95
931.90 347.84 345.31 504.70 351.54 566.01 987.44 1013.46 1063.56 620.34 896.87 966.24 551.16 322.82 591.49 979.26 989.11 761.23 622.41 550.62 907.69 350.92 627.95 921.65 357.94 545.90 225.38 578.78 458.12 452.18 405.63 560.94 539.73 1068.71 399.57 296.35 296.23 940.08 572.42 1020.40 623.92 340.58 561.03 647.45 978.98 496.44 1022.72 190.31 899.61 530.17 1088.65 361.93 248.31 1044.55 387.45 362.34 306.92 1002.51 441.57 943.53 265.50 1038.55 1014.05 596.19 150.42 500.74 639.90 533.05 278.74 649.58 718.48 535.63 344.93 600.46 389.10 642.32 356.68 593.00 1011.12 1059.56 610.56 284.20 322.64 580.04 1011.56 533.07 284.62 702.00 397.11 661.27 679.02 538.03 929.83 558.51 302.14 347.45 1012.78 1047.69 960.44 383.39 332.25 401.72 899.89 828.72 597.44 290.85 606.12 591.87 597.83 321.26 689.24 625.47 581.07 335.19 676.75 560.59 461.34 984.91 332.39 344.00 1018.68 642.06 694.80 543.29 665.83 648.44 1054.40 967.77 844.65 299.00 244.85 254.89 645.99 276.73 1062.57 584.97 619.08 1024.60 979.22 0.00 901.27 596.94 389.56 361.66 337.53 502.63 572.02 974.35 331.34 382.15 989.87 253.92 277.90 966.20 340.27 1103.18 311.02 668.66 1057.60 1002.78 398.40 360.37 293.87 466.53 288.73 382.53 969.82 571.30 988.98 281.73 999.29 626.62 649.92 1082.44 959.90 553.92 206.43 286.12 442.71 947.05 540.54
288.18 553.43 602.44 425.01 573.03 589.43 297.76 260.49 234.37 549.94 205.75 253.84 637.07 664.68 578.79 248.19 288.28 845.98 562.56 652.16 225.08 637.84 401.71 240.32 579.23 646.54 789.40 670.64 656.10 612.79 559.31 606.34 586.09 369.13 651.08 604.92 642.87 265.80 608.64 311.64 611.22 653.98 528.03 667.00 304.70 658.76 348.44 766.08 217.00 604.94 374.47 700.71 704.33 314.21 655.88 682.69 601.84 334.37 691.59 264.68 698.24 293.19 174.56 623.74 828.05 600.13 664.68 694.05 870.63 683.19 741.06 644.55 646.57 632.33 564.03 670.84 651.47 615.77 302.36 310.95 682.35 677.31 579.77 591.94 331.05 646.35 678.05 558.84 687.33 505.74 723.57 551.03 386.64 620.03 757.88 636.12 111.51 294.72 300.45 620.72 678.15 571.48 275.73 288.48 628.48 700.01 588.21 618.92 515.16 664.13 777.80 674.21 599.99 670.48 497.70 582.19 627.72 331.56 684.32 686.30 348.07 603.15 707.95 607.70 698.07 783.16 324.97 306.39 361.44 647.78 725.22 838.07 581.99 675.91 333.14 597.70 598.38 345.91 295.80 901.27 0.00 367.46 725.60 697.32 619.82 741.34 540.97 352.94 719.95 702.50 348.82 647.35 717.19 327.20 646.64 322.99 667.22 721.08 337.86 315.88 591.67 629.32 608.54 712.61 738.73 725.08 295.54 545.31 190.37 729.68 268.22 622.36 451.87 331.60 283.43 602.66 782.86 685.30 656.25 298.45 627.87
421.73 429.07 478.08 451.03 378.83 221.97 421.74 479.26 562.87 182.48 376.92 431.50 291.66 530.06 211.33 525.66 392.17 478.52 588.58 284.70 426.93 509.80 34.25 360.97 424.72 279.08 642.07 303.18 571.61 547.90 449.70 238.88 247.08 540.05 531.60 429.36 467.31 411.42 241.18 485.72 243.76 523.35 160.57 351.78 432.19 404.12 444.98 443.39 435.01 237.48 562.79 491.83 514.03 497.76 531.52 492.24 418.79 409.48 582.51 391.56 520.32 460.90 475.91 267.41 637.87 232.67 297.22 326.59 637.56 315.73 403.08 277.09 522.21 274.06 464.34 303.38 495.50 248.31 490.71 489.85 314.89 529.98 455.41 224.48 414.62 278.89 502.49 290.33 565.32 231.47 384.56 183.57 469.93 254.03 608.78 511.76 478.97 480.86 439.73 421.24 468.82 476.62 376.28 253.80 261.02 547.33 234.74 256.94 199.33 465.66 414.34 307.48 232.53 543.71 130.24 214.73 260.26 416.54 462.29 487.33 449.94 484.28 370.04 244.69 330.61 438.18 457.46 370.83 345.66 500.40 393.21 533.39 227.34 542.45 465.63 230.24 258.51 465.71 428.27 596.94 367.46 0.00 519.46 504.77 489.96 593.15 185.29 447.19 528.89 512.05 392.93 471.79 538.45 369.26 502.66 506.24 537.26 353.62 492.78 446.30 456.19 273.33 473.92 345.15 554.45 523.83 441.16 182.01 510.41 547.45 545.69 254.90 84.41 533.47 434.66 241.13 588.46 533.06 542.07 444.07 266.34
808.55 188.06 170.01 319.72 213.01 585.77 786.71 869.08 805.72 666.63 656.34 808.80 615.83 156.25 644.90 818.34 813.29 823.47 376.91 621.35 756.13 104.68 528.25 690.91 258.90 628.82 242.06 562.20 79.93 112.81 248.80 602.68 584.66 892.12 131.34 172.23 210.18 832.54 640.65 851.36 657.63 118.23 553.92 710.31 853.31 233.53 883.75 345.20 748.05 585.68 919.61 61.00 141.25 861.90 115.41 65.56 182.80 829.20 63.05 728.48 184.63 866.56 731.97 624.56 307.08 569.32 675.12 677.69 332.47 686.74 756.93 628.19 127.60 637.07 231.30 678.93 90.38 637.93 842.08 834.72 699.80 195.15 161.72 610.36 825.70 593.67 214.25 725.13 140.94 693.31 732.96 530.92 888.04 604.00 219.30 122.06 813.70 871.91 829.32 216.35 63.70 207.58 726.42 626.08 617.20 142.21 625.88 619.69 590.72 231.44 778.14 658.25 635.66 138.59 613.51 611.18 607.61 832.96 57.17 82.21 872.85 409.44 751.37 563.05 702.51 775.33 834.85 791.95 771.90 204.46 344.20 335.76 677.30 137.33 843.02 607.18 678.89 869.68 809.58 389.56 725.60 519.46 0.00 90.60 145.33 113.07 564.91 898.07 104.61 45.75 856.57 186.53 139.34 838.21 134.03 895.35 132.14 729.26 913.90 824.20 227.27 354.89 173.30 622.71 180.58 42.15 862.28 648.22 766.47 172.51 808.07 664.80 593.19 892.02 762.30 586.70 356.67 127.94 109.47 835.44 602.67
806.96 144.56 140.89 275.19 194.80 590.25 785.12 869.26 848.28 671.11 611.81 781.82 588.08 108.29 649.38 774.84 823.94 805.26 391.35 593.60 711.60 60.15 539.02 646.38 240.69 589.17 178.28 513.79 160.65 174.57 234.11 573.34 594.55 904.79 104.12 158.68 184.10 840.85 621.27 836.67 645.93 76.29 557.67 701.09 861.43 218.84 882.74 296.79 703.52 591.40 904.92 29.60 113.35 883.35 89.29 47.34 168.82 797.80 104.47 726.89 143.44 857.20 808.95 622.14 308.54 541.57 679.60 610.19 311.68 683.72 763.93 566.64 74.62 654.01 204.08 679.19 45.85 628.26 827.39 856.17 664.20 147.19 118.22 592.44 781.17 565.92 145.77 699.01 130.80 670.35 725.28 546.15 887.97 600.64 171.40 106.40 771.76 871.24 823.33 206.47 35.95 181.46 681.89 597.47 627.89 93.80 627.94 609.34 579.40 197.50 748.80 669.92 629.92 90.18 565.10 602.32 576.50 832.89 42.48 33.80 824.44 385.51 727.65 590.87 686.48 766.05 825.05 813.59 727.37 173.85 291.22 245.16 691.59 89.43 816.88 597.37 666.45 882.06 807.99 361.66 697.32 504.77 90.60 0.00 108.93 172.37 580.14 866.67 34.82 45.68 841.00 148.61 124.96 810.99 98.57 898.29 74.99 701.51 904.01 816.82 200.01 332.06 131.47 596.63 125.55 53.63 851.91 606.88 774.45 114.77 781.95 646.88 548.66 902.56 766.74 598.37 300.37 80.04 131.11 839.88 603.02
782.05 66.39 62.35 197.79 116.63 523.70 746.30 873.98 777.26 604.56 618.37 747.71 526.97 47.10 582.83 696.67 810.29 727.09 335.34 536.19 665.12 66.71 461.21 652.94 162.52 550.28 189.95 488.98 151.88 190.34 157.29 540.61 551.78 869.37 64.29 66.41 104.36 806.74 569.86 837.59 587.75 50.57 519.48 659.18 830.81 253.44 840.54 250.30 673.20 543.34 907.95 112.32 89.22 867.94 63.27 115.98 76.98 836.44 173.09 720.88 114.56 862.41 737.18 582.28 324.72 551.60 613.05 581.32 286.95 591.88 707.48 531.82 59.05 595.49 159.16 627.95 63.08 585.15 846.87 840.76 629.38 86.00 40.05 548.29 784.96 549.13 116.77 664.89 91.94 617.88 633.01 496.48 866.74 555.76 173.94 23.27 712.15 875.14 792.08 128.30 89.76 135.73 669.95 577.08 584.63 110.78 575.68 566.08 529.85 125.62 713.05 614.41 561.21 60.35 529.36 554.38 573.17 832.12 96.29 94.41 830.84 419.30 664.88 546.42 631.98 692.60 840.16 809.22 649.97 126.03 264.78 293.19 634.12 105.61 831.99 545.11 560.75 805.80 789.67 337.53 619.82 489.96 145.33 108.93 0.00 220.41 530.47 848.54 114.19 115.53 855.73 90.49 100.46 766.07 35.10 857.23 50.49 683.15 850.17 786.50 141.77 251.16 67.15 516.89 129.64 144.00 836.48 587.35 702.68 122.64 716.70 590.07 545.47 891.04 739.63 542.86 313.56 96.22 157.32 812.77 568.07
808.01 254.50 249.64 377.06 304.74 676.99 802.45 849.12 820.08 731.04 642.04 812.05 704.77 197.57 702.19 811.70 788.91 915.20 356.92 688.59 741.83 189.14 627.40 676.61 337.04 718.91 348.56 622.14 97.06 128.55 342.96 660.08 681.29 866.09 182.20 255.69 273.38 808.16 699.98 797.97 669.76 180.86 653.54 814.03 828.93 189.03 884.71 403.55 733.75 698.75 883.92 174.07 254.32 862.90 161.07 178.63 266.26 863.18 110.01 744.22 252.51 822.79 816.02 708.88 420.15 682.39 739.32 733.95 424.90 749.28 848.98 696.38 161.36 712.96 238.04 729.38 203.44 715.00 807.25 851.85 777.14 236.47 236.61 679.18 811.36 706.74 267.24 770.79 150.47 757.30 822.29 643.99 908.39 674.83 284.93 201.07 788.01 842.75 836.47 279.44 176.77 253.24 712.12 635.61 714.63 251.11 714.68 696.08 651.18 305.48 835.54 745.31 691.33 194.59 671.89 689.06 720.68 873.92 170.24 191.11 859.45 296.37 808.29 676.12 764.56 874.88 810.47 767.57 797.73 261.08 377.96 417.53 756.69 238.33 818.64 684.11 696.76 886.81 825.01 502.63 741.34 593.15 113.07 172.37 220.41 0.00 668.32 895.30 203.98 158.82 877.97 252.37 252.41 844.95 185.31 897.83 202.63 815.02 889.52 843.04 272.93 432.30 231.71 685.91 282.37 141.52 837.90 708.68 781.52 279.41 791.67 680.90 639.54 882.42 787.32 685.11 457.67 228.94 85.09 840.81 678.89
409.44 466.76 515.77 512.84 416.52 115.52 454.08 521.64 595.16 137.23 406.98 434.38 147.72 524.98 132.00 693.63 434.55 370.31 591.33 168.03 419.70 538.86 151.04 420.53 370.63 171.03 614.66 205.08 583.08 539.77 418.32 98.61 96.74 578.53 537.05 474.99 510.66 453.80 161.32 528.10 150.52 522.72 38.57 243.12 474.57 578.51 530.93 393.54 411.62 130.55 600.93 597.36 519.13 535.90 515.92 588.13 464.42 482.68 618.57 430.77 550.94 503.28 601.94 135.67 588.02 124.15 196.37 176.90 694.38 210.62 283.54 184.97 519.32 134.29 496.26 176.15 548.12 132.53 533.09 508.72 215.67 506.21 493.10 107.58 457.00 158.63 488.35 189.35 548.52 155.11 251.09 33.99 553.17 130.68 572.68 549.45 585.39 523.24 437.98 462.02 564.34 438.87 460.72 415.48 138.17 514.81 98.86 134.61 25.81 472.12 274.07 184.86 162.19 549.17 104.73 121.99 110.68 517.99 570.87 557.98 465.17 558.08 261.52 118.35 213.62 305.68 499.84 413.21 338.93 454.74 448.08 521.86 180.37 490.71 508.01 98.50 151.87 509.53 462.39 572.02 540.97 185.29 564.91 580.14 530.47 668.32 0.00 508.65 545.32 599.73 497.56 499.82 548.72 502.75 495.37 548.62 531.95 236.35 535.16 449.78 458.61 383.44 521.87 237.97 553.53 607.06 483.54 83.31 603.69 544.48 673.60 139.38 127.46 566.02 387.88 113.31 543.91 500.10 583.23 431.98 128.01
112.28 782.15 814.99 677.54 788.68 489.94 152.83 152.38 266.45 419.15 261.90 138.72 541.67 874.58 448.00 337.72 127.30 636.97 668.79 558.15 183.42 813.56 444.10 270.71 757.13 529.46 994.98 665.62 839.75 808.02 776.42 481.97 498.11 179.07 817.25 810.04 847.99 87.14 501.54 169.22 470.84 829.70 483.15 568.81 86.75 714.91 106.31 836.91 175.34 510.99 189.60 837.07 916.17 129.90 838.38 844.67 799.47 68.87 886.82 192.35 844.15 150.92 324.52 469.50 1006.55 539.28 510.90 601.49 1016.54 548.84 616.43 551.99 841.34 496.34 717.29 472.75 827.86 484.26 159.94 102.72 551.56 889.15 808.49 478.43 169.10 542.40 883.17 422.76 813.42 495.92 625.38 506.15 44.52 480.21 964.91 859.81 375.18 139.91 102.42 773.98 854.54 769.67 234.07 328.28 464.52 895.13 480.53 445.97 482.84 834.80 641.81 525.94 510.19 864.80 403.92 493.57 576.50 70.66 860.17 835.13 44.49 633.26 573.83 502.61 531.32 641.57 197.22 127.73 225.36 863.30 782.37 922.55 476.71 887.75 202.38 488.06 462.30 119.83 121.86 974.35 352.94 447.19 898.07 866.67 848.54 895.30 508.65 0.00 876.69 857.87 54.26 852.47 889.44 110.38 844.97 243.11 854.19 573.09 249.68 152.15 763.82 711.68 837.26 627.30 919.63 880.07 96.27 484.13 341.03 920.63 336.98 481.98 449.75 146.73 162.83 489.86 932.26 878.36 810.21 89.69 498.18
836.83 166.52 141.06 304.20 216.76 589.01 814.99 893.38 850.33 669.87 641.68 811.69 594.62 109.59 648.14 803.89 853.81 827.22 426.17 600.61 741.47 90.02 552.62 676.25 261.87 614.30 162.08 521.55 182.39 209.39 254.98 572.10 593.31 928.91 138.94 167.71 177.30 870.72 646.58 860.79 644.69 78.16 534.33 726.05 872.88 242.96 898.57 282.10 733.39 610.51 929.04 64.42 83.03 913.22 120.25 46.52 168.08 822.32 139.29 756.76 115.48 881.32 810.25 620.90 273.72 566.67 678.36 641.27 287.87 682.98 765.87 591.77 73.38 652.77 238.76 677.95 80.67 627.02 851.51 886.04 689.16 118.92 147.27 591.20 811.04 594.63 156.59 720.70 129.98 650.80 734.31 511.33 908.62 608.64 136.58 90.92 762.76 895.36 840.98 203.75 64.66 206.67 711.76 615.12 626.65 62.23 626.70 608.10 571.13 174.75 747.56 668.68 640.30 69.79 557.18 599.33 541.68 853.54 66.60 41.56 832.20 414.22 747.49 611.73 681.58 774.37 859.87 848.41 756.38 170.39 289.98 279.98 657.71 54.61 851.70 596.13 665.21 902.71 837.86 331.34 719.95 528.89 104.61 34.82 114.19 203.98 545.32 876.69 0.00 66.33 865.52 164.39 106.74 845.67 97.33 933.11 90.95 730.22 923.24 836.53 190.61 344.32 143.73 589.83 90.73 62.46 863.36 614.64 775.75 79.95 812.91 645.64 583.48 890.01 783.89 597.13 273.95 45.22 165.93 857.03 605.35
815.89 153.49 149.82 277.49 203.73 604.95 793.90 876.54 851.47 685.81 620.74 790.75 604.97 125.53 664.08 783.77 832.87 814.19 405.21 610.49 720.53 69.08 546.30 655.31 249.62 617.96 213.84 533.98 125.68 153.02 230.63 588.04 609.25 912.07 111.89 175.57 193.50 849.78 638.16 843.95 660.63 85.22 577.86 715.49 841.84 226.12 862.87 316.98 712.45 590.86 912.20 31.87 133.84 892.28 130.63 19.81 177.75 795.61 74.22 735.82 167.08 864.48 777.72 636.84 291.46 558.46 694.30 654.40 286.72 692.65 780.82 604.90 89.32 668.71 211.85 693.89 72.92 642.96 834.67 865.10 702.46 164.43 127.15 607.14 790.10 582.81 191.45 740.35 103.27 682.95 742.17 565.74 842.29 617.53 190.99 115.33 780.69 878.52 814.27 175.51 52.84 207.44 690.82 588.41 637.48 113.99 642.64 624.04 607.32 209.84 763.50 684.62 646.81 106.26 585.29 617.02 597.86 787.21 49.76 53.99 838.15 402.40 744.54 607.76 694.25 781.43 858.76 815.86 729.67 158.71 305.92 290.84 712.12 109.02 862.56 612.07 676.28 836.38 816.92 382.15 702.50 512.05 45.75 45.68 115.53 158.82 599.73 857.87 66.33 0.00 810.82 175.68 131.60 818.76 112.57 932.01 109.71 718.40 912.94 809.82 210.46 340.82 140.23 606.03 153.06 31.31 847.76 627.07 791.69 146.28 803.80 661.58 575.73 909.84 775.67 613.07 328.36 99.63 133.38 831.52 619.91
107.46 806.57 796.83 670.54 763.01 511.98 138.31 127.29 276.48 473.41 292.62 125.25 540.58 872.69 502.26 331.34 96.20 670.16 654.27 612.41 207.84 844.28 418.43 295.13 746.85 563.89 989.13 674.58 822.42 793.21 771.60 506.49 517.93 155.07 799.09 789.32 827.27 83.02 521.06 122.72 482.30 844.45 478.33 514.55 78.24 726.44 52.05 832.79 205.15 548.84 174.93 811.40 891.45 124.10 820.22 819.00 778.75 43.20 872.01 177.54 832.04 104.92 300.41 493.79 992.03 563.91 525.67 607.29 1004.43 549.02 589.15 582.74 863.95 490.41 699.13 503.91 857.36 464.66 132.00 96.92 551.44 877.04 819.50 487.39 138.97 562.74 861.11 415.76 793.83 467.24 571.12 501.33 77.71 529.09 967.96 849.98 387.04 124.88 87.90 755.82 847.47 762.92 255.57 308.69 501.15 911.01 498.33 500.23 471.75 809.38 635.88 515.95 529.71 868.10 456.91 513.16 578.02 23.61 840.94 857.09 75.65 624.75 566.83 534.70 520.30 630.71 164.75 110.40 218.36 860.51 778.25 918.43 478.75 892.93 171.00 504.05 455.30 72.78 96.44 989.87 348.82 392.93 856.57 841.00 855.73 877.97 497.56 54.26 865.52 810.82 0.00 831.75 877.33 92.22 862.62 229.34 878.66 592.47 232.35 150.33 738.15 666.26 837.05 638.09 907.52 842.13 84.16 479.31 308.86 923.68 311.31 484.62 470.73 140.54 138.72 531.14 918.79 883.54 792.88 65.58 547.06
809.58 93.92 91.39 250.78 97.62 550.59 788.56 799.07 825.65 627.18 662.93 775.24 534.53 96.09 598.33 725.34 814.01 708.08 368.49 544.33 692.65 111.27 437.54 689.77 143.51 511.22 170.28 461.42 204.20 198.26 165.14 547.19 525.98 829.71 154.45 42.43 42.31 830.33 545.88 766.48 611.66 110.51 488.83 625.93 813.89 242.52 848.88 190.01 700.73 542.13 834.73 152.00 124.71 827.12 133.53 156.29 53.00 812.77 209.61 748.41 93.29 787.01 783.97 570.60 240.62 492.30 586.58 521.36 236.73 567.90 660.24 504.62 91.01 576.48 135.18 611.76 102.76 567.70 757.20 814.42 598.87 58.19 68.72 546.08 812.49 538.52 30.70 640.91 143.19 572.79 609.03 465.83 842.76 551.37 164.87 93.53 758.86 801.05 808.46 129.47 129.44 147.80 645.97 582.60 565.62 137.28 583.01 547.07 518.49 82.43 684.61 605.65 537.23 101.25 505.38 553.83 531.70 808.14 135.97 147.59 822.77 388.14 619.10 527.87 553.19 643.81 801.52 792.67 702.96 45.08 240.32 279.35 612.21 132.11 809.69 562.74 629.84 834.47 795.37 253.92 647.35 471.79 186.53 148.61 90.49 252.37 499.82 852.47 164.39 175.68 831.75 0.00 105.61 742.09 86.35 854.54 76.99 629.48 885.06 804.01 144.48 239.50 39.95 454.84 146.85 144.38 823.41 575.99 751.07 154.93 745.37 600.52 546.64 832.37 767.16 551.52 285.75 122.72 208.57 811.98 549.77
836.93 166.85 145.50 292.18 192.91 588.16 815.57 868.32 824.01 659.74 642.26 812.27 576.19 83.27 632.34 797.13 843.24 791.54 429.73 561.37 742.05 90.60 509.37 676.83 220.48 552.88 149.20 502.55 219.27 234.81 172.79 587.58 589.44 892.06 163.17 131.35 147.92 822.91 602.07 872.09 642.05 83.49 537.73 664.80 802.69 264.01 846.07 224.58 733.97 576.26 933.29 143.21 29.59 868.26 147.46 133.33 141.92 847.28 202.39 757.34 45.29 892.62 783.93 608.48 264.77 544.94 643.15 579.85 217.68 651.49 718.44 530.35 91.24 634.97 214.18 667.25 104.90 611.91 862.81 886.62 627.91 57.50 140.51 576.47 811.62 564.87 74.91 621.37 186.47 553.97 697.95 514.73 908.80 561.76 94.82 107.46 778.96 877.99 858.88 216.34 113.53 199.37 712.34 645.12 615.50 61.73 613.40 608.13 574.53 126.64 721.20 635.58 593.42 74.23 533.46 568.45 511.05 853.72 113.67 121.73 859.67 463.09 677.30 571.87 611.39 729.76 896.63 855.41 744.36 108.52 279.12 216.97 630.56 58.01 904.80 593.13 660.23 859.51 838.44 277.90 717.19 538.45 139.34 124.96 100.46 252.41 548.72 889.44 106.74 131.60 877.33 105.61 0.00 821.09 86.55 922.62 49.97 685.75 896.92 847.27 182.05 265.12 132.95 560.45 41.24 153.23 793.17 585.23 749.43 49.32 817.16 630.91 487.63 893.41 789.22 569.00 244.74 61.52 223.99 847.49 543.79
107.70 737.50 704.61 657.24 712.01 419.76 117.28 198.25 302.64 397.34 240.16 73.36 497.24 780.47 426.19 390.82 161.43 636.84 633.24 526.87 155.95 776.34 403.51 243.24 696.67 495.15 912.37 582.36 784.06 740.75 744.36 414.27 435.48 216.97 706.87 699.66 737.61 132.39 474.65 193.53 458.62 773.39 478.57 543.63 156.46 693.17 106.79 812.65 164.03 456.62 239.94 786.89 836.18 183.00 728.00 806.41 689.09 135.42 819.55 125.08 775.80 192.97 296.25 439.29 971.00 483.38 499.99 515.07 948.19 523.84 530.82 510.93 792.89 462.50 606.91 494.67 765.14 436.75 202.81 155.82 506.74 800.28 727.28 395.17 183.88 495.17 772.79 405.47 743.12 508.66 555.25 471.70 100.67 446.78 906.96 757.76 363.87 193.01 104.42 663.60 785.07 670.70 206.60 292.32 439.52 842.90 432.10 427.63 505.15 758.87 589.73 495.73 472.73 775.88 461.94 420.94 513.87 106.45 781.28 806.32 80.68 639.77 556.54 442.48 517.24 614.84 215.54 140.09 208.07 787.17 762.47 902.65 454.90 834.34 207.37 411.83 445.01 141.53 94.49 966.20 327.20 369.26 838.21 810.99 766.07 844.95 502.75 110.38 845.67 818.76 92.22 742.09 821.09 0.00 772.96 275.50 800.14 554.27 262.04 135.40 682.88 642.59 747.39 581.59 851.28 829.89 151.40 479.55 330.75 858.46 386.33 449.61 433.17 197.07 119.86 438.92 866.90 824.95 759.86 126.66 464.13
778.48 93.21 85.94 232.89 143.45 539.58 757.46 853.53 770.35 620.44 595.15 744.14 556.91 29.61 598.71 723.49 806.72 753.91 370.44 551.18 661.55 43.49 468.41 629.72 177.66 533.60 180.60 484.73 174.00 155.24 190.25 522.67 543.88 895.27 99.01 80.29 102.60 803.17 576.75 839.08 595.26 27.35 484.38 645.52 827.24 250.62 849.73 235.59 669.63 565.21 921.08 106.40 99.29 866.69 77.88 92.76 83.87 833.21 155.70 710.23 79.46 851.82 730.27 571.47 298.94 538.15 628.93 560.57 251.85 598.77 714.37 511.07 23.95 603.34 166.05 628.52 57.79 577.59 843.55 839.51 608.63 68.51 66.87 541.77 764.51 545.59 99.28 670.75 126.97 600.39 646.89 461.38 873.63 559.21 147.52 55.07 722.82 864.31 788.51 129.79 83.39 145.71 665.23 612.11 577.22 95.58 567.80 558.67 494.75 120.17 698.13 619.25 568.10 57.18 534.48 549.38 538.07 839.01 76.86 71.19 812.56 432.95 671.77 562.02 638.87 704.10 844.39 802.67 685.07 90.93 229.68 258.09 607.76 91.20 836.22 546.70 595.85 832.62 786.10 340.27 646.64 502.66 134.03 98.57 35.10 185.31 495.37 844.97 97.33 112.57 862.62 86.35 86.55 772.96 0.00 868.96 36.58 666.47 843.26 782.93 141.77 246.99 46.40 515.13 125.96 112.40 827.34 552.25 695.77 132.71 743.52 596.21 521.16 896.81 733.08 547.70 296.07 82.31 175.70 806.22 555.40
228.92 843.89 794.88 717.26 869.40 643.25 234.33 139.21 191.19 573.56 315.15 202.14 680.79 839.35 601.52 241.69 156.75 805.10 597.79 713.41 256.08 866.81 540.49 343.37 841.51 689.28 990.34 753.70 842.28 810.79 857.22 645.00 623.81 171.43 903.28 872.29 846.57 176.00 658.69 106.62 583.15 863.66 587.19 714.86 171.13 768.16 189.42 925.77 264.16 643.16 148.63 911.79 913.86 113.21 892.94 912.20 861.72 205.37 889.59 242.38 918.01 127.15 163.38 629.03 973.30 669.83 639.84 725.52 1090.40 662.65 699.08 706.42 875.56 610.89 856.28 620.49 881.11 632.45 97.34 140.39 677.97 878.25 817.55 625.90 145.79 671.90 885.24 546.15 870.03 519.90 750.49 582.61 258.91 645.65 995.83 852.94 211.48 141.19 204.31 815.91 888.78 831.79 282.11 384.89 621.67 905.32 605.65 617.59 574.43 905.79 756.36 636.42 660.30 866.15 555.15 638.04 659.30 205.73 882.25 907.29 233.31 703.12 687.52 620.53 646.34 766.51 87.36 135.41 348.75 899.62 871.23 1011.41 595.67 924.61 81.41 636.22 585.69 170.88 192.85 1103.18 322.99 506.24 895.35 898.29 857.23 897.83 548.62 243.11 933.11 932.01 229.34 854.54 922.62 275.50 868.96 0.00 872.65 712.95 66.12 173.65 850.86 779.57 846.32 786.35 949.84 934.33 180.65 585.15 173.19 947.28 251.85 572.01 589.15 156.73 205.00 644.18 971.00 915.22 812.74 208.65 627.68
787.44 116.88 95.53 242.21 167.12 556.90 765.60 850.67 774.04 622.18 592.29 762.30 561.19 33.30 605.43 747.16 804.42 777.58 379.76 568.50 692.08 40.63 504.78 626.86 213.01 567.58 160.14 502.05 171.14 184.84 207.78 539.99 561.20 906.70 113.20 116.87 109.11 821.33 602.62 843.47 604.49 50.57 520.96 679.50 825.85 214.04 848.47 239.28 684.00 570.97 911.72 104.17 62.71 863.83 97.49 89.90 120.45 835.46 173.02 707.37 68.45 848.96 733.96 583.03 274.23 521.14 627.67 588.16 240.84 635.35 729.15 545.05 41.27 606.24 193.23 638.41 54.93 580.49 834.19 836.65 642.61 72.20 90.54 538.91 761.65 567.36 100.72 671.34 142.43 603.94 683.47 497.96 898.71 576.53 123.45 57.49 746.04 868.92 808.91 166.37 68.44 149.40 662.37 627.57 583.26 60.29 575.84 571.37 531.33 125.12 715.45 636.57 604.68 24.26 551.80 564.68 557.86 875.59 74.97 80.64 809.70 418.00 688.01 570.44 622.10 710.61 846.66 805.44 694.39 98.86 257.87 266.94 644.34 55.12 854.83 555.57 611.24 856.29 788.47 311.02 667.22 537.26 132.14 74.99 50.49 202.63 531.95 854.19 90.95 109.71 878.66 76.99 49.97 800.14 36.58 872.65 0.00 698.01 846.95 797.30 140.51 283.57 82.98 521.64 91.21 127.90 816.33 588.83 699.46 96.13 767.19 593.35 537.60 890.52 747.22 565.02 274.46 45.73 188.10 820.36 582.59
543.35 631.16 665.80 572.41 580.92 159.48 557.56 639.08 707.43 185.72 530.30 567.83 156.18 667.15 156.87 762.87 566.61 133.96 709.96 200.73 559.37 691.39 341.52 505.53 536.86 132.87 740.34 320.34 746.24 776.12 584.55 169.30 181.08 678.42 658.65 624.61 601.78 575.52 143.46 648.36 145.26 687.52 224.01 91.53 607.16 696.08 596.11 579.36 551.29 188.13 689.06 701.63 688.40 648.70 679.78 698.59 614.04 562.86 748.69 538.80 642.39 624.81 647.78 122.11 712.68 181.81 88.99 204.90 814.78 99.14 62.42 155.40 668.02 102.06 619.67 100.34 692.24 127.81 639.08 621.52 103.25 628.25 643.13 159.10 576.84 135.59 640.58 240.28 694.90 260.12 110.44 245.85 556.46 168.49 731.84 659.88 672.64 604.85 547.56 562.98 665.56 618.36 549.99 514.78 114.75 717.76 146.18 133.30 219.23 613.08 74.73 114.12 152.11 678.69 270.29 162.84 207.32 572.98 672.09 688.66 528.60 793.92 26.14 168.90 76.29 105.13 644.34 578.25 374.61 629.03 525.34 663.52 202.16 702.57 652.51 154.42 137.67 622.15 565.54 668.66 721.08 353.62 729.26 701.51 683.15 815.02 236.35 573.09 730.22 718.40 592.47 629.48 685.75 554.27 666.47 712.95 698.01 0.00 646.83 596.46 597.93 491.76 620.07 231.22 671.14 733.63 599.32 222.98 682.28 654.98 760.94 140.94 269.21 646.19 581.90 165.64 675.73 701.95 757.33 589.62 179.81
162.80 791.14 840.15 690.44 841.38 584.92 220.27 106.05 125.07 530.01 292.20 188.68 648.85 813.65 549.46 175.57 143.29 775.48 552.89 671.28 192.41 843.86 527.03 279.70 842.06 645.98 964.64 724.47 833.97 816.99 815.54 578.90 557.69 214.69 884.32 842.63 867.44 162.54 604.08 157.20 517.03 860.00 533.67 648.74 171.68 745.21 197.51 912.31 200.49 601.93 214.75 905.94 888.16 159.77 888.26 893.13 839.55 203.26 895.79 234.64 897.55 138.75 181.99 572.19 907.18 619.25 573.72 710.92 1069.94 596.53 673.97 661.42 849.86 544.77 829.46 554.37 858.16 566.33 147.92 156.51 611.85 852.55 817.48 560.33 123.83 626.90 883.32 531.26 848.07 545.12 684.37 556.67 262.77 600.01 970.13 873.44 245.59 140.28 190.85 804.73 884.84 806.09 243.06 362.93 567.06 879.62 546.41 585.61 560.97 892.33 690.24 570.30 609.87 871.21 489.03 571.92 633.36 226.31 891.37 892.32 249.43 648.78 646.74 579.30 594.57 723.19 108.23 121.95 333.86 885.49 857.77 992.15 569.85 902.07 100.06 576.98 535.21 191.47 179.39 1057.60 337.86 492.78 913.90 904.01 850.17 889.52 535.16 249.68 923.24 912.94 232.35 885.06 896.92 262.04 843.26 66.12 846.95 646.83 0.00 148.90 824.13 766.11 846.25 723.54 924.14 935.52 181.20 528.80 147.49 921.58 195.60 505.89 526.07 177.16 191.54 597.65 967.33 892.68 804.43 195.19 611.14
96.38 720.11 769.12 645.92 758.56 506.61 105.96 108.04 232.28 465.19 205.01 62.04 515.35 812.54 494.04 269.07 54.13 682.66 621.92 564.96 121.38 756.67 457.57 208.67 741.43 537.20 940.04 653.44 759.24 715.93 693.74 512.48 504.06 192.48 742.80 761.58 799.53 115.72 520.52 124.36 510.07 767.63 467.25 560.78 94.68 658.02 140.28 843.32 113.30 494.71 192.61 809.53 844.51 160.25 763.93 790.01 768.52 142.72 787.70 100.26 852.08 140.74 234.89 526.93 925.08 523.69 514.53 582.03 949.05 520.50 576.64 540.98 784.45 535.46 742.31 552.68 770.97 531.02 115.08 142.45 523.89 843.99 746.45 525.50 67.63 506.46 834.71 443.53 706.55 460.56 596.86 483.77 173.61 480.21 898.06 802.80 287.74 142.27 98.02 778.54 797.65 725.73 172.03 221.41 524.98 840.19 518.41 526.58 475.59 807.70 641.26 482.34 511.87 807.91 491.88 517.48 541.44 148.51 804.18 805.13 136.20 622.95 593.50 501.86 547.92 647.54 131.86 75.47 246.13 814.46 805.28 873.64 489.38 816.09 140.03 515.16 483.07 164.40 94.76 1002.78 315.88 446.30 824.20 816.82 786.50 843.04 449.78 152.15 836.53 809.82 150.33 804.01 847.27 135.40 782.93 173.65 797.30 596.46 148.90 0.00 784.07 719.63 775.22 628.06 874.90 832.40 104.20 441.61 269.39 863.74 289.10 504.64 446.05 175.28 61.90 487.45 818.43 821.47 757.95 108.52 462.24
768.19 75.38 123.99 166.66 83.48 505.50 752.37 792.16 770.42 556.90 579.06 749.07 484.50 150.59 528.66 758.34 791.19 693.94 271.24 542.19 674.11 159.79 428.06 613.63 98.42 497.49 272.71 525.42 220.58 235.20 110.20 506.28 503.73 803.99 132.99 121.99 159.10 740.87 517.69 744.24 547.18 166.28 458.40 619.15 758.58 197.98 707.96 295.53 670.77 505.41 805.53 194.58 153.30 784.17 111.86 201.78 111.42 694.95 222.09 694.14 187.63 769.06 730.34 525.51 350.00 508.56 586.21 546.36 360.02 586.01 660.35 496.86 165.72 539.64 75.97 581.50 154.16 529.19 753.52 756.99 594.42 172.49 101.72 505.91 748.42 462.34 168.39 604.63 169.24 542.39 594.79 481.40 783.55 523.73 236.75 151.86 681.02 789.02 739.65 34.95 178.36 58.34 649.14 582.53 520.53 172.86 495.52 501.98 432.80 116.66 662.84 577.98 526.34 164.77 450.55 480.14 534.07 746.18 171.83 190.55 752.40 388.17 624.07 482.78 595.10 654.38 805.87 781.46 618.84 167.79 274.55 349.43 583.16 154.78 813.30 513.35 548.53 742.70 748.19 398.40 591.67 456.19 227.27 200.01 141.77 272.93 458.61 763.82 190.61 210.46 738.15 144.48 182.05 682.88 141.77 850.86 140.51 597.93 824.13 784.07 0.00 200.95 104.53 562.62 193.72 205.36 749.06 490.30 695.84 186.72 752.96 536.04 452.12 762.66 733.99 506.43 336.62 145.39 228.92 773.52 506.56
695.06 192.12 241.13 314.53 141.88 339.37 655.07 740.02 763.18 420.23 536.50 698.99 401.55 256.73 398.50 798.99 665.50 591.05 452.08 404.97 636.29 271.91 267.58 561.28 160.31 397.93 395.92 324.47 364.84 358.90 193.94 322.46 343.67 782.85 304.19 211.68 249.63 684.75 398.31 759.05 395.05 274.34 416.47 459.35 705.52 348.94 718.31 170.06 628.21 334.72 828.37 335.45 294.71 771.09 294.17 321.18 201.11 642.81 359.35 624.89 286.38 734.23 749.24 371.26 364.54 372.15 428.72 469.96 450.09 447.53 516.23 420.46 270.94 403.13 246.98 428.31 286.21 377.38 750.84 763.18 439.52 287.11 218.46 341.56 687.95 389.79 244.06 486.17 303.83 470.24 501.64 412.57 743.26 359.00 359.94 254.17 740.83 754.19 687.51 209.93 310.19 251.71 606.58 527.13 377.01 322.70 377.06 358.46 357.63 192.33 461.89 419.04 390.66 304.17 403.57 351.44 403.55 689.87 316.72 309.53 700.26 536.04 498.07 357.35 449.21 502.69 730.79 644.16 552.83 243.46 119.88 260.06 453.00 312.47 738.96 346.49 415.57 739.04 696.05 360.37 629.32 273.33 354.89 332.06 251.16 432.30 383.44 711.68 344.32 340.82 666.26 239.50 265.12 642.59 246.99 779.57 283.57 491.76 766.11 719.63 200.95 0.00 200.59 496.28 306.36 359.12 696.92 415.13 783.74 314.44 803.12 396.00 357.74 806.80 667.99 347.49 315.13 321.86 369.21 717.40 367.19
770.77 55.11 51.44 254.32 105.35 512.42 749.75 839.02 789.11 587.23 622.98 736.43 510.51 56.14 558.38 685.39 799.01 715.81 375.77 510.00 653.84 71.32 442.84 657.55 151.24 487.20 207.13 477.70 164.25 158.31 152.15 523.05 540.50 869.66 114.50 68.87 60.09 790.38 542.40 806.43 576.08 73.75 508.15 599.12 816.83 247.49 812.49 207.79 661.92 532.06 874.68 134.86 130.65 856.66 93.58 120.59 58.30 799.48 169.66 709.60 97.02 826.96 756.80 554.62 280.57 532.25 601.77 514.17 269.41 573.20 678.61 464.67 70.35 577.83 140.48 610.00 85.62 552.08 797.15 829.48 562.23 95.04 28.77 510.50 773.68 499.19 70.65 656.54 103.24 611.91 635.47 505.78 848.06 544.48 193.92 53.58 720.05 841.00 780.80 117.02 109.60 107.85 672.41 588.38 554.85 122.11 547.43 542.96 526.22 121.14 662.48 579.30 533.75 103.58 521.17 536.27 538.96 813.44 116.13 108.94 828.07 428.09 646.20 535.14 593.14 661.59 819.30 797.94 706.50 85.03 254.40 300.80 612.88 136.98 821.08 527.16 594.26 794.52 778.39 293.87 608.54 473.92 173.30 131.47 67.15 231.71 521.87 837.26 143.73 140.23 837.05 39.95 132.95 747.39 46.40 846.32 82.98 620.07 846.25 775.22 104.53 200.59 0.00 472.62 160.92 158.53 820.12 583.72 722.30 144.76 705.42 564.94 526.07 867.19 728.35 531.58 316.82 128.71 168.62 772.03 543.41
597.85 501.97 501.55 557.29 498.14 173.74 627.58 659.31 762.63 212.79 545.21 610.81 121.66 488.34 227.87 794.68 648.45 301.76 694.84 132.41 588.44 536.95 379.40 575.79 521.05 98.35 624.97 222.60 636.87 630.93 535.36 187.06 165.85 743.94 558.88 450.48 412.53 657.36 153.55 710.46 237.74 542.48 226.98 180.92 654.57 650.57 680.02 477.05 580.36 161.56 770.90 600.49 562.85 713.03 537.75 586.22 461.05 646.74 619.77 569.35 521.50 692.01 730.49 192.37 616.95 166.69 214.47 66.52 592.62 183.05 260.41 87.08 524.55 199.18 543.23 241.04 551.25 173.43 701.18 709.77 144.03 512.88 478.88 198.33 641.84 121.60 485.54 316.21 575.86 318.61 237.49 203.98 650.53 161.28 613.36 526.20 734.40 693.54 626.39 527.67 573.21 566.38 585.53 495.08 185.01 554.31 207.10 181.33 236.78 473.58 229.77 185.58 144.90 545.90 315.70 198.20 127.29 638.63 579.74 574.88 618.84 778.80 234.01 176.74 223.15 188.97 723.79 650.94 456.45 468.45 422.51 562.69 263.92 535.22 731.96 195.15 236.86 687.80 593.50 466.53 712.61 345.15 622.71 596.63 516.89 685.91 237.97 627.30 589.83 606.03 638.09 454.84 560.45 581.59 515.13 786.35 521.64 231.22 723.54 628.06 562.62 496.28 472.62 0.00 552.41 599.22 645.05 255.37 695.99 536.25 774.65 233.87 279.76 728.03 612.45 185.31 617.90 544.61 638.06 625.67 165.82
865.04 188.22 163.82 319.25 234.15 582.56 843.20 898.51 851.23 636.89 669.89 839.90 557.71 110.49 608.04 823.55 873.43 803.05 456.80 530.31 769.68 118.23 520.20 704.46 261.72 562.45 107.96 543.79 210.30 253.61 214.03 577.49 556.28 922.25 190.80 168.80 139.88 853.10 588.97 913.33 631.73 109.79 542.54 671.35 832.88 294.45 876.26 265.82 761.60 546.72 941.09 153.74 40.42 898.45 180.39 137.25 177.01 877.47 208.88 784.97 75.48 925.48 811.15 584.97 281.93 517.29 645.67 593.98 247.87 659.22 733.56 552.18 125.78 617.01 244.37 658.87 132.53 609.55 904.05 914.25 649.74 98.74 166.93 596.59 839.25 535.55 116.15 662.61 192.49 595.21 710.89 519.54 938.99 575.06 60.95 140.39 805.26 908.18 886.51 228.67 117.67 226.59 739.97 677.63 577.61 46.62 621.86 596.16 579.34 167.88 732.03 641.41 597.62 92.55 565.39 577.14 477.89 883.91 124.20 106.62 887.30 467.23 697.28 559.84 641.58 739.33 899.09 883.04 771.43 140.44 293.30 211.10 662.54 62.82 907.26 601.52 635.63 889.70 866.07 288.73 738.73 554.45 180.58 125.55 129.64 282.37 553.53 919.63 90.73 153.06 907.52 146.85 41.24 851.28 125.96 949.84 91.21 671.14 924.14 874.90 193.72 306.36 160.92 552.41 0.00 153.19 823.36 626.47 776.65 16.16 843.58 638.78 528.87 898.22 815.52 570.47 266.31 53.43 234.82 877.68 557.09
838.47 176.07 139.45 300.07 226.31 604.08 805.03 888.32 847.87 684.94 643.32 813.33 619.17 124.66 663.21 806.35 848.33 836.77 413.07 615.68 743.11 91.66 558.08 677.89 272.20 633.19 209.44 529.58 122.08 154.96 253.17 587.17 608.38 923.85 123.02 182.78 186.69 831.33 653.39 855.73 659.76 93.43 573.46 741.12 870.23 237.90 894.18 312.58 735.03 622.17 923.98 43.00 134.22 904.05 128.28 42.39 192.07 811.20 90.76 758.40 177.94 876.26 774.12 635.97 322.77 573.69 693.43 661.04 318.03 706.97 780.94 620.27 88.45 667.84 222.98 693.02 92.24 642.09 846.45 876.87 704.23 163.56 149.73 606.27 812.68 598.04 175.08 738.00 125.85 686.14 749.38 573.07 873.60 623.71 198.83 133.14 788.90 890.30 836.85 206.82 68.07 214.70 713.40 610.99 641.72 109.59 641.77 623.17 607.15 226.81 762.63 683.75 655.37 103.64 580.89 616.15 599.62 818.52 61.54 49.59 840.23 417.63 759.77 605.20 697.57 788.19 869.89 826.99 752.25 188.17 305.05 298.79 717.71 116.86 870.51 611.20 680.28 867.69 839.50 382.53 725.08 523.83 42.15 53.63 144.00 141.52 607.06 880.07 62.46 31.31 842.13 144.38 153.23 829.89 112.40 934.33 127.90 733.63 935.52 832.40 205.36 359.12 158.53 599.22 153.19 0.00 861.07 622.67 790.82 137.89 820.94 660.71 595.05 921.62 798.25 612.20 336.41 107.68 144.51 854.10 623.46
97.38 770.09 803.84 672.65 725.79 513.88 132.69 75.15 207.76 451.77 246.98 88.77 567.90 828.37 479.73 311.48 50.07 698.42 648.65 593.99 171.36 798.64 429.34 212.41 679.90 586.95 904.97 688.62 782.35 767.83 727.59 516.50 522.79 98.89 814.70 784.26 822.21 29.74 550.85 123.18 494.59 814.78 468.25 598.71 9.52 699.99 52.90 779.51 179.44 523.74 140.12 822.31 822.76 75.09 804.44 829.91 773.69 54.11 846.63 152.16 747.88 103.56 257.34 529.64 967.36 553.83 537.13 644.99 920.27 549.87 592.40 602.60 826.42 514.91 758.31 498.98 812.94 517.60 117.02 97.91 584.18 792.88 796.43 508.74 91.87 569.42 810.47 428.05 782.57 418.69 655.28 491.25 115.63 524.83 883.80 844.44 340.91 84.82 98.81 767.65 839.62 712.27 217.03 297.43 522.44 837.62 512.87 534.56 460.49 784.00 639.43 561.32 542.20 840.59 451.98 521.46 567.94 60.55 846.15 847.10 70.72 556.03 579.12 523.64 557.24 658.11 127.80 70.33 230.65 835.13 724.97 865.15 463.42 845.02 121.94 492.47 467.59 66.34 71.06 969.82 295.54 441.16 862.28 851.91 836.48 837.90 483.54 96.27 863.36 847.76 84.16 823.41 793.17 151.40 827.34 180.65 816.33 599.32 181.20 104.20 749.06 696.92 820.12 645.05 823.36 861.07 0.00 438.89 262.44 839.52 291.45 496.91 460.65 119.34 120.52 499.99 882.31 835.63 752.81 54.32 525.20
371.85 528.61 577.62 526.28 478.37 112.39 416.14 482.53 521.05 86.87 342.15 406.19 179.41 581.86 79.08 624.77 465.40 356.94 619.31 213.62 336.39 595.74 216.26 370.58 432.48 187.78 697.97 255.34 656.33 623.08 480.17 115.01 128.43 537.78 568.74 536.84 571.37 409.15 153.80 502.59 111.51 579.60 116.34 239.74 448.05 586.13 491.79 423.67 328.31 149.33 578.65 627.66 602.44 513.62 547.61 611.17 526.27 445.09 686.14 375.99 588.77 507.62 533.09 128.15 618.15 165.07 181.07 217.79 760.99 188.56 271.78 168.29 576.20 120.92 558.11 162.78 600.41 110.47 511.87 506.08 215.59 589.52 554.95 107.64 456.23 188.12 571.66 181.31 604.99 105.16 267.72 117.30 524.61 125.93 655.99 580.31 528.15 516.76 400.39 514.77 596.18 516.64 387.04 332.17 121.05 598.12 76.80 133.07 57.50 550.09 266.39 174.04 146.12 609.43 127.11 124.19 193.99 474.91 598.12 573.08 447.38 641.39 238.98 135.11 206.00 307.19 519.23 449.74 278.92 538.05 478.21 551.99 118.80 574.02 511.06 90.98 127.45 499.97 442.08 571.30 545.31 182.01 648.22 606.88 587.35 708.68 83.31 484.13 614.64 627.07 479.31 575.99 585.23 479.55 552.25 585.15 588.83 222.98 528.80 441.61 490.30 415.13 583.72 255.37 626.47 622.67 438.89 0.00 567.59 627.79 604.74 117.32 97.60 550.50 394.74 131.55 574.04 583.41 665.11 422.42 143.90
285.74 742.76 742.02 562.15 696.21 589.71 263.90 253.54 74.58 570.60 257.87 268.21 574.33 666.16 594.65 98.69 239.66 756.25 424.60 650.02 231.20 730.15 544.66 276.48 716.37 597.64 817.15 692.69 725.97 688.70 705.41 588.01 591.38 278.22 766.97 708.64 741.97 258.91 626.29 271.13 562.22 721.87 627.85 693.93 271.96 637.48 256.81 872.14 239.28 614.65 306.91 781.27 740.67 254.58 750.77 779.42 719.21 313.93 767.50 205.67 750.06 286.24 34.50 617.38 958.13 642.71 618.91 669.67 922.45 641.72 682.05 620.17 702.37 580.22 701.17 599.56 732.03 605.97 270.53 281.76 657.04 705.06 742.73 584.80 262.11 596.49 735.83 610.96 761.81 516.89 729.56 637.68 354.25 621.77 822.64 725.95 98.10 287.77 287.22 713.98 758.71 658.60 211.28 298.17 612.25 732.13 591.60 606.63 625.09 767.85 725.69 615.49 634.62 723.72 578.76 559.03 658.28 322.99 765.24 752.70 296.54 589.74 691.93 607.16 639.76 766.49 255.72 218.32 413.56 756.41 871.32 897.33 568.58 754.58 247.55 592.24 580.40 291.55 275.76 988.98 190.37 510.41 766.47 774.45 702.68 781.52 603.69 341.03 775.75 791.69 308.86 751.07 749.43 330.75 695.77 173.19 699.46 682.28 147.49 269.39 695.84 783.74 722.30 695.99 776.65 790.82 262.44 567.59 0.00 774.09 78.66 551.08 584.59 295.19 248.77 608.87 842.12 745.19 696.43 269.33 614.27
853.88 188.32 153.85 310.20 238.56 566.40 832.04 891.03 848.67 620.73 658.73 828.74 541.55 107.93 591.88 818.60 870.86 786.89 447.75 546.47 758.52 118.33 513.20 693.30 263.98 546.29 112.81 551.87 226.46 261.69 222.11 561.33 540.12 930.50 184.68 161.67 123.72 869.26 572.81 909.53 624.31 116.18 533.49 655.19 848.31 285.40 892.42 267.02 750.44 530.56 932.04 144.37 33.42 913.88 173.39 126.47 172.24 881.67 208.98 773.81 91.64 923.73 808.59 596.58 272.88 501.13 640.29 577.82 248.50 643.06 717.40 536.02 130.87 600.85 251.55 642.71 132.63 593.39 900.25 903.09 633.58 99.94 161.98 580.43 828.09 519.39 124.23 670.69 198.92 603.29 710.99 510.49 955.15 558.90 77.11 133.39 811.65 923.61 875.35 221.67 108.81 224.03 728.81 684.06 593.77 62.78 606.51 592.26 570.29 169.01 725.03 625.86 581.46 97.64 565.49 560.98 461.73 900.07 115.34 106.27 876.14 458.37 681.12 543.68 652.15 723.17 882.93 871.88 762.38 124.28 277.14 227.26 646.38 53.77 891.10 585.36 619.47 905.86 854.91 281.73 729.68 547.45 172.51 114.77 122.64 279.41 544.48 920.63 79.95 146.28 923.68 154.93 49.32 858.46 132.71 947.28 96.13 654.98 921.58 863.74 186.72 314.44 144.76 536.25 16.16 137.89 839.52 627.79 774.09 0.00 838.63 627.01 536.95 889.17 813.66 554.31 282.26 53.53 227.82 886.80 540.93
341.35 702.99 699.32 619.41 752.62 668.37 342.56 279.02 83.69 649.26 266.62 335.56 652.99 744.82 654.26 20.03 294.26 834.91 481.86 728.68 284.51 734.72 579.94 285.59 706.73 676.30 886.28 771.35 783.23 745.96 754.42 666.67 670.04 287.33 713.79 737.82 743.00 276.53 671.94 259.23 640.88 750.86 682.23 772.59 281.93 694.74 304.06 890.70 276.43 693.31 286.52 793.81 805.92 245.50 692.66 783.99 727.25 268.11 817.54 284.33 796.27 279.76 113.16 669.01 977.61 702.97 697.57 748.33 968.66 720.38 760.71 698.83 751.90 658.88 676.99 678.22 749.02 684.63 249.95 255.03 735.70 774.19 676.65 663.46 251.49 675.15 776.07 619.71 750.04 551.01 738.02 705.23 340.06 700.43 866.83 732.66 158.59 292.22 312.81 733.68 775.70 737.26 289.94 376.83 676.37 808.96 670.26 685.29 647.79 793.95 804.35 694.15 680.59 767.36 629.65 637.69 736.94 319.34 779.58 771.35 305.65 607.40 756.76 685.82 718.42 797.61 263.17 295.28 422.31 790.45 867.87 969.75 629.07 784.86 255.00 670.90 645.23 289.99 321.35 999.29 268.22 545.69 808.07 781.95 716.70 791.67 673.60 336.98 812.91 803.80 311.31 745.37 817.16 386.33 743.52 251.85 767.19 760.94 195.60 289.10 752.96 803.12 705.42 774.65 843.58 820.94 291.45 604.74 78.66 838.63 0.00 629.74 593.34 296.26 290.97 687.53 920.78 790.15 753.69 293.85 692.93
435.16 545.32 585.35 528.35 517.74 79.03 457.03 540.55 611.36 72.42 421.95 453.23 142.96 608.47 43.57 649.77 458.26 269.59 660.62 186.14 435.55 600.04 268.40 409.46 481.40 150.53 706.30 241.63 673.59 679.15 529.09 73.54 94.75 579.17 624.81 558.09 578.42 467.17 98.19 560.61 11.14 591.76 138.08 142.85 496.66 659.02 536.67 475.14 427.47 115.89 580.71 657.64 635.97 557.59 603.68 649.31 547.52 451.32 682.97 437.35 585.62 549.78 584.60 66.30 667.91 142.65 67.83 205.03 746.54 90.64 168.08 155.53 572.26 38.88 558.54 48.48 614.34 60.44 559.35 530.41 105.96 616.12 562.68 54.44 501.03 121.01 597.44 149.63 647.60 144.04 178.48 150.83 510.16 96.12 688.12 613.34 568.55 562.70 406.62 511.22 634.02 538.38 413.68 434.33 61.17 631.65 40.52 79.72 113.57 545.71 184.35 64.41 103.98 605.49 192.49 66.03 165.28 502.55 640.55 635.60 437.49 697.46 140.85 101.75 88.68 217.30 535.99 475.52 266.26 571.58 476.49 584.81 98.07 607.55 544.16 71.09 29.32 529.41 448.31 626.62 622.36 254.90 664.80 646.88 590.07 680.90 139.38 481.98 645.64 661.58 484.62 600.52 630.91 449.61 596.21 572.01 593.35 140.94 505.89 504.64 536.04 396.00 564.94 233.87 638.78 660.71 496.91 117.32 551.08 627.01 629.74 0.00 190.85 537.84 480.45 98.19 608.28 607.85 685.86 451.86 114.09
363.27 511.89 501.86 479.66 463.24 161.00 441.53 504.29 563.19 184.47 326.72 397.61 207.25 550.77 176.68 610.07 468.23 403.17 567.21 222.88 418.80 517.11 118.66 361.29 450.34 215.21 636.83 313.00 618.17 632.31 495.61 159.17 162.67 532.36 530.58 504.21 541.32 430.91 208.65 524.35 201.99 533.25 88.89 277.70 458.64 488.53 513.55 494.76 418.43 153.07 589.24 552.05 517.22 524.21 509.45 556.34 493.64 436.51 646.31 427.25 532.92 512.88 560.32 183.00 678.33 174.47 224.24 242.18 705.31 231.32 331.63 192.68 544.89 194.45 473.86 228.67 502.81 171.65 533.63 504.99 251.64 537.63 505.42 140.07 467.51 215.73 562.54 205.92 566.83 151.08 300.15 111.89 494.27 180.78 582.45 549.45 526.49 532.84 391.81 417.17 529.49 472.55 396.80 338.21 184.42 549.36 150.33 172.53 114.92 550.07 334.63 235.80 212.44 559.69 45.83 130.32 188.58 487.74 536.02 547.64 427.09 568.69 295.35 175.70 257.63 358.30 540.37 453.74 365.17 532.64 477.62 617.80 142.93 545.64 536.83 145.83 203.34 491.39 433.50 649.92 451.87 84.41 593.19 548.66 545.47 639.54 127.46 449.75 583.48 575.73 470.73 546.64 487.63 433.17 521.16 589.15 537.60 269.21 526.07 446.05 452.12 357.74 526.07 279.76 528.87 595.05 460.65 97.60 584.59 536.95 593.34 190.85 0.00 562.29 384.15 176.82 631.61 549.15 611.52 413.84 185.54
205.19 838.04 873.66 712.91 826.09 592.65 193.17 71.11 220.61 560.11 301.66 192.46 643.42 913.25 567.95 292.30 150.37 715.83 698.02 679.06 252.65 853.32 543.55 331.75 780.20 629.68 959.35 725.04 812.09 836.91 811.55 585.78 564.57 41.33 875.18 874.80 874.68 142.36 591.78 84.45 535.52 869.46 576.06 654.55 109.82 754.67 90.28 892.13 244.57 608.81 42.87 889.62 863.82 50.76 874.52 890.03 868.73 168.32 910.34 221.24 867.22 75.24 310.38 574.67 1046.89 627.20 605.08 701.71 1039.61 587.25 662.65 652.21 881.10 574.94 803.98 578.48 867.62 571.95 75.17 57.30 626.27 890.56 850.99 592.24 160.13 641.32 863.07 468.98 860.69 497.73 697.05 599.06 187.72 595.09 917.37 899.57 368.21 70.57 184.92 793.74 866.61 821.00 303.30 375.55 567.31 859.50 561.53 585.86 560.79 870.61 720.41 602.25 583.13 893.86 531.48 596.92 642.96 134.41 860.08 885.12 150.22 656.33 620.05 586.18 626.52 699.04 127.52 165.31 271.58 877.45 837.59 977.77 531.97 835.40 133.04 589.57 508.52 85.24 179.40 1082.44 331.60 533.47 892.02 902.56 891.04 882.42 566.02 146.73 890.01 909.84 140.54 832.37 893.41 197.07 896.81 156.73 890.52 646.19 177.16 175.28 762.66 806.80 867.19 728.03 898.22 921.62 119.34 550.50 295.19 889.17 296.26 537.84 562.29 0.00 178.14 600.29 986.00 844.79 832.33 154.62 613.06
68.82 673.24 722.25 630.38 701.40 474.98 66.20 169.94 207.28 408.03 154.93 46.50 535.60 761.44 436.88 311.00 90.93 625.50 582.16 555.91 74.51 706.59 400.41 161.80 698.13 535.19 891.49 592.96 702.08 658.77 691.61 468.11 446.90 197.19 740.67 724.73 762.68 105.53 510.54 168.49 469.31 705.73 426.45 552.35 111.00 607.94 164.13 781.42 66.43 491.14 213.05 770.13 798.00 148.02 761.80 755.86 721.65 109.86 737.57 43.10 812.54 143.67 214.27 502.99 919.92 509.53 522.77 564.78 984.93 485.05 519.48 525.37 725.23 499.61 726.77 528.93 720.89 473.86 173.48 120.84 524.07 797.12 699.58 487.21 83.36 514.17 797.86 437.12 704.42 413.69 608.92 421.87 194.09 489.22 848.80 752.84 266.27 158.03 78.31 728.46 747.57 675.65 125.16 219.28 497.42 793.68 469.41 499.04 413.69 783.94 609.34 523.21 501.89 755.13 429.98 479.25 498.56 139.01 754.10 749.57 140.73 565.79 558.05 468.51 525.15 612.09 156.22 69.59 239.72 767.59 787.87 858.09 445.03 769.58 164.39 477.21 476.66 150.69 74.51 959.90 283.43 434.66 762.30 766.74 739.63 787.32 387.88 162.83 783.89 775.67 138.72 767.16 789.22 119.86 733.08 205.00 747.22 581.90 191.54 61.90 733.99 667.99 728.35 612.45 815.52 798.25 120.52 394.74 248.77 813.66 290.97 480.45 384.15 178.14 0.00 486.86 840.04 768.38 702.23 73.14 491.49
461.21 504.14 525.48 458.89 453.90 19.16 501.99 533.42 639.75 100.02 451.02 470.20 78.32 559.96 78.29 707.56 523.26 276.25 596.44 94.00 442.59 551.53 264.35 437.85 408.01 86.96 631.94 206.82 631.19 644.43 455.70 25.03 39.96 598.88 580.40 512.37 523.63 503.30 58.92 584.50 91.02 543.25 90.34 129.81 490.47 623.97 545.71 429.96 450.67 23.75 621.07 609.13 587.73 556.04 577.61 600.80 501.80 533.97 594.09 443.76 574.93 566.12 614.93 58.25 575.77 68.29 108.51 145.00 735.28 100.04 170.23 102.61 523.75 73.24 480.44 115.10 565.83 75.85 575.22 583.22 113.10 538.02 502.81 43.75 540.55 69.43 549.12 169.18 570.18 172.43 186.07 113.34 534.38 24.84 592.45 559.16 603.27 563.56 489.75 495.03 573.91 490.64 478.04 374.46 50.89 594.16 71.14 43.89 87.50 525.62 200.49 71.55 50.27 556.98 166.42 49.84 92.58 545.10 580.44 587.09 517.37 671.39 173.04 23.65 126.65 227.08 582.29 517.48 346.62 515.51 427.98 550.00 132.79 570.06 590.46 40.57 118.02 560.19 480.73 553.92 602.66 241.13 586.70 598.37 542.86 685.11 113.31 489.86 597.13 613.07 531.14 551.52 569.00 438.92 547.70 644.18 565.02 165.64 597.65 487.45 506.43 347.49 531.58 185.31 570.47 612.20 499.99 131.55 608.87 554.31 687.53 98.19 176.82 600.29 486.86 0.00 510.09 579.45 614.58 493.67 25.21
827.88 261.71 293.26 421.90 311.95 529.25 837.46 925.95 897.39 610.11 845.19 793.54 588.41 266.46 588.38 940.81 872.56 759.67 559.45 523.11 845.93 293.53 582.71 867.83 267.68 590.97 282.12 398.39 409.27 444.51 315.37 535.12 550.05 944.67 366.10 279.17 281.01 852.57 569.01 942.79 601.11 291.38 556.24 639.90 876.64 421.15 911.17 150.37 846.87 533.84 1007.24 329.04 266.54 942.21 346.38 320.47 289.74 882.84 384.18 883.14 272.56 932.35 807.62 568.34 116.01 536.92 617.65 551.38 292.39 610.13 680.32 568.44 302.67 583.33 371.92 625.19 307.83 585.94 933.51 937.02 623.19 227.56 288.05 553.84 886.06 579.52 270.61 679.27 369.10 679.20 649.61 577.90 967.18 534.93 205.36 320.31 887.84 951.94 840.15 359.90 292.97 345.87 795.28 779.26 560.98 244.90 581.23 553.98 569.72 219.96 710.58 581.64 560.36 277.80 585.78 559.93 556.68 912.10 299.50 304.90 887.77 642.53 683.13 533.74 636.74 704.38 946.90 860.27 816.67 268.97 195.39 55.21 642.88 238.12 955.07 550.66 579.73 945.22 835.50 206.43 782.86 588.46 356.67 300.37 313.56 457.67 543.91 932.26 273.95 328.36 918.79 285.75 244.74 866.90 296.07 971.00 274.46 675.73 967.33 818.43 336.62 315.13 316.82 617.90 266.31 336.41 882.31 574.04 842.12 282.26 920.78 608.28 631.61 986.00 840.04 510.09 0.00 228.73 412.63 867.67 535.30
811.61 134.79 120.34 265.82 185.03 573.13 789.77 874.84 819.77 637.33 616.46 786.47 592.39 79.03 618.00 770.12 828.59 795.49 403.37 577.57 716.25 64.80 517.59 651.03 230.92 569.08 127.32 537.19 180.54 217.12 234.31 556.22 577.41 886.12 137.37 161.06 132.08 845.50 610.23 864.96 618.99 62.65 489.11 681.00 845.15 241.02 853.35 236.88 708.17 581.09 887.66 100.31 37.81 888.00 141.80 91.74 164.10 840.34 155.45 731.54 87.75 873.13 779.69 589.85 228.50 545.95 650.55 596.05 260.14 672.37 739.69 546.55 82.15 626.66 218.04 656.33 79.10 604.08 855.68 860.82 644.11 73.70 113.50 562.50 785.82 572.92 111.37 675.48 145.39 605.58 717.44 466.11 922.88 578.10 91.36 101.80 758.12 893.09 833.08 180.34 64.24 195.13 686.54 630.53 597.21 27.47 589.75 579.89 525.91 129.53 729.42 636.02 601.58 49.07 511.96 554.11 515.26 886.84 70.77 76.66 833.87 413.80 716.66 588.07 653.85 733.58 870.83 829.61 718.00 125.17 287.42 241.51 612.49 9.39 879.00 579.16 637.17 879.25 812.64 286.12 685.30 533.06 127.94 80.04 96.22 228.94 500.10 878.36 45.22 99.63 883.54 122.72 61.52 824.95 82.31 915.22 45.73 701.95 892.68 821.47 145.39 321.86 128.71 544.61 53.43 107.68 835.63 583.41 745.19 53.53 790.15 607.85 549.15 844.79 768.38 579.45 228.73 0.00 183.90 841.52 560.13
739.20 201.63 170.90 291.97 251.87 621.80 717.36 789.79 771.01 702.66 590.96 748.73 643.90 204.42 680.93 773.72 703.82 862.33 271.83 667.27 690.75 160.05 576.32 625.53 276.47 652.67 298.02 618.16 29.54 43.46 279.93 626.28 631.35 840.47 101.63 220.68 225.53 723.07 630.05 781.91 693.66 168.36 575.33 744.39 743.84 137.95 800.20 373.23 682.67 620.52 855.26 101.51 194.40 797.20 117.50 121.03 214.44 778.09 110.26 659.13 242.36 757.09 730.93 636.46 412.40 625.28 697.16 682.79 403.70 684.01 784.81 633.29 168.40 662.95 152.95 693.34 145.75 652.54 777.73 784.33 713.59 243.32 187.36 641.35 726.27 621.74 215.79 727.22 65.38 701.79 772.84 584.74 823.30 589.74 275.26 157.50 767.76 777.05 751.38 194.35 119.66 204.81 661.04 550.52 643.48 198.17 655.26 636.11 607.61 267.52 801.74 686.13 621.40 181.51 622.72 637.10 657.17 788.83 113.13 138.17 808.37 305.26 749.90 609.74 683.99 811.05 725.38 682.48 744.15 249.40 373.86 376.27 731.12 193.29 733.55 624.69 705.74 813.56 739.92 442.71 656.25 542.07 109.47 131.11 157.32 85.09 583.23 810.21 165.93 133.38 792.88 208.57 223.99 759.86 175.70 812.74 188.10 757.33 804.43 757.95 228.92 369.21 168.62 638.06 234.82 144.51 752.81 665.11 696.43 227.82 753.69 685.86 611.52 832.33 702.23 614.58 412.63 183.90 0.00 755.72 607.71
50.57 746.38 774.21 634.89 761.07 493.74 95.65 106.03 243.04 412.88 228.07 74.13 528.08 828.17 440.84 313.88 54.39 682.57 611.61 559.05 147.65 779.73 453.91 234.94 715.18 551.39 948.70 637.06 772.25 728.94 714.71 488.95 477.10 153.21 764.50 783.28 806.16 32.65 516.02 126.09 449.10 778.87 421.44 580.13 44.80 669.55 107.22 782.42 139.57 513.42 175.40 831.23 871.14 110.37 785.63 811.71 793.85 78.68 807.74 113.27 802.20 130.89 234.83 486.53 949.37 507.02 518.66 608.88 974.59 528.62 576.55 573.51 798.37 490.74 733.57 500.34 794.03 478.71 135.37 112.51 545.29 839.89 772.72 469.85 85.91 538.99 796.84 412.41 728.25 453.97 616.44 444.44 134.21 511.04 921.94 799.96 324.03 120.10 45.24 770.56 820.71 715.18 198.30 243.11 479.17 866.82 473.98 497.72 406.17 745.11 622.92 516.27 507.37 828.27 446.80 495.62 521.13 86.01 827.24 822.71 72.38 577.45 563.48 498.71 540.54 642.47 132.12 73.24 215.01 796.24 727.88 868.06 436.60 842.72 140.29 486.51 451.95 77.55 32.17 947.05 298.45 444.07 835.44 839.88 812.77 840.81 431.98 89.69 857.03 831.52 65.58 811.98 847.49 126.66 806.22 208.65 820.36 589.62 195.19 108.52 773.52 717.40 772.03 625.67 877.68 854.10 54.32 422.42 269.33 886.80 293.85 451.86 413.84 154.62 73.14 493.67 867.67 841.52 755.72 0.00 518.88
479.33 520.11 531.94 452.05 469.87 44.37 488.91 553.75 650.01 125.23 430.77 444.99 53.11 583.27 103.50 712.96 513.61 269.51 589.60 102.72 467.80 576.74 272.11 448.11 423.98 74.96 625.10 199.98 605.98 646.70 471.67 50.24 60.29 596.12 581.22 528.34 507.46 504.02 58.28 586.60 116.23 568.46 115.55 142.77 515.68 632.69 562.62 438.68 472.21 32.47 646.28 603.14 573.38 581.25 596.81 600.10 517.77 534.29 568.88 464.09 589.08 582.34 635.26 64.69 584.49 61.45 99.36 119.79 748.31 112.24 195.44 78.74 548.96 91.18 496.41 123.46 591.04 82.40 577.32 588.47 105.88 551.59 528.02 68.96 529.87 44.22 542.28 172.67 544.97 197.64 199.34 94.02 542.70 17.97 617.66 556.81 628.48 579.53 491.60 471.61 567.07 515.85 492.57 399.67 71.71 574.84 83.49 64.34 112.71 541.59 223.25 91.79 49.63 558.33 191.63 55.24 79.20 563.55 573.60 573.87 522.35 673.56 184.01 39.62 132.75 239.28 578.90 492.27 341.48 508.67 453.19 543.16 158.00 550.74 587.07 52.92 133.97 585.40 486.95 540.54 627.87 266.34 602.67 603.02 568.07 678.89 128.01 498.18 605.35 619.91 547.06 549.77 543.79 464.13 555.40 627.68 582.59 179.81 611.14 462.24 506.56 367.19 543.41 165.82 557.09 623.46 525.20 143.90 614.27 540.93 692.93 114.09 185.54 613.06 491.49 25.21 535.30 560.13 607.71 518.88 0.00
DEMAND_SECTION
1 0
2 77
3 84
4 81
5 78
6 58
7 77
8 93
9 80
10 98
11 96
12 56
13 52
14 60
15 73
16 92
17 90
18 95
19 76
20 77
21 71
22 84
23 65
24 77
25 55
26 67
27 87
28 90
29 75
30 60
31 63
32 100
33 76
34 100
35 82
36 91
37 68
38 98
39 96
40 74
41 70
42 73
43 96
44 85
45 95
46 55
47 60
48 96
49 83
50 86
51 100
52 72
53 100
54 97
55 98
56 100
57 65
58 84
59 57
60 61
61 57
62 70
63 53
64 86
65 100
66 74
67 79
68 55
69 86
70 54
71 86
72 50
73 84
74 77
75 90
76 70
77 55
78 73
79 50
80 58
81 86
82 87
83 90
84 75
85 54
86 56
87 67
88 74
89 72
90 88
91 72
92 67
93 50
94 86
95 91
96 77
97 73
98 83
99 98
100 80
101 81
102 61
103 62
104 78
105 70
106 61
107 89
108 81
109 90
110 79
111 52
112 51
113 64
114 87
115 96
116 90
117 93
118 53
119 75
120 91
121 54
122 54
123 79
124 97
125 78
126 88
127 80
128 71
129 94
130 66
131 52
132 92
133 66
134 73
135 90
136 67
137 94
138 91
139 90
140 64
141 87
142 66
143 90
144 80
145 84
146 74
147 79
148 88
149 84
150 98
151 56
152 81
153 90
154 96
155 85
156 83
157 84
158 51
159 86
160 53
161 75
162 63
163 60
164 79
165 97
166 91
167 97
168 66
169 51
170 61
171 72
172 66
173 78
174 67
175 91
176 88
177 92
178 97
179 51
180 57
181 75
DEPOT_SECTION
1
-1
EOF
