NAME: LDG120_2246_none_120_0106
COMMENT: CVRP with travel times.  rootPos=2,custPos=2,demandType=4,avgRouteSizeIndex=6,weather=none,lambda_cluster=1,lambda_random=4, T1=300,T2=700,beta=1, alpha(i,j) ~ U(0.8,1.2)
TYPE: CVRP
DIMENSION: 121
EDGE_WEIGHT_TYPE: EXPLICIT
EDGE_WEIGHT_FORMAT: FULL_MATRIX
CAPACITY: 1363
NODE_COORD_SECTION
1 500 500
2 948 517
3 123 879
4 136 806
5 770 560
6 867 537
7 973 766
8 21 954
9 868 341
10 778 543
11 2 714
12 141 723
13 907 455
14 992 625
15 803 403
16 857 480
17 965 593
18 96 676
19 955 512
20 802 403
21 178 791
22 834 609
23 703 562
24 192 542
25 42 713
26 790 517
27 994 472
28 864 510
29 122 796
30 891 493
31 88 672
32 884 403
33 730 554
34 125 748
35 45 687
36 988 563
37 14 719
38 982 506
39 734 437
40 197 687
41 269 664
42 851 376
43 917 468
44 997 653
45 48 765
46 996 594
47 584 481
48 821 501
49 261 627
50 824 349
51 45 753
52 111 806
53 1000 824
54 968 630
55 951 497
56 701 256
57 259 554
58 152 842
59 110 805
60 959 603
61 132 737
62 868 518
63 635 444
64 972 599
65 817 411
66 739 705
67 975 369
68 822 491
69 727 490
70 95 665
71 181 705
72 843 473
73 856 639
74 921 319
75 821 464
76 56 753
77 944 379
78 871 493
79 720 660
80 94 692
81 880 568
82 871 422
83 956 578
84 943 366
85 930 514
86 32 672
87 877 571
88 272 639
89 988 595
90 108 780
91 923 615
92 84 618
93 158 800
94 117 741
95 823 468
96 144 777
97 599 502
98 945 662
99 822 273
100 891 507
101 857 684
102 800 460
103 150 780
104 833 535
105 879 580
106 309 560
107 257 810
108 805 750
109 67 780
110 797 577
111 694 622
112 932 603
113 110 728
114 89 902
115 949 615
116 35 508
117 8 428
118 143 593
119 567 290
120 828 468
121 140 837
EDGE_WEIGHT_SECTION
0.00 471.93 704.11 617.40 379.55 369.32 618.23 771.83 457.09 381.12 627.55 519.50 395.31 529.03 359.98 386.58 483.72 524.75 467.29 350.38 605.23 400.43 318.59 365.79 597.09 357.95 477.64 391.26 629.34 394.01 531.75 390.98 334.32 575.69 583.73 523.71 605.78 487.75 252.14 525.53 482.10 436.12 426.87 534.16 634.23 516.72 139.57 344.09 464.67 411.90 652.00 641.30 649.42 504.15 461.85 415.34 387.87 653.48 633.47 499.10 556.84 412.75 163.17 498.25 383.53 323.28 504.57 316.49 289.78 512.24 519.86 373.29 437.97 474.67 353.37 625.07 479.89 402.56 242.79 552.29 387.92 351.28 464.25 494.97 451.60 576.16 399.31 429.58 499.31 638.57 487.41 497.70 627.82 574.88 344.79 591.26 156.50 512.89 464.31 413.84 484.81 373.01 606.88 390.27 408.93 358.45 567.78 413.10 623.42 392.19 289.61 477.18 567.61 721.49 476.21 536.68 626.20 475.66 255.89 353.74 656.61
471.93 0.00 876.29 813.86 198.33 124.47 260.55 997.25 241.30 191.89 883.27 787.45 90.94 156.91 176.85 108.69 116.27 816.92 22.41 186.45 805.48 185.30 271.67 759.77 858.60 195.27 83.06 122.36 810.06 92.02 826.02 161.01 236.95 761.80 879.26 97.10 856.17 45.42 243.40 767.74 675.28 161.58 59.38 134.31 863.87 112.43 380.06 158.68 718.14 203.11 890.44 820.19 331.54 130.42 41.11 369.26 647.26 859.57 812.36 99.05 771.63 121.07 322.86 129.13 188.83 284.96 198.98 155.44 217.57 829.43 717.04 133.41 181.53 202.70 151.58 861.28 169.14 103.67 280.55 844.53 96.11 134.97 100.35 188.66 20.33 893.35 84.72 717.37 129.84 835.75 123.43 838.04 826.33 796.99 146.77 770.15 349.71 130.29 289.94 88.93 222.95 195.67 794.18 133.07 100.81 618.35 808.27 269.67 850.02 200.61 288.90 84.92 810.07 829.30 124.58 930.66 885.97 869.42 468.24 137.82 841.45
704.11 876.29 0.00 126.75 752.53 809.93 849.24 195.83 868.35 728.15 206.04 184.61 860.48 840.36 821.97 805.61 824.90 235.80 884.74 819.33 142.02 774.28 712.56 377.58 208.81 801.55 906.11 819.58 135.65 841.56 236.97 883.08 701.26 174.95 209.51 844.18 220.74 895.86 810.47 252.39 308.51 846.01 869.26 892.55 156.64 817.52 611.72 747.71 348.82 877.92 128.03 132.97 905.03 850.98 876.14 882.73 387.25 91.58 125.14 849.76 199.81 793.64 674.43 849.44 786.18 753.79 986.44 775.31 768.69 231.13 201.69 813.72 844.26 917.50 812.19 158.96 946.00 813.63 673.30 208.19 802.96 846.63 835.17 961.34 855.96 203.87 791.57 352.52 800.11 134.03 881.19 282.48 119.43 181.79 803.61 149.89 638.76 891.94 938.89 817.46 814.49 828.69 125.86 786.97 807.66 424.86 183.51 843.61 168.45 775.88 626.48 869.47 194.87 46.99 863.65 411.43 495.90 329.58 776.35 808.85 64.94
617.40 813.86 126.75 0.00 646.35 719.32 846.11 209.65 865.22 621.97 193.89 97.90 773.81 860.17 777.80 746.71 833.72 149.15 795.42 768.20 63.79 752.68 655.71 303.11 153.27 695.37 844.08 734.11 43.82 749.87 153.57 797.62 647.52 90.52 138.59 840.69 181.08 830.39 738.38 177.77 209.19 816.28 776.73 887.05 114.61 863.25 528.34 714.20 261.89 843.31 115.97 24.47 878.13 833.68 814.82 779.97 294.15 45.71 32.30 857.11 97.05 727.07 596.20 848.25 783.05 696.94 900.18 686.60 688.44 161.59 143.22 735.29 777.30 901.25 723.48 109.56 846.53 714.16 616.45 121.54 774.29 757.92 834.36 871.39 793.53 180.20 767.60 261.71 858.51 47.81 848.57 189.26 41.20 62.57 714.90 43.71 580.12 870.34 855.51 756.14 758.11 722.51 46.13 680.79 757.72 350.24 129.77 786.76 75.55 669.70 569.63 843.20 75.65 112.71 849.11 320.06 376.68 247.52 701.88 715.74 61.81
379.55 198.33 752.53 646.35 0.00 121.73 299.98 850.92 259.91 24.38 731.71 674.40 176.22 257.76 190.56 122.69 208.95 680.57 197.83 184.23 681.41 136.66 118.53 595.33 691.09 97.78 246.49 132.25 642.55 152.28 687.57 191.84 80.88 649.45 680.93 227.05 723.42 232.80 195.14 592.49 519.21 210.50 177.94 276.60 733.08 244.42 262.53 97.85 526.24 214.36 730.68 652.68 378.47 234.03 217.23 335.38 482.82 692.06 644.85 233.81 678.48 129.48 254.85 212.29 177.74 198.69 305.05 80.82 148.31 668.06 643.19 137.62 130.95 295.47 117.70 734.12 248.94 116.57 184.49 704.32 133.28 152.14 228.49 273.80 192.75 722.54 128.36 521.01 233.74 668.75 202.22 647.02 658.82 666.78 109.12 602.64 223.05 254.19 295.51 158.55 154.98 120.92 626.67 83.20 112.27 420.02 641.53 267.31 712.39 53.68 154.98 227.56 679.86 759.06 217.96 766.22 764.57 705.20 409.12 118.07 705.05
369.32 124.47 809.93 719.32 121.73 0.00 266.14 923.89 212.13 97.35 804.68 747.37 125.20 174.40 159.70 96.87 114.40 789.46 141.09 150.10 738.56 138.43 177.13 694.15 764.06 113.17 156.59 41.90 715.52 52.83 798.56 168.88 171.23 722.42 802.66 170.63 802.08 118.95 184.36 713.93 609.56 169.28 119.91 182.05 806.05 150.28 321.02 62.22 647.97 195.63 803.65 725.65 299.52 148.42 132.49 310.22 581.64 765.03 717.82 139.26 744.17 44.78 206.15 128.93 139.31 251.08 229.78 89.82 152.24 780.84 689.58 87.80 152.82 263.23 92.54 807.09 173.86 77.60 186.01 798.72 54.97 129.18 150.18 198.72 104.14 830.43 49.41 635.27 139.19 741.72 139.03 768.75 731.79 739.75 87.73 675.61 271.33 179.94 250.75 73.81 181.81 136.63 699.64 38.53 65.50 541.75 714.50 287.68 785.36 106.07 232.83 150.73 752.83 793.99 143.26 865.04 826.93 804.02 413.05 78.78 744.99
618.23 260.55 849.24 846.11 299.98 266.14 0.00 1000.94 462.27 324.36 938.16 910.61 345.00 188.88 407.15 353.50 207.86 941.81 282.96 416.24 861.38 221.67 338.40 885.10 897.54 378.77 317.60 308.04 855.01 318.97 943.67 421.56 361.11 890.42 927.77 241.65 935.56 279.96 445.86 890.31 773.48 404.80 319.93 220.08 867.43 188.37 543.31 328.36 759.83 446.33 876.72 852.33 148.37 171.01 301.66 575.49 782.80 817.49 844.50 202.38 889.71 310.92 472.29 204.20 399.24 294.95 399.66 352.82 385.18 943.79 879.97 353.94 241.35 443.59 357.81 845.79 343.55 325.01 375.44 914.20 244.72 389.03 237.23 368.41 280.88 952.56 239.80 796.74 205.78 854.62 216.04 947.00 838.79 855.23 349.23 885.55 491.53 130.26 516.89 313.25 172.68 396.77 865.92 304.67 223.71 720.00 922.77 300.64 879.80 304.65 359.63 201.40 868.31 896.23 192.91 1021.28 1064.55 945.53 645.99 344.92 784.30
771.83 997.25 195.83 209.65 850.92 923.89 1000.94 0.00 1020.05 826.54 349.82 252.33 978.38 1036.19 960.96 951.28 1020.73 252.43 999.99 951.36 273.07 895.24 860.28 411.39 309.20 899.94 1032.64 938.68 228.25 954.44 261.53 1002.19 838.71 280.92 307.55 1040.01 347.22 1034.96 891.04 356.77 400.38 997.71 981.30 1049.78 264.33 1013.35 732.91 899.41 440.69 1029.62 287.73 213.90 1056.73 1023.11 1004.15 963.13 435.62 183.45 206.07 998.08 280.21 931.64 733.62 1028.16 937.88 901.51 1107.21 891.17 860.23 264.94 328.22 939.86 969.08 1069.20 928.05 281.32 1051.10 918.73 821.02 278.54 923.92 962.49 1019.13 1075.96 976.92 324.58 912.53 411.99 995.94 215.99 1002.15 328.96 250.48 245.73 919.47 248.28 784.69 1012.90 1034.76 960.71 942.54 927.08 237.67 885.36 928.62 498.42 339.42 991.10 247.31 874.27 774.20 1013.85 232.65 167.95 1012.21 459.76 533.68 368.45 806.68 920.31 216.64
457.09 241.30 868.35 865.22 259.91 212.13 462.27 1020.05 0.00 243.72 926.13 823.81 170.66 299.42 117.96 172.24 262.62 862.59 238.18 115.32 858.20 278.35 304.60 732.13 891.10 220.55 170.97 178.38 858.97 173.54 869.59 89.92 283.03 815.50 862.95 260.29 905.44 208.61 212.35 774.51 661.07 87.58 181.92 330.27 852.44 277.51 352.37 206.69 690.45 107.19 853.80 871.44 491.72 291.26 228.68 279.00 664.84 836.60 863.61 259.89 786.47 193.88 325.79 278.80 82.17 414.89 178.26 179.09 215.60 850.08 825.21 162.69 331.87 108.74 159.37 847.39 122.15 200.50 373.18 879.92 253.00 129.62 225.04 142.07 230.60 904.56 241.61 703.03 260.10 873.08 279.43 864.04 857.90 820.95 150.79 821.98 300.59 340.22 127.11 175.39 362.73 144.25 846.01 231.70 257.70 602.04 780.58 420.02 813.38 269.88 357.25 307.65 834.03 915.34 288.05 903.02 889.99 842.00 333.36 159.74 803.41
381.12 191.89 728.15 621.97 24.38 97.35 324.36 826.54 243.72 0.00 707.33 650.02 151.84 250.96 174.37 124.74 211.75 696.00 173.45 165.09 657.03 130.71 97.46 619.71 666.71 73.40 222.11 112.14 618.17 127.90 703.00 175.65 73.88 625.07 705.31 251.43 704.73 208.42 170.76 616.87 512.21 194.31 154.76 279.40 708.70 241.28 268.63 92.23 550.62 235.84 706.30 628.30 396.87 224.47 192.85 319.19 507.20 667.68 620.47 236.61 654.10 105.10 252.88 226.28 161.55 192.74 280.67 64.63 141.31 683.49 667.57 113.32 155.33 279.28 101.51 709.74 224.56 92.19 174.36 701.37 152.32 135.95 212.39 249.42 171.56 733.08 146.76 545.39 236.54 644.37 226.60 671.40 634.44 642.40 92.93 578.26 247.43 248.37 279.32 134.17 165.74 100.54 602.29 58.82 136.65 444.40 617.15 242.93 688.01 47.73 170.02 243.90 655.48 734.68 240.61 790.60 788.95 729.58 402.12 93.77 680.67
627.55 883.27 206.04 193.89 731.71 804.68 938.16 349.82 926.13 707.33 0.00 174.83 859.17 904.29 832.12 832.07 856.82 102.80 880.78 822.52 227.14 797.14 729.41 261.76 40.62 780.73 907.10 819.47 188.18 835.23 111.90 836.21 724.92 174.09 69.59 908.11 27.10 915.75 816.59 213.91 314.88 862.47 862.09 924.47 106.62 881.45 595.91 799.56 299.27 904.00 78.01 185.41 1001.24 911.04 878.61 799.72 325.60 219.17 177.58 881.68 151.37 812.43 714.69 888.78 849.55 643.21 974.53 771.96 792.35 115.31 202.68 820.65 800.92 980.87 808.84 95.75 925.12 799.52 718.60 102.08 809.94 843.28 894.40 949.98 862.94 106.99 798.55 262.36 864.04 148.49 888.17 166.43 204.55 157.57 800.26 203.56 647.69 914.80 912.64 841.50 854.50 807.87 227.59 766.15 814.64 330.50 318.51 734.44 118.34 755.06 686.60 897.53 144.49 247.71 898.23 285.62 316.79 218.82 660.53 801.10 211.54
519.50 787.45 184.61 97.90 674.40 747.37 910.61 252.33 823.81 650.02 174.83 0.00 801.86 868.53 718.09 748.53 803.49 79.75 793.46 708.49 92.05 780.73 667.51 222.83 134.21 723.42 780.31 762.16 109.84 777.92 70.65 789.03 629.86 56.19 114.51 846.93 157.00 807.31 770.28 104.44 191.53 794.23 804.78 871.14 114.73 839.37 556.39 742.25 222.15 794.88 143.34 121.80 874.45 843.68 751.82 720.26 266.61 143.61 113.97 828.35 37.34 755.12 624.46 832.17 741.64 719.37 898.15 714.65 697.29 76.38 75.89 723.81 792.61 872.96 718.02 126.99 874.58 742.21 644.50 94.00 727.45 785.97 822.66 879.47 767.12 140.30 716.06 223.43 828.28 120.05 805.68 138.08 114.64 55.38 713.21 71.76 608.17 852.42 873.69 784.19 750.52 750.56 87.38 708.84 732.15 276.91 183.42 810.60 103.92 697.75 597.68 817.38 48.11 210.61 815.74 268.88 349.14 184.38 621.60 704.26 141.98
395.31 90.94 860.48 773.81 176.22 125.20 345.00 978.38 170.66 151.84 859.17 801.86 0.00 200.82 153.13 54.87 192.25 823.11 108.18 150.49 808.87 174.16 249.30 713.58 818.55 141.45 124.25 95.35 770.01 75.49 830.11 80.74 225.72 776.91 853.77 128.87 856.57 116.02 182.18 733.36 664.05 131.31 31.56 209.40 810.05 182.15 341.38 112.77 679.46 146.31 838.66 780.14 401.26 193.63 66.54 290.28 601.07 819.52 772.31 171.48 797.06 93.59 305.86 179.50 117.34 311.91 148.63 109.25 202.85 810.60 742.47 79.59 176.17 174.88 105.24 831.69 138.41 59.65 274.98 845.19 164.58 44.03 170.83 113.55 90.81 874.52 155.20 663.55 172.94 796.21 189.09 823.24 786.28 794.24 96.66 730.10 301.04 214.74 245.24 51.39 258.54 138.79 754.13 127.50 157.33 592.86 768.99 322.44 839.85 166.90 296.65 175.86 807.32 886.52 199.64 884.47 835.86 823.45 411.44 99.14 795.54
529.03 156.91 840.36 860.17 257.76 174.40 188.88 1036.19 299.42 250.96 904.29 868.53 200.82 0.00 292.18 211.05 65.04 829.82 155.05 282.58 849.34 198.63 299.60 732.75 863.67 248.84 159.59 186.80 858.41 192.83 838.92 266.89 318.29 828.14 883.69 83.67 901.69 121.95 344.40 814.91 756.62 317.50 203.06 70.04 886.78 57.66 402.96 231.58 741.04 337.46 915.39 835.70 270.69 26.49 134.28 460.29 714.89 905.88 843.53 57.86 847.26 162.60 380.55 45.47 282.00 307.49 287.17 223.07 306.96 842.26 792.67 223.03 149.78 313.39 242.61 890.73 259.29 196.54 291.22 802.21 141.11 244.85 75.31 238.21 155.33 906.18 152.50 768.58 40.25 895.33 91.27 864.66 871.93 861.18 251.19 829.22 394.71 87.44 390.75 168.73 197.68 259.75 853.25 208.88 145.49 677.78 757.97 277.23 914.99 250.80 333.58 92.48 848.10 887.35 52.82 876.76 966.28 842.62 567.77 242.58 903.73
359.98 176.85 821.97 777.80 190.56 159.70 407.15 960.96 117.96 174.37 832.12 718.09 153.13 292.18 0.00 123.23 264.15 776.07 199.26 9.60 762.48 209.00 210.72 710.44 791.50 147.48 235.46 142.50 753.25 163.13 782.04 101.70 177.31 709.78 803.21 252.79 829.52 203.93 107.84 732.47 615.64 79.66 136.64 311.16 788.76 267.34 318.02 137.34 640.46 95.99 801.33 769.63 443.64 272.59 183.51 267.80 601.56 790.22 764.16 270.44 680.75 132.36 236.49 282.14 35.79 349.92 199.26 109.74 109.88 786.92 735.34 100.47 256.65 167.11 72.86 770.40 190.61 149.93 289.84 774.20 204.92 109.10 236.54 180.58 156.52 844.82 193.53 668.16 264.35 767.36 244.26 775.23 761.13 715.23 81.44 752.63 322.26 276.89 183.05 143.33 293.38 84.58 768.22 142.36 209.62 610.58 746.23 360.04 763.75 204.91 247.11 205.75 728.31 868.96 245.41 881.33 820.64 820.31 342.52 80.92 757.03
386.58 108.69 805.61 746.71 122.69 96.87 353.50 951.28 172.24 124.74 832.07 748.53 54.87 211.05 123.23 0.00 180.69 768.24 113.81 115.59 781.77 158.09 195.60 665.45 791.45 86.58 169.10 68.25 742.91 47.21 775.24 107.28 198.62 749.81 803.62 177.04 829.47 152.82 138.42 694.20 636.95 149.90 86.43 243.00 755.18 197.39 286.51 57.90 624.59 181.81 783.79 753.04 363.81 192.32 121.41 268.05 561.91 773.86 745.21 195.66 778.84 52.09 250.99 165.58 90.07 287.28 203.50 70.09 158.65 755.73 744.90 24.72 206.47 221.39 50.37 776.82 164.92 32.55 245.85 795.78 110.95 87.04 181.54 168.42 129.02 819.65 113.70 608.68 205.48 769.11 171.36 769.71 759.18 767.14 41.79 703.00 267.01 235.92 228.18 70.24 237.79 91.70 727.03 98.37 129.79 542.71 714.72 320.39 794.24 142.27 241.78 193.61 780.22 852.60 177.46 836.34 780.99 775.32 375.44 44.27 740.67
483.72 116.27 824.90 833.72 208.95 114.40 207.86 1020.73 262.62 211.75 856.82 803.49 192.25 65.04 264.15 180.69 0.00 814.36 115.59 254.55 791.67 182.98 291.53 717.29 848.21 206.25 128.94 156.30 829.92 167.23 823.46 229.16 257.27 789.85 868.23 68.86 883.92 120.54 288.81 792.91 695.60 277.77 160.69 67.65 896.91 35.88 416.28 176.62 735.19 310.03 906.20 840.05 254.99 54.22 145.60 410.21 677.16 850.31 832.22 24.86 807.53 159.18 320.55 31.96 244.20 306.26 282.40 185.34 258.15 826.80 752.94 163.68 178.95 291.07 192.53 875.27 226.29 176.38 300.41 786.75 117.69 207.93 37.58 251.15 117.60 890.72 112.77 728.35 24.79 856.12 63.78 849.20 814.26 825.04 192.18 790.01 364.50 77.60 365.15 179.99 170.19 240.18 814.04 152.93 96.68 628.97 810.02 274.30 878.07 190.95 284.77 89.55 832.64 857.35 51.08 888.18 931.38 827.16 518.96 183.23 859.39
524.75 816.92 235.80 149.15 680.57 789.46 941.81 252.43 862.59 696.00 102.80 79.75 823.11 829.82 776.07 768.24 814.36 0.00 817.45 766.47 162.30 745.27 628.54 158.96 89.07 681.66 804.30 789.39 158.01 815.45 9.10 772.67 622.12 71.29 65.85 833.64 108.34 831.30 742.12 139.44 212.08 844.30 846.07 848.02 137.77 806.98 534.55 742.22 196.47 822.86 147.06 167.06 898.44 840.44 775.81 717.18 222.80 194.86 160.31 839.22 95.32 801.10 653.33 826.67 799.62 657.82 897.46 714.62 689.55 12.51 99.88 771.42 811.52 922.98 751.50 116.13 841.35 788.19 615.80 27.61 747.66 785.94 824.63 866.21 804.44 76.43 740.05 159.56 789.57 138.88 829.67 76.53 139.71 86.58 742.92 118.10 586.33 852.97 839.48 801.91 783.62 752.57 129.79 754.82 726.65 260.55 228.14 749.05 109.87 734.25 644.02 841.37 73.50 261.86 835.95 207.33 296.85 116.02 557.73 751.87 170.86
467.29 22.41 884.74 795.42 197.83 141.09 282.96 999.99 238.18 173.45 880.78 793.46 108.18 155.05 199.26 113.81 115.59 817.45 0.00 208.86 827.89 207.71 266.42 755.13 840.16 187.53 67.21 112.23 791.62 91.38 826.55 183.42 247.33 784.21 878.76 104.59 878.18 52.91 243.98 768.27 685.66 183.99 81.79 156.72 868.99 132.21 380.64 137.03 718.72 225.52 879.75 801.75 351.32 136.51 41.64 365.38 642.62 841.13 793.92 121.46 772.16 98.66 322.22 147.55 189.36 307.37 199.51 150.80 239.98 829.96 717.57 118.85 203.94 225.11 147.70 861.81 146.73 81.26 292.42 845.06 118.52 152.21 122.76 166.25 42.74 893.88 107.13 709.63 114.80 817.82 102.08 838.57 807.89 806.64 147.35 751.71 346.14 152.70 289.30 67.28 208.49 185.75 775.74 144.94 123.22 617.85 790.60 292.08 855.16 182.79 311.31 107.33 819.72 851.71 140.53 926.02 886.55 865.00 481.00 138.40 819.80
350.38 186.45 819.33 768.20 184.23 150.10 416.24 951.36 115.32 165.09 822.52 708.49 150.49 282.58 9.60 115.59 254.55 766.47 208.86 0.00 752.88 207.83 201.12 707.74 781.90 144.87 231.97 132.90 743.65 162.80 772.44 92.10 167.71 700.18 793.61 243.19 819.92 194.33 98.24 722.87 606.04 85.74 146.24 320.76 779.16 262.04 308.42 131.01 646.50 86.39 791.73 760.03 434.04 262.99 180.87 258.20 595.23 780.93 754.56 279.41 671.15 122.76 226.89 279.03 33.15 357.83 189.66 103.41 100.28 777.32 725.74 90.87 263.08 164.47 82.46 760.80 181.01 148.14 296.81 764.60 195.32 106.46 246.14 170.98 166.12 835.22 183.93 658.56 254.75 757.76 253.86 765.63 751.53 705.63 80.27 743.35 319.62 286.49 173.45 152.93 292.21 74.98 758.62 151.96 200.02 604.22 736.63 358.87 754.15 212.82 255.88 215.35 718.71 866.32 255.01 878.63 819.47 817.61 332.92 71.32 754.39
605.23 805.48 142.02 63.79 681.41 738.56 861.38 273.07 858.20 657.03 227.14 92.05 808.87 849.34 762.48 781.77 791.67 162.30 827.89 752.88 0.00 787.74 678.27 285.79 192.48 730.43 840.74 769.17 59.61 763.25 162.70 810.64 681.21 91.01 188.82 851.63 208.93 845.46 689.83 126.05 242.88 812.51 811.79 859.32 129.74 827.55 519.58 749.26 266.54 839.27 158.35 82.32 917.17 845.89 812.25 764.65 332.42 89.62 81.79 816.53 81.73 762.13 532.41 823.63 776.03 732.00 928.31 721.66 659.02 165.02 136.32 758.68 807.21 907.35 752.89 151.38 881.59 749.22 651.51 159.81 732.15 792.98 827.36 879.35 785.15 223.14 720.76 237.73 816.46 102.27 810.38 227.53 22.59 100.84 748.08 78.77 571.36 857.12 833.55 787.35 773.90 753.02 61.81 715.85 736.85 298.52 91.37 821.82 129.45 704.76 604.69 822.08 113.92 174.06 820.44 358.33 414.95 232.20 684.56 739.13 77.08
400.43 185.30 774.28 752.68 136.66 138.43 221.67 895.24 278.35 130.71 797.14 780.73 174.16 198.63 209.00 158.09 182.98 745.27 207.71 207.83 787.74 0.00 116.73 663.43 756.52 172.95 262.92 119.51 748.88 168.98 752.27 238.62 154.38 755.78 804.26 201.08 794.54 225.28 224.19 709.54 592.71 242.39 195.84 154.54 785.83 217.30 349.13 153.06 622.62 283.89 814.44 759.01 292.83 172.14 209.17 353.82 619.48 798.39 751.18 167.58 784.81 146.18 272.15 185.17 196.18 153.93 322.79 155.86 213.61 732.76 736.54 156.06 78.33 327.50 136.14 793.66 287.58 155.21 157.64 744.06 107.31 218.19 202.43 285.35 164.97 796.68 102.39 585.71 207.77 775.08 156.72 783.68 765.15 773.11 127.56 708.97 318.67 117.66 313.95 156.41 84.38 177.47 733.00 99.90 86.30 556.68 703.63 228.05 818.72 82.98 202.81 174.94 786.19 727.29 180.31 834.32 866.76 773.30 461.21 136.51 811.38
318.59 271.67 712.56 655.71 118.53 177.13 338.40 860.28 304.60 97.46 729.41 667.51 249.30 299.60 210.72 195.60 291.53 628.54 266.42 201.12 678.27 116.73 0.00 546.70 688.79 129.76 287.95 191.92 651.91 207.68 635.54 256.64 37.65 658.81 687.53 299.30 714.30 288.20 165.59 592.81 475.98 268.64 234.54 271.27 698.57 321.06 232.40 185.34 505.89 287.51 707.86 662.04 409.56 273.11 257.82 327.75 521.39 692.91 654.21 280.75 674.40 184.88 155.42 289.32 222.43 183.00 376.24 162.09 100.84 616.03 619.81 174.08 195.06 353.75 145.23 676.93 322.02 189.65 132.90 627.33 219.64 233.41 303.29 327.28 251.34 679.95 218.12 468.98 316.13 678.11 273.45 678.61 661.39 676.14 153.81 612.00 224.53 234.39 323.04 199.14 201.11 178.64 636.03 138.60 203.03 538.55 586.90 274.23 708.99 125.65 86.08 291.67 673.22 749.47 252.59 717.59 803.14 656.57 361.65 158.99 714.41
365.79 759.77 377.58 303.11 595.33 694.15 885.10 411.39 732.13 619.71 261.76 222.83 713.58 732.75 710.44 665.45 717.29 158.96 755.13 707.74 285.79 663.43 546.70 0.00 231.30 645.79 802.01 679.10 293.69 712.66 165.96 687.43 584.35 230.25 217.94 736.57 239.99 775.59 617.93 159.74 191.61 705.43 742.40 784.94 280.92 709.91 476.99 631.93 138.91 663.90 286.21 316.40 929.02 743.37 760.36 558.22 112.51 348.82 315.87 742.15 254.28 700.59 528.96 741.83 701.25 675.13 825.75 604.33 647.54 146.45 210.44 640.73 726.28 776.67 641.21 259.28 776.34 690.40 594.64 186.50 728.61 675.65 727.56 801.20 739.44 210.37 723.69 175.82 692.50 297.84 780.62 131.91 288.88 240.54 632.63 277.06 522.29 767.44 680.52 701.68 726.06 682.54 286.65 678.53 707.60 175.31 306.43 721.24 268.83 649.01 547.82 760.13 227.46 372.26 756.04 170.89 260.41 109.87 398.77 641.58 329.75
597.09 858.60 208.81 153.27 691.09 764.06 897.54 309.20 891.10 666.71 40.62 134.21 818.55 863.67 791.50 791.45 848.21 89.07 840.16 781.90 192.48 756.52 688.79 231.30 0.00 740.11 869.76 778.85 147.56 794.61 83.15 825.66 694.46 136.16 74.30 867.49 38.02 875.13 775.97 173.29 284.42 861.02 821.47 910.73 71.68 840.83 606.83 758.94 268.81 868.29 80.78 144.79 963.90 874.29 841.27 789.52 311.87 198.98 136.96 873.07 110.75 771.81 724.89 872.75 808.93 602.59 947.38 731.34 761.89 84.85 165.34 780.03 760.30 940.25 768.22 65.11 891.27 758.90 683.08 61.46 816.90 802.66 858.48 916.13 838.27 66.37 805.51 231.90 823.42 143.93 885.02 125.81 184.58 120.43 759.64 169.24 625.82 874.18 872.02 800.88 813.88 767.25 190.70 725.53 803.36 313.54 283.04 693.82 77.72 714.44 655.96 856.91 107.35 210.20 886.96 256.61 327.71 196.88 630.07 760.48 197.16
357.95 195.27 801.55 695.37 97.78 113.17 378.77 899.94 220.55 73.40 780.73 723.42 141.45 248.84 147.48 86.58 206.25 681.66 187.53 144.87 730.43 172.95 129.76 645.79 740.11 0.00 236.64 116.23 691.57 133.79 688.66 152.48 147.28 698.47 740.65 249.65 767.42 212.72 154.34 665.57 574.62 171.14 170.58 259.13 781.53 226.00 309.76 69.06 559.01 212.67 762.50 701.70 395.55 239.75 178.93 296.02 533.28 741.08 693.87 208.38 727.50 120.92 200.27 227.29 138.38 217.23 275.04 41.46 81.35 669.15 672.93 98.26 143.69 256.11 78.34 759.89 241.39 119.13 222.12 709.20 134.05 112.78 173.53 255.00 176.57 733.07 145.44 522.10 208.59 717.77 217.75 744.80 707.84 715.80 69.76 651.66 278.17 259.02 256.15 120.25 239.14 81.79 675.69 74.64 155.06 517.80 690.55 270.13 761.41 89.97 215.84 240.30 728.88 808.08 222.34 816.68 808.96 744.71 342.16 78.71 751.83
477.64 83.06 906.11 844.08 246.49 156.59 317.60 1032.64 170.97 222.11 907.10 780.31 124.25 159.59 235.46 169.10 128.94 804.30 67.21 231.97 840.74 262.92 287.95 802.01 869.76 236.64 0.00 144.17 831.51 138.10 813.40 166.06 250.30 788.04 870.15 89.32 907.78 37.64 264.51 755.12 688.63 177.95 122.10 169.85 867.02 129.23 431.79 186.14 741.33 219.48 879.59 840.54 348.34 172.56 57.71 391.29 689.50 868.79 832.71 141.19 759.01 117.01 362.74 139.95 199.67 342.91 203.90 197.68 277.00 816.81 704.42 177.44 264.59 162.13 189.18 848.66 152.05 148.47 310.77 831.91 173.73 126.36 154.17 176.91 97.95 880.73 162.34 741.15 133.39 823.13 169.29 825.42 839.39 793.49 180.60 800.37 395.25 198.99 279.59 116.39 275.70 214.16 824.40 163.29 178.43 666.51 839.26 352.73 842.01 230.83 346.44 167.98 806.57 906.05 157.61 956.22 919.80 856.80 484.61 189.55 841.17
391.26 122.36 819.58 734.11 132.25 41.90 308.04 938.68 178.38 112.14 819.47 762.16 95.35 186.80 142.50 68.25 156.30 789.39 112.23 132.90 769.17 119.51 191.92 679.10 778.85 116.23 144.17 0.00 730.31 57.46 798.49 151.22 186.02 737.21 813.18 165.23 816.87 130.48 187.72 698.88 624.35 154.42 94.37 223.95 799.86 129.14 324.38 71.87 658.49 195.95 818.44 740.44 322.36 167.39 103.63 313.54 566.59 779.82 732.61 152.44 766.24 27.16 248.05 161.27 154.03 247.05 219.96 74.77 142.62 782.05 712.42 87.59 167.61 237.69 95.86 821.50 168.07 35.70 194.80 810.71 83.64 139.38 178.85 192.93 123.97 845.22 72.25 635.00 146.55 756.51 158.36 779.27 746.58 754.54 91.09 690.40 280.98 202.90 255.38 44.95 195.65 124.31 714.43 53.32 88.34 552.27 710.87 265.29 800.15 102.04 241.62 131.76 767.62 816.83 171.42 849.99 830.29 788.97 403.43 82.14 754.64
629.34 810.06 135.65 43.82 642.55 715.52 855.01 228.25 858.97 618.17 188.18 109.84 770.01 858.41 753.25 742.91 829.92 158.01 791.62 743.65 59.61 748.88 651.91 293.69 147.56 691.57 831.51 730.31 0.00 746.07 167.11 793.82 661.97 86.72 173.88 836.89 184.01 826.59 728.26 133.95 250.78 812.48 772.93 883.25 107.74 859.45 524.54 710.40 257.31 830.04 110.26 22.71 910.80 831.92 803.02 755.42 328.62 89.53 22.18 853.31 72.50 723.27 592.02 844.45 776.80 676.57 898.84 682.80 710.86 170.52 127.09 731.49 773.50 897.45 719.68 103.85 842.73 710.36 612.65 156.01 770.49 754.12 830.56 867.59 789.73 186.10 763.80 259.81 854.71 46.36 820.70 195.36 37.02 97.04 711.10 39.91 576.32 841.74 851.71 752.34 714.29 718.71 52.90 676.99 753.92 306.42 150.98 767.80 69.84 665.90 565.83 839.40 110.12 156.36 845.31 326.16 411.15 222.97 684.76 711.94 70.71
394.01 92.02 841.56 749.87 152.28 52.83 318.97 954.44 173.54 127.90 835.23 777.92 75.49 192.83 163.13 47.21 167.23 815.45 91.38 162.80 763.25 168.98 207.68 712.66 794.61 133.79 138.10 57.46 746.07 0.00 822.45 123.73 201.78 752.97 833.21 157.29 832.63 105.61 185.63 741.41 640.11 148.79 75.90 199.10 802.39 186.60 333.72 93.85 671.80 186.31 831.00 756.20 329.82 166.34 82.78 315.26 609.12 795.58 748.37 169.18 774.47 51.84 230.84 181.76 137.28 281.63 177.14 117.30 182.79 802.94 719.88 71.93 183.37 219.22 97.58 824.03 121.03 42.74 216.56 829.27 91.10 84.03 134.33 145.89 99.93 860.98 79.71 655.89 169.39 772.27 161.80 799.30 762.34 770.30 89.00 706.16 302.96 216.07 197.92 24.10 217.94 138.91 730.19 69.08 95.80 572.30 745.05 295.15 815.91 136.62 262.42 176.94 783.38 824.29 173.62 883.55 828.20 822.53 422.65 91.48 776.62
531.75 826.02 236.97 153.57 687.57 798.56 943.67 261.53 869.59 703.00 111.90 70.65 830.11 838.92 782.04 775.24 823.46 9.10 826.55 772.44 162.70 752.27 635.54 165.96 83.15 688.66 813.40 798.49 167.11 822.45 0.00 779.67 629.12 80.39 74.95 842.74 117.44 840.40 734.82 148.54 219.08 853.40 855.17 838.92 146.87 816.08 541.55 751.32 203.47 829.86 155.72 176.16 907.33 849.54 784.91 724.18 231.90 199.28 169.41 848.32 101.29 808.10 660.33 835.77 805.59 648.72 906.56 723.72 696.55 19.51 108.98 780.52 806.43 929.98 760.60 125.23 850.45 795.19 624.90 36.71 756.76 795.04 833.73 875.31 813.54 79.88 749.15 166.56 798.67 147.98 838.77 67.43 148.81 91.00 752.02 127.20 593.33 859.97 846.48 808.91 790.62 759.57 120.69 761.82 735.75 267.55 219.04 739.95 118.97 741.25 653.12 845.04 82.60 266.28 845.05 198.23 287.75 113.73 564.73 760.97 179.96
390.98 161.01 883.08 797.62 191.84 168.88 421.56 1002.19 89.92 175.65 836.21 789.03 80.74 266.89 101.70 107.28 229.16 772.67 183.42 92.10 810.64 238.62 256.64 687.43 825.66 152.48 166.06 151.22 793.82 123.73 779.67 0.00 249.53 783.24 773.03 209.61 815.52 196.76 177.85 684.59 665.63 94.79 112.30 290.14 862.46 244.05 344.35 138.62 618.34 100.38 853.51 803.95 449.13 257.80 147.28 272.19 574.92 843.33 796.12 226.43 763.25 142.99 308.83 245.34 96.90 368.39 138.32 111.02 192.38 760.16 735.29 82.56 256.91 150.31 111.41 852.90 88.91 139.83 316.25 796.42 187.63 39.70 191.58 113.77 140.68 814.64 199.02 613.11 226.64 820.02 245.97 807.47 810.09 797.73 111.06 753.91 347.73 291.30 182.03 132.13 314.47 134.46 777.94 168.77 205.14 512.12 772.56 389.66 828.11 223.38 299.62 231.20 793.42 897.11 254.59 858.32 850.26 797.30 365.51 102.11 818.14
334.32 236.95 701.26 647.52 80.88 171.23 361.11 838.71 283.03 73.88 724.92 629.86 225.72 318.29 177.31 198.62 257.27 622.12 247.33 167.71 681.21 154.38 37.65 584.35 694.46 147.28 250.30 186.02 661.97 201.78 629.12 249.53 0.00 668.87 681.11 307.93 707.88 276.93 140.42 555.16 438.33 253.45 228.64 308.92 708.63 293.15 194.75 147.69 491.03 254.10 717.92 671.99 430.58 291.80 266.73 294.34 531.45 655.26 664.27 282.13 647.03 178.98 193.07 289.23 200.86 209.59 354.55 138.51 67.43 609.61 605.86 187.20 211.83 332.18 174.98 686.99 298.44 166.07 129.10 649.66 181.99 209.83 277.20 323.30 216.62 673.53 180.47 490.85 282.06 688.17 236.98 696.55 678.24 644.06 166.81 622.06 189.93 230.85 316.85 208.05 235.86 164.37 646.09 132.70 193.15 500.90 622.96 299.41 720.15 121.61 96.14 274.89 657.14 748.25 270.28 755.24 813.20 656.16 328.24 167.65 688.45
575.69 761.80 174.95 90.52 649.45 722.42 890.42 280.92 815.50 625.07 174.09 56.19 776.91 828.14 709.78 749.81 789.85 71.29 784.21 700.18 91.01 755.78 658.81 230.25 136.16 698.47 788.04 737.21 86.72 752.97 80.39 783.24 668.87 0.00 123.17 807.95 155.19 801.78 756.72 134.32 237.73 785.92 779.83 857.50 127.28 815.79 531.44 717.30 213.84 786.57 128.64 95.77 882.18 804.70 759.55 711.95 266.77 133.35 89.02 804.92 29.03 730.17 623.42 793.19 733.33 700.04 889.84 689.70 728.33 83.80 83.62 738.39 780.40 864.65 726.58 118.68 849.63 717.26 619.55 94.16 688.47 761.02 783.68 871.16 741.47 147.72 677.08 230.85 798.38 85.20 766.70 147.82 68.42 35.19 718.00 46.81 583.22 813.44 858.61 759.24 757.64 725.61 70.84 683.89 693.17 271.12 182.38 789.86 88.22 672.80 572.73 778.40 48.27 203.23 776.76 278.62 349.30 179.50 629.02 718.84 122.91
583.73 879.26 209.51 138.59 680.93 802.66 927.77 307.55 862.95 705.31 69.59 114.51 853.77 883.69 803.21 803.62 868.23 65.85 878.76 793.61 188.82 804.26 687.53 217.94 74.30 740.65 870.15 813.18 173.88 833.21 74.95 773.03 681.11 123.17 0.00 887.51 42.49 897.15 768.89 193.31 271.07 792.88 858.87 913.87 103.62 860.85 593.54 778.78 255.46 834.41 81.48 163.06 964.29 894.31 841.66 730.13 288.65 184.30 170.89 893.09 122.46 810.41 712.32 892.52 802.71 676.89 911.35 761.75 748.54 71.50 165.73 817.13 811.88 923.34 788.28 81.98 861.94 797.50 681.65 81.48 811.64 812.73 878.50 886.80 864.64 41.61 800.25 218.55 843.44 152.65 883.15 101.50 166.23 87.98 790.05 133.97 645.32 911.96 883.56 839.48 835.91 740.63 158.00 764.13 792.50 260.91 259.87 768.12 115.99 734.61 659.89 901.57 74.90 251.30 898.89 216.03 289.58 181.87 616.71 798.48 196.60
523.71 97.10 844.18 840.69 227.05 170.63 241.65 1040.01 260.29 251.43 908.11 846.93 128.87 83.67 252.79 177.04 68.86 833.64 104.59 243.19 851.63 201.08 299.30 736.57 867.49 249.65 89.32 165.23 836.89 157.29 842.74 209.61 307.93 807.95 887.51 0.00 902.32 51.68 277.45 811.01 746.26 258.68 125.88 80.53 883.55 53.28 414.11 209.83 752.19 275.18 892.84 847.02 272.39 87.53 107.17 398.85 700.94 886.40 839.19 56.16 825.63 155.00 376.78 50.63 232.84 344.80 247.57 209.12 276.25 846.08 771.04 152.32 200.82 251.45 181.17 861.91 241.37 179.61 317.88 806.03 135.79 172.90 76.12 242.42 101.59 905.78 130.87 748.06 44.07 863.09 111.94 868.48 853.16 843.14 180.82 796.98 382.60 136.91 355.21 140.08 196.61 228.82 821.01 196.00 114.78 647.07 841.64 294.37 895.92 255.59 271.06 109.62 851.92 875.45 84.32 907.46 920.02 846.44 514.47 171.87 892.60
605.78 856.17 220.74 181.08 723.42 802.08 935.56 347.22 905.44 704.73 27.10 157.00 856.57 901.69 829.52 829.47 883.92 108.34 878.18 819.92 208.93 794.54 714.30 239.99 38.02 767.42 907.78 816.87 184.01 832.63 117.44 815.52 707.88 155.19 42.49 902.32 0.00 896.15 811.38 211.31 297.84 835.37 859.49 948.75 97.77 878.85 568.81 796.96 282.23 876.90 92.71 162.62 1001.92 899.07 879.29 772.62 331.14 217.63 170.45 899.29 148.77 809.83 687.59 887.56 845.20 640.61 953.84 769.36 775.31 98.27 203.36 818.05 798.32 965.83 806.24 103.13 904.43 796.92 721.10 99.48 782.84 840.68 878.05 929.29 835.84 84.10 771.45 245.32 861.44 137.65 861.07 143.99 186.34 130.47 797.66 176.46 620.59 907.81 895.98 838.90 851.90 783.12 200.49 763.55 787.54 303.40 300.30 731.84 115.74 752.46 693.98 872.77 117.39 248.22 871.13 258.52 289.69 224.36 638.76 798.50 184.44
487.75 45.42 895.86 830.39 232.80 118.95 279.96 1034.96 208.61 208.42 915.75 807.31 116.02 121.95 203.93 152.82 120.54 831.30 52.91 194.33 845.46 225.28 288.20 775.59 875.13 212.72 37.64 130.48 826.59 105.61 840.40 196.76 276.93 801.78 897.15 51.68 896.15 0.00 239.59 782.12 715.26 207.00 84.46 132.21 876.02 91.59 394.15 174.89 732.23 248.53 904.63 836.72 310.70 139.21 55.49 369.22 663.08 876.10 828.89 107.84 786.01 103.32 325.10 102.31 203.21 305.27 195.89 171.26 259.82 843.81 731.42 163.75 226.95 199.77 151.54 875.66 189.69 134.17 297.08 857.71 136.09 160.05 116.53 214.55 60.31 907.73 124.70 734.82 95.75 850.13 132.07 852.42 842.86 820.49 142.96 786.68 384.00 161.35 303.53 114.17 238.48 192.87 810.71 149.60 140.79 652.82 822.36 315.09 869.01 217.14 322.74 130.34 833.57 869.28 119.97 946.48 882.16 883.80 476.61 151.91 857.66
252.14 243.40 810.47 738.38 195.14 184.36 445.86 891.04 212.35 170.76 816.59 770.28 182.18 344.40 107.84 138.42 288.81 742.12 243.98 98.24 689.83 224.19 165.59 617.93 775.97 154.34 264.51 187.72 728.26 185.63 734.82 177.85 140.42 756.72 768.89 277.45 811.38 239.59 0.00 674.15 578.75 183.98 206.40 342.60 771.19 316.86 276.20 152.53 614.28 159.76 742.58 713.91 468.30 322.03 248.72 177.90 616.75 779.45 706.08 307.54 769.39 181.80 157.42 304.00 131.39 311.30 287.90 124.93 72.99 750.03 724.85 125.13 284.60 222.53 105.21 773.51 266.76 170.97 230.81 714.51 229.58 138.15 272.69 269.22 223.07 776.52 218.19 631.27 307.75 769.04 301.22 667.39 712.42 735.29 96.63 709.91 276.84 341.85 238.39 208.66 308.57 128.87 733.94 171.42 234.28 610.59 704.41 375.23 781.73 218.49 183.99 313.59 748.37 847.38 315.88 788.82 835.83 727.80 267.49 105.58 766.28
525.53 767.74 252.39 177.77 592.49 713.93 890.31 356.77 774.51 616.87 213.91 104.44 733.36 814.91 732.47 694.20 792.91 139.44 768.27 722.87 126.05 709.54 592.81 159.74 173.29 665.57 755.12 698.88 133.95 741.41 148.54 684.59 555.16 134.32 193.31 811.01 211.31 782.12 674.15 0.00 116.83 753.79 762.18 841.78 213.30 809.20 507.61 651.71 169.53 750.95 225.87 156.66 849.26 790.03 726.63 717.96 230.95 215.07 156.13 787.12 105.29 720.37 584.35 796.25 721.03 696.99 822.91 624.11 622.59 151.88 50.70 680.91 723.44 834.90 660.99 194.94 773.50 709.06 619.51 111.83 702.26 695.43 771.87 798.36 755.26 193.79 690.87 169.35 791.79 169.41 760.94 166.96 148.64 139.77 652.41 140.54 544.05 786.01 834.78 721.46 724.71 702.32 158.02 675.69 696.23 172.47 146.69 718.40 188.29 646.17 651.30 722.43 152.55 212.52 762.09 297.76 387.28 151.62 558.51 661.36 187.45
482.10 675.28 308.51 209.19 519.21 609.56 773.48 400.38 661.07 512.21 314.88 191.53 664.05 756.62 615.64 636.95 695.60 212.08 685.66 606.04 242.88 592.71 475.98 191.61 284.42 574.62 688.63 624.35 250.78 640.11 219.08 665.63 438.33 237.73 271.07 746.26 297.84 715.26 578.75 116.83 0.00 675.65 666.97 747.25 272.74 731.48 390.78 586.02 52.70 634.12 292.92 233.66 868.91 730.13 705.06 710.22 183.56 216.93 241.49 720.46 208.70 617.31 509.56 727.56 639.19 580.16 792.88 576.84 505.76 199.57 167.53 625.53 650.16 746.89 613.31 290.46 736.77 604.40 545.81 228.66 620.32 648.16 715.53 761.63 654.95 263.49 618.80 52.52 718.20 257.00 675.31 283.79 250.39 205.73 605.14 228.60 427.22 669.18 717.95 646.38 639.85 602.70 252.63 571.03 631.48 153.51 241.72 664.75 281.82 559.94 534.47 713.22 218.81 321.90 708.61 330.29 388.25 238.40 590.38 605.98 250.12
436.12 161.58 846.01 816.28 210.50 169.28 404.80 997.71 87.58 194.31 862.47 794.23 131.31 317.50 79.66 149.90 277.77 844.30 183.99 85.74 812.51 242.39 268.64 705.43 861.02 171.14 177.95 154.42 812.48 148.79 853.40 94.79 253.45 785.92 792.88 258.68 835.37 207.00 183.98 753.79 675.65 0.00 162.87 295.89 830.10 274.01 338.13 157.28 676.21 41.53 831.46 822.61 415.11 292.00 197.85 213.34 621.50 814.26 814.78 260.63 756.89 181.58 280.10 281.11 59.83 387.05 191.02 129.68 186.02 840.29 804.49 132.99 271.03 140.59 123.41 825.05 134.91 178.16 349.22 850.34 176.39 87.28 261.93 159.77 181.91 834.49 165.00 693.24 286.30 838.68 254.62 837.34 828.75 791.37 114.83 772.57 346.30 291.87 158.54 172.89 303.23 104.69 796.60 207.74 181.09 606.91 766.34 393.43 791.04 242.04 310.95 246.50 804.45 893.00 264.68 876.32 854.03 815.30 306.66 113.44 781.07
426.87 59.38 869.26 776.73 177.94 119.91 319.93 981.30 181.92 154.76 862.09 804.78 31.56 203.06 136.64 86.43 160.69 846.07 81.79 146.24 811.79 195.84 234.54 742.40 821.47 170.58 122.10 94.37 772.93 75.90 855.17 112.30 228.64 779.83 858.87 125.88 859.49 84.46 206.40 762.18 666.97 162.87 0.00 193.69 841.61 171.81 357.19 121.55 695.27 177.87 861.06 783.06 381.47 189.80 70.26 318.87 629.89 822.44 775.23 158.43 800.78 92.78 306.74 157.59 137.89 308.49 151.50 138.07 209.65 838.25 746.19 111.15 207.73 143.32 101.19 863.25 155.88 91.21 243.42 856.13 142.75 75.59 146.99 145.11 66.97 887.84 131.36 692.68 169.95 799.13 177.33 824.96 789.20 797.16 109.77 733.02 330.66 189.67 260.78 51.80 267.93 148.84 757.05 95.94 125.77 597.96 771.91 322.85 842.77 163.48 290.24 144.30 810.24 875.94 183.96 913.29 848.97 852.27 443.00 114.95 804.32
534.16 134.31 892.55 887.05 276.60 182.05 220.08 1049.78 330.27 279.40 924.47 871.14 209.40 70.04 311.16 243.00 67.65 848.02 156.72 320.76 859.32 154.54 271.27 784.94 910.73 259.13 169.85 223.95 883.25 199.10 838.92 290.14 308.92 857.50 913.87 80.53 948.75 132.21 342.60 841.78 747.25 295.89 193.69 0.00 887.43 103.53 473.00 244.27 730.17 337.42 916.04 893.38 209.67 96.53 175.42 472.23 709.49 917.96 885.55 92.51 875.18 226.83 388.20 77.50 311.85 308.14 328.10 217.67 325.80 858.43 820.59 231.33 150.43 331.98 254.55 908.27 293.94 237.98 312.18 854.40 185.34 253.43 105.23 308.25 154.64 918.80 180.42 740.25 92.44 855.80 116.30 906.35 881.91 892.69 245.97 843.34 432.15 89.82 397.02 209.62 189.02 295.88 867.37 220.58 164.33 696.62 828.01 243.05 926.49 237.52 317.42 139.05 900.29 881.83 99.39 946.80 985.17 894.81 579.62 250.88 926.12
634.23 863.87 156.64 114.61 733.08 806.05 867.43 264.33 852.44 708.70 106.62 114.73 810.05 886.78 788.76 755.18 896.91 137.77 868.99 779.16 129.74 785.83 698.57 280.92 71.68 781.53 867.02 799.86 107.74 802.39 146.87 862.46 708.63 127.28 103.62 883.55 97.77 876.02 771.19 213.30 272.74 830.10 841.61 887.43 0.00 889.53 615.07 795.98 292.82 862.01 28.61 96.06 961.16 901.21 838.53 790.93 339.30 160.32 88.23 898.30 108.01 772.70 662.15 870.33 770.27 674.27 958.68 773.33 768.09 150.21 162.60 779.90 737.00 901.59 805.55 21.64 920.10 787.73 628.19 110.16 814.16 842.22 907.18 923.60 867.16 104.45 802.77 269.01 872.12 100.46 872.12 182.98 144.76 122.65 796.97 130.44 666.85 860.24 833.36 819.40 816.14 809.24 125.73 767.52 800.58 364.53 221.11 765.50 39.06 756.43 612.49 833.61 120.80 154.83 873.27 312.01 387.46 246.74 679.69 799.45 148.43
516.72 112.43 817.52 863.25 244.42 150.28 188.37 1013.35 277.51 241.28 881.45 839.37 182.15 57.66 267.34 197.39 35.88 806.98 132.21 262.04 827.55 217.30 321.06 709.91 840.83 226.00 129.23 129.14 859.45 186.60 816.08 244.05 293.15 815.79 860.85 53.28 878.85 91.59 316.86 809.20 731.48 274.01 171.81 103.53 889.53 0.00 445.54 201.01 770.66 315.54 898.82 869.58 219.11 68.28 147.08 442.68 692.05 886.19 861.75 56.61 833.47 156.30 356.43 32.13 280.08 321.15 287.48 200.23 271.76 819.42 778.88 199.56 174.16 291.36 225.00 867.89 258.04 164.84 323.94 779.37 140.16 226.18 52.47 282.90 110.82 883.34 138.71 748.10 17.41 885.65 99.66 841.82 850.14 838.34 220.23 819.54 393.76 113.48 384.52 174.09 206.07 234.68 843.57 182.46 132.15 664.44 815.63 266.44 901.90 226.83 320.24 86.77 825.26 864.51 68.86 880.80 959.43 819.78 532.57 211.28 882.46
139.57 380.06 611.72 528.34 262.53 321.02 543.31 732.91 352.37 268.63 595.91 556.39 341.38 402.96 318.02 286.51 416.28 534.55 380.64 308.42 519.58 349.13 232.40 476.99 606.83 309.76 431.79 324.38 524.54 333.72 541.55 344.35 194.75 531.44 593.54 414.11 568.81 394.15 276.20 507.61 390.78 338.13 357.19 473.00 615.07 445.54 0.00 260.89 338.08 352.36 608.77 534.67 566.88 421.61 389.32 334.78 468.94 574.05 526.84 421.83 522.89 322.22 118.78 419.62 295.52 404.34 455.18 279.49 245.39 522.04 525.82 261.79 393.48 426.84 256.00 612.54 399.07 319.06 323.85 562.09 305.38 328.20 400.59 423.93 359.73 585.96 316.77 374.99 435.65 550.74 404.87 608.90 540.81 538.15 251.19 484.63 51.78 425.60 327.17 330.64 388.11 233.44 508.66 314.05 319.60 444.30 428.21 472.94 594.38 287.47 290.89 418.09 551.23 633.31 393.67 647.88 673.63 523.78 281.03 242.24 587.04
344.09 158.68 747.71 714.20 97.85 62.22 328.36 899.41 206.69 92.23 799.56 742.25 112.77 231.58 137.34 57.90 176.62 742.22 137.03 131.01 749.26 153.06 185.34 631.93 758.94 69.06 186.14 71.87 710.40 93.85 751.32 138.62 147.69 717.30 778.78 209.83 796.96 174.89 152.53 651.71 586.02 157.28 121.55 244.27 795.98 201.01 260.89 0.00 598.97 198.81 798.53 720.53 361.74 205.09 128.43 282.16 519.42 715.96 712.70 201.48 746.33 71.57 264.01 191.15 124.52 265.71 241.97 27.60 137.40 738.21 702.41 75.13 148.57 242.25 64.48 777.22 198.29 65.92 200.64 763.54 116.45 98.92 175.36 223.15 162.71 802.13 111.63 591.16 201.41 736.60 148.69 744.87 726.67 734.63 55.90 670.49 209.11 240.65 242.29 69.75 217.96 105.81 694.52 53.16 106.80 517.87 689.10 310.82 780.24 120.70 186.37 187.20 737.92 794.70 187.14 802.82 795.10 741.80 389.55 61.14 682.77
464.67 718.14 348.82 261.89 526.24 647.97 759.83 440.69 690.45 550.62 299.27 222.15 679.46 741.04 640.46 624.59 735.19 196.47 718.72 646.50 266.54 622.62 505.89 138.91 268.81 559.01 741.33 658.49 257.31 671.80 203.47 618.34 491.03 213.84 255.46 752.19 282.23 732.23 614.28 169.53 52.70 676.21 695.27 730.17 292.82 770.66 338.08 598.97 0.00 686.82 270.69 273.69 904.71 759.69 727.40 672.86 130.86 257.24 268.22 749.34 184.81 655.72 456.86 738.53 633.60 564.55 756.66 600.47 558.46 183.96 187.74 599.87 619.99 764.92 594.08 274.46 707.25 642.81 574.83 224.01 643.46 658.04 732.54 732.11 697.81 247.88 654.60 36.91 759.98 271.42 693.56 270.82 265.19 219.29 589.27 260.65 389.86 714.60 665.25 668.72 587.15 571.52 272.28 609.44 638.51 106.22 240.62 652.15 267.81 579.92 566.17 716.60 232.37 374.60 731.75 309.80 335.55 185.70 537.68 580.32 290.43
411.90 203.11 877.92 843.31 214.36 195.63 446.33 1029.62 107.19 235.84 904.00 794.88 146.31 337.46 95.99 181.81 310.03 822.86 225.52 86.39 839.27 283.89 287.51 663.90 868.29 212.67 219.48 195.95 830.04 186.31 829.86 100.38 254.10 786.57 834.41 275.18 876.90 248.53 159.76 750.95 634.12 41.53 177.87 337.42 862.01 315.54 352.36 198.81 686.82 0.00 863.37 840.09 456.64 333.53 212.85 171.81 663.03 846.17 832.26 302.16 757.54 209.15 313.28 322.64 91.74 380.27 211.18 171.21 186.67 810.35 801.65 158.72 312.56 112.77 164.91 847.19 176.44 205.96 355.52 850.40 217.92 102.28 282.14 184.04 223.44 874.27 206.53 686.64 317.20 844.15 296.15 795.81 837.92 792.02 156.33 814.10 378.21 333.40 198.50 197.70 344.76 146.22 838.13 229.60 222.62 612.50 780.57 434.56 822.95 235.26 308.70 271.18 805.10 924.91 306.21 834.79 895.53 773.77 265.13 154.97 812.98
652.00 890.44 128.03 115.97 730.68 803.65 876.72 287.73 853.80 706.30 78.01 143.34 838.66 915.39 801.33 783.79 906.20 147.06 879.75 791.73 158.35 814.44 707.86 286.21 80.78 762.50 879.59 818.44 110.26 831.00 155.72 853.51 717.92 128.64 81.48 892.84 92.71 904.63 742.58 225.87 292.92 831.46 861.06 916.04 28.61 898.82 608.77 798.53 270.69 863.37 0.00 119.71 973.73 920.16 851.10 803.50 329.90 161.68 116.07 909.26 120.58 801.31 690.76 898.94 771.63 660.88 951.79 770.93 777.38 139.76 175.17 808.51 765.61 902.95 807.81 30.93 930.86 798.49 656.80 119.45 817.11 842.25 912.32 946.79 870.11 75.84 805.72 240.40 881.41 109.75 895.34 154.45 147.28 105.14 799.23 128.04 660.55 859.21 834.72 840.47 824.55 806.84 152.07 765.12 809.87 341.39 245.74 752.11 40.42 754.03 621.78 862.22 111.40 175.02 901.88 283.40 371.06 240.28 684.98 800.07 175.61
641.30 820.19 132.97 24.47 652.68 725.65 852.33 213.90 871.44 628.30 185.41 121.80 780.14 835.70 769.63 753.04 840.05 167.06 801.75 760.03 82.32 759.01 662.04 316.40 144.79 701.70 840.54 740.44 22.71 756.20 176.16 803.95 671.99 95.77 163.06 847.02 162.62 836.72 713.91 156.66 233.66 822.61 783.06 893.38 96.06 869.58 534.67 720.53 273.69 840.09 119.71 0.00 902.60 809.21 812.05 771.80 313.48 70.18 7.83 840.58 88.88 733.40 614.73 854.58 789.27 699.28 908.97 692.93 712.91 172.99 136.12 741.62 783.63 907.58 729.81 113.30 852.86 720.49 622.78 140.87 780.62 764.25 840.69 877.72 799.86 195.55 772.85 282.52 860.08 69.07 843.41 213.73 59.73 87.04 721.23 50.04 586.45 864.45 861.84 762.47 737.00 728.84 66.23 687.12 764.05 329.13 154.24 777.20 79.29 676.03 575.96 849.53 94.98 133.65 837.15 341.80 396.01 239.35 701.14 722.07 68.03
649.42 331.54 905.03 878.13 378.47 299.52 148.37 1056.73 491.72 396.87 1001.24 874.45 401.26 270.69 443.64 363.81 254.99 898.44 351.32 434.04 917.17 292.83 409.56 929.02 963.90 395.55 348.34 322.36 910.80 329.82 907.33 449.13 430.58 882.18 964.29 272.39 1001.92 310.70 468.30 849.26 868.91 415.11 381.47 209.67 961.16 219.11 566.88 361.74 904.71 456.64 973.73 902.60 0.00 244.20 366.19 594.16 861.29 873.28 900.29 269.47 853.15 340.14 505.67 251.24 409.55 407.66 506.59 389.34 425.24 910.95 798.56 382.27 328.29 510.47 376.48 942.80 450.85 358.06 450.47 926.05 261.50 413.85 271.58 475.71 314.50 974.87 250.11 878.54 236.52 910.41 302.86 919.56 894.58 887.63 371.67 898.07 515.10 278.63 527.74 353.92 321.05 364.22 921.71 338.05 266.20 798.49 881.74 316.43 936.15 375.81 454.29 264.35 900.71 900.16 272.14 1050.36 1110.87 950.94 686.05 362.72 840.09
504.15 130.42 850.98 833.68 234.03 148.42 171.01 1023.11 291.26 224.47 911.04 843.68 193.63 26.49 272.59 192.32 54.22 840.44 136.51 262.99 845.89 172.14 273.11 743.37 874.29 239.75 172.56 167.39 831.92 166.34 849.54 257.80 291.80 804.70 894.31 87.53 899.07 139.21 322.03 790.03 730.13 292.00 189.80 96.53 901.21 68.28 421.61 205.09 759.69 333.53 920.16 809.21 244.20 0.00 160.77 437.92 705.80 879.39 817.04 31.37 822.38 140.23 354.57 50.72 281.18 321.92 288.91 213.98 283.23 852.88 767.79 200.66 164.21 332.84 220.24 900.70 232.80 174.17 317.71 812.83 116.23 237.66 66.22 257.66 146.24 916.80 127.62 742.09 50.87 868.84 66.39 875.28 858.91 839.89 228.82 802.73 369.83 60.95 364.26 142.24 172.80 237.38 826.76 186.51 121.76 654.05 784.46 252.35 888.50 225.92 309.85 67.60 852.97 872.20 27.94 850.27 939.79 853.24 544.04 220.21 877.24
461.85 41.11 876.14 814.82 217.23 132.49 301.66 1004.15 228.68 192.85 878.61 751.82 66.54 134.28 183.51 121.41 145.60 775.81 41.64 180.87 812.25 209.17 257.82 760.36 841.27 178.93 57.71 103.63 803.02 82.78 784.91 147.28 266.73 759.55 841.66 107.17 879.29 55.49 248.72 726.63 705.06 197.85 70.26 175.42 838.53 147.08 389.32 128.43 727.40 212.85 851.10 812.05 366.19 160.77 0.00 356.82 647.85 840.30 804.22 140.16 730.52 105.38 313.62 149.88 147.72 319.20 157.87 156.03 246.25 788.32 675.93 146.13 222.64 213.58 166.69 820.17 184.50 100.66 298.43 803.42 137.22 110.57 108.02 159.64 61.44 852.24 125.83 701.03 143.08 794.64 143.72 796.93 810.90 765.00 163.20 771.11 337.54 171.40 280.70 58.68 250.13 201.01 795.14 151.66 141.92 637.25 810.00 310.78 813.52 174.19 314.80 126.03 778.08 870.41 140.45 927.73 902.40 828.31 477.98 165.68 811.20
415.34 369.26 882.73 779.97 335.38 310.22 575.49 963.13 279.00 319.19 799.72 720.26 290.28 460.29 267.80 268.05 410.21 717.18 365.38 258.20 764.65 353.82 327.75 558.22 789.52 296.02 391.29 313.54 755.42 315.26 724.18 272.19 294.34 711.95 730.13 398.85 772.62 369.22 177.90 717.96 710.22 213.34 318.87 472.23 790.93 442.68 334.78 282.16 672.86 171.81 803.50 771.80 594.16 437.92 356.82 0.00 606.95 792.70 766.33 435.07 682.92 297.69 315.99 433.63 263.55 489.20 343.81 254.56 226.91 704.67 737.51 246.53 369.42 262.21 217.68 772.57 348.25 294.75 408.71 744.72 355.44 274.09 402.32 323.98 348.93 768.59 344.05 709.77 435.00 769.53 428.89 690.13 763.30 717.40 226.26 758.76 283.00 471.48 153.43 336.73 438.20 265.33 770.39 329.89 360.14 621.52 762.99 504.86 765.92 349.73 361.89 442.99 730.48 892.68 443.73 729.11 818.63 668.09 159.45 231.44 817.79
387.87 647.26 387.25 294.15 482.82 581.64 782.80 435.62 664.84 507.20 325.60 266.61 601.07 714.89 601.56 561.91 677.16 222.80 642.62 595.23 332.42 619.48 521.39 112.51 311.87 533.28 689.50 566.59 328.62 609.12 231.90 574.92 531.45 266.77 288.65 700.94 331.14 663.08 616.75 230.95 183.56 621.50 629.89 709.49 339.30 692.05 468.94 519.42 130.86 663.03 329.90 313.48 861.29 705.80 647.85 606.95 0.00 295.67 321.31 674.43 266.06 588.08 551.04 693.34 588.74 562.62 713.24 491.82 590.91 235.31 281.65 548.62 613.77 706.47 528.70 334.25 663.83 577.89 482.13 250.41 616.10 563.14 639.58 688.69 626.93 299.23 611.18 163.79 674.64 296.25 668.11 243.86 309.83 231.58 520.12 295.72 513.92 737.01 706.51 589.17 637.80 570.03 301.85 566.02 595.09 62.80 302.93 608.73 300.24 536.50 435.31 698.35 218.50 364.38 700.78 283.40 281.75 222.38 447.50 529.07 328.86
653.48 859.57 91.58 45.71 692.06 765.03 817.49 183.45 836.60 667.68 219.17 143.61 819.52 905.88 790.22 773.86 850.31 194.86 841.13 780.93 89.62 798.39 692.91 348.82 198.98 741.08 868.79 779.82 89.53 795.58 199.28 843.33 655.26 133.35 184.30 886.40 217.63 876.10 779.45 215.07 216.93 814.26 822.44 917.96 160.32 886.19 574.05 715.96 257.24 846.17 161.68 70.18 873.28 879.39 840.30 792.70 295.67 0.00 78.01 875.17 109.78 772.78 622.03 882.27 754.43 742.65 945.89 732.31 722.69 207.30 164.37 781.00 812.51 885.75 769.19 145.86 892.24 759.87 662.16 167.25 815.93 803.63 880.07 917.10 839.24 225.91 804.54 269.45 875.10 93.52 864.65 234.97 67.03 108.28 760.61 89.42 625.83 886.11 901.22 785.71 803.82 768.22 91.84 726.50 803.43 358.47 175.48 832.47 121.26 715.41 615.34 888.91 121.36 132.51 894.82 365.77 422.39 260.25 722.04 761.45 33.19
633.47 812.36 125.14 32.30 644.85 717.82 844.50 206.07 863.61 620.47 177.58 113.97 772.31 843.53 764.16 745.21 832.22 160.31 793.92 754.56 81.79 751.18 654.21 315.87 136.96 693.87 832.71 732.61 22.18 748.37 169.41 796.12 664.27 89.02 170.89 839.19 170.45 828.89 706.08 156.13 241.49 814.78 775.23 885.55 88.23 861.75 526.84 712.70 268.22 832.26 116.07 7.83 900.29 817.04 804.22 766.33 321.31 78.01 0.00 848.41 83.41 725.57 614.20 846.75 781.44 695.44 901.14 685.10 720.74 172.82 128.29 733.79 775.80 899.75 721.98 109.66 845.03 712.66 614.95 148.70 772.79 756.42 832.86 869.89 792.03 191.91 766.10 279.12 857.01 62.96 842.88 217.54 59.20 94.87 713.40 42.21 578.62 863.92 854.01 754.64 736.47 721.01 66.24 679.29 756.22 328.60 162.07 785.03 75.65 668.20 568.13 841.70 102.81 141.48 844.98 348.34 403.84 233.88 695.67 714.24 60.20
499.10 99.05 849.76 857.11 233.81 139.26 202.38 998.08 259.89 236.61 881.68 828.35 171.48 57.86 270.44 195.66 24.86 839.22 121.46 279.41 816.53 167.58 280.75 742.15 873.07 208.38 141.19 152.44 853.31 169.18 848.32 226.43 282.13 804.92 893.09 56.16 899.29 107.84 307.54 787.12 720.46 260.63 158.43 92.51 898.30 56.61 421.83 201.48 749.34 302.16 909.26 840.58 269.47 31.37 140.16 435.07 674.43 875.17 848.41 0.00 822.60 171.60 345.41 30.08 269.06 303.53 257.54 182.61 283.01 851.66 768.01 188.54 161.30 301.47 217.39 878.33 201.43 188.14 325.22 811.61 116.45 215.51 34.85 226.29 114.87 915.58 127.84 730.48 49.65 879.51 55.78 874.06 839.12 840.11 210.91 813.40 370.05 89.75 367.10 173.61 162.19 260.82 837.43 177.79 121.54 653.83 802.02 249.44 893.14 215.81 287.48 64.69 853.19 843.82 28.16 881.64 950.11 852.02 543.82 208.09 884.25
556.84 771.63 199.81 97.05 678.48 744.17 889.71 280.21 786.47 654.10 151.37 37.34 797.06 847.26 680.75 778.84 807.53 95.32 772.16 671.15 81.73 784.81 674.40 254.28 110.75 727.50 759.01 766.24 72.50 774.47 101.29 763.25 647.03 29.03 122.46 825.63 148.77 786.01 769.39 105.29 208.70 756.89 800.78 875.18 108.01 833.47 522.89 746.33 184.81 757.54 120.58 88.88 853.15 822.38 730.52 682.92 266.06 109.78 83.41 822.60 0.00 759.20 614.14 810.87 704.30 713.34 860.81 718.73 714.46 107.83 54.59 761.15 800.79 835.62 753.61 89.65 852.16 746.29 648.58 93.45 706.15 777.61 801.36 842.13 759.15 164.07 694.76 205.42 816.06 86.61 784.38 151.89 80.38 34.48 747.03 75.84 574.67 831.12 836.35 788.27 728.61 746.13 87.47 712.92 710.85 277.76 173.10 804.57 83.00 701.83 601.76 796.08 47.56 209.76 794.44 282.69 348.59 150.47 612.26 741.60 134.87
412.75 121.07 793.64 727.07 129.48 44.78 310.92 931.64 193.88 105.10 812.43 755.12 93.59 162.60 132.36 52.09 159.18 801.10 98.66 122.76 762.13 146.18 184.88 700.59 771.81 120.92 117.01 27.16 723.27 51.84 808.10 142.99 178.98 730.17 810.41 155.00 809.83 103.32 181.80 720.37 617.31 181.58 92.78 226.83 772.70 156.30 322.22 71.57 655.72 209.15 801.31 733.40 340.14 140.23 105.38 297.69 588.08 772.78 725.57 171.60 759.20 0.00 250.93 173.71 140.95 258.83 192.80 96.26 159.99 788.59 730.20 60.43 156.33 236.10 80.01 794.34 166.31 33.94 193.76 806.47 78.64 135.87 152.34 191.17 106.91 838.18 90.03 643.02 173.71 749.47 131.20 776.50 739.54 747.50 88.59 683.36 280.68 201.18 249.76 46.70 189.44 97.15 707.39 46.28 99.65 549.50 722.25 292.45 793.11 113.82 240.58 158.92 760.58 834.61 166.93 864.87 827.79 810.46 420.80 79.98 754.34
163.17 322.86 674.43 596.20 254.85 206.15 472.29 733.62 325.79 252.88 714.69 624.46 305.86 380.55 236.49 250.99 320.55 653.33 322.22 226.89 532.41 272.15 155.42 528.96 724.89 200.27 362.74 248.05 592.02 230.84 660.33 308.83 193.07 623.42 712.32 376.78 687.59 325.10 157.42 584.35 509.56 280.10 306.74 388.20 662.15 356.43 118.78 264.01 456.86 313.28 690.76 614.73 505.67 354.57 313.62 315.99 551.04 622.03 614.20 345.41 614.14 250.93 0.00 335.08 243.62 338.42 407.98 236.41 126.61 640.82 582.76 226.27 274.80 374.94 220.48 683.79 351.87 273.58 288.32 680.87 261.12 285.43 356.33 376.73 310.29 704.74 255.56 493.77 345.34 634.68 345.18 660.87 555.00 633.25 215.67 603.41 119.42 386.09 301.14 254.94 356.53 223.55 594.22 240.32 271.65 521.62 546.99 354.16 661.86 244.75 241.50 356.88 646.33 706.47 349.41 699.85 789.37 638.83 269.06 206.72 609.49
498.25 129.13 849.44 848.25 212.29 128.93 204.20 1028.16 278.80 226.28 888.78 832.17 179.50 45.47 282.14 165.58 31.96 826.67 147.55 279.03 823.63 185.17 289.32 741.83 872.75 227.29 139.95 161.27 844.45 181.76 835.77 245.34 289.23 793.19 892.52 50.63 887.56 102.31 304.00 796.25 727.56 281.11 157.59 77.50 870.33 32.13 419.62 191.15 738.53 322.64 898.94 854.58 251.24 50.72 149.88 433.63 693.34 882.27 846.75 30.08 810.87 173.71 335.08 0.00 255.65 322.44 287.62 201.52 261.49 839.18 756.28 190.30 173.00 300.91 215.95 878.96 231.51 196.97 314.94 811.29 121.03 223.53 53.76 256.37 133.78 903.10 116.11 733.30 49.33 870.65 75.18 859.31 846.22 828.38 207.37 804.54 367.84 99.38 379.68 158.78 181.59 257.28 828.57 167.46 100.02 632.31 803.44 261.14 881.41 222.91 288.11 76.39 841.46 860.69 36.73 900.99 946.57 851.70 522.30 207.71 873.92
383.53 188.83 786.18 783.05 177.74 139.31 399.24 937.88 82.17 161.55 849.55 741.64 117.34 282.00 35.79 90.07 244.20 799.62 189.36 33.15 776.03 196.18 222.43 701.25 808.93 138.38 199.67 154.03 776.80 137.28 805.59 96.90 200.86 733.33 802.71 232.84 845.20 203.21 131.39 721.03 639.19 59.83 137.89 311.85 770.27 280.08 295.52 124.52 633.60 91.74 771.63 789.27 409.55 281.18 147.72 263.55 588.74 754.43 781.44 269.06 704.30 140.95 243.62 255.65 0.00 350.11 211.72 96.92 133.43 802.14 758.89 80.52 256.59 131.32 77.20 765.22 163.06 118.33 316.07 797.75 170.83 73.31 244.68 175.16 192.31 844.32 159.44 660.48 268.99 790.91 249.06 798.78 775.73 738.78 68.62 739.81 286.47 295.80 206.60 160.31 280.56 62.08 763.84 168.59 175.53 597.76 723.73 347.22 731.21 209.25 275.08 241.54 751.86 833.17 259.12 872.14 807.82 811.12 356.87 77.57 721.24
323.28 284.96 753.79 696.94 198.69 251.08 294.95 901.51 414.89 192.74 643.21 719.37 311.91 307.49 349.92 287.28 306.26 657.82 307.37 357.83 732.00 153.93 183.00 675.13 602.59 217.23 342.91 247.05 676.57 281.63 648.72 368.39 209.59 700.04 676.89 344.80 640.61 305.27 311.30 696.99 580.16 387.05 308.49 308.14 674.27 321.15 404.34 265.71 564.55 380.27 660.88 699.28 407.66 321.92 319.20 489.20 562.62 742.65 695.44 303.53 713.34 258.83 338.42 322.44 350.11 0.00 443.21 257.37 277.02 668.23 678.47 305.91 157.71 451.81 277.06 667.70 387.10 254.73 80.49 664.05 253.15 328.69 268.68 411.96 305.29 668.96 248.23 527.64 303.74 719.34 292.83 716.15 709.41 717.37 281.49 653.23 352.81 271.59 454.87 260.52 211.29 293.28 677.26 212.55 232.14 549.10 769.90 91.23 680.31 145.01 127.31 254.32 709.94 790.70 293.98 846.02 844.37 750.25 537.83 286.51 747.28
504.57 198.98 986.44 900.18 305.05 229.78 399.66 1107.21 178.26 280.67 974.53 898.15 148.63 287.17 199.26 203.50 282.40 897.46 199.51 189.66 928.31 322.79 376.24 825.75 947.38 275.04 203.90 219.96 898.84 177.14 906.56 138.32 354.55 889.84 911.35 247.57 953.84 195.89 287.90 822.91 792.88 191.02 151.50 328.10 958.68 287.48 455.18 241.97 756.66 211.18 951.79 908.97 506.59 288.91 157.87 343.81 713.24 945.89 901.14 257.54 860.81 192.80 407.98 287.62 211.72 443.21 0.00 249.34 289.94 898.48 833.80 220.88 324.80 124.14 231.01 950.46 56.11 188.48 386.56 925.07 268.24 178.02 265.89 48.96 213.00 952.96 256.85 751.43 291.64 925.04 254.20 945.79 905.72 895.29 236.35 858.93 449.67 329.27 190.38 200.02 360.61 239.28 882.96 239.08 272.94 650.44 883.39 468.65 942.93 298.20 428.34 283.90 908.37 1001.43 272.47 996.64 975.55 935.62 455.83 240.43 924.74
316.49 155.44 775.31 686.60 80.82 89.82 352.82 891.17 179.09 64.63 771.96 714.65 109.25 223.07 109.74 70.09 185.34 714.62 150.80 103.41 721.66 155.86 162.09 604.33 731.34 41.46 197.68 74.77 682.80 117.30 723.72 111.02 138.51 689.70 761.75 209.12 769.36 171.26 124.93 624.11 576.84 129.68 138.07 217.67 773.33 200.23 279.49 27.60 600.47 171.21 770.93 692.93 389.34 213.98 156.03 254.56 491.82 732.31 685.10 182.61 718.73 96.26 236.41 201.52 96.92 257.37 249.34 0.00 109.80 710.61 674.81 56.80 159.67 214.65 36.88 774.37 199.93 86.07 228.24 735.94 144.05 71.32 147.76 215.01 135.11 774.53 139.23 563.56 182.82 709.00 176.29 727.84 699.07 707.03 28.30 642.89 236.71 262.94 214.69 97.35 230.37 78.21 666.92 80.76 129.11 500.84 681.78 306.90 752.64 112.36 213.97 206.53 710.32 799.31 210.77 775.22 767.50 714.20 361.95 37.25 710.37
289.78 217.57 768.69 688.44 148.31 152.24 385.18 860.23 215.60 141.31 792.35 697.29 202.85 306.96 109.88 158.65 258.15 689.55 239.98 100.28 659.02 213.61 100.84 647.54 761.89 81.35 277.00 142.62 710.86 182.79 696.55 192.38 67.43 728.33 748.54 276.25 775.31 259.82 72.99 622.59 505.76 186.02 209.65 325.80 768.09 271.76 245.39 137.40 558.46 186.67 777.38 712.91 425.24 283.23 246.25 226.91 590.91 722.69 720.74 283.01 714.46 159.99 126.61 261.49 133.43 277.02 289.94 109.80 0.00 677.04 673.29 145.36 225.04 264.75 119.72 746.45 281.29 178.32 196.53 717.09 182.48 158.82 254.88 271.26 226.45 740.96 175.13 558.28 282.94 736.25 258.76 707.27 673.84 701.84 116.86 681.52 246.03 298.28 273.73 187.57 290.62 96.94 705.55 113.71 161.47 568.33 673.60 334.80 763.99 171.32 155.60 274.38 714.92 801.15 270.77 818.43 852.94 723.59 260.81 125.81 728.33
512.24 829.43 231.13 161.59 668.06 780.84 943.79 264.94 850.08 683.49 115.31 76.38 810.60 842.26 786.92 755.73 826.80 12.51 829.96 777.32 165.02 732.76 616.03 146.45 84.85 669.15 816.81 782.05 170.52 802.94 19.51 760.16 609.61 83.80 71.50 846.08 98.27 843.81 750.03 151.88 199.57 840.29 838.25 858.43 150.21 819.42 522.04 738.21 183.96 810.35 139.76 172.99 910.95 852.88 788.32 704.67 235.31 207.30 172.82 851.66 107.83 788.59 640.82 839.18 802.14 668.23 898.48 710.61 677.04 0.00 112.39 767.41 799.01 910.47 747.49 128.57 849.07 775.68 628.31 40.05 760.17 781.93 837.07 873.93 816.95 63.92 752.56 147.05 802.01 151.39 842.18 86.94 142.43 99.02 738.91 130.61 573.82 840.46 826.97 789.40 771.11 740.06 140.20 742.31 739.16 248.04 229.39 759.46 122.38 721.74 656.53 853.88 85.94 274.30 848.46 217.74 307.26 128.53 545.22 747.86 183.30
519.86 717.04 201.69 143.22 643.19 689.58 879.97 328.22 825.21 667.57 202.68 75.89 742.47 792.67 735.34 744.90 752.94 99.88 717.57 725.74 136.32 736.54 619.81 210.44 165.34 672.93 704.42 712.42 127.09 719.88 108.98 735.29 605.86 83.62 165.73 771.04 203.36 731.42 724.85 50.70 167.53 804.49 746.19 820.59 162.60 778.88 525.82 702.41 187.74 801.65 175.17 136.12 798.56 767.79 675.93 737.51 281.65 164.37 128.29 768.01 54.59 730.20 582.76 756.28 758.89 678.47 833.80 674.81 673.29 112.39 0.00 731.61 746.20 866.55 711.69 144.24 824.20 748.12 670.21 127.49 651.56 746.13 746.77 835.57 704.56 176.31 640.17 150.83 761.47 118.71 729.79 121.00 134.97 89.07 703.11 99.51 577.60 776.53 852.99 734.61 774.89 753.02 123.54 726.39 656.26 223.17 183.48 769.10 137.59 696.87 625.43 741.49 102.15 201.63 739.85 251.80 341.32 152.38 609.21 712.06 136.75
373.29 133.41 813.72 735.29 137.62 87.80 353.94 939.86 162.69 113.32 820.65 723.81 79.59 223.03 100.47 24.72 163.68 771.42 118.85 90.87 758.68 156.06 174.08 640.73 780.03 98.26 177.44 87.59 731.49 71.93 780.52 82.56 187.20 738.39 817.13 152.32 818.05 163.75 125.13 680.91 625.53 132.99 111.15 231.33 779.90 199.56 261.79 75.13 599.87 158.72 808.51 741.62 382.27 200.66 146.13 246.53 548.62 781.00 733.79 188.54 761.15 60.43 226.27 190.30 80.52 305.91 220.88 56.80 145.36 767.41 731.61 0.00 216.47 211.84 28.85 801.54 171.47 57.27 254.19 792.74 135.67 111.35 194.63 182.81 137.04 831.33 132.16 620.36 188.47 757.69 191.63 747.13 747.76 755.72 28.50 691.58 284.24 241.28 206.66 94.96 240.44 76.50 715.61 106.71 148.25 557.64 690.00 307.10 801.33 160.90 217.06 218.33 767.12 848.00 202.18 811.62 767.70 750.60 362.15 19.55 757.90
437.97 181.53 844.26 777.30 130.95 152.82 241.35 969.08 331.87 155.33 800.92 792.61 176.17 149.78 256.65 206.47 178.95 811.52 203.94 263.08 807.21 78.33 195.06 726.28 760.30 143.69 264.59 167.61 773.50 183.37 806.43 256.91 211.83 780.40 811.88 200.82 798.32 226.95 284.60 723.44 650.16 271.03 207.73 150.43 737.00 174.16 393.48 148.57 619.99 312.56 765.61 783.63 328.29 164.21 222.64 369.42 613.77 812.51 775.80 161.30 800.79 156.33 274.80 173.00 256.59 157.71 324.80 159.67 225.04 799.01 746.20 216.47 0.00 351.05 196.55 758.64 304.40 187.26 198.90 821.76 110.95 220.20 179.22 289.72 170.42 826.67 106.03 651.96 156.75 799.70 135.12 777.97 789.77 797.73 187.97 733.59 354.00 123.24 332.95 203.03 121.99 214.83 757.62 114.29 89.94 550.97 772.48 248.94 776.06 147.84 245.72 96.61 810.81 805.62 136.27 897.17 895.52 805.69 485.85 196.92 779.32
474.67 202.70 917.50 901.25 295.47 263.23 443.59 1069.20 108.74 279.28 980.87 872.96 174.88 313.39 167.11 221.39 291.07 922.98 225.11 164.47 907.35 327.50 353.75 776.67 940.25 256.11 162.13 237.69 897.45 219.22 929.98 150.31 332.18 864.65 923.34 251.45 965.83 199.77 222.53 834.90 746.89 140.59 143.32 331.98 901.59 291.36 426.84 242.25 764.92 112.77 902.95 907.58 510.47 332.84 213.58 262.21 706.47 885.75 899.75 301.47 835.62 236.10 374.94 300.91 131.32 451.81 124.14 214.65 264.75 910.47 866.55 211.84 351.05 0.00 208.52 896.54 100.04 219.08 386.74 929.07 275.82 143.33 290.31 75.18 210.29 964.95 264.43 763.42 295.52 922.23 291.86 889.92 907.05 870.10 199.94 857.54 409.33 332.99 117.46 195.12 398.27 193.40 881.57 239.26 269.09 662.43 855.05 466.17 862.53 306.80 406.40 287.62 883.18 964.49 319.74 947.56 939.14 886.54 377.90 208.89 852.56
353.37 151.58 812.19 723.48 117.70 92.54 357.81 928.05 159.37 101.51 808.84 718.02 105.24 242.61 72.86 50.37 192.53 751.50 147.70 82.46 752.89 136.14 145.23 641.21 768.22 78.34 189.18 95.86 719.68 97.58 760.60 111.41 174.98 726.58 788.28 181.17 806.24 151.54 105.21 660.99 613.31 123.41 101.19 254.55 805.55 225.00 256.00 64.48 594.08 164.91 807.81 729.81 376.48 220.24 166.69 217.68 528.70 769.19 721.98 217.39 753.61 80.01 220.48 215.95 77.20 277.06 231.01 36.88 119.72 747.49 711.69 28.85 196.55 208.52 0.00 802.12 200.32 77.07 258.09 772.56 137.76 96.26 184.64 182.05 131.25 811.41 126.37 600.44 217.32 745.88 211.21 764.72 735.95 743.91 8.58 679.77 273.59 253.80 177.81 119.05 220.52 47.65 703.80 112.21 142.46 537.72 684.21 287.18 789.52 132.05 211.27 227.62 747.20 836.19 226.05 812.10 747.78 751.08 342.23 13.76 747.25
625.07 861.28 158.96 109.56 734.12 807.09 845.79 281.32 847.39 709.74 95.75 126.99 831.69 890.73 770.40 776.82 875.27 116.13 861.81 760.80 151.38 793.66 676.93 259.28 65.11 759.89 848.66 821.50 103.85 824.03 125.23 852.90 686.99 118.68 81.98 861.91 103.13 875.66 773.51 194.94 290.46 825.05 863.25 908.27 21.64 867.89 612.54 777.22 274.46 847.19 30.93 113.30 942.80 900.70 820.17 772.57 334.25 145.86 109.66 878.33 89.65 794.34 683.79 878.96 765.22 667.70 950.46 774.37 746.45 128.57 144.24 801.54 758.64 896.54 802.12 0.00 928.28 801.93 637.67 88.52 795.80 838.53 885.54 931.78 848.80 106.77 784.41 271.33 850.48 78.82 874.03 161.34 140.87 117.60 797.31 131.48 664.32 881.88 828.31 840.21 794.50 810.28 142.07 768.56 778.94 342.89 239.33 758.93 34.01 757.47 590.85 855.25 115.75 176.47 884.09 292.14 371.56 225.10 658.05 788.36 149.14
479.89 169.14 946.00 846.53 248.94 173.86 343.55 1051.10 122.15 224.56 925.12 874.58 138.41 259.29 190.61 164.92 226.29 841.35 146.73 181.01 881.59 287.58 322.02 776.34 891.27 241.39 152.05 168.07 842.73 121.03 850.45 88.91 298.44 849.63 861.94 241.37 904.43 189.69 266.76 773.50 736.77 134.91 155.88 293.94 920.10 258.04 399.07 198.29 707.25 176.44 930.86 852.86 450.85 232.80 184.50 348.25 663.83 892.24 845.03 201.43 852.16 166.31 351.87 231.51 163.06 387.10 56.11 199.93 281.29 849.07 824.20 171.47 304.40 100.04 200.32 928.28 0.00 132.37 337.59 868.96 212.13 128.61 236.28 24.86 189.47 903.55 200.74 702.02 251.08 868.93 198.09 895.96 859.00 866.96 199.97 802.82 394.91 290.05 200.57 145.13 304.50 216.28 826.85 190.11 216.83 601.03 827.28 416.18 894.27 242.09 383.45 236.60 880.04 945.32 229.59 947.23 939.17 886.21 431.73 191.02 881.06
402.56 103.67 813.63 714.16 116.57 77.60 325.01 918.73 200.50 92.19 799.52 742.21 59.65 196.54 149.93 32.55 176.38 788.19 81.26 148.14 749.22 155.21 189.65 690.40 758.90 119.13 148.47 35.70 710.36 42.74 795.19 139.83 166.07 717.26 797.50 179.61 796.92 134.17 170.97 709.06 604.40 178.16 91.21 237.98 787.73 164.84 319.06 65.92 642.81 205.96 798.49 720.49 358.06 174.17 100.66 294.75 577.89 759.87 712.66 188.14 746.29 33.94 273.58 196.97 118.33 254.73 188.48 86.07 178.32 775.68 748.12 57.27 187.26 219.08 77.07 801.93 132.37 0.00 220.45 793.56 104.93 103.68 177.07 157.23 98.73 825.27 107.95 637.58 182.25 736.56 138.81 763.59 726.63 734.59 74.34 670.45 275.03 226.15 240.66 41.98 223.38 104.49 694.48 72.97 101.30 536.59 709.34 300.99 780.20 109.72 252.29 167.46 747.67 826.87 177.26 861.29 813.54 800.27 407.99 76.82 748.69
242.79 280.55 673.30 616.45 184.49 186.01 375.44 821.02 373.18 174.36 718.60 644.50 274.98 291.22 289.84 245.85 300.41 615.80 292.42 296.81 651.51 157.64 132.90 594.64 683.08 222.12 310.77 194.80 612.65 216.56 624.90 316.25 129.10 619.55 681.65 317.88 721.10 297.08 230.81 619.51 545.81 349.22 243.42 312.18 628.19 323.94 323.85 200.64 574.83 355.52 656.80 622.78 450.47 317.71 298.43 408.71 482.13 662.16 614.95 325.22 648.58 193.76 288.32 314.94 316.07 80.49 386.56 228.24 196.53 628.31 670.21 254.19 198.90 386.74 258.09 637.67 337.59 220.45 0.00 643.41 240.98 299.56 336.19 362.45 260.22 681.54 235.42 547.67 325.20 638.85 314.36 692.33 628.92 636.88 253.28 572.74 272.32 275.30 414.48 239.75 242.02 253.99 596.77 147.48 226.20 468.61 719.80 170.31 667.25 215.02 46.82 295.51 649.96 710.21 297.96 765.53 763.88 704.51 457.34 244.33 675.15
552.29 844.53 208.19 121.54 704.32 798.72 914.20 278.54 879.92 701.37 102.08 94.00 845.19 802.21 774.20 795.78 786.75 27.61 845.06 764.60 159.81 744.06 627.33 186.50 61.46 709.20 831.91 810.71 156.01 829.27 36.71 796.42 649.66 94.16 81.48 806.03 99.48 857.71 714.51 111.83 228.66 850.34 856.13 854.40 110.16 779.37 562.09 763.54 224.01 850.40 119.45 140.87 926.05 812.83 803.42 744.72 250.41 167.25 148.70 811.61 93.45 806.47 680.87 811.29 797.75 664.05 925.07 735.94 717.09 40.05 127.49 792.74 821.76 929.07 772.56 88.52 868.96 793.56 643.41 0.00 775.27 807.26 797.02 893.82 832.05 103.97 767.66 187.10 761.96 123.64 823.56 92.82 137.22 58.97 764.24 123.11 613.87 859.30 867.02 826.47 811.16 780.11 129.24 760.19 754.26 284.30 230.86 755.28 122.53 749.10 649.03 831.32 45.89 234.25 825.50 223.62 313.14 143.63 585.27 773.19 143.25
387.92 96.11 802.96 774.29 133.28 54.97 244.72 923.92 253.00 152.32 809.94 727.45 164.58 141.11 204.92 110.95 117.69 747.66 118.52 195.32 732.15 107.31 219.64 728.61 816.90 134.05 173.73 83.64 770.49 91.10 756.76 187.63 181.99 688.47 811.64 135.79 782.84 136.09 229.58 702.26 620.32 176.39 142.75 185.34 814.16 140.16 305.38 116.45 643.46 217.92 817.11 780.62 261.50 116.23 137.22 355.44 616.10 815.93 772.79 116.45 706.15 78.64 261.12 121.03 170.83 253.15 268.24 144.05 182.48 760.17 651.56 135.67 110.95 275.82 137.76 795.80 212.13 104.93 240.98 775.27 0.00 167.13 95.21 236.99 75.78 824.09 11.39 654.29 130.27 770.27 99.49 772.56 754.74 723.66 132.95 730.58 253.60 124.97 289.02 115.20 126.84 168.36 754.61 93.50 21.01 553.30 733.59 232.71 776.69 144.37 209.10 112.71 736.74 755.97 88.29 899.50 872.15 803.94 443.29 124.00 788.31
351.28 134.97 846.63 757.92 152.14 129.18 389.03 962.49 129.62 135.95 843.28 785.97 44.03 244.85 109.10 87.04 207.93 785.94 152.21 106.46 792.98 218.19 233.41 675.65 802.66 112.78 126.36 139.38 754.12 84.03 795.04 39.70 209.83 761.02 812.73 172.90 840.68 160.05 138.15 695.43 648.16 87.28 75.59 253.43 842.22 226.18 328.20 98.92 658.04 102.28 842.25 764.25 413.85 237.66 110.57 274.09 563.14 803.63 756.42 215.51 777.61 135.87 285.43 223.53 73.31 328.69 178.02 71.32 158.82 781.93 746.13 111.35 220.20 143.33 96.26 838.53 128.61 103.68 299.56 807.26 167.13 0.00 214.86 143.69 134.84 845.85 163.74 634.88 216.97 780.32 233.12 799.16 770.39 778.35 99.62 714.21 308.03 258.77 221.73 95.42 293.97 94.76 738.24 152.08 165.44 551.82 753.10 366.47 804.52 183.68 285.29 219.89 781.64 870.63 243.67 846.54 838.82 785.52 367.41 108.57 781.69
464.25 100.35 835.17 834.36 228.49 150.18 237.23 1019.13 225.04 212.39 894.40 822.66 170.83 75.31 236.54 181.54 37.58 824.63 122.76 246.14 827.36 202.43 303.29 727.56 858.48 173.53 154.17 178.85 830.56 134.33 833.73 191.58 277.20 783.68 878.50 76.12 878.05 116.53 272.69 771.87 715.53 261.93 146.99 105.23 907.18 52.47 400.59 175.36 732.54 282.14 912.32 840.69 271.58 66.22 108.02 402.32 639.58 880.07 832.86 34.85 801.36 152.34 356.33 53.76 244.68 268.68 265.89 147.76 254.88 837.07 746.77 194.63 179.22 290.31 184.64 885.54 236.28 177.07 336.19 797.02 95.21 214.86 0.00 251.76 80.02 900.99 106.60 695.63 35.06 856.76 54.39 859.47 846.83 818.87 176.06 790.65 348.81 115.18 332.25 142.41 160.80 225.97 814.68 188.71 116.22 648.51 800.63 267.36 871.90 228.53 304.31 82.61 831.95 851.18 63.01 898.45 915.26 837.43 509.71 185.01 858.13
494.97 188.66 961.34 871.39 273.80 198.72 368.41 1075.96 142.07 249.42 949.98 879.47 113.55 238.21 180.58 168.42 251.15 866.21 166.25 170.98 879.35 285.35 327.28 801.20 916.13 255.00 176.91 192.93 867.59 145.89 875.31 113.77 323.30 871.16 886.80 242.42 929.29 214.55 269.22 798.36 761.63 159.77 145.11 308.25 923.60 282.90 423.93 223.15 732.11 184.04 946.79 877.72 475.71 257.66 159.64 323.98 688.69 917.10 869.89 226.29 842.13 191.17 376.73 256.37 175.16 411.96 48.96 215.01 271.26 873.93 835.57 182.81 289.72 75.18 182.05 931.78 24.86 157.23 362.45 893.82 236.99 143.69 251.76 0.00 204.36 928.41 225.60 726.88 275.94 893.79 216.68 920.82 856.76 876.61 190.63 827.68 414.59 308.64 192.64 164.94 323.09 226.06 851.71 214.97 241.69 625.89 852.14 435.99 906.37 266.95 393.32 255.19 889.69 970.18 254.45 972.09 929.83 911.07 406.87 195.81 896.40
451.60 20.33 855.96 793.53 192.75 104.14 280.88 976.92 230.60 171.56 862.94 767.12 90.81 155.33 156.52 129.02 117.60 804.44 42.74 166.12 785.15 164.97 251.34 739.44 838.27 176.57 97.95 123.97 789.73 99.93 813.54 140.68 216.62 741.47 864.64 101.59 835.84 60.31 223.07 755.26 654.95 181.91 66.97 154.64 867.16 110.82 359.73 162.71 697.81 223.44 870.11 799.86 314.50 146.24 61.44 348.93 626.93 839.24 792.03 114.87 759.15 106.91 310.29 133.78 192.31 305.29 213.00 135.11 226.45 816.95 704.56 137.04 170.42 210.29 131.25 848.80 189.47 98.73 260.22 832.05 75.78 134.84 80.02 204.36 0.00 880.87 64.39 698.67 115.08 815.93 134.41 825.56 806.00 776.66 126.44 749.82 329.38 150.62 297.85 98.42 202.62 175.34 773.85 112.74 80.48 612.77 787.94 290.00 829.69 180.28 268.57 105.25 789.74 808.97 143.03 910.33 865.64 849.31 460.09 117.49 841.31
576.16 893.35 203.87 180.20 722.54 830.43 952.56 324.58 904.56 733.08 106.99 140.30 874.52 906.18 844.82 819.65 890.72 76.43 893.88 835.22 223.14 796.68 679.95 210.37 66.37 733.07 880.73 845.22 186.10 860.98 79.88 814.64 673.53 147.72 41.61 905.78 84.10 907.73 776.52 193.79 263.49 834.49 887.84 918.80 104.45 883.34 585.96 802.13 247.88 874.27 75.84 195.55 974.87 916.80 852.24 768.59 299.23 225.91 191.91 915.58 164.07 838.18 704.74 903.10 844.32 668.96 952.96 774.53 740.96 63.92 176.31 831.33 826.67 964.95 811.41 106.77 903.55 825.27 681.54 103.97 824.09 845.85 900.99 928.41 880.87 0.00 816.48 210.97 865.93 185.59 890.96 109.13 200.55 129.59 802.83 175.58 637.74 904.38 890.89 853.32 835.03 782.24 189.03 791.90 803.08 302.52 293.31 760.19 116.26 776.22 634.72 908.29 116.51 250.86 912.38 239.93 329.45 189.38 609.14 811.78 238.21
399.31 84.72 791.57 767.60 128.36 49.41 239.80 912.53 241.61 146.76 798.55 716.06 155.20 152.50 193.53 113.70 112.77 740.05 107.13 183.93 720.76 102.39 218.12 723.69 805.51 145.44 162.34 72.25 763.80 79.71 749.15 199.02 180.47 677.08 800.25 130.87 771.45 124.70 218.19 690.87 618.80 165.00 131.36 180.42 802.77 138.71 316.77 111.63 654.60 206.53 805.72 772.85 250.11 127.62 125.83 344.05 611.18 804.54 766.10 127.84 694.76 90.03 255.56 116.11 159.44 248.23 256.85 139.23 175.13 752.56 640.17 132.16 106.03 264.43 126.37 784.41 200.74 107.95 235.42 767.66 11.39 163.74 106.60 225.60 64.39 816.48 0.00 649.37 121.30 758.88 89.62 761.17 743.35 712.27 121.56 723.89 264.99 136.36 277.63 103.81 138.23 156.97 747.92 87.94 16.09 548.38 744.98 244.10 765.30 138.19 204.18 101.32 725.35 744.58 99.68 891.97 860.76 792.55 435.94 112.61 776.92
429.58 717.37 352.52 261.71 521.01 635.27 796.74 411.99 703.03 545.39 262.36 223.43 663.55 768.58 668.16 608.68 728.35 159.56 709.63 658.56 237.73 585.71 468.98 175.82 231.90 522.10 741.15 635.00 259.81 655.89 166.56 613.11 490.85 230.85 218.55 748.06 245.32 734.82 631.27 169.35 52.52 693.24 692.68 740.25 269.01 748.10 374.99 591.16 36.91 686.64 240.40 282.52 878.54 742.09 701.03 709.77 163.79 269.45 279.12 730.48 205.42 643.02 493.77 733.30 660.48 527.64 751.43 563.56 558.28 147.05 150.83 620.36 651.96 763.42 600.44 271.33 702.02 637.58 547.67 187.10 654.29 634.88 695.63 726.88 698.67 210.97 649.37 0.00 730.69 269.54 723.23 233.99 260.32 239.90 591.86 250.34 426.77 703.37 702.16 642.35 624.06 603.09 273.84 596.74 633.28 100.99 277.53 618.87 240.01 574.69 555.06 748.57 232.99 352.46 721.57 346.71 372.46 222.61 563.06 600.81 287.58
499.31 129.84 800.11 858.51 233.74 139.19 205.78 995.94 260.10 236.54 864.04 828.28 172.94 40.25 264.35 205.48 24.79 789.57 114.80 254.75 816.46 207.77 316.13 692.50 823.42 208.59 133.39 146.55 854.71 169.39 798.67 226.64 282.06 798.38 843.44 44.07 861.44 95.75 307.75 791.79 718.20 286.30 169.95 92.44 872.12 17.41 435.65 201.41 759.98 317.20 881.41 860.08 236.52 50.87 143.08 435.00 674.64 875.10 857.01 49.65 816.06 173.71 345.34 49.33 268.99 303.74 291.64 182.82 282.94 802.01 761.47 188.47 156.75 295.52 217.32 850.48 251.08 182.25 325.20 761.96 130.27 216.97 35.06 275.94 115.08 865.93 121.30 730.69 0.00 880.18 88.57 824.41 839.05 820.93 211.12 814.80 383.87 97.34 367.31 177.47 194.98 229.35 838.83 177.72 121.47 653.76 798.22 254.11 884.49 215.74 309.56 69.36 807.85 847.10 63.54 863.39 950.32 802.37 543.75 208.02 865.05
638.57 835.75 134.03 47.81 668.75 741.72 854.62 215.99 873.08 644.37 148.49 120.05 796.21 895.33 767.36 769.11 856.12 138.88 817.82 757.76 102.27 775.08 678.11 297.84 143.93 717.77 823.13 756.51 46.36 772.27 147.98 820.02 688.17 85.20 152.65 863.09 137.65 850.13 769.04 169.41 257.00 838.68 799.13 855.80 100.46 885.65 550.74 736.60 271.42 844.15 109.75 69.07 910.41 868.84 794.64 769.53 296.25 93.52 62.96 879.51 86.61 749.47 634.68 870.65 790.91 719.34 925.04 709.00 736.25 151.39 118.71 757.69 799.70 922.23 745.88 78.82 868.93 736.56 638.85 123.64 770.27 780.32 856.76 893.79 815.93 185.59 758.88 269.54 880.18 0.00 848.50 191.36 79.68 64.67 737.30 66.11 602.52 886.51 872.48 778.54 759.06 744.91 82.44 703.19 774.97 341.88 177.58 809.16 78.18 692.10 592.03 860.20 77.75 159.86 858.56 322.16 378.78 237.08 696.61 738.14 70.32
487.41 123.43 881.19 848.57 202.22 139.03 216.04 1002.15 279.43 226.60 888.17 805.68 189.09 91.27 244.26 171.36 63.78 829.67 102.08 253.86 810.38 156.72 273.45 780.62 885.02 217.75 169.29 158.36 820.70 161.80 838.77 245.97 236.98 766.70 883.15 111.94 861.07 132.07 301.22 760.94 675.31 254.62 177.33 116.30 872.12 99.66 404.87 148.69 693.56 296.15 895.34 843.41 302.86 66.39 143.72 428.89 668.11 864.65 842.88 55.78 784.38 131.20 345.18 75.18 249.06 292.83 254.20 176.29 258.76 842.18 729.79 191.63 135.12 291.86 211.21 874.03 198.09 138.81 314.36 823.56 99.49 233.12 54.39 216.68 134.41 890.96 89.62 723.23 88.57 848.50 0.00 849.24 832.97 801.89 204.59 804.86 353.09 91.96 358.04 137.70 106.41 228.35 828.89 177.48 105.71 622.24 746.24 223.26 854.92 227.81 293.80 38.51 814.97 834.20 38.45 916.66 943.79 879.26 519.57 202.23 831.46
497.70 838.04 282.48 189.26 647.02 768.75 947.00 328.96 864.04 671.40 166.43 138.08 823.24 864.66 775.23 769.71 849.20 76.53 838.57 765.63 227.53 783.68 678.61 131.91 125.81 744.80 825.42 779.27 195.36 799.30 67.43 807.47 696.55 147.82 101.50 868.48 143.99 852.42 667.39 166.96 283.79 837.34 824.96 906.35 182.98 841.82 608.90 744.87 270.82 795.81 154.45 213.73 919.56 875.28 796.93 690.13 243.86 234.97 217.54 874.06 151.89 776.50 660.87 859.31 798.78 716.15 945.79 727.84 707.27 86.94 121.00 747.13 777.97 889.92 764.72 161.34 895.96 763.59 692.33 92.82 772.56 799.16 859.47 920.82 825.56 109.13 761.17 233.99 824.41 191.36 849.24 0.00 204.94 126.69 756.14 190.83 654.20 897.53 812.43 805.57 802.00 767.94 188.12 730.22 759.29 296.59 286.47 758.78 186.40 700.70 679.17 862.49 138.71 301.97 860.85 130.80 220.32 85.83 530.68 765.09 236.07
627.82 826.33 119.43 41.20 658.82 731.79 838.79 250.48 857.90 634.44 204.55 114.64 786.28 871.93 761.13 759.18 814.26 139.71 807.89 751.53 22.59 765.15 661.39 288.88 184.58 707.84 839.39 746.58 37.02 762.34 148.81 810.09 678.24 68.42 166.23 853.16 186.34 842.86 712.42 148.64 250.39 828.75 789.20 881.91 144.76 850.14 540.81 726.67 265.19 837.92 147.28 59.73 894.58 858.91 810.90 763.30 309.83 67.03 59.20 839.12 80.38 739.54 555.00 846.22 775.73 709.41 905.72 699.07 673.84 142.43 134.97 747.76 789.77 907.05 735.95 140.87 859.00 726.63 628.92 137.22 754.74 770.39 846.83 856.76 806.00 200.55 743.35 260.32 839.05 79.68 832.97 204.94 0.00 78.25 727.37 56.18 564.08 878.76 856.14 768.61 751.31 734.98 39.22 693.26 759.44 321.11 113.96 799.23 106.86 682.17 582.10 844.67 91.33 151.47 843.03 335.74 392.36 230.85 687.65 728.21 54.49
574.88 796.99 181.79 62.57 666.78 739.75 855.23 245.73 820.95 642.40 157.57 55.38 794.24 861.18 715.23 767.14 825.04 86.58 806.64 705.63 100.84 773.11 676.14 240.54 120.43 715.80 793.49 754.54 97.04 770.30 91.00 797.73 644.06 35.19 87.98 843.14 130.47 820.49 735.29 139.77 205.73 791.37 797.16 892.69 122.65 838.34 538.15 734.63 219.29 792.02 105.14 87.04 887.63 839.89 765.00 717.40 231.58 108.28 94.87 840.11 34.48 747.50 633.25 828.38 738.78 717.37 895.29 707.03 701.84 99.02 89.07 755.72 797.73 870.10 743.91 117.60 866.96 734.59 636.88 58.97 723.66 778.35 818.87 876.61 776.66 129.59 712.27 239.90 820.93 64.67 801.89 126.69 78.25 0.00 735.33 64.14 589.93 848.63 865.32 776.57 763.09 732.61 86.39 701.22 728.36 294.38 192.21 807.19 83.59 690.13 590.06 813.59 13.08 175.28 811.95 257.49 314.11 184.95 639.31 736.17 124.38
344.79 146.77 803.61 714.90 109.12 87.73 349.23 919.47 150.79 92.93 800.26 713.21 96.66 251.19 81.44 41.79 192.18 742.92 147.35 80.27 748.08 127.56 153.81 632.63 759.64 69.76 180.60 91.09 711.10 89.00 752.02 111.06 166.81 718.00 790.05 180.82 797.66 142.96 96.63 652.41 605.14 114.83 109.77 245.97 796.97 220.23 251.19 55.90 589.27 156.33 799.23 721.23 371.67 228.82 163.20 226.26 520.12 760.61 713.40 210.91 747.03 88.59 215.67 207.37 68.62 281.49 236.35 28.30 116.86 738.91 703.11 28.50 187.97 199.94 8.58 797.31 199.97 74.34 253.28 764.24 132.95 99.62 176.06 190.63 126.44 802.83 121.56 591.86 211.12 737.30 204.59 756.14 727.37 735.33 0.00 671.19 265.01 245.22 186.39 112.03 211.94 49.91 695.22 109.06 137.65 529.14 679.40 278.60 780.94 140.63 206.46 222.85 738.62 827.61 219.25 803.52 739.20 742.50 333.65 8.95 738.67
591.26 770.15 149.89 43.71 602.64 675.61 885.55 248.28 821.98 578.26 203.56 71.76 730.10 829.22 752.63 703.00 790.01 118.10 751.71 743.35 78.77 708.97 612.00 277.06 169.24 651.66 800.37 690.40 39.91 706.16 127.20 753.91 622.06 46.81 133.97 796.98 176.46 786.68 709.91 140.54 228.60 772.57 733.02 843.34 130.44 819.54 484.63 670.49 260.65 814.10 128.04 50.04 898.07 802.73 771.11 758.76 295.72 89.42 42.21 813.40 75.84 683.36 603.41 804.54 739.81 653.23 858.93 642.89 681.52 130.61 99.51 691.58 733.59 857.54 679.77 131.48 802.82 670.45 572.74 123.11 730.58 714.21 790.65 827.68 749.82 175.58 723.89 250.34 814.80 66.11 804.86 190.83 56.18 64.14 671.19 0.00 536.41 826.63 811.80 712.43 729.57 678.80 24.03 637.08 714.01 313.01 156.02 743.05 109.75 625.99 525.92 799.49 77.22 156.42 805.40 321.63 378.25 226.31 675.83 672.03 102.41
156.50 349.71 638.76 580.12 223.05 271.33 491.53 784.69 300.59 247.43 647.69 608.17 301.04 394.71 322.26 267.01 364.50 586.33 346.14 319.62 571.36 318.67 224.53 522.29 625.82 278.17 395.25 280.98 576.32 302.96 593.33 347.73 189.93 583.22 645.32 382.60 620.59 384.00 276.84 544.05 427.22 346.30 330.66 432.15 666.85 393.76 51.78 209.11 389.86 378.21 660.55 586.45 515.10 369.83 337.54 283.00 513.92 625.83 578.62 370.05 574.67 280.68 119.42 367.84 286.47 352.81 449.67 236.71 246.03 573.82 577.60 284.24 354.00 409.33 273.59 664.32 394.91 275.03 272.32 613.87 253.60 308.03 348.81 414.59 329.38 637.74 264.99 426.77 383.87 602.52 353.09 654.20 564.08 589.93 265.01 536.41 0.00 378.57 310.06 278.86 336.33 285.22 560.44 262.27 267.82 496.08 479.99 442.63 646.16 235.69 286.07 366.31 603.01 685.09 341.89 693.18 724.14 575.56 332.81 270.25 618.57
512.89 130.29 891.94 870.34 254.19 179.94 130.26 1012.90 340.22 248.37 914.80 852.42 214.74 87.44 276.89 235.92 77.60 852.97 152.70 286.49 857.12 117.66 234.39 767.44 874.18 259.02 198.99 202.90 841.74 216.07 859.97 291.30 230.85 813.44 911.96 136.91 907.81 161.35 341.85 786.01 669.18 291.87 189.67 89.82 860.24 113.48 425.60 240.65 714.60 333.40 859.21 864.45 278.63 60.95 171.40 471.48 737.01 886.11 863.92 89.75 831.12 201.18 386.09 99.38 295.80 271.59 329.27 262.94 298.28 840.46 776.53 241.28 123.24 332.99 253.80 881.88 290.05 226.15 275.30 859.30 124.97 258.77 115.18 308.64 150.62 904.38 136.36 703.37 97.34 886.51 91.96 897.53 878.76 848.63 245.22 826.63 378.57 0.00 392.66 203.19 127.45 293.33 850.66 217.56 144.70 674.21 821.29 255.89 899.30 200.64 320.47 71.14 861.71 844.95 62.65 911.22 984.42 877.31 559.09 248.97 902.56
464.31 289.94 938.89 855.51 295.51 250.75 516.89 1034.76 127.11 279.32 912.64 873.69 245.24 390.75 183.05 228.18 365.15 839.48 289.30 173.45 833.55 313.95 323.04 680.52 872.02 256.15 279.59 255.38 851.71 197.92 846.48 182.03 316.85 858.61 883.56 355.21 895.98 303.53 238.39 834.78 717.95 158.54 260.78 397.02 833.36 384.52 327.17 242.29 665.25 198.50 834.72 861.84 527.74 364.26 280.70 153.43 706.51 901.22 854.01 367.10 836.35 249.76 301.14 379.68 206.60 454.87 190.38 214.69 273.73 826.97 852.99 206.66 332.95 117.46 177.81 828.31 200.57 240.66 414.48 867.02 289.02 221.73 332.25 192.64 297.85 890.89 277.63 702.16 367.31 872.48 358.04 812.43 856.14 865.32 186.39 811.80 310.06 392.66 0.00 222.02 398.33 217.00 835.83 267.00 293.72 694.15 755.38 464.99 794.30 309.86 389.08 321.52 876.04 902.76 361.18 851.41 925.59 790.39 281.75 191.57 910.63
413.84 88.93 817.46 756.14 158.55 73.81 313.25 960.71 175.39 134.17 841.50 784.19 51.39 168.73 143.33 70.24 179.99 801.91 67.28 152.93 787.35 156.41 199.14 701.68 800.88 120.25 116.39 44.95 752.34 24.10 808.91 132.13 208.05 759.24 839.48 140.08 838.90 114.17 208.66 721.46 646.38 172.89 51.80 209.62 819.40 174.09 330.64 69.75 668.72 197.70 840.47 762.47 353.92 142.24 58.68 336.73 589.17 785.71 754.64 173.61 788.27 46.70 254.94 158.78 160.31 260.52 200.02 97.35 187.57 789.40 734.61 94.96 203.03 195.12 119.05 840.21 145.13 41.98 239.75 826.47 115.20 95.42 142.41 164.94 98.42 853.32 103.81 642.35 177.47 778.54 137.70 805.57 768.61 776.57 112.03 712.43 278.86 203.19 222.02 0.00 216.41 142.33 736.46 92.98 116.82 578.57 751.32 271.05 822.18 115.51 256.12 173.85 789.65 848.39 170.18 872.57 851.23 811.55 445.68 114.51 752.52
484.81 222.95 814.49 758.11 154.98 181.81 172.68 942.54 362.73 165.74 854.50 750.52 258.54 197.68 293.38 237.79 170.19 783.62 208.49 292.21 773.90 84.38 201.11 726.06 813.88 239.14 275.70 195.65 714.29 217.94 790.62 314.47 235.86 757.64 835.91 196.61 851.90 238.48 308.57 724.71 639.85 303.23 267.93 189.02 816.14 206.07 388.11 217.96 587.15 344.76 824.55 737.00 321.05 172.80 250.13 438.20 637.80 803.82 736.47 162.19 728.61 189.44 356.53 181.59 280.56 211.29 360.61 230.37 290.62 771.11 774.89 240.44 121.99 398.27 220.52 794.50 304.50 223.38 242.02 811.16 126.84 293.97 160.80 323.09 202.62 835.03 138.23 624.06 194.98 759.06 106.41 802.00 751.31 763.09 211.94 729.57 336.33 127.45 398.33 216.41 0.00 261.85 753.60 176.91 147.85 575.00 750.09 155.91 784.13 167.36 203.65 144.92 776.17 811.67 144.86 896.95 919.55 772.85 545.59 220.89 785.00
373.01 195.67 828.69 722.51 120.92 136.63 396.77 927.08 144.25 100.54 807.87 750.56 138.79 259.75 84.58 91.70 240.18 752.57 185.75 74.98 753.02 177.47 178.64 682.54 767.25 81.79 214.16 124.31 718.71 138.91 759.57 134.46 164.37 725.61 740.63 228.82 783.12 192.87 128.87 702.32 602.70 104.69 148.84 295.88 809.24 234.68 233.44 105.81 571.52 146.22 806.84 728.84 364.22 237.38 201.01 265.33 570.03 768.22 721.01 260.82 746.13 97.15 223.55 257.28 62.08 293.28 239.28 78.21 96.94 740.06 753.02 76.50 214.83 193.40 47.65 810.28 216.28 104.49 253.99 780.11 168.36 94.76 225.97 226.06 175.34 782.24 156.97 603.09 229.35 744.91 228.35 767.94 734.98 732.61 49.91 678.80 285.22 293.33 217.00 142.33 261.85 0.00 702.83 106.51 173.06 540.94 661.65 304.09 788.55 148.27 252.54 256.07 745.69 835.22 256.65 845.52 756.00 757.22 357.75 57.85 781.21
606.88 794.18 125.86 46.13 626.67 699.64 865.92 237.67 846.01 602.29 227.59 87.38 754.13 853.25 768.22 727.03 814.04 129.79 775.74 758.62 61.81 733.00 636.03 286.65 190.70 675.69 824.40 714.43 52.90 730.19 120.69 777.94 646.09 70.84 158.00 821.01 200.49 810.71 733.94 158.02 252.63 796.60 757.05 867.37 125.73 843.57 508.66 694.52 272.28 838.13 152.07 66.23 921.71 826.76 795.14 770.39 301.85 91.84 66.24 837.43 87.47 707.39 594.22 828.57 763.84 677.26 882.96 666.92 705.55 140.20 123.54 715.61 757.62 881.57 703.80 142.07 826.85 694.48 596.77 129.24 754.61 738.24 814.68 851.71 773.85 189.03 747.92 273.84 838.83 82.44 828.89 188.12 39.22 86.39 695.22 24.03 560.44 850.66 835.83 736.46 753.60 702.83 0.00 661.11 738.04 330.49 153.18 767.08 121.68 650.02 549.95 823.52 83.35 158.84 829.43 318.92 384.38 203.72 685.42 696.06 81.62
390.27 133.07 786.97 680.79 83.20 38.53 304.67 885.36 231.70 58.82 766.15 708.84 127.50 208.88 142.36 98.37 152.93 754.82 144.94 151.96 715.85 99.90 138.60 678.53 725.53 74.64 163.29 53.32 676.99 69.08 761.82 168.77 132.70 683.89 764.13 196.00 763.55 149.60 171.42 675.69 571.03 207.74 95.94 220.58 767.52 182.46 314.05 53.16 609.44 229.60 765.12 687.12 338.05 186.51 151.66 329.89 566.02 726.50 679.29 177.79 712.92 46.28 240.32 167.46 168.59 212.55 239.08 80.76 113.71 742.31 726.39 106.71 114.29 239.26 112.21 768.56 190.11 72.97 147.48 760.19 93.50 152.08 188.71 214.97 112.74 791.90 87.94 596.74 177.72 703.19 177.48 730.22 693.26 701.22 109.06 637.08 262.27 217.56 267.00 92.98 176.91 106.51 661.11 0.00 81.22 503.22 675.97 301.75 746.83 67.54 194.30 185.08 714.30 793.50 181.79 849.42 847.77 788.40 374.52 114.30 735.93
408.93 100.81 807.66 757.72 112.27 65.50 223.71 928.62 257.70 136.65 814.64 732.15 157.33 145.49 209.62 129.79 96.68 726.65 123.22 200.02 736.85 86.30 203.03 707.60 803.36 155.06 178.43 88.34 753.92 95.80 735.75 205.14 193.15 693.17 792.50 114.78 787.54 140.79 234.28 696.23 631.48 181.09 125.77 164.33 800.58 132.15 319.60 106.80 638.51 222.62 809.87 764.05 266.20 121.76 141.92 360.14 595.09 803.43 756.22 121.54 710.85 99.65 271.65 100.02 175.53 232.14 272.94 129.11 161.47 739.16 656.26 148.25 89.94 269.09 142.46 778.94 216.83 101.30 226.20 754.26 21.01 165.44 116.22 241.69 80.48 803.08 16.09 633.28 121.47 774.97 105.71 759.29 759.44 728.36 137.65 714.01 267.82 144.70 293.72 116.82 147.85 173.06 738.04 81.22 0.00 532.29 747.81 236.99 781.39 148.76 188.09 117.41 741.44 760.67 109.30 878.49 876.84 808.64 422.28 128.70 789.57
358.45 618.35 424.86 350.24 420.02 541.75 720.00 498.42 602.04 444.40 330.50 276.91 592.86 677.78 610.58 542.71 628.97 260.55 617.85 604.22 298.52 556.68 538.55 175.31 313.54 517.80 666.51 552.27 306.42 572.30 267.55 512.12 500.90 271.12 260.91 647.07 303.40 652.82 610.59 172.47 153.51 606.91 597.96 696.62 364.53 664.44 444.30 517.87 106.22 612.50 341.39 329.13 798.49 654.05 637.25 621.52 62.80 358.47 328.60 653.83 277.76 549.50 521.62 632.31 597.76 549.10 650.44 500.84 568.33 248.04 223.17 557.64 550.97 662.43 537.72 342.89 601.03 536.59 468.61 284.30 553.30 551.82 648.51 625.89 612.77 302.52 548.38 100.99 653.76 341.88 622.24 296.59 321.11 294.38 529.14 313.01 496.08 674.21 694.15 578.57 575.00 540.94 330.49 503.22 532.29 0.00 289.26 545.93 341.00 473.70 498.11 647.58 281.30 384.99 637.98 346.20 344.55 285.18 462.07 538.09 359.92
567.78 808.27 183.51 129.77 641.53 714.50 922.77 339.42 780.58 617.15 318.51 183.42 768.99 757.97 746.23 714.72 810.02 228.14 790.60 736.63 91.37 703.63 586.90 306.43 283.04 690.55 839.26 710.87 150.98 745.05 219.04 772.56 622.96 182.38 259.87 841.64 300.30 822.36 704.41 146.69 241.72 766.34 771.91 828.01 221.11 815.63 428.21 689.10 240.62 780.57 245.74 154.24 881.74 784.46 810.00 762.99 302.93 175.48 162.07 802.02 173.10 722.25 546.99 803.44 723.73 769.90 883.39 681.78 673.60 229.39 183.48 690.00 772.48 855.05 684.21 239.33 827.28 709.34 719.80 230.86 733.59 753.10 800.63 852.14 787.94 293.31 744.98 277.53 798.22 177.58 746.24 286.47 113.96 192.21 679.40 156.02 479.99 821.29 755.38 751.32 750.09 661.65 153.18 675.97 747.81 289.26 0.00 835.19 205.32 664.88 672.98 784.75 184.97 230.50 784.69 417.27 486.00 298.31 705.20 670.45 168.45
413.10 269.67 843.61 786.76 267.31 287.68 300.64 991.10 420.02 242.93 734.44 810.60 322.44 277.23 360.04 320.39 274.30 749.05 292.08 358.87 821.82 228.05 274.23 721.24 693.82 270.13 352.73 265.29 767.80 295.15 739.95 389.66 299.41 789.86 768.12 294.37 731.84 315.09 375.23 718.40 664.75 393.43 322.85 243.05 765.50 266.44 472.94 310.82 652.15 434.56 752.11 777.20 316.43 252.35 310.78 504.86 608.73 832.47 785.03 249.44 804.57 292.45 354.16 261.14 347.22 91.23 468.65 306.90 334.80 759.46 769.10 307.10 248.94 466.17 287.18 758.93 416.18 300.99 170.31 755.28 232.71 366.47 267.36 435.99 290.00 760.19 244.10 618.87 254.11 809.16 223.26 758.78 799.23 807.19 278.60 743.05 442.63 255.89 464.99 271.05 155.91 304.09 767.08 301.75 236.99 545.93 835.19 0.00 771.54 236.24 217.13 184.75 801.17 880.52 224.41 889.58 890.48 744.37 520.28 287.55 838.51
623.42 850.02 168.45 75.55 712.39 785.36 879.80 247.31 813.38 688.01 118.34 103.92 839.85 914.99 763.75 794.24 878.07 109.87 855.16 754.15 129.45 818.72 708.99 268.83 77.72 761.41 842.01 800.15 69.84 815.91 118.97 828.11 720.15 88.22 115.99 895.92 115.74 869.01 781.73 188.29 281.82 791.04 842.77 926.49 39.06 901.90 594.38 780.24 267.81 822.95 40.42 79.29 936.15 888.50 813.52 765.92 300.24 121.26 75.65 893.14 83.00 793.11 661.86 881.41 731.21 680.31 942.93 752.64 763.99 122.38 137.59 801.33 776.06 862.53 789.52 34.01 894.27 780.20 667.25 122.53 776.69 804.52 871.90 906.37 829.69 116.26 765.30 240.01 884.49 78.18 854.92 186.40 106.86 83.59 780.94 109.75 646.16 899.30 794.30 822.18 784.13 788.55 121.68 746.83 781.39 341.00 205.32 771.54 0.00 735.74 624.86 866.62 81.74 188.26 864.98 317.20 382.77 225.89 667.60 781.78 135.19
392.19 200.61 775.88 669.70 53.68 106.07 304.65 874.27 269.88 47.73 755.06 697.75 166.90 250.80 204.91 142.27 190.95 734.25 182.79 212.82 704.76 82.98 125.65 649.01 714.44 89.97 230.83 102.04 665.90 136.62 741.25 223.38 121.61 672.80 734.61 255.59 752.46 217.14 218.49 646.17 559.94 242.04 163.48 237.52 756.43 226.83 287.47 120.70 579.92 235.26 754.03 676.03 375.81 225.92 174.19 349.73 536.50 715.41 668.20 215.81 701.83 113.82 244.75 222.91 209.25 145.01 298.20 112.36 171.32 721.74 696.87 160.90 147.84 306.80 132.05 757.47 242.09 109.72 215.02 749.10 144.37 183.68 228.53 266.95 180.28 776.22 138.19 574.69 215.74 692.10 227.81 700.70 682.17 690.13 140.63 625.99 235.69 200.64 309.86 115.51 167.36 148.27 650.02 67.54 148.76 473.70 664.88 236.24 735.74 0.00 208.66 233.80 703.21 782.41 197.98 819.90 818.25 758.88 432.13 141.50 728.40
289.61 288.90 626.48 569.63 154.98 232.83 359.63 774.20 357.25 170.02 686.60 597.68 296.65 333.58 247.11 241.78 284.77 644.02 311.31 255.88 604.69 202.81 86.08 547.82 655.96 215.84 346.44 241.62 565.83 262.42 653.12 299.62 96.14 572.73 659.89 271.06 693.98 322.74 183.99 651.30 534.47 310.95 290.24 317.42 612.49 320.24 290.89 186.37 566.17 308.70 621.78 575.96 454.29 309.85 314.80 361.89 435.31 615.34 568.13 287.48 601.76 240.58 241.50 288.11 275.08 127.31 428.34 213.97 155.60 656.53 625.43 217.06 245.72 406.40 211.27 590.85 383.45 252.29 46.82 649.03 209.10 285.29 304.31 393.32 268.57 634.72 204.18 555.06 309.56 592.03 293.80 679.17 582.10 590.06 206.46 525.92 286.07 320.47 389.08 256.12 203.65 252.54 549.95 194.30 188.09 498.11 672.98 217.13 624.86 208.66 0.00 273.57 603.14 663.39 297.39 718.71 717.06 657.69 416.41 197.51 628.33
477.18 84.92 869.47 843.20 227.56 150.73 201.40 1013.85 307.65 243.90 897.53 817.38 175.86 92.48 205.75 193.61 89.55 841.37 107.33 215.35 822.08 174.94 291.67 760.13 856.91 240.30 167.98 131.76 839.40 176.94 845.04 231.20 274.89 778.40 901.57 109.62 872.77 130.34 313.59 722.43 713.22 246.50 144.30 139.05 833.61 86.77 418.09 187.20 716.60 271.18 862.22 849.53 264.35 67.60 126.03 442.99 698.35 888.91 841.70 64.69 796.08 158.92 356.88 76.39 241.54 254.32 283.90 206.53 274.38 853.88 741.49 218.33 96.61 287.62 227.62 855.25 236.60 167.46 295.51 831.32 112.71 219.89 82.61 255.19 105.25 908.29 101.32 748.57 69.36 860.20 38.51 862.49 844.67 813.59 222.85 799.49 366.31 71.14 321.52 173.85 144.92 256.07 823.52 185.08 117.41 647.58 784.75 184.75 866.62 233.80 273.57 0.00 826.67 845.90 39.66 917.87 962.05 870.00 535.19 213.90 869.97
567.61 810.07 194.87 75.65 679.86 752.83 868.31 232.65 834.03 655.48 144.49 48.11 807.32 848.10 728.31 780.22 832.64 73.50 819.72 718.71 113.92 786.19 673.22 227.46 107.35 728.88 806.57 767.62 110.12 783.38 82.60 793.42 657.14 48.27 74.90 851.92 117.39 833.57 748.37 152.55 218.81 804.45 810.24 900.29 120.80 825.26 551.23 737.92 232.37 805.10 111.40 94.98 900.71 852.97 778.08 730.48 218.50 121.36 102.81 853.19 47.56 760.58 646.33 841.46 751.86 709.94 908.37 710.32 714.92 85.94 102.15 767.12 810.81 883.18 747.20 115.75 880.04 747.67 649.96 45.89 736.74 781.64 831.95 889.69 789.74 116.51 725.35 232.99 807.85 77.75 814.97 138.71 91.33 13.08 738.62 77.22 603.01 861.71 876.04 789.65 776.17 745.69 83.35 714.30 741.44 281.30 184.97 801.17 81.74 703.21 603.14 826.67 0.00 188.36 825.03 269.51 301.03 189.52 626.23 747.57 137.46
721.49 829.30 46.99 112.71 759.06 793.99 896.23 167.95 915.34 734.68 247.71 210.61 886.52 887.35 868.96 852.60 857.35 261.86 851.71 866.32 174.06 727.29 749.47 372.26 210.20 808.08 906.05 816.83 156.36 824.29 266.28 897.11 748.25 203.23 251.30 875.45 248.22 869.28 847.38 212.52 321.90 893.00 875.94 881.83 154.83 864.51 633.31 794.70 374.60 924.91 175.02 133.65 900.16 872.20 870.41 892.68 364.38 132.51 141.48 843.82 209.76 834.61 706.47 860.69 833.17 790.70 1001.43 799.31 801.15 274.30 201.63 848.00 805.62 964.49 836.19 176.47 945.32 826.87 710.21 234.25 755.97 870.63 851.18 970.18 808.97 250.86 744.58 352.46 847.10 159.86 834.20 301.97 151.47 175.28 827.61 156.42 685.09 844.95 902.76 848.39 811.67 835.22 158.84 793.50 760.67 384.99 230.50 880.52 188.26 782.41 663.39 845.90 188.36 0.00 844.26 432.77 489.39 354.01 771.03 828.45 111.93
476.21 124.58 863.65 849.11 217.96 143.26 192.91 1012.21 288.05 240.61 898.23 815.74 199.64 52.82 245.41 177.46 51.08 835.95 140.53 255.01 820.44 180.31 252.59 756.04 886.96 222.34 157.61 171.42 845.31 173.62 845.05 254.59 270.28 776.76 898.89 84.32 871.13 119.97 315.88 762.09 708.61 264.68 183.96 99.39 873.27 68.86 393.67 187.14 731.75 306.21 901.88 837.15 272.14 27.94 140.45 443.73 700.78 894.82 844.98 28.16 794.44 166.93 349.41 36.73 259.12 293.98 272.47 210.77 270.77 848.46 739.85 202.18 136.27 319.74 226.05 884.09 229.59 177.26 297.96 825.50 88.29 243.67 63.01 254.45 143.03 912.38 99.68 721.57 63.54 858.56 38.45 860.85 843.03 811.95 219.25 805.40 341.89 62.65 361.18 170.18 144.86 256.65 829.43 181.79 109.30 637.98 784.69 224.41 864.98 197.98 297.39 39.66 825.03 844.26 0.00 878.21 945.97 865.91 531.58 212.29 869.91
536.68 930.66 411.43 320.06 766.22 865.04 1021.28 459.76 903.02 790.60 285.62 268.88 884.47 876.76 881.33 836.34 888.18 207.33 926.02 878.63 358.33 834.32 717.59 170.89 256.61 816.68 956.22 849.99 326.16 883.55 198.23 858.32 755.24 278.62 216.03 907.46 258.52 946.48 788.82 297.76 330.29 876.32 913.29 946.80 312.01 880.80 647.88 802.82 309.80 834.79 283.40 341.80 1050.36 850.27 927.73 729.11 283.40 365.77 348.34 881.64 282.69 864.87 699.85 900.99 872.14 846.02 996.64 775.22 818.43 217.74 251.80 811.62 897.17 947.56 812.10 292.14 947.23 861.29 765.53 223.62 899.50 846.54 898.45 972.09 910.33 239.93 891.97 346.71 863.39 322.16 916.66 130.80 335.74 257.49 803.52 321.63 693.18 911.22 851.41 872.57 896.95 845.52 318.92 849.42 878.49 346.20 417.27 889.58 317.20 819.90 718.71 917.87 269.51 432.77 878.21 0.00 89.52 216.63 569.66 812.47 366.87
626.20 885.97 495.90 376.68 764.57 826.93 1064.55 533.68 889.99 788.95 316.79 349.14 835.86 966.28 820.64 780.99 931.38 296.85 886.55 819.47 414.95 866.76 803.14 260.41 327.71 808.96 919.80 830.29 411.15 828.20 287.75 850.26 813.20 349.30 289.58 920.02 289.69 882.16 835.83 387.28 388.25 854.03 848.97 985.17 387.46 959.43 673.63 795.10 335.55 895.53 371.06 396.01 1110.87 939.79 902.40 818.63 281.75 422.39 403.84 950.11 348.59 827.79 789.37 946.57 807.82 844.37 975.55 767.50 852.94 307.26 341.32 767.70 895.52 939.14 747.78 371.56 939.17 813.54 763.88 313.14 872.15 838.82 915.26 929.83 865.64 329.45 860.76 372.46 950.32 378.78 943.79 220.32 392.36 314.11 739.20 378.25 724.14 984.42 925.59 851.23 919.55 756.00 384.38 847.77 876.84 344.55 486.00 890.48 382.77 818.25 717.06 962.05 301.03 489.39 945.97 89.52 0.00 306.15 659.18 748.15 438.49
475.66 869.42 329.58 247.52 705.20 804.02 945.53 368.45 842.00 729.58 218.82 184.38 823.45 842.62 820.31 775.32 827.16 116.02 865.00 817.61 232.20 773.30 656.57 109.87 196.88 744.71 856.80 788.97 222.97 822.53 113.73 797.30 656.16 179.50 181.87 846.44 224.36 883.80 727.80 151.62 238.40 815.30 852.27 894.81 246.74 819.78 523.78 741.80 185.70 773.77 240.28 239.35 950.94 853.24 828.31 668.09 222.38 260.25 233.88 852.02 150.47 810.46 638.83 851.70 811.12 750.25 935.62 714.20 723.59 128.53 152.38 750.60 805.69 886.54 751.08 225.10 886.21 800.27 704.51 143.63 803.94 785.52 837.43 911.07 849.31 189.38 792.55 222.61 802.37 237.08 879.26 85.83 230.85 184.95 742.50 226.31 575.56 877.31 790.39 811.55 772.85 757.22 203.72 788.40 808.64 285.18 298.31 744.37 225.89 758.88 657.69 870.00 189.52 354.01 865.91 216.63 306.15 0.00 508.64 751.45 285.34
255.89 468.24 776.35 701.88 409.12 413.05 645.99 806.68 333.36 402.12 660.53 621.60 411.44 567.77 342.52 375.44 518.96 557.73 481.00 332.92 684.56 461.21 361.65 398.77 630.07 342.16 484.61 403.43 684.76 422.65 564.73 365.51 328.24 629.02 616.71 514.47 638.76 476.61 267.49 558.51 590.38 306.66 443.00 579.62 679.69 532.57 281.03 389.55 537.68 265.13 684.98 701.14 686.05 544.04 477.98 159.45 447.50 722.04 695.67 543.82 612.26 420.80 269.06 522.30 356.87 537.83 455.83 361.95 260.81 545.22 609.21 362.15 485.85 377.90 342.23 658.05 431.73 407.99 457.34 585.27 443.29 367.41 509.71 406.87 460.09 609.14 435.94 563.06 543.75 696.61 519.57 530.68 687.65 639.31 333.65 675.83 332.81 559.09 281.75 445.68 545.59 357.75 685.42 374.52 422.28 462.07 705.20 520.28 667.60 432.13 416.41 535.19 626.23 771.03 531.58 569.66 659.18 508.64 0.00 342.60 728.52
353.74 137.82 808.85 715.74 118.07 78.78 344.92 920.31 159.74 93.77 801.10 704.26 99.14 242.58 80.92 44.27 183.23 751.87 138.40 71.32 739.13 136.51 158.99 641.58 760.48 78.71 189.55 82.14 711.94 91.48 760.97 102.11 167.65 718.84 798.48 171.87 798.50 151.91 105.58 661.36 605.98 113.44 114.95 250.88 799.45 211.28 242.24 61.14 580.32 154.97 800.07 722.07 362.72 220.21 165.68 231.44 529.07 761.45 714.24 208.09 741.60 79.98 206.72 207.71 77.57 286.51 240.43 37.25 125.81 747.86 712.06 19.55 196.92 208.89 13.76 788.36 191.02 76.82 244.33 773.19 124.00 108.57 185.01 195.81 117.49 811.78 112.61 600.81 208.02 738.14 202.23 765.09 728.21 736.17 8.95 672.03 270.25 248.97 191.57 114.51 220.89 57.85 696.06 114.30 128.70 538.09 670.45 287.55 781.78 141.50 197.51 213.90 747.57 828.45 212.29 812.47 748.15 751.45 342.60 0.00 743.91
656.61 841.45 64.94 61.81 705.05 744.99 784.30 216.64 803.41 680.67 211.54 141.98 795.54 903.73 757.03 740.67 859.39 170.86 819.80 754.39 77.08 811.38 714.41 329.75 197.16 751.83 841.17 754.64 70.71 776.62 179.96 818.14 688.45 122.91 196.60 892.60 184.44 857.66 766.28 187.45 250.12 781.07 804.32 926.12 148.43 882.46 587.04 682.77 290.43 812.98 175.61 68.03 840.09 877.24 811.20 817.79 328.86 33.19 60.20 884.25 134.87 754.34 609.49 873.92 721.24 747.28 924.74 710.37 728.33 183.30 136.75 757.90 779.32 852.56 747.25 149.14 881.06 748.69 675.15 143.25 788.31 781.69 858.13 896.40 841.31 238.21 776.92 287.58 865.05 70.32 831.46 236.07 54.49 124.38 738.67 102.41 618.57 902.56 910.63 752.52 785.00 781.21 81.62 735.93 789.57 359.92 168.45 838.51 135.19 728.40 628.33 869.97 137.46 111.93 869.91 366.87 438.49 285.34 728.52 743.91 0.00
DEMAND_SECTION
1 0
2 15
3 92
4 58
5 23
6 8
7 84
8 16
9 58
10 73
11 28
12 45
13 39
14 39
15 55
16 55
17 85
18 67
19 93
20 99
21 2
22 98
23 30
24 73
25 13
26 62
27 68
28 93
29 67
30 97
31 98
32 47
33 61
34 73
35 84
36 16
37 17
38 72
39 16
40 40
41 20
42 34
43 33
44 22
45 95
46 86
47 24
48 99
49 8
50 38
51 7
52 70
53 16
54 53
55 18
56 83
57 50
58 86
59 73
60 100
61 34
62 38
63 95
64 1
65 76
66 1
67 17
68 35
69 76
70 92
71 68
72 51
73 65
74 3
75 34
76 44
77 98
78 33
79 29
80 79
81 46
82 8
83 62
84 31
85 6
86 21
87 15
88 41
89 27
90 64
91 28
92 100
93 3
94 73
95 5
96 65
97 2
98 69
99 83
100 66
101 96
102 50
103 51
104 71
105 20
106 68
107 28
108 53
109 81
110 85
111 93
112 85
113 30
114 94
115 68
116 33
117 24
118 40
119 56
120 68
121 56
DEPOT_SECTION
1
-1
EOF
