NAME: LDG105_3323_rain_105_0094
COMMENT: CVRP with travel times.  rootPos=3,custPos=3,demandType=2,avgRouteSizeIndex=3,weather=rain,lambda_cluster=1,lambda_random=4, T1=300,T2=700,beta=1, alpha(i,j) ~ U(0.8,1.2)
TYPE: CVRP
DIMENSION: 106
EDGE_WEIGHT_TYPE: EXPLICIT
EDGE_WEIGHT_FORMAT: FULL_MATRIX
CAPACITY: 57
NODE_COORD_SECTION
1 0 0
2 366 763
3 413 283
4 388 744
5 626 533
6 282 78
7 445 760
8 206 192
9 896 9
10 838 404
11 278 83
12 64 756
13 598 129
14 94 200
15 803 912
16 87 238
17 251 449
18 10 726
19 450 643
20 16 697
21 579 516
22 407 820
23 794 843
24 381 780
25 194 209
26 103 162
27 877 215
28 36 645
29 45 455
30 366 629
31 334 669
32 598 638
33 391 786
34 993 745
35 668 885
36 52 219
37 810 658
38 158 267
39 4 936
40 47 42
41 382 22
42 508 10
43 50 163
44 962 582
45 52 254
46 245 530
47 695 820
48 0 583
49 539 904
50 179 885
51 504 433
52 728 28
53 34 204
54 517 141
55 150 88
56 24 761
57 493 594
58 489 590
59 964 157
60 247 369
61 979 782
62 415 547
63 304 141
64 667 719
65 105 312
66 265 115
67 982 221
68 908 569
69 261 61
70 974 773
71 321 674
72 480 762
73 405 784
74 833 539
75 607 666
76 279 54
77 348 166
78 0 814
79 53 992
80 192 208
81 126 198
82 214 589
83 223 709
84 397 610
85 136 43
86 145 69
87 359 322
88 596 146
89 485 514
90 127 285
91 14 825
92 285 711
93 134 848
94 371 838
95 824 479
96 329 48
97 396 744
98 3 607
99 484 468
100 740 490
101 155 278
102 281 830
103 25 178
104 273 336
105 334 778
106 516 582
EDGE_WEIGHT_SECTION
0.00 863.77 578.92 881.52 915.50 339.31 885.76 285.58 1056.30 1017.23 324.20 830.36 656.19 313.04 1242.30 275.04 568.01 792.06 782.42 795.95 822.73 934.48 1164.55 895.16 314.59 268.85 953.33 791.93 528.37 760.24 789.87 919.30 911.90 1281.54 1132.06 282.83 1104.35 393.65 934.09 69.50 476.62 617.85 226.85 1244.34 294.12 650.79 1042.43 736.38 1056.04 1002.73 725.94 799.70 253.33 624.80 220.22 748.17 803.36 818.79 1087.90 460.70 1344.09 808.22 388.94 1050.54 374.23 361.35 1077.35 1180.20 329.25 1336.89 811.53 926.81 890.00 1072.25 958.05 351.42 433.80 820.33 1030.53 320.36 267.95 697.96 874.82 715.53 161.66 204.54 550.23 680.61 791.36 387.10 850.75 822.25 935.12 960.31 1023.88 396.55 861.20 749.07 781.65 1003.31 381.63 1035.80 268.53 436.42 913.35 826.76
863.77 0.00 558.37 47.93 370.76 708.40 98.97 578.19 1051.69 645.74 723.51 361.79 776.92 664.08 490.24 658.87 411.18 454.46 233.99 458.85 387.78 110.94 461.99 33.43 549.18 663.40 770.33 479.77 504.78 187.39 148.38 288.92 50.17 706.63 380.48 660.69 466.37 589.04 514.94 794.27 842.70 826.13 698.57 663.32 605.95 349.02 339.87 444.68 303.54 268.32 416.36 884.89 631.19 697.81 743.39 442.70 287.97 292.28 931.61 450.54 650.42 288.66 664.84 367.87 620.79 732.66 880.33 637.59 774.50 654.01 139.36 157.45 75.76 589.81 302.50 743.09 673.69 505.27 489.01 554.95 611.48 263.25 194.01 207.63 744.48 701.60 525.01 747.39 377.32 614.68 466.24 170.91 349.35 96.54 606.04 794.20 50.04 436.07 386.60 533.87 616.89 174.60 695.37 537.41 64.71 248.74
578.92 558.37 0.00 570.53 414.03 269.83 568.61 311.19 752.07 555.18 254.72 723.51 306.11 377.33 862.17 388.57 323.88 685.21 466.17 732.28 431.79 613.10 780.84 569.07 290.49 376.65 612.56 602.68 468.41 445.76 449.36 534.88 552.33 867.43 735.30 433.03 713.12 382.99 827.24 509.42 312.25 387.63 452.65 822.10 430.44 405.06 658.72 652.01 667.92 724.90 332.24 468.71 462.53 343.14 410.77 641.32 360.51 374.01 578.64 216.57 818.20 346.73 213.25 565.66 394.03 236.50 692.96 757.96 305.47 798.18 419.01 552.00 577.92 680.47 488.82 304.52 171.95 713.48 923.68 296.26 324.73 502.81 595.57 406.12 436.19 397.65 88.74 294.20 262.58 327.28 743.90 521.29 731.56 619.29 641.53 314.41 572.96 608.39 242.94 577.14 382.47 665.66 460.79 202.55 521.29 383.10
881.52 47.93 570.53 0.00 322.83 719.73 85.25 626.12 1003.76 628.94 704.62 409.72 757.54 691.96 538.17 682.56 398.63 437.73 204.27 429.13 339.85 112.99 478.54 57.92 597.11 711.33 793.10 467.42 519.67 139.46 157.99 259.20 73.79 709.54 377.91 649.40 481.73 598.65 503.92 812.02 810.00 796.41 719.28 615.39 653.88 301.09 364.36 422.22 305.02 281.18 386.64 855.17 678.90 684.09 789.23 454.51 258.99 247.37 900.77 420.82 657.01 269.28 632.14 338.15 592.44 699.96 863.53 655.14 753.24 640.29 151.52 127.73 73.19 553.38 266.07 754.42 640.99 526.67 496.33 602.88 659.41 278.14 217.17 174.93 792.41 749.53 492.31 717.67 338.27 570.50 481.51 159.89 334.80 138.19 573.37 764.48 20.32 459.23 353.90 485.94 601.50 181.92 733.65 507.69 77.57 219.02
915.50 370.76 414.03 322.83 0.00 683.86 408.08 695.69 680.93 306.11 668.75 732.55 587.87 757.75 535.05 728.68 567.95 710.22 287.26 751.96 127.55 435.82 385.94 380.75 666.68 708.75 601.22 656.67 762.74 367.14 419.56 209.14 396.62 601.71 378.32 747.89 412.86 669.50 755.25 846.00 726.28 550.97 688.65 426.87 740.80 488.80 425.10 742.19 529.99 604.01 255.33 737.14 760.67 519.87 824.80 741.36 215.65 199.72 617.76 494.64 539.16 316.57 627.28 267.17 672.10 650.53 540.70 362.73 717.01 559.18 394.29 362.52 396.02 266.44 255.20 718.55 577.53 790.36 810.08 672.45 708.87 534.23 526.16 325.18 791.08 811.68 428.85 542.34 245.03 658.78 738.50 411.22 635.13 461.02 250.54 719.99 343.15 705.31 171.09 163.11 697.35 495.67 717.47 542.66 400.40 203.96
339.31 708.40 269.83 719.73 683.86 0.00 762.30 188.23 751.00 726.97 15.11 801.38 405.13 263.73 1113.99 289.51 447.34 761.12 611.69 780.33 635.61 763.75 999.32 741.83 159.22 243.74 730.98 725.78 493.52 589.51 642.53 748.57 744.86 1118.70 963.96 319.43 896.86 260.13 926.09 269.81 167.53 278.54 304.84 957.76 342.43 544.88 910.54 692.17 908.42 915.78 549.75 548.92 347.84 312.09 177.00 805.01 629.44 643.58 748.59 391.03 1069.47 517.07 87.59 835.07 310.49 56.05 795.76 901.64 66.10 1049.45 672.88 753.68 719.27 809.01 758.65 34.69 126.98 857.68 1051.87 164.99 211.13 542.59 719.45 544.80 224.45 182.04 265.60 373.79 532.41 293.93 805.82 719.70 814.57 804.94 709.00 95.92 727.72 664.90 512.77 755.63 269.13 764.52 346.52 326.76 755.63 629.68
885.76 98.97 568.61 85.25 408.08 762.30 0.00 677.16 1058.92 677.85 747.19 439.18 723.02 735.93 541.32 696.53 424.21 482.34 165.86 473.74 406.67 112.68 393.29 65.54 648.15 735.25 837.71 479.25 550.48 221.92 161.41 303.81 82.28 624.29 302.01 694.01 396.48 602.07 548.53 856.63 852.57 810.17 743.84 649.17 704.92 383.55 371.98 507.06 232.76 334.75 389.30 816.76 723.51 598.84 842.36 521.37 273.95 258.02 884.57 465.43 575.06 311.85 674.71 269.69 597.34 742.53 912.44 585.03 795.81 555.04 159.16 94.80 91.81 549.91 348.69 796.99 683.56 453.46 521.12 653.92 683.33 308.95 261.78 217.50 843.45 800.57 534.88 722.00 306.03 629.57 505.32 204.50 404.34 149.24 638.15 809.09 64.93 503.84 379.97 571.19 629.92 206.71 778.26 552.30 131.14 263.63
285.58 578.19 311.19 626.12 695.69 188.23 677.16 0.00 875.45 757.05 203.34 649.32 449.40 174.11 960.30 199.89 323.72 623.89 591.11 628.27 601.86 689.13 878.97 611.62 29.01 151.15 667.75 573.72 341.46 542.65 548.73 749.81 628.36 1090.65 846.48 222.55 818.77 108.07 817.14 216.08 299.93 466.77 232.50 958.76 251.21 421.26 756.85 549.47 881.73 802.32 440.36 632.45 193.05 436.36 205.15 667.78 549.14 533.21 829.03 263.74 1067.40 538.35 132.71 795.40 205.98 180.50 792.05 894.62 223.34 1072.70 557.37 711.20 653.95 817.84 703.83 222.92 157.06 708.60 917.35 34.78 121.51 412.38 589.24 551.28 206.24 163.36 299.84 403.87 505.78 163.55 743.25 589.49 684.36 674.73 818.16 256.62 628.23 512.84 529.66 730.73 135.92 750.22 221.74 241.63 627.77 587.39
1056.30 1051.69 752.07 1003.76 680.93 751.00 1058.92 875.45 0.00 526.69 744.70 1284.85 514.64 850.05 982.76 829.59 930.81 1243.57 938.74 1290.64 697.93 1113.46 1026.49 1061.68 878.84 899.05 454.94 1265.01 1102.34 1014.00 1068.57 890.07 1077.55 831.93 1049.19 882.03 749.25 874.83 1436.18 986.80 712.98 656.84 910.84 655.60 882.51 1028.35 959.56 1247.75 1140.05 1250.44 886.05 331.59 909.48 460.08 897.54 1287.46 862.51 846.58 293.66 880.76 862.31 925.02 762.77 942.64 928.78 694.95 393.38 591.46 763.92 881.53 1038.22 1024.57 1068.98 659.08 936.13 737.48 722.46 1359.62 1491.01 884.61 902.65 1126.10 1181.42 972.04 894.64 880.34 837.76 475.65 878.03 930.54 1362.93 1092.15 1316.06 1092.35 667.74 794.89 1024.08 1204.13 852.02 707.55 902.68 1176.60 933.51 836.48 1081.33 855.36
1017.23 645.74 555.18 628.94 306.11 726.97 677.85 757.05 526.69 0.00 711.86 936.22 533.06 904.76 507.10 892.06 648.92 861.51 533.85 908.58 293.04 689.82 557.33 612.31 786.06 870.63 324.81 898.64 946.43 559.40 612.42 465.76 629.05 456.97 557.18 944.50 285.82 839.01 1021.63 947.73 739.26 644.42 928.97 280.64 886.46 692.36 467.55 954.24 700.53 881.52 481.16 481.94 950.10 592.98 858.87 905.40 457.62 441.69 311.65 756.23 487.35 520.13 661.35 467.80 818.89 725.23 234.59 216.50 774.80 501.51 633.33 619.68 654.64 132.39 419.70 761.66 599.99 977.56 1056.53 791.83 878.56 723.74 758.63 514.69 888.63 845.75 592.23 578.59 473.14 783.30 980.87 677.60 901.51 687.46 141.05 666.55 649.17 910.62 477.20 189.81 838.49 742.12 970.65 706.04 677.91 450.47
324.20 723.51 254.72 704.62 668.75 15.11 747.19 203.34 744.70 711.86 0.00 816.49 404.21 275.41 1116.89 301.19 432.23 776.23 596.58 795.44 650.71 748.64 984.21 746.49 174.33 258.85 746.09 727.10 508.63 574.40 627.42 733.46 729.75 1103.59 958.91 331.11 891.81 275.24 941.20 254.70 152.42 293.65 291.67 948.44 354.11 529.77 913.44 677.06 922.64 900.67 534.64 533.81 360.61 327.20 192.11 813.13 614.33 628.47 763.70 398.52 1054.36 501.96 72.48 820.38 325.60 71.16 780.65 886.53 62.94 1034.34 657.77 738.57 704.16 799.69 743.54 49.80 111.87 872.79 1063.82 180.10 222.81 557.70 734.56 529.69 239.56 197.15 260.55 358.68 517.30 309.04 820.93 706.85 829.68 796.71 699.68 111.03 712.61 680.01 497.66 740.52 284.24 749.41 333.35 311.65 740.52 614.57
830.36 361.79 723.51 409.72 732.55 801.38 439.18 649.32 1284.85 936.22 816.49 0.00 957.89 679.31 852.03 667.59 465.52 117.77 460.26 161.86 643.18 417.67 802.20 373.64 642.16 720.02 1132.12 206.25 400.20 422.45 363.79 650.71 356.90 1013.36 687.21 645.74 828.16 541.25 244.83 865.40 949.25 1034.42 713.38 972.06 672.86 448.45 680.08 300.68 614.32 172.37 701.56 1080.16 670.84 875.41 805.53 82.19 568.35 552.42 1178.97 571.73 980.95 555.87 782.03 708.87 568.40 826.05 1170.81 908.32 867.48 986.36 394.14 465.52 382.49 883.57 645.04 836.07 783.45 143.48 353.68 646.50 694.84 350.70 217.58 461.52 806.62 763.74 634.77 920.68 621.26 596.96 124.56 332.52 158.91 414.01 907.74 869.50 411.83 257.06 612.26 820.31 569.10 319.59 729.99 614.44 375.98 606.60
656.19 776.92 306.11 757.54 587.87 405.13 723.02 449.40 514.64 533.06 404.21 957.89 0.00 582.31 910.00 622.95 500.69 907.67 643.96 925.31 460.32 801.56 960.23 743.49 478.41 562.98 414.11 889.42 638.50 627.32 680.34 673.62 760.23 876.74 848.18 612.65 688.72 511.43 1031.32 636.26 380.05 161.11 621.32 710.98 658.13 598.23 861.06 846.51 874.86 839.12 548.19 183.05 583.15 124.18 551.22 875.70 592.28 576.35 545.04 501.58 870.89 488.26 353.70 705.03 618.87 417.58 430.72 662.53 434.39 850.87 710.69 754.34 757.08 535.29 691.16 396.03 292.34 947.86 1097.53 484.18 570.91 695.98 811.40 582.61 580.98 538.10 323.12 45.53 464.92 561.66 978.28 738.66 937.07 827.19 574.92 309.21 742.88 868.23 459.10 487.49 539.28 884.66 647.33 436.93 793.44 593.50
313.04 664.08 377.33 691.96 757.75 263.73 735.93 174.11 850.05 904.76 275.41 679.31 582.31 0.00 1057.58 94.94 383.29 561.54 626.30 568.82 690.20 762.93 1046.14 697.51 156.93 49.00 841.86 564.80 301.24 552.50 574.52 763.18 714.25 1197.23 1000.60 55.70 944.52 177.17 782.65 248.35 416.62 534.30 125.14 1086.75 114.98 466.07 924.02 509.25 950.28 804.50 568.28 765.36 85.20 537.44 201.91 605.43 639.60 647.25 892.94 275.98 1152.93 590.73 301.79 834.22 148.92 233.97 966.16 1022.61 228.76 1132.91 599.16 783.89 718.45 924.73 754.12 267.12 319.64 677.59 887.79 151.16 52.60 506.46 666.23 559.41 252.72 243.70 360.00 566.45 563.01 121.46 680.90 654.12 709.81 754.26 865.43 359.65 676.48 552.87 590.38 778.00 176.65 827.21 83.46 312.47 721.85 599.63
1242.30 490.24 862.17 538.17 535.05 1113.99 541.32 960.30 982.76 507.10 1116.89 852.03 910.00 1057.58 0.00 1057.80 714.05 915.51 558.13 942.57 594.87 545.04 149.11 509.89 989.31 1075.05 761.63 860.06 985.74 648.40 584.16 419.41 520.27 334.12 246.91 1071.77 385.98 977.55 857.16 1172.80 1174.42 995.20 1111.70 455.44 1027.76 784.38 203.45 901.71 320.83 758.56 682.86 906.98 1090.77 926.65 1164.47 917.17 528.04 543.97 818.75 781.60 284.89 640.41 1057.16 350.16 959.06 1098.67 741.69 391.30 1158.01 264.87 553.81 448.29 545.86 374.71 373.35 1144.44 1034.12 970.92 959.15 995.08 1023.13 744.21 684.25 623.18 1166.54 1123.66 898.40 955.53 599.59 945.74 933.70 656.09 838.13 583.03 474.72 1097.59 540.28 920.94 673.53 526.64 1000.93 651.06 1131.56 862.97 554.95 527.84
275.04 658.87 388.57 682.56 728.68 289.51 696.53 199.89 829.59 892.06 301.19 667.59 622.95 94.94 1057.80 0.00 366.45 549.82 623.04 565.56 696.07 716.05 998.44 692.30 182.71 102.41 867.64 534.91 291.69 543.10 575.10 725.78 709.04 1102.29 986.16 52.44 931.09 134.44 770.93 205.54 453.61 515.54 90.14 1033.19 52.92 407.00 909.58 499.70 929.29 792.78 507.95 806.00 79.89 538.86 190.85 593.71 636.34 643.99 967.21 276.20 1132.85 541.00 332.60 830.96 99.19 302.75 991.94 969.05 323.70 1112.83 605.45 737.16 722.64 885.29 739.68 324.20 356.95 665.87 876.07 176.94 78.38 456.73 633.59 556.15 249.41 232.64 299.83 603.76 553.61 112.06 669.18 644.34 660.08 745.47 815.70 385.43 676.70 474.03 557.59 728.27 106.59 794.57 116.34 217.53 672.12 596.37
568.01 411.18 323.88 398.63 567.95 447.34 424.21 323.72 930.81 648.92 432.23 465.52 500.69 383.29 714.05 366.45 0.00 503.65 336.79 498.48 496.86 454.82 799.01 386.37 294.71 380.72 874.20 401.22 335.85 259.17 262.80 507.65 403.11 948.14 681.15 386.31 676.26 274.20 645.68 498.51 489.37 609.99 419.65 795.30 327.03 97.54 676.89 505.72 637.61 557.62 377.48 683.74 402.01 525.32 454.11 459.76 352.30 368.23 902.52 107.31 929.89 269.77 381.72 607.59 284.77 416.46 877.13 763.39 455.36 915.66 293.15 489.94 410.34 636.15 506.99 470.15 320.36 531.92 683.90 288.94 348.84 195.29 360.75 303.88 490.01 447.13 262.73 455.16 377.85 271.45 562.34 344.79 467.27 442.54 546.54 462.82 392.64 462.10 430.25 459.11 302.05 500.89 430.83 148.92 367.71 382.38
792.06 454.46 685.21 437.73 710.22 761.12 482.34 623.89 1243.57 861.51 776.23 117.77 907.67 561.54 915.51 549.82 503.65 0.00 529.71 47.07 734.18 491.87 834.18 459.34 613.73 610.54 1093.59 147.02 282.43 418.11 389.28 656.29 474.67 1081.54 781.14 527.97 878.82 515.82 221.11 752.96 886.13 994.82 595.61 1001.06 555.09 438.83 712.06 195.66 640.23 242.96 641.97 1090.72 557.47 783.49 717.00 43.89 572.35 585.53 1173.16 534.86 1022.61 557.17 756.60 735.24 450.63 769.25 1096.10 979.06 770.61 1037.38 402.44 524.82 491.52 909.06 702.35 795.81 745.15 116.05 326.25 607.96 584.99 363.54 330.99 462.82 750.80 707.92 596.47 906.65 558.70 535.31 119.36 328.22 276.68 448.10 884.18 804.22 417.41 152.04 632.64 807.27 503.82 318.17 612.22 548.29 446.57 612.32
782.42 233.99 466.17 204.27 287.26 611.69 165.86 591.11 938.74 533.85 596.58 460.26 643.96 626.30 558.13 623.04 336.79 529.71 0.00 560.82 240.81 255.45 476.80 203.37 589.16 675.30 720.42 492.46 517.47 111.60 164.62 215.48 220.11 632.13 431.26 570.60 456.80 539.63 585.33 712.92 701.96 723.73 640.48 599.85 629.88 273.23 354.68 493.35 398.62 393.22 269.31 650.90 600.10 658.95 721.62 485.82 108.09 92.16 718.71 444.10 607.68 155.70 524.10 343.56 564.58 591.92 768.44 575.17 645.20 627.70 173.19 175.29 210.97 472.09 184.78 646.38 532.95 545.87 602.72 594.93 678.90 275.94 242.68 66.89 751.38 708.50 384.27 622.98 203.59 542.64 514.91 244.05 467.21 287.07 524.48 670.67 183.95 484.74 245.86 437.05 567.48 333.98 654.85 433.36 189.61 146.34
795.95 458.85 732.28 429.13 751.96 780.33 473.74 628.27 1290.64 908.58 795.44 161.86 925.31 568.82 942.57 565.56 498.48 47.07 560.82 0.00 691.73 488.93 861.24 455.14 621.11 617.82 1046.52 169.55 286.81 465.18 436.35 647.69 470.04 1098.03 749.17 513.12 870.22 520.20 254.07 740.35 912.00 1041.89 583.00 974.59 559.47 400.94 739.12 149.18 676.28 290.03 594.90 1102.04 542.62 830.56 702.64 90.96 591.52 607.45 1203.91 557.39 1045.50 573.17 753.76 726.64 479.31 797.93 1143.17 1008.88 797.58 1028.78 449.51 516.22 444.45 937.12 693.75 815.02 758.05 163.12 373.32 625.45 613.67 360.17 318.14 509.89 703.73 660.85 643.54 903.25 511.63 552.62 153.70 375.29 320.77 495.17 837.11 830.09 408.81 192.80 585.57 854.34 548.05 358.45 597.37 552.67 493.64 607.51
822.73 387.78 431.79 339.85 127.55 635.61 406.67 601.86 697.93 293.04 650.71 643.18 460.32 690.20 594.87 696.07 496.86 734.18 240.81 691.73 0.00 415.53 513.49 397.77 572.85 641.20 589.66 605.60 653.39 316.07 370.64 213.82 390.76 601.02 387.86 701.36 392.26 576.17 752.43 812.28 744.04 566.96 654.93 440.72 724.81 399.32 429.78 661.20 442.12 621.03 188.12 643.37 726.95 537.95 767.06 690.29 164.58 148.65 604.69 497.10 538.47 227.09 637.67 244.71 668.90 579.56 527.63 376.76 648.53 558.49 340.29 326.64 371.05 249.52 259.88 670.30 595.29 744.48 829.64 567.08 665.64 447.60 483.49 274.11 768.15 725.27 446.61 414.79 180.10 621.65 755.72 442.57 649.52 394.42 349.53 723.67 356.13 617.58 188.85 269.23 604.02 521.77 696.61 534.20 417.42 157.43
934.48 110.94 613.10 112.99 435.82 763.75 112.68 689.13 1113.46 689.82 748.64 417.67 801.56 762.93 545.04 716.05 454.82 491.87 255.45 488.93 415.53 0.00 489.98 77.51 660.12 765.86 844.67 476.13 576.63 248.02 192.02 331.55 60.77 717.14 349.20 721.75 509.16 632.68 469.14 864.98 854.02 847.98 769.50 712.33 716.89 409.65 383.95 457.16 224.21 323.32 437.25 906.35 742.13 711.52 854.33 447.98 282.81 266.88 920.28 493.17 654.59 313.30 676.16 358.69 616.86 743.98 877.45 648.19 797.26 661.01 222.37 140.17 44.48 599.32 312.01 798.44 685.01 474.44 414.11 665.89 713.94 335.10 206.49 218.95 855.42 812.54 536.33 759.60 353.98 657.31 478.72 226.09 314.18 59.08 616.64 822.73 92.67 448.55 397.92 531.01 660.53 192.17 806.00 580.04 119.71 270.59
1164.55 461.99 780.84 478.54 385.94 999.32 393.29 878.97 1026.49 557.33 984.21 802.20 960.23 1046.14 149.11 998.44 799.01 834.18 476.80 861.24 513.49 489.98 0.00 428.56 907.98 1030.12 715.36 778.73 943.77 586.56 552.13 338.08 445.30 277.03 207.41 990.44 332.43 914.85 844.43 1095.05 1093.09 936.91 1054.19 370.89 1049.72 731.31 122.12 863.84 321.28 697.77 539.78 972.02 1019.94 895.80 1084.12 878.07 446.71 462.64 868.98 806.53 300.34 559.08 975.83 293.91 983.99 1017.34 791.92 435.03 1047.15 280.32 552.45 488.09 470.89 424.94 292.02 1034.01 952.79 846.75 884.14 913.75 1000.48 702.24 613.17 541.85 1085.21 1042.33 814.79 928.28 518.26 959.81 885.40 550.64 767.36 512.26 443.87 1016.26 458.22 839.61 557.03 521.52 942.70 569.73 1012.51 814.17 494.16 446.51
895.16 33.43 569.07 57.92 380.75 741.83 65.54 611.62 1061.68 612.31 746.49 373.64 743.49 697.51 509.89 692.30 386.37 459.34 203.37 455.14 397.77 77.51 428.56 0.00 582.61 696.83 803.76 487.73 522.52 187.81 123.57 285.21 16.74 673.20 347.05 675.41 462.02 564.23 501.99 825.66 830.91 822.42 732.00 668.30 639.38 349.44 306.44 478.11 274.16 269.21 412.65 854.27 664.62 664.38 776.82 455.83 274.78 258.85 912.25 446.83 616.99 255.23 674.01 335.23 599.65 741.83 846.90 604.16 795.11 620.58 153.92 125.36 42.33 597.17 309.86 776.52 661.90 474.35 455.58 588.38 644.91 280.99 227.44 216.80 777.91 735.03 513.22 743.68 368.43 610.97 475.91 157.96 338.80 83.70 572.61 790.49 46.33 469.50 372.04 528.86 592.08 141.17 728.80 533.70 65.60 245.03
314.59 549.18 290.49 597.11 666.68 159.22 648.15 29.01 878.84 786.06 174.33 642.16 478.41 156.93 989.31 182.71 294.71 613.73 589.16 621.11 572.85 660.12 907.98 582.61 0.00 156.25 696.76 566.56 334.30 513.64 541.57 724.05 599.35 1061.64 875.49 212.63 789.76 100.91 791.13 245.09 317.30 437.76 205.15 980.03 231.22 392.25 785.86 542.31 852.72 773.31 411.35 661.46 188.62 465.37 194.21 657.62 578.15 562.22 858.04 234.73 1063.71 528.82 161.72 766.39 176.97 183.89 821.06 916.07 225.32 1043.69 528.36 706.63 624.94 788.83 703.01 193.91 186.07 701.44 911.64 5.77 104.33 383.37 560.23 522.27 195.30 152.42 270.83 432.88 476.77 134.71 733.09 560.48 655.35 645.72 789.15 255.14 599.22 505.68 500.65 701.72 109.91 721.21 240.39 234.38 598.76 578.97
268.85 663.40 376.65 711.33 708.75 243.74 735.25 151.15 899.05 870.63 258.85 720.02 562.98 49.00 1075.05 102.41 380.72 610.54 675.30 617.82 641.20 765.86 1030.12 696.83 156.25 0.00 818.90 584.67 348.64 601.50 573.84 804.81 713.57 1204.70 997.63 104.70 946.01 178.77 831.65 199.35 389.75 522.28 81.35 1081.92 155.33 478.26 908.00 547.13 953.21 853.50 567.60 746.03 134.20 517.65 207.16 654.43 688.60 684.36 941.94 293.45 1164.96 602.42 283.86 883.22 186.28 234.20 939.42 1017.96 277.76 1144.94 604.19 800.98 721.38 890.72 801.60 240.25 270.64 726.59 936.79 150.48 51.92 539.62 715.23 608.41 212.97 206.03 402.24 517.45 603.24 170.46 729.90 680.32 747.17 753.58 902.79 315.15 693.95 523.79 589.70 815.36 192.30 838.00 121.76 319.94 724.33 648.63
953.33 770.33 612.56 793.10 601.22 730.98 837.71 667.75 454.94 324.81 746.09 1132.12 414.11 841.86 761.63 867.64 874.20 1093.59 720.42 1046.52 589.66 844.67 715.36 803.76 696.76 818.90 0.00 1050.97 1009.21 768.29 821.31 723.06 820.50 646.17 869.64 890.30 602.21 775.82 1214.91 883.83 711.24 575.22 900.25 477.80 918.96 858.92 785.85 1148.78 1013.45 1038.65 606.55 329.85 860.80 418.89 872.90 1137.48 614.05 628.26 161.28 829.13 684.51 686.69 722.54 760.85 873.73 787.03 124.30 413.66 734.65 703.73 802.77 775.73 846.09 450.69 714.95 696.29 665.85 1161.13 1258.78 702.53 789.26 834.45 939.61 723.58 873.99 831.11 701.30 419.04 689.82 831.30 1200.22 900.74 1106.43 866.87 350.68 723.32 772.78 1105.16 695.85 438.11 803.67 944.93 889.49 795.29 835.04 574.08
791.93 479.77 602.68 467.42 656.67 725.78 479.25 573.72 1265.01 898.64 727.10 206.25 889.42 564.80 860.06 534.91 401.22 147.02 492.46 169.55 605.60 476.13 778.73 487.73 566.56 584.67 1050.97 0.00 263.56 436.43 372.19 629.34 484.01 1020.94 746.24 509.10 825.88 465.65 341.38 734.09 764.15 890.52 576.74 981.25 504.81 303.68 656.61 104.50 679.25 378.62 553.42 1060.56 538.60 804.93 689.87 155.46 441.02 456.95 1110.35 387.84 967.16 475.91 670.40 706.75 456.06 681.20 1059.49 917.11 664.16 987.18 341.84 571.76 509.60 855.12 595.71 702.52 675.90 227.62 437.82 570.90 559.70 216.52 302.94 425.57 721.75 688.14 566.30 856.38 470.15 503.03 258.04 404.13 365.16 417.05 842.89 682.24 474.34 60.88 544.09 795.73 472.09 387.95 593.35 474.71 431.91 480.99
528.37 504.78 468.41 519.67 762.74 493.52 550.48 341.46 1102.34 946.43 508.63 400.20 638.50 301.24 985.74 291.69 335.85 282.43 517.47 286.81 653.39 576.63 943.77 522.52 334.30 348.64 1009.21 263.56 0.00 435.57 499.81 654.35 515.86 1124.54 846.17 245.54 852.66 233.39 503.54 470.53 640.25 772.06 313.18 1059.04 272.66 273.94 828.96 208.01 726.82 525.39 615.96 821.55 275.04 642.26 434.57 326.32 558.54 572.68 1047.05 338.00 1073.94 446.17 474.17 731.76 192.50 511.12 1069.22 994.90 530.00 1092.06 486.52 606.76 541.45 902.91 700.41 528.21 471.24 398.48 608.68 338.64 326.86 241.53 401.13 450.58 486.23 455.88 379.67 684.03 536.04 277.18 401.79 429.14 513.51 553.10 867.90 561.64 499.35 251.63 606.65 794.96 261.24 562.11 329.79 265.86 456.92 558.78
760.24 187.39 445.76 139.46 367.14 589.51 221.92 542.65 1014.00 559.40 574.40 422.45 627.32 552.50 648.40 543.10 259.17 418.11 111.60 465.18 316.07 248.02 586.56 187.81 513.64 601.50 768.29 436.43 435.57 0.00 64.24 248.48 187.25 743.73 516.50 548.42 489.80 486.75 480.50 690.74 674.71 756.67 605.62 625.09 534.20 161.63 464.44 442.49 443.61 349.30 282.08 762.50 577.92 623.68 649.77 374.22 154.24 167.42 820.82 351.72 694.33 139.06 501.92 352.15 452.98 569.74 793.99 560.95 623.02 714.35 94.59 264.40 211.78 565.59 294.54 624.20 505.70 446.38 607.71 507.87 579.52 253.76 204.87 44.71 708.33 666.06 357.02 618.20 198.81 431.04 476.80 136.47 360.38 243.98 502.30 648.16 156.99 446.93 223.68 414.87 462.04 321.38 603.04 408.09 214.73 194.21
789.87 148.38 449.36 157.99 419.56 642.53 161.41 548.73 1068.57 612.42 627.42 363.79 680.34 574.52 584.16 575.10 262.80 389.28 164.62 436.35 370.64 192.02 552.13 123.57 541.57 573.84 821.31 372.19 499.81 64.24 0.00 301.50 140.31 709.45 452.26 568.37 542.82 440.66 442.49 720.37 732.80 814.76 615.03 651.68 589.82 225.87 430.01 378.25 379.37 297.62 337.77 815.52 597.87 687.92 688.62 361.74 207.26 223.19 876.59 370.11 736.47 192.08 554.94 416.39 517.22 622.76 847.01 625.19 676.04 716.45 30.35 227.14 147.54 519.78 347.56 677.22 563.79 433.90 556.03 545.91 521.92 268.82 146.21 97.73 706.03 663.15 415.11 642.81 263.05 495.28 418.44 106.48 326.87 179.74 555.32 701.51 159.83 388.27 248.47 467.89 468.51 264.74 652.62 411.72 150.49 247.23
919.30 288.92 534.88 259.20 209.14 748.57 303.81 749.81 890.07 465.76 733.46 650.71 673.62 763.18 419.41 725.78 507.65 656.29 215.48 647.69 213.82 331.55 338.08 285.21 724.05 804.81 723.06 629.34 654.35 248.48 301.50 0.00 301.95 513.20 287.81 707.48 241.32 668.89 722.48 849.80 760.09 760.11 777.36 494.01 766.30 410.11 215.96 675.26 370.10 540.38 312.70 801.59 736.98 708.16 827.66 622.70 200.75 216.60 777.41 575.11 468.96 298.12 660.98 131.24 701.46 728.80 687.47 429.87 782.08 488.98 331.85 222.78 313.59 333.37 46.06 783.26 669.83 682.75 721.06 729.82 781.15 412.82 435.73 203.77 886.22 845.38 521.15 628.09 272.30 679.52 700.07 378.45 594.00 368.91 372.38 678.18 238.88 677.79 346.24 322.90 691.27 406.65 791.73 508.25 336.77 200.55
911.90 50.17 552.33 73.79 396.62 744.86 82.28 628.36 1077.55 629.05 729.75 356.90 760.23 714.25 520.27 709.04 403.11 474.67 220.11 470.04 390.76 60.77 445.30 16.74 599.35 713.57 820.50 484.01 515.86 187.25 140.31 301.95 0.00 656.46 330.31 692.15 478.76 580.97 511.91 842.40 835.13 839.16 748.74 651.56 656.12 348.88 323.18 472.15 257.42 262.55 427.81 871.01 681.36 681.12 793.56 439.09 258.04 242.11 895.51 463.57 633.73 271.97 657.27 351.97 616.39 725.09 858.56 587.42 778.37 629.46 170.66 108.62 25.59 580.43 293.12 779.55 666.12 491.09 472.32 605.12 661.65 274.33 221.48 200.06 794.65 751.77 517.44 740.71 353.54 618.29 469.25 167.88 322.06 66.96 555.87 803.84 63.07 463.54 379.03 512.12 608.82 157.91 745.54 550.44 58.94 261.77
1281.54 706.63 867.43 709.54 601.71 1118.70 624.29 1090.65 831.93 456.97 1103.59 1013.36 876.74 1197.23 334.12 1102.29 948.14 1081.54 632.13 1098.03 601.02 717.14 277.03 673.20 1061.64 1204.70 646.17 1020.94 1124.54 743.73 709.45 513.20 656.46 0.00 462.73 1146.46 271.88 1072.38 1091.24 1212.04 991.68 1015.12 1192.43 176.33 1142.81 850.60 373.10 1027.00 598.31 919.01 713.79 879.64 1175.96 877.02 1061.32 1051.13 640.14 656.07 768.62 948.04 62.55 715.14 1044.73 404.73 1125.50 1103.93 691.56 240.47 1137.76 69.25 679.10 590.09 682.05 367.53 485.45 1099.40 991.72 1077.75 1128.78 1067.41 1162.27 894.96 855.66 699.02 1119.88 1103.11 882.25 831.21 696.37 1092.44 1085.61 781.38 884.59 723.42 425.09 1073.59 689.22 1070.62 624.49 512.52 1100.23 814.37 1170.87 884.76 715.40 602.53
1132.06 380.48 735.30 377.91 378.32 963.96 302.01 846.48 1049.19 557.18 958.91 687.21 848.18 1000.60 246.91 986.16 681.15 781.14 431.26 749.17 387.86 349.20 207.41 347.05 875.49 997.63 869.64 746.24 846.17 516.50 452.26 287.81 330.31 462.73 0.00 944.90 299.94 869.31 732.37 1062.56 1016.05 929.29 1011.53 489.04 986.43 649.82 89.63 800.13 196.04 592.86 555.99 964.55 974.40 898.19 1051.63 767.28 401.17 417.10 868.83 767.44 400.18 492.38 908.40 207.61 899.35 967.42 791.77 488.49 1015.47 420.20 461.17 315.36 304.72 424.79 246.48 998.65 847.04 738.65 763.31 881.26 967.99 604.64 551.79 479.19 1043.26 1009.84 698.36 802.65 472.72 914.27 686.79 486.33 652.37 397.27 518.96 965.99 366.94 793.85 546.66 431.53 897.16 462.97 1029.15 768.63 389.25 400.97
282.83 660.69 433.03 649.40 747.89 319.43 694.01 222.55 882.03 944.50 331.11 645.74 612.65 55.70 1071.77 52.44 386.31 527.97 570.60 513.12 701.36 721.75 990.44 675.41 212.63 104.70 890.30 509.10 245.54 548.42 568.37 707.48 692.15 1146.46 944.90 0.00 888.82 127.71 749.08 227.23 472.32 567.98 69.88 1044.19 59.28 442.45 868.32 453.55 904.47 770.93 560.39 795.70 29.50 488.47 203.22 571.86 583.90 591.55 948.64 305.44 1097.23 557.99 318.63 778.52 139.12 289.67 1014.60 980.05 284.46 1077.21 598.72 736.34 678.18 891.65 698.42 322.82 375.34 644.02 843.65 206.86 108.30 487.07 646.67 503.71 242.93 222.94 352.27 611.63 552.18 162.44 647.33 598.42 700.01 748.11 855.63 415.35 629.08 497.17 610.03 768.20 142.04 807.65 84.25 269.97 702.46 543.93
1104.35 466.37 713.12 481.73 412.86 896.86 396.48 818.77 749.25 285.82 891.81 828.16 688.72 944.52 385.98 931.09 676.26 878.82 456.80 870.22 392.26 509.16 332.43 462.02 789.76 946.01 602.21 825.88 852.66 489.80 542.82 241.32 478.76 271.88 299.94 888.82 0.00 887.78 945.01 1034.85 948.95 849.83 958.70 252.69 948.10 578.72 210.31 894.41 495.98 731.23 512.51 733.08 918.32 705.37 983.97 864.02 384.86 399.07 597.47 768.81 324.83 457.50 841.30 248.88 878.83 905.18 520.41 188.55 954.75 341.13 546.51 464.10 488.29 153.43 278.20 927.75 779.94 849.94 917.60 795.53 894.09 654.14 658.26 445.09 985.06 942.18 631.26 691.71 473.47 869.80 901.80 600.98 800.82 545.72 253.44 919.50 461.41 886.76 503.95 249.75 879.13 603.19 973.07 745.07 527.62 344.89
393.65 589.04 382.99 598.65 669.50 260.13 602.07 108.07 874.83 839.01 275.24 541.25 511.43 177.17 977.55 134.44 274.20 515.82 539.63 520.20 576.17 632.68 914.85 564.23 100.91 178.77 775.82 465.65 233.39 486.75 440.66 668.89 580.97 1072.38 869.31 127.71 887.78 0.00 709.07 324.15 408.00 538.67 197.59 1016.89 149.16 328.26 792.73 441.40 820.03 713.62 507.74 694.48 157.21 414.75 264.28 559.71 542.65 535.90 937.10 195.95 1045.73 430.28 240.78 768.10 107.44 284.80 900.12 952.93 326.23 1053.65 471.01 667.80 588.20 825.69 622.83 294.82 265.13 600.53 810.73 105.25 153.59 426.01 575.67 472.74 265.37 222.49 294.25 504.45 424.47 55.71 635.18 547.14 660.96 620.40 820.74 328.25 596.45 404.77 498.41 733.31 27.85 705.40 211.96 187.62 591.15 542.89
934.09 514.94 827.24 503.92 755.25 926.09 548.53 817.14 1436.18 1021.63 941.20 244.83 1031.32 782.65 857.16 770.93 645.68 221.11 585.33 254.07 752.43 469.14 844.43 501.99 791.13 831.65 1214.91 341.38 503.54 480.50 442.49 722.48 511.91 1091.24 732.37 749.08 945.01 709.07 0.00 974.07 1056.19 1118.60 816.72 1016.87 776.20 591.28 808.43 385.14 536.33 251.02 723.26 1214.37 778.58 1004.60 932.66 185.92 605.38 606.71 1260.11 729.22 1042.19 594.43 937.86 799.15 671.74 870.04 1256.22 1041.45 939.01 1022.17 412.14 591.01 513.62 962.27 760.07 960.78 887.18 113.76 151.60 785.36 806.10 500.43 392.50 521.19 957.80 914.92 738.50 1076.85 679.31 736.41 120.27 344.03 228.45 483.55 919.25 981.62 483.60 341.52 690.96 831.82 681.22 402.28 833.33 769.40 454.63 640.83
69.50 794.27 509.42 812.02 846.00 269.81 856.63 216.08 986.80 947.73 254.70 865.40 636.26 248.35 1172.80 205.54 498.51 752.96 712.92 740.35 812.28 864.98 1095.05 825.66 245.09 199.35 883.83 734.09 470.53 690.74 720.37 849.80 842.40 1212.04 1062.56 227.23 1034.85 324.15 974.07 0.00 407.12 548.35 157.35 1174.84 249.97 581.29 972.93 678.54 1046.79 995.92 656.44 730.20 229.37 555.30 150.72 796.85 733.86 749.29 1018.40 391.20 1274.59 738.72 319.44 981.04 304.73 291.85 1007.85 1110.70 295.71 1267.39 742.03 878.66 820.50 1033.92 888.55 281.92 364.30 869.01 1043.52 250.86 198.45 628.46 805.32 646.03 92.16 135.04 480.73 611.11 721.86 317.60 872.32 798.29 865.62 890.81 954.38 327.05 791.70 679.57 712.15 933.81 312.13 966.30 199.03 366.92 843.85 771.16
476.62 842.70 312.25 810.00 726.28 167.53 852.57 299.93 712.98 739.26 152.42 949.25 380.05 416.62 1174.42 453.61 489.37 886.13 701.96 912.00 744.04 854.02 1093.09 830.91 317.30 389.75 711.24 764.15 640.25 674.71 732.80 760.09 835.13 991.68 1016.05 472.32 948.95 408.00 1056.19 407.12 0.00 255.51 444.09 815.35 503.62 586.91 970.97 762.82 980.17 1024.01 591.78 381.39 487.03 329.64 327.65 870.27 672.76 686.26 777.34 461.26 1040.82 575.68 224.90 877.91 462.87 223.58 810.77 879.49 187.86 1060.84 731.26 848.27 809.54 860.61 801.07 149.50 169.01 942.43 1123.79 311.53 375.23 628.39 805.25 635.07 339.26 309.46 317.69 415.82 574.83 413.32 972.85 811.18 900.37 902.09 760.60 81.91 801.91 793.52 555.19 787.90 382.31 901.83 485.77 374.39 833.54 688.29
617.85 826.13 387.63 796.41 550.97 278.54 810.17 466.77 656.84 644.42 293.65 1034.42 161.11 534.30 995.20 515.54 609.99 994.82 723.73 1041.89 566.96 847.98 936.91 822.42 437.76 522.28 575.22 890.52 772.06 756.67 814.76 760.11 839.16 1015.12 929.29 567.98 849.83 538.67 1118.60 548.35 255.51 0.00 564.07 849.36 568.46 692.77 901.78 957.86 1007.99 987.40 558.76 325.25 595.43 211.33 447.60 952.23 617.36 631.57 706.15 502.68 1009.27 649.37 366.13 811.67 589.03 315.28 591.83 823.64 305.54 989.25 806.08 779.04 853.97 696.40 731.88 313.23 343.16 1024.39 1196.77 443.53 489.67 790.52 889.51 717.03 461.88 460.58 399.65 183.91 603.30 572.47 1054.81 774.57 998.48 886.73 663.26 311.71 776.09 914.24 597.48 625.87 547.67 882.36 605.75 513.46 873.98 577.39
226.85 698.57 452.65 719.28 688.65 304.84 743.84 232.50 910.84 928.97 291.67 713.38 621.32 125.14 1111.70 90.14 419.65 595.61 640.48 583.00 654.93 769.50 1054.19 732.00 205.15 81.35 900.25 576.74 313.18 605.62 615.03 777.36 748.74 1192.43 1011.53 69.88 958.70 197.59 816.72 157.35 444.09 564.07 0.00 1095.65 92.62 483.09 934.95 521.19 974.35 838.57 598.09 804.37 72.02 522.57 194.85 639.50 610.36 626.29 1018.08 330.10 1163.32 594.45 316.61 848.40 152.64 248.79 997.76 1031.69 313.73 1143.30 584.68 804.28 748.06 904.45 765.05 297.16 328.98 711.66 886.17 210.92 127.92 505.93 669.73 573.59 173.05 153.06 389.97 575.79 622.06 195.78 714.97 640.94 713.53 785.17 869.15 392.90 698.96 564.17 588.06 781.72 196.73 830.71 41.68 307.67 721.32 613.81
1244.34 663.32 822.10 615.39 426.87 957.76 649.17 958.76 655.60 280.64 948.44 972.06 710.98 1086.75 455.44 1033.19 795.30 1001.06 599.85 974.59 440.72 712.33 370.89 668.30 980.03 1081.92 477.80 981.25 1059.04 625.09 651.68 494.01 651.56 176.33 489.04 1044.19 252.69 1016.89 1016.87 1174.84 815.35 849.36 1095.65 0.00 1023.57 785.10 463.00 1005.55 685.08 885.67 568.68 703.31 1073.69 700.69 1075.71 999.31 540.23 547.15 592.29 902.61 225.47 612.87 878.19 466.86 965.27 932.01 515.23 64.14 961.43 245.49 682.03 701.91 677.15 191.20 478.51 923.07 880.63 1054.22 1111.72 985.80 1034.15 858.81 754.88 649.76 1105.47 1062.59 733.36 665.45 620.82 971.90 1027.11 672.84 896.75 718.52 248.76 897.26 635.71 996.94 597.96 336.19 1027.09 797.31 1127.37 847.17 692.96 500.26
294.12 605.95 430.44 653.88 740.80 342.43 704.92 251.21 882.51 886.46 354.11 672.86 658.13 114.98 1027.76 52.92 327.03 555.09 629.88 559.47 724.81 716.89 1049.72 639.38 231.22 155.33 918.96 504.81 272.66 534.20 589.82 766.30 656.12 1142.81 986.43 59.28 948.10 149.16 776.20 249.97 503.62 568.46 92.62 1023.57 0.00 407.47 927.60 480.67 909.49 798.05 560.87 841.18 74.98 533.95 243.77 598.98 643.18 650.83 1007.92 246.16 1144.97 579.44 364.11 837.80 152.11 341.41 1039.50 959.61 343.74 1124.95 620.17 754.07 681.71 832.37 757.70 377.12 408.27 671.14 881.34 225.45 131.30 505.22 647.93 562.99 265.67 245.68 341.70 653.61 544.71 103.16 674.45 594.43 713.00 692.55 868.62 421.71 646.66 524.29 569.71 781.19 121.31 780.55 103.80 258.05 670.66 603.21
650.79 349.02 405.06 301.09 488.80 544.88 383.55 421.26 1028.35 692.36 529.77 448.45 598.23 466.07 784.38 407.00 97.54 438.83 273.23 400.94 399.32 409.65 731.31 349.44 392.25 478.26 858.92 303.68 273.94 161.63 225.87 410.11 348.88 850.60 649.82 442.45 578.72 328.26 591.28 581.29 586.91 692.77 483.09 785.10 407.47 0.00 609.19 408.18 580.24 460.08 368.70 781.28 471.95 589.31 551.65 459.14 284.60 298.74 952.14 190.09 838.14 172.23 479.26 510.05 363.23 498.66 926.95 720.96 552.90 818.12 230.57 426.03 373.41 648.84 439.29 529.88 417.90 494.90 646.80 386.48 431.62 97.75 263.21 206.34 587.55 544.67 360.27 552.70 285.43 346.05 535.44 247.25 369.73 405.61 644.08 560.36 318.62 364.56 332.71 556.65 300.41 424.19 441.41 246.46 310.34 284.84
1042.43 339.87 658.72 364.36 425.10 910.54 371.98 756.85 959.56 467.55 913.44 680.08 861.06 924.02 203.45 909.58 676.89 712.06 354.68 739.12 429.78 383.95 122.12 306.44 785.86 908.00 785.85 656.61 828.96 464.44 430.01 215.96 323.18 373.10 89.63 868.32 210.31 792.73 808.43 972.93 970.97 901.78 934.95 463.00 927.60 609.19 0.00 741.72 285.67 575.65 479.41 914.81 897.82 866.50 962.00 755.95 324.59 340.52 779.20 684.41 310.55 436.96 853.71 202.87 861.87 895.22 702.14 398.86 954.56 330.57 460.36 372.06 348.77 335.16 169.90 945.23 830.67 780.79 762.02 791.63 878.36 587.43 491.05 419.73 963.09 920.21 694.95 815.53 396.14 837.69 763.28 464.40 645.24 390.14 435.17 894.14 352.77 717.49 470.08 399.40 820.58 447.61 952.57 692.05 372.04 324.39
736.38 444.68 652.01 422.22 742.19 692.17 507.06 549.47 1247.75 954.24 677.06 300.68 846.51 509.25 901.71 499.70 505.72 195.66 493.35 149.18 661.20 457.16 863.84 478.11 542.31 547.13 1148.78 104.50 208.01 442.49 378.25 675.26 472.15 1027.00 800.13 453.55 894.41 441.40 385.14 678.54 762.82 957.86 521.19 1005.55 480.67 408.18 741.72 0.00 681.37 435.52 598.66 1029.56 483.05 787.67 642.58 218.49 541.14 542.47 1195.87 455.18 1052.27 524.01 604.58 713.23 400.51 672.40 1163.99 941.41 675.11 1062.10 347.90 549.95 495.41 877.62 678.13 713.47 665.94 271.38 481.58 543.21 495.21 314.33 250.67 471.49 694.24 663.89 587.68 851.50 515.39 485.19 302.88 365.61 375.63 508.83 929.08 680.91 442.54 43.62 589.33 841.65 439.07 411.65 527.40 473.87 493.51 576.59
1056.04 303.54 667.92 305.02 529.99 908.42 232.76 881.73 1140.05 700.53 922.64 614.32 874.86 950.28 320.83 929.29 637.61 640.23 398.62 676.28 442.12 224.21 321.28 274.16 852.72 953.21 1013.45 679.25 726.82 443.61 379.37 370.10 257.42 598.31 196.04 904.47 495.98 820.03 536.33 1046.79 980.17 1007.99 974.35 685.08 909.49 580.24 285.67 681.37 0.00 473.51 517.30 1019.76 933.97 796.66 1046.93 596.34 456.40 440.47 1012.18 698.19 596.22 453.41 857.97 262.82 830.10 904.42 935.12 665.54 973.39 585.70 391.92 262.48 231.83 568.14 324.04 943.11 839.87 650.09 638.32 858.49 901.29 485.29 430.70 400.76 1048.02 1005.14 711.40 853.42 434.03 862.33 656.60 397.80 517.30 262.20 662.77 982.33 297.69 672.76 507.97 595.60 847.88 414.27 988.72 785.06 269.90 464.13
1002.73 268.32 724.90 281.18 604.01 915.78 334.75 802.32 1250.44 881.52 900.67 172.37 839.12 804.50 758.56 792.78 557.62 242.96 393.22 290.03 621.03 323.32 697.77 269.21 773.31 853.50 1038.65 378.62 525.39 349.30 297.62 540.38 262.55 919.01 592.86 770.93 731.23 713.62 251.02 995.92 1024.01 987.40 838.57 885.67 798.05 460.08 575.65 435.52 473.51 0.00 592.06 1022.17 781.75 933.59 959.96 254.56 499.52 485.38 1111.93 650.17 886.20 463.23 847.20 604.44 693.59 915.02 1116.11 849.97 963.61 889.79 315.11 371.17 288.14 799.17 547.25 950.47 855.00 276.60 258.41 767.54 819.54 400.44 265.08 389.99 923.90 925.73 706.32 884.65 548.11 769.33 296.93 212.83 189.88 329.51 788.05 993.77 301.50 395.00 546.09 700.62 737.10 151.26 845.93 704.20 203.61 500.20
725.94 416.36 332.24 386.64 255.33 549.75 389.30 440.36 886.05 481.16 534.64 701.56 548.19 568.28 682.86 507.95 377.48 641.97 269.31 594.90 188.12 437.25 539.78 412.65 411.35 567.60 606.55 553.42 615.96 282.08 337.77 312.70 427.81 713.79 555.99 560.39 512.51 507.74 723.26 656.44 591.78 558.76 598.09 568.68 560.87 368.70 479.41 598.66 517.30 592.06 0.00 673.68 587.84 544.38 581.47 656.30 200.54 185.70 609.01 412.85 664.56 196.47 484.13 355.04 588.32 548.01 715.75 504.72 597.58 644.54 368.12 363.69 408.10 377.48 309.51 584.44 422.77 724.44 817.63 417.12 515.68 374.43 483.98 265.28 606.65 563.77 347.06 502.66 83.27 524.82 748.60 379.23 603.14 469.91 427.71 543.15 366.32 614.30 89.30 418.44 521.26 503.22 624.29 440.92 458.92 167.62
799.70 884.89 468.71 855.17 737.14 548.92 816.76 632.45 331.59 481.94 533.81 1080.16 183.05 765.36 906.98 806.00 683.74 1090.72 650.90 1102.04 643.37 906.35 972.02 854.27 661.46 746.03 329.85 1060.56 821.55 762.50 815.52 801.59 871.01 879.64 964.55 795.70 733.08 694.48 1214.37 730.20 381.39 325.25 804.37 703.31 841.18 781.28 914.81 1029.56 1019.76 1022.17 673.68 0.00 766.20 307.23 696.60 1058.75 717.77 701.84 395.95 684.63 910.02 671.31 512.40 756.94 801.92 564.66 454.15 639.17 569.25 929.24 824.09 826.19 861.87 579.65 816.65 530.89 475.39 1130.91 1253.62 667.23 753.96 879.03 862.58 717.79 638.04 680.92 506.17 228.58 590.41 744.71 1134.81 894.95 1087.11 937.97 612.51 463.30 834.85 1051.28 642.15 588.82 722.33 984.88 830.38 619.98 840.51 718.99
253.33 631.19 462.53 678.90 760.67 347.84 723.51 193.05 909.48 950.10 360.61 670.84 583.15 85.20 1090.77 79.89 402.01 557.47 600.10 542.62 726.95 742.13 1019.94 664.62 188.62 134.20 860.80 538.60 275.04 577.92 597.87 736.98 681.36 1175.96 974.40 29.50 918.32 157.21 778.58 229.37 487.03 595.43 72.02 1073.69 74.98 471.95 897.82 483.05 933.97 781.75 587.84 766.20 0.00 458.97 227.21 601.36 613.40 621.05 978.14 309.17 1126.73 587.49 289.13 808.02 168.62 319.17 985.10 1009.55 313.96 1106.71 628.22 765.84 706.95 907.35 727.92 352.32 350.11 673.52 814.15 182.85 137.80 516.57 676.17 533.21 234.20 225.08 379.72 582.13 562.59 177.43 676.83 568.92 729.51 727.73 885.13 405.12 658.58 526.67 610.56 797.70 171.54 805.79 64.18 297.42 695.90 573.43
624.80 697.81 343.14 684.09 519.87 312.09 598.84 436.36 460.08 592.98 327.20 875.41 124.18 537.44 926.65 538.86 525.32 783.49 658.95 830.56 537.95 711.52 895.80 664.38 465.37 517.65 418.89 804.93 642.26 623.68 687.92 708.16 681.12 877.02 898.19 488.47 705.37 414.75 1004.60 555.30 329.64 211.33 522.57 700.69 533.95 589.31 866.50 787.67 796.66 933.59 544.38 307.23 458.97 0.00 462.05 827.38 615.62 629.76 580.17 463.27 926.16 503.25 303.65 782.66 517.79 368.14 543.19 671.92 315.76 921.06 718.27 693.64 690.65 551.94 743.94 277.40 365.01 899.54 1109.74 471.14 494.52 687.06 740.61 597.60 463.14 420.26 431.88 123.16 542.55 470.46 902.85 753.65 959.04 748.08 451.93 390.81 663.77 744.05 536.73 467.10 442.60 797.04 523.15 376.40 729.98 615.86
220.22 743.39 410.77 789.23 824.80 177.00 842.36 205.15 897.54 858.87 192.11 805.53 551.22 201.91 1164.47 190.85 454.11 717.00 721.62 702.64 767.06 854.33 1084.12 776.82 194.21 207.16 872.90 689.87 434.57 649.77 688.62 827.66 793.56 1061.32 1051.63 203.22 983.97 264.28 932.66 150.72 327.65 447.60 194.85 1075.71 243.77 551.65 962.00 642.58 1046.93 959.96 581.47 696.60 227.21 462.05 0.00 760.89 715.18 731.11 925.59 382.87 1123.87 665.55 197.52 936.51 290.04 202.59 927.66 1011.57 160.27 1130.57 718.97 887.36 819.15 895.35 841.56 198.63 258.88 833.05 1039.28 199.98 166.70 577.58 754.44 654.73 58.56 41.79 407.56 505.69 655.09 218.73 836.36 754.69 849.56 839.93 872.94 245.74 783.37 662.65 653.71 873.95 251.44 915.42 208.33 319.41 792.97 747.15
748.17 442.70 641.32 454.51 741.36 805.01 521.37 667.78 1287.46 905.40 813.13 82.19 875.70 605.43 917.17 593.71 459.76 43.89 485.82 90.96 690.29 447.98 878.07 455.83 657.62 654.43 1137.48 155.46 326.32 374.22 361.74 622.70 439.09 1051.13 767.28 571.86 864.02 559.71 185.92 796.85 870.27 952.23 639.50 999.31 598.98 459.14 755.95 218.49 596.34 254.56 656.30 1058.75 601.36 827.38 760.89 0.00 528.46 541.64 1195.04 543.30 1063.14 513.28 762.62 726.37 494.52 793.41 1139.99 935.17 806.36 1068.55 392.09 547.71 462.56 881.52 668.76 839.70 701.26 72.16 282.36 651.85 628.88 371.98 299.77 418.93 794.69 751.81 552.58 914.92 573.03 579.20 102.58 372.11 241.10 491.99 876.52 837.70 461.30 174.87 597.90 789.09 547.71 362.06 656.11 592.18 458.17 568.43
803.36 287.97 360.51 258.99 215.65 629.44 273.95 549.14 862.51 457.62 614.33 568.35 592.28 639.60 528.04 636.34 352.30 572.35 108.09 591.52 164.58 282.81 446.71 274.78 578.15 688.60 614.05 441.02 558.54 154.24 207.26 200.75 258.04 640.14 401.17 583.90 384.86 542.65 605.38 733.86 672.76 617.36 610.36 540.23 643.18 284.60 324.59 541.14 456.40 499.52 200.54 717.77 613.40 615.62 715.18 528.46 0.00 15.93 669.33 455.23 577.59 112.37 566.74 274.53 554.18 597.01 692.21 476.09 629.97 573.25 193.24 193.92 238.33 414.10 154.69 664.13 519.04 588.51 696.92 583.92 662.87 318.58 350.77 109.53 701.82 712.50 370.36 546.75 127.36 568.91 623.00 286.69 510.60 269.37 466.19 661.50 238.67 501.90 201.30 378.76 570.50 415.95 652.04 484.17 297.70 39.97
818.79 292.28 374.01 247.37 199.72 643.58 258.02 533.21 846.58 441.69 628.47 552.42 576.35 647.25 543.97 643.99 368.23 585.53 92.16 607.45 148.65 266.88 462.64 258.85 562.22 684.36 628.26 456.95 572.68 167.42 223.19 216.60 242.11 656.07 417.10 591.55 399.07 535.90 606.71 749.29 686.26 631.57 626.29 547.15 650.83 298.74 340.52 542.47 440.47 485.38 185.70 701.84 621.05 629.76 731.11 541.64 15.93 0.00 653.40 471.16 593.52 126.51 569.00 288.77 568.32 610.51 676.28 483.01 614.04 587.46 194.57 177.99 222.40 398.17 170.62 652.40 533.18 604.44 680.99 567.99 654.72 334.51 334.84 125.46 717.75 696.57 384.50 530.82 111.43 552.98 607.07 296.85 520.76 285.30 450.26 675.64 252.88 505.59 185.37 362.83 563.75 400.02 667.97 498.31 281.77 54.18
1087.90 931.61 578.64 900.77 617.76 748.59 884.57 829.03 293.66 311.65 763.70 1178.97 545.04 892.94 818.75 967.21 902.52 1173.16 718.71 1203.91 604.69 920.28 868.98 912.25 858.04 941.94 161.28 1110.35 1047.05 820.82 876.59 777.41 895.51 768.62 868.83 948.64 597.47 937.10 1260.11 1018.40 777.34 706.15 1018.08 592.29 1007.92 952.14 779.20 1195.87 1012.18 1111.93 609.01 395.95 978.14 580.17 925.59 1195.04 669.33 653.40 0.00 795.21 799.00 779.91 791.89 779.45 972.67 804.64 114.32 528.15 814.69 813.16 847.97 831.39 875.80 444.04 731.35 783.28 750.59 1257.84 1321.43 863.81 903.37 983.44 961.39 778.86 973.04 930.63 667.38 536.29 692.28 905.92 1233.62 950.25 1133.03 938.70 452.70 744.32 902.66 1158.99 698.31 501.46 961.11 1052.69 976.40 781.19 908.32 707.58
460.70 450.54 216.57 420.82 494.64 391.03 465.43 263.74 880.76 756.23 398.52 571.73 501.58 275.98 781.60 276.20 107.31 534.86 444.10 557.39 497.10 493.17 806.53 446.83 234.73 293.45 829.13 387.84 338.00 351.72 370.11 575.11 463.57 948.04 767.44 305.44 768.81 195.95 729.22 391.20 461.26 502.68 330.10 902.61 246.16 190.09 684.41 455.18 698.19 650.17 412.85 684.63 309.17 463.27 382.87 543.30 455.23 471.16 795.21 0.00 898.81 362.32 326.04 686.86 177.46 393.86 876.26 847.68 393.31 878.79 379.76 507.91 483.27 743.46 529.90 362.84 292.25 615.46 791.21 228.96 241.53 287.84 453.30 396.43 423.27 380.39 178.46 510.77 397.49 164.14 645.88 437.34 559.82 530.53 653.85 416.57 400.50 411.56 323.55 566.42 219.33 588.00 349.96 86.87 475.02 452.27
1344.09 650.42 818.20 657.01 539.16 1069.47 575.06 1067.40 862.31 487.35 1054.36 980.95 870.89 1152.93 284.89 1132.85 929.89 1022.61 607.68 1045.50 538.47 654.59 300.34 616.99 1063.71 1164.96 684.51 967.16 1073.94 694.33 736.47 468.96 633.73 62.55 400.18 1097.23 324.83 1045.73 1042.19 1274.59 1040.82 1009.27 1163.32 225.47 1144.97 838.14 310.55 1052.27 596.22 886.20 664.56 910.02 1126.73 926.16 1123.87 1063.14 577.59 593.52 799.00 898.81 0.00 665.91 1003.85 342.18 1076.27 1054.70 697.90 270.85 1117.30 20.02 734.22 529.28 633.67 389.14 422.90 1104.16 942.49 1028.52 1068.70 1069.48 1113.04 832.41 801.60 672.73 1182.43 1165.66 833.02 825.36 649.14 1062.95 1023.06 774.95 822.04 700.69 474.23 1084.95 636.69 1011.79 575.26 491.62 1073.58 758.16 1121.64 945.05 682.59 553.30
808.22 288.66 346.73 269.28 316.57 517.07 311.85 538.35 925.02 520.13 501.96 555.87 488.26 590.73 640.41 541.00 269.77 557.17 155.70 573.17 227.09 313.30 559.08 255.23 528.82 602.42 686.69 475.91 446.17 139.06 192.08 298.12 271.97 715.14 492.38 557.99 457.50 430.28 594.43 738.72 575.68 649.37 594.45 612.87 579.44 172.23 436.96 524.01 453.41 463.23 196.47 671.31 587.49 503.25 665.55 513.28 112.37 126.51 779.91 362.32 665.91 0.00 468.03 337.82 441.81 531.91 754.72 548.73 564.90 645.89 222.43 304.50 268.82 476.61 267.06 551.76 406.67 573.33 676.23 534.59 550.50 269.98 338.29 94.35 670.41 652.43 257.99 532.59 113.20 485.99 610.52 250.40 474.31 338.93 535.14 549.13 270.06 480.39 160.48 447.71 458.13 396.40 613.64 371.80 305.18 112.61
388.94 664.84 213.25 632.14 627.28 87.59 674.71 132.71 762.77 661.35 72.48 782.03 353.70 301.79 1057.16 332.60 381.72 756.60 524.10 753.76 637.67 676.16 975.83 674.01 161.72 283.86 722.54 670.40 474.17 501.92 554.94 660.98 657.27 1044.73 908.40 318.63 841.30 240.78 937.86 319.44 224.90 366.13 316.61 878.19 364.11 479.26 853.71 604.58 857.97 847.20 484.13 512.40 289.13 303.65 197.52 762.62 566.74 569.00 791.89 326.04 1003.85 468.03 0.00 778.91 338.69 67.82 730.14 814.05 121.10 983.83 585.29 689.84 631.68 756.40 683.81 122.28 61.36 834.78 1044.98 167.49 254.22 520.74 678.29 457.21 227.28 184.40 210.04 308.17 457.57 292.34 817.59 634.37 792.72 724.23 755.58 146.57 640.13 609.52 456.19 676.43 268.63 812.41 353.31 239.17 668.04 580.64
1050.54 367.87 565.66 338.15 267.17 835.07 269.69 795.40 942.64 467.80 820.38 708.87 705.03 834.22 350.16 830.96 607.59 735.24 343.56 726.64 244.71 358.69 293.91 335.23 766.39 883.22 760.85 706.75 731.76 352.15 416.39 131.24 351.97 404.73 207.61 778.52 248.88 768.10 799.15 981.04 877.91 811.67 848.40 466.86 837.80 510.05 202.87 713.23 262.82 604.44 355.04 756.94 808.02 782.66 936.51 726.37 274.53 288.77 779.45 686.86 342.18 337.82 778.91 0.00 779.63 802.16 702.39 402.72 807.86 362.20 428.85 321.56 332.83 373.19 177.30 846.22 718.15 723.15 754.61 772.16 870.72 490.23 514.68 335.01 961.69 918.81 569.47 659.50 363.17 783.19 775.01 457.40 657.37 402.27 473.20 809.42 317.83 669.61 417.74 409.87 795.95 476.40 862.77 639.49 400.83 234.59
374.23 620.79 394.03 592.44 672.10 310.49 597.34 205.98 928.78 818.89 325.60 568.40 618.87 148.92 959.06 99.19 284.77 450.63 564.58 479.31 668.90 616.86 983.99 599.65 176.97 186.28 873.73 456.06 192.50 452.98 517.22 701.46 616.39 1125.50 899.35 139.12 878.83 107.44 671.74 304.73 462.87 589.03 152.64 965.27 152.11 363.23 861.87 400.51 830.10 693.59 588.32 801.92 168.62 517.79 290.04 494.52 554.18 568.32 972.67 177.46 1076.27 441.81 338.69 779.63 0.00 318.62 998.03 933.36 376.59 1056.25 547.57 685.37 641.98 806.12 707.36 345.18 363.04 566.68 776.88 171.20 134.36 357.54 534.40 497.69 325.69 305.70 323.22 609.85 526.23 84.68 569.99 545.15 560.89 669.11 716.51 380.96 577.96 444.13 501.01 629.08 80.56 695.38 194.32 264.33 572.93 554.42
361.35 732.66 236.50 699.96 650.53 56.05 742.53 180.50 694.95 725.23 71.16 826.05 417.58 233.97 1098.67 302.75 416.46 769.25 591.92 797.93 579.56 743.98 1017.34 741.83 183.89 234.20 787.03 681.20 511.12 569.74 622.76 728.80 725.09 1103.93 967.42 289.67 905.18 284.80 870.04 291.85 223.58 315.28 248.79 932.01 341.41 498.66 895.22 672.40 904.42 915.02 548.01 564.66 319.17 368.14 202.59 793.41 597.01 610.51 804.64 393.86 1054.70 531.91 67.82 802.16 318.62 0.00 794.02 881.87 68.97 1034.68 653.11 757.66 699.50 824.22 725.32 90.74 125.24 801.63 995.82 189.66 224.37 567.26 744.12 525.03 199.69 229.64 273.92 372.05 499.08 264.27 749.77 702.19 839.24 792.05 765.05 144.11 707.95 677.34 479.44 744.25 293.80 820.57 290.47 306.99 735.86 619.60
1077.35 880.33 692.96 863.53 540.70 795.76 912.44 792.05 393.38 234.59 780.65 1170.81 430.72 966.16 741.69 991.94 877.13 1096.10 768.44 1143.17 527.63 877.45 791.92 846.90 821.06 939.42 124.30 1059.49 1069.22 793.99 847.01 687.47 858.56 691.56 791.77 1014.60 520.41 900.12 1256.22 1007.85 810.77 591.83 997.76 515.23 1039.50 926.95 702.14 1163.99 935.12 1116.11 715.75 454.15 985.10 543.19 927.66 1139.99 692.21 676.28 114.32 876.26 697.90 754.72 730.14 702.39 998.03 794.02 0.00 451.09 843.59 717.92 867.92 854.27 832.97 366.98 641.41 820.59 668.78 1212.15 1291.12 826.83 913.56 958.33 993.22 749.28 947.70 904.82 697.80 421.97 707.73 936.34 1215.46 912.19 1036.06 922.05 375.64 739.93 883.76 1120.37 711.79 424.40 927.97 976.71 1013.79 811.61 912.50 685.06
1180.20 637.59 757.96 655.14 362.73 901.64 585.03 894.62 591.46 216.50 886.53 908.32 662.53 1022.61 391.30 969.05 763.39 979.06 575.17 1008.88 376.76 648.19 435.03 604.16 916.07 1017.96 413.66 917.11 994.90 560.95 625.19 429.87 587.42 240.47 488.49 980.05 188.55 952.93 1041.45 1110.70 879.49 823.64 1031.69 64.14 959.61 720.96 398.86 941.41 665.54 849.97 504.72 639.17 1009.55 671.92 1011.57 935.17 476.09 483.01 528.15 847.68 270.85 548.73 814.05 402.72 933.36 881.87 451.09 0.00 932.66 290.07 655.54 637.77 613.01 127.24 414.55 894.30 816.49 990.26 1059.74 921.84 970.01 794.67 690.74 585.62 1041.33 998.45 669.22 708.06 556.86 907.76 962.97 697.42 909.48 654.38 219.99 883.05 634.82 932.80 533.82 304.28 962.95 745.33 1063.41 783.03 646.36 436.12
329.25 774.50 305.47 753.24 717.01 66.10 795.81 223.34 763.92 774.80 62.94 867.48 434.39 228.76 1158.01 323.70 455.36 770.61 645.20 797.58 648.53 797.26 1047.15 795.11 225.32 277.76 734.65 664.16 530.00 623.02 676.04 782.08 778.37 1137.76 1015.47 284.46 954.75 326.23 939.01 295.71 187.86 305.54 313.73 961.43 343.74 552.90 954.56 675.11 973.39 963.61 597.58 569.25 313.96 315.76 160.27 806.36 629.97 614.04 814.69 393.31 1117.30 564.90 121.10 807.86 376.59 68.97 843.59 932.66 0.00 1097.28 706.39 792.03 752.78 812.68 784.66 38.36 174.81 859.25 1064.79 231.09 277.23 608.69 745.56 578.31 203.55 160.67 323.49 421.62 568.05 333.24 818.74 755.47 880.67 845.33 712.67 151.77 761.23 631.49 548.41 782.86 335.23 812.35 312.22 306.44 789.14 668.22
1336.89 654.01 798.18 640.29 559.18 1049.45 555.04 1072.70 881.53 501.51 1034.34 986.36 850.87 1132.91 264.87 1112.83 915.66 1037.38 627.70 1028.78 558.49 661.01 280.32 620.58 1043.69 1144.94 703.73 987.18 1092.06 714.35 716.45 488.98 629.46 69.25 420.20 1077.21 341.13 1053.65 1022.17 1267.39 1060.84 989.25 1143.30 245.49 1124.95 818.12 330.57 1062.10 585.70 889.79 644.54 929.24 1106.71 921.06 1130.57 1068.55 573.25 587.46 813.16 878.79 20.02 645.89 983.83 362.20 1056.25 1034.68 717.92 290.07 1097.28 0.00 714.20 520.84 625.23 369.12 442.92 1084.14 922.47 1008.50 1075.12 1049.46 1093.02 852.43 816.82 682.78 1175.23 1168.23 813.00 805.34 629.18 1042.93 1043.08 759.54 842.06 696.42 469.13 1064.93 619.97 1031.72 555.24 511.64 1081.50 761.75 1101.62 926.81 686.18 533.28
811.53 139.36 419.01 151.52 394.29 672.88 159.16 557.37 1038.22 633.33 657.77 394.14 710.69 599.16 553.81 605.45 293.15 402.44 173.19 449.51 340.29 222.37 552.45 153.92 528.36 604.19 802.77 341.84 486.52 94.59 30.35 331.85 170.66 679.10 461.17 598.72 546.51 471.01 412.14 742.03 731.26 806.08 584.68 682.03 620.17 230.57 460.36 347.90 391.92 315.11 368.12 824.09 628.22 718.27 718.97 392.09 193.24 194.57 847.97 379.76 734.22 222.43 585.29 428.85 547.57 653.11 867.92 655.54 706.39 714.20 0.00 253.96 177.89 550.13 347.93 707.57 590.96 464.25 563.74 534.13 552.27 244.99 176.56 128.08 723.66 680.78 445.46 673.16 293.40 525.63 448.79 102.28 326.19 210.09 585.67 731.86 171.84 391.52 278.82 498.24 498.86 255.89 626.36 442.07 180.84 228.69
926.81 157.45 552.00 127.73 362.52 753.68 94.80 711.20 1024.57 619.68 738.57 465.52 754.34 783.89 448.29 737.16 489.94 524.82 175.29 516.22 326.64 140.17 488.09 125.36 706.63 800.98 775.73 571.76 606.76 264.40 227.14 222.78 108.62 590.09 315.36 736.34 464.10 667.80 591.01 878.66 848.27 779.04 804.28 701.91 754.07 426.03 372.06 549.95 262.48 371.17 363.69 826.19 765.84 693.64 887.36 547.71 193.92 177.99 831.39 507.91 529.28 304.50 689.84 321.56 685.37 757.66 854.27 637.77 792.03 520.84 253.96 0.00 104.39 541.20 253.89 788.37 679.26 548.26 554.28 712.40 749.06 365.23 304.26 232.63 895.74 859.05 530.58 708.81 289.42 672.05 568.60 246.98 402.38 175.58 595.16 821.72 107.41 510.88 363.36 525.63 695.65 266.53 820.59 594.78 167.56 201.65
890.00 75.76 577.92 73.19 396.02 719.27 91.81 653.95 1068.98 654.64 704.16 382.49 757.08 718.45 545.86 722.64 410.34 491.52 210.97 444.45 371.05 44.48 470.89 42.33 624.94 721.38 846.09 509.60 541.45 211.78 147.54 313.59 25.59 682.05 304.72 678.18 488.29 588.20 513.62 820.50 809.54 853.97 748.06 677.15 681.71 373.41 348.77 495.41 231.83 288.14 408.10 861.87 706.95 690.65 819.15 462.56 238.33 222.40 875.80 483.27 633.67 268.82 631.68 332.83 641.98 699.50 832.97 613.01 752.78 625.23 177.89 104.39 0.00 554.84 267.53 753.96 640.53 516.68 458.59 630.71 669.46 299.92 247.07 174.47 820.24 777.36 491.85 715.12 333.83 642.82 494.84 181.61 347.65 92.55 573.96 778.25 82.77 489.13 353.44 486.53 616.05 183.50 762.43 559.26 84.53 276.58
1072.25 589.81 680.47 553.38 266.44 809.01 549.91 817.84 659.08 132.39 799.69 883.57 535.29 924.73 374.71 885.29 636.15 909.06 472.09 937.12 249.52 599.32 424.94 597.17 788.83 890.72 450.69 855.12 902.91 565.59 519.78 333.37 580.43 367.53 424.79 891.65 153.43 825.69 962.27 1033.92 860.61 696.40 904.45 191.20 832.37 648.84 335.16 877.62 568.14 799.17 377.48 579.65 907.35 551.94 895.35 881.52 414.10 398.17 444.04 743.46 389.14 476.61 756.40 373.19 806.12 824.22 366.98 127.24 812.68 369.12 550.13 541.20 554.84 0.00 287.31 774.32 732.38 863.02 962.32 794.60 872.13 697.12 665.99 523.63 953.91 937.14 695.29 580.82 429.62 871.17 914.88 626.26 846.65 643.94 100.01 797.56 563.72 834.00 437.53 177.04 853.54 647.91 936.17 672.78 630.95 406.95
958.05 302.50 488.82 266.07 255.20 758.65 348.69 703.83 936.13 419.70 743.54 645.04 691.16 754.12 373.35 739.68 506.99 702.35 184.78 693.75 259.88 312.01 292.02 309.86 703.01 801.60 714.95 595.71 700.41 294.54 347.56 46.06 293.12 485.45 246.48 698.42 278.20 622.83 760.07 888.55 801.07 731.88 765.05 478.51 757.70 439.29 169.90 678.13 324.04 547.25 309.51 816.65 727.92 743.94 841.56 668.76 154.69 170.62 731.35 529.90 422.90 267.06 683.81 177.30 707.36 725.32 641.41 414.55 784.66 442.92 347.93 253.89 267.53 287.31 0.00 793.34 660.77 728.81 726.12 697.24 771.43 458.88 427.46 249.83 856.51 845.32 525.05 645.63 226.24 667.79 699.69 424.51 600.87 360.08 364.27 724.24 284.94 656.59 300.18 276.84 650.68 447.99 782.67 522.15 343.64 154.49
351.42 743.09 304.52 754.42 718.55 34.69 796.99 222.92 737.48 761.66 49.80 836.07 396.03 267.12 1144.44 324.20 470.15 795.81 646.38 815.02 670.30 798.44 1034.01 776.52 193.91 240.25 696.29 702.52 528.21 624.20 677.22 783.26 779.55 1099.40 998.65 322.82 927.75 294.82 960.78 281.92 149.50 313.23 297.16 923.07 377.12 529.88 945.23 713.47 943.11 950.47 584.44 530.89 352.32 277.40 198.63 839.70 664.13 652.40 783.28 362.84 1104.16 551.76 122.28 846.22 345.18 90.74 820.59 894.30 38.36 1084.14 707.57 788.37 753.96 774.32 793.34 0.00 161.67 892.37 1086.56 199.68 245.82 577.28 754.14 579.49 189.76 196.13 300.29 400.56 567.10 328.62 840.51 754.39 849.26 839.63 674.31 113.41 762.41 669.85 547.46 744.50 303.82 799.21 338.84 344.80 790.32 664.00
433.80 673.69 171.95 640.99 577.53 126.98 683.56 157.06 722.46 599.99 111.87 783.45 292.34 319.64 1034.12 356.95 320.36 745.15 532.95 758.05 595.29 685.01 952.79 661.90 186.07 270.64 665.85 675.90 471.24 505.70 563.79 669.83 666.12 991.72 847.04 375.34 779.94 265.13 887.18 364.30 169.01 343.16 328.98 880.63 408.27 417.90 830.67 665.94 839.87 855.00 422.77 475.39 350.11 365.01 258.88 701.26 519.04 533.18 750.59 292.25 942.49 406.67 61.36 718.15 363.04 125.24 668.78 816.49 174.81 922.47 590.96 679.26 640.53 732.38 660.77 161.67 0.00 773.42 983.62 191.84 278.57 459.38 636.24 466.06 288.64 245.76 148.68 246.81 434.53 319.95 803.84 642.17 731.36 733.08 716.08 142.46 632.90 669.90 406.44 628.65 292.98 797.22 370.66 205.38 674.77 519.28
820.33 505.27 713.48 526.67 790.36 857.68 453.46 708.60 1359.62 977.56 872.79 143.48 947.86 677.59 970.92 665.87 531.92 116.05 545.87 163.12 744.48 474.44 846.75 474.35 701.44 726.59 1161.13 227.62 398.48 446.38 433.90 682.75 491.09 1077.75 738.65 644.02 849.94 600.53 113.76 869.01 942.43 1024.39 711.66 1054.22 671.14 494.90 780.79 271.38 650.09 276.60 724.44 1130.91 673.52 899.54 833.05 72.16 588.51 604.44 1257.84 615.46 1028.52 573.33 834.78 723.15 566.68 801.63 1212.15 990.26 859.25 1008.50 464.25 548.26 516.68 863.02 728.81 892.37 773.42 0.00 210.20 705.78 701.04 444.14 315.51 478.98 865.90 823.02 624.74 987.08 641.17 651.36 51.86 392.05 252.88 491.93 936.57 909.86 512.36 227.76 657.95 849.14 619.87 409.86 728.27 664.34 462.17 587.05
1030.53 489.01 923.68 496.33 810.08 1051.87 521.12 917.35 1491.01 1056.53 1063.82 353.68 1097.53 887.79 959.15 876.07 683.90 326.25 602.72 373.32 829.64 414.11 884.14 455.58 911.64 936.79 1258.78 437.82 608.68 607.71 556.03 721.06 472.32 1128.78 763.31 843.65 917.60 810.73 151.60 1043.52 1123.79 1196.77 886.17 1111.72 881.34 646.80 762.02 481.58 638.32 258.41 817.63 1253.62 814.15 1109.74 1039.28 282.36 696.92 680.99 1321.43 791.21 1068.70 676.23 1044.98 754.61 776.88 995.82 1291.12 1059.74 1064.79 1075.12 563.74 554.28 458.59 962.32 726.12 1086.56 983.62 210.20 0.00 915.98 911.24 549.05 475.39 593.81 1048.35 1033.22 834.94 1065.61 768.09 861.56 246.05 471.24 282.09 473.19 954.15 1041.88 501.91 437.96 772.78 866.72 830.07 314.41 878.33 832.82 458.78 684.70
320.36 554.95 296.26 602.88 672.45 164.99 653.92 34.78 884.61 791.83 180.10 646.50 484.18 151.16 995.08 176.94 288.94 607.96 594.93 625.45 567.08 665.89 913.75 588.38 5.77 150.48 702.53 570.90 338.64 507.87 545.91 729.82 605.12 1067.41 881.26 206.86 795.53 105.25 785.36 250.86 311.53 443.53 210.92 985.80 225.45 386.48 791.63 543.21 858.49 767.54 417.12 667.23 182.85 471.14 199.98 651.85 583.92 567.99 863.81 228.96 1069.48 534.59 167.49 772.16 171.20 189.66 826.83 921.84 231.09 1049.46 534.13 712.40 630.71 794.60 697.24 199.68 191.84 705.78 915.98 0.00 98.56 389.14 566.00 528.04 201.07 158.19 276.60 438.65 471.00 134.86 727.32 554.71 661.12 651.49 783.38 260.91 604.99 510.02 506.42 695.95 104.14 726.98 234.62 240.15 604.53 584.74
267.95 611.48 324.73 659.41 708.87 211.13 683.33 121.51 902.65 878.56 222.81 694.84 570.91 52.60 1023.13 78.38 348.84 584.99 678.90 613.67 665.64 713.94 1000.48 644.91 104.33 51.92 789.26 559.70 326.86 579.52 521.92 781.15 661.65 1162.27 967.99 108.30 894.09 153.59 806.10 198.45 375.23 489.67 127.92 1034.15 131.30 431.62 878.36 495.21 901.29 819.54 515.68 753.96 137.80 494.52 166.70 628.88 662.87 654.72 903.37 241.53 1113.04 550.50 254.22 870.72 134.36 224.37 913.56 970.01 277.23 1093.02 552.27 749.06 669.46 872.13 771.43 245.82 278.57 701.04 911.24 98.56 0.00 487.70 664.56 612.01 225.26 199.28 375.16 525.38 569.56 148.48 704.35 628.40 695.25 701.66 850.87 307.05 642.03 538.83 537.78 763.44 145.25 786.08 136.06 295.91 672.41 652.23
697.96 263.25 502.81 278.14 534.23 542.59 308.95 412.38 1126.10 723.74 557.70 350.70 695.98 506.46 744.21 456.73 195.29 363.54 275.94 360.17 447.60 335.10 702.24 280.99 383.37 539.62 834.45 216.52 241.53 253.76 268.82 412.82 274.33 894.96 604.64 487.07 654.14 426.01 500.43 628.46 628.39 790.52 505.93 858.81 505.22 97.75 587.43 314.33 485.29 400.44 374.43 879.03 516.57 687.06 577.58 371.98 318.58 334.51 983.44 287.84 832.41 269.98 520.74 490.23 357.54 567.26 958.33 794.67 608.69 852.43 244.99 365.23 299.92 697.12 458.88 577.28 459.38 444.14 549.05 389.14 487.70 0.00 176.86 209.05 578.67 535.79 458.02 650.45 294.51 442.22 449.09 187.61 271.98 311.57 626.37 601.84 257.82 270.71 368.45 579.21 398.16 337.84 539.16 344.21 215.39 358.55
874.82 194.01 595.57 217.17 526.16 719.45 261.78 589.24 1181.42 758.63 734.56 217.58 811.40 666.23 684.25 633.59 360.75 330.99 242.68 318.14 483.49 206.49 613.17 227.44 560.23 715.23 939.61 302.94 401.13 204.87 146.21 435.73 221.48 855.66 551.79 646.67 658.26 575.67 392.50 805.32 805.25 889.51 669.73 754.88 647.93 263.21 491.05 250.67 430.70 265.08 483.98 862.58 676.17 740.61 754.44 299.77 350.77 334.84 961.39 453.30 801.60 338.29 678.29 514.68 534.40 744.12 993.22 690.74 745.56 816.82 176.56 304.26 247.07 665.99 427.46 754.14 636.24 315.51 475.39 566.00 664.56 176.86 0.00 243.94 755.53 712.65 517.46 789.02 403.68 544.77 272.23 114.94 224.53 258.16 690.16 778.70 196.85 242.06 394.68 602.73 547.82 160.98 628.05 439.12 242.84 389.02
715.53 207.63 406.12 174.93 325.18 544.80 217.50 551.28 972.04 514.69 529.69 461.52 582.61 559.41 623.18 556.15 303.88 462.82 66.89 509.89 274.11 218.95 541.85 216.80 522.27 608.41 723.58 425.57 450.58 44.71 97.73 203.77 200.06 699.02 479.19 503.71 445.09 472.74 521.19 646.03 635.07 717.03 573.59 649.76 562.99 206.34 419.73 471.49 400.76 389.99 265.28 717.79 533.21 597.60 654.73 418.93 109.53 125.46 778.86 396.43 672.73 94.35 457.21 335.01 497.69 525.03 749.28 585.62 578.31 682.78 128.08 232.63 174.47 523.63 249.83 579.49 466.06 478.98 593.81 528.04 612.01 209.05 243.94 0.00 684.49 641.61 317.38 579.46 195.67 475.75 516.17 177.16 401.07 267.02 457.59 603.78 182.92 479.76 178.97 370.16 500.59 355.20 587.96 431.19 210.83 149.50
161.66 744.48 436.19 792.41 791.08 224.45 843.45 206.24 894.64 888.63 239.56 806.62 580.98 252.72 1166.54 249.41 490.01 750.80 751.38 703.73 768.15 855.42 1085.21 777.91 195.30 212.97 873.99 721.75 486.23 708.33 706.03 886.22 794.65 1119.88 1043.26 242.93 985.06 265.37 957.80 92.16 339.26 461.88 173.05 1105.47 265.67 587.55 963.09 694.24 1048.02 923.90 606.65 638.04 234.20 463.14 58.56 794.69 701.82 717.75 973.04 423.27 1182.43 670.41 227.28 961.69 325.69 199.69 947.70 1041.33 203.55 1175.23 723.66 895.74 820.24 953.91 856.51 189.76 288.64 865.90 1048.35 201.07 225.26 578.67 755.53 684.49 0.00 42.88 437.32 535.45 672.07 277.29 857.43 711.07 850.65 841.02 864.07 303.17 794.52 670.14 619.99 897.02 293.22 916.51 214.73 377.97 794.06 741.79
204.54 701.60 397.65 749.53 811.68 182.04 800.57 163.36 880.34 845.75 197.15 763.74 538.10 243.70 1123.66 232.64 447.13 707.92 708.50 660.85 725.27 812.54 1042.33 735.03 152.42 206.03 831.11 688.14 455.88 666.06 663.15 845.38 751.77 1103.11 1009.84 222.94 942.18 222.49 914.92 135.04 309.46 460.58 153.06 1062.59 245.68 544.67 920.21 663.89 1005.14 925.73 563.77 680.92 225.08 420.26 41.79 751.81 712.50 696.57 930.63 380.39 1165.66 652.43 184.40 918.81 305.70 229.64 904.82 998.45 160.67 1168.23 680.78 859.05 777.36 937.14 845.32 196.13 245.76 823.02 1033.22 158.19 199.28 535.79 712.65 641.61 42.88 0.00 394.44 492.57 629.19 260.52 814.55 712.90 807.77 798.14 870.44 277.96 751.64 627.26 640.59 854.14 250.34 873.63 194.74 361.20 751.18 731.39
550.23 525.01 88.74 492.31 428.85 265.60 534.88 299.84 837.76 592.23 260.55 634.77 323.12 360.00 898.40 299.83 262.73 596.47 384.27 643.54 446.61 536.33 814.79 513.22 270.83 402.24 701.30 566.30 379.67 357.02 415.11 521.15 517.44 882.25 698.36 352.27 631.26 294.25 738.50 480.73 317.69 399.65 389.97 733.36 341.70 360.27 694.95 587.68 711.40 706.32 347.06 506.17 379.72 431.88 407.56 552.58 370.36 384.50 667.38 178.46 833.02 257.99 210.04 569.47 323.22 273.92 697.80 669.22 323.49 813.00 445.46 530.58 491.85 695.29 525.05 300.29 148.68 624.74 834.94 276.60 375.16 458.02 517.46 317.38 437.32 394.44 0.00 368.65 331.70 238.54 655.16 493.49 717.40 584.40 677.17 291.14 484.22 590.02 257.76 589.74 293.73 654.39 416.17 113.81 528.21 370.60
680.61 747.39 294.20 717.67 542.34 373.79 722.00 403.87 475.65 578.59 358.68 920.68 45.53 566.45 955.53 603.76 455.16 906.65 622.98 903.25 414.79 759.60 928.28 743.68 432.88 517.45 419.04 856.38 684.03 618.20 642.81 628.09 740.71 831.21 802.65 611.63 691.71 504.45 1076.85 611.11 415.82 183.91 575.79 665.45 653.61 552.70 815.53 851.50 853.42 884.65 502.66 228.58 582.13 123.16 505.69 914.92 546.75 530.82 536.29 510.77 825.36 532.59 308.17 659.50 609.85 372.05 421.97 708.06 421.62 805.34 673.16 708.81 715.12 580.82 645.63 400.56 246.81 987.08 1065.61 438.65 525.38 650.45 789.02 579.46 535.45 492.57 368.65 0.00 419.39 560.16 1017.50 749.29 922.43 807.67 529.39 343.59 697.35 867.21 413.57 441.96 532.30 872.36 617.47 452.19 790.29 547.97
791.36 377.32 262.58 338.27 245.03 532.41 306.03 505.78 878.03 473.14 517.30 621.26 464.92 563.01 599.59 553.61 377.85 558.70 203.59 511.63 180.10 353.98 518.26 368.43 476.77 603.24 689.82 470.15 536.04 198.81 263.05 272.30 353.54 696.37 472.72 552.18 473.47 424.47 679.31 721.86 574.83 603.30 622.06 620.82 544.71 285.43 396.14 515.39 434.03 548.11 83.27 590.41 562.59 542.55 655.09 573.03 127.36 111.43 692.28 397.49 649.14 113.20 457.57 363.17 526.23 499.08 707.73 556.86 568.05 629.18 293.40 289.42 333.83 429.62 226.24 567.10 434.53 641.17 768.09 471.00 569.56 294.51 403.68 195.67 672.07 629.19 331.70 419.39 0.00 441.55 665.33 335.28 559.19 396.73 495.57 576.99 327.28 531.03 73.94 408.14 452.32 509.60 620.32 445.51 393.20 128.58
387.10 614.68 327.28 570.50 658.78 293.93 629.57 163.55 930.54 783.30 309.04 596.96 561.66 121.46 945.74 112.06 271.45 535.31 542.64 552.62 621.65 657.31 959.81 610.97 134.71 170.46 831.30 503.03 277.18 431.04 495.28 679.52 618.29 1092.44 914.27 162.44 869.80 55.71 736.41 317.60 413.32 572.47 195.78 971.90 103.16 346.05 837.69 485.19 862.33 769.33 524.82 744.71 177.43 470.46 218.73 579.20 568.91 552.98 905.92 164.14 1062.95 485.99 292.34 783.19 84.68 264.27 936.34 907.76 333.24 1042.93 525.63 672.05 642.82 871.17 667.79 328.62 319.95 651.36 861.56 134.86 148.48 442.22 544.77 475.75 277.29 260.52 238.54 560.16 441.55 0.00 654.67 567.51 645.57 675.02 801.19 355.59 564.64 457.70 487.69 713.76 55.19 705.75 197.04 207.68 639.16 552.53
850.75 466.24 743.90 481.51 738.50 805.82 505.32 743.25 1362.93 980.87 820.93 124.56 978.28 680.90 933.70 669.18 562.34 119.36 514.91 153.70 755.72 478.72 885.40 475.91 733.09 729.90 1200.22 258.04 401.79 476.80 418.44 700.07 469.25 1085.61 686.79 647.33 901.80 635.18 120.27 872.32 972.85 1054.81 714.97 1027.11 674.45 535.44 763.28 302.88 656.60 296.93 748.60 1134.81 676.83 902.85 836.36 102.58 623.00 607.07 1233.62 645.88 1023.06 610.52 817.59 775.01 569.99 749.77 1215.46 962.97 818.74 1043.08 448.79 568.60 494.84 914.88 699.69 840.51 803.84 51.86 246.05 727.32 704.35 449.09 272.23 516.17 857.43 814.55 655.16 1017.50 665.33 654.67 0.00 387.17 201.02 456.12 962.39 893.88 461.19 271.40 666.91 874.96 623.18 358.31 731.58 667.65 410.31 638.91
822.25 170.91 521.29 159.89 411.22 719.70 204.50 589.49 1092.15 677.60 706.85 332.52 738.66 654.12 656.09 644.34 344.79 328.22 244.05 375.29 442.57 226.09 550.64 157.96 560.48 680.32 900.74 404.13 429.14 136.47 106.48 378.45 167.88 781.38 486.33 598.42 600.98 547.14 344.03 798.29 811.18 774.57 640.94 672.84 594.43 247.25 464.40 365.61 397.80 212.83 379.23 894.95 568.92 753.65 754.69 372.11 286.69 296.85 950.25 437.34 774.95 250.40 634.37 457.40 545.15 702.19 912.19 697.42 755.47 759.54 102.28 246.98 181.61 626.26 424.51 754.39 642.17 392.05 471.24 554.71 628.40 187.61 114.94 177.16 711.07 712.90 493.49 749.29 335.28 567.51 387.17 0.00 223.91 203.21 575.22 780.94 139.57 357.00 354.95 487.79 547.66 243.33 633.10 493.71 127.90 326.66
935.12 349.35 731.56 334.80 635.13 814.57 404.34 684.36 1316.06 901.51 829.68 158.91 937.07 709.81 838.13 660.08 467.27 276.68 467.21 320.77 649.52 314.18 767.36 338.80 655.35 747.17 1106.43 365.16 513.51 360.38 326.87 594.00 322.06 884.59 652.37 700.01 800.82 660.96 228.45 865.62 900.37 998.48 713.53 896.75 713.00 369.73 645.24 375.63 517.30 189.88 603.14 1087.11 729.51 959.04 849.56 241.10 510.60 520.76 1133.03 559.82 822.04 474.31 792.72 657.37 560.89 839.24 1036.06 909.48 880.67 842.06 326.19 402.38 347.65 846.65 600.87 849.26 731.36 252.88 282.09 661.12 695.25 271.98 224.53 401.07 850.65 807.77 717.40 922.43 559.19 645.57 201.02 223.91 0.00 255.10 799.13 873.82 355.12 415.97 575.34 711.70 641.45 259.65 755.21 616.19 284.64 550.57
960.31 96.54 619.29 138.19 461.02 804.94 149.24 674.73 1092.35 687.46 796.71 414.01 827.19 754.26 583.03 745.47 442.54 448.10 287.07 495.17 394.42 59.08 512.26 83.70 645.72 753.58 866.87 417.05 553.10 243.98 179.74 368.91 66.96 723.42 397.27 748.11 545.72 620.40 483.55 890.81 902.09 886.73 785.17 718.52 692.55 405.61 390.14 508.83 262.20 329.51 469.91 937.97 727.73 748.08 839.93 491.99 269.37 285.30 938.70 530.53 700.69 338.93 724.23 402.27 669.11 792.05 922.05 654.38 845.33 696.42 210.09 175.58 92.55 643.94 360.08 839.63 733.08 491.93 473.19 651.49 701.66 311.57 258.16 267.02 841.02 798.14 584.40 807.67 396.73 675.02 456.12 203.21 255.10 0.00 622.83 870.80 130.03 477.93 428.21 579.08 648.25 218.15 791.91 591.46 125.90 309.34
1023.88 606.04 641.53 573.37 250.54 709.00 638.15 818.16 667.74 141.05 699.68 907.74 574.92 865.43 474.72 815.70 546.54 884.18 524.48 837.11 349.53 616.64 443.87 572.61 789.15 902.79 350.68 842.89 867.90 502.30 555.32 372.38 555.87 425.09 518.96 855.63 253.44 820.74 919.25 954.38 760.60 663.26 869.15 248.76 868.62 644.08 435.17 929.08 662.77 788.05 427.71 612.51 885.13 451.93 872.94 876.52 466.19 450.26 452.70 653.85 474.23 535.14 755.58 473.20 716.51 765.05 375.64 219.99 712.67 469.13 585.67 595.16 573.96 100.01 364.27 674.31 716.08 936.57 954.15 783.38 850.87 626.37 690.16 457.59 864.07 870.44 677.17 529.39 495.57 801.19 962.39 575.22 799.13 622.83 0.00 787.72 593.69 897.08 421.63 87.43 797.07 639.74 910.83 695.46 614.81 454.50
396.55 794.20 314.41 764.48 719.99 95.92 809.09 256.62 794.89 666.55 111.03 869.50 309.21 359.65 1097.59 385.43 462.82 804.22 670.67 830.09 723.67 822.73 1016.26 790.49 255.14 315.15 723.32 682.24 561.64 648.16 701.51 678.18 803.84 1073.59 965.99 415.35 919.50 328.25 981.62 327.05 81.91 311.71 392.90 897.26 421.71 560.36 894.14 680.91 982.33 993.77 543.15 463.30 405.12 390.81 245.74 837.70 661.50 675.64 744.32 416.57 1084.95 549.13 146.57 809.42 380.96 144.11 739.93 883.05 151.77 1064.93 731.86 821.72 778.25 797.56 724.24 113.41 142.46 909.86 1041.88 260.91 307.05 601.84 778.70 603.78 303.17 277.96 291.14 343.59 576.99 355.59 893.88 780.94 873.82 870.80 787.72 0.00 744.16 711.61 548.90 771.11 300.40 860.44 434.58 347.84 814.61 661.74
861.20 50.04 572.96 20.32 343.15 727.72 64.93 628.23 1024.08 649.17 712.61 411.83 742.88 676.48 540.28 676.70 392.64 417.41 183.95 408.81 356.13 92.67 458.22 46.33 599.22 693.95 772.78 474.34 499.35 156.99 159.83 238.88 63.07 689.22 366.94 629.08 461.41 596.45 483.60 791.70 801.91 776.09 698.96 635.71 646.66 318.62 352.77 442.54 297.69 301.50 366.32 834.85 658.58 663.77 783.37 461.30 238.67 252.88 902.66 400.50 636.69 270.06 640.13 317.83 577.96 707.95 883.76 634.82 761.23 619.97 171.84 107.41 82.77 563.72 284.94 762.41 632.90 512.36 501.91 604.99 642.03 257.82 196.85 182.92 794.52 751.64 484.22 697.35 327.28 564.64 461.19 139.57 355.12 130.03 593.69 744.16 0.00 438.91 361.89 506.26 619.03 187.50 713.33 487.37 97.89 198.70
749.07 436.07 608.39 459.23 705.31 664.90 503.84 512.84 1204.13 910.62 680.01 257.06 868.23 552.87 920.94 474.03 462.10 152.04 484.74 192.80 617.58 448.55 839.61 469.50 505.68 523.79 1105.16 60.88 251.63 446.93 388.27 677.79 463.54 1070.62 793.85 497.17 886.76 404.77 341.52 679.57 793.52 914.24 564.17 996.94 524.29 364.56 717.49 43.62 672.76 395.00 614.30 1051.28 526.67 744.05 662.65 174.87 501.90 505.59 1158.99 411.56 1011.79 480.39 609.52 669.61 444.13 677.34 1120.37 932.80 631.49 1031.72 391.52 510.88 489.13 834.00 656.59 669.85 669.90 227.76 437.96 510.02 538.83 270.71 242.06 479.76 670.14 627.26 590.02 867.21 531.03 457.70 271.40 357.00 415.97 477.93 897.08 711.61 438.91 0.00 604.97 844.79 411.21 403.04 571.02 498.43 470.34 541.87
781.65 386.60 242.94 353.90 171.09 512.77 379.97 529.66 852.02 477.20 497.66 612.26 459.10 590.38 673.53 557.59 430.25 632.64 245.86 585.57 188.85 397.92 557.03 372.04 500.65 589.70 695.85 544.09 606.65 223.68 248.47 346.24 379.03 624.49 546.66 610.03 503.95 498.41 690.96 712.15 555.19 597.48 588.06 597.96 569.71 332.71 470.08 589.33 507.97 546.09 89.30 642.15 610.56 536.73 653.71 597.90 201.30 185.37 698.31 323.55 575.26 160.48 456.19 417.74 501.01 479.44 711.79 533.82 548.41 555.24 278.82 363.36 353.44 437.53 300.18 547.46 406.44 657.95 772.78 506.42 537.78 368.45 394.68 178.97 619.99 640.59 257.76 413.57 73.94 487.69 666.91 354.95 575.34 428.21 421.63 548.90 361.89 604.97 0.00 334.20 526.26 458.79 546.38 371.57 389.80 183.15
1003.31 533.87 577.14 485.94 163.11 755.63 571.19 730.73 707.55 189.81 740.52 820.31 487.49 778.00 526.64 728.27 459.11 807.27 437.05 854.34 269.23 531.01 521.52 528.86 701.72 815.36 438.11 795.73 794.96 414.87 467.89 322.90 512.12 512.52 431.53 768.20 249.75 733.31 831.82 933.81 787.90 625.87 781.72 336.19 781.19 556.65 399.40 841.65 595.60 700.62 418.44 588.82 797.70 467.10 873.95 789.09 378.76 362.83 501.46 566.42 491.62 447.71 676.43 409.87 629.08 744.25 424.40 304.28 782.86 511.64 498.24 525.63 486.53 177.04 276.84 744.50 628.65 849.14 866.72 695.95 763.44 579.21 602.73 370.16 897.02 854.14 589.74 441.96 408.14 713.76 874.96 487.79 711.70 579.08 87.43 771.11 506.26 844.79 334.20 0.00 709.64 552.31 823.40 608.03 563.51 367.07
381.63 616.89 382.47 601.50 697.35 269.13 629.92 135.92 902.68 838.49 284.24 569.10 539.28 176.65 1000.93 106.59 302.05 503.82 567.48 548.05 604.02 660.53 942.70 592.08 109.91 192.30 803.67 472.09 261.24 462.04 468.51 691.27 608.82 1100.23 897.16 142.04 879.13 27.85 681.22 312.13 382.31 547.67 196.73 1027.09 121.31 300.41 820.58 439.07 847.88 737.10 521.26 722.33 171.54 442.60 251.44 547.71 570.50 563.75 961.11 219.33 1073.58 458.13 268.63 795.95 80.56 293.80 927.97 962.95 335.23 1081.50 498.86 695.65 616.05 853.54 650.68 303.82 292.98 619.87 830.07 104.14 145.25 398.16 547.82 500.59 293.22 250.34 293.73 532.30 452.32 55.19 623.18 547.66 641.45 648.25 797.07 300.40 619.03 411.21 526.26 709.64 0.00 708.80 222.93 215.47 610.75 570.74
1035.80 174.60 665.66 181.92 495.67 764.52 206.71 750.22 1176.60 742.12 749.41 319.59 884.66 827.21 651.06 794.57 500.89 318.17 333.98 358.45 521.77 192.17 569.73 141.17 721.21 838.00 944.93 387.95 562.11 321.38 264.74 406.65 157.91 814.37 462.97 807.65 603.19 705.40 402.28 966.30 901.83 882.36 830.71 797.31 780.55 424.19 447.61 411.65 414.27 151.26 503.22 984.88 805.79 797.04 915.42 362.06 415.95 400.02 1052.69 588.00 758.16 396.40 812.41 476.40 695.38 820.57 976.71 745.33 812.35 761.75 255.89 266.53 183.50 647.91 447.99 799.21 797.22 409.86 314.41 726.98 786.08 337.84 160.98 355.20 916.51 873.63 654.39 872.36 509.60 705.75 358.31 243.33 259.65 218.15 639.74 860.44 187.50 403.04 458.79 552.31 708.80 0.00 789.03 600.10 144.37 386.20
268.53 695.37 460.79 733.65 717.47 346.52 778.26 221.74 933.51 970.65 333.35 729.99 647.33 83.46 1131.56 116.34 430.83 612.22 654.85 597.37 696.61 806.00 1012.51 728.80 240.39 121.76 889.49 593.35 329.79 603.04 652.62 791.73 745.54 1170.87 1029.15 84.25 973.07 211.96 833.33 199.03 485.77 605.75 41.68 1127.37 103.80 441.41 952.57 527.40 988.72 845.93 624.29 830.38 64.18 523.15 208.33 656.11 652.04 667.97 976.40 349.96 1121.64 613.64 353.31 862.77 194.32 290.47 1013.79 1063.41 312.22 1101.62 626.36 820.59 762.43 936.17 782.67 338.84 370.66 728.27 878.33 234.62 136.06 539.16 628.05 587.96 214.73 194.74 416.17 617.47 620.32 197.04 731.58 633.10 755.21 791.91 910.83 434.58 713.33 571.02 546.38 823.40 222.93 789.03 0.00 333.87 751.75 628.18
436.42 537.41 202.55 507.69 542.66 326.76 552.30 241.63 836.48 706.04 311.65 614.44 436.93 312.47 862.97 217.53 148.92 548.29 433.36 552.67 534.20 580.04 814.17 533.70 234.38 319.94 795.29 474.71 265.86 408.09 411.72 508.25 550.44 884.76 768.63 269.97 745.07 187.62 769.40 366.92 374.39 513.46 307.67 847.17 258.05 246.46 692.05 473.87 785.06 704.20 440.92 619.98 297.42 376.40 319.41 592.18 484.17 498.31 781.19 86.87 945.05 371.80 239.17 639.49 264.33 306.99 811.61 783.03 306.44 926.81 442.07 594.78 559.26 672.78 522.15 344.80 205.38 664.34 832.82 240.15 295.91 344.21 439.12 431.19 377.97 361.20 113.81 452.19 445.51 207.68 667.65 493.71 616.19 591.46 695.46 347.84 487.37 498.43 371.57 608.03 215.47 600.10 333.87 0.00 516.63 484.41
913.35 64.71 521.29 77.57 400.40 755.63 131.14 627.77 1081.33 677.91 740.52 375.98 793.44 721.85 554.95 672.12 367.71 446.57 189.61 493.64 417.42 119.71 494.16 65.60 598.76 724.33 835.04 431.91 456.92 214.73 150.49 336.77 58.94 715.40 389.25 702.46 527.62 591.15 454.63 843.85 833.54 873.98 721.32 692.96 670.66 310.34 372.04 493.51 269.90 203.61 458.92 840.51 695.90 729.98 792.97 458.17 297.70 281.77 908.32 475.02 682.59 305.18 668.04 400.83 572.93 735.86 912.50 646.36 789.14 686.18 180.84 167.56 84.53 630.95 343.64 790.32 674.77 462.17 458.78 604.53 672.41 215.39 242.84 210.83 794.06 751.18 528.21 790.29 393.20 639.16 410.31 127.90 284.64 125.90 614.81 814.61 97.89 470.34 389.80 563.51 610.75 144.37 751.75 516.63 0.00 296.59
826.76 248.74 383.10 219.02 203.96 629.68 263.63 587.39 855.36 450.47 614.57 606.60 593.50 599.63 527.84 596.37 382.38 612.32 146.34 607.51 157.43 270.59 446.51 245.03 578.97 648.63 574.08 480.99 558.78 194.21 247.23 200.55 261.77 602.53 400.97 543.93 344.89 542.89 640.83 771.16 688.29 577.39 613.81 500.26 603.21 284.84 324.39 576.59 464.13 500.20 167.62 718.99 573.43 615.86 747.15 568.43 39.97 54.18 707.58 452.27 553.30 112.61 580.64 234.59 554.42 619.60 685.06 436.12 668.22 533.28 228.69 201.65 276.58 406.95 154.49 664.00 519.28 587.05 684.70 584.74 652.23 358.55 389.02 149.50 741.79 731.39 370.60 547.97 128.58 552.53 638.91 326.66 550.57 309.34 454.50 661.74 198.70 541.87 183.15 367.07 570.74 386.20 628.18 484.41 296.59 0.00
DEMAND_SECTION
1 0
2 3
3 1
4 9
5 2
6 5
7 3
8 1
9 4
10 9
11 3
12 7
13 8
14 4
15 8
16 7
17 9
18 4
19 5
20 2
21 5
22 8
23 9
24 5
25 7
26 2
27 6
28 8
29 10
30 6
31 5
32 10
33 9
34 6
35 10
36 5
37 5
38 10
39 8
40 8
41 2
42 2
43 1
44 9
45 7
46 4
47 3
48 8
49 2
50 7
51 6
52 2
53 6
54 6
55 3
56 10
57 1
58 1
59 1
60 6
61 5
62 3
63 10
64 6
65 8
66 5
67 7
68 5
69 10
70 4
71 1
72 6
73 9
74 9
75 4
76 10
77 8
78 4
79 4
80 8
81 1
82 10
83 8
84 3
85 7
86 8
87 4
88 9
89 3
90 9
91 4
92 9
93 3
94 8
95 3
96 6
97 6
98 4
99 9
100 10
101 10
102 5
103 5
104 7
105 4
106 10
DEPOT_SECTION
1
-1
EOF
