NAME: LDG165_3146_fog_165_0078
COMMENT: CVRP with travel times.  rootPos=3,custPos=1,demandType=4,avgRouteSizeIndex=6,weather=fog,lambda_cluster=1,lambda_random=4, T1=300,T2=700,beta=1, alpha(i,j) ~ U(0.8,1.2)
TYPE: CVRP
DIMENSION: 166
EDGE_WEIGHT_TYPE: EXPLICIT
EDGE_WEIGHT_FORMAT: FULL_MATRIX
CAPACITY: 1698
NODE_COORD_SECTION
1 0 0
2 901 100
3 559 458
4 777 599
5 715 158
6 492 322
7 449 422
8 216 208
9 790 509
10 923 788
11 812 447
12 937 390
13 58 353
14 55 497
15 379 558
16 782 895
17 967 413
18 685 375
19 314 34
20 753 107
21 194 486
22 625 445
23 235 507
24 622 85
25 938 433
26 284 273
27 602 632
28 581 411
29 538 955
30 667 969
31 784 178
32 485 701
33 668 177
34 822 369
35 394 552
36 95 323
37 615 252
38 206 669
39 622 593
40 977 547
41 521 68
42 19 701
43 272 948
44 557 132
45 851 485
46 417 482
47 206 983
48 157 459
49 967 651
50 549 369
51 282 697
52 24 135
53 540 537
54 576 961
55 161 311
56 125 236
57 592 591
58 67 271
59 719 60
60 354 212
61 937 39
62 558 748
63 832 204
64 68 690
65 979 134
66 511 625
67 402 117
68 238 317
69 747 153
70 745 874
71 196 791
72 495 886
73 729 33
74 214 695
75 426 983
76 38 412
77 245 769
78 928 886
79 752 275
80 922 134
81 587 987
82 241 23
83 506 807
84 115 718
85 783 234
86 520 466
87 816 583
88 797 313
89 864 193
90 568 999
91 898 463
92 140 222
93 688 383
94 1000 678
95 40 846
96 85 851
97 806 338
98 701 987
99 20 368
100 334 784
101 666 17
102 121 526
103 972 509
104 370 500
105 932 879
106 326 227
107 602 67
108 538 192
109 236 734
110 482 62
111 297 624
112 870 997
113 644 920
114 642 34
115 251 793
116 650 556
117 578 495
118 431 42
119 593 129
120 569 77
121 340 164
122 110 554
123 583 709
124 396 710
125 435 490
126 275 921
127 238 270
128 287 615
129 762 373
130 534 336
131 633 582
132 965 719
133 174 416
134 778 804
135 958 489
136 437 77
137 249 397
138 527 792
139 395 484
140 558 367
141 399 911
142 420 302
143 979 319
144 889 97
145 942 946
146 768 375
147 243 300
148 690 996
149 894 805
150 693 935
151 69 205
152 661 177
153 847 464
154 583 16
155 413 558
156 601 203
157 188 720
158 502 869
159 68 950
160 554 116
161 11 644
162 42 563
163 825 154
164 698 816
165 418 313
166 470 142
EDGE_WEIGHT_SECTION
0.00 948.55 788.94 1082.66 794.37 669.48 705.30 419.42 1023.72 1316.27 986.65 1067.53 400.30 554.52 748.18 1269.29 1090.26 835.86 417.41 806.33 622.14 840.03 641.97 680.81 1089.77 511.82 907.31 782.89 1175.82 1207.04 875.75 966.43 727.03 949.01 724.56 410.30 717.24 808.03 971.37 1153.31 593.20 728.19 994.86 626.81 1033.99 719.83 1084.52 566.65 1233.41 741.88 832.08 190.00 857.60 1228.94 414.10 305.40 928.78 313.58 775.59 549.69 1029.57 1016.90 915.65 768.97 1030.64 861.88 419.03 498.27 809.93 1240.08 846.42 1087.09 790.08 783.57 1097.96 480.85 856.68 1350.17 870.87 968.90 1211.72 433.64 1016.49 799.82 895.49 813.74 1113.57 892.74 910.85 1204.76 1086.79 340.13 855.22 1297.30 920.23 962.51 924.84 1191.56 457.62 850.84 703.25 581.67 1174.39 688.07 1337.99 543.73 666.29 609.57 802.22 554.63 741.77 1355.83 1200.26 693.31 881.66 949.45 864.60 520.48 646.85 619.70 539.70 626.70 996.39 867.50 760.24 996.89 462.80 723.73 898.24 679.72 969.50 1307.29 528.08 1198.76 1132.32 518.20 549.49 1052.11 731.73 727.14 1033.10 622.59 1092.77 931.01 1433.13 884.09 461.71 1216.77 1307.13 1233.07 255.35 727.75 1015.38 685.50 762.12 698.20 748.76 1059.14 973.77 591.45 736.23 615.60 859.76 1146.34 635.51 510.86
948.55 0.00 556.94 508.40 222.28 494.10 607.02 747.75 458.49 737.37 429.41 343.80 927.19 1016.06 743.98 840.50 387.08 405.05 608.49 193.65 869.02 514.16 831.53 307.55 407.90 685.08 608.31 512.38 963.88 938.34 155.93 779.28 304.40 332.96 749.25 874.62 362.25 957.34 544.25 507.11 408.32 1097.87 1098.44 408.03 407.06 646.89 1189.49 902.63 579.98 490.34 915.41 963.99 654.34 959.20 833.85 852.37 595.76 911.59 243.17 587.22 81.02 763.50 151.56 1067.32 85.06 713.13 529.52 749.68 181.77 824.77 1039.11 879.60 199.30 951.75 1033.31 981.51 968.10 838.48 278.46 73.51 955.31 696.91 817.65 1026.69 208.73 600.12 468.14 296.88 152.21 989.56 444.94 836.62 412.82 648.29 1196.12 1138.47 278.87 974.93 994.58 946.10 286.13 958.44 470.07 675.33 847.54 642.52 308.04 407.08 951.21 457.07 834.05 913.59 907.50 325.03 1009.49 551.93 627.63 505.30 374.61 354.63 591.67 913.41 716.82 814.77 685.26 1090.60 727.82 824.91 372.05 507.97 580.23 676.14 860.23 729.84 428.00 499.41 771.06 822.81 683.11 475.60 981.04 579.34 256.90 17.54 894.22 359.17 749.62 974.38 744.27 904.17 880.78 299.09 361.95 372.00 759.61 365.00 1007.66 851.65 1261.32 408.17 1092.59 1006.87 168.09 833.17 592.26 437.69
788.94 556.94 0.00 324.53 414.49 187.42 163.82 508.45 285.36 579.71 288.81 444.45 598.99 549.62 239.02 586.38 470.48 176.65 583.74 488.78 403.37 81.96 375.74 469.40 438.23 423.56 207.46 105.90 518.96 599.47 426.69 305.99 380.44 330.27 232.55 579.98 305.78 452.38 191.35 525.39 426.26 646.77 642.66 389.43 340.73 211.69 716.20 432.64 510.54 129.05 410.45 679.12 97.40 572.08 493.02 558.19 139.84 612.32 520.06 413.07 609.32 312.35 430.14 591.49 550.83 201.44 422.42 408.85 449.82 559.93 546.53 444.59 522.33 479.26 598.30 597.33 475.52 632.96 321.94 483.43 597.54 643.98 361.73 537.42 372.97 49.85 364.79 351.10 481.23 570.07 450.25 590.63 196.01 577.41 691.16 679.64 329.96 603.98 614.95 460.11 532.96 496.14 460.60 219.54 616.92 420.64 471.27 299.59 470.88 435.66 358.22 655.98 536.65 488.04 472.10 190.92 75.66 487.00 404.14 433.88 425.48 516.90 271.90 394.83 205.70 606.16 436.55 365.63 268.78 161.73 183.73 520.13 486.22 524.28 483.90 471.82 403.89 373.46 175.88 114.31 530.66 272.66 496.14 539.40 712.06 254.63 401.88 582.81 560.40 533.22 584.59 356.64 356.27 480.34 245.55 307.77 463.69 457.86 734.60 371.14 673.79 604.85 478.74 464.63 269.54 390.33
1082.66 508.40 324.53 0.00 488.71 479.06 394.11 759.27 101.19 273.66 184.69 306.38 858.28 774.15 439.77 369.13 295.43 302.41 817.49 522.26 656.11 242.63 608.38 601.47 298.52 619.63 255.66 322.88 503.92 464.23 448.80 360.57 436.62 287.75 441.82 796.26 466.68 653.13 195.48 261.46 680.89 841.01 670.71 591.28 171.98 416.79 724.98 709.77 241.29 384.56 579.84 909.41 303.07 450.80 723.31 826.05 216.98 842.61 599.73 637.02 589.42 256.12 444.76 770.03 554.57 312.19 677.93 639.14 501.02 345.83 620.34 434.66 610.63 636.04 574.70 825.48 601.57 330.08 387.59 562.58 487.31 874.10 351.80 755.00 387.59 329.48 40.26 282.81 473.46 521.56 274.05 795.84 286.63 282.08 797.14 759.81 279.47 466.53 865.60 490.69 645.85 697.83 251.58 479.40 339.14 654.39 628.47 555.10 601.64 685.32 536.76 495.47 468.55 610.46 613.09 159.37 295.17 742.51 570.04 610.34 654.21 742.86 324.16 434.49 454.18 629.70 687.84 554.80 294.40 417.24 159.50 297.03 735.02 250.90 293.65 677.64 677.92 326.35 453.01 369.82 474.43 506.41 393.28 506.61 427.24 285.91 681.51 487.55 235.87 395.77 882.62 460.42 175.41 659.60 451.22 526.90 674.36 429.64 816.69 596.72 806.16 806.54 494.69 389.61 493.49 645.84
794.37 222.28 414.49 488.71 0.00 271.82 386.55 579.29 390.94 675.06 347.80 342.01 744.49 806.69 555.58 788.93 393.24 297.44 484.69 108.47 648.55 407.80 677.46 172.38 385.12 507.80 555.47 327.55 834.11 846.22 93.62 646.43 82.12 240.84 546.80 709.55 141.22 765.90 491.41 541.14 248.87 936.94 909.33 222.37 397.48 463.04 1000.81 716.28 598.28 314.92 727.01 749.77 511.89 887.23 611.57 645.13 533.56 708.66 112.18 364.94 285.54 670.57 158.29 905.74 307.34 541.88 375.34 527.40 40.51 802.92 883.89 813.28 156.05 743.97 966.99 783.26 817.97 797.85 170.85 244.94 858.47 548.51 747.48 859.98 101.12 424.70 465.29 205.90 194.62 892.72 378.62 614.34 281.87 660.79 1004.68 970.27 226.08 898.91 772.30 830.22 157.14 741.99 476.26 530.86 781.81 421.49 190.81 184.80 787.44 297.62 672.47 938.19 854.71 172.01 828.15 435.91 462.82 333.69 177.98 195.17 408.97 752.48 656.90 700.36 503.45 868.32 522.72 671.68 238.09 286.94 476.08 631.44 669.99 734.36 462.03 365.36 578.86 740.80 498.44 300.18 878.90 357.06 390.46 239.82 876.95 252.24 527.34 911.72 709.93 828.15 693.03 76.81 380.25 253.47 579.07 161.44 799.88 798.81 1080.78 213.11 941.63 840.60 135.80 726.24 369.98 291.12
669.48 494.10 187.42 479.06 271.82 0.00 114.73 338.10 405.82 704.58 381.36 498.37 503.69 555.03 298.60 711.01 553.18 230.57 396.32 380.29 376.73 236.43 415.24 324.82 511.95 258.55 372.22 164.99 689.41 729.22 365.44 437.51 317.08 367.67 274.98 460.64 190.85 494.08 348.44 617.94 304.78 677.10 637.51 224.34 435.52 216.79 728.99 445.81 645.12 123.98 470.03 597.53 284.82 691.18 355.07 452.12 327.26 454.22 384.00 233.00 557.36 499.77 414.86 633.92 579.16 332.96 250.45 275.74 312.33 683.36 626.91 597.83 427.87 521.69 703.72 518.96 560.99 761.00 287.96 516.76 720.86 484.74 514.97 610.34 357.69 225.66 444.09 393.65 455.38 721.45 505.45 419.25 249.93 685.91 732.86 722.18 369.07 730.31 507.44 559.87 379.85 470.17 576.78 259.04 770.06 233.22 307.20 240.11 530.46 270.96 400.65 820.74 666.40 365.67 556.33 337.08 260.67 348.23 298.54 297.56 284.04 499.71 442.35 428.54 233.15 596.50 309.60 413.23 329.93 61.82 371.15 707.55 404.62 625.89 588.86 284.40 308.39 514.12 248.80 109.24 669.98 85.24 533.54 511.64 844.55 344.08 325.48 755.52 666.79 697.98 503.18 293.28 448.82 347.94 312.54 219.93 563.04 611.10 814.25 259.70 689.97 578.88 407.62 588.06 98.16 290.42
705.30 607.02 163.82 394.11 386.55 114.73 0.00 381.16 431.18 667.77 398.80 534.69 476.79 445.49 183.87 596.28 503.81 266.89 468.72 482.86 262.00 191.95 300.51 436.83 561.01 328.97 257.49 159.56 594.84 627.57 466.92 322.78 400.81 434.97 160.25 416.16 297.55 379.35 299.65 625.28 416.36 562.37 632.20 336.35 457.75 102.06 680.26 340.58 620.53 161.99 355.30 515.30 186.40 620.32 329.20 437.90 265.33 448.50 498.73 276.28 672.01 412.68 504.85 519.19 662.44 218.23 335.20 245.03 427.06 568.63 512.18 501.86 542.60 406.96 588.99 458.55 446.26 724.19 400.18 595.04 606.13 550.54 435.01 495.61 463.21 113.97 434.37 427.25 555.94 606.72 509.37 434.55 272.16 676.19 618.13 607.45 406.11 654.01 499.26 445.14 494.58 355.44 570.59 144.31 733.25 305.62 421.93 330.12 415.73 385.69 285.92 706.01 551.67 457.79 441.60 244.15 191.87 420.64 410.55 409.57 329.12 400.47 352.74 313.81 118.97 591.19 312.67 298.50 352.16 151.83 284.32 657.47 356.06 615.43 598.50 399.13 340.54 399.39 134.07 147.25 555.25 157.64 576.99 589.48 776.06 366.31 297.36 675.03 629.98 583.25 505.17 377.01 466.26 459.95 197.81 334.66 448.31 517.00 699.52 371.71 584.78 464.15 518.97 473.33 168.58 298.11
419.42 747.75 508.45 759.27 579.29 338.10 381.16 0.00 671.87 953.65 694.65 818.50 271.70 403.91 440.60 950.63 867.87 568.67 283.41 579.19 314.51 546.31 378.07 514.44 821.81 140.11 606.42 474.87 836.12 943.06 665.59 611.26 523.86 677.53 424.79 230.33 441.25 513.81 596.02 892.65 425.79 582.56 807.36 413.96 758.83 407.96 823.75 302.01 960.57 404.38 555.04 270.59 474.99 889.24 194.07 114.02 561.08 174.15 504.58 218.49 774.63 709.26 716.81 572.03 759.63 506.71 290.02 136.13 619.80 884.91 651.02 755.95 548.45 553.71 816.22 332.48 602.17 988.03 614.80 770.06 914.70 326.72 744.52 580.70 668.11 458.60 781.25 674.05 729.62 916.23 815.31 141.57 578.60 998.88 708.46 697.87 666.26 990.37 323.42 621.41 586.26 379.00 855.61 371.95 1004.07 160.98 510.35 394.49 547.71 425.62 460.03 1054.94 906.63 561.51 625.22 600.37 497.13 391.47 465.62 472.96 217.14 424.03 641.22 564.99 404.05 767.46 71.90 441.99 641.45 399.92 599.77 966.19 248.08 834.79 813.54 384.61 260.61 708.90 409.59 419.12 803.67 252.86 843.40 730.21 1086.11 652.01 106.57 965.16 948.28 932.18 165.08 546.52 762.11 519.42 411.50 488.62 581.52 768.18 823.16 410.22 526.44 442.53 660.92 827.68 265.78 371.12
1023.72 458.49 285.36 101.19 390.94 405.82 431.18 671.87 0.00 374.85 83.50 247.15 821.50 784.64 502.54 470.32 254.53 208.18 735.44 424.49 601.15 239.23 657.70 522.52 197.33 642.25 256.29 315.51 539.24 563.55 351.03 458.37 405.27 212.11 491.14 824.14 412.07 704.72 244.10 256.65 601.94 889.77 771.90 516.23 112.47 444.86 826.17 679.73 296.04 311.32 584.16 886.72 307.09 551.99 679.23 785.89 272.37 798.53 503.12 596.25 539.51 357.31 346.99 818.79 456.80 361.11 604.69 638.80 403.25 416.27 721.53 535.85 524.91 663.75 675.89 797.70 650.69 431.27 325.26 468.59 549.90 823.86 452.99 784.85 289.82 335.21 124.18 185.04 377.40 584.15 214.82 800.70 227.54 364.35 884.01 861.00 217.14 567.72 849.29 591.88 548.08 694.59 240.61 504.90 440.33 639.04 527.28 481.86 644.59 611.17 587.65 596.66 569.74 561.39 688.48 255.06 336.81 669.27 483.27 548.98 639.33 739.62 337.13 521.06 458.20 730.89 679.73 605.69 193.21 344.00 214.89 334.99 681.21 352.09 198.54 677.41 641.45 427.54 461.24 296.58 575.62 491.06 334.05 440.95 528.43 184.72 645.06 565.88 337.06 496.96 836.95 381.47 116.18 580.65 455.24 425.71 719.66 530.83 896.73 517.77 855.86 803.30 396.92 452.48 481.86 572.60
1316.27 737.37 579.71 273.66 675.06 704.58 667.77 953.65 374.85 0.00 413.91 466.83 1028.71 946.23 601.45 236.17 412.02 558.22 1002.60 680.56 820.41 516.29 758.27 824.46 422.21 874.10 452.42 596.54 475.54 322.94 581.44 478.76 700.28 496.30 591.71 1019.59 713.63 759.61 388.36 311.61 885.03 963.66 718.16 790.59 353.27 621.18 785.63 871.66 211.23 658.22 663.75 1172.03 483.41 445.72 912.40 1010.87 439.87 1031.70 761.26 848.55 800.74 406.39 651.58 921.47 667.96 493.04 904.35 902.44 668.85 201.72 767.96 448.65 780.98 743.34 587.68 1005.82 732.80 132.00 577.57 725.59 465.57 1091.02 412.26 854.67 594.41 585.57 313.92 501.55 652.57 464.91 358.52 1007.69 538.86 142.92 924.31 886.98 469.45 356.71 1033.84 617.86 832.20 840.44 354.10 638.43 141.06 848.77 842.82 783.24 724.18 878.33 708.62 297.39 356.18 815.78 691.41 433.03 555.06 955.60 801.26 823.06 924.34 885.47 375.69 609.98 634.52 687.53 893.75 717.57 460.37 690.90 424.34 105.70 914.47 151.28 349.89 951.30 856.08 410.26 631.96 643.48 550.09 700.79 553.73 754.91 227.78 474.52 883.21 351.33 37.79 285.95 1066.52 697.98 398.38 897.16 554.15 700.07 799.25 420.70 929.65 825.95 935.45 949.15 633.49 230.75 713.71 889.56
986.65 429.41 288.81 184.69 347.80 381.36 398.80 694.65 83.50 413.91 0.00 196.29 764.11 815.99 522.60 444.15 245.78 150.79 651.94 398.86 634.94 206.85 622.67 467.34 208.09 628.56 320.85 258.12 622.74 635.35 323.01 485.89 349.62 128.61 503.83 806.61 354.68 728.01 256.79 236.58 534.79 872.25 835.07 432.73 64.18 469.13 882.85 704.59 285.49 290.27 667.66 865.67 333.33 635.49 658.18 766.88 308.30 777.48 457.22 557.38 456.03 440.81 295.52 831.02 429.10 423.10 567.62 643.83 335.44 499.77 777.82 592.14 479.23 718.79 745.85 826.75 734.19 470.33 270.77 423.10 633.40 740.36 530.19 812.22 264.19 338.66 189.14 159.41 326.51 667.65 166.10 779.65 170.15 327.49 946.00 934.20 171.21 633.57 828.24 665.08 504.94 728.38 221.26 497.08 479.39 614.58 482.20 432.58 712.55 527.67 597.75 605.35 639.67 493.58 734.63 263.31 261.68 604.94 399.77 465.48 581.94 773.41 418.25 533.75 436.02 794.06 658.68 579.71 109.71 319.54 270.41 392.39 660.16 435.59 219.48 602.01 567.17 501.83 464.69 275.53 659.12 466.60 283.19 446.95 567.49 123.86 624.01 613.49 376.12 566.89 836.29 355.84 67.46 546.16 481.48 342.21 752.50 564.19 950.14 455.17 897.48 837.09 338.43 535.98 468.17 533.69
1067.53 343.80 444.45 306.38 342.01 498.37 534.69 818.50 247.15 466.83 196.29 0.00 881.12 912.61 620.78 640.44 54.81 267.80 767.13 389.63 766.36 403.14 738.73 477.28 66.87 745.57 450.68 375.13 786.39 716.74 302.10 617.11 395.02 168.91 597.16 927.28 377.25 834.14 412.42 241.85 566.51 1027.08 933.85 517.70 176.08 536.65 997.32 795.63 341.26 442.06 792.21 1003.31 464.65 757.18 809.97 897.07 429.57 929.27 443.45 675.24 424.82 562.50 262.40 956.10 353.05 512.56 654.76 774.11 321.67 589.45 913.71 697.80 434.73 843.87 851.51 952.33 882.33 533.33 310.62 307.90 724.33 844.82 614.94 900.41 240.89 484.30 281.32 174.79 211.31 724.06 110.09 862.34 287.16 323.91 1035.46 1045.67 206.89 719.04 966.00 796.73 499.15 859.80 168.58 582.53 549.37 657.52 511.62 495.10 838.28 615.26 722.83 698.72 652.36 479.81 878.51 375.31 457.97 663.49 519.99 537.18 698.95 879.89 556.28 669.64 515.76 892.84 763.22 735.41 258.70 436.55 396.14 362.91 785.74 555.03 162.74 641.98 734.00 608.67 538.87 430.88 780.81 583.61 86.90 326.26 644.51 244.55 771.04 735.63 504.62 648.28 897.80 371.22 130.97 570.40 599.06 437.10 885.22 694.38 1100.77 482.34 1018.75 968.51 289.23 530.87 585.18 562.93
400.30 927.19 598.99 858.28 744.49 503.69 476.79 271.70 821.50 1028.71 764.11 881.12 0.00 172.85 460.62 975.36 935.93 613.32 500.86 763.64 237.52 655.28 279.74 645.30 939.77 272.21 672.83 583.84 820.94 911.20 838.11 619.09 691.48 795.49 437.00 62.02 630.35 407.73 684.04 946.38 544.17 327.89 730.37 603.06 818.27 459.33 701.34 166.35 1019.05 542.83 489.89 322.48 574.68 855.95 179.32 157.86 660.77 150.83 762.48 409.97 1008.21 723.54 866.81 394.62 1007.50 568.01 456.19 231.76 781.35 931.13 557.23 749.71 782.50 418.05 775.92 80.55 522.20 1072.59 783.39 940.10 854.39 431.00 715.58 433.01 809.64 590.76 818.02 754.41 889.49 820.14 922.07 192.59 632.68 1059.84 528.97 562.21 766.63 964.87 84.88 581.11 704.88 214.86 966.53 429.81 1079.73 350.08 644.45 590.11 481.37 591.79 419.22 1093.71 879.59 701.03 530.80 716.75 637.60 540.13 625.49 620.78 335.52 259.89 702.52 521.81 448.94 702.59 256.57 401.69 712.68 537.14 718.25 1051.46 143.46 940.17 973.57 555.36 239.69 681.86 423.11 528.09 675.89 418.45 954.44 909.65 1071.36 726.83 289.85 976.70 1017.28 911.43 216.97 667.68 831.57 679.29 474.56 657.11 469.79 725.00 592.10 570.09 367.64 320.64 850.53 852.41 431.37 489.50
554.52 1016.06 549.62 774.15 806.69 555.03 445.49 403.91 784.64 946.23 815.99 912.61 172.85 0.00 363.85 922.27 949.30 667.91 577.98 825.96 183.49 611.02 209.67 725.61 947.06 334.53 638.83 577.47 749.56 830.93 860.13 549.02 767.46 828.35 376.23 230.90 695.23 283.09 578.67 884.80 672.73 288.01 618.31 677.38 836.65 409.96 612.15 116.98 978.82 555.20 403.65 404.68 540.23 784.30 263.99 330.71 612.00 299.30 842.79 460.88 1091.15 649.78 898.06 294.51 1038.54 546.29 551.82 279.29 847.20 877.10 394.60 614.18 838.44 324.06 679.61 92.30 428.21 975.82 806.37 987.63 807.70 560.74 606.51 312.05 864.23 541.85 777.79 766.78 949.15 800.25 893.81 341.14 671.60 1019.61 365.71 465.64 798.88 884.60 152.12 480.61 832.00 105.79 921.83 365.87 991.86 424.40 740.47 641.02 380.74 687.42 310.15 990.99 790.28 797.71 429.84 634.17 588.23 619.15 658.04 723.75 464.08 137.06 664.59 449.15 399.57 597.80 346.93 305.38 751.60 549.51 614.65 994.90 155.83 857.69 931.01 650.99 252.06 627.83 373.74 540.46 626.52 507.84 966.81 1005.58 1083.73 765.75 312.42 896.43 967.91 838.77 299.17 750.41 841.14 775.22 392.08 669.48 296.94 642.13 419.25 666.02 268.61 147.98 912.18 811.95 494.92 585.43
748.18 743.98 239.02 439.77 555.58 298.60 183.87 440.60 502.54 601.45 522.60 620.78 460.62 363.85 0.00 631.14 624.83 390.25 567.22 613.27 253.74 315.75 190.18 567.94 639.05 308.30 294.05 282.92 524.93 579.77 607.44 248.19 502.57 528.13 23.62 485.45 434.99 213.36 270.66 646.38 553.80 419.15 481.06 492.90 555.82 123.59 508.37 303.57 626.21 302.45 171.43 593.29 195.45 565.63 342.62 442.78 248.15 461.92 665.68 386.75 806.68 323.51 613.59 377.92 770.45 201.51 459.70 355.41 588.71 575.39 328.31 427.27 644.46 251.02 481.90 450.29 262.39 611.97 511.82 722.45 584.11 639.25 345.68 347.85 556.42 221.50 425.18 556.03 664.68 549.86 591.38 464.09 402.46 667.00 452.14 471.86 536.41 582.07 464.06 306.03 636.41 258.06 628.30 68.65 628.01 398.17 597.11 434.71 231.86 548.83 144.65 723.23 529.45 615.58 275.75 326.16 267.10 519.14 514.68 566.12 417.83 303.09 328.03 206.72 105.02 452.08 368.70 126.61 468.50 289.27 305.63 686.89 347.80 512.91 586.23 530.04 287.99 344.70 98.66 287.77 446.75 256.14 694.00 761.52 723.15 482.65 334.03 568.21 626.40 511.31 498.43 478.77 543.43 616.50 47.30 468.76 264.44 409.91 544.34 523.30 443.13 366.77 641.75 541.28 243.22 442.71
1269.29 840.50 586.38 369.13 788.93 711.01 596.28 950.63 470.32 236.17 444.15 640.44 975.36 922.27 631.14 0.00 644.92 581.22 1011.24 843.01 762.45 602.66 747.42 889.51 591.42 834.74 396.08 659.30 281.03 191.20 749.02 412.87 789.64 572.76 621.40 999.47 763.29 651.81 441.15 478.97 968.16 866.15 593.44 866.10 497.18 609.10 675.51 841.03 326.59 667.72 571.60 1111.58 527.51 265.91 898.67 1007.37 446.54 995.34 901.11 847.92 900.18 308.58 739.67 795.17 849.75 447.04 903.72 814.50 779.59 68.84 641.16 361.85 923.38 639.08 424.47 959.00 602.16 202.30 714.92 814.88 229.40 1099.66 331.51 756.06 687.81 597.05 409.39 603.56 770.66 263.65 543.73 1004.02 578.76 379.09 829.23 729.30 615.36 189.42 991.50 537.11 937.81 816.48 537.62 628.92 186.26 848.14 923.85 842.02 632.03 954.00 627.87 161.20 195.52 888.48 589.63 490.25 571.78 958.09 843.92 909.63 923.71 851.21 323.63 473.12 568.69 579.73 882.14 616.89 553.86 704.16 462.15 335.04 831.90 118.23 495.55 879.66 845.17 318.11 632.42 682.46 427.60 700.16 583.60 822.96 179.78 568.01 872.59 169.34 198.38 122.74 1074.64 799.99 511.61 987.81 583.84 775.58 694.99 333.90 768.99 899.32 843.30 894.29 780.18 122.95 713.08 894.39
1090.26 387.08 470.48 295.43 393.24 553.18 503.81 867.87 254.53 412.02 245.78 54.81 935.93 949.30 624.83 644.92 0.00 322.61 801.61 398.74 765.81 452.63 781.65 532.09 57.20 783.40 485.97 429.94 777.03 707.84 299.62 628.50 444.89 201.48 615.09 919.97 432.06 835.14 421.91 190.43 594.92 1033.49 946.55 539.29 210.71 574.01 1020.41 844.39 331.59 463.49 796.26 1019.11 436.24 746.23 831.40 938.70 464.06 950.70 477.90 660.83 439.46 551.55 287.09 974.03 380.04 540.28 671.23 748.84 376.48 579.78 904.81 700.56 489.54 861.80 854.27 958.65 875.82 502.61 318.22 313.57 758.52 862.04 647.23 955.22 295.70 486.80 335.69 224.66 266.12 770.77 101.19 917.15 341.97 269.10 1063.18 1055.24 210.10 710.14 1001.46 786.12 550.38 859.25 162.79 637.34 518.65 712.33 561.00 480.69 848.72 616.76 740.76 652.05 648.17 533.96 864.52 366.41 507.46 691.90 549.96 588.41 736.62 904.28 587.40 660.74 570.57 925.13 816.48 740.95 281.79 491.36 406.58 351.11 835.61 542.01 153.07 676.94 788.81 621.78 593.68 473.08 769.86 635.93 141.71 369.54 613.79 277.12 797.23 726.73 449.81 639.38 952.61 421.09 185.78 620.27 577.53 448.77 889.27 687.77 1079.24 537.15 1023.24 967.96 321.56 521.97 623.01 587.01
835.86 405.05 176.65 302.41 297.44 230.57 266.89 568.67 208.18 558.22 150.79 267.80 613.32 667.91 390.25 581.22 322.61 0.00 588.75 336.91 507.47 156.10 532.45 393.58 326.45 477.77 340.06 107.33 623.40 665.07 250.04 455.94 228.73 182.17 366.63 659.48 203.89 603.61 276.00 387.37 426.82 770.94 813.82 326.43 204.95 325.64 866.15 567.82 436.28 177.82 561.68 753.22 274.05 676.52 545.73 629.35 316.49 665.03 391.84 460.91 445.50 444.38 253.49 699.96 429.48 351.39 416.83 506.31 273.17 512.38 698.08 587.86 394.42 583.11 708.76 693.87 627.07 621.12 170.07 375.09 673.58 652.57 517.95 671.90 196.32 216.50 325.28 174.45 304.58 689.66 308.75 638.47 19.36 468.26 842.39 809.41 153.31 667.37 698.20 626.76 417.06 600.91 353.21 376.95 615.28 463.79 416.42 303.21 605.96 439.28 466.69 742.42 664.79 402.57 647.98 220.50 222.58 494.02 337.10 399.65 431.15 645.94 376.34 502.21 285.23 772.81 540.17 484.73 99.36 168.75 260.67 543.17 547.71 553.31 360.25 499.46 466.20 482.33 348.96 163.08 662.69 315.81 347.42 421.30 710.42 113.51 511.56 661.99 526.91 596.61 698.76 252.53 218.25 450.03 368.53 235.91 630.34 559.91 870.24 361.79 785.58 709.62 302.09 510.24 317.38 397.35
417.41 608.49 583.74 817.49 484.69 396.32 468.72 283.41 735.44 1002.60 651.94 767.13 500.86 577.98 567.22 1011.24 801.61 588.75 0.00 503.77 507.21 576.92 570.77 362.80 744.41 332.49 712.50 496.67 998.98 1072.29 532.87 709.86 448.99 632.02 574.54 494.78 419.17 706.51 693.97 888.52 249.27 791.63 961.55 262.32 716.12 495.20 1011.20 461.00 897.16 502.76 714.03 384.82 612.60 1052.10 379.68 360.24 680.59 406.60 450.08 234.53 689.51 814.31 591.12 745.38 693.55 686.95 205.73 323.65 445.46 987.94 821.91 888.94 493.95 712.70 1003.74 533.07 774.81 1100.71 582.62 649.89 1064.51 88.42 851.19 739.69 558.89 540.97 815.06 615.15 608.29 1030.26 769.80 394.97 577.13 965.47 884.84 856.86 635.41 1109.02 549.74 793.82 417.13 588.82 844.04 530.94 1098.61 250.67 349.55 354.84 735.23 232.93 647.55 1161.02 1013.90 367.80 733.42 696.69 555.35 237.02 336.52 325.88 165.34 614.71 818.74 773.28 525.83 920.54 300.23 629.51 542.23 458.14 657.99 1004.06 457.90 893.01 840.28 158.59 418.50 854.11 531.42 505.56 955.41 311.08 738.39 626.03 1175.28 556.38 265.56 1118.45 1006.50 1038.26 359.01 425.19 684.39 324.11 609.13 352.84 768.61 905.98 997.23 288.89 731.85 697.10 540.75 942.05 324.00 267.24
806.33 193.65 488.78 522.26 108.47 380.29 482.86 579.19 424.49 680.56 398.86 389.63 763.64 825.96 613.27 843.01 398.74 336.91 503.77 0.00 733.21 420.79 729.79 196.60 444.33 491.43 612.95 385.24 942.58 905.43 99.12 687.79 123.48 300.05 624.92 752.18 249.69 826.30 548.89 550.90 262.54 1014.60 1017.80 247.57 407.87 511.14 1098.00 708.98 613.56 423.39 784.70 818.21 573.98 973.06 657.20 686.49 588.10 753.34 123.42 440.88 274.67 760.61 159.09 973.23 278.71 583.24 387.30 616.45 67.96 840.76 928.72 864.70 100.42 785.33 1018.41 787.86 875.66 812.56 166.84 228.33 942.71 524.74 781.84 906.43 160.33 494.41 510.76 239.45 201.18 976.96 437.83 655.70 317.55 667.84 1065.08 1011.63 271.55 958.12 827.26 894.42 187.25 826.65 513.86 591.02 812.28 464.12 162.26 260.74 845.13 311.29 742.63 968.66 900.18 149.55 883.04 544.22 502.33 359.52 230.31 208.85 449.45 860.95 713.25 780.12 551.55 976.79 559.64 739.88 322.33 395.41 584.39 690.65 725.07 770.55 471.79 353.63 628.84 796.46 547.36 408.65 920.26 397.94 337.04 210.39 907.42 313.75 558.36 970.93 718.35 887.36 738.56 134.50 395.53 226.22 627.17 220.76 841.24 856.29 1128.88 214.88 979.83 907.44 123.26 769.78 410.86 295.47
622.14 869.02 403.37 656.11 648.55 376.73 262.00 314.51 601.15 820.41 634.94 766.36 237.52 183.49 253.74 762.45 765.81 507.47 507.21 733.21 0.00 453.95 63.56 630.61 795.20 271.71 488.32 421.56 583.42 717.97 728.92 402.91 629.77 650.92 230.12 273.82 557.54 199.30 477.16 852.88 567.95 312.00 492.85 543.82 673.70 263.71 575.60 78.58 832.71 423.99 292.22 491.66 401.48 636.54 212.56 316.74 474.85 331.86 744.62 352.80 923.02 507.36 729.93 314.88 905.92 383.50 489.02 183.56 689.06 693.61 337.50 562.82 700.75 240.27 568.32 196.55 344.42 865.71 638.82 857.04 662.00 565.82 479.96 285.11 703.79 375.97 631.68 643.20 781.02 651.67 771.37 334.03 488.11 873.50 438.08 457.80 622.06 771.64 256.37 373.51 728.95 93.44 830.78 219.76 869.68 348.31 628.46 513.84 294.41 563.00 185.87 891.51 642.07 679.62 353.02 506.15 453.87 555.15 563.04 591.07 368.35 138.47 518.01 337.86 282.26 475.96 242.61 194.09 568.11 411.82 513.14 855.84 94.06 703.32 799.69 547.99 114.37 444.34 227.49 409.25 555.77 335.27 816.17 851.48 942.23 582.26 241.65 771.87 816.81 714.85 386.15 618.05 695.03 637.53 266.26 531.79 267.01 539.78 563.01 528.33 322.78 202.15 780.97 650.21 348.19 447.74
840.03 514.16 81.96 242.63 407.80 236.43 191.95 546.31 239.23 516.29 206.85 403.14 655.28 611.02 315.75 602.66 452.63 156.10 576.92 420.79 453.95 0.00 457.70 388.54 414.09 475.50 251.16 80.25 560.98 619.36 358.23 370.47 337.08 269.81 314.51 608.11 291.38 529.11 187.10 443.43 439.14 728.73 664.60 402.31 271.03 293.65 756.08 514.60 428.58 141.93 487.18 707.25 161.88 589.02 509.84 618.54 221.80 629.14 438.10 426.86 589.80 381.96 396.71 673.45 563.59 265.92 435.30 436.98 413.55 588.46 616.27 488.82 470.06 561.22 607.02 650.50 557.48 565.29 287.45 518.31 616.53 633.00 443.69 619.38 339.54 131.81 282.89 291.83 439.17 627.24 372.95 626.50 136.74 496.89 767.89 746.66 270.42 628.89 672.87 477.54 504.49 547.39 378.64 301.50 549.25 450.39 422.88 312.47 547.61 442.69 440.18 695.38 600.75 469.73 527.78 163.45 157.62 499.88 395.37 446.76 411.58 591.79 313.92 457.78 258.15 623.59 504.62 442.36 216.74 174.61 203.62 535.48 511.82 493.53 420.71 508.72 472.06 419.91 257.84 127.19 506.75 302.41 435.68 531.70 644.39 230.89 475.67 654.10 478.50 576.92 666.55 330.99 274.31 486.84 310.03 320.65 545.65 460.87 796.37 384.02 755.74 656.10 410.28 521.93 315.33 403.21
641.97 831.53 375.74 608.38 677.46 415.24 300.51 378.07 657.70 758.27 622.67 738.73 279.74 209.67 190.18 747.42 781.65 532.45 570.77 729.79 63.56 457.70 0.00 567.05 772.10 326.99 450.87 425.12 594.17 704.60 749.35 339.35 623.74 633.76 166.56 308.63 556.73 262.86 413.60 789.32 619.65 352.32 497.01 517.59 676.58 236.08 512.29 113.39 769.15 414.94 243.40 456.71 352.27 647.29 276.12 371.94 411.29 328.39 684.23 408.93 912.55 443.80 757.80 308.64 912.65 358.33 552.58 247.12 701.20 695.68 337.52 505.44 704.25 224.47 504.76 260.11 285.31 802.15 643.73 859.17 662.85 629.38 444.93 299.98 713.46 336.30 568.12 673.86 778.55 650.36 730.11 337.21 544.66 809.94 501.64 450.77 673.71 734.68 319.93 309.95 673.44 141.25 779.44 156.20 806.12 411.87 581.91 541.34 230.85 619.13 148.57 875.84 628.70 639.15 314.18 469.10 391.60 611.28 499.48 565.19 431.91 167.86 473.62 274.30 247.22 456.00 306.17 130.53 611.44 449.33 449.58 828.21 157.62 666.89 743.05 604.12 170.50 470.91 199.86 429.68 492.21 362.77 799.63 849.07 901.26 625.59 305.21 711.15 780.32 663.92 416.11 647.54 631.47 641.19 204.12 587.92 239.86 477.49 582.77 552.95 325.28 249.96 777.06 676.78 366.86 503.87
680.81 307.55 469.40 601.47 172.38 324.82 436.83 514.44 522.52 824.46 467.34 477.28 645.30 725.61 567.94 889.51 532.09 393.58 362.80 196.60 630.61 388.54 567.05 0.00 544.15 443.33 570.45 391.79 929.84 914.84 243.02 729.16 164.85 407.44 575.26 641.52 240.39 738.11 575.64 647.09 133.44 904.64 962.33 100.48 531.52 495.92 1053.81 656.81 708.64 340.35 739.37 690.29 550.42 955.32 562.11 558.85 596.58 641.15 117.18 353.40 388.57 713.77 301.27 875.69 372.23 624.61 261.78 477.94 155.61 820.67 896.25 852.87 137.20 761.53 978.57 723.83 830.33 931.55 286.34 345.98 953.22 445.24 770.01 845.13 269.04 455.59 608.79 337.48 292.59 941.72 539.30 543.62 385.25 776.95 976.89 987.83 369.58 921.97 730.18 822.05 115.95 708.30 610.05 527.25 931.78 353.46 34.34 179.29 797.90 182.19 685.97 1014.15 932.12 92.81 843.69 551.99 509.73 230.42 67.57 61.11 309.78 734.91 702.46 703.39 512.22 921.32 459.16 690.51 404.76 328.18 562.35 792.12 615.62 831.51 567.98 225.71 519.39 734.39 483.59 355.09 895.29 311.80 493.15 290.01 1022.88 418.91 493.83 947.18 837.34 896.21 598.89 141.05 515.03 98.30 595.52 168.76 806.91 849.41 1088.95 105.43 892.17 797.99 250.90 821.39 324.72 186.02
1089.77 407.90 438.23 298.52 385.12 511.95 561.01 821.81 197.33 422.21 208.09 66.87 939.77 947.06 639.05 591.42 57.20 326.45 744.41 444.33 795.20 414.09 772.10 544.15 0.00 726.20 432.45 433.78 719.83 651.34 345.21 571.30 434.47 144.28 615.43 933.77 444.12 852.41 368.39 174.98 537.72 1043.93 909.05 482.09 173.21 586.33 981.51 840.52 274.39 417.43 777.21 992.83 488.70 698.54 785.34 894.04 419.90 904.64 497.30 653.44 486.67 554.64 293.58 972.95 322.84 521.77 670.74 774.32 388.54 522.58 867.31 678.22 501.60 856.80 831.93 957.03 826.04 466.46 303.59 370.77 721.02 832.83 641.79 964.58 284.00 488.08 289.82 214.24 278.18 713.57 63.69 886.90 307.09 316.77 1044.67 1019.45 200.91 672.64 955.40 750.33 542.26 888.64 105.59 649.40 482.50 713.33 575.19 488.52 811.22 586.47 739.68 631.85 590.97 546.68 862.50 328.91 469.54 634.70 492.76 555.31 718.88 926.99 534.46 623.24 581.58 892.73 785.84 753.68 234.07 450.13 369.08 316.51 816.80 518.89 95.87 654.21 747.58 610.86 605.74 432.17 772.95 578.73 153.77 393.13 577.64 219.92 751.17 672.19 460.00 601.88 963.45 410.67 140.63 605.69 634.73 391.57 881.43 650.27 1094.06 517.45 988.80 997.35 349.47 484.47 565.81 583.05
511.82 685.08 423.56 619.63 507.80 258.55 328.97 140.11 642.25 874.10 628.56 745.57 272.21 334.53 308.30 834.74 783.40 477.77 332.49 491.43 271.71 475.50 326.99 443.33 726.20 0.00 521.20 412.19 784.29 820.54 590.55 525.32 482.34 581.92 284.68 262.76 370.14 452.57 515.76 813.10 381.60 548.18 751.25 342.85 682.72 306.46 749.01 217.55 855.18 362.81 473.08 348.65 417.16 831.58 165.77 206.42 503.25 278.45 560.51 142.86 766.10 626.72 650.52 504.62 770.14 476.45 253.22 125.02 548.31 765.90 510.91 689.60 572.44 469.25 699.95 296.43 553.61 920.27 543.69 711.51 849.33 376.23 606.74 496.24 597.00 410.33 659.89 617.99 650.82 815.08 719.70 176.21 497.13 893.49 686.21 613.41 605.18 850.26 335.83 564.19 537.52 365.15 776.06 328.82 936.31 89.87 435.16 323.00 515.22 361.89 366.73 969.72 790.51 490.40 566.03 460.26 391.74 284.62 394.51 401.85 175.20 389.48 610.96 515.02 266.05 710.24 68.21 384.77 549.70 309.02 494.38 886.64 251.49 755.24 733.99 325.29 157.34 619.64 329.78 356.44 727.09 173.31 747.79 701.82 1014.52 535.55 66.93 825.05 855.50 819.61 262.99 458.54 690.60 441.19 322.24 419.95 525.16 702.87 753.78 339.11 488.40 435.94 614.69 744.21 160.39 310.24
907.31 608.31 207.46 255.66 555.47 372.22 257.49 606.42 256.29 452.42 320.85 450.68 672.83 638.83 294.05 396.08 485.97 340.06 712.50 612.95 488.32 251.16 450.87 570.45 432.45 521.20 0.00 280.38 399.97 394.22 513.83 208.67 542.42 401.60 284.31 667.61 482.99 459.74 64.06 488.45 621.14 635.61 553.95 577.08 349.58 269.20 618.88 537.74 468.28 335.60 437.71 772.79 131.43 438.91 586.69 683.63 67.62 653.12 599.51 532.03 689.33 155.19 548.02 564.63 685.63 104.82 592.69 502.52 580.60 368.43 547.18 333.73 643.38 452.40 473.77 653.84 500.64 531.57 483.30 629.86 467.00 800.70 250.87 573.50 490.85 233.59 267.25 420.75 597.97 432.75 384.78 692.04 359.42 481.99 627.72 678.70 415.42 396.52 713.66 416.00 655.69 533.04 478.57 331.03 540.63 549.40 585.31 498.34 456.90 634.41 331.36 448.52 379.49 642.55 504.69 119.56 192.86 664.42 502.88 568.59 586.61 578.07 152.91 314.81 255.15 528.77 570.16 349.40 322.24 368.28 96.16 399.98 529.37 426.97 454.83 656.62 530.33 225.42 305.42 320.86 373.50 401.42 516.25 590.77 575.86 336.39 554.85 417.54 437.36 325.76 740.84 531.12 319.71 649.27 246.75 495.44 508.31 328.71 715.76 558.28 599.77 637.08 565.88 273.13 388.50 555.60
782.89 512.38 105.90 322.88 327.55 164.99 159.56 474.87 315.51 596.54 258.12 375.13 583.84 577.47 282.92 659.30 429.94 107.33 496.67 385.24 421.56 80.25 425.12 391.79 433.78 412.19 280.38 0.00 601.02 654.71 357.37 348.61 274.54 289.50 259.30 552.15 211.13 496.28 221.18 494.70 367.70 689.22 706.49 330.87 301.01 218.31 758.82 460.49 508.83 70.49 454.35 645.89 203.30 654.14 438.40 547.10 212.76 557.70 437.65 355.42 552.83 385.27 360.82 618.24 536.81 244.06 363.86 404.59 368.06 619.71 605.85 517.51 416.43 506.01 670.06 606.97 534.84 645.54 248.16 482.42 653.10 552.75 434.65 564.57 303.65 109.17 363.14 281.78 411.91 642.99 410.53 559.87 126.69 564.32 735.06 728.12 260.64 676.90 592.62 519.43 474.40 515.00 458.09 269.62 629.50 398.21 412.71 241.03 514.78 377.10 384.97 728.90 609.57 429.48 540.65 200.02 135.27 428.44 345.58 371.60 331.33 560.03 353.96 394.88 177.90 665.48 437.29 397.55 206.69 103.17 238.97 615.73 440.38 550.38 456.31 437.28 400.62 455.50 241.63 55.75 581.08 250.23 454.75 528.63 724.64 220.84 404.23 655.73 558.75 606.14 616.51 250.74 325.58 421.78 261.20 249.21 523.01 528.58 762.91 312.58 703.86 623.71 409.42 537.55 251.80 331.77
1175.82 963.88 518.96 503.92 834.11 689.41 594.84 836.12 539.24 475.54 622.74 786.39 820.94 749.56 524.93 281.03 777.03 623.40 998.98 942.58 583.42 560.98 594.17 929.84 719.83 784.29 399.97 601.02 0.00 152.60 869.40 289.12 841.33 681.54 523.22 856.51 773.31 524.42 419.63 649.07 892.12 687.36 377.39 855.29 633.10 541.73 407.02 662.00 607.62 648.01 428.64 1050.82 471.51 53.12 784.16 881.97 388.26 874.37 946.29 788.13 1044.90 249.33 862.94 616.38 996.04 381.57 821.93 699.99 874.62 305.29 453.65 135.38 990.16 483.45 153.19 779.97 428.78 459.72 793.47 960.49 78.58 1055.06 201.16 549.58 819.72 568.81 544.18 724.28 863.90 112.83 703.26 872.54 642.76 574.69 606.75 606.23 738.17 206.27 839.79 337.11 975.59 663.23 666.03 577.13 467.29 848.02 932.12 805.88 470.27 940.87 470.59 360.21 160.69 953.90 387.39 456.23 510.45 923.38 902.84 885.53 833.64 625.20 247.06 319.87 548.39 352.81 767.63 463.64 677.81 627.59 416.06 572.10 677.48 386.10 623.96 921.10 694.55 195.45 577.81 633.27 238.47 725.85 838.27 946.34 460.81 681.94 758.08 193.88 447.46 221.06 951.38 851.76 655.42 975.62 492.85 816.08 520.29 116.68 543.55 886.68 700.34 718.66 888.44 295.23 712.93 856.19
1207.04 938.34 599.47 464.23 846.22 729.22 627.57 943.06 563.55 322.94 635.35 716.74 911.20 830.93 579.77 191.20 707.84 665.07 1072.29 905.43 717.97 619.36 704.60 914.84 651.34 820.54 394.22 654.71 152.60 0.00 806.31 379.94 873.49 605.38 581.73 940.09 781.37 600.18 451.72 634.55 931.93 711.12 506.41 895.10 625.83 577.09 539.76 744.85 517.79 634.72 527.12 1017.04 525.65 171.88 902.98 970.76 461.84 984.65 958.40 891.82 979.87 291.64 786.78 640.14 947.10 436.35 928.09 852.59 858.53 152.69 586.88 216.75 999.62 559.21 305.79 909.05 540.49 344.64 764.69 923.87 143.22 1130.34 259.67 573.34 745.10 619.53 485.50 675.34 837.87 141.97 606.65 936.03 679.39 465.86 759.35 675.02 662.01 53.67 885.15 465.13 975.27 751.60 621.47 648.42 338.65 909.19 880.50 805.26 561.48 941.33 556.03 240.90 75.90 938.97 499.10 455.91 551.41 992.67 897.10 927.09 924.46 706.57 347.97 447.89 617.50 499.26 888.75 574.07 664.98 667.40 415.74 419.50 808.91 246.88 579.40 1001.51 832.34 273.63 613.31 619.98 319.84 761.21 771.25 955.88 370.98 650.83 866.13 65.50 295.50 68.46 1022.81 871.77 635.85 944.46 571.03 813.44 615.12 244.70 649.37 876.81 725.76 800.03 842.67 188.51 748.29 896.00
875.75 155.93 426.69 448.80 93.62 365.44 466.92 665.59 351.03 581.44 323.01 302.10 838.11 860.13 607.44 749.02 299.62 250.04 532.87 99.12 728.92 358.23 749.35 243.02 345.21 590.55 513.83 357.37 869.40 806.31 0.00 663.72 149.55 200.93 616.15 792.67 224.34 820.80 449.77 451.78 303.59 1020.06 1002.95 291.57 357.57 513.27 1071.43 775.14 566.45 334.41 778.87 843.39 520.11 882.79 702.32 712.56 501.28 784.01 179.82 458.56 236.95 669.02 78.43 950.00 228.59 589.48 456.72 621.02 87.41 762.42 912.93 776.71 199.54 811.40 930.42 870.89 845.64 713.44 130.94 161.19 850.20 562.42 723.17 911.03 61.21 444.19 419.72 165.99 129.52 884.45 338.71 681.77 269.40 568.72 1059.58 1037.70 180.51 859.00 865.92 835.77 250.76 822.36 414.74 593.15 722.50 504.61 261.38 278.42 795.28 352.34 716.73 878.83 809.14 234.34 878.61 470.54 472.62 400.57 258.05 288.79 502.59 835.60 622.34 726.73 534.75 961.94 601.51 734.05 229.82 367.09 485.75 591.53 704.30 694.45 372.67 395.02 661.88 728.33 549.49 319.67 864.98 450.68 296.84 173.47 809.22 215.67 616.54 871.81 619.23 788.24 768.55 170.43 348.42 325.34 618.05 244.46 858.03 757.17 1119.76 284.30 1035.25 929.06 52.05 689.67 463.60 364.89
966.43 779.28 305.99 360.57 646.43 437.51 322.78 611.26 458.37 478.76 485.89 617.11 619.09 549.02 248.19 412.87 628.50 455.94 709.86 687.79 402.91 370.47 339.35 729.16 571.30 525.32 208.67 348.61 289.12 379.94 663.72 0.00 564.31 551.92 251.65 647.98 559.74 392.61 235.03 605.31 686.31 530.85 423.12 649.48 520.55 271.54 410.21 452.74 585.14 389.10 306.28 796.06 208.59 342.24 572.34 670.81 206.25 652.85 691.15 586.27 852.77 104.45 659.68 479.47 769.49 104.55 638.22 527.19 686.94 356.33 384.51 179.08 735.02 368.06 332.79 599.46 337.41 535.18 589.58 781.28 367.70 765.94 141.33 462.45 602.51 310.75 384.11 497.73 690.09 349.67 548.87 667.63 438.87 621.68 564.96 548.17 529.83 433.61 659.28 283.64 787.48 451.38 595.43 298.37 542.29 575.78 731.32 559.64 352.35 695.71 247.02 555.89 304.04 738.15 296.02 283.65 280.24 718.66 664.19 693.93 544.52 495.75 145.29 152.31 259.27 382.11 553.69 265.06 493.21 421.78 243.48 584.46 496.97 382.80 637.50 669.85 509.85 174.68 288.69 374.36 282.17 455.66 687.22 761.74 592.65 499.93 563.75 408.59 440.97 376.82 726.46 588.11 504.85 740.39 214.09 567.82 423.97 207.03 564.61 631.19 565.09 560.09 709.61 358.54 442.74 620.89
727.03 304.40 380.44 436.62 82.12 317.08 400.81 523.86 405.27 700.28 349.62 395.02 691.48 767.46 502.57 789.64 444.89 228.73 448.99 123.48 629.77 337.08 623.74 164.85 434.47 482.34 542.42 274.54 841.33 873.49 149.55 564.31 0.00 290.19 501.44 646.51 157.99 702.82 478.36 574.64 244.27 891.82 954.59 188.50 413.80 387.66 974.52 652.82 600.10 300.90 674.00 710.50 472.32 887.42 574.13 563.01 487.30 634.46 163.11 346.07 367.66 657.52 227.98 849.75 378.14 459.76 308.00 519.60 122.63 720.80 805.24 743.39 189.49 661.85 897.05 745.82 764.96 766.70 190.49 310.74 860.29 522.58 705.64 782.95 175.08 383.71 476.88 220.23 227.58 880.31 427.97 532.22 248.09 635.47 941.60 888.15 252.33 875.79 740.22 770.94 223.17 723.01 513.62 467.54 775.76 405.96 193.44 165.93 725.17 274.26 626.26 896.90 846.72 173.84 759.56 422.86 400.67 341.25 133.42 173.72 355.96 747.54 594.27 669.42 428.07 913.58 451.96 629.18 239.91 303.71 463.03 680.79 611.63 687.52 511.38 319.74 515.40 672.98 423.88 286.16 796.78 318.01 420.26 313.82 863.86 254.06 486.63 870.41 672.49 805.03 619.00 23.80 382.07 222.98 503.69 97.98 717.76 770.50 1005.40 160.10 906.50 794.00 201.60 728.06 321.95 240.69
949.01 332.96 330.27 287.75 240.84 367.67 434.97 677.53 212.11 496.30 128.61 168.91 795.49 828.35 528.13 572.76 201.48 182.17 632.02 300.05 650.92 269.81 633.76 407.44 144.28 581.92 401.60 289.50 681.54 605.38 200.93 551.92 290.19 0.00 518.70 789.49 314.33 741.49 337.54 300.30 486.86 922.48 881.48 422.79 156.64 452.01 878.66 719.89 400.34 273.15 699.56 848.55 426.28 734.66 641.06 749.76 369.32 760.36 353.02 509.16 374.49 532.55 181.40 851.50 341.72 495.96 540.70 630.04 253.15 628.38 806.71 636.68 396.89 739.27 790.39 812.75 759.61 557.01 159.31 318.49 710.17 720.44 591.21 835.86 139.72 380.12 261.90 69.96 232.49 744.42 137.78 742.62 162.81 419.95 980.27 963.54 56.63 659.05 811.12 694.42 397.98 744.36 235.42 529.02 540.97 569.05 431.50 390.27 749.41 478.69 618.23 697.35 681.28 411.29 718.22 379.85 383.62 555.96 406.67 436.01 574.60 789.39 510.11 563.09 437.30 840.47 641.56 636.27 89.79 305.85 373.52 390.60 672.52 535.59 221.19 553.03 603.30 594.29 488.23 287.89 739.77 434.45 165.87 350.50 636.11 75.64 606.89 670.88 490.80 669.69 819.17 266.39 182.31 465.57 520.60 332.27 792.57 635.79 986.81 402.69 937.12 853.07 237.29 549.64 421.53 483.28
724.56 749.25 232.55 441.82 546.80 274.98 160.25 424.79 491.14 591.71 503.83 597.16 437.00 376.23 23.62 621.40 615.09 366.63 574.54 624.92 230.12 314.51 166.56 575.26 615.43 284.68 284.31 259.30 523.22 581.73 616.15 251.65 501.44 518.70 0.00 475.19 414.22 236.98 247.04 622.76 539.30 429.92 504.68 496.60 532.20 113.78 520.01 279.95 602.59 290.69 195.05 580.32 185.71 546.90 364.06 419.16 260.85 483.36 658.98 394.07 808.19 347.13 615.10 358.94 746.83 191.77 467.02 331.79 567.48 569.97 351.93 404.92 668.08 246.71 505.52 426.67 286.01 635.59 488.20 715.98 564.65 642.59 322.06 367.81 557.93 197.88 401.56 532.41 655.62 530.40 567.76 453.89 378.84 643.38 475.76 468.82 512.79 569.80 485.50 317.67 654.83 281.68 612.88 90.09 651.63 374.55 576.91 420.23 255.48 534.35 125.67 732.83 505.83 618.04 281.35 302.54 257.36 526.46 510.17 555.65 441.45 326.71 326.28 230.34 81.40 463.72 352.89 138.25 444.88 312.08 283.02 663.27 324.18 503.17 576.49 527.74 264.37 334.96 94.15 305.43 470.37 263.46 684.06 749.73 746.77 459.03 351.61 544.59 616.66 534.93 474.81 502.39 528.49 608.88 37.56 485.85 288.06 418.19 539.27 499.68 444.56 390.39 618.13 539.53 250.54 419.09
410.30 874.62 579.98 796.26 709.55 460.64 416.16 230.33 824.14 1019.59 806.61 927.28 62.02 230.90 485.45 999.47 919.97 659.48 494.78 752.18 273.82 608.11 308.63 641.52 933.77 262.76 667.61 552.15 856.51 940.09 792.67 647.98 646.51 789.49 475.19 0.00 568.33 460.08 657.21 977.20 568.45 389.91 737.50 541.04 853.16 488.22 759.39 195.24 957.03 516.34 427.87 260.46 536.18 892.71 148.43 143.98 622.27 122.73 734.91 347.95 955.64 751.59 852.36 452.35 956.57 604.77 433.10 185.34 750.06 930.63 556.76 750.50 765.75 446.94 803.46 138.60 518.83 1037.24 741.88 893.68 891.15 417.12 716.98 435.67 795.19 530.13 756.00 786.01 856.70 856.90 906.45 163.78 678.84 997.82 590.99 591.10 794.06 993.76 146.90 610.00 729.16 276.88 967.32 416.80 1053.28 288.06 637.43 528.09 486.92 567.21 448.62 1085.67 879.09 688.59 532.19 660.31 607.83 522.39 592.70 600.04 359.80 260.68 739.28 574.35 453.26 719.31 194.55 430.58 725.59 522.46 679.75 1030.89 180.22 914.02 936.08 507.26 255.95 681.36 452.00 531.08 703.19 375.40 955.36 857.08 1108.12 739.74 229.22 1002.52 1027.51 951.87 154.95 670.31 867.75 646.50 501.08 611.27 502.85 739.83 650.15 537.30 425.69 328.55 823.01 876.89 378.86 499.98
717.24 362.25 305.78 466.68 141.22 190.85 297.55 441.25 412.07 713.63 354.68 377.25 630.35 695.23 434.99 763.29 432.06 203.89 419.17 249.69 557.54 291.38 556.73 240.39 444.12 370.14 482.99 211.13 773.31 781.37 224.34 559.74 157.99 314.33 414.22 568.33 0.00 648.35 418.93 517.88 258.91 795.72 828.36 156.85 370.12 321.82 912.22 580.59 608.31 185.82 606.42 663.37 384.98 826.43 508.14 519.82 423.89 587.33 253.40 340.16 426.76 594.29 299.51 773.16 447.31 455.19 298.21 453.61 181.73 716.27 763.30 711.84 297.27 660.93 865.55 666.57 697.05 796.76 173.55 385.53 844.79 507.59 628.98 718.76 242.34 309.56 496.91 247.85 335.84 837.32 452.11 485.09 184.53 633.43 887.13 864.02 257.70 772.17 672.24 689.00 298.36 650.98 480.84 400.88 805.82 280.27 255.25 168.58 666.85 304.65 539.89 916.71 785.69 312.49 693.72 391.71 344.57 355.89 172.82 230.07 365.60 611.26 526.25 606.01 362.23 787.35 385.97 530.46 253.26 145.72 431.88 686.91 539.40 717.58 438.77 325.54 443.17 632.24 357.22 191.47 790.38 241.05 447.88 379.79 893.92 239.11 420.64 797.38 702.55 712.91 568.65 157.89 394.16 280.45 437.85 71.63 699.43 725.11 939.56 192.21 825.35 704.72 276.39 675.41 253.97 216.89
808.03 957.34 452.38 653.13 765.90 494.08 379.35 513.81 704.72 759.61 728.01 834.14 407.73 283.09 213.36 651.81 835.14 603.61 706.51 826.30 199.30 529.11 262.86 738.11 852.41 452.57 459.74 496.28 524.42 600.18 820.80 392.61 702.82 741.49 236.98 460.08 648.35 0.00 484.02 859.74 767.16 259.61 366.52 706.26 711.31 336.95 410.98 277.88 796.02 515.81 120.56 673.06 405.76 514.15 411.86 516.04 461.51 510.96 855.29 542.04 998.08 420.89 826.95 198.44 953.70 354.92 645.50 382.86 802.07 612.29 172.88 436.07 857.82 40.97 475.98 329.37 145.12 814.29 725.18 935.81 550.66 765.12 409.67 134.49 769.78 422.29 638.54 681.94 874.30 517.50 799.85 512.46 615.82 836.27 238.78 258.50 714.04 639.49 384.73 228.30 837.16 235.79 836.59 282.01 798.25 482.15 752.97 648.07 97.99 741.88 162.01 770.16 571.78 810.21 153.72 534.63 477.41 716.48 670.54 736.25 567.48 199.40 474.59 240.30 318.38 325.51 441.91 148.30 681.86 502.63 507.61 761.90 293.36 633.03 796.54 699.03 313.67 374.05 312.02 501.13 375.71 469.50 881.97 968.83 831.59 696.01 440.95 637.06 721.82 629.92 582.26 692.13 756.42 816.93 257.61 682.12 96.88 424.43 378.11 725.94 284.06 258.54 855.11 528.86 456.58 647.04
971.37 544.25 191.35 195.48 491.41 348.44 299.65 596.02 244.10 388.36 256.79 412.42 684.04 578.67 270.66 441.15 421.91 276.00 693.97 548.89 477.16 187.10 413.60 575.64 368.39 515.76 64.06 221.18 419.63 451.72 449.77 235.03 478.36 337.54 247.04 657.21 418.93 484.02 0.00 456.94 568.75 675.54 592.31 531.92 285.52 258.80 645.24 526.99 404.25 271.54 430.93 814.95 121.03 472.75 611.10 666.20 51.51 717.18 603.59 513.50 625.27 219.25 483.96 604.56 621.57 168.88 564.91 540.06 516.54 430.13 521.03 335.35 627.70 491.20 489.06 643.44 492.04 493.85 419.24 565.80 492.76 750.58 273.40 604.34 426.79 223.19 235.74 356.69 533.91 481.74 320.72 691.06 295.36 449.63 691.78 677.41 351.36 460.58 703.26 408.29 595.51 528.72 418.36 337.13 509.89 530.87 608.39 442.08 478.12 578.15 371.29 508.28 421.14 619.69 528.39 55.50 171.65 629.49 546.63 576.37 552.51 573.75 172.57 276.96 272.14 551.30 583.97 385.29 258.18 304.22 35.98 416.23 552.98 379.90 409.85 632.84 511.41 278.56 295.02 256.80 436.79 382.89 452.19 526.71 605.03 272.33 555.08 481.60 426.15 389.82 721.85 471.92 281.45 622.83 269.18 450.26 513.04 307.40 770.25 513.63 640.69 637.43 501.82 334.83 369.97 532.82
1153.31 507.11 525.39 261.46 541.14 617.94 625.28 892.65 256.65 311.61 236.58 241.85 946.38 884.80 646.38 478.97 190.43 387.37 888.52 550.90 852.88 443.43 789.32 647.09 174.98 813.10 488.45 494.70 649.07 634.55 451.78 605.31 574.64 300.30 622.76 977.20 517.88 859.74 456.94 0.00 712.70 1038.94 932.17 657.07 220.53 665.23 963.04 902.71 152.38 521.99 753.68 1031.46 527.46 646.79 889.90 887.91 478.44 955.42 609.89 782.00 489.13 517.58 410.53 967.96 497.82 573.65 734.28 870.31 539.19 498.94 881.80 676.85 619.83 833.27 802.26 977.10 844.64 413.70 428.23 482.08 661.55 976.94 613.26 954.37 440.02 511.31 221.20 354.41 451.36 627.30 164.09 853.18 406.12 197.81 1058.60 1021.27 350.46 653.19 1031.26 752.15 672.21 904.33 79.18 644.67 397.66 787.77 625.81 601.86 814.11 737.93 748.43 461.62 618.45 684.28 813.84 420.83 498.26 809.68 636.35 672.40 772.89 942.03 544.24 669.36 639.76 891.16 881.31 761.01 346.29 556.12 420.96 259.28 890.42 404.01 79.11 798.11 794.19 587.81 688.33 512.11 735.89 639.79 250.80 490.16 466.62 360.44 855.73 648.31 349.40 582.43 939.96 550.84 238.83 689.77 618.04 566.55 889.18 673.43 1078.15 687.14 1025.38 968.72 466.42 508.42 652.71 708.18
593.20 408.32 426.26 680.89 248.87 304.78 416.36 425.79 601.94 885.03 534.79 566.51 544.17 672.73 553.80 968.16 594.92 426.82 249.27 262.54 567.95 439.14 619.65 133.44 537.72 381.60 621.14 367.70 892.12 931.93 303.59 686.31 244.27 486.86 539.30 568.45 258.91 767.16 568.75 712.70 0.00 867.45 942.29 102.06 593.05 477.78 1024.09 591.00 736.90 326.69 725.23 603.27 503.79 945.24 477.61 533.53 553.52 585.48 227.07 284.44 489.34 713.10 381.17 873.76 482.12 581.76 174.17 393.44 289.05 939.20 882.11 852.55 248.31 774.09 984.10 624.72 816.19 956.09 386.93 446.75 961.37 311.80 769.69 853.06 349.99 428.37 677.15 416.90 403.57 958.38 591.69 498.80 407.46 805.21 959.64 986.86 449.00 946.18 629.05 756.24 206.19 661.39 643.31 557.66 965.15 293.98 100.28 184.82 785.66 48.75 660.37 1069.66 937.40 156.86 820.65 567.72 463.38 96.98 139.57 76.61 208.65 685.72 645.06 708.92 518.19 901.28 373.90 642.33 466.71 264.53 584.75 843.80 549.81 858.37 633.59 116.49 453.58 751.05 514.00 311.95 918.78 330.86 578.13 390.78 1051.14 480.86 408.57 971.39 861.88 939.80 497.76 220.47 560.37 144.28 576.86 192.58 788.65 865.82 1075.40 84.17 807.67 732.18 355.64 845.21 317.94 120.21
728.19 1097.87 646.77 841.01 936.94 677.10 562.37 582.56 889.77 963.66 872.25 1027.08 327.89 288.01 419.15 866.15 1033.49 770.94 791.63 1014.60 312.00 728.73 352.32 904.64 1043.93 548.18 635.61 689.22 687.36 711.12 1020.06 530.85 891.82 922.48 429.92 389.91 795.72 259.61 675.54 1038.94 867.45 0.00 406.29 804.16 928.91 527.26 402.13 330.63 1032.51 706.12 318.58 605.79 604.11 730.33 499.33 485.75 624.03 478.72 1021.82 615.69 1178.89 618.91 1024.43 70.98 1138.88 584.50 715.50 474.01 977.07 802.67 280.74 586.56 1002.98 238.99 626.47 346.87 327.46 990.33 910.38 1130.20 713.79 758.89 558.51 137.78 967.26 596.92 831.48 914.76 1075.52 695.39 984.89 520.48 759.67 1022.70 201.08 237.74 893.62 764.79 375.79 352.91 1020.59 218.56 980.83 447.38 988.63 620.02 913.10 795.83 275.88 851.10 304.25 895.06 742.28 971.57 304.21 719.67 674.82 816.95 851.80 877.38 658.80 184.46 659.39 436.31 511.32 447.30 514.32 292.54 839.67 708.42 681.51 940.69 349.48 812.38 994.89 807.06 416.60 553.40 491.04 706.92 526.20 647.27 1087.73 1080.33 970.89 853.82 526.07 747.06 925.87 768.49 500.28 880.10 922.63 927.76 455.96 793.84 183.08 573.34 340.41 830.56 59.78 140.03 1048.05 755.12 660.19 749.97
994.86 1098.44 642.66 670.71 909.33 637.51 632.20 807.36 771.90 718.16 835.07 933.85 730.37 618.31 481.06 593.44 946.55 813.82 961.55 1017.80 492.85 664.60 497.01 962.33 909.05 751.25 553.95 706.49 377.39 506.41 1002.95 423.12 954.59 881.48 504.68 737.50 828.36 366.52 592.31 932.17 942.29 406.29 0.00 861.85 792.18 591.49 113.36 571.43 861.70 732.35 309.63 917.55 602.28 399.62 662.68 771.38 540.80 724.32 997.70 837.23 1179.46 414.59 1038.45 381.61 1183.50 498.24 887.96 672.34 949.84 524.60 278.39 323.52 1041.57 325.55 224.20 668.59 226.18 726.60 925.47 1126.09 414.68 1015.94 318.91 314.81 988.94 597.32 710.97 920.85 1044.68 380.43 845.36 784.15 801.34 836.81 328.14 296.06 914.78 512.39 728.41 187.06 1017.36 532.96 922.29 511.61 710.56 789.60 944.71 842.49 280.64 908.47 384.52 696.31 502.68 1003.18 228.13 604.83 657.19 966.97 936.05 935.07 815.54 489.80 460.52 318.39 564.43 41.01 735.46 366.48 828.30 699.33 564.66 754.80 586.91 566.88 934.49 915.03 598.80 354.53 555.27 721.84 220.43 722.75 1020.75 1080.90 773.22 834.48 730.43 537.60 680.37 525.29 812.04 930.79 832.23 985.45 481.13 857.44 341.87 297.46 287.34 897.21 466.07 515.41 1042.21 497.79 724.28 823.09
626.81 408.03 389.43 591.28 222.37 224.34 336.35 413.96 516.23 790.59 432.73 517.70 603.06 677.38 492.90 866.10 539.29 326.43 262.32 247.57 543.82 402.31 517.59 100.48 482.09 342.85 577.08 330.87 855.29 895.10 291.57 649.48 188.50 422.79 496.60 541.04 156.85 706.26 531.92 657.07 102.06 804.16 861.85 0.00 496.91 420.88 953.33 560.40 634.84 289.86 664.33 636.08 457.27 908.41 480.85 492.53 518.34 560.04 217.66 273.22 489.05 676.27 335.05 826.23 472.71 544.93 207.78 426.32 256.09 838.45 821.21 803.74 237.68 720.36 907.31 639.28 755.29 889.68 320.30 446.46 912.56 350.74 720.88 817.57 323.49 355.11 575.09 352.83 354.76 909.36 545.78 457.80 337.47 703.15 945.04 943.80 384.93 929.02 650.91 751.98 216.43 637.26 587.68 480.66 898.74 252.98 108.94 108.03 724.76 150.81 599.32 984.45 888.02 167.41 768.65 525.22 426.55 199.04 74.20 73.22 269.93 661.59 608.23 632.13 444.39 820.84 358.68 590.03 410.11 227.70 527.72 741.74 525.68 831.82 577.96 182.20 429.45 714.22 457.10 275.12 881.95 262.60 476.07 390.49 949.08 395.96 393.35 922.17 795.47 863.20 541.36 170.02 459.85 123.60 527.69 90.52 757.34 817.01 1029.40 35.36 813.22 708.05 343.62 743.15 249.68 115.95
1033.99 407.06 340.73 171.98 397.48 435.52 457.75 758.83 112.47 353.27 64.18 176.08 818.27 836.65 555.82 497.18 210.71 204.95 716.12 407.87 673.70 271.03 676.58 531.52 173.21 682.72 349.58 301.01 633.10 625.83 357.57 520.55 413.80 156.64 532.20 853.16 370.12 711.31 285.52 220.53 593.05 928.91 792.18 496.91 0.00 491.21 855.65 733.39 263.14 354.45 691.14 929.85 397.51 622.78 722.36 831.06 337.03 841.66 509.66 621.56 488.08 428.10 338.04 874.28 488.21 433.04 614.96 673.00 399.62 473.88 792.32 556.13 508.29 730.54 709.84 847.41 722.63 478.44 273.80 468.30 638.47 804.54 473.27 845.80 296.36 390.58 169.34 216.45 385.45 644.98 109.52 821.60 185.59 263.31 950.09 931.79 213.02 628.13 892.42 662.67 554.62 767.14 157.08 542.52 462.40 650.39 546.38 469.44 743.23 591.19 641.01 618.78 615.97 557.42 764.02 288.73 325.86 663.08 463.95 528.87 597.38 771.43 449.60 562.48 450.80 751.17 722.86 636.37 173.89 373.70 301.09 345.32 680.82 378.95 155.30 658.28 631.35 437.65 514.53 339.71 627.63 520.76 237.02 424.60 534.37 188.04 688.19 623.49 391.06 557.37 886.49 412.88 45.11 610.34 534.10 406.39 786.45 569.40 948.38 519.35 926.21 864.89 369.54 530.30 522.33 549.63
719.83 646.89 211.69 416.79 463.04 216.79 102.06 407.96 444.86 621.18 469.13 536.65 459.33 409.96 123.59 609.10 574.01 325.64 495.20 511.14 263.71 293.65 236.08 495.92 586.33 306.46 269.20 218.31 541.73 577.09 513.27 271.54 387.66 452.01 113.78 488.22 321.82 336.95 258.80 665.23 477.78 527.26 591.49 420.88 491.21 0.00 631.96 292.98 645.06 178.86 295.02 589.35 137.77 579.84 353.85 414.43 223.86 473.15 550.77 314.73 710.15 375.99 521.72 464.56 697.71 241.81 387.68 308.33 465.12 540.26 451.90 450.62 577.15 359.64 567.63 457.67 385.98 657.32 447.21 648.77 600.49 583.40 394.53 397.76 503.33 161.84 444.03 448.53 572.81 566.24 522.64 449.16 337.85 684.54 575.73 543.02 456.58 630.76 475.29 404.43 588.89 335.35 620.28 79.88 673.36 332.10 495.83 362.69 355.45 487.75 238.60 710.04 556.64 539.56 371.90 257.42 209.42 447.12 452.24 449.24 390.52 377.24 365.06 323.74 40.41 550.48 339.30 250.20 415.46 213.25 281.34 632.48 346.56 581.64 611.77 486.85 261.13 358.91 36.22 193.60 469.38 184.12 617.88 664.43 768.50 429.61 304.63 642.59 630.39 594.96 483.84 411.46 520.91 539.33 116.03 387.06 388.03 425.05 617.74 450.43 550.18 444.06 560.41 518.57 171.20 386.84
1084.52 1189.49 716.20 724.98 1000.81 728.99 680.26 823.75 826.17 785.63 882.85 997.32 701.34 612.15 508.37 675.51 1020.41 866.15 1011.20 1098.00 575.60 756.08 512.29 1053.81 981.51 749.01 618.88 758.82 407.02 539.76 1071.43 410.21 974.52 878.66 520.01 759.39 912.22 410.98 645.24 963.04 1024.09 402.13 113.36 953.33 855.65 631.96 0.00 601.11 966.27 737.02 382.10 950.28 618.80 429.25 754.16 800.09 604.27 815.80 1059.44 889.08 1253.15 468.86 1060.06 331.15 1179.70 514.76 927.55 687.62 1041.32 637.96 238.10 353.64 1015.57 381.49 253.83 620.79 297.20 777.06 997.38 1191.49 465.76 1073.23 382.38 385.26 1012.72 688.80 765.24 907.94 1100.30 433.03 951.51 815.33 849.08 907.26 305.18 205.25 928.87 486.09 680.61 278.54 1102.40 552.59 976.56 558.52 793.10 838.88 1036.19 928.37 351.66 975.34 399.80 728.09 536.82 1081.87 277.78 693.86 690.45 982.25 1011.77 1026.55 872.41 512.56 523.99 409.87 601.41 132.49 755.26 381.76 884.55 790.81 653.69 868.16 655.10 634.35 1010.95 932.49 677.09 418.00 596.04 751.76 250.55 761.30 1044.53 1171.95 834.52 897.95 745.71 511.30 747.84 555.41 844.77 987.14 895.70 1076.93 545.18 945.22 335.76 364.93 192.90 988.69 416.77 537.40 1115.95 589.27 751.59 914.57
566.65 902.63 432.64 709.77 716.28 445.81 340.58 302.01 679.73 871.66 704.59 795.63 166.35 116.98 303.57 841.03 844.39 567.82 461.00 708.98 78.58 514.60 113.39 656.81 840.52 217.55 537.74 460.49 662.00 744.85 775.14 452.74 652.82 719.89 279.95 195.24 580.59 277.88 526.99 902.71 591.00 330.63 571.43 560.40 733.39 292.98 601.11 0.00 882.54 470.21 331.29 455.70 429.24 715.12 226.74 293.52 515.33 266.24 767.13 357.84 977.64 557.19 808.51 287.07 948.02 462.08 470.77 232.09 738.07 772.19 395.09 610.25 723.80 251.70 609.57 164.69 355.85 915.54 689.39 910.64 740.58 549.42 549.74 278.69 759.12 424.87 681.51 681.79 856.81 730.25 776.83 317.85 566.69 923.33 482.69 395.86 700.64 798.52 224.51 414.76 734.18 153.96 874.47 269.59 919.51 307.42 651.51 537.98 315.02 579.44 253.38 970.09 720.65 684.85 364.45 550.40 471.25 502.17 602.94 614.12 392.75 198.99 587.01 379.11 282.59 536.24 230.11 235.34 646.69 434.87 562.97 885.11 70.84 780.28 856.44 542.82 137.42 522.92 256.76 455.47 509.54 390.86 881.82 890.94 998.74 660.84 195.44 810.35 850.93 768.73 350.19 641.10 744.86 658.74 317.51 554.84 307.61 582.30 536.23 551.38 270.85 262.67 819.32 728.79 377.94 470.79
1233.41 579.98 510.54 241.29 598.28 645.12 620.53 960.57 296.04 211.23 285.49 341.26 1019.05 978.82 626.21 326.59 331.59 436.28 897.16 613.56 832.71 428.58 769.15 708.64 274.39 855.18 468.28 508.83 607.62 517.79 566.45 585.14 600.10 400.34 602.59 957.03 608.31 796.02 404.25 152.38 736.90 1032.51 861.70 634.84 263.14 645.06 966.27 882.54 0.00 570.51 748.24 1135.83 507.29 592.50 914.14 1021.75 455.76 1033.44 698.80 806.60 641.51 497.41 562.91 961.53 597.23 553.48 814.38 865.56 618.55 377.29 861.63 638.59 699.12 827.83 751.06 1029.26 839.20 343.23 446.72 634.46 555.99 985.58 593.09 930.51 510.90 541.34 201.03 418.04 552.57 590.24 306.23 1005.56 423.78 68.31 1034.80 1001.10 385.94 516.01 1033.87 731.98 738.64 884.27 231.56 640.17 346.85 855.69 674.30 683.06 808.67 764.11 728.26 456.72 522.11 732.77 852.56 400.66 463.44 833.88 685.26 701.79 813.56 929.30 524.07 675.78 619.59 852.37 923.39 740.84 360.19 603.19 400.79 106.90 907.22 341.22 217.10 817.04 852.66 567.64 681.28 555.77 715.72 707.71 403.18 597.52 314.24 373.08 893.37 495.93 249.02 449.33 1077.40 613.41 218.03 738.26 637.94 587.36 883.74 610.64 1057.98 670.20 1019.94 992.98 542.46 395.59 694.79 722.55
741.88 490.34 129.05 384.56 314.92 123.98 161.99 404.38 311.32 658.22 290.27 442.06 542.83 555.20 302.45 667.72 463.49 177.82 502.76 423.39 423.99 141.93 414.94 340.35 417.43 362.81 335.60 70.49 648.01 634.72 334.41 389.10 300.90 273.15 290.69 516.34 185.82 515.81 271.54 521.99 326.69 706.12 732.35 289.86 354.45 178.86 737.02 470.21 570.51 0.00 473.88 575.40 225.20 701.13 367.91 476.61 268.89 487.21 427.10 284.93 535.95 441.40 342.86 643.42 518.85 284.55 322.85 391.83 355.43 662.75 582.24 568.18 460.15 537.40 721.84 539.60 511.23 707.22 318.65 469.91 687.19 544.41 490.78 576.62 324.47 139.26 424.82 269.67 393.95 699.12 410.93 489.38 174.22 617.76 754.59 721.88 277.72 688.39 537.97 549.52 433.39 514.21 508.57 258.74 691.18 344.82 371.70 191.35 534.31 327.42 416.36 779.82 644.22 388.47 550.76 270.51 178.13 387.43 303.07 334.31 337.42 556.10 400.95 465.37 209.29 691.34 368.41 428.94 237.07 62.16 267.18 646.31 399.37 611.10 494.34 387.60 359.61 501.26 215.08 14.74 621.57 209.22 439.02 502.48 786.32 251.22 333.74 700.22 620.43 649.62 546.02 294.46 357.73 380.77 292.59 208.20 553.10 578.94 794.30 271.57 729.04 622.92 386.46 572.10 202.42 290.76
832.08 915.41 410.45 579.84 727.01 470.03 355.30 555.04 584.16 663.75 667.66 792.21 489.89 403.65 171.43 571.60 796.26 561.68 714.03 784.70 292.22 487.18 243.40 739.37 777.21 473.08 437.71 454.35 428.64 527.12 778.87 306.28 674.00 699.56 195.05 427.87 606.42 120.56 430.93 753.68 725.23 318.58 309.63 664.33 691.14 295.02 382.10 331.29 748.24 473.88 0.00 681.42 366.88 474.42 466.57 526.68 419.58 549.58 837.11 540.24 978.11 323.72 785.02 267.49 941.88 363.96 631.13 422.29 760.14 502.76 161.97 339.91 815.89 79.59 375.59 449.93 90.96 704.76 683.25 893.88 495.07 799.82 289.11 200.69 727.85 392.93 596.61 716.86 836.11 460.82 713.52 550.00 561.77 723.35 335.17 305.89 695.72 580.79 505.29 193.59 807.84 298.28 799.73 240.08 688.72 559.57 768.54 606.14 60.43 710.01 106.35 657.80 451.22 787.01 104.32 448.30 438.53 688.80 686.11 737.55 589.26 304.11 359.48 153.97 276.45 291.44 483.14 116.43 639.93 460.70 466.91 641.34 386.28 512.47 757.66 667.16 383.64 253.49 270.09 459.20 275.32 427.57 865.43 932.95 751.38 654.08 448.47 574.65 625.96 524.00 582.82 650.20 700.34 787.93 218.73 640.19 135.50 311.96 372.91 694.73 271.70 379.10 813.18 459.36 414.65 614.14
190.00 963.99 679.12 909.41 749.77 597.53 515.30 270.59 886.72 1172.03 865.67 1003.31 322.48 404.68 593.29 1111.58 1019.11 753.22 384.82 818.21 491.66 707.25 456.71 690.29 992.83 348.65 772.79 645.89 1050.82 1017.04 843.39 796.06 710.50 848.55 580.32 260.46 663.37 673.06 814.95 1031.46 603.27 605.79 917.55 636.08 929.85 589.35 950.28 455.70 1135.83 575.40 681.42 0.00 701.70 1079.48 283.62 174.92 780.63 193.23 775.17 384.83 1035.31 900.51 908.06 619.13 1020.88 733.53 490.94 364.86 790.28 1083.93 761.52 937.50 819.04 663.22 961.47 348.15 742.02 1205.26 836.92 953.48 1048.77 324.06 854.64 685.93 850.89 629.27 949.67 845.07 927.95 1062.98 986.33 178.28 749.62 1191.49 770.39 843.53 853.12 1070.71 288.33 730.49 763.75 488.29 1083.97 557.59 1207.51 383.10 655.95 564.97 687.56 580.48 605.28 1197.13 1038.41 714.42 770.89 759.45 707.17 517.99 654.33 672.66 394.62 521.14 868.04 731.01 614.70 876.54 341.44 587.24 812.47 637.56 799.62 1172.77 397.60 1068.28 1069.74 543.41 399.65 890.26 601.25 590.14 912.75 512.29 1014.42 946.45 1291.36 818.35 306.77 1082.54 1145.28 1085.50 105.51 726.78 933.13 688.09 617.88 661.92 696.57 934.14 823.93 629.19 586.39 465.76 885.57 988.63 499.37 548.60
857.60 654.34 97.40 303.07 511.89 284.82 186.40 474.99 307.09 483.41 333.33 464.65 574.68 540.23 195.45 527.51 436.24 274.05 612.60 573.98 401.48 161.88 352.27 550.42 488.70 417.16 131.43 203.30 471.51 525.65 520.11 208.59 472.32 426.28 185.71 536.18 384.98 405.76 121.03 527.46 503.79 604.11 602.28 457.27 397.51 137.77 618.80 429.24 507.29 225.20 366.88 701.70 0.00 496.99 491.62 552.20 86.09 610.92 482.56 440.65 666.71 246.68 527.54 544.65 648.23 104.04 499.95 419.03 515.02 482.24 487.24 387.67 526.43 432.42 541.33 522.41 457.84 602.17 419.34 580.83 517.64 699.21 307.98 535.53 470.37 102.16 306.26 426.47 578.63 483.39 425.01 586.93 292.46 548.08 626.94 654.53 426.41 527.95 582.23 415.22 589.03 434.44 517.58 217.65 611.23 449.50 566.21 396.99 427.31 533.06 311.38 579.95 470.98 564.84 435.14 159.79 71.65 564.52 501.54 530.49 477.79 479.47 227.29 314.03 151.11 561.27 468.72 311.57 366.18 239.26 143.57 494.71 431.95 454.89 493.72 564.69 398.90 276.06 173.99 211.71 441.06 301.52 551.55 636.80 683.44 352.03 434.05 529.06 507.96 457.19 621.61 454.04 383.14 577.74 148.15 405.17 459.89 404.11 649.86 468.54 593.86 543.15 557.93 404.56 303.00 456.04
1228.94 959.20 572.08 450.80 887.23 691.18 620.32 889.24 551.99 445.72 635.49 757.18 855.95 784.30 565.63 265.91 746.23 676.52 1052.10 973.06 636.54 589.02 647.29 955.32 698.54 831.58 438.91 654.14 53.12 171.88 882.79 342.24 887.42 734.66 546.90 892.71 826.43 514.15 472.75 646.79 945.24 730.33 399.62 908.41 622.78 579.84 429.25 715.12 592.50 701.13 474.42 1079.48 496.99 0.00 837.28 935.09 441.38 927.49 979.55 841.25 1040.22 283.72 882.67 669.50 992.70 434.69 875.05 753.11 915.25 264.58 506.77 171.41 1023.42 536.57 175.42 833.09 481.90 406.60 810.40 989.10 36.51 1083.41 224.84 602.70 825.50 599.15 491.06 733.61 912.02 70.76 662.89 901.20 691.40 588.64 628.98 620.53 702.28 180.64 892.91 390.23 1028.71 678.51 702.38 589.86 422.64 888.81 985.24 859.00 490.27 962.14 521.20 318.14 107.57 998.93 440.51 489.59 563.57 976.50 922.16 938.65 886.76 661.23 300.18 372.99 572.30 393.04 820.75 516.76 656.89 680.71 469.18 551.42 712.49 358.77 677.08 974.22 747.67 220.93 616.06 686.39 232.75 763.96 844.08 957.41 440.03 671.04 811.20 205.85 407.93 180.35 987.98 904.88 626.21 1019.56 518.33 869.20 547.25 169.80 596.67 910.36 746.12 754.69 911.55 242.11 751.04 909.31
414.10 833.85 493.02 723.31 611.57 355.07 329.20 194.07 679.23 912.40 658.18 809.97 179.32 263.99 342.62 898.67 831.40 545.73 379.68 657.20 212.56 509.84 276.12 562.11 785.34 165.77 586.69 438.40 784.16 902.98 702.32 572.34 574.13 641.06 364.06 148.43 508.14 411.86 611.10 889.90 477.61 499.33 662.68 480.85 722.36 353.85 754.16 226.74 914.14 367.91 466.57 283.62 491.62 837.28 0.00 108.70 577.71 119.30 679.29 276.52 897.11 650.37 710.77 479.85 859.91 512.46 386.37 84.17 652.08 851.94 550.06 686.23 699.31 452.83 752.49 171.69 547.10 936.07 643.03 792.51 862.74 353.26 656.58 497.67 692.38 443.17 713.11 637.58 761.86 832.58 778.84 121.47 542.13 954.93 629.70 622.60 645.63 924.69 170.06 557.68 638.32 280.77 872.58 273.97 923.89 227.87 577.24 448.40 495.75 444.15 360.22 1017.02 840.35 600.90 565.58 573.35 488.26 450.39 532.51 539.85 268.96 325.80 646.97 522.03 352.09 621.67 122.17 378.26 604.98 394.23 590.90 945.98 155.90 784.66 830.51 434.88 169.39 644.06 317.63 382.65 736.28 269.83 806.93 843.09 1019.03 619.13 114.12 908.65 898.15 853.93 178.11 555.06 725.64 547.61 358.25 530.63 479.57 714.13 683.24 477.11 458.78 389.48 721.84 775.72 256.91 422.94
305.40 852.37 558.19 826.05 645.13 452.12 437.90 114.02 785.89 1010.87 766.88 897.07 157.86 330.71 442.78 1007.37 938.70 629.35 360.24 686.49 316.74 618.54 371.94 558.85 894.04 206.42 683.63 547.10 881.97 970.76 712.56 670.81 563.01 749.76 419.16 143.98 519.82 516.04 666.20 887.91 533.53 485.75 771.38 492.53 831.06 414.43 800.09 293.52 1021.75 476.61 526.68 174.92 552.20 935.09 108.70 0.00 627.51 82.30 618.60 299.44 888.65 759.07 790.99 546.63 873.65 609.92 402.90 192.87 685.64 954.69 654.24 793.24 662.47 545.22 792.56 238.41 617.64 1044.77 693.37 839.24 933.61 273.14 711.09 571.75 738.09 508.34 820.72 746.28 790.59 899.36 887.54 34.73 648.71 1062.54 674.77 689.38 754.33 954.96 231.57 597.75 651.60 353.60 967.09 382.67 1032.59 239.55 544.33 479.58 572.27 495.84 436.37 1124.47 894.86 602.27 631.00 666.68 586.24 473.88 510.78 497.74 324.88 398.63 744.43 562.10 454.84 730.37 185.92 418.33 713.68 502.93 684.99 1046.91 222.68 893.36 927.56 449.33 278.09 746.71 426.33 491.35 780.01 366.88 895.79 834.83 1127.73 727.83 156.31 963.75 1001.73 951.72 69.41 586.81 834.34 587.83 456.72 576.53 573.61 765.29 749.96 488.79 522.62 429.66 764.61 884.42 355.82 466.82
928.78 595.76 139.84 216.98 533.56 327.26 265.33 561.08 272.37 439.87 308.30 429.57 660.77 612.00 248.15 446.54 464.06 316.49 680.59 588.10 474.85 221.80 411.29 596.58 419.90 503.25 67.62 212.76 388.26 461.84 501.28 206.25 487.30 369.32 260.85 622.27 423.89 461.51 51.51 478.44 553.52 624.03 540.80 518.34 337.03 223.86 604.27 515.33 455.76 268.89 419.58 780.63 86.09 441.38 577.71 627.51 0.00 674.94 568.65 500.12 676.78 172.51 505.31 553.05 667.16 126.64 562.26 505.12 561.57 420.09 523.77 304.75 603.60 440.82 458.46 608.50 452.76 516.08 440.59 611.74 464.48 765.51 221.89 561.92 448.14 188.25 257.24 397.25 555.26 430.23 362.87 662.24 332.75 471.13 649.54 667.12 373.98 464.14 668.32 402.14 617.01 506.21 458.25 303.74 525.14 507.94 611.11 439.43 468.27 575.50 319.78 516.14 396.81 585.12 493.59 97.65 125.24 626.84 529.01 573.72 544.09 551.24 141.20 299.39 237.20 499.79 554.81 337.82 303.77 301.57 57.48 467.60 518.04 401.40 452.00 611.66 470.32 242.74 260.08 254.15 390.82 369.51 503.70 578.22 613.24 293.68 520.14 442.97 421.87 393.38 696.92 463.50 298.60 620.18 234.24 427.82 496.73 318.02 733.08 510.98 589.18 614.92 535.03 324.79 356.59 530.17
313.58 911.59 612.32 842.61 708.66 454.22 448.50 174.15 798.53 1031.70 777.48 929.27 150.83 299.30 461.92 995.34 950.70 665.03 406.60 753.34 331.86 629.14 328.39 641.15 904.64 278.45 653.12 557.70 874.37 984.65 784.01 652.85 634.46 760.36 483.36 122.73 587.33 510.96 717.18 955.42 585.48 478.72 724.32 560.04 841.66 473.15 815.80 266.24 1033.44 487.21 549.58 193.23 610.92 927.49 119.30 82.30 674.94 0.00 678.73 343.72 948.78 750.85 830.07 516.50 933.78 548.30 464.17 203.47 749.17 926.50 613.38 785.64 722.60 469.99 819.79 207.00 574.14 1055.37 742.18 911.81 898.14 348.36 742.86 513.21 809.54 562.47 832.41 756.88 862.04 932.39 898.14 102.24 661.43 1074.23 665.01 662.10 754.61 1037.26 149.27 537.26 733.90 295.06 971.73 393.27 1043.19 307.06 626.63 523.86 533.31 562.69 476.96 1101.64 926.63 684.57 582.74 692.65 595.33 500.20 578.29 580.04 376.83 340.09 682.81 602.69 471.39 683.31 218.04 458.92 724.28 512.61 697.97 1053.10 275.20 903.96 929.66 516.84 271.73 763.36 436.93 501.95 719.52 368.98 926.23 894.05 1127.70 734.45 233.42 1020.38 1017.45 973.23 87.72 658.26 844.94 653.49 477.55 620.81 521.05 757.69 718.55 554.49 494.09 385.03 835.07 895.02 363.98 473.90
775.59 243.17 520.06 599.73 112.18 384.00 498.73 504.58 503.12 761.26 457.22 443.45 762.48 842.79 665.68 901.11 477.90 391.84 450.08 123.42 744.62 438.10 684.23 117.18 497.30 560.51 599.51 437.65 946.29 958.40 179.82 691.15 163.11 353.02 658.98 734.91 253.40 855.29 603.59 609.89 227.07 1021.82 997.70 217.66 509.66 550.77 1059.44 767.13 698.80 427.10 837.11 775.17 482.56 979.55 679.29 618.60 568.65 678.73 0.00 467.11 308.67 729.24 212.23 992.87 255.05 586.60 356.56 595.12 121.78 883.91 966.44 870.23 43.87 823.05 1023.89 837.06 927.20 893.26 283.03 265.48 970.65 538.50 790.54 944.15 213.30 536.88 577.47 318.08 234.26 965.95 490.80 646.15 394.05 741.89 1094.07 1049.35 338.26 996.03 828.00 897.78 106.47 825.48 530.71 630.65 893.99 470.64 128.54 286.97 886.37 275.82 784.65 1048.03 953.54 82.28 917.70 548.09 554.21 324.05 184.75 175.13 426.96 852.09 709.85 796.59 591.18 956.69 576.34 783.86 350.27 399.12 588.26 743.62 726.48 846.54 552.49 291.49 630.25 758.62 586.99 412.36 923.62 428.98 434.82 225.63 989.04 364.42 611.01 1011.62 799.05 925.27 669.66 186.91 480.77 191.19 630.71 240.07 878.96 886.67 1132.42 222.61 1009.35 903.59 156.34 838.42 441.90 303.20
549.69 587.22 413.07 637.02 364.94 233.00 276.28 218.49 596.25 848.55 557.38 675.24 409.97 460.88 386.75 847.92 660.83 460.91 234.53 440.88 352.80 426.86 408.93 353.40 653.44 142.86 532.03 355.42 788.13 891.82 458.56 586.27 346.07 509.16 394.07 347.95 340.16 542.04 513.50 782.00 284.44 615.69 837.23 273.22 621.56 314.73 889.08 357.84 806.60 284.93 540.24 384.83 440.65 841.25 276.52 299.44 500.12 343.72 467.11 0.00 650.48 611.50 523.23 629.00 636.05 494.51 161.16 201.46 405.45 824.62 653.77 699.40 464.41 583.01 842.81 429.91 631.20 918.89 506.87 568.65 856.81 296.37 666.64 636.53 466.06 384.78 669.23 500.45 559.56 838.35 646.94 264.71 459.15 874.91 780.82 753.70 513.82 928.55 446.58 686.74 433.63 435.97 744.58 394.61 934.93 59.89 339.30 180.14 600.67 269.53 490.70 938.30 827.95 397.24 644.56 517.69 374.88 202.35 291.86 292.71 75.79 470.57 629.02 590.09 355.14 808.48 165.59 507.32 447.67 292.16 477.52 861.09 305.05 729.69 702.89 195.19 238.43 631.02 350.95 299.67 784.11 147.76 675.03 587.53 1011.96 433.52 162.40 915.64 843.18 857.79 331.16 363.35 588.57 357.17 430.76 277.09 619.81 671.45 872.91 247.97 596.29 475.66 500.74 749.61 143.53 167.38
1029.57 81.02 609.32 589.42 285.54 557.36 672.01 774.63 539.51 800.74 456.03 424.82 1008.21 1091.15 806.68 900.18 439.46 445.50 689.51 274.67 923.02 589.80 912.55 388.57 486.67 766.10 689.33 552.83 1044.90 979.87 236.95 852.77 367.66 374.49 808.19 955.64 426.76 998.08 625.27 489.13 489.34 1178.89 1179.46 489.05 488.08 710.15 1253.15 977.64 641.51 535.95 978.11 1035.31 666.71 1040.22 897.11 888.65 676.78 948.78 308.67 650.48 0.00 832.61 193.09 1145.46 166.08 770.75 610.54 812.94 245.03 905.79 1118.19 960.62 280.32 1028.61 1093.16 1062.53 1047.18 890.08 319.99 125.89 1036.33 777.93 898.67 1107.71 250.26 659.17 549.16 355.04 222.48 1070.58 512.27 899.88 464.86 686.94 1236.86 1219.49 359.89 1033.54 1057.84 1027.12 367.15 1016.46 551.09 756.35 886.79 707.03 389.06 470.34 1005.57 538.09 912.19 950.75 988.52 390.95 1081.42 632.95 668.08 586.32 455.63 435.65 672.69 994.43 797.84 895.79 726.79 1153.86 808.26 905.93 418.87 572.48 661.25 748.41 935.32 810.86 509.02 580.43 840.22 902.84 746.37 550.69 1050.92 629.86 337.92 98.56 955.75 404.72 812.88 1045.37 825.29 977.29 939.71 362.35 442.97 453.02 810.09 422.80 1071.12 932.67 1311.80 489.19 1173.61 1087.89 212.88 878.72 642.78 518.71
1016.90 763.50 312.35 256.12 670.57 499.77 412.68 709.26 357.31 406.39 440.81 562.50 723.54 649.78 323.51 308.58 551.55 444.38 814.31 760.61 507.36 381.96 443.80 713.77 554.64 626.72 155.19 385.27 249.33 291.64 669.02 104.45 657.52 532.55 347.13 751.59 594.29 420.89 219.25 517.58 713.10 618.91 414.59 676.27 428.10 375.99 468.86 557.19 497.41 441.40 323.72 900.51 246.68 283.72 650.37 759.07 172.51 750.85 729.24 611.50 832.61 0.00 668.54 567.82 810.69 202.55 709.26 628.59 711.08 251.88 416.46 178.54 773.11 379.92 318.58 697.83 345.45 453.88 603.82 772.31 311.81 870.39 95.68 501.02 611.37 327.89 296.38 538.93 675.72 277.56 499.88 771.84 463.74 538.20 576.64 539.31 535.59 329.35 757.65 270.19 754.02 555.83 507.70 376.40 437.84 671.39 735.94 611.94 384.15 748.01 351.47 469.78 224.30 757.63 386.84 234.66 297.75 773.84 653.51 719.22 648.97 600.20 68.04 256.76 360.67 373.58 658.14 369.51 471.06 448.57 194.49 512.09 601.42 278.35 549.77 767.85 589.58 70.23 393.14 426.66 218.31 541.40 649.40 745.96 488.36 456.91 641.78 304.14 368.60 297.08 821.94 636.01 431.53 792.69 318.54 600.33 435.83 173.52 560.57 683.49 595.42 664.54 672.04 263.05 528.48 677.17
915.65 151.56 430.14 444.76 158.29 414.86 504.85 716.81 346.99 651.58 295.52 262.40 866.81 898.06 613.59 739.67 287.09 253.49 591.12 159.09 729.93 396.71 757.80 301.27 293.58 650.52 548.02 360.82 862.94 786.78 78.43 659.68 227.98 181.40 615.10 852.36 299.51 826.95 483.96 410.53 381.17 1024.43 1038.45 335.05 338.04 521.72 1060.06 808.51 562.91 342.86 785.02 908.06 527.54 882.67 710.77 790.99 505.31 830.07 212.23 523.23 193.09 668.54 0.00 953.45 175.99 604.88 505.23 685.69 145.66 763.26 925.10 772.67 256.10 836.60 900.07 882.46 854.09 738.41 126.90 147.68 846.16 640.85 727.20 919.48 57.17 469.99 421.34 161.95 51.09 880.41 319.18 760.20 272.85 556.19 1065.73 1062.90 182.13 840.45 880.83 874.25 315.43 823.37 399.17 601.60 722.37 564.30 321.35 343.09 812.48 426.59 720.18 872.15 810.76 294.51 889.34 473.99 476.07 478.15 319.46 304.56 554.18 868.40 629.83 744.49 533.70 997.44 670.00 738.22 225.78 405.02 514.16 572.00 742.23 678.50 362.03 473.45 702.47 735.82 557.94 357.60 875.76 500.10 251.65 169.10 817.51 211.63 676.60 852.28 650.08 784.20 843.29 222.02 350.04 385.31 617.00 303.52 878.03 784.09 1118.71 358.32 1039.07 932.08 55.89 685.63 513.02 438.91
768.97 1067.32 591.49 770.03 905.74 633.92 519.19 572.03 818.79 921.47 831.02 956.10 394.62 294.51 377.92 795.17 974.03 699.96 745.38 973.23 314.88 673.45 308.64 875.69 972.95 504.62 564.63 618.24 616.38 640.14 950.00 479.47 849.75 851.50 358.94 452.35 773.16 198.44 604.56 967.96 873.76 70.98 381.61 826.23 874.28 464.56 331.15 287.07 961.53 643.42 267.49 619.13 544.65 669.50 479.85 546.63 553.05 516.50 992.87 629.00 1145.46 567.82 953.45 0.00 1105.77 513.52 722.71 489.54 907.94 760.48 217.73 515.58 1006.56 187.90 555.49 314.07 260.09 962.48 839.40 1074.92 664.31 769.78 529.63 66.80 896.28 556.82 760.50 843.78 1004.54 637.09 915.92 562.91 688.69 951.72 246.23 246.81 822.64 693.81 373.89 333.90 982.08 221.44 931.23 391.99 946.44 594.49 890.55 779.17 217.58 844.89 233.27 870.08 681.36 947.79 233.23 650.70 616.30 789.24 808.12 873.83 674.33 191.67 601.76 395.08 440.34 420.35 514.49 251.31 768.69 667.19 610.53 869.71 323.95 770.19 935.43 802.04 420.18 511.21 428.34 639.70 455.22 622.40 1016.75 1084.86 974.95 782.84 479.82 705.64 883.68 708.60 513.62 856.69 851.65 943.34 396.50 833.16 158.10 503.94 336.30 834.14 85.62 206.25 977.07 704.03 609.48 753.55
1030.64 85.06 550.83 554.57 307.34 579.16 662.44 759.63 456.80 667.96 429.10 353.05 1007.50 1038.54 770.45 849.75 380.04 429.48 693.55 278.71 905.92 563.59 912.65 372.23 322.84 770.14 685.63 536.81 996.04 947.10 228.59 769.49 378.14 341.72 746.83 956.57 447.31 953.70 621.57 497.82 482.12 1138.88 1183.50 472.71 488.21 697.71 1179.70 948.02 597.23 518.85 941.88 1020.88 648.23 992.70 859.91 873.65 667.16 933.78 255.05 636.05 166.08 810.69 175.99 1105.77 0.00 752.27 611.61 775.74 266.83 845.42 1053.46 936.37 284.36 993.54 1076.06 1031.60 1026.35 789.30 302.89 67.40 956.19 781.97 872.78 1047.10 233.16 600.68 543.07 271.76 163.99 921.94 386.53 900.76 426.85 639.61 1192.48 1175.68 303.86 995.48 1029.97 1010.94 361.52 999.36 428.43 757.15 805.34 695.94 383.59 455.91 986.73 530.87 872.50 922.84 913.81 337.33 1022.93 595.91 626.49 579.10 439.80 430.18 676.73 998.47 793.93 890.24 665.43 1150.68 762.02 885.08 363.39 569.99 636.08 639.35 882.71 792.17 418.71 546.54 856.12 880.92 726.71 522.57 1029.00 634.48 266.15 102.60 895.74 375.33 796.69 995.03 705.75 924.72 924.71 359.39 447.01 446.24 748.73 445.65 955.80 911.21 1250.44 477.66 1177.65 1091.93 176.54 807.31 647.40 522.75
861.88 713.13 201.44 312.19 541.88 332.96 218.23 506.71 361.11 493.04 423.10 512.56 568.01 546.29 201.51 447.04 540.28 351.39 686.95 583.24 383.50 265.92 358.33 624.61 521.77 476.45 104.82 244.06 381.57 436.35 589.48 104.55 459.76 495.96 191.77 604.77 455.19 354.92 168.88 573.65 581.76 584.50 498.24 544.93 433.04 241.81 514.76 462.08 553.48 284.55 363.96 733.53 104.04 434.69 512.46 609.92 126.64 548.30 586.60 494.51 770.75 202.55 604.88 513.52 752.27 0.00 533.67 463.26 582.39 378.20 442.36 283.63 630.47 395.89 437.29 580.05 406.54 566.62 492.22 684.87 460.15 768.77 245.88 489.41 547.71 206.20 352.45 507.75 620.60 439.46 458.08 607.75 370.75 566.34 522.90 580.30 500.62 490.02 633.90 311.18 682.93 440.50 555.72 238.49 564.16 523.85 626.77 455.09 352.08 591.16 280.25 553.34 408.59 633.60 400.57 192.86 175.69 635.12 559.64 589.38 547.35 485.53 134.51 209.99 226.72 457.23 493.81 298.29 427.06 317.23 152.69 504.80 424.55 406.98 533.69 565.30 438.07 232.13 211.33 269.81 337.02 375.87 599.46 695.59 579.40 420.32 503.87 501.85 472.41 429.25 636.02 483.56 424.53 635.84 154.21 463.27 444.88 310.74 655.92 526.64 551.43 532.26 630.24 347.76 386.81 516.34
419.03 529.52 422.42 677.93 375.34 250.45 335.20 290.02 604.69 904.35 567.62 654.76 456.19 551.82 459.70 903.72 671.23 416.83 205.73 387.30 489.02 435.30 552.58 261.78 670.74 253.22 592.69 363.86 821.93 928.09 456.72 638.22 308.00 540.70 467.02 433.10 298.21 645.50 564.91 734.28 174.17 715.50 887.96 207.78 614.96 387.68 927.55 470.77 814.38 322.85 631.13 490.94 499.95 875.05 386.37 402.90 562.26 464.17 356.56 161.16 610.54 709.26 505.23 722.71 611.61 533.67 0.00 305.46 390.90 880.42 764.13 817.30 372.37 648.79 920.02 536.74 714.63 993.19 451.84 567.95 900.51 245.68 765.42 706.03 476.46 424.53 694.54 505.15 491.82 922.74 676.90 368.17 436.19 878.27 785.47 866.63 537.25 980.76 541.07 725.21 323.61 576.07 755.36 467.56 984.55 163.35 247.26 190.54 676.24 135.60 527.75 1041.21 886.87 274.28 735.45 560.55 447.83 101.45 227.82 200.67 120.67 531.04 641.22 649.01 418.31 846.95 269.05 545.79 479.21 260.69 550.47 916.89 463.34 785.49 713.29 99.17 399.59 734.59 423.90 308.11 857.06 203.56 683.85 511.98 1067.76 465.06 303.72 993.59 898.98 918.45 385.43 308.72 596.35 266.47 501.61 279.17 704.70 812.73 924.80 172.42 719.69 624.50 486.19 808.53 216.48 91.83
498.27 749.68 408.85 639.14 527.40 275.74 245.03 136.13 638.80 902.44 643.83 774.11 231.76 279.29 355.41 814.50 748.84 506.31 323.65 616.45 183.56 436.98 247.12 477.94 774.32 125.02 502.52 404.59 699.99 852.59 621.02 527.19 519.60 630.04 331.79 185.34 453.61 382.86 540.06 870.31 393.44 474.01 672.34 426.32 673.00 308.33 687.62 232.09 865.56 391.83 422.29 364.86 419.03 753.11 84.17 192.87 505.12 203.47 595.12 201.46 812.94 628.59 685.69 489.54 775.74 463.26 305.46 0.00 567.91 767.77 521.06 675.96 615.14 423.83 680.09 255.86 466.04 851.90 563.70 708.34 778.57 406.21 620.26 468.67 628.52 359.00 679.40 638.76 715.59 812.82 754.40 189.52 517.19 912.05 621.64 627.95 633.43 882.36 254.23 485.28 554.15 277.00 815.62 317.12 867.94 173.34 493.72 381.60 411.58 441.06 323.90 932.85 796.70 550.30 489.09 489.18 436.90 389.40 474.76 470.05 184.79 312.29 597.77 449.63 267.92 631.33 67.64 305.86 540.25 337.56 529.35 901.81 165.59 807.03 793.60 380.35 129.04 627.90 273.46 384.98 667.54 232.92 788.31 758.92 963.08 554.40 58.09 876.38 867.63 811.60 260.14 516.95 682.41 515.08 351.22 478.55 450.57 652.82 698.54 419.36 414.23 385.71 637.67 691.55 220.00 338.77
809.93 181.77 449.82 501.02 40.51 312.33 427.06 619.80 403.25 668.85 335.44 321.67 781.35 847.20 588.71 779.59 376.48 273.17 445.46 67.96 689.06 413.55 701.20 155.61 388.54 548.31 580.60 368.06 874.62 858.53 87.41 686.94 122.63 253.15 567.48 750.06 181.73 802.07 516.54 539.19 289.05 977.07 949.84 256.09 399.62 465.12 1041.32 738.07 618.55 355.43 760.14 790.28 515.02 915.25 652.08 685.64 561.57 749.17 121.78 405.45 245.03 711.08 145.66 907.94 266.83 582.39 390.90 567.91 0.00 785.55 917.02 828.93 165.65 784.48 981.93 823.77 851.10 800.85 183.16 204.43 878.74 533.88 767.75 862.88 113.43 465.21 477.60 218.21 173.21 912.99 383.69 654.85 292.53 645.58 1040.85 991.62 238.39 911.22 812.81 869.55 197.65 782.50 481.33 545.00 794.12 462.00 189.95 225.31 820.57 337.80 674.67 940.79 867.02 158.14 837.02 476.42 495.75 374.20 217.60 216.72 445.83 792.99 649.51 740.87 505.53 908.83 563.23 692.71 258.36 327.45 516.59 636.51 696.88 746.67 460.08 367.35 600.65 755.50 501.34 340.69 919.41 397.57 373.77 199.31 889.26 267.89 567.85 909.82 706.64 840.46 733.54 117.32 400.52 253.91 581.15 183.23 840.39 823.94 1082.86 253.62 973.93 879.25 95.29 741.89 410.49 299.07
1240.08 824.77 559.93 345.83 802.92 683.36 568.63 884.91 416.27 201.72 499.77 589.45 931.13 877.10 575.39 68.84 579.78 512.38 987.94 840.76 693.61 588.46 695.68 820.67 522.58 765.90 368.43 619.71 305.29 152.69 762.42 356.33 720.80 628.38 569.97 930.63 716.27 612.29 430.13 498.94 939.20 802.67 524.60 838.45 473.88 540.26 637.96 772.19 377.29 662.75 502.76 1083.93 482.24 264.58 851.94 954.69 420.09 926.50 883.91 824.62 905.79 251.88 763.26 760.48 845.42 378.20 880.42 767.77 785.55 0.00 602.65 308.00 906.80 582.35 385.96 890.16 533.32 202.00 682.45 823.47 265.96 1076.36 284.89 693.68 706.09 528.21 386.09 601.31 726.88 276.67 515.84 942.11 531.74 344.64 781.90 690.79 625.30 154.99 949.98 487.26 913.75 785.61 468.78 591.57 185.96 816.36 855.01 815.59 563.19 951.66 581.25 230.04 157.01 894.64 550.76 452.35 514.68 939.86 849.12 881.78 897.75 797.82 308.55 473.85 499.85 552.08 834.11 589.65 583.45 681.13 423.92 307.42 787.67 94.93 426.71 943.50 791.59 249.27 563.58 648.01 389.09 676.86 641.02 807.23 248.62 569.30 825.86 149.61 185.54 84.23 1014.22 744.60 518.99 918.97 532.41 747.93 638.26 280.05 730.48 873.81 774.46 825.45 788.88 95.30 689.78 866.74
846.42 1039.11 546.53 620.34 883.89 626.91 512.18 651.02 721.53 767.96 777.82 913.71 557.23 394.60 328.31 641.16 904.81 698.08 821.91 928.72 337.50 616.27 337.52 896.25 867.31 510.91 547.18 605.85 453.65 586.88 912.93 384.51 805.24 806.71 351.93 556.76 763.30 172.88 521.03 881.80 882.11 280.74 278.39 821.21 792.32 451.90 238.10 395.09 861.63 582.24 161.97 761.52 487.24 506.77 550.06 654.24 523.77 613.38 966.44 653.77 1118.19 416.46 925.10 217.73 1053.46 442.36 764.13 521.06 917.02 602.65 0.00 370.84 940.73 143.39 410.75 486.90 71.01 804.65 829.43 1029.96 519.57 853.91 416.49 150.93 872.96 496.68 660.60 832.62 976.19 537.16 803.62 671.53 678.72 885.32 188.65 170.94 812.67 588.68 473.19 210.89 964.72 362.08 871.92 396.96 788.61 600.78 912.95 763.02 117.65 869.51 257.89 730.34 562.68 943.89 88.49 538.40 558.89 795.53 837.00 894.43 686.11 325.92 457.02 244.07 433.33 237.38 579.12 275.93 758.72 617.58 557.01 803.31 431.56 616.68 892.75 826.66 451.87 415.46 426.97 596.98 310.48 584.45 972.58 1021.57 768.66 772.87 577.84 609.95 730.17 518.42 693.77 807.08 795.75 944.81 375.48 775.59 97.66 347.26 249.22 850.02 303.35 358.12 964.98 594.56 571.53 771.02
1087.09 879.60 444.59 434.66 813.28 597.83 501.86 755.95 535.85 448.65 592.14 697.80 749.71 614.18 427.27 361.85 700.56 587.86 888.94 864.70 562.82 488.82 505.44 852.87 678.22 689.60 333.73 517.51 135.38 216.75 776.71 179.08 743.39 636.68 404.92 750.50 711.84 436.07 335.35 676.85 852.55 586.56 323.52 803.74 556.13 450.62 353.64 610.25 638.59 568.18 339.91 937.50 387.67 171.41 686.23 793.24 304.75 785.64 870.23 699.40 960.62 178.54 772.67 515.58 936.37 283.63 817.30 675.96 828.93 308.00 370.84 0.00 908.35 395.10 153.71 692.30 323.74 492.21 697.86 871.76 207.92 945.02 82.86 448.78 715.50 489.83 474.92 664.61 775.17 187.48 614.53 759.22 596.87 570.28 551.29 517.50 641.34 270.42 752.12 248.38 921.76 534.85 686.24 449.66 476.17 725.29 868.51 738.72 352.93 868.79 379.22 376.81 243.37 889.87 282.35 390.85 429.99 897.74 823.78 831.12 723.60 489.82 224.47 231.14 438.35 282.51 684.05 374.91 575.19 600.86 362.23 531.69 644.28 297.37 703.66 848.93 628.24 118.48 455.39 553.44 103.09 634.74 784.70 862.06 519.29 561.04 649.38 282.25 410.86 285.21 846.00 767.19 596.18 877.58 393.17 732.57 415.25 27.95 527.30 768.38 601.20 583.28 822.60 275.25 621.82 799.97
790.08 199.30 522.33 610.63 156.05 427.87 542.60 548.45 524.91 780.98 479.23 434.73 782.50 838.44 644.46 923.38 489.54 394.42 493.95 100.42 700.75 470.06 704.25 137.20 501.60 572.44 643.38 416.43 990.16 999.62 199.54 735.02 189.49 396.89 668.08 765.75 297.27 857.82 627.70 619.83 248.31 1002.98 1041.57 237.68 508.29 577.15 1015.57 723.80 699.12 460.15 815.89 819.04 526.43 1023.42 699.31 662.47 603.60 722.60 43.87 464.41 280.32 773.11 256.10 1006.56 284.36 630.47 372.37 615.14 165.65 906.80 940.73 908.35 0.00 851.34 1062.06 849.20 906.85 850.58 252.40 237.73 989.90 560.11 825.49 972.44 257.17 525.60 570.37 339.87 223.42 1009.82 534.67 680.82 375.06 758.64 1096.60 1077.64 355.16 1004.74 866.89 935.86 86.83 794.19 574.58 657.03 866.62 482.57 171.54 316.49 876.32 293.73 789.11 1015.97 923.72 126.15 920.21 591.96 551.70 345.29 204.77 171.70 446.98 818.52 744.80 811.31 594.33 1000.56 588.27 771.07 369.52 442.99 632.13 770.29 682.61 861.53 572.21 335.36 586.38 802.49 613.37 445.41 967.49 449.00 421.12 181.76 961.76 383.67 622.94 1018.69 818.77 933.98 713.53 165.69 481.09 183.16 674.58 251.95 907.25 921.62 1176.29 234.44 985.61 864.98 200.21 813.93 461.92 315.03
783.57 951.75 479.26 636.04 743.97 521.69 406.96 553.71 663.75 743.34 718.79 843.87 418.05 324.06 251.02 639.08 861.80 583.11 712.70 785.33 240.27 561.22 224.47 761.53 856.80 469.25 452.40 506.01 483.45 559.21 811.40 368.06 661.85 739.27 246.71 446.94 660.93 40.97 491.20 833.27 774.09 238.99 325.55 720.36 730.54 359.64 381.49 251.70 827.83 537.40 79.59 663.22 432.42 536.57 452.83 545.22 440.82 469.99 823.05 583.01 1028.61 379.92 836.60 187.90 993.54 395.89 648.79 423.83 784.48 582.35 143.39 395.10 851.34 0.00 435.01 370.34 104.15 784.35 727.17 958.20 517.08 801.12 368.70 121.10 779.43 444.59 648.27 722.91 887.69 482.83 793.11 553.43 576.46 802.94 279.75 226.30 710.41 598.52 425.70 196.48 867.92 218.69 819.00 279.76 768.31 523.12 776.39 666.94 63.32 732.66 121.04 737.39 530.81 833.63 112.75 527.89 504.07 703.49 693.96 759.67 608.45 240.37 439.07 233.56 328.11 284.54 481.81 139.08 656.46 540.29 498.30 720.93 322.54 592.06 823.20 689.81 354.64 333.08 323.42 538.79 334.74 507.16 904.52 934.21 818.86 670.61 447.14 623.73 705.55 603.59 557.71 685.65 739.42 840.35 284.27 719.78 55.91 383.46 368.75 734.47 273.52 299.51 863.45 516.13 494.24 653.88
1097.96 1033.31 598.30 574.70 966.99 703.72 588.99 816.22 675.89 587.68 745.85 851.51 775.92 679.61 481.90 424.47 854.27 708.76 1003.74 1018.41 568.32 607.02 504.76 978.57 831.93 699.95 473.77 670.06 153.19 305.79 930.42 332.79 897.05 790.39 505.52 803.46 865.55 475.98 489.06 802.26 984.10 626.47 224.20 907.31 709.84 567.63 253.83 609.57 751.06 721.84 375.59 961.47 541.33 175.42 752.49 792.56 458.46 819.79 1023.89 842.81 1093.16 318.58 900.07 555.49 1076.06 437.29 920.02 680.09 981.93 385.96 410.75 153.71 1062.06 435.01 0.00 734.42 353.07 582.02 851.57 1025.47 211.93 1065.70 236.57 488.69 869.21 642.46 614.96 818.32 928.88 179.20 768.24 787.37 728.12 723.99 453.56 459.08 795.05 356.06 781.36 282.53 1052.77 573.82 807.36 550.55 571.92 789.82 980.85 799.28 405.59 935.35 392.27 493.56 282.99 1039.32 322.26 544.56 583.70 974.72 911.00 956.94 864.88 615.82 378.18 275.18 554.51 217.62 747.73 374.23 728.90 740.82 513.07 682.61 662.38 451.08 765.29 924.96 669.56 272.19 531.41 707.10 100.27 738.04 938.41 1015.77 604.25 714.75 738.18 347.07 564.57 301.73 861.97 920.80 749.89 1018.38 471.21 886.28 455.16 181.66 446.73 909.18 641.11 638.61 955.96 413.55 725.12 887.10
480.85 981.51 597.33 825.48 783.26 518.96 458.55 332.48 797.70 1005.82 826.75 952.33 80.55 92.30 450.29 959.00 958.65 693.87 533.07 787.86 196.55 650.50 260.11 723.83 957.03 296.43 653.84 606.97 779.97 909.05 870.89 599.46 745.82 812.75 426.67 138.60 666.57 329.37 643.44 977.10 624.72 346.87 668.59 639.28 847.41 457.67 620.79 164.69 1029.26 539.60 449.93 348.15 522.41 833.09 171.69 238.41 608.50 207.00 837.06 429.91 1062.53 697.83 882.46 314.07 1031.60 580.05 536.74 255.86 823.77 890.16 486.90 692.30 849.20 370.34 734.42 0.00 442.41 1062.26 806.92 964.20 858.55 511.55 674.59 377.47 864.07 572.52 828.23 777.54 933.55 843.27 941.52 248.84 684.66 1070.05 458.01 540.66 809.64 960.08 59.82 539.61 785.43 198.09 1004.49 416.31 1066.23 386.30 718.53 610.05 427.36 607.67 378.23 1069.11 838.62 769.69 474.95 682.20 594.06 581.05 673.80 681.14 416.07 202.48 714.56 500.94 447.28 654.88 293.86 360.19 764.66 560.27 665.98 1017.12 166.59 899.87 996.24 606.57 262.82 640.89 421.45 551.22 674.23 441.52 977.57 990.20 1094.49 778.81 267.51 966.43 1013.36 890.56 270.02 726.75 888.31 719.30 462.81 680.24 389.24 704.13 511.55 618.40 287.09 240.28 893.53 846.76 428.60 570.05
856.68 968.10 475.52 601.57 817.97 560.99 446.26 602.17 650.69 732.80 734.19 882.33 522.20 428.21 262.39 602.16 875.82 627.07 774.81 875.66 344.42 557.48 285.31 830.33 826.04 553.61 500.64 534.84 428.78 540.49 845.64 337.41 764.96 759.61 286.01 518.83 697.05 145.12 492.04 844.64 816.19 327.46 226.18 755.29 722.63 385.98 297.20 355.85 839.20 511.23 90.96 742.02 457.84 481.90 547.10 617.64 452.76 574.14 927.20 631.20 1047.18 345.45 854.09 260.09 1026.35 406.54 714.63 466.04 851.10 533.32 71.01 323.74 906.85 104.15 353.07 442.41 0.00 735.32 758.42 958.95 472.47 863.23 369.39 193.29 809.77 425.67 641.83 762.80 905.18 473.97 774.63 622.52 607.71 814.31 248.58 241.95 741.66 517.67 502.23 163.79 898.80 322.84 853.15 331.04 719.28 627.27 849.76 697.10 54.46 798.50 186.88 700.55 527.52 877.97 41.39 509.41 503.57 769.33 777.07 828.51 650.83 298.14 409.92 215.08 367.41 222.49 533.68 204.92 687.71 551.66 496.60 732.30 426.69 581.52 848.62 755.65 455.81 344.45 361.05 525.97 263.38 518.53 925.48 950.56 781.94 701.86 524.13 542.88 695.01 568.24 661.86 741.16 751.36 878.89 309.69 719.43 144.38 312.10 309.98 782.80 345.71 391.60 897.69 550.32 505.61 705.10
1350.17 838.48 632.96 330.08 797.85 761.00 724.19 988.03 431.27 132.00 470.33 533.33 1072.59 975.82 611.97 202.30 502.61 621.12 1100.71 812.56 865.71 565.29 802.15 931.55 466.46 920.27 531.57 645.54 459.72 344.64 713.44 535.18 766.70 557.01 635.59 1037.24 796.76 814.29 493.85 413.70 956.09 990.33 726.60 889.68 478.44 657.32 777.06 915.54 343.23 707.22 704.76 1205.26 602.17 406.60 936.07 1044.77 516.08 1055.37 893.26 918.89 890.08 453.88 738.41 962.48 789.30 566.62 993.19 851.90 800.85 202.00 804.65 492.21 850.58 784.35 582.02 1062.26 735.32 0.00 661.48 816.18 431.70 1170.53 468.68 895.68 696.73 659.56 370.34 610.16 744.64 421.63 490.52 1041.42 616.71 274.92 977.53 892.79 578.06 290.97 1061.37 674.28 937.41 870.03 486.10 665.96 16.04 937.61 926.07 843.60 765.19 979.67 756.62 165.39 299.03 940.54 741.90 489.45 602.89 1052.63 870.10 879.48 976.87 915.06 432.11 640.96 697.73 743.95 919.54 738.58 580.04 739.90 489.58 237.70 959.77 207.70 479.66 1007.72 899.96 451.27 688.38 692.48 591.09 789.63 620.23 836.69 111.18 594.19 909.99 293.57 94.21 286.23 1110.40 790.50 505.49 969.57 619.66 812.54 807.25 477.12 872.50 925.04 976.46 978.74 765.49 287.17 802.55 949.92
870.87 278.46 321.94 387.59 170.85 287.96 400.18 614.80 325.26 577.57 270.77 310.62 783.39 806.37 511.82 714.92 318.22 170.07 582.62 166.84 638.82 287.45 643.73 286.34 303.59 543.69 483.30 248.16 793.47 764.69 130.94 589.58 190.49 159.31 488.20 741.88 173.55 725.18 419.24 428.23 386.93 910.38 925.47 320.30 273.80 447.21 997.38 689.39 446.72 318.65 683.25 836.92 419.34 810.40 643.03 693.37 440.59 742.18 283.03 506.87 319.99 603.82 126.90 839.40 302.89 492.22 451.84 563.70 183.16 682.45 829.43 697.86 252.40 727.17 851.57 806.92 758.42 661.48 0.00 238.95 781.44 640.47 615.00 812.73 69.73 357.33 347.33 140.22 167.42 815.69 293.94 658.64 150.71 515.03 963.96 953.47 108.12 793.75 795.40 764.99 291.92 732.26 388.34 498.52 645.44 453.82 288.71 326.73 737.31 435.10 606.13 801.82 736.75 316.39 769.55 377.38 355.25 425.65 247.36 313.07 498.85 777.29 546.41 643.04 406.80 884.46 559.52 624.17 161.06 319.27 417.55 546.76 688.54 638.49 349.12 462.40 596.35 650.62 470.53 303.91 794.20 373.20 309.34 294.71 740.58 146.91 594.19 807.70 591.97 722.99 742.20 166.69 228.69 352.67 490.10 229.78 771.17 711.13 991.81 302.76 925.02 840.97 176.83 602.94 386.12 383.35
968.90 73.51 483.43 562.58 244.94 516.76 595.04 770.06 468.59 725.59 423.10 307.90 940.10 987.63 722.45 814.88 313.57 375.09 649.89 228.33 857.04 518.31 859.17 345.98 370.77 711.51 629.86 482.42 960.49 923.87 161.19 781.28 310.74 318.49 715.98 893.68 385.53 935.81 565.80 482.08 446.75 1130.20 1126.09 446.46 468.30 648.77 1191.49 910.64 634.46 469.91 893.88 953.48 580.83 989.10 792.51 839.24 611.74 911.81 265.48 568.65 125.89 772.31 147.68 1074.92 67.40 684.87 567.95 708.34 204.43 823.47 1029.96 871.76 237.73 958.20 1025.47 964.20 958.95 816.18 238.95 0.00 952.59 718.63 833.63 1020.85 178.77 533.28 535.45 283.55 96.59 986.84 414.76 833.36 389.66 582.67 1174.59 1163.07 303.73 966.82 962.57 943.54 324.56 950.48 476.36 702.97 832.22 628.54 346.47 388.51 934.08 495.50 841.65 887.97 932.36 347.76 955.53 595.59 559.09 543.73 386.72 393.06 624.15 951.84 738.37 842.76 645.75 1089.59 734.24 849.06 332.21 502.59 586.69 643.46 839.80 768.27 445.59 537.84 795.67 842.54 659.31 455.17 973.20 567.08 231.28 55.97 927.36 318.06 731.05 941.61 763.38 905.80 896.74 291.99 433.57 410.43 728.98 378.25 947.12 843.81 1218.03 415.99 1122.57 1044.31 109.14 792.06 580.00 476.12
1211.72 955.31 597.54 487.31 858.47 720.86 606.13 914.70 549.90 465.57 633.40 724.33 854.39 807.70 584.11 229.40 758.52 673.58 1064.51 942.71 662.00 616.53 662.85 953.22 721.02 849.33 467.00 653.10 78.58 143.22 850.20 367.70 860.29 710.17 564.65 891.15 844.79 550.66 492.76 661.55 961.37 713.79 414.68 912.56 638.47 600.49 465.76 740.58 555.99 687.19 495.07 1048.77 517.64 36.51 862.74 933.61 464.48 898.14 970.65 856.81 1036.33 311.81 846.16 664.31 956.19 460.15 900.51 778.57 878.74 265.96 519.57 207.92 989.90 517.08 211.93 858.55 472.47 431.70 781.44 952.59 0.00 1119.92 242.59 597.51 788.99 574.56 527.57 718.89 885.99 34.25 657.33 918.95 692.94 608.49 665.49 630.00 713.56 144.13 918.37 360.88 1015.61 715.02 734.74 623.26 415.66 882.45 968.08 878.54 453.76 991.82 538.95 281.63 144.08 1017.27 431.08 453.08 589.03 1001.96 885.65 939.94 912.22 670.64 325.64 388.55 601.10 422.36 846.21 532.32 620.38 706.17 481.66 554.04 710.93 347.63 692.67 999.68 772.81 241.58 636.71 699.08 269.26 753.43 811.23 972.85 409.18 634.53 836.66 169.34 427.78 181.73 985.86 884.09 593.36 986.40 538.98 853.09 544.55 185.36 622.13 877.20 749.93 764.10 875.04 236.55 766.35 896.11
433.64 696.91 643.98 874.10 548.51 484.74 550.54 326.72 823.86 1091.02 740.36 844.82 431.00 560.74 639.25 1099.66 862.04 652.57 88.42 524.74 565.82 633.00 629.38 445.24 832.83 376.23 800.70 552.75 1055.06 1130.34 562.42 765.94 522.58 720.44 642.59 417.12 507.59 765.12 750.58 976.94 311.80 758.89 1015.94 350.74 804.54 583.40 1073.23 549.42 985.58 544.41 799.82 324.06 699.21 1083.41 353.26 273.14 765.51 348.36 538.50 296.37 777.93 870.39 640.85 769.78 781.97 768.77 245.68 406.21 533.88 1076.36 853.91 945.02 560.11 801.12 1065.70 511.55 863.23 1170.53 640.47 718.63 1119.92 0.00 893.00 702.98 623.63 597.05 903.48 695.21 681.88 1101.34 858.22 307.87 633.21 1053.89 926.45 882.99 723.83 1184.01 476.14 849.90 481.25 618.67 932.46 609.44 1179.59 306.75 412.08 428.16 817.79 292.09 709.51 1234.67 1069.98 456.22 821.84 752.77 643.55 214.82 417.88 388.41 221.42 663.70 886.90 835.24 614.25 974.93 349.89 691.47 630.65 506.37 714.60 1092.48 487.75 981.43 915.20 247.01 506.92 927.39 565.78 529.67 998.94 399.50 826.81 702.58 1263.70 644.80 353.98 1174.53 1076.32 1126.46 302.66 498.78 772.81 384.92 679.24 441.26 794.28 967.82 979.99 362.48 783.54 662.91 614.47 1023.87 412.20 337.51
1016.49 817.65 361.73 351.80 747.48 514.97 435.01 744.52 452.99 412.26 530.19 614.94 715.58 606.51 345.68 331.51 647.23 517.95 851.19 781.84 479.96 443.69 444.93 770.01 641.79 606.74 250.87 434.65 201.16 259.67 723.17 141.33 705.64 591.21 322.06 716.98 628.98 409.67 273.40 613.26 769.69 558.51 318.91 720.88 473.27 394.53 382.38 549.74 593.09 490.78 289.11 854.64 307.98 224.84 656.58 711.09 221.89 742.86 790.54 666.64 898.67 95.68 727.20 529.63 872.78 245.88 765.42 620.26 767.75 284.89 416.49 82.86 825.49 368.70 236.57 674.59 369.39 468.68 615.00 833.63 242.59 893.00 0.00 472.70 670.03 410.14 392.06 607.90 771.40 208.34 582.79 676.36 537.31 533.89 512.05 474.72 595.87 313.34 729.46 205.60 838.90 500.72 603.38 412.15 470.85 696.61 785.65 661.32 338.76 785.93 296.36 459.67 183.77 807.01 328.00 319.54 347.13 841.65 740.92 748.26 685.85 545.09 141.61 198.39 400.60 277.90 672.62 314.40 509.39 522.14 279.37 495.30 574.02 260.98 628.57 799.37 573.65 35.62 402.28 476.04 185.95 578.65 701.84 800.11 511.29 515.57 673.67 313.57 374.47 256.55 763.14 685.39 513.32 794.72 333.02 649.71 389.27 96.13 575.28 685.52 560.81 609.43 756.92 241.49 565.73 733.12
799.82 1026.69 537.42 755.00 859.98 610.34 495.61 580.70 784.85 854.67 812.22 900.41 433.01 312.05 347.85 756.06 955.22 671.90 739.69 906.43 285.11 619.38 299.98 845.13 964.58 496.24 573.50 564.57 549.58 573.34 911.03 462.45 782.95 835.86 367.81 435.67 718.76 134.49 604.34 954.37 853.06 137.78 314.81 817.57 845.80 397.76 385.26 278.69 930.51 576.62 200.69 685.93 535.53 602.70 497.67 571.75 561.92 513.21 944.15 636.53 1107.71 501.02 919.48 66.80 1047.10 489.41 706.03 468.67 862.88 693.68 150.93 448.78 972.44 121.10 488.69 377.47 193.29 895.68 812.73 1020.85 597.51 702.98 472.70 0.00 868.22 505.14 769.37 811.33 970.57 572.87 900.89 596.08 691.26 924.04 270.78 180.01 779.23 627.01 437.29 267.10 950.22 218.15 921.68 351.36 879.64 586.11 842.42 760.45 153.36 826.97 242.14 803.28 614.56 900.89 166.43 635.67 550.54 780.86 777.56 843.27 653.46 174.99 534.96 354.66 425.27 353.55 508.80 233.39 771.26 611.01 595.50 842.03 349.07 703.39 931.03 784.12 399.48 444.41 361.54 591.36 388.42 581.88 987.31 1044.23 919.59 785.41 474.13 638.84 816.88 641.80 580.42 806.75 860.52 906.38 392.10 784.82 91.30 437.14 322.46 813.44 152.42 268.45 958.17 637.23 568.96 732.85
895.49 208.73 372.97 387.59 101.12 357.69 463.21 668.11 289.82 594.41 264.19 240.89 809.64 864.23 556.42 687.81 295.70 196.32 558.89 160.33 703.79 339.54 713.46 269.04 284.00 597.00 490.85 303.65 819.72 745.10 61.21 602.51 175.08 139.72 557.93 795.19 242.34 769.78 426.79 440.02 349.99 967.26 988.94 323.49 296.36 503.33 1012.72 759.12 510.90 324.47 727.85 850.89 470.37 825.50 692.38 738.09 448.14 809.54 213.30 466.06 250.26 611.37 57.17 896.28 233.16 547.71 476.46 628.52 113.43 706.09 872.96 715.50 257.17 779.43 869.21 864.07 809.77 696.73 69.73 178.77 788.99 623.63 670.03 868.22 0.00 412.82 364.17 104.78 108.26 823.24 277.50 707.30 215.68 559.67 1008.56 1005.73 124.96 797.79 862.44 817.08 258.26 797.23 375.14 568.25 680.69 507.13 291.93 285.92 755.31 398.74 663.01 837.07 753.59 271.57 832.17 416.82 418.90 434.81 279.10 296.29 510.09 842.26 572.66 698.53 476.53 947.93 612.83 681.05 168.61 365.07 456.99 530.32 715.73 633.24 360.91 456.23 662.52 678.65 539.55 339.21 818.59 442.93 293.17 224.98 775.83 154.46 628.46 810.60 608.81 727.03 794.08 177.93 292.87 354.59 559.83 246.35 820.86 726.92 1061.54 314.23 981.90 905.94 107.10 628.46 455.85 392.24
813.74 600.12 49.85 329.48 424.70 225.66 113.97 458.60 335.21 585.57 338.66 484.30 590.76 541.85 221.50 597.05 486.80 216.50 540.97 494.41 375.97 131.81 336.30 455.59 488.08 410.33 233.59 109.17 568.81 619.53 444.19 310.75 383.71 380.12 197.88 530.13 309.56 422.29 223.19 511.31 428.37 596.92 597.32 355.11 390.58 161.84 688.80 424.87 541.34 139.26 392.93 629.27 102.16 599.15 443.17 508.34 188.25 562.47 536.88 384.78 659.17 327.89 469.99 556.82 600.68 206.20 424.53 359.00 465.21 528.21 496.68 489.83 525.60 444.59 642.46 572.52 425.67 659.56 357.33 533.28 574.56 597.05 410.14 505.14 412.82 0.00 369.74 369.51 521.08 585.55 435.33 543.07 235.86 579.65 661.07 629.79 337.41 630.11 575.51 410.26 539.48 446.29 510.45 180.10 666.77 385.00 464.05 309.80 453.36 445.87 323.55 682.11 552.19 490.15 467.06 170.11 77.90 489.11 414.35 428.33 375.63 477.46 321.75 367.28 202.25 556.31 386.70 336.13 315.86 163.84 210.28 569.98 470.03 501.46 524.46 501.09 413.57 378.22 185.56 124.52 543.22 237.02 545.99 589.25 756.72 304.48 352.03 631.22 565.35 559.35 567.09 359.91 406.12 478.71 200.56 317.98 413.84 501.41 684.75 381.35 642.44 555.00 496.24 506.72 249.94 392.44
1113.57 468.14 364.79 40.26 465.29 444.09 434.37 781.25 124.18 313.92 189.14 281.32 818.02 777.79 425.18 409.39 335.69 325.28 815.06 510.76 631.68 282.89 568.12 608.79 289.82 659.89 267.25 363.14 544.18 485.50 419.72 384.11 476.88 261.90 401.56 756.00 496.91 638.54 235.74 221.20 677.15 831.48 710.97 575.09 169.34 444.03 765.24 681.51 201.03 424.82 596.61 949.67 306.26 491.06 713.11 820.72 257.24 832.41 577.47 669.23 549.16 296.38 421.34 760.50 543.07 352.45 694.54 679.40 477.60 386.09 660.60 474.92 570.37 648.27 614.96 828.23 641.83 370.34 347.33 535.45 527.57 903.48 392.06 769.37 364.17 369.74 0.00 271.31 438.86 561.82 248.99 834.58 326.89 241.82 837.40 800.07 239.21 506.79 834.55 530.95 622.43 683.24 211.32 439.14 379.40 677.31 614.08 591.62 641.90 690.79 527.23 535.73 508.81 635.74 653.35 199.63 335.43 768.06 588.91 634.11 694.47 728.27 323.04 474.75 418.56 669.96 727.57 539.81 272.83 457.50 199.76 307.93 725.74 291.16 253.39 717.90 665.93 366.61 480.25 410.08 514.69 529.33 368.22 485.68 467.50 258.68 692.90 527.81 276.13 436.03 876.37 467.74 150.35 666.92 439.12 519.68 689.62 455.69 856.95 604.04 846.12 791.95 471.27 424.94 533.75 654.87
892.74 296.88 351.10 282.81 205.90 393.65 427.25 674.05 185.04 501.55 159.41 174.79 754.41 766.78 556.03 603.56 224.66 174.45 615.15 239.45 643.20 291.83 673.86 337.48 214.24 617.99 420.75 281.78 724.28 675.34 165.99 497.73 220.23 69.96 532.41 786.01 247.85 681.94 356.69 354.41 416.90 914.76 920.85 352.83 216.45 448.53 907.94 681.79 418.04 269.67 716.86 845.07 426.47 733.61 637.58 746.28 397.25 756.88 318.08 500.45 355.04 538.93 161.95 843.78 271.76 507.75 505.15 638.76 218.21 601.31 832.62 664.61 339.87 722.91 818.32 777.54 762.80 610.16 140.22 283.55 718.89 695.21 607.90 811.33 104.78 369.51 271.31 0.00 192.36 753.14 207.74 732.94 155.09 473.25 920.72 940.44 32.10 729.01 807.64 764.38 363.04 736.64 304.29 528.41 610.93 528.12 366.07 320.31 714.97 456.38 610.51 764.76 660.73 376.35 788.18 394.95 354.82 513.88 345.70 376.24 528.59 781.67 522.17 633.05 451.01 879.84 633.82 628.55 98.51 331.83 392.67 460.56 610.95 533.71 291.15 492.37 629.28 609.16 484.75 284.41 757.24 478.89 200.03 314.42 706.07 103.57 603.41 740.84 515.95 678.58 815.69 196.43 200.01 395.61 534.31 262.31 778.82 664.09 1036.02 332.73 929.40 845.35 211.88 577.57 472.09 413.32
910.85 152.21 481.23 473.46 194.62 455.38 555.94 729.62 377.40 652.57 326.51 211.31 889.49 949.15 664.68 770.66 266.12 304.58 608.29 201.18 781.02 439.17 778.55 292.59 278.18 650.82 597.97 411.91 863.90 837.87 129.52 690.09 227.58 232.49 655.62 856.70 335.84 874.30 533.91 451.36 403.57 1075.52 1044.68 354.76 385.45 572.81 1100.30 856.81 552.57 393.95 836.11 927.95 578.63 912.02 761.86 790.59 555.26 862.04 234.26 559.56 222.48 675.72 51.09 1004.54 163.99 620.60 491.82 715.59 173.21 726.88 976.19 775.17 223.42 887.69 928.88 933.55 905.18 744.64 167.42 96.59 885.99 681.88 771.40 970.57 108.26 521.08 438.86 192.36 0.00 920.24 321.40 759.80 318.13 535.22 1113.08 1113.99 209.74 870.23 931.92 916.71 310.25 874.46 379.89 652.69 760.68 568.64 305.11 379.42 863.57 452.32 771.27 857.25 838.37 316.54 936.97 525.08 510.02 500.55 355.50 351.70 553.97 919.49 680.92 795.58 574.22 1028.06 674.34 789.31 275.73 456.11 555.47 546.87 793.32 724.36 374.05 479.04 733.36 745.95 609.03 408.69 876.61 528.70 200.56 134.67 855.82 261.58 709.01 845.02 690.36 811.11 822.44 231.13 340.34 369.07 657.52 317.39 929.12 747.22 1159.23 319.40 1090.16 983.17 77.92 725.34 529.28 399.99
1204.76 989.56 570.07 521.56 892.72 721.45 606.72 916.23 584.15 464.91 667.65 724.06 820.14 800.25 549.86 263.65 770.77 689.66 1030.26 976.96 651.67 627.24 650.36 941.72 713.57 815.08 432.75 642.99 112.83 141.97 884.45 349.67 880.31 744.42 530.40 856.90 837.32 517.50 481.74 627.30 958.38 695.39 380.43 909.36 644.98 566.24 433.03 730.25 590.24 699.12 460.82 1062.98 483.39 70.76 832.58 899.36 430.23 932.39 965.95 838.35 1070.58 277.56 880.41 637.09 921.94 439.46 922.74 812.82 912.99 276.67 537.16 187.48 1009.82 482.83 179.20 843.27 473.97 421.63 815.69 986.84 34.25 1101.34 208.34 572.87 823.24 585.55 561.82 753.14 920.24 0.00 676.69 884.70 709.02 607.83 632.76 638.28 747.81 178.38 902.23 395.13 1031.58 701.52 706.48 589.01 437.67 848.20 976.06 869.66 419.51 992.41 504.70 315.88 122.60 1015.35 463.08 487.33 555.04 982.18 905.53 956.60 894.19 663.19 313.32 395.56 566.85 396.82 844.33 522.74 654.63 693.85 472.05 561.47 676.68 370.86 703.38 1004.76 738.56 207.33 602.46 684.38 279.47 719.18 810.96 1007.10 443.43 668.78 836.86 180.94 437.47 192.44 968.77 893.73 627.61 1003.06 504.73 818.84 512.31 192.37 625.93 893.86 722.71 746.38 909.29 270.80 732.10 904.83
1086.79 444.94 450.25 274.05 378.62 505.45 509.37 815.31 214.82 358.52 166.10 110.09 922.07 893.81 591.38 543.73 101.19 308.75 769.80 437.83 771.37 372.95 730.11 539.30 63.69 719.70 384.78 410.53 703.26 606.65 338.71 548.87 427.97 137.78 567.76 906.45 452.11 799.85 320.72 164.09 591.69 984.89 845.36 545.78 109.52 522.64 951.51 776.83 306.23 410.93 713.52 986.33 425.01 662.89 778.84 887.54 362.87 898.14 490.80 646.94 512.27 499.88 319.18 915.92 386.53 458.08 676.90 754.40 383.69 515.84 803.62 614.53 534.67 793.11 768.24 941.52 774.63 490.52 293.94 414.76 657.33 858.22 582.79 900.89 277.50 435.33 248.99 207.74 321.40 676.69 0.00 880.40 295.11 308.82 980.98 955.76 194.41 608.95 948.90 686.64 535.76 849.44 97.64 602.52 499.58 694.64 569.28 528.05 747.53 616.47 682.65 617.08 610.97 541.83 809.04 265.22 422.22 657.73 541.30 573.79 706.90 863.30 486.21 559.55 560.32 829.04 779.34 700.69 227.57 443.63 305.39 252.82 790.34 487.14 89.13 690.81 733.27 547.17 558.86 425.67 715.97 572.23 196.99 427.40 579.88 213.42 744.67 625.54 396.31 538.19 956.95 404.17 98.64 603.35 573.16 455.26 826.27 586.58 1052.84 540.47 925.11 956.76 375.07 420.78 559.31 603.16
340.13 836.62 590.63 795.84 614.34 419.25 434.55 141.57 800.70 1007.69 779.65 862.34 192.59 341.14 464.09 1004.02 917.15 638.47 394.97 655.70 334.03 626.50 337.21 543.62 886.90 176.21 692.04 559.87 872.54 936.03 681.77 667.63 532.22 742.62 453.89 163.78 485.09 512.46 691.06 853.18 498.80 520.48 784.15 457.80 821.60 449.16 815.33 317.85 1005.56 489.38 550.00 178.28 586.93 901.20 121.47 34.73 662.24 102.24 646.15 264.71 899.88 771.84 760.20 562.91 900.76 607.75 368.17 189.52 654.85 942.11 671.53 759.22 680.82 553.43 787.37 248.84 622.52 1041.42 658.64 833.36 918.95 307.87 676.36 596.08 707.30 543.07 834.58 732.94 759.80 884.70 880.40 0.00 657.83 1050.99 640.04 713.71 742.79 989.69 251.51 612.99 650.01 377.93 932.36 395.44 1045.36 204.82 554.19 444.85 568.06 461.11 451.61 1122.37 860.13 605.35 651.39 636.47 552.44 439.15 476.05 516.80 290.15 422.96 742.26 577.34 442.26 743.14 166.84 433.57 712.38 469.72 655.08 1047.34 247.01 906.13 894.69 414.60 290.86 711.98 439.10 504.12 795.25 334.01 861.06 833.63 1140.50 698.23 191.04 989.93 1019.62 932.91 86.78 556.02 847.11 563.26 453.54 541.80 577.07 755.86 760.39 454.06 487.89 447.03 733.82 881.07 321.09 432.09
855.22 412.82 196.01 286.63 281.87 249.93 272.16 578.60 227.54 538.86 170.15 287.16 632.68 671.60 402.46 578.76 341.97 19.36 577.13 317.55 488.11 136.74 544.66 385.25 307.09 497.13 359.42 126.69 642.76 679.39 269.40 438.87 248.09 162.81 378.84 678.84 184.53 615.82 295.36 406.12 407.46 759.67 801.34 337.47 185.59 337.85 849.08 566.69 423.78 174.22 561.77 749.62 292.46 691.40 542.13 648.71 332.75 661.43 394.05 459.15 464.86 463.74 272.85 688.69 426.85 370.75 436.19 517.19 292.53 531.74 678.72 596.87 375.06 576.46 728.12 684.66 607.71 616.71 150.71 389.66 692.94 633.21 537.31 691.26 215.68 235.86 326.89 155.09 318.13 709.02 295.11 657.83 0.00 448.90 854.60 802.76 133.95 681.69 712.19 614.28 436.42 581.55 342.67 389.16 625.77 464.80 413.84 283.85 586.60 419.92 455.42 732.18 683.71 421.93 649.10 239.86 220.81 477.49 346.05 410.69 411.79 626.58 395.70 511.83 297.44 760.33 542.63 473.46 80.00 188.11 277.71 530.68 544.11 537.53 340.89 480.10 485.56 501.69 356.28 159.48 643.49 335.17 328.06 430.36 713.87 94.15 507.96 681.35 522.50 610.93 700.90 244.20 222.16 443.38 380.74 246.95 632.37 579.27 882.45 372.83 774.31 690.26 321.45 490.88 336.74 390.17
1297.30 648.29 577.41 282.08 660.79 685.91 676.19 998.88 364.35 142.92 327.49 323.91 1059.84 1019.61 667.00 379.09 269.10 468.26 965.47 667.84 873.50 496.89 809.94 776.95 316.77 893.49 481.99 564.32 574.69 465.86 568.72 621.68 635.47 419.95 643.38 997.82 633.43 836.27 449.63 197.81 805.21 1022.70 836.81 703.15 263.31 684.54 907.26 923.33 68.31 617.76 723.35 1191.49 548.08 588.64 954.93 1062.54 471.13 1074.23 741.89 874.91 686.94 538.20 556.19 951.72 639.61 566.34 878.27 912.05 645.58 344.64 885.32 570.28 758.64 802.94 723.99 1070.05 814.31 274.92 515.03 582.67 608.49 1053.89 533.89 924.04 559.67 579.65 241.82 473.25 535.22 607.83 308.82 1050.99 448.90 0.00 1045.94 1008.61 454.25 491.92 1072.18 739.49 804.21 925.06 211.18 680.96 283.98 894.00 742.61 696.41 783.78 832.42 769.05 440.31 499.10 801.08 813.04 441.45 501.75 902.19 727.26 770.10 860.69 970.09 518.61 708.44 644.13 811.79 961.70 781.63 428.50 637.01 413.65 82.01 944.13 272.91 253.25 885.35 894.66 531.89 707.86 603.02 671.72 746.02 410.81 638.64 370.70 441.39 931.68 494.25 180.71 428.87 1118.19 659.27 286.34 806.57 680.94 655.67 858.85 542.33 1072.57 738.51 995.05 1033.77 590.66 373.67 733.10 790.86
920.23 1196.12 691.16 797.14 1004.68 732.86 618.13 708.46 884.01 924.31 946.00 1035.46 528.97 365.71 452.14 829.23 1063.18 842.39 884.84 1065.08 438.08 767.89 501.64 976.89 1044.67 686.21 627.72 735.06 606.75 759.35 1059.58 564.96 941.60 980.27 475.76 590.99 887.13 238.78 691.78 1058.60 959.64 201.08 328.14 945.04 950.09 575.73 305.18 482.69 1034.80 754.59 335.17 770.39 626.94 628.98 629.70 674.77 649.54 665.01 1094.07 780.82 1236.86 576.64 1065.73 246.23 1192.48 522.90 785.47 621.64 1040.85 781.90 188.65 551.29 1096.60 279.75 453.56 458.01 248.58 977.53 963.96 1174.59 665.49 926.45 512.05 270.78 1008.56 661.07 837.40 920.72 1113.08 632.76 980.98 640.04 854.60 1045.94 0.00 99.93 952.82 733.05 517.83 306.45 1075.94 419.64 1048.72 520.79 967.86 720.93 991.75 886.85 274.74 921.07 400.79 918.41 695.82 1048.99 268.94 715.76 698.59 886.92 909.32 975.03 801.81 385.54 637.47 432.72 557.16 287.13 636.56 387.08 920.64 741.41 675.59 976.51 521.54 773.03 1035.32 884.64 552.45 547.67 550.80 739.91 466.55 708.28 1120.75 1199.14 957.31 934.79 619.28 758.26 886.52 706.49 664.88 930.91 947.43 1051.94 496.39 920.90 262.81 526.88 139.33 957.89 256.19 321.88 1093.89 743.91 695.36 877.30
962.51 1138.47 679.64 759.81 970.27 722.18 607.45 697.87 861.00 886.98 934.20 1045.67 562.21 465.64 471.86 729.30 1055.24 809.41 856.86 1011.63 457.80 746.66 450.77 987.83 1019.45 613.41 678.70 728.12 606.23 675.02 1037.70 548.17 888.15 963.54 468.82 591.10 864.02 258.50 677.41 1021.27 986.86 237.74 296.06 943.80 931.79 543.02 205.25 395.86 1001.10 721.88 305.89 843.53 654.53 620.53 622.60 689.38 667.12 662.10 1049.35 753.70 1219.49 539.31 1062.90 246.81 1175.68 580.30 866.63 627.95 991.62 690.79 170.94 517.50 1077.64 226.30 459.08 540.66 241.95 892.79 953.47 1163.07 630.00 882.99 474.72 180.01 1005.73 629.79 800.07 940.44 1113.99 638.28 955.76 713.71 802.76 1008.61 99.93 0.00 936.71 677.32 597.26 269.12 1094.22 383.21 1011.39 463.14 876.75 703.28 1002.69 889.05 252.18 958.96 347.34 818.48 658.49 1059.93 252.15 694.78 698.54 898.03 920.26 985.97 788.61 338.18 607.35 400.45 550.22 337.07 625.97 365.38 882.76 756.27 676.64 947.23 466.70 735.70 1044.89 916.11 533.28 510.34 506.80 736.62 451.38 727.14 1129.41 1156.01 909.08 896.91 591.30 698.34 849.19 606.56 738.02 911.95 935.22 1054.60 506.38 930.08 219.88 489.55 142.45 947.24 297.26 377.77 1086.91 716.21 714.22 866.65
924.84 278.87 329.96 279.47 226.08 369.07 406.11 666.26 217.14 469.45 171.21 206.89 766.63 798.88 536.41 615.36 210.10 153.31 635.41 271.55 622.06 270.42 673.71 369.58 200.91 605.18 415.42 260.64 738.17 662.01 180.51 529.83 252.33 56.63 512.79 794.06 257.70 714.04 351.36 350.46 449.00 893.62 914.78 384.93 213.02 456.58 928.87 700.64 385.94 277.72 695.72 853.12 426.41 702.28 645.63 754.33 373.98 754.61 338.26 513.82 359.89 535.59 182.13 822.64 303.86 500.62 537.25 633.43 238.39 625.30 812.67 641.34 355.16 710.41 795.05 809.64 741.66 578.06 108.12 303.73 713.56 723.83 595.87 779.23 124.96 337.41 239.21 32.10 209.74 747.81 194.41 742.79 133.95 454.25 952.82 936.71 0.00 715.68 815.69 747.67 383.22 715.50 292.05 517.51 587.12 537.97 374.87 352.41 720.55 488.48 589.37 743.45 628.63 396.53 774.85 373.81 354.76 533.77 355.48 408.34 545.74 760.53 515.18 619.72 431.39 873.77 627.92 607.41 93.18 307.25 387.34 447.23 643.05 530.37 277.82 524.47 604.70 605.82 490.23 262.98 744.43 454.31 217.87 296.41 675.22 80.30 611.46 727.51 483.85 674.35 823.74 228.53 167.91 427.71 514.69 294.41 751.25 658.76 1016.40 364.83 908.26 824.21 232.06 554.30 444.79 445.42
1191.56 974.93 603.98 466.53 898.91 730.31 654.01 990.37 567.72 356.71 633.57 719.04 964.87 884.60 582.07 189.42 710.14 667.37 1109.02 958.12 771.64 628.89 734.68 921.97 672.64 850.26 396.52 676.90 206.27 53.67 859.00 433.61 875.79 659.05 569.80 993.76 772.17 639.49 460.58 653.19 946.18 764.79 512.39 929.02 628.13 630.76 486.09 798.52 516.01 688.39 580.79 1070.71 527.95 180.64 924.69 954.96 464.14 1037.26 996.03 928.55 1033.54 329.35 840.45 693.81 995.48 490.02 980.76 882.36 911.22 154.99 588.68 270.42 1004.74 598.52 356.06 960.08 517.67 290.97 793.75 966.82 144.13 1184.01 313.34 627.01 797.79 630.11 506.79 729.01 870.23 178.38 608.95 989.69 681.69 491.92 733.05 677.32 715.68 0.00 938.82 505.01 992.41 803.74 623.77 650.72 307.01 940.13 934.17 836.76 568.13 972.83 609.70 242.00 129.57 992.64 552.77 509.58 589.38 1043.16 899.40 965.11 978.13 760.24 365.50 460.38 651.20 471.38 918.47 604.15 678.96 721.07 469.41 409.91 855.06 249.18 581.70 1014.71 834.17 327.30 663.95 673.65 373.51 797.94 773.02 961.48 348.43 664.81 898.26 25.21 340.53 70.76 1024.37 899.59 641.94 998.13 603.70 843.44 654.43 287.90 678.99 930.48 779.43 853.70 885.57 190.81 785.02 943.08
457.62 994.58 614.95 865.60 772.30 507.44 499.26 323.42 849.29 1033.84 828.24 966.00 84.88 152.12 464.06 991.50 1001.46 698.20 549.74 827.26 256.37 672.87 319.93 730.18 955.40 335.83 713.66 592.62 839.79 885.15 865.92 659.28 740.22 811.12 485.50 146.90 672.24 384.73 703.26 1031.26 629.05 375.79 728.41 650.91 892.42 475.29 680.61 224.51 1033.87 537.97 505.29 288.33 582.23 892.91 170.06 231.57 668.32 149.27 828.00 446.58 1057.84 757.65 880.83 373.89 1029.97 633.90 541.07 254.23 812.81 949.98 473.19 752.12 866.89 425.70 781.36 59.82 502.23 1061.37 795.40 962.57 918.37 476.14 729.46 437.29 862.44 575.51 834.55 807.64 931.92 902.23 948.90 251.51 712.19 1072.18 517.83 597.26 815.69 938.82 0.00 599.43 789.76 228.74 1033.94 395.41 1045.33 397.93 729.33 587.50 482.72 614.21 433.10 1093.95 809.25 770.96 534.77 731.14 570.43 620.45 699.22 705.66 420.40 262.30 768.41 560.76 487.13 710.16 292.23 420.01 775.04 564.29 706.10 1067.42 226.41 906.10 991.87 604.94 280.51 700.71 439.07 552.71 681.09 431.19 976.99 994.53 1140.47 789.19 284.18 939.05 1019.59 882.03 234.21 716.42 895.70 717.67 479.69 684.45 449.06 763.95 571.37 647.17 346.91 235.76 891.90 868.55 418.27 574.38
850.84 946.10 460.11 490.69 830.22 559.87 445.14 621.41 591.88 617.86 665.08 796.73 581.11 480.61 306.03 537.11 786.12 626.76 793.82 894.42 373.51 477.54 309.95 822.05 750.33 564.19 416.00 519.43 337.11 465.13 835.77 283.64 770.94 694.42 317.67 610.00 689.00 228.30 408.29 752.15 756.24 352.91 187.06 751.98 662.67 404.43 278.54 414.76 731.98 549.52 193.59 730.49 415.22 390.23 557.68 597.75 402.14 537.26 897.78 686.74 1027.12 270.19 874.25 333.90 1010.94 311.18 725.21 485.28 869.55 487.26 210.89 248.38 935.86 196.48 282.53 539.61 163.79 674.28 764.99 943.54 360.88 849.90 205.60 267.10 817.08 410.26 530.95 764.38 916.71 395.13 686.64 612.99 614.28 739.49 306.45 269.12 747.67 505.01 599.43 0.00 908.92 379.01 742.27 324.55 673.22 650.68 816.75 655.43 133.16 751.29 197.46 625.19 389.37 867.91 122.40 425.66 470.13 779.91 767.15 779.36 628.48 376.84 338.23 131.33 395.47 146.05 552.92 179.42 666.47 561.65 444.27 700.90 467.57 466.58 775.77 727.97 474.75 241.22 368.21 534.78 182.26 562.17 860.29 935.00 716.89 680.62 543.37 483.12 580.07 462.15 624.98 770.17 666.10 825.82 342.84 688.33 183.67 220.43 390.99 716.62 412.69 470.30 887.82 447.09 549.25 636.03
703.25 286.13 532.96 645.85 157.14 379.85 494.58 586.26 548.08 832.20 504.94 499.15 704.88 832.00 636.41 937.81 550.38 417.06 417.13 187.25 728.95 504.49 673.44 115.95 542.26 537.52 655.69 474.40 975.59 975.27 250.76 787.48 223.17 397.98 654.83 729.16 298.36 837.16 595.51 672.21 206.19 1020.59 1017.36 216.43 554.62 588.89 1102.40 734.18 738.64 433.39 807.84 763.75 589.03 1028.71 638.32 651.60 617.01 733.90 106.47 433.63 367.15 754.02 315.43 982.08 361.52 682.93 323.61 554.15 197.65 913.75 964.72 921.76 86.83 867.92 1052.77 785.43 898.80 937.41 291.92 324.56 1015.61 481.25 838.90 950.22 258.26 539.48 622.43 363.04 310.25 1031.58 535.76 650.01 436.42 804.21 1075.94 1094.22 383.22 992.41 789.76 908.92 0.00 814.69 593.03 633.64 927.84 449.86 107.80 253.49 868.27 227.20 780.50 1084.22 978.32 49.33 912.16 593.05 574.49 266.43 173.96 153.86 369.36 841.30 756.17 777.59 592.32 976.35 534.61 763.02 395.23 375.64 559.53 773.96 710.81 891.50 619.17 258.54 614.58 824.25 589.98 418.65 972.33 427.75 507.95 268.59 1022.98 409.38 566.43 1017.62 867.07 981.45 658.47 224.68 520.61 96.33 675.62 275.15 900.85 902.91 1134.75 200.62 968.38 893.18 262.81 881.67 440.67 281.21
581.67 958.44 496.14 697.83 741.99 470.17 355.44 379.00 694.59 840.44 728.38 859.80 214.86 105.79 258.06 816.48 859.25 600.91 588.82 826.65 93.44 547.39 141.25 708.30 888.64 365.15 533.04 515.00 663.23 751.60 822.36 451.38 723.01 744.36 281.68 276.88 650.98 235.79 528.72 904.33 661.39 218.56 532.96 637.26 767.14 335.35 552.59 153.96 884.27 514.21 298.28 488.29 434.44 678.51 280.77 353.60 506.21 295.06 825.48 435.97 1016.46 555.83 823.37 221.44 999.36 440.50 576.07 277.00 782.50 785.61 362.08 534.85 794.19 218.69 573.82 198.09 322.84 870.03 732.26 950.48 715.02 618.67 500.72 218.15 797.23 446.29 683.24 736.64 874.46 701.52 849.44 377.93 581.55 925.06 419.64 383.21 715.50 803.74 228.74 379.01 814.69 0.00 867.29 297.45 886.07 413.77 721.90 607.28 282.01 656.44 204.36 911.66 684.49 773.06 331.44 584.22 506.09 638.32 640.73 684.51 461.79 45.03 558.80 343.36 363.08 503.23 325.21 199.59 661.55 505.26 563.69 929.15 130.92 751.90 825.22 588.50 207.81 536.34 320.93 502.69 553.43 428.71 909.61 940.90 981.21 675.70 323.26 809.24 865.39 732.98 382.78 711.49 772.72 730.97 286.29 625.23 274.60 546.55 469.57 621.77 229.34 108.71 874.41 734.82 441.63 541.18
1174.39 470.07 460.60 251.58 476.26 576.78 570.59 855.61 240.61 354.10 221.26 168.58 966.53 921.83 628.30 537.62 162.79 353.21 844.04 513.86 830.78 378.64 779.44 610.05 105.59 776.06 478.57 458.09 666.03 621.47 414.74 595.43 513.62 235.42 612.88 967.32 480.84 836.59 418.36 79.18 643.31 980.83 922.29 587.68 157.08 620.28 976.56 874.47 231.56 508.57 799.73 1083.97 517.58 702.38 872.58 967.09 458.25 971.73 530.71 744.58 551.09 507.70 399.17 931.23 428.43 555.72 755.36 815.62 481.33 468.78 871.92 686.24 574.58 819.00 807.36 1004.49 853.15 486.10 388.34 476.36 734.74 932.46 603.38 921.68 375.14 510.45 211.32 304.29 379.89 706.48 97.64 932.36 342.67 211.18 1048.72 1011.39 292.05 623.77 1033.94 742.27 593.03 867.29 0.00 650.46 476.84 750.73 644.39 564.82 845.17 692.06 697.96 540.80 625.79 612.99 853.12 362.86 482.94 740.29 598.35 643.41 735.85 912.32 534.36 657.19 607.88 881.28 844.27 688.29 301.81 521.96 403.03 290.21 837.90 483.19 42.07 759.80 788.43 577.93 636.48 496.79 726.01 602.75 255.48 487.61 545.80 311.06 842.31 618.39 391.89 553.01 1019.14 500.72 159.65 689.36 581.00 497.16 871.69 667.01 1068.27 623.04 1016.85 976.00 436.49 518.42 615.67 664.17
688.07 675.33 219.54 479.40 530.86 259.04 144.31 371.95 504.90 638.43 497.08 582.53 429.81 365.87 68.65 628.92 637.34 376.95 530.94 591.02 219.76 301.50 156.20 527.25 649.40 328.82 331.03 269.62 577.13 648.42 593.15 298.37 467.54 529.02 90.09 416.80 400.88 282.01 337.13 644.67 557.66 447.38 511.61 480.66 542.52 79.88 558.52 269.59 640.17 258.74 240.08 557.59 217.65 589.86 273.97 382.67 303.74 393.27 630.65 394.61 756.35 376.40 601.60 391.99 757.15 238.49 467.56 317.12 545.00 591.57 396.96 449.66 657.03 279.76 550.55 416.31 331.04 665.96 498.52 702.97 623.26 609.44 412.15 351.36 568.25 180.10 439.14 528.41 652.69 589.01 602.52 395.44 389.16 680.96 520.79 463.14 517.51 650.72 395.41 324.55 633.64 297.45 650.46 0.00 649.92 405.75 542.11 430.55 300.51 530.00 158.72 779.55 579.41 599.35 344.40 337.30 235.40 527.00 459.68 525.39 423.47 297.36 373.00 275.37 91.72 470.60 300.05 176.76 466.77 293.13 361.22 672.01 313.82 510.69 623.21 543.44 236.43 381.68 43.66 273.48 476.82 264.00 669.43 692.87 745.06 474.17 265.38 634.68 624.18 579.96 452.08 491.34 564.31 596.09 84.28 466.94 333.09 477.61 585.99 515.08 477.61 390.82 628.45 569.88 251.08 442.42
1337.99 847.54 616.92 339.14 781.81 770.06 733.25 1004.07 440.33 141.06 479.39 549.37 1079.73 991.86 628.01 186.26 518.65 615.28 1098.61 812.28 869.68 549.25 806.12 931.78 482.50 936.31 540.63 629.50 467.29 338.65 722.50 542.29 775.76 540.97 651.63 1053.28 805.82 798.25 509.89 397.66 965.15 988.63 710.56 898.74 462.40 673.36 793.10 919.51 346.85 691.18 688.72 1207.51 611.23 422.64 923.89 1032.59 525.14 1043.19 893.99 934.93 886.79 437.84 722.37 946.44 805.34 564.16 984.55 867.94 794.12 185.96 788.61 476.17 866.62 768.31 571.92 1066.23 719.28 16.04 645.44 832.22 415.66 1179.59 470.85 879.64 680.69 666.77 379.40 610.93 760.68 437.67 499.58 1045.36 625.77 283.98 967.86 876.75 587.12 307.01 1045.33 673.22 927.84 886.07 476.84 649.92 0.00 935.51 934.15 827.56 749.15 963.63 767.21 156.38 315.07 949.60 725.86 498.51 618.93 1040.90 879.16 888.54 960.83 931.10 441.17 657.00 685.81 738.04 935.58 754.62 589.10 723.86 498.64 246.76 963.74 216.76 476.77 1016.78 886.35 435.23 693.58 676.44 575.05 787.53 636.27 845.75 95.14 603.25 915.30 309.61 103.27 270.19 1102.00 799.56 507.51 978.63 635.70 821.60 823.29 466.01 888.54 933.27 960.42 994.78 774.55 281.26 800.45 933.88
543.73 642.52 420.64 654.39 421.49 233.22 305.62 160.98 639.04 848.77 614.58 657.52 350.08 424.40 398.17 848.14 712.33 463.79 250.67 464.12 348.31 450.39 411.87 353.46 713.33 89.87 549.40 398.21 848.02 909.19 504.61 575.78 405.96 569.05 374.55 288.06 280.27 482.15 530.87 787.77 293.98 620.02 789.60 252.98 650.39 332.10 838.88 307.42 855.69 344.82 559.57 383.10 449.50 888.81 227.87 239.55 507.94 307.06 470.64 59.89 707.03 671.39 564.30 594.49 695.94 523.85 163.35 173.34 462.00 816.36 600.78 725.29 482.57 523.12 789.82 386.30 627.27 937.61 453.82 628.54 882.45 306.75 696.61 586.11 507.13 385.00 677.31 528.12 568.64 848.20 694.64 204.82 464.80 894.00 720.93 703.28 537.97 940.13 397.93 650.68 449.86 413.77 750.73 405.75 935.51 0.00 349.37 240.03 580.14 279.15 453.22 997.92 857.29 400.53 635.87 535.06 392.25 234.33 304.64 311.98 85.33 458.80 649.14 573.57 316.51 748.59 105.70 471.26 507.56 295.04 494.89 861.31 299.99 729.91 708.66 255.08 247.21 690.91 368.32 342.46 801.48 147.98 728.15 639.87 1012.18 493.41 140.37 914.92 843.40 875.16 288.38 385.54 648.46 358.44 399.81 336.98 579.03 731.34 813.02 249.24 560.24 504.51 556.66 778.95 160.90 227.27
666.29 308.04 471.27 628.47 190.81 307.20 421.93 510.35 527.28 842.82 482.20 511.62 644.45 740.47 597.11 923.85 561.00 416.42 349.55 162.26 628.46 422.88 581.91 34.34 575.19 435.16 585.31 412.71 932.12 880.50 261.38 731.32 193.44 431.50 576.91 637.43 255.25 752.97 608.39 625.81 100.28 913.10 944.71 108.94 546.38 495.83 1036.19 651.51 674.30 371.70 768.54 655.95 566.21 985.24 577.24 544.33 611.11 626.63 128.54 339.30 389.06 735.94 321.35 890.55 383.59 626.77 247.26 493.72 189.95 855.01 912.95 868.51 171.54 776.39 980.85 718.53 849.76 926.07 288.71 346.47 968.08 412.08 785.65 842.42 291.93 464.05 614.08 366.07 305.11 976.06 569.28 554.19 413.84 742.61 991.75 1002.69 374.87 934.17 729.33 816.75 107.80 721.90 644.39 542.11 934.15 349.37 0.00 181.57 795.30 149.03 700.83 1033.83 956.40 58.47 858.26 552.89 512.42 197.26 82.43 46.59 308.93 746.23 717.17 705.67 495.51 903.70 455.07 698.97 421.22 336.64 593.06 781.20 610.32 865.85 602.32 191.37 514.09 768.73 498.45 356.96 929.63 346.14 499.30 290.50 988.54 420.40 489.74 946.00 831.86 908.10 598.04 169.64 517.40 63.96 578.81 183.62 821.77 881.78 1080.52 100.13 907.19 792.69 284.88 836.25 358.62 180.72
609.57 407.08 299.59 555.10 184.80 240.11 330.12 394.49 481.86 783.24 432.58 495.10 590.11 641.02 434.71 842.02 480.69 303.21 354.84 260.74 513.84 312.47 541.34 179.29 488.52 323.00 498.34 241.03 805.88 805.26 278.42 559.64 165.93 390.27 420.23 528.09 168.58 648.07 442.08 601.86 184.82 795.83 842.49 108.03 469.44 362.69 928.37 537.98 683.06 191.35 606.14 564.97 396.99 859.00 448.40 479.58 439.43 523.86 286.97 180.14 470.34 611.94 343.09 779.17 455.91 455.09 190.54 381.60 225.31 815.59 763.02 738.72 316.49 666.94 799.28 610.05 697.10 843.60 326.73 388.51 878.54 428.16 661.32 760.45 285.92 309.80 591.62 320.31 379.42 869.66 528.05 444.85 283.85 696.41 886.85 889.05 352.41 836.76 587.50 655.43 253.49 607.28 564.82 430.55 827.56 240.03 181.57 0.00 666.57 136.07 545.90 946.86 835.57 240.04 701.58 441.05 356.98 213.34 111.72 157.66 255.93 650.71 558.82 524.10 338.83 801.48 345.73 558.48 322.87 178.29 458.53 770.89 485.19 723.79 522.75 196.25 418.57 664.81 398.91 185.28 792.11 178.57 520.34 424.62 922.70 337.02 342.54 861.97 790.97 824.10 508.23 183.21 465.03 219.10 422.13 96.95 699.15 727.29 923.84 109.90 776.43 655.80 320.60 749.58 191.49 106.32
802.22 951.21 470.88 601.64 787.44 530.46 415.73 547.71 644.59 724.18 712.55 838.28 481.37 380.74 231.86 632.03 848.72 605.96 735.23 845.13 294.41 547.61 230.85 797.90 811.22 515.22 456.90 514.78 470.27 561.48 795.28 352.35 725.17 749.41 255.48 486.92 666.85 97.99 478.12 814.11 785.66 275.88 280.64 724.76 743.23 355.45 351.66 315.02 808.67 534.31 60.43 687.56 427.31 490.27 495.75 572.27 468.27 533.31 886.37 600.67 1005.57 384.15 812.48 217.58 986.73 352.08 676.24 411.58 820.57 563.19 117.65 352.93 876.32 63.32 405.59 427.36 54.46 765.19 737.31 934.08 453.76 817.79 338.76 153.36 755.31 453.36 641.90 714.97 863.57 419.51 747.53 568.06 586.60 783.78 274.74 252.18 720.55 568.13 482.72 133.16 868.27 282.01 845.17 300.51 749.15 580.14 795.30 666.57 0.00 760.11 148.49 718.23 511.65 847.44 83.33 482.31 459.34 730.94 730.33 796.04 596.37 243.68 389.20 214.40 336.88 270.45 479.22 166.53 666.60 521.13 442.14 701.77 385.86 572.90 818.09 717.26 401.35 313.92 330.52 519.63 305.32 488.00 914.66 968.75 811.81 680.75 469.67 590.16 686.39 584.43 621.03 710.63 759.57 848.36 279.16 700.62 92.80 353.59 351.92 755.16 303.20 337.14 847.33 519.79 475.08 674.57
554.63 457.07 435.66 685.32 297.62 270.96 385.69 425.62 611.17 878.33 527.67 615.26 591.79 687.42 548.83 954.00 616.76 439.28 232.93 311.29 563.00 442.69 619.13 182.19 586.47 361.89 634.41 377.10 940.87 941.33 352.34 695.71 274.26 478.69 534.35 567.21 304.65 741.88 578.15 737.93 48.75 851.10 908.47 150.81 591.19 487.75 975.34 579.44 764.11 327.42 710.01 580.48 533.06 962.14 444.15 495.84 575.50 562.69 275.82 269.53 538.09 748.01 426.59 844.89 530.87 591.16 135.60 441.06 337.80 951.66 869.51 868.79 293.73 732.66 935.35 607.67 798.50 979.67 435.10 495.50 991.82 292.09 785.93 826.97 398.74 445.87 690.79 456.38 452.32 992.41 616.47 461.11 419.92 832.42 921.07 958.96 488.48 972.83 614.21 751.29 227.20 656.44 692.06 530.00 963.63 279.15 149.03 136.07 760.11 0.00 611.62 1082.93 937.36 205.61 814.33 577.12 493.05 77.27 187.74 122.03 256.27 666.64 693.81 660.17 474.90 867.46 384.85 593.58 417.96 313.28 594.60 869.29 544.86 859.86 658.82 74.34 448.63 785.08 519.76 321.35 928.18 314.64 626.88 439.53 1058.77 432.11 419.52 998.04 903.79 960.17 474.97 269.22 546.08 130.87 558.20 233.02 776.98 863.36 1059.91 132.92 839.39 727.23 404.39 859.02 327.56 115.26
741.77 834.05 358.22 536.76 672.47 400.65 285.92 460.03 587.65 708.62 597.75 722.83 419.22 310.15 144.65 627.87 740.76 466.69 647.55 742.63 185.87 440.18 148.57 685.97 739.68 366.73 331.36 384.97 470.59 556.03 716.73 247.02 626.26 618.23 125.67 448.62 539.89 162.01 371.29 748.43 660.37 304.25 384.52 599.32 641.01 238.60 399.80 253.38 728.26 416.36 106.35 605.28 311.38 521.20 360.22 436.37 319.78 476.96 784.65 490.70 912.19 351.47 720.18 233.27 872.50 280.25 527.75 323.90 674.67 581.25 257.89 379.22 789.11 121.04 392.27 378.23 186.88 756.62 606.13 841.65 538.95 709.51 296.36 242.14 663.01 323.55 527.23 610.51 771.27 504.70 682.65 451.61 455.42 769.05 400.79 347.34 589.37 609.70 433.10 197.46 780.50 204.36 697.96 158.72 767.21 453.22 700.83 545.90 148.49 611.62 0.00 756.03 480.13 743.71 210.67 417.43 383.03 582.45 618.40 672.54 508.69 248.73 392.31 161.81 207.07 343.51 391.54 18.04 535.42 433.92 377.26 731.34 279.93 557.34 702.16 568.77 277.29 331.98 202.38 431.10 379.72 389.13 783.48 851.59 807.65 549.57 381.99 609.93 670.83 551.43 505.78 623.42 618.38 722.92 163.23 611.52 176.95 353.91 473.99 625.35 318.89 313.07 743.80 537.85 376.21 544.76
1355.83 913.59 655.98 495.47 938.19 820.74 706.01 1054.94 596.66 297.39 605.35 698.72 1093.71 990.99 723.23 161.20 652.05 742.42 1161.02 968.66 891.51 695.38 875.84 1014.15 631.85 969.72 448.52 728.90 360.21 240.90 878.83 555.89 896.90 697.35 732.83 1085.67 916.71 770.16 508.28 461.62 1069.66 895.06 696.31 984.45 618.78 710.04 728.09 970.09 456.72 779.82 657.80 1197.13 579.95 318.14 1017.02 1124.47 516.14 1101.64 1048.03 938.30 950.75 469.78 872.15 870.08 922.84 553.34 1041.21 932.85 940.79 230.04 730.34 376.81 1015.97 737.39 493.56 1069.11 700.55 165.39 801.82 887.97 281.63 1234.67 459.67 803.28 837.07 682.11 535.73 764.76 857.25 315.88 617.08 1122.37 732.18 440.31 918.41 818.48 743.45 242.00 1093.95 625.19 1084.22 911.66 540.80 779.55 156.38 997.92 1033.83 946.86 718.23 1082.93 756.03 0.00 284.70 1049.68 659.16 563.78 641.38 1112.94 951.40 1017.11 1014.09 866.63 454.55 601.54 703.67 659.32 1000.49 745.31 715.06 812.50 544.26 364.26 950.25 279.43 540.73 1040.86 971.17 447.17 746.26 765.08 479.90 849.94 656.69 896.05 142.48 715.30 990.94 216.79 259.60 211.92 1189.36 873.10 663.89 1072.28 695.27 893.93 711.98 404.76 858.17 1006.80 929.50 960.09 928.04 241.30 837.02 1004.12
1200.26 907.50 536.65 468.55 854.71 666.40 551.67 906.63 569.74 356.18 639.67 652.36 879.59 790.28 529.45 195.52 648.17 664.79 1013.90 900.18 642.07 600.75 628.70 932.12 590.97 790.51 379.49 609.57 160.69 75.90 809.14 304.04 846.72 681.28 505.83 879.09 785.69 571.78 421.14 618.45 937.40 742.28 502.68 888.02 615.97 556.64 536.82 720.65 522.11 644.22 451.22 1038.41 470.98 107.57 840.35 894.86 396.81 926.63 953.54 827.95 988.52 224.30 810.76 681.36 913.81 408.59 886.87 796.70 867.02 157.01 562.68 243.37 923.72 530.81 282.99 838.62 527.52 299.03 736.75 932.36 144.08 1069.98 183.77 614.56 753.59 552.19 508.81 660.73 838.37 122.60 610.97 860.13 683.71 499.10 695.82 658.49 628.63 129.57 809.25 389.37 978.32 684.49 625.79 579.41 315.07 857.29 956.40 835.57 511.65 937.36 480.13 284.70 0.00 981.93 486.13 458.96 518.24 972.31 877.81 932.03 848.56 728.86 292.34 382.16 563.31 461.67 834.73 498.17 679.32 672.87 418.79 453.66 736.13 251.20 583.72 950.80 756.44 197.73 564.26 650.96 340.32 709.31 739.26 925.04 332.46 666.83 844.79 129.80 318.39 72.78 946.91 822.92 643.96 978.49 495.13 824.63 573.04 215.42 573.47 869.29 722.92 793.20 860.69 192.83 720.25 849.78
693.31 325.03 488.04 610.46 172.01 365.67 457.79 561.51 561.39 815.78 493.58 479.81 701.03 797.71 615.58 888.48 533.96 402.57 367.80 149.55 679.62 469.73 639.15 92.81 546.68 490.40 642.55 429.48 953.90 938.97 234.34 738.15 173.84 411.29 618.04 688.59 312.49 810.21 619.69 684.28 156.86 971.57 1003.18 167.41 557.42 539.56 1081.87 684.85 732.77 388.47 787.01 714.42 564.84 998.93 600.90 602.27 585.12 684.57 82.28 397.24 390.95 757.63 294.51 947.79 337.33 633.60 274.28 550.30 158.14 894.64 943.89 889.87 126.15 833.63 1039.32 769.69 877.97 940.54 316.39 347.76 1017.27 456.22 807.01 900.89 271.57 490.15 635.74 376.35 316.54 1015.35 541.83 605.35 421.93 801.08 1048.99 1059.93 396.53 992.64 770.96 867.91 49.33 773.06 612.99 599.35 949.60 400.53 58.47 240.04 847.44 205.61 743.71 1049.68 981.93 0.00 891.33 564.19 525.16 253.84 139.67 104.53 365.51 797.39 706.84 764.14 553.98 962.17 506.23 742.19 410.10 326.31 604.36 794.65 661.48 861.36 607.01 209.21 565.25 812.83 555.69 373.73 970.62 404.61 486.59 307.49 1037.70 424.25 540.90 1004.47 846.33 952.39 654.62 197.64 545.08 108.91 637.28 240.86 879.01 903.14 1137.18 151.29 955.70 843.85 238.62 832.34 417.09 231.88
881.66 1009.49 472.10 613.09 828.15 556.33 441.60 625.22 688.48 691.41 734.63 878.51 530.80 429.84 275.75 589.63 864.52 647.98 733.42 883.04 353.02 527.78 314.18 843.69 862.50 566.03 504.69 540.65 387.39 499.10 878.61 296.02 759.56 718.22 281.35 532.19 693.72 153.72 528.39 813.84 820.65 304.21 228.13 768.65 764.02 371.90 277.78 364.45 852.56 550.76 104.32 770.89 435.14 440.51 565.58 631.00 493.59 582.74 917.70 644.56 1081.42 386.84 889.34 233.23 1022.93 400.57 735.45 489.09 837.02 550.76 88.49 282.35 920.21 112.75 322.26 474.95 41.39 741.90 769.55 955.53 431.08 821.84 328.00 166.43 832.17 467.06 653.35 788.18 936.97 463.08 809.04 651.39 649.10 813.04 268.94 252.15 774.85 552.77 534.77 122.40 912.16 331.44 853.12 344.40 725.86 635.87 858.26 701.58 83.33 814.33 210.67 659.16 486.13 891.33 0.00 548.06 506.79 793.12 788.29 821.14 673.88 327.01 368.53 253.73 362.75 187.12 556.73 220.75 726.23 565.02 525.47 745.66 435.29 540.13 825.92 771.48 467.39 357.81 374.41 563.52 221.99 531.89 884.09 991.95 769.41 726.73 547.18 533.40 653.62 526.85 670.46 754.52 788.50 890.23 286.99 687.10 132.90 270.71 268.59 781.03 318.85 412.26 899.48 518.01 518.97 700.44
949.45 551.93 190.92 159.37 435.91 337.08 244.15 600.37 255.06 433.03 263.31 375.31 716.75 634.17 326.16 490.25 366.41 220.50 696.69 544.22 506.15 163.45 469.10 551.99 328.91 460.26 119.56 200.02 456.23 455.91 470.54 283.65 422.86 379.85 302.54 660.31 391.71 534.63 55.50 420.83 567.72 719.67 604.83 525.22 288.73 257.42 693.86 550.40 400.66 270.51 448.30 759.45 159.79 489.59 573.35 666.68 97.65 692.65 548.09 517.69 632.95 234.66 473.99 650.70 595.91 192.86 560.55 489.18 476.42 452.35 538.40 390.85 591.96 527.89 544.56 682.20 509.41 489.45 377.38 595.59 453.08 752.77 319.54 635.67 416.82 170.11 199.63 394.95 525.08 487.33 265.22 636.47 239.86 441.45 715.76 694.78 373.81 509.58 731.14 425.66 593.05 584.22 362.86 337.30 498.51 535.06 552.89 441.05 482.31 577.12 417.43 563.78 458.96 564.19 548.06 0.00 160.71 628.46 513.18 571.62 531.35 629.25 220.99 294.33 297.83 563.82 528.47 435.47 313.68 303.19 40.17 456.40 591.74 384.09 354.35 621.48 518.55 304.89 293.64 255.77 452.97 387.08 462.21 569.47 586.61 327.83 522.14 521.41 395.24 445.32 723.25 446.66 279.66 616.85 307.94 449.23 568.54 362.90 787.62 512.60 659.89 692.93 517.72 380.46 374.16 531.79
864.60 627.63 75.66 295.17 462.82 260.67 191.87 497.13 336.81 555.06 261.68 457.97 637.60 588.23 267.10 571.78 507.46 222.58 555.35 502.33 453.87 157.62 391.60 509.73 469.54 391.74 192.86 135.27 510.45 551.41 472.62 280.24 400.67 383.62 257.36 607.83 344.57 477.41 171.65 498.26 463.38 674.82 657.19 426.55 325.86 209.42 690.45 471.25 463.44 178.13 438.53 707.17 71.65 563.57 488.26 586.24 125.24 595.33 554.21 374.88 668.08 297.75 476.07 616.30 626.49 175.69 447.83 436.90 495.75 514.68 558.89 429.99 551.70 504.07 583.70 594.06 503.57 602.89 355.25 559.09 589.03 643.55 347.13 550.54 418.90 77.90 335.43 354.82 510.02 555.04 422.22 552.44 220.81 501.75 698.59 698.54 354.76 589.38 570.43 470.13 574.49 506.09 482.94 235.40 618.93 392.25 512.42 356.98 459.34 493.05 383.03 641.38 518.24 525.16 506.79 160.71 0.00 507.27 468.70 465.83 449.77 532.76 263.39 338.80 188.66 616.18 459.95 383.22 299.78 198.85 135.67 566.36 503.60 479.59 472.63 525.35 455.32 347.71 227.31 189.97 512.71 244.27 544.87 615.06 714.07 313.93 429.93 568.21 531.04 518.62 639.22 386.01 328.91 550.15 219.80 383.43 491.74 443.26 688.46 446.80 665.51 614.80 486.28 450.03 231.35 427.45
520.48 505.30 487.00 742.51 333.69 348.23 420.64 391.47 669.27 955.60 604.94 663.49 540.13 619.15 519.14 958.09 691.90 494.02 237.02 359.52 555.15 499.88 611.28 230.42 634.70 284.62 664.42 428.44 923.38 992.67 400.57 718.66 341.25 555.96 526.46 522.39 355.89 716.48 629.49 809.68 96.98 816.95 966.97 199.04 663.08 447.12 982.25 502.17 833.88 387.43 688.80 517.99 564.52 976.50 450.39 473.88 626.84 500.20 324.05 202.35 586.32 773.84 478.15 789.24 579.10 635.12 101.45 389.40 374.20 939.86 795.53 897.74 345.29 703.49 974.72 581.05 769.33 1052.63 425.65 543.73 1001.96 214.82 841.65 780.86 434.81 489.11 768.06 513.88 500.55 982.18 657.73 439.15 477.49 902.19 886.92 898.03 533.77 1043.16 620.45 779.91 266.43 638.32 740.29 527.00 1040.90 234.33 197.26 213.34 730.94 77.27 582.45 1112.94 972.31 253.84 793.12 628.46 507.27 0.00 236.55 173.59 204.61 632.49 705.80 725.86 477.75 925.96 340.03 600.49 495.23 325.27 609.91 910.55 507.40 844.93 730.57 78.43 440.78 806.03 483.34 372.69 916.50 263.00 675.11 487.76 1073.78 509.38 351.55 1058.17 958.42 990.18 412.48 317.45 623.35 170.10 561.05 289.56 759.40 872.17 1026.25 181.15 773.02 678.01 452.62 893.97 275.92 187.08
646.85 374.61 404.14 570.04 177.98 298.54 410.55 465.62 483.27 801.26 399.77 519.99 625.49 658.04 514.68 843.92 549.96 337.10 336.52 230.31 563.04 395.37 499.48 67.57 492.76 394.51 502.88 345.58 902.84 897.10 258.05 664.19 133.42 406.67 510.17 592.70 172.82 670.54 546.63 636.35 139.57 851.80 936.05 74.20 463.95 452.24 1011.77 602.94 685.26 303.07 686.11 654.33 501.54 922.16 532.51 510.78 529.01 578.29 184.75 291.86 455.63 653.51 319.46 808.12 439.80 559.64 227.82 474.76 217.60 849.12 837.00 823.78 204.77 693.96 911.00 673.80 777.07 870.10 247.36 386.72 885.65 417.88 740.92 777.56 279.10 414.35 588.91 345.70 355.50 905.53 541.30 476.05 346.05 727.26 909.32 920.26 355.48 899.40 699.22 767.15 173.96 640.73 598.35 459.68 879.16 304.64 82.43 111.72 730.33 187.74 618.40 951.40 877.81 139.67 788.29 513.18 468.70 236.55 0.00 65.71 289.97 667.34 655.79 635.82 450.55 895.04 410.34 630.01 373.33 278.82 516.31 792.16 561.75 820.94 588.63 215.04 465.52 723.74 416.02 289.83 849.18 290.29 491.64 357.58 967.26 387.48 445.01 920.42 775.89 828.64 562.83 149.27 467.23 146.39 529.48 101.19 739.34 827.03 1031.19 55.40 824.76 744.12 277.58 753.82 303.21 135.99
619.70 354.63 433.88 610.34 195.17 297.56 409.57 472.96 548.98 823.06 465.48 537.18 620.78 723.75 566.12 909.63 588.41 399.65 325.88 208.85 591.07 446.76 565.19 61.11 555.31 401.85 568.59 371.60 885.53 927.09 288.79 693.93 173.72 436.01 555.65 600.04 230.07 736.25 576.37 672.40 76.61 877.38 935.07 73.22 528.87 449.24 1026.55 614.12 701.79 334.31 737.55 672.66 530.49 938.65 539.85 497.74 573.72 580.04 175.13 292.71 435.65 719.22 304.56 873.83 430.18 589.38 200.67 470.05 216.72 881.78 894.43 831.12 171.70 759.67 956.94 681.14 828.51 879.48 313.07 393.06 939.94 388.41 748.26 843.27 296.29 428.33 634.11 376.24 351.70 956.60 573.79 516.80 410.69 770.10 975.03 985.97 408.34 965.11 705.66 779.36 153.86 684.51 643.41 525.39 888.54 311.98 46.59 157.66 796.04 122.03 672.54 1017.11 932.03 104.53 821.14 571.62 465.83 173.59 65.71 0.00 285.26 708.84 681.45 681.76 489.65 894.06 417.68 663.25 413.63 300.92 555.87 808.69 572.93 861.24 617.43 193.10 476.70 783.88 481.73 319.57 914.89 335.82 545.89 337.09 976.64 427.78 452.35 986.13 785.27 894.35 567.15 179.81 483.76 90.09 565.27 163.74 805.05 844.39 1035.63 62.74 872.22 755.30 312.01 816.37 322.90 143.33
539.70 591.67 425.48 654.21 408.97 284.04 329.12 217.14 639.33 924.34 581.94 698.95 335.52 464.08 417.83 923.71 736.62 431.15 165.34 449.45 368.35 411.58 431.91 309.78 718.88 175.20 586.61 331.33 833.64 924.46 502.59 544.52 355.96 574.60 441.45 359.80 365.60 567.48 552.51 772.89 208.65 658.80 815.54 269.93 597.38 390.52 872.41 392.75 813.56 337.42 589.26 394.62 477.79 886.76 268.96 324.88 544.09 376.83 426.96 75.79 672.69 648.97 554.18 674.33 676.73 547.35 120.67 184.79 445.83 897.75 686.11 723.60 446.98 608.45 864.88 416.07 650.83 976.87 498.85 624.15 912.22 221.42 685.85 653.46 510.09 375.63 694.47 528.59 553.97 894.19 706.90 290.15 411.79 860.69 801.81 788.61 545.74 978.13 420.40 628.48 369.36 461.79 735.85 423.47 960.83 85.33 308.93 255.93 596.37 256.27 508.69 1014.09 848.56 365.51 673.88 531.35 449.77 204.61 289.97 285.26 0.00 497.08 681.86 624.55 401.84 774.53 165.25 490.65 491.79 345.86 553.31 920.46 350.38 805.48 693.78 219.84 313.83 706.81 379.81 352.16 810.74 223.55 717.11 574.13 1055.97 505.94 199.92 953.11 890.08 912.37 289.11 332.16 633.95 343.77 465.13 345.46 635.36 747.24 883.33 234.57 599.02 551.45 515.01 802.45 219.32 153.98
626.70 913.41 516.90 742.86 752.48 499.71 400.47 424.03 739.62 885.47 773.41 879.89 259.89 137.06 303.09 851.21 904.28 645.94 614.71 860.95 138.47 591.79 167.86 734.91 926.99 389.48 578.07 560.03 625.20 706.57 835.60 495.75 747.54 789.39 326.71 260.68 611.26 199.40 573.75 942.03 685.72 184.46 489.80 661.59 771.43 377.24 512.56 198.99 929.30 556.10 304.11 521.14 479.47 661.23 325.80 398.63 551.24 340.09 852.09 470.57 994.43 600.20 868.40 191.67 998.47 485.53 531.04 312.29 792.99 797.82 325.92 489.82 818.52 240.37 615.82 202.48 298.14 915.06 777.29 951.84 670.64 663.70 545.09 174.99 842.26 477.46 728.27 781.67 919.49 663.19 863.30 422.96 626.58 970.09 385.54 338.18 760.53 760.24 262.30 376.84 841.30 45.03 912.32 297.36 931.10 458.80 746.23 650.71 243.68 666.64 248.73 866.63 728.86 797.39 327.01 629.25 532.76 632.49 667.34 708.84 497.08 0.00 603.83 385.36 389.08 514.13 370.24 241.59 706.58 529.59 608.72 945.45 175.95 787.19 870.25 630.21 232.14 557.60 341.02 547.72 549.00 473.74 954.64 895.87 1009.11 720.73 349.15 772.07 900.68 774.98 415.63 735.82 799.33 755.30 331.32 649.56 263.77 517.77 480.63 646.10 214.09 93.46 887.65 728.26 480.40 565.51
996.39 716.82 271.90 324.16 656.90 442.35 352.74 641.22 337.13 375.69 418.25 556.28 702.52 664.59 328.03 323.63 587.40 376.34 818.74 713.25 518.01 313.92 473.62 702.46 534.46 610.96 152.91 353.96 247.06 347.97 622.34 145.29 594.27 510.11 326.28 739.28 526.25 474.59 172.57 544.24 645.06 659.39 460.52 608.23 449.60 365.06 523.99 587.01 524.07 400.95 359.48 868.04 227.29 300.18 646.97 744.43 141.20 682.81 709.85 629.02 797.84 68.04 629.83 601.76 793.93 134.51 641.22 597.77 649.51 308.55 457.02 224.47 744.80 439.07 378.18 714.56 409.92 432.11 546.41 738.37 325.64 886.90 141.61 534.96 572.66 321.75 323.04 522.17 680.92 313.32 486.21 742.26 395.70 518.61 637.47 607.35 515.18 365.50 768.41 338.23 756.17 558.80 534.36 373.00 441.17 649.14 717.17 558.82 389.20 693.81 392.31 454.55 292.34 706.84 368.53 220.99 263.39 705.80 655.79 681.45 681.86 603.83 0.00 234.29 361.23 419.51 628.32 378.06 430.75 380.53 198.68 466.71 559.06 316.53 535.67 699.81 521.54 105.99 345.84 386.21 286.35 507.66 624.76 699.28 503.41 434.88 624.47 372.18 337.90 294.74 770.53 604.70 425.31 731.83 288.72 569.02 482.00 237.74 628.61 643.04 631.18 666.77 641.38 213.25 494.74 609.13
867.50 814.77 394.83 434.49 700.36 428.54 313.81 564.99 521.06 609.98 533.75 669.64 521.81 449.15 206.72 473.12 660.74 502.21 773.28 780.12 337.86 457.78 274.30 703.39 623.24 515.02 314.81 394.88 319.87 447.89 726.73 152.31 669.42 563.09 230.34 574.35 606.01 240.30 276.96 669.36 708.92 436.31 318.39 632.13 562.48 323.74 409.87 379.11 675.78 465.37 153.97 731.01 314.03 372.99 522.03 562.10 299.39 602.69 796.59 590.09 895.79 256.76 744.49 395.08 890.24 209.99 649.01 449.63 740.87 473.85 244.07 231.14 811.31 233.56 275.18 500.94 215.08 640.96 643.04 842.76 388.55 835.24 198.39 354.66 698.53 367.28 474.75 633.05 795.58 395.56 559.55 577.34 511.83 708.44 432.72 400.45 619.72 460.38 560.76 131.33 777.59 343.36 657.19 275.37 657.00 573.57 705.67 524.10 214.40 660.17 161.81 601.54 382.16 764.14 253.73 294.33 338.80 725.86 635.82 681.76 624.55 385.36 234.29 0.00 283.33 277.38 517.27 143.77 535.14 465.64 312.94 693.19 413.14 459.37 648.68 694.50 397.10 234.01 305.38 450.63 282.90 462.86 728.96 803.67 652.90 549.29 507.72 465.88 572.19 389.62 631.51 645.62 558.41 743.20 254.02 621.05 289.47 203.19 493.29 634.00 425.67 441.38 778.78 439.88 449.94 611.92
760.24 685.26 205.70 454.18 503.45 233.15 118.97 404.05 458.20 634.52 436.02 515.76 448.94 399.57 105.02 568.69 570.57 285.23 525.83 551.55 282.26 258.15 247.22 512.22 581.58 266.05 255.15 177.90 548.39 617.50 534.75 259.27 428.07 437.30 81.40 453.26 362.23 318.38 272.14 639.76 518.19 511.32 564.43 444.39 450.80 40.41 601.41 282.59 619.59 209.29 276.45 614.70 151.11 572.30 352.09 454.84 237.20 471.39 591.18 355.14 726.79 360.67 533.70 440.34 665.43 226.72 418.31 267.92 505.53 499.85 433.33 438.35 594.33 328.11 554.51 447.28 367.41 697.73 406.80 645.75 601.10 614.25 400.60 425.27 476.53 202.25 418.56 451.01 574.22 566.85 560.32 442.26 297.44 644.13 557.16 550.22 431.39 651.20 487.13 395.47 592.32 363.08 607.88 91.72 685.81 316.51 495.51 338.83 336.88 474.90 207.07 703.67 563.31 553.98 362.75 297.83 188.66 477.75 450.55 489.65 401.84 389.08 361.23 283.33 0.00 523.42 334.26 219.65 375.05 253.66 294.68 645.82 353.43 548.91 606.10 517.48 291.74 380.70 63.73 224.03 496.89 214.75 602.66 687.28 748.47 389.20 326.01 625.99 657.90 580.91 524.25 428.64 495.91 557.93 83.30 417.49 369.46 465.46 585.01 448.73 525.96 471.79 536.73 478.16 211.61 417.08
996.89 1090.60 606.16 629.70 868.32 596.50 591.19 767.46 730.89 687.53 794.06 892.84 702.59 597.80 452.08 579.73 925.13 772.81 920.54 976.79 475.96 623.59 456.00 921.32 892.73 710.24 528.77 665.48 352.81 499.26 961.94 382.11 913.58 840.47 463.72 719.31 787.35 325.51 551.30 891.16 901.28 447.30 41.01 820.84 751.17 550.48 132.49 536.24 852.37 691.34 291.44 876.54 561.27 393.04 621.67 730.37 499.79 683.31 956.69 808.48 1153.86 373.58 997.44 420.35 1150.68 457.23 846.95 631.33 908.83 552.08 237.38 282.51 1000.56 284.54 217.62 654.88 222.49 743.95 884.46 1089.59 422.36 974.93 277.90 353.55 947.93 556.31 669.96 879.84 1028.06 396.82 829.04 743.14 760.33 811.79 287.13 337.07 873.77 471.38 710.16 146.05 976.35 503.23 881.28 470.60 738.04 748.59 903.70 801.48 270.45 867.46 343.51 659.32 461.67 962.17 187.12 563.82 616.18 925.96 895.04 894.06 774.53 514.13 419.51 277.38 523.42 0.00 698.97 325.47 787.29 658.32 523.65 773.20 570.02 538.88 906.47 874.02 590.33 313.52 514.26 680.83 179.42 681.74 979.74 1078.01 759.51 793.47 689.42 496.59 649.74 484.28 771.03 889.78 791.22 944.44 440.12 816.43 300.86 280.84 303.11 856.20 505.97 474.40 1001.20 456.78 694.66 782.08
462.80 727.82 436.55 687.84 522.72 309.60 312.67 71.90 679.73 893.75 658.68 763.22 256.57 346.93 368.70 882.14 816.48 540.17 300.23 559.64 242.61 504.62 306.17 459.16 785.84 68.21 570.16 437.29 767.63 888.75 601.51 553.69 451.96 641.56 352.89 194.55 385.97 441.91 583.97 881.31 373.90 514.32 735.46 358.68 722.86 339.30 755.26 230.11 923.39 368.41 483.14 341.44 468.72 820.75 122.17 185.92 554.81 218.04 576.34 165.59 808.26 658.14 670.00 514.49 762.02 493.81 269.05 67.64 563.23 834.11 579.12 684.05 588.27 481.81 747.73 293.86 533.68 919.54 559.52 734.24 846.21 349.89 672.62 508.80 612.83 386.70 727.57 633.82 674.34 844.33 779.34 166.84 542.63 961.70 636.56 625.97 627.92 918.47 292.23 552.92 534.61 325.21 844.27 300.05 935.58 105.70 455.07 345.73 479.22 384.85 391.54 1000.49 834.73 506.23 556.73 528.47 459.95 340.03 410.34 417.68 165.25 370.24 628.32 517.27 334.26 698.97 0.00 373.50 605.48 371.42 562.59 954.85 194.29 805.21 802.20 312.71 188.71 637.00 341.10 383.15 735.18 241.52 807.43 725.58 1030.72 599.11 34.67 893.26 880.09 879.24 236.98 475.76 726.14 464.14 339.60 416.72 509.62 712.00 766.18 354.94 454.54 398.81 653.56 759.19 228.60 305.43
723.73 824.91 365.63 554.80 671.68 413.23 298.50 441.99 605.69 717.57 579.71 735.41 401.69 305.38 126.61 616.89 740.95 484.73 629.51 739.88 194.09 442.36 130.53 690.51 753.68 384.77 349.40 397.55 463.64 574.07 734.05 265.06 629.18 636.27 138.25 430.58 530.46 148.30 385.29 761.01 642.33 292.54 366.48 590.03 636.37 250.20 381.76 235.34 740.84 428.94 116.43 587.24 311.57 516.76 378.26 418.33 337.82 458.92 783.86 507.32 905.93 369.51 738.22 251.31 885.08 298.29 545.79 305.86 692.71 589.65 275.93 374.91 771.07 139.08 374.23 360.19 204.92 738.58 624.17 849.06 532.32 691.47 314.40 233.39 681.05 336.13 539.81 628.55 789.31 522.74 700.69 433.57 473.46 781.63 387.08 365.38 607.41 604.15 420.01 179.42 763.02 199.59 688.29 176.76 754.62 471.26 698.97 558.48 166.53 593.58 18.04 745.31 498.17 742.19 220.75 435.47 383.22 600.49 630.01 663.25 490.65 241.59 378.06 143.77 219.65 325.47 373.50 0.00 553.46 415.88 395.30 749.38 288.15 575.38 702.35 550.73 295.33 340.38 214.28 414.38 361.68 382.75 801.52 842.45 796.67 567.61 363.95 609.65 688.87 533.39 487.74 605.38 636.42 713.63 163.42 595.37 183.40 346.96 489.34 625.39 336.93 297.61 756.38 546.25 369.83 557.34
898.24 372.05 268.78 294.40 238.09 329.93 352.16 641.45 193.21 460.37 109.71 258.70 712.68 751.60 468.50 553.86 281.79 99.36 542.23 322.33 568.11 216.74 611.44 404.76 234.07 549.70 322.24 206.69 677.81 664.98 229.82 493.21 239.91 89.79 444.88 725.59 253.26 681.86 258.18 346.29 466.71 839.67 828.30 410.11 173.89 415.46 884.55 646.69 360.19 237.07 639.93 812.47 366.18 656.89 604.98 713.68 303.77 724.28 350.27 447.67 418.87 471.06 225.78 768.69 363.39 427.06 479.21 540.25 258.36 583.45 758.72 575.19 369.52 656.46 728.90 764.66 687.71 580.04 161.06 332.21 620.38 630.65 509.39 771.26 168.61 315.86 272.83 98.51 275.73 654.63 227.57 712.38 80.00 428.50 920.64 882.76 93.18 678.96 775.04 666.47 395.23 661.55 301.81 466.77 589.10 507.56 421.22 322.87 666.60 417.96 535.42 715.06 679.32 410.10 726.23 313.68 299.78 495.23 373.33 413.63 491.79 706.58 430.75 535.14 375.05 787.29 605.48 553.46 0.00 268.11 294.16 467.09 624.11 524.58 310.98 492.30 565.56 536.74 429.25 239.48 678.28 415.17 248.06 376.18 674.43 14.15 570.81 692.91 485.83 608.20 778.83 263.71 142.16 462.89 456.26 324.89 712.37 565.58 957.97 400.01 854.31 770.26 275.71 488.15 416.74 429.19
679.72 507.97 161.73 417.24 286.94 61.82 151.83 399.92 344.00 690.90 319.54 436.55 537.14 549.51 289.27 704.16 491.36 168.75 458.14 395.41 411.82 174.61 449.33 328.18 450.13 309.02 368.28 103.17 627.59 667.40 367.09 421.78 303.71 305.85 312.08 522.46 145.72 502.63 304.22 556.12 264.53 708.42 699.33 227.70 373.70 213.25 790.81 434.87 603.19 62.16 460.70 637.56 239.26 680.71 394.23 502.93 301.57 512.61 399.12 292.16 572.48 448.57 405.02 667.19 569.99 317.23 260.69 337.56 327.45 681.13 617.58 600.86 442.99 540.29 740.82 560.27 551.66 739.90 319.27 502.59 706.17 506.37 522.14 611.01 365.07 163.84 457.50 331.83 456.11 693.85 443.63 469.72 188.11 637.01 741.41 756.27 307.25 721.07 564.29 561.65 375.64 505.26 521.96 293.13 723.86 295.04 336.64 178.29 521.13 313.28 433.92 812.50 672.87 326.31 565.02 303.19 198.85 325.27 278.82 300.92 345.86 529.59 380.53 465.64 253.66 658.32 371.42 415.88 268.11 0.00 329.34 678.99 393.68 653.55 527.04 337.25 297.45 486.52 249.47 47.42 654.25 147.06 471.72 525.51 819.00 282.26 375.95 732.90 653.11 675.27 556.50 303.61 387.00 351.30 329.28 217.35 553.71 611.62 810.87 263.06 696.68 576.05 419.14 593.78 148.63 228.60
969.50 580.23 183.73 159.50 476.08 371.15 284.32 599.77 214.89 424.34 270.41 396.14 718.25 614.65 305.63 462.15 406.58 260.67 657.99 584.39 513.14 203.62 449.58 562.35 369.08 494.38 96.16 238.97 416.06 415.74 485.75 243.48 463.03 373.52 283.02 679.75 431.88 507.61 35.98 420.96 584.75 681.51 564.66 527.72 301.09 281.34 653.69 562.97 400.79 267.18 466.91 799.62 143.57 469.18 590.90 684.99 57.48 697.97 588.26 477.52 661.25 194.49 514.16 610.53 636.08 152.69 550.47 529.35 516.59 423.92 557.01 362.23 632.13 498.30 513.07 665.98 496.60 489.58 417.55 586.69 481.66 714.60 279.37 595.50 456.99 210.28 199.76 392.67 555.47 472.05 305.39 655.08 277.71 413.65 675.59 676.64 387.34 469.41 706.10 444.27 559.53 563.69 403.03 361.22 498.64 494.89 593.06 458.53 442.14 594.60 377.26 544.26 418.79 604.36 525.47 40.17 135.67 609.91 516.31 555.87 553.31 608.72 198.68 312.94 294.68 523.65 562.59 395.30 294.16 329.34 0.00 452.21 575.52 343.92 394.52 649.64 527.80 264.72 317.56 281.92 412.80 346.91 483.04 562.69 586.74 308.31 561.31 481.24 395.37 421.92 741.86 486.83 317.43 645.96 291.72 475.38 534.94 343.38 755.06 538.75 646.66 672.40 477.55 340.29 333.99 549.63
1307.29 676.14 520.13 297.03 631.44 707.55 657.47 966.19 334.99 105.70 392.39 362.91 1051.46 994.90 686.89 335.04 351.11 543.17 1004.06 690.65 855.84 535.48 828.21 792.12 316.51 886.64 399.98 615.73 572.10 419.50 591.53 584.46 680.79 390.60 663.27 1030.89 686.91 761.90 416.23 259.28 843.80 940.69 754.80 741.74 345.32 632.48 868.16 885.11 106.90 646.31 641.34 1172.77 494.71 551.42 945.98 1046.91 467.60 1053.10 743.62 861.09 748.41 512.09 572.00 869.71 639.35 504.80 916.89 901.81 636.51 307.42 803.31 531.69 770.29 720.93 682.61 1017.12 732.30 237.70 546.76 643.46 554.04 1092.48 495.30 842.03 530.32 569.98 307.93 460.56 546.87 561.47 252.82 1047.34 530.68 82.01 976.51 947.23 447.23 409.91 1067.42 700.90 773.96 929.15 290.21 672.01 246.76 861.31 781.20 770.89 701.77 869.29 731.34 364.26 453.66 794.65 745.66 456.40 566.36 910.55 792.16 808.69 920.46 945.45 466.71 693.19 645.82 773.20 954.85 749.38 467.09 678.99 452.21 0.00 926.66 234.32 248.14 923.94 856.36 493.30 628.35 631.57 633.13 713.33 449.81 680.22 327.06 466.24 922.01 435.12 143.49 380.88 1104.72 656.99 324.93 845.16 642.86 694.26 776.84 503.74 1014.25 777.10 913.04 1020.44 624.79 336.45 726.25 829.45
528.08 860.23 486.22 735.02 669.99 404.62 356.06 248.08 681.21 914.47 660.16 785.74 143.46 155.83 347.80 831.90 835.61 547.71 457.90 725.07 94.06 511.82 157.62 615.62 816.80 251.49 529.37 440.38 677.48 808.91 704.30 496.97 611.63 672.52 324.18 180.22 539.40 293.36 552.98 890.42 549.81 349.48 586.91 525.68 680.82 346.56 655.10 70.84 907.22 399.37 386.28 397.60 431.95 712.49 155.90 222.68 518.04 275.20 726.48 305.05 935.32 601.42 742.23 323.95 882.71 424.55 463.34 165.59 696.88 787.67 431.56 644.28 682.61 322.54 662.38 166.59 426.69 959.77 688.54 839.80 710.93 487.75 574.02 349.07 715.73 470.03 725.74 610.95 793.32 676.68 790.34 247.01 544.11 944.13 521.54 466.70 643.05 855.06 226.41 467.57 710.81 130.92 837.90 313.82 963.74 299.99 610.32 485.19 385.86 544.86 279.93 950.25 736.13 661.48 435.29 591.74 503.60 507.40 561.75 572.93 350.38 175.95 559.06 413.14 353.43 570.02 194.29 288.15 624.11 393.68 575.52 926.66 0.00 797.38 836.12 500.24 96.23 538.40 310.34 384.63 580.38 357.41 810.98 849.75 927.90 638.26 192.34 857.62 896.96 802.76 292.09 594.58 725.93 619.39 360.32 513.65 361.07 616.33 575.08 510.19 341.69 239.63 756.35 708.95 344.49 429.60
1198.76 729.84 524.28 250.90 734.36 625.89 615.43 834.79 352.09 151.28 435.59 555.03 940.17 857.69 512.91 118.23 542.01 553.31 893.01 770.55 703.32 493.53 666.89 831.51 518.89 755.24 426.97 550.38 386.10 246.88 694.45 382.80 687.52 535.59 503.17 914.02 717.58 633.03 379.90 404.01 858.37 812.38 566.88 831.82 378.95 581.64 634.35 780.28 341.22 611.10 512.47 1068.28 454.89 358.77 784.66 893.36 401.40 903.96 846.54 729.69 810.86 278.35 678.50 770.19 792.17 406.98 785.49 807.03 746.67 94.93 616.68 297.37 861.53 592.06 451.08 899.87 581.52 207.70 638.49 768.27 347.63 981.43 260.98 703.39 633.24 501.46 291.16 533.71 724.36 370.86 487.14 906.13 537.53 272.91 773.03 735.70 530.37 249.18 906.10 466.58 891.50 751.90 483.19 510.69 216.76 729.91 865.85 723.79 572.90 859.86 557.34 279.43 251.20 861.36 540.13 384.09 479.59 844.93 820.94 861.24 805.48 787.19 316.53 459.37 548.91 538.88 805.21 575.38 524.58 653.55 343.92 234.32 797.38 0.00 482.46 884.66 747.12 258.98 554.35 606.13 398.81 581.93 615.97 712.30 282.27 510.43 776.07 244.54 113.49 178.42 962.77 711.32 424.06 910.50 465.61 777.80 647.97 269.42 806.33 833.69 784.17 860.61 693.95 153.84 594.85 810.49
1132.32 428.00 483.90 293.65 462.03 588.86 598.50 813.54 198.54 349.89 219.48 162.74 973.57 931.01 586.23 495.55 153.07 360.25 840.28 471.79 799.69 420.71 743.05 567.98 95.87 733.99 454.83 456.31 623.96 579.40 372.67 637.50 511.38 221.19 576.49 936.08 438.77 796.54 409.85 79.11 633.59 994.89 934.49 577.96 155.30 611.77 1010.95 856.44 217.10 494.34 757.66 1069.74 493.72 677.08 830.51 927.56 452.00 929.66 552.49 702.89 509.02 549.77 362.03 935.43 418.71 533.69 713.29 793.60 460.08 426.71 892.75 703.66 572.21 823.20 765.29 996.24 848.62 479.66 349.12 445.59 692.67 915.20 628.57 931.03 360.91 524.46 253.39 291.15 374.05 703.38 89.13 894.69 340.89 253.25 1035.32 1044.89 277.82 581.70 991.87 775.77 619.17 825.22 42.07 623.21 476.77 708.66 602.32 522.75 818.09 658.82 702.16 540.73 583.72 607.01 825.92 354.35 472.63 730.57 588.63 617.43 693.78 870.25 535.67 648.68 606.10 906.47 802.20 702.35 310.98 527.04 394.52 248.14 836.12 482.46 0.00 719.00 786.65 592.95 647.99 495.01 768.08 560.68 214.31 445.54 531.34 296.83 800.92 576.32 385.45 510.94 978.62 487.58 173.77 666.28 538.93 487.44 850.67 675.71 1040.64 613.32 984.64 933.93 417.92 509.91 573.60 629.07
518.20 499.41 471.82 677.64 365.36 284.40 399.13 384.61 677.41 951.30 602.01 641.98 555.36 650.99 530.04 879.66 676.94 499.46 158.59 353.63 547.99 508.72 604.12 225.71 654.21 325.29 656.62 437.28 921.10 1001.51 395.02 669.85 319.74 553.03 527.74 507.26 325.54 699.03 632.84 798.11 116.49 807.06 915.03 182.20 658.28 486.85 932.49 542.82 817.04 387.60 667.16 543.41 564.69 974.22 434.88 449.33 611.66 516.84 291.49 195.19 580.43 767.85 473.45 802.04 546.54 565.30 99.17 380.35 367.35 943.50 826.66 848.93 335.36 689.81 924.96 606.57 755.65 1007.72 462.40 537.84 999.68 247.01 799.37 784.12 456.23 501.09 717.90 492.37 479.04 1004.76 690.81 414.60 480.10 885.35 884.64 916.11 524.47 1014.71 604.94 727.97 258.54 588.50 759.80 543.44 1016.78 255.08 191.37 196.25 717.26 74.34 568.77 1040.86 950.80 209.21 771.48 621.48 525.35 78.43 215.04 193.10 219.84 630.21 699.81 694.50 517.48 874.02 312.71 550.73 492.30 337.25 649.64 923.94 500.24 884.66 719.00 0.00 433.62 797.43 523.07 381.53 902.32 302.73 658.27 481.87 1059.44 506.45 347.38 1036.00 913.51 944.22 484.60 295.94 613.17 205.21 565.30 272.12 734.13 866.64 1023.97 159.64 767.25 670.85 447.07 872.46 315.65 108.65
549.49 771.06 403.89 677.92 578.86 308.39 340.54 260.61 641.45 856.08 567.17 734.00 239.69 252.06 287.99 845.17 788.81 466.20 418.50 628.84 114.37 472.06 170.50 519.39 747.58 157.34 530.33 400.62 694.55 832.34 661.88 509.85 515.40 603.30 264.37 255.95 443.17 313.67 511.41 794.19 453.58 416.60 598.80 429.45 631.35 261.13 677.09 137.42 852.66 359.61 383.64 399.65 398.90 747.67 169.39 278.09 470.32 271.73 630.25 238.43 840.22 589.58 702.47 420.18 856.12 438.07 399.59 129.04 600.65 791.59 451.87 628.24 586.38 354.64 669.56 262.82 455.81 899.96 596.35 795.67 772.81 506.92 573.65 399.48 662.52 413.57 665.93 629.28 733.36 738.56 733.27 290.86 485.56 894.66 552.45 533.28 604.70 834.17 280.51 474.75 614.58 207.81 788.43 236.43 886.35 247.21 514.09 418.57 401.35 448.63 277.29 971.17 756.44 565.25 467.39 518.55 455.32 440.78 465.52 476.70 313.83 232.14 521.54 397.10 291.74 590.33 188.71 295.33 565.56 297.45 527.80 856.36 96.23 747.12 786.65 433.62 0.00 558.71 228.01 344.87 646.96 261.18 769.17 753.52 981.49 579.71 179.04 808.96 822.18 786.72 294.14 503.68 634.63 523.16 301.93 417.42 381.38 600.29 671.31 413.96 399.23 278.60 686.53 734.79 248.26 333.37
1052.11 822.81 373.46 326.35 740.80 514.12 399.39 708.90 427.54 410.26 501.83 608.67 681.86 627.83 344.70 318.11 621.78 482.33 854.11 796.46 444.34 419.91 470.91 734.39 610.86 619.64 225.42 455.50 195.45 273.63 728.33 174.68 672.98 594.29 334.96 681.36 632.24 374.05 278.56 587.81 751.05 553.40 354.53 714.22 437.65 358.91 418.00 522.92 567.64 501.26 253.49 890.26 276.06 220.93 644.06 746.71 242.74 763.36 758.62 631.02 902.84 70.23 735.82 511.21 880.92 232.13 734.59 627.90 755.50 249.27 415.46 118.48 802.49 333.08 272.19 640.89 344.45 451.27 650.62 842.54 241.58 927.39 35.62 444.41 678.65 378.22 366.61 609.16 745.95 207.33 547.17 711.98 501.69 531.89 547.67 510.34 605.82 327.30 700.71 241.22 824.25 536.34 577.93 381.68 435.23 690.91 768.73 664.81 313.92 785.08 331.98 447.17 197.73 812.83 357.81 304.89 347.71 806.03 723.74 783.88 706.81 557.60 105.99 234.01 380.70 313.52 637.00 340.38 536.74 486.52 264.72 493.30 538.40 258.98 592.95 797.43 558.71 0.00 395.13 487.77 221.57 543.03 674.67 805.27 497.89 527.14 647.06 327.53 372.47 270.51 798.76 696.78 477.70 830.34 297.40 670.56 388.99 131.75 547.35 721.14 525.19 632.59 742.27 205.87 530.11 697.50
731.73 683.11 175.88 453.01 498.44 248.80 134.07 409.59 461.24 631.96 464.69 538.87 423.11 373.74 98.66 632.42 593.68 348.96 531.42 547.36 227.49 257.84 199.86 483.59 605.74 329.78 305.42 241.63 577.81 613.31 549.49 288.69 423.88 488.23 94.15 452.00 357.22 312.02 295.02 688.33 514.00 491.04 555.27 457.10 514.53 36.22 596.04 256.76 681.28 215.08 270.09 601.25 173.99 616.06 317.63 426.33 260.08 436.93 586.99 350.95 746.37 393.14 557.94 428.34 726.71 211.33 423.90 273.46 501.34 563.58 426.97 455.39 613.37 323.42 531.41 421.45 361.05 688.38 470.53 659.31 636.71 565.78 402.28 361.54 539.55 185.56 480.25 484.75 609.03 602.46 558.86 439.10 356.28 707.86 550.80 506.80 490.23 663.95 439.07 368.21 589.98 320.93 636.48 43.66 693.58 368.32 498.45 398.91 330.52 519.76 202.38 746.26 564.26 555.69 374.41 293.64 227.31 483.34 416.02 481.73 379.81 341.02 345.84 305.38 63.73 514.26 341.10 214.28 429.25 249.47 317.56 628.35 310.34 554.35 647.99 523.07 228.01 395.13 0.00 229.82 433.16 220.34 625.77 700.65 785.54 430.51 309.04 638.74 594.17 609.97 495.74 447.68 532.15 562.41 113.46 423.28 363.10 461.27 615.17 471.42 513.96 429.64 596.63 541.89 207.42 423.06
727.14 475.60 114.31 369.82 300.18 109.24 147.25 419.12 296.58 643.48 275.53 430.88 528.09 540.46 287.77 682.46 473.08 163.08 505.56 408.65 409.25 127.19 429.68 355.09 432.17 356.44 320.86 55.75 633.27 619.98 319.67 374.36 286.16 287.89 305.43 531.08 191.47 501.13 256.80 512.11 311.95 706.92 721.84 275.12 339.71 193.60 751.76 455.47 555.77 14.74 459.20 590.14 211.71 686.39 382.65 491.35 254.15 501.95 412.36 299.67 550.69 426.66 357.60 639.70 522.57 269.81 308.11 384.98 340.69 648.01 596.98 553.44 445.41 538.79 707.10 551.22 525.97 692.48 303.91 455.17 699.08 529.67 476.04 591.36 339.21 124.52 410.08 284.41 408.69 684.38 425.67 504.12 159.48 603.02 739.91 736.62 262.98 673.65 552.71 534.78 418.65 502.69 496.79 273.48 676.44 342.46 356.96 185.28 519.63 321.35 431.10 765.08 650.96 373.73 563.52 255.77 189.97 372.69 289.83 319.57 352.16 547.72 386.21 450.63 224.03 680.83 383.15 414.38 239.48 47.42 281.92 631.57 384.63 606.13 495.01 381.53 344.87 487.77 229.82 0.00 606.83 194.48 429.74 493.14 771.58 253.63 348.48 685.48 605.69 646.62 560.76 279.72 342.99 366.03 307.33 193.46 538.36 564.20 809.04 256.83 725.32 611.40 371.72 578.94 196.05 276.02
1033.10 981.04 530.66 474.43 878.90 669.98 555.25 803.67 575.62 550.09 659.12 780.81 675.89 626.52 446.75 427.60 769.86 662.69 955.41 920.26 555.77 506.75 492.21 895.29 772.95 727.09 373.50 581.08 238.47 319.84 864.98 282.17 796.78 739.77 470.37 703.19 790.38 375.71 436.79 735.89 918.78 526.20 220.43 881.95 627.63 469.38 250.55 509.54 715.72 621.57 275.32 912.75 441.06 232.75 736.28 780.01 390.82 719.52 923.62 784.11 1050.92 218.31 875.76 455.22 1029.00 337.02 857.06 667.54 919.41 389.09 310.48 103.09 967.49 334.74 100.27 674.23 263.38 591.09 794.20 973.20 269.26 998.94 185.95 388.42 818.59 543.22 514.69 757.24 876.61 279.47 715.97 795.25 643.49 671.72 466.55 451.38 744.43 373.51 681.09 182.26 972.33 553.43 726.01 476.82 575.05 801.48 929.63 792.11 305.32 928.18 379.72 479.90 340.32 970.62 221.99 452.97 512.71 916.50 849.18 914.89 810.74 549.00 286.35 282.90 496.89 179.42 735.18 361.68 678.28 654.25 412.80 633.13 580.38 398.81 768.08 902.32 646.96 221.57 433.16 606.83 0.00 653.50 864.65 963.50 607.38 664.13 704.98 385.34 512.30 304.86 807.24 820.58 649.84 972.86 491.23 800.29 354.89 129.39 424.21 863.66 540.84 634.25 890.35 376.69 640.58 818.29
622.59 579.34 272.66 506.41 357.06 85.24 157.64 252.86 491.06 700.79 466.60 583.61 418.45 507.84 256.14 700.16 635.93 315.81 311.08 397.94 335.27 302.41 362.77 311.80 578.73 173.31 401.42 250.23 725.85 761.21 450.68 455.66 318.01 434.45 263.46 375.40 241.05 469.50 382.89 639.79 330.86 647.27 722.75 262.60 520.76 184.12 761.30 390.86 707.71 209.22 427.57 512.29 301.52 763.96 269.83 366.88 369.51 368.98 428.98 147.76 629.86 541.40 500.10 622.40 634.48 375.87 203.56 232.92 397.57 676.86 584.45 634.74 449.00 507.16 738.04 441.52 518.53 789.63 373.20 567.08 753.43 399.50 578.65 581.88 442.93 237.02 529.33 478.89 528.70 719.18 572.23 334.01 335.17 746.02 708.28 727.14 454.31 797.94 431.19 562.17 427.75 428.71 602.75 264.00 787.53 147.98 346.14 178.57 488.00 314.64 389.13 849.94 709.31 404.61 531.89 387.08 244.27 263.00 290.29 335.82 223.55 473.74 507.66 462.86 214.75 681.74 241.52 382.75 415.17 147.06 346.91 713.33 357.41 581.93 560.68 302.73 261.18 543.03 220.34 194.48 653.50 0.00 600.32 596.88 864.20 424.42 240.24 808.05 695.42 727.18 417.94 297.57 534.06 386.20 298.05 260.80 520.58 609.17 799.76 288.47 647.15 537.42 480.42 630.97 12.92 228.56
1092.77 256.90 496.14 393.28 390.46 533.54 576.99 843.40 334.05 553.73 283.19 86.90 954.44 966.81 694.00 583.60 141.71 347.42 738.39 337.04 816.17 435.68 799.63 493.15 153.77 747.79 516.25 454.75 838.27 771.25 296.84 687.22 420.26 165.87 684.06 955.36 447.88 881.97 452.19 250.80 578.13 1087.73 1020.75 476.07 237.02 617.88 1044.53 881.82 403.18 439.02 865.43 1014.42 551.55 844.08 806.93 895.79 503.70 926.23 434.82 675.03 337.92 649.40 251.65 1016.75 266.15 599.46 683.85 788.31 373.77 641.02 972.58 784.70 421.12 904.52 938.41 977.57 925.48 620.23 309.34 231.28 811.23 826.81 701.84 987.31 293.17 545.99 368.22 200.03 200.56 810.96 196.99 861.06 328.06 410.81 1120.75 1129.41 217.87 773.02 976.99 860.29 507.95 909.61 255.48 669.43 636.27 728.15 499.30 520.34 914.66 626.88 783.48 656.69 739.26 486.59 884.09 462.21 544.87 675.11 491.64 545.89 717.11 954.64 624.76 728.96 602.66 979.74 807.43 801.52 248.06 471.72 483.04 449.81 810.98 615.97 214.31 658.27 769.17 674.67 625.77 429.74 864.65 600.32 0.00 239.36 717.42 241.51 772.76 752.94 591.52 706.34 947.84 396.46 217.87 563.26 685.96 462.34 958.44 759.59 1152.68 511.43 1092.88 1018.32 278.48 617.77 587.40 592.02
931.01 17.54 539.40 506.61 239.82 511.64 589.48 730.21 440.95 754.91 446.95 326.26 909.65 1005.58 761.52 822.96 369.54 421.30 626.03 210.39 851.48 531.70 849.07 290.01 393.13 701.82 590.77 528.63 946.34 955.88 173.47 761.74 313.82 350.50 749.73 857.08 379.79 968.83 526.71 490.16 390.78 1080.33 1080.90 390.49 424.60 664.43 1171.95 890.94 597.52 502.48 932.95 946.45 636.80 957.41 843.09 834.83 578.22 894.05 225.63 587.53 98.56 745.96 169.10 1084.86 102.60 695.59 511.98 758.92 199.31 807.23 1021.57 862.06 181.76 934.21 1015.77 990.20 950.56 836.69 294.71 55.97 972.85 702.58 800.11 1044.23 224.98 589.25 485.68 314.42 134.67 1007.10 427.40 833.63 430.36 638.64 1199.14 1156.01 296.41 961.48 994.53 935.00 268.59 940.90 487.61 692.87 845.75 639.87 290.50 424.62 968.75 439.53 851.59 896.05 925.04 307.49 991.95 569.47 615.06 487.76 357.58 337.09 574.13 895.87 699.28 803.67 687.28 1078.01 725.58 842.45 376.18 525.51 562.69 680.22 849.75 712.30 445.54 481.87 753.52 805.27 700.65 493.14 963.50 596.88 239.36 0.00 911.76 362.03 749.93 956.84 742.48 890.72 863.24 316.63 379.49 354.46 770.58 382.54 990.12 834.11 1260.54 390.63 1075.05 989.33 150.55 836.03 609.80 420.15
1433.13 894.22 712.06 427.24 876.95 844.55 776.06 1086.11 528.43 227.78 567.49 644.51 1071.36 1083.73 723.15 179.78 613.79 710.42 1175.28 907.42 942.23 644.39 901.26 1022.88 577.64 1014.52 575.86 724.64 460.81 370.98 809.22 592.65 863.86 636.11 746.77 1108.12 893.92 831.59 605.03 466.62 1051.14 970.89 773.22 949.08 534.37 768.50 834.52 998.74 314.24 786.32 751.38 1291.36 683.44 440.03 1019.03 1127.73 613.24 1127.70 989.04 1011.96 955.75 488.36 817.51 974.95 895.74 579.40 1067.76 963.08 889.26 248.62 768.66 519.29 961.76 818.86 604.25 1094.49 781.94 111.18 740.58 927.36 409.18 1263.70 511.29 919.59 775.83 756.72 467.50 706.07 855.82 443.43 579.88 1140.50 713.87 370.70 957.31 909.08 675.22 348.43 1140.47 716.89 1022.98 981.21 545.80 745.06 95.14 1012.18 988.54 922.70 811.81 1058.77 807.65 142.48 332.46 1037.70 769.41 586.61 714.07 1073.78 967.26 976.64 1055.97 1009.11 503.41 652.90 748.47 759.51 1030.72 796.67 674.43 819.00 586.74 327.06 927.90 282.27 531.34 1059.44 981.49 497.89 785.54 771.58 607.38 864.20 717.42 911.76 0.00 687.32 1010.44 323.22 191.37 302.52 1197.14 887.66 532.27 1052.50 730.84 901.60 854.46 513.68 905.93 984.44 1023.08 1074.07 856.70 302.73 877.12 1029.02
884.09 359.17 254.63 285.91 252.24 344.08 366.31 652.01 184.72 474.52 123.86 244.55 726.83 765.75 482.65 568.01 277.12 113.51 556.38 313.75 582.26 230.89 625.59 418.91 219.92 535.55 336.39 220.84 681.94 650.83 215.67 499.93 254.06 75.64 459.03 739.74 239.11 696.01 272.33 360.44 480.86 853.82 834.48 395.96 188.04 429.61 897.95 660.84 373.08 251.22 654.08 818.35 352.03 671.04 619.13 727.83 293.68 734.45 364.42 433.52 404.72 456.91 211.63 782.84 375.33 420.32 465.06 554.40 267.89 569.30 772.87 561.04 383.67 670.61 714.75 778.81 701.86 594.19 146.91 318.06 634.53 644.80 515.57 785.41 154.46 304.48 258.68 103.57 261.58 668.78 213.42 698.23 94.15 441.39 934.79 896.91 80.30 664.81 789.19 680.62 409.38 675.70 311.06 474.17 603.25 493.41 420.40 337.02 680.75 432.11 549.57 715.30 666.83 424.25 726.73 327.83 313.93 509.38 387.48 427.78 505.94 720.73 434.88 549.29 389.20 793.47 599.11 567.61 14.15 282.26 308.31 466.24 638.26 510.43 296.83 506.45 579.71 527.14 430.51 253.63 664.13 424.42 241.51 362.03 687.32 0.00 584.96 678.76 499.98 594.05 764.68 277.86 155.05 477.04 470.41 310.74 718.32 579.73 972.12 414.16 868.46 784.41 261.56 474.00 411.50 443.34
461.71 749.62 401.88 681.51 527.34 325.48 297.36 106.57 645.06 883.21 624.01 771.04 289.85 312.42 334.03 872.59 797.23 511.56 265.56 558.36 241.65 475.67 305.21 493.83 751.17 66.93 554.85 404.23 758.08 866.13 616.54 563.75 486.63 606.89 351.61 229.22 420.64 440.95 555.08 855.73 408.57 526.07 730.43 393.35 688.19 304.63 745.71 195.44 893.37 333.74 448.47 306.77 434.05 811.20 114.12 156.31 520.14 233.42 611.01 162.40 812.88 641.78 676.60 479.82 796.69 503.87 303.72 58.09 567.85 825.86 577.84 649.38 622.94 447.14 738.18 267.51 524.13 909.99 594.19 731.05 836.66 353.98 673.67 474.13 628.46 352.03 692.90 603.41 709.01 836.86 744.67 191.04 507.96 931.68 619.28 591.30 611.46 898.26 284.18 543.37 566.43 323.26 842.31 265.38 915.30 140.37 489.74 342.54 469.67 419.52 381.99 990.94 844.79 540.90 547.18 522.14 429.93 351.55 445.01 452.35 199.92 349.15 624.47 507.72 326.01 689.42 34.67 363.95 570.81 375.95 561.31 922.01 192.34 776.07 800.92 347.38 179.04 647.06 309.04 348.48 704.98 240.24 772.76 749.93 1010.44 584.96 0.00 878.98 845.42 845.34 215.06 510.43 691.47 498.81 349.66 439.49 503.05 677.33 731.67 389.61 466.29 431.97 663.14 749.64 227.32 329.78
1216.77 974.38 582.81 487.55 911.72 755.52 675.03 965.16 565.88 351.33 613.49 735.63 976.70 896.43 568.21 169.34 726.73 661.99 1118.45 970.93 771.87 654.10 711.15 947.18 672.19 825.05 417.54 655.73 193.88 65.50 871.81 408.59 870.41 670.88 544.59 1002.52 797.38 637.06 481.60 648.31 971.39 747.06 537.60 922.17 623.49 642.59 511.30 810.35 495.93 700.22 574.65 1082.54 529.06 205.85 908.65 963.75 442.97 1020.38 1011.62 915.64 1045.37 304.14 852.28 705.64 995.03 501.85 993.59 876.38 909.82 149.61 609.95 282.25 1018.69 623.73 347.07 966.43 542.88 293.57 807.70 941.61 169.34 1174.53 313.57 638.84 810.60 631.22 527.81 740.84 845.02 180.94 625.54 989.93 681.35 494.25 758.26 698.34 727.51 25.21 939.05 483.12 1017.62 809.24 618.39 634.68 309.61 914.92 946.00 861.97 590.16 998.04 609.93 216.79 129.80 1004.47 533.40 521.41 568.21 1058.17 920.42 986.13 953.11 772.07 372.18 465.88 625.99 496.59 893.26 609.65 692.91 732.90 481.24 435.12 857.62 244.54 576.32 1036.00 808.96 327.53 638.74 685.48 385.34 808.05 752.94 956.84 323.22 678.76 878.98 0.00 335.15 91.78 1019.40 894.21 662.96 1009.96 582.15 831.65 666.30 262.69 703.27 942.31 791.26 865.53 908.17 204.76 795.13 961.50
1307.13 744.27 560.40 235.87 709.93 666.79 629.98 948.28 337.06 37.79 376.12 504.62 1017.28 967.91 626.40 198.38 449.81 526.91 1006.50 718.35 816.81 478.50 780.32 837.34 460.00 855.50 437.36 558.75 447.46 295.50 619.23 440.97 672.49 490.80 616.66 1027.51 702.55 721.82 426.15 349.40 861.88 925.87 680.37 795.47 391.06 630.39 747.84 850.93 249.02 620.43 625.96 1145.28 507.96 407.93 898.15 1001.73 421.87 1017.45 799.05 843.18 825.29 368.60 650.08 883.68 705.75 472.41 898.98 867.63 706.64 185.54 730.17 410.86 818.77 705.55 564.57 1013.36 695.01 94.21 591.97 763.38 427.78 1076.32 374.47 816.88 608.81 565.35 276.13 515.95 690.36 437.47 396.31 1019.62 522.50 180.71 886.52 849.19 483.85 340.53 1019.59 580.07 867.07 865.39 391.89 624.18 103.27 843.40 831.86 790.97 686.39 903.79 670.83 259.60 318.39 846.33 653.62 395.24 531.04 958.42 775.89 785.27 890.08 900.68 337.90 572.19 657.90 649.74 880.09 688.87 485.83 653.11 395.37 143.49 896.96 113.49 385.45 913.51 822.18 372.47 594.17 605.69 512.30 695.42 591.52 742.48 191.37 499.98 845.42 335.15 0.00 269.77 1060.48 696.29 411.28 875.36 579.10 718.33 761.46 382.91 891.86 830.83 897.66 974.10 671.28 192.96 708.34 881.71
1233.07 904.17 533.22 395.77 828.15 697.98 583.25 932.18 496.96 285.95 566.89 648.28 911.43 838.77 511.31 122.74 639.38 596.61 1038.26 887.36 714.85 576.92 663.92 896.21 601.88 819.61 325.76 606.14 221.06 68.46 788.24 376.82 805.03 669.69 534.93 951.87 712.91 629.92 389.82 582.43 939.80 768.49 525.29 863.20 557.37 594.96 555.41 768.73 449.33 649.62 524.00 1085.50 457.19 180.35 853.93 951.72 393.38 973.23 925.27 857.79 977.29 297.08 784.20 708.60 924.72 429.25 918.45 811.60 840.46 84.23 518.42 285.21 933.98 603.59 301.73 890.56 568.24 286.23 722.99 905.80 181.73 1126.46 256.55 641.80 727.03 559.35 436.03 678.58 811.11 192.44 538.19 932.91 610.93 428.87 706.49 606.56 674.35 70.76 882.03 462.15 981.45 732.98 553.01 579.96 270.19 875.16 908.10 824.10 584.43 960.17 551.43 211.92 72.78 952.39 526.85 445.32 518.62 990.18 828.64 894.35 912.37 774.98 294.74 389.62 580.91 484.28 879.24 533.39 608.20 675.27 421.92 380.88 802.76 178.42 510.94 944.22 786.72 270.51 609.97 646.62 304.86 727.18 706.34 890.72 302.52 594.05 845.34 91.78 269.77 0.00 1009.74 828.83 571.18 972.06 558.61 772.68 616.08 288.20 646.25 884.04 794.22 831.00 834.13 120.05 714.26 881.36
255.35 880.78 584.59 882.62 693.03 503.18 505.17 165.08 836.95 1066.52 836.29 897.80 216.97 299.17 498.43 1074.64 952.61 698.76 359.01 738.56 386.15 666.55 416.11 598.89 963.45 262.99 740.84 616.51 951.38 1022.81 768.55 726.46 619.00 819.17 474.81 154.95 568.65 582.26 721.85 939.96 497.76 500.28 812.04 541.36 886.49 483.84 844.77 350.19 1077.40 546.02 582.82 105.51 621.61 987.98 178.11 69.41 696.92 87.72 669.66 331.16 939.71 821.94 843.29 513.62 924.71 636.02 385.43 260.14 733.54 1014.22 693.77 846.00 713.53 557.71 861.97 270.02 661.86 1110.40 742.20 896.74 985.86 302.66 763.14 580.42 794.08 567.09 876.37 815.69 822.44 968.77 956.95 86.78 700.90 1118.19 664.88 738.02 823.74 1024.37 234.21 624.98 658.47 382.78 1019.14 452.08 1102.00 288.38 598.04 508.23 621.03 474.97 505.78 1189.36 946.91 654.62 670.46 723.25 639.22 412.48 562.83 567.15 289.11 415.63 770.53 631.51 524.25 771.03 236.98 487.74 778.83 556.50 741.86 1104.72 292.09 962.77 978.62 484.60 294.14 798.76 495.74 560.76 807.24 417.94 947.84 863.24 1197.14 764.68 215.06 1019.40 1060.48 1009.74 0.00 621.27 903.75 582.58 512.37 605.18 596.11 834.70 718.42 523.68 480.88 360.25 804.12 951.69 407.87 443.09
727.75 299.09 356.64 460.42 76.81 293.28 377.01 546.52 381.47 697.98 355.84 371.22 667.68 750.41 478.77 799.99 421.09 252.53 425.19 134.50 618.05 330.99 647.54 141.05 410.67 458.54 531.12 250.74 851.76 871.77 170.43 588.11 23.80 266.39 502.39 670.31 157.89 692.13 471.92 550.84 220.47 880.10 930.79 170.02 412.88 411.46 987.14 641.10 613.41 294.46 650.20 726.78 454.04 904.88 555.06 586.81 463.50 658.26 186.91 363.35 362.35 636.01 222.02 856.69 359.39 483.56 308.72 516.95 117.32 744.60 807.08 767.19 165.69 685.65 920.80 726.75 741.16 790.50 166.69 291.99 884.09 498.78 685.39 806.75 177.93 359.91 467.74 196.43 231.13 893.73 404.17 556.02 244.20 659.27 930.91 911.95 228.53 899.59 716.42 770.17 224.68 711.49 500.72 491.34 799.56 385.54 169.64 183.21 710.63 269.22 623.42 873.10 822.92 197.64 754.52 446.66 386.01 317.45 149.27 179.81 332.16 735.82 604.70 645.62 428.64 889.78 475.76 605.38 263.71 303.61 486.83 656.99 594.58 711.32 487.58 295.94 503.68 696.78 447.68 279.72 820.58 297.57 396.46 316.63 887.66 277.86 510.43 894.21 696.29 828.83 621.27 0.00 395.38 199.18 511.94 86.26 741.56 779.32 1013.65 136.30 902.91 782.28 182.85 735.08 298.15 216.89
1015.38 361.95 356.27 175.41 380.25 448.82 466.26 762.11 116.18 398.38 67.46 130.97 831.57 841.14 543.43 511.61 185.78 218.25 684.39 395.53 695.03 274.31 631.47 515.03 140.63 690.60 319.71 325.58 655.42 635.85 348.42 504.85 382.07 182.31 528.49 867.75 394.16 756.42 281.45 238.83 560.37 922.63 832.23 459.85 45.11 520.91 895.70 744.86 218.03 357.73 700.34 933.13 383.14 626.21 725.64 834.34 298.60 844.94 480.77 588.57 442.97 431.53 350.04 851.65 447.01 424.53 596.35 682.41 400.52 518.99 795.75 596.18 481.09 739.42 749.89 888.31 751.36 505.49 228.69 433.57 593.36 772.81 513.32 860.52 292.87 406.12 150.35 200.01 340.34 627.61 98.64 847.11 222.16 286.34 947.43 935.22 167.91 641.94 895.70 666.10 520.61 772.72 159.65 564.31 507.51 648.46 517.40 465.03 759.57 546.08 618.38 663.89 643.96 545.08 788.50 279.66 328.91 623.35 467.23 483.76 633.95 799.33 425.31 558.41 495.91 791.22 726.14 636.42 142.16 387.00 317.43 324.93 725.93 424.06 173.77 613.17 634.63 477.70 532.15 342.99 649.84 534.06 217.87 379.49 532.27 155.05 691.47 662.96 411.28 571.18 903.75 395.38 0.00 573.85 531.29 369.33 794.49 588.85 992.10 495.21 887.78 881.43 324.43 519.42 535.63 504.52
685.50 372.00 480.34 659.60 253.47 347.94 459.95 519.42 580.65 897.16 546.16 570.40 679.29 775.22 616.50 987.81 620.27 450.03 324.11 226.22 637.53 486.84 641.19 98.30 605.69 441.19 649.27 421.78 975.62 944.46 325.34 740.39 222.98 465.57 608.88 646.50 280.45 816.93 622.83 689.77 144.28 927.76 985.45 123.60 610.34 539.33 1076.93 658.74 738.26 380.77 787.93 688.09 577.74 1019.56 547.61 587.83 620.18 653.49 191.19 357.17 453.02 792.69 385.31 943.34 446.24 635.84 266.47 515.08 253.91 918.97 944.81 877.58 183.16 840.35 1018.38 719.30 878.89 969.57 352.67 410.43 986.40 384.92 794.72 906.38 354.59 478.71 666.92 395.61 369.07 1003.06 603.35 563.26 443.38 806.57 1051.94 1054.60 427.71 998.13 717.67 825.82 96.33 730.97 689.36 596.09 978.63 358.44 63.96 219.10 848.36 130.87 722.92 1072.28 978.49 108.91 890.23 616.85 550.15 170.10 146.39 90.09 343.77 755.30 731.83 743.20 557.93 944.44 464.14 713.63 462.89 351.30 645.96 845.16 619.39 910.50 666.28 205.21 523.16 830.34 562.41 366.03 972.86 386.20 563.26 354.46 1052.50 477.04 498.81 1009.96 875.36 972.06 582.58 199.18 573.85 0.00 641.23 214.12 880.94 890.85 1072.60 109.20 918.68 801.76 347.53 866.75 373.28 189.79
762.12 759.61 245.55 451.22 579.07 312.54 197.81 411.50 455.24 554.15 481.48 599.06 474.56 392.08 47.30 583.84 577.53 368.53 609.13 627.17 266.26 310.03 204.12 595.52 634.73 322.24 246.75 261.20 492.85 571.03 618.05 214.09 503.69 520.60 37.56 501.08 437.85 257.61 269.18 618.04 576.86 455.96 481.13 527.69 534.10 116.03 545.18 317.51 637.94 292.59 218.73 617.88 148.15 518.33 358.25 456.72 234.24 477.55 630.71 430.76 810.09 318.54 617.00 396.50 748.73 154.21 501.61 351.22 581.15 532.41 375.48 393.17 674.58 284.27 471.21 462.81 309.69 619.66 490.10 728.98 538.98 679.24 333.02 392.10 559.83 200.56 439.12 534.31 657.52 504.73 573.16 453.54 380.74 680.94 496.39 506.38 514.69 603.70 479.69 342.84 675.62 286.29 581.00 84.28 635.70 399.81 578.81 422.13 279.16 558.20 163.23 695.27 495.13 637.28 286.99 307.94 219.80 561.05 529.48 565.27 465.13 331.32 288.72 254.02 83.30 440.12 339.60 163.42 456.26 329.28 291.72 642.86 360.32 465.61 538.93 565.30 301.93 297.40 113.46 307.33 491.23 298.05 685.96 770.58 730.84 470.41 349.66 582.15 579.10 558.61 512.37 511.94 531.29 641.23 0.00 500.79 311.74 399.80 501.71 532.03 445.71 395.00 620.03 501.97 287.23 456.65
698.20 365.00 307.77 526.90 161.44 219.93 334.66 488.62 425.71 700.07 342.21 437.10 657.11 669.48 468.76 775.58 448.77 235.91 352.84 220.76 531.79 320.65 587.92 168.76 391.57 419.95 495.44 249.21 816.08 813.44 244.46 567.82 97.98 332.27 485.85 611.27 71.63 682.12 450.26 566.55 192.58 793.84 857.44 90.52 406.39 387.06 945.22 554.84 587.36 208.20 640.19 661.92 405.17 869.20 530.63 576.53 427.82 620.81 240.07 277.09 422.80 600.33 303.52 833.16 445.65 463.27 279.17 478.55 183.23 747.93 775.59 732.57 251.95 719.78 886.28 680.24 719.43 812.54 229.78 378.25 853.09 441.26 649.71 784.82 246.35 317.98 519.68 262.31 317.39 818.84 455.26 541.80 246.95 655.67 920.90 930.08 294.41 843.44 684.45 688.33 275.15 625.23 497.16 466.94 821.60 336.98 183.62 96.95 700.62 233.02 611.52 893.93 824.63 240.86 687.10 449.23 383.43 289.56 101.19 163.74 345.46 649.56 569.02 621.05 417.49 816.43 416.72 595.37 324.89 217.35 475.38 694.26 513.65 777.80 487.44 272.12 417.42 670.56 423.28 193.46 800.29 260.80 462.34 382.54 901.60 310.74 439.49 831.65 718.33 772.68 605.18 86.26 369.33 214.12 500.79 0.00 731.82 745.84 955.69 125.88 816.65 696.02 269.11 652.63 273.72 191.48
748.76 1007.66 463.69 674.36 799.88 563.04 448.31 581.52 719.66 799.25 752.50 885.22 469.79 296.94 264.44 694.99 889.27 630.34 768.61 841.24 267.01 545.65 239.86 806.91 881.43 525.16 508.31 523.01 520.29 615.12 858.03 423.97 717.76 792.57 288.06 502.85 699.43 96.88 513.04 889.18 788.65 183.08 341.87 757.34 786.45 388.03 335.76 307.61 883.74 553.10 135.50 696.57 459.89 547.25 479.57 573.61 496.73 521.05 878.96 619.81 1071.12 435.83 878.03 158.10 955.80 444.88 704.70 450.57 840.39 638.26 97.66 415.25 907.25 55.91 455.16 389.24 144.38 807.25 771.17 947.12 544.55 794.28 389.27 91.30 820.86 413.84 689.62 778.82 929.12 512.31 826.27 577.07 632.37 858.85 262.81 219.88 751.25 654.43 449.06 183.67 900.85 274.60 871.69 333.09 823.29 579.03 821.77 699.15 92.80 776.98 176.95 711.98 573.04 879.01 132.90 568.54 491.74 759.40 739.34 805.05 635.36 263.77 482.00 289.47 369.46 300.86 509.62 183.40 712.37 553.71 534.94 776.84 361.07 647.97 850.67 734.13 381.38 388.99 363.10 538.36 354.89 520.58 958.44 990.12 854.46 718.32 503.05 666.30 761.46 616.08 596.11 741.56 794.49 880.94 311.74 731.82 0.00 403.61 346.88 787.74 242.86 323.11 906.19 572.04 507.66 707.15
1059.14 851.65 457.86 429.64 798.81 611.10 517.00 768.18 530.83 420.70 564.19 694.38 725.00 642.13 409.91 333.90 687.77 559.91 905.98 856.29 539.78 460.87 477.49 849.41 650.27 702.87 328.71 528.58 116.68 244.70 757.17 207.03 770.50 635.79 418.19 739.83 725.11 424.43 307.40 673.43 865.82 573.34 297.46 817.01 569.40 425.05 364.93 582.30 610.64 578.94 311.96 934.14 404.11 169.80 714.13 765.29 318.02 757.69 886.67 671.45 932.67 173.52 784.09 503.94 911.21 310.74 812.73 652.82 823.94 280.05 347.26 27.95 921.62 383.46 181.66 704.13 312.10 477.12 711.13 843.81 185.36 967.82 96.13 437.14 726.92 501.41 455.69 664.09 747.22 192.37 586.58 755.86 579.27 542.33 526.88 489.55 658.76 287.90 763.95 220.43 902.91 546.55 667.01 477.61 466.01 731.34 881.78 727.29 353.59 863.36 353.91 404.76 215.42 903.14 270.71 362.90 443.26 872.17 827.03 844.39 747.24 517.77 237.74 203.19 465.46 280.84 712.00 346.96 565.58 611.62 343.38 503.74 616.33 269.42 675.71 866.64 600.29 131.75 461.27 564.20 129.39 609.17 759.59 834.11 513.68 579.73 677.33 262.69 382.91 288.20 834.70 779.32 588.85 890.85 399.80 745.84 403.61 0.00 539.30 781.65 583.66 611.23 809.22 247.30 596.25 811.89
973.77 1261.32 734.60 816.69 1080.78 814.25 699.52 823.16 896.73 929.65 950.14 1100.77 592.10 419.25 544.34 768.99 1079.24 870.24 997.23 1128.88 563.01 796.37 582.77 1088.95 1094.06 753.78 715.76 762.91 543.55 649.37 1119.76 564.61 1005.40 986.81 539.27 650.15 939.56 378.11 770.25 1078.15 1075.40 340.41 287.34 1029.40 948.38 617.74 192.90 536.23 1057.98 794.30 372.91 823.93 649.86 596.67 683.24 749.96 733.08 718.55 1132.42 872.91 1311.80 560.57 1118.71 336.30 1250.44 655.92 924.80 698.54 1082.86 730.48 249.22 527.30 1176.29 368.75 446.73 511.55 309.98 872.50 991.81 1218.03 622.13 979.99 575.28 322.46 1061.54 684.75 856.95 1036.02 1159.23 625.93 1052.84 760.39 882.45 1072.57 139.33 142.45 1016.40 678.99 571.37 390.99 1134.75 469.57 1068.27 585.99 888.54 813.02 1080.52 923.84 351.92 1059.91 473.99 858.17 573.47 1137.18 268.59 787.62 688.46 1026.25 1031.19 1035.63 883.33 480.63 628.61 493.29 585.01 303.11 766.18 489.34 957.97 810.87 755.06 1014.25 575.08 806.33 1040.64 1023.97 671.31 547.35 615.17 809.04 424.21 799.76 1152.68 1260.54 905.93 972.12 731.67 703.27 891.86 646.25 718.42 1013.65 992.10 1072.60 501.71 955.69 346.88 539.30 0.00 1033.74 395.52 461.21 1121.74 753.22 787.56 958.36
591.45 408.17 371.14 596.72 213.11 259.70 371.71 410.22 517.77 825.95 455.17 482.34 570.09 666.02 523.30 899.32 537.15 361.79 288.89 214.88 528.33 384.02 552.95 105.43 517.45 339.11 558.28 312.58 886.68 876.81 284.30 631.19 160.10 402.69 499.68 537.30 192.21 725.94 513.63 687.14 84.17 830.56 897.21 35.36 519.35 450.43 988.69 551.38 670.20 271.57 694.73 629.19 468.54 910.36 477.11 488.79 510.98 554.49 222.61 247.97 489.19 683.49 358.32 834.14 477.66 526.64 172.42 419.36 253.62 873.81 850.02 768.38 234.44 734.47 909.18 618.40 782.80 925.04 302.76 415.99 877.20 362.48 685.52 813.44 314.23 381.35 604.04 332.73 319.40 893.86 540.47 454.06 372.83 738.51 957.89 947.24 364.83 930.48 647.17 716.62 200.62 621.77 623.04 515.08 933.27 249.24 100.13 109.90 755.16 132.92 625.35 1006.80 869.29 151.29 781.03 512.60 446.80 181.15 55.40 62.74 234.57 646.10 643.04 634.00 448.73 856.20 354.94 625.39 400.01 263.06 538.75 777.10 510.19 833.69 613.32 159.64 413.96 721.14 471.42 256.83 863.66 288.47 511.43 390.63 984.44 414.16 389.61 942.31 830.83 884.04 523.68 136.30 495.21 109.20 532.03 125.88 787.74 781.65 1033.74 0.00 809.48 692.56 319.15 778.51 285.04 80.59
736.23 1092.59 673.79 806.16 941.63 689.97 584.78 526.44 855.86 935.45 897.48 1018.75 367.64 268.61 443.13 843.30 1023.24 785.58 731.85 979.83 322.78 755.74 325.28 892.17 988.80 488.40 599.77 703.86 700.34 725.76 1035.25 565.09 906.50 937.12 444.56 425.69 825.35 284.06 640.69 1025.38 807.67 59.78 466.07 813.22 926.21 550.18 416.77 270.85 1019.94 729.04 271.70 586.39 593.86 746.12 458.78 522.62 589.18 494.09 1009.35 596.29 1173.61 595.42 1039.07 85.62 1177.65 551.43 719.69 414.23 973.93 774.46 303.35 601.20 985.61 273.52 641.11 287.09 345.71 976.46 925.02 1122.57 749.93 783.54 560.81 152.42 981.90 642.44 846.12 929.40 1090.16 722.71 925.11 487.89 774.31 995.05 256.19 297.26 908.26 779.43 346.91 412.69 968.38 229.34 1016.85 477.61 960.42 560.24 907.19 776.43 303.20 839.39 318.89 929.50 722.92 955.70 318.85 659.89 665.51 773.02 824.76 872.22 599.02 214.09 631.18 425.67 525.96 505.97 454.54 336.93 854.31 696.68 646.66 913.04 341.69 784.17 984.64 767.25 399.23 525.19 513.96 725.32 540.84 647.15 1092.88 1075.05 1023.08 868.46 466.29 791.26 897.66 794.22 480.88 902.91 887.78 918.68 445.71 816.65 242.86 583.66 395.52 809.48 0.00 120.63 1051.90 731.06 634.23 732.60
615.60 1006.87 604.85 806.54 840.60 578.88 464.15 442.53 803.30 949.15 837.09 968.51 320.64 147.98 366.77 894.29 967.96 709.62 697.10 907.44 202.15 656.10 249.96 797.99 997.35 435.94 637.08 623.71 718.66 800.03 929.06 560.09 794.00 853.07 390.39 328.55 704.72 258.54 637.43 968.72 732.18 140.03 515.41 708.05 864.89 444.06 537.40 262.67 992.98 622.92 379.10 465.76 543.15 754.69 389.48 429.66 614.92 385.03 903.59 475.66 1087.89 664.54 932.08 206.25 1091.93 532.26 624.50 385.71 879.25 825.45 358.12 583.28 864.98 299.51 638.61 240.28 391.60 978.74 840.97 1044.31 764.10 662.91 609.43 268.45 905.94 555.00 791.95 845.35 983.17 746.38 956.76 447.03 690.26 1033.77 321.88 377.77 824.21 853.70 235.76 470.30 893.18 108.71 976.00 390.82 994.78 504.51 792.69 655.80 337.14 727.23 313.07 960.09 793.20 843.85 412.26 692.93 614.80 678.01 744.12 755.30 551.45 93.46 666.77 441.38 471.79 474.40 398.81 297.61 770.26 576.05 672.40 1020.44 239.63 860.61 933.93 670.85 278.60 632.59 429.64 611.40 634.25 537.42 1018.32 989.33 1074.07 784.41 431.97 865.53 974.10 831.00 360.25 782.28 881.43 801.76 395.00 696.02 323.11 611.23 461.21 692.56 120.63 0.00 965.13 787.40 526.86 611.97
859.76 168.09 478.74 494.69 135.80 407.62 518.97 660.92 396.92 633.49 338.43 289.23 850.53 912.18 641.75 780.18 321.56 302.09 540.75 123.26 780.97 410.28 777.06 250.90 349.47 614.69 565.88 409.42 888.44 842.67 52.05 709.61 201.60 237.29 618.13 823.01 276.39 855.11 501.82 466.42 355.64 1048.05 1042.21 343.62 369.54 560.41 1115.95 819.32 542.46 386.46 813.18 885.57 557.93 911.55 721.84 764.61 535.03 835.07 156.34 500.74 212.88 672.04 55.89 977.07 176.54 630.24 486.19 637.67 95.29 788.88 964.98 822.60 200.21 863.45 955.96 893.53 897.69 765.49 176.83 109.14 875.04 614.47 756.92 958.17 107.10 496.24 471.27 211.88 77.92 909.29 375.07 733.82 321.45 590.66 1093.89 1086.91 232.06 885.57 891.90 887.82 262.81 874.41 436.49 628.45 774.55 556.66 284.88 320.60 847.33 404.39 743.80 928.04 860.69 238.62 899.48 517.72 486.28 452.62 277.58 312.01 515.01 887.65 641.38 778.78 536.73 1001.20 653.56 756.38 275.71 419.14 477.55 624.79 756.35 693.95 417.92 447.07 686.53 742.27 596.63 371.72 890.35 480.42 278.48 150.55 856.70 261.56 663.14 908.17 671.28 834.13 804.12 182.85 324.43 347.53 620.03 269.11 906.19 809.22 1121.74 319.15 1051.90 965.13 0.00 735.56 477.25 394.36
1146.34 833.17 464.63 389.61 726.24 588.06 473.33 827.68 452.48 230.75 535.98 530.87 852.41 811.95 541.28 122.95 521.97 510.24 942.05 769.78 650.21 521.93 676.78 821.39 484.47 744.21 273.13 537.55 295.23 188.51 689.67 358.54 728.06 549.64 539.53 876.89 675.41 528.86 334.83 508.42 845.21 755.12 497.79 743.15 530.30 518.57 589.27 728.79 395.59 572.10 459.36 988.63 404.56 242.11 775.72 884.42 324.79 895.02 838.42 749.61 878.72 263.05 685.63 704.03 807.31 347.76 808.53 691.55 741.89 95.30 594.56 275.25 813.93 516.13 413.55 846.76 550.32 287.17 602.94 792.06 236.55 1023.87 241.49 637.23 628.46 506.72 424.94 577.57 725.34 270.80 420.78 881.07 490.88 373.67 743.91 716.21 554.30 190.81 868.55 447.09 881.67 734.82 518.42 569.88 281.26 778.95 836.25 749.58 519.79 859.02 537.85 241.30 192.83 832.34 518.01 380.46 450.03 893.97 753.82 816.37 802.45 728.26 213.25 439.88 478.16 456.78 759.19 546.25 488.15 593.78 340.29 336.45 708.95 153.84 509.91 872.46 734.79 205.87 541.89 578.94 376.69 630.97 617.77 836.03 302.73 474.00 749.64 204.76 192.96 120.05 951.69 735.08 519.42 866.75 501.97 652.63 572.04 247.30 753.22 778.51 731.06 787.40 735.56 0.00 641.91 771.44
635.51 592.26 269.54 493.49 369.98 98.16 168.58 265.78 481.86 713.71 468.17 585.18 431.37 494.92 243.22 713.08 623.01 317.38 324.00 410.86 348.19 315.33 366.86 324.72 565.81 160.39 388.50 251.80 712.93 748.29 463.60 442.74 321.95 421.53 250.54 378.86 253.97 456.58 369.97 652.71 317.94 660.19 724.28 249.68 522.33 171.20 751.59 377.94 694.79 202.42 414.65 499.37 303.00 751.04 256.91 355.82 356.59 363.98 441.90 143.53 642.78 528.48 513.02 609.48 647.40 386.81 216.48 220.00 410.49 689.78 571.53 621.82 461.92 494.24 725.12 428.60 505.61 802.55 386.12 580.00 766.35 412.20 565.73 568.96 455.85 249.94 533.75 472.09 529.28 732.10 559.31 321.09 336.74 733.10 695.36 714.22 444.79 785.02 418.27 549.25 440.67 441.63 615.67 251.08 800.45 160.90 358.62 191.49 475.08 327.56 376.21 837.02 720.25 417.09 518.97 374.16 231.35 275.92 303.21 322.90 219.32 480.40 494.74 449.94 211.61 694.66 228.60 369.83 416.74 148.63 333.99 726.25 344.49 594.85 573.60 315.65 248.26 530.11 207.42 196.05 640.58 12.92 587.40 609.80 877.12 411.50 227.32 795.13 708.34 714.26 407.87 298.15 535.63 373.28 287.23 273.72 507.66 596.25 787.56 285.04 634.23 526.86 477.25 641.91 0.00 215.64
510.86 437.69 390.33 645.84 291.12 290.42 298.11 371.12 572.60 889.56 533.69 562.93 489.50 585.43 442.71 894.39 587.01 397.35 267.24 295.47 447.74 403.21 503.87 186.02 583.05 310.24 555.60 331.77 856.19 896.00 364.89 620.89 240.69 483.28 419.09 499.98 216.89 647.04 532.82 708.18 120.21 749.97 823.09 115.95 549.63 386.84 914.57 470.79 722.55 290.76 614.14 548.60 456.04 909.31 422.94 466.82 530.17 473.90 303.20 167.38 518.71 677.17 438.91 753.55 522.75 516.34 91.83 338.77 299.07 866.74 771.02 799.97 315.03 653.88 887.10 570.05 705.10 949.92 383.35 476.12 896.11 337.51 733.12 732.85 392.24 392.44 654.87 413.32 399.99 904.83 603.16 432.09 390.17 790.86 877.30 866.65 445.42 943.08 574.38 636.03 281.21 541.18 664.17 442.42 933.88 227.27 180.72 106.32 674.57 115.26 544.76 1004.12 849.78 231.88 700.44 531.79 427.45 187.08 135.99 143.33 153.98 565.51 609.13 611.92 417.08 782.08 305.43 557.34 429.19 228.60 549.63 829.45 429.60 810.49 629.07 108.65 333.37 697.50 423.06 276.02 818.29 228.56 592.02 420.15 1029.02 443.34 329.78 961.50 881.71 881.36 443.09 216.89 504.52 189.79 456.65 191.48 707.15 811.89 958.36 80.59 732.60 611.97 394.36 771.44 215.64 0.00
DEMAND_SECTION
1 0
2 73
3 1
4 32
5 97
6 71
7 74
8 9
9 41
10 73
11 80
12 15
13 74
14 17
15 69
16 14
17 94
18 56
19 30
20 67
21 10
22 68
23 65
24 87
25 82
26 42
27 23
28 21
29 21
30 56
31 34
32 53
33 76
34 98
35 37
36 74
37 52
38 1
39 20
40 96
41 72
42 23
43 79
44 65
45 26
46 91
47 5
48 98
49 34
50 71
51 94
52 80
53 68
54 54
55 27
56 5
57 96
58 5
59 66
60 67
61 56
62 93
63 98
64 63
65 48
66 47
67 58
68 51
69 86
70 19
71 24
72 69
73 59
74 63
75 97
76 47
77 91
78 51
79 72
80 31
81 49
82 60
83 45
84 42
85 91
86 55
87 44
88 11
89 74
90 77
91 24
92 37
93 82
94 57
95 32
96 85
97 39
98 66
99 92
100 75
101 10
102 99
103 92
104 46
105 10
106 96
107 32
108 25
109 54
110 91
111 73
112 23
113 74
114 73
115 96
116 45
117 37
118 29
119 34
120 34
121 63
122 97
123 23
124 14
125 60
126 42
127 30
128 97
129 5
130 82
131 65
132 6
133 58
134 67
135 99
136 94
137 28
138 68
139 53
140 51
141 95
142 84
143 13
144 8
145 34
146 48
147 38
148 88
149 17
150 17
151 38
152 64
153 2
154 6
155 35
156 21
157 74
158 54
159 3
160 72
161 9
162 81
163 94
164 76
165 59
166 55
DEPOT_SECTION
1
-1
EOF
