NAME: LDG185_1216_snow_185_0097
COMMENT: CVRP with travel times.  rootPos=1,custPos=2,demandType=1,avgRouteSizeIndex=6,weather=snow,lambda_cluster=1,lambda_random=4, T1=300,T2=700,beta=1, alpha(i,j) ~ U(0.8,1.2)
TYPE: CVRP
DIMENSION: 186
EDGE_WEIGHT_TYPE: EXPLICIT
EDGE_WEIGHT_FORMAT: FULL_MATRIX
CAPACITY: 29
NODE_COORD_SECTION
1 828 661
2 242 36
3 233 849
4 550 632
5 429 317
6 166 480
7 212 406
8 155 431
9 342 787
10 275 282
11 177 461
12 494 609
13 506 475
14 442 521
15 87 856
16 316 252
17 256 913
18 282 91
19 228 615
20 303 108
21 338 870
22 315 269
23 156 433
24 262 182
25 351 465
26 374 273
27 280 199
28 182 489
29 204 499
30 196 631
31 701 463
32 393 638
33 319 483
34 339 235
35 225 158
36 40 728
37 112 599
38 529 47
39 426 403
40 175 270
41 417 551
42 179 436
43 111 685
44 398 589
45 346 170
46 75 606
47 125 674
48 83 681
49 296 624
50 450 159
51 350 420
52 448 76
53 155 450
54 446 549
55 243 472
56 88 678
57 122 516
58 293 575
59 267 256
60 375 511
61 306 713
62 152 612
63 300 179
64 147 506
65 23 745
66 25 478
67 347 178
68 228 711
69 95 454
70 13 780
71 609 544
72 322 193
73 77 512
74 43 782
75 352 257
76 140 565
77 296 366
78 436 458
79 41 421
80 252 533
81 52 769
82 188 834
83 388 691
84 7 399
85 271 163
86 164 797
87 336 63
88 357 539
89 147 672
90 227 668
91 275 356
92 95 746
93 64 451
94 22 553
95 236 763
96 118 769
97 146 757
98 140 9
99 293 152
100 101 696
101 501 541
102 366 681
103 29 372
104 100 728
105 171 545
106 519 485
107 278 202
108 303 514
109 47 831
110 471 164
111 172 532
112 518 545
113 375 544
114 482 120
115 375 178
116 91 954
117 341 484
118 147 420
119 524 426
120 453 309
121 363 584
122 405 192
123 208 542
124 319 160
125 120 742
126 49 410
127 273 122
128 427 408
129 481 640
130 155 729
131 204 547
132 206 554
133 3 806
134 165 509
135 224 809
136 296 489
137 322 561
138 52 61
139 287 177
140 171 114
141 474 115
142 137 474
143 251 326
144 483 450
145 290 181
146 178 742
147 207 809
148 10 742
149 349 540
150 88 591
151 190 572
152 311 486
153 151 361
154 196 376
155 96 728
156 298 143
157 387 522
158 2 577
159 143 224
160 87 751
161 403 452
162 126 483
163 154 866
164 293 214
165 272 254
166 400 263
167 176 392
168 163 710
169 482 464
170 235 275
171 260 154
172 428 541
173 207 635
174 409 88
175 314 219
176 273 724
177 64 377
178 256 26
179 311 767
180 379 534
181 102 768
182 342 333
183 86 778
184 216 838
185 231 155
186 353 199
EDGE_WEIGHT_SECTION
0.00 1258.18 954.78 508.13 855.81 1003.21 983.10 1054.54 875.51 1016.26 979.16 621.77 621.35 684.77 1200.47 912.03 1101.96 1141.86 925.16 1109.87 1034.92 964.77 1045.98 1058.04 823.77 825.79 1013.15 983.11 921.08 990.76 735.98 738.67 837.29 959.40 1124.13 1173.23 1097.98 1235.83 765.13 1155.99 664.51 1037.86 1023.14 735.33 977.27 1148.19 1055.41 1080.76 898.05 1030.68 832.43 1105.66 1035.18 624.18 915.34 1081.83 1074.74 828.23 1005.22 741.77 898.29 1063.09 1025.99 1009.07 1169.45 1225.71 965.98 978.24 1126.88 1221.34 533.03 983.58 1135.73 1166.62 896.61 1058.61 879.88 678.44 1189.56 878.45 1140.28 1060.92 667.04 1172.51 1071.69 1116.82 1141.84 774.42 968.63 1015.98 956.25 1085.82 1131.78 1191.05 986.05 1090.37 1021.89 1364.11 1066.35 1059.69 549.48 765.02 1227.31 1061.34 1003.83 638.72 1028.21 790.41 1216.00 1073.51 998.49 486.51 732.09 1131.96 977.64 1272.73 842.59 1074.80 533.57 901.78 756.51 974.01 951.28 1026.35 1040.69 1199.69 1116.85 749.69 625.29 977.50 975.77 977.00 1233.20 1032.99 1021.74 834.55 771.96 1412.03 1035.75 1192.73 1160.48 1063.42 1005.72 651.67 1019.42 991.14 1054.44 1204.53 772.27 1136.55 986.73 857.82 1122.80 1020.76 1068.81 1044.83 692.88 1242.47 1170.05 1103.21 741.45 1069.27 1112.03 1001.32 1018.92 890.71 1063.65 1040.43 648.33 1099.58 1090.13 621.70 969.03 1149.04 1009.49 923.87 1223.74 1237.51 936.89 734.37 1097.65 944.47 1138.39 994.23 1134.42 923.59
1258.18 0.00 1136.77 957.47 523.82 684.15 570.44 619.16 1053.95 388.69 686.93 869.18 765.60 786.93 1110.69 359.23 1220.35 158.05 864.63 213.16 1160.24 392.64 615.41 247.09 680.02 432.39 280.86 675.44 708.09 858.26 988.18 865.43 627.21 341.69 187.06 1020.65 839.95 586.50 604.06 349.43 803.77 636.20 936.04 861.30 307.37 898.68 923.46 892.24 883.53 399.71 598.12 331.40 650.96 787.65 667.86 917.82 720.83 799.80 339.95 696.83 943.06 755.60 245.27 719.48 967.74 712.43 302.49 981.87 710.48 1019.11 896.36 291.10 750.17 1035.36 400.59 746.09 501.93 713.92 659.53 731.53 1045.21 1124.53 957.70 611.35 225.51 1098.72 187.23 728.79 881.53 934.22 501.33 971.79 706.62 863.56 1056.34 1029.73 1005.54 217.78 207.48 958.91 837.02 964.31 556.55 930.19 750.25 785.72 289.18 694.27 1084.85 442.54 707.29 876.47 772.80 430.53 280.54 1259.57 668.23 598.90 773.10 531.99 810.35 370.30 764.25 242.12 995.08 663.13 151.62 588.62 912.75 961.15 766.88 752.05 1031.72 728.42 1069.81 668.10 791.87 458.98 275.03 241.57 435.02 687.70 414.71 686.07 271.38 1003.16 1081.93 932.66 751.08 864.57 804.39 659.66 549.60 527.61 937.66 229.00 764.08 867.23 394.98 989.18 650.91 659.28 1199.87 278.45 326.25 414.24 565.32 937.95 720.93 375.88 200.67 816.90 837.44 350.07 329.74 952.92 624.91 56.50 1086.25 737.72 1012.95 453.38 1057.09 1118.35 170.71 344.88
954.78 1136.77 0.00 718.57 813.11 579.43 662.63 624.30 269.72 815.72 587.89 604.93 716.62 610.96 256.22 864.15 147.18 1026.82 391.35 1034.33 264.35 855.82 625.69 971.08 567.08 777.91 959.10 537.33 531.12 309.61 986.04 480.74 577.97 902.12 993.35 362.94 469.98 1214.25 750.07 845.76 550.57 583.30 385.76 455.11 913.74 488.09 358.51 362.13 339.21 1020.41 648.98 1143.32 590.14 594.01 575.95 336.55 595.00 380.61 848.21 561.03 308.12 425.32 961.77 559.26 402.60 644.24 918.10 267.90 621.27 406.19 823.19 935.01 552.71 351.47 848.73 495.17 758.59 626.42 745.54 479.72 325.13 124.39 351.45 742.62 960.94 164.73 1078.31 548.53 359.47 347.40 739.98 279.96 699.80 602.17 156.18 222.02 222.76 1120.03 960.39 349.21 661.54 377.21 734.80 312.11 471.29 719.06 947.95 510.91 366.27 1047.38 507.64 703.93 543.61 1121.69 929.76 317.95 594.02 644.56 795.31 851.60 496.51 926.13 448.52 978.47 271.70 710.06 985.15 734.63 522.69 261.42 457.97 443.14 389.11 542.14 66.96 555.05 455.21 1153.05 914.12 1083.56 1112.96 549.91 765.70 714.78 930.45 187.39 99.66 407.35 526.24 470.26 425.05 595.41 728.35 692.90 304.64 969.29 574.21 567.96 919.88 282.63 659.87 574.48 157.25 934.32 861.91 842.83 678.82 252.60 679.92 835.37 936.10 585.13 331.34 1108.73 889.34 259.94 734.88 1139.46 188.89 528.33 271.18 759.48 271.84 48.93 1009.70 875.71
508.13 957.47 718.57 0.00 524.64 594.82 621.42 645.80 578.07 724.77 570.42 113.64 361.83 310.62 807.48 696.35 835.40 865.51 512.26 840.37 675.02 684.33 637.24 762.14 427.53 610.11 717.25 600.85 558.01 549.19 476.72 314.01 436.30 641.13 828.23 836.28 666.15 922.75 408.46 776.85 256.12 596.20 691.89 263.46 761.59 718.64 713.83 713.49 401.00 710.54 433.16 839.89 626.44 273.08 496.05 729.08 666.62 419.49 709.26 333.03 491.91 576.85 737.55 600.33 844.40 802.06 748.55 589.27 718.14 877.47 273.77 759.53 726.99 802.48 680.93 634.98 547.28 369.57 781.17 469.71 796.41 745.68 387.11 846.75 784.91 709.53 919.04 344.87 702.78 592.50 600.11 736.74 723.04 803.46 579.67 693.30 688.07 1054.65 790.23 704.06 271.16 358.64 850.44 740.13 595.09 363.12 732.31 381.67 828.14 753.37 589.75 256.61 323.35 811.82 716.72 896.88 441.78 666.06 432.55 553.15 364.33 626.96 542.54 808.92 691.61 790.95 846.09 393.02 201.81 698.01 567.03 568.26 860.39 624.25 684.86 425.81 380.83 1104.27 759.40 929.34 840.34 655.03 630.48 352.02 743.07 649.38 662.70 855.99 363.53 704.72 550.18 449.08 687.91 586.67 743.76 811.75 284.14 854.88 813.91 753.91 306.56 660.53 690.59 744.62 722.96 658.56 629.56 697.17 317.16 738.40 809.75 212.96 559.69 873.59 691.22 540.09 782.08 900.97 535.61 325.98 761.20 601.74 774.91 686.92 838.52 707.91
855.81 523.82 813.11 524.64 0.00 528.54 470.42 477.16 768.95 303.15 482.24 489.19 252.15 277.10 904.15 256.65 896.69 425.14 564.23 402.01 883.82 293.36 487.06 350.50 246.03 170.41 342.20 521.40 508.27 645.97 567.72 494.49 326.04 264.17 393.84 814.05 666.05 471.15 151.33 447.37 341.29 493.50 732.93 432.95 277.70 671.02 751.66 783.46 558.36 280.18 305.46 395.58 511.32 337.69 390.83 784.15 581.03 432.50 323.33 376.88 676.15 654.16 278.55 548.96 876.06 696.07 297.00 735.83 580.05 932.35 482.05 321.83 648.63 881.32 219.66 624.66 350.17 286.86 606.47 456.80 874.85 836.72 557.16 618.64 348.75 843.92 442.27 383.57 703.20 630.51 345.60 789.50 665.11 701.91 731.73 794.05 794.68 643.64 331.23 769.48 331.67 580.52 563.84 767.95 570.25 283.46 327.14 365.23 922.61 280.59 528.95 369.30 392.26 381.46 298.18 1081.23 282.12 468.47 322.87 45.97 424.02 250.68 523.89 357.37 744.37 570.99 387.09 166.77 489.58 750.29 508.48 523.31 946.88 512.85 746.15 348.82 446.19 711.24 326.20 502.46 367.56 570.29 314.02 242.34 309.87 773.04 778.85 911.14 405.86 704.62 561.55 339.47 523.99 440.87 775.42 352.75 353.05 753.33 529.30 806.89 280.17 586.06 887.53 338.31 337.03 143.92 397.98 751.25 207.48 350.93 373.59 374.76 635.35 495.97 276.51 627.97 615.79 501.66 724.39 369.24 816.25 128.43 842.07 794.69 410.19 268.21
1003.21 684.15 579.43 594.82 528.54 0.00 134.38 94.91 558.95 370.58 46.30 511.33 534.38 398.99 573.97 450.55 681.81 584.47 272.92 574.38 700.13 442.17 84.79 504.00 341.39 465.71 459.11 42.10 103.11 279.56 792.00 438.25 287.01 480.18 518.96 395.35 227.77 776.41 480.77 346.72 338.70 105.00 355.34 379.49 552.87 299.25 329.51 396.11 296.90 628.54 366.10 739.72 77.92 441.98 172.67 370.53 106.19 238.93 429.11 336.30 420.15 292.78 500.94 104.10 461.30 287.62 543.74 396.81 131.57 526.91 663.01 503.08 194.37 490.68 417.39 197.78 274.66 461.71 186.35 139.82 483.70 555.11 486.86 251.93 503.29 538.08 625.42 280.10 361.68 291.49 287.24 432.40 236.02 290.15 482.75 469.84 459.61 765.44 528.96 387.21 494.50 439.04 272.13 436.19 143.17 541.07 444.05 269.88 509.32 671.37 109.07 516.70 314.93 729.82 531.74 661.35 312.07 115.17 605.98 573.98 344.34 590.88 130.91 539.31 452.05 221.83 543.17 479.10 538.06 415.22 139.37 154.20 586.47 74.57 531.27 247.80 280.29 674.14 504.70 567.39 735.65 60.21 291.31 535.37 494.55 437.87 502.32 494.47 257.81 260.73 202.49 254.72 187.45 156.54 428.72 550.48 325.39 314.50 378.98 449.79 448.21 110.28 628.98 439.09 415.41 530.63 173.87 372.66 516.83 308.27 504.15 381.86 257.83 705.49 475.68 390.67 245.18 683.47 524.00 316.67 403.80 400.11 464.08 530.50 513.44 510.00
983.10 570.44 662.63 621.42 470.42 134.38 0.00 123.35 591.19 236.20 138.03 549.22 501.92 418.15 703.97 316.17 673.81 460.49 362.15 440.00 743.39 307.79 113.23 401.87 296.42 402.41 367.89 163.22 216.11 366.01 759.76 473.89 216.41 382.39 384.58 516.47 334.75 642.03 351.73 229.65 400.12 79.33 457.81 453.84 418.49 406.23 421.65 506.73 386.13 554.29 240.29 643.23 122.29 478.74 206.71 504.91 240.57 328.16 312.34 319.68 533.15 393.30 419.11 204.62 582.42 363.05 409.36 514.06 252.62 582.09 639.69 435.61 254.98 614.08 382.83 298.30 176.89 377.87 273.74 229.05 603.54 645.95 558.99 339.32 394.61 659.20 491.04 317.99 468.66 425.87 152.86 545.95 331.01 415.49 581.00 570.43 556.57 704.33 453.34 494.36 433.62 528.27 333.57 504.35 264.29 495.94 368.43 283.47 643.70 554.73 240.35 496.59 365.34 655.57 444.75 792.63 260.33 143.61 539.15 493.38 377.05 493.11 252.03 423.49 544.19 238.26 418.82 367.17 612.41 512.18 247.31 232.48 661.83 208.95 595.67 244.48 351.40 587.15 429.87 493.95 629.38 181.26 156.93 478.17 413.54 525.04 562.97 604.04 340.28 373.32 284.82 203.35 200.73 69.55 496.88 448.57 368.29 435.55 296.79 551.98 314.86 231.33 696.31 358.87 298.64 403.41 112.44 459.83 457.25 221.28 369.77 439.47 387.74 580.95 388.02 511.79 265.21 573.13 527.74 330.26 538.18 341.99 581.33 644.21 400.93 375.62
1054.54 619.16 624.30 645.80 477.16 94.91 123.35 0.00 632.39 322.02 75.38 580.32 572.85 478.54 621.06 363.69 697.19 550.00 329.99 529.71 737.12 355.31 10.12 426.89 352.74 423.68 415.41 126.43 169.61 347.72 840.56 470.26 276.80 429.91 432.10 479.68 246.62 765.38 436.41 272.95 431.74 62.97 354.70 430.50 466.01 318.10 338.74 412.32 370.34 610.46 313.38 690.75 34.16 482.33 171.03 413.39 167.37 312.37 375.31 380.07 486.65 297.82 406.25 115.92 509.39 247.86 465.53 451.41 131.84 478.98 721.89 449.08 209.48 557.32 430.35 209.60 261.62 460.07 180.63 213.26 552.18 558.28 496.19 246.21 463.79 593.47 613.97 362.66 380.53 386.40 240.50 457.82 227.90 309.17 522.96 487.52 479.02 727.65 458.93 391.25 545.48 512.48 244.36 416.22 192.65 554.72 417.56 270.59 570.88 602.25 149.69 599.86 353.43 671.52 492.24 701.97 320.72 20.26 609.26 523.13 373.42 544.88 215.24 464.64 461.28 145.15 514.79 451.85 589.07 434.63 225.48 214.19 558.72 123.13 557.34 249.95 346.79 602.48 453.90 472.48 664.30 93.13 204.45 563.04 437.57 436.91 546.61 500.93 340.37 285.19 260.26 291.08 112.78 122.07 408.75 480.45 361.66 347.42 304.31 463.85 438.21 116.21 639.75 438.18 361.61 450.93 79.18 371.70 528.18 268.77 488.63 432.84 330.57 629.31 380.77 467.34 197.88 625.04 569.48 388.51 496.39 361.63 493.20 585.65 448.45 423.14
875.51 1053.95 269.72 578.07 768.95 558.95 591.19 632.39 0.00 665.26 605.25 464.43 606.51 491.85 455.19 782.41 400.49 965.27 354.43 945.05 214.47 800.57 622.27 830.93 584.09 832.38 812.55 562.73 536.75 320.13 845.35 434.73 518.37 834.57 897.02 549.15 484.52 1161.12 668.31 774.67 505.46 646.62 457.30 482.24 925.17 556.00 441.33 458.87 262.05 974.63 634.64 1078.48 611.47 461.58 533.49 484.45 594.14 410.02 741.40 468.06 245.89 418.28 848.17 565.58 540.20 672.00 908.52 263.37 586.98 494.84 658.77 882.14 567.32 447.40 788.71 494.31 668.74 518.36 745.30 419.13 462.73 297.82 312.64 787.87 876.04 356.12 1010.82 471.71 419.73 368.69 744.05 433.27 691.43 612.69 257.17 393.22 395.17 1133.39 882.40 475.42 534.64 379.16 768.95 457.02 499.08 623.88 797.49 503.38 517.37 970.56 500.62 471.67 486.25 1075.91 877.40 545.93 552.00 652.65 713.13 774.44 417.62 901.77 479.38 852.55 388.14 721.88 934.81 652.87 376.26 393.82 468.49 453.66 555.72 535.12 269.88 519.76 397.93 1102.09 859.16 1008.89 1057.53 600.93 748.12 632.60 842.83 369.69 248.67 550.10 449.42 523.09 436.87 494.65 715.67 584.49 464.49 903.92 509.25 664.11 811.73 448.37 581.37 585.00 379.29 819.67 727.70 859.82 627.38 330.89 597.74 736.22 885.76 521.70 315.06 1071.23 817.08 214.16 700.59 1036.91 80.83 451.17 382.83 713.70 443.11 221.34 907.31 880.79
1016.26 388.69 815.72 724.77 303.15 370.58 236.20 322.02 665.26 0.00 374.23 668.46 452.28 530.16 905.44 117.15 899.30 300.01 574.84 279.79 879.73 135.31 331.73 165.67 389.64 190.47 147.29 399.42 452.31 600.09 767.85 598.28 335.65 169.31 231.76 752.67 519.38 567.53 393.08 254.27 521.96 315.53 676.31 579.49 259.91 590.86 652.33 689.37 591.97 388.19 307.74 440.89 356.18 560.60 341.97 693.35 420.78 502.66 76.14 415.02 751.75 579.32 182.91 426.74 818.62 529.36 243.26 750.26 399.70 800.59 612.46 220.13 453.03 827.93 183.81 520.42 223.80 444.85 446.64 465.25 801.59 827.37 688.57 381.06 210.78 841.07 345.56 437.23 653.29 662.07 190.56 700.53 504.15 577.03 792.05 758.47 727.30 468.13 217.14 709.73 531.80 672.75 429.27 738.24 474.85 472.40 132.23 402.71 840.10 377.26 431.89 569.43 490.99 442.57 212.14 984.17 378.84 301.76 490.85 257.18 518.79 298.34 484.44 187.29 745.66 463.22 269.55 407.56 710.50 682.91 459.95 466.56 878.47 397.39 748.76 376.54 508.16 543.67 193.90 361.93 416.05 328.34 117.57 372.75 177.57 706.00 781.46 822.54 459.52 557.95 518.90 368.10 266.93 291.09 730.77 238.66 468.94 582.63 257.23 717.92 434.34 378.41 908.84 154.41 62.44 255.39 311.91 640.79 407.61 159.60 220.50 535.09 616.40 405.97 151.82 703.57 410.49 371.65 746.09 455.91 766.86 300.24 765.96 797.30 242.05 215.53
979.16 686.93 587.89 570.42 482.24 46.30 138.03 75.38 605.25 374.23 0.00 508.22 516.15 444.63 607.17 439.07 692.92 580.50 304.01 569.22 709.08 430.69 83.15 457.70 296.04 419.41 412.81 51.05 113.08 295.04 777.52 394.88 298.91 484.11 507.48 404.30 263.83 780.06 437.82 348.33 385.00 58.70 367.01 388.44 541.39 335.31 324.85 424.63 343.20 614.74 319.80 693.42 56.02 417.58 165.49 400.12 142.68 285.23 445.15 353.53 430.12 318.08 473.31 129.66 470.25 300.06 532.29 376.03 147.72 535.86 692.05 490.36 238.54 501.91 426.34 223.08 283.61 430.50 232.65 186.12 493.99 580.14 497.85 298.23 480.47 547.03 629.07 326.40 388.73 337.79 275.49 473.13 249.86 325.05 503.38 473.63 470.56 733.65 482.66 403.56 470.10 485.34 312.94 431.53 152.12 547.46 397.75 291.11 555.62 657.57 145.13 533.07 325.49 704.43 562.25 697.41 330.66 95.64 586.87 528.21 298.04 567.63 139.86 505.00 447.39 220.53 535.31 453.26 547.01 426.17 153.10 163.80 599.67 110.63 546.75 263.05 290.26 675.51 460.32 547.86 717.55 106.51 279.83 506.34 465.32 458.77 542.34 503.42 304.11 297.22 211.44 301.02 153.14 197.11 424.06 504.18 286.28 360.57 377.34 479.16 417.01 122.72 646.22 448.04 436.67 484.33 154.22 393.56 471.48 344.15 489.78 357.46 304.13 659.19 434.02 399.62 244.58 637.17 532.95 344.36 450.10 353.81 510.38 538.96 519.10 498.52
621.77 869.18 604.93 113.64 489.19 511.33 549.22 580.32 464.43 668.46 508.22 0.00 277.81 230.74 763.32 600.71 752.11 751.87 452.23 747.37 561.38 602.09 577.84 670.06 368.77 588.08 663.22 487.21 452.59 518.20 533.02 200.37 332.81 527.49 736.15 728.26 552.51 926.00 377.27 719.83 196.72 542.93 642.35 149.82 679.47 605.00 600.19 599.85 370.01 734.43 401.39 860.45 557.59 208.43 427.81 625.43 578.84 360.09 642.40 273.63 411.91 463.21 623.91 538.34 745.91 688.42 670.24 475.63 629.42 763.83 330.07 645.89 655.78 709.11 590.28 549.37 487.88 334.30 697.68 396.29 682.77 652.81 318.52 763.26 694.11 677.28 805.83 231.23 589.14 478.86 540.71 637.60 660.84 689.82 540.73 579.66 610.68 944.71 676.59 644.66 157.52 319.70 783.46 637.80 514.45 249.48 648.16 319.68 734.01 735.44 526.08 142.97 238.32 835.71 631.70 887.07 332.68 600.58 369.18 493.75 250.69 678.41 483.14 705.02 629.34 714.26 732.45 392.71 88.17 584.37 502.34 487.51 746.75 557.57 602.53 359.63 316.29 1030.80 645.76 822.02 822.41 571.54 571.08 316.57 629.43 535.74 569.83 755.69 253.52 591.08 436.54 365.26 658.09 571.19 645.27 698.11 221.94 741.24 798.43 640.27 358.01 584.02 703.17 630.98 656.10 611.50 594.74 600.21 281.71 719.23 700.14 153.56 526.58 820.17 577.58 458.59 728.81 864.51 421.97 266.58 647.56 559.92 661.27 625.95 746.44 627.85
621.35 765.60 716.62 361.83 252.15 534.38 501.92 572.85 606.51 452.28 516.15 277.81 0.00 135.39 843.80 429.70 813.00 659.53 484.15 627.54 718.53 482.44 562.73 575.71 220.11 343.46 530.82 517.03 455.00 506.20 315.57 343.90 300.12 457.66 611.24 780.06 618.17 723.30 171.03 624.48 199.58 540.47 646.00 261.51 494.94 645.10 614.23 651.65 404.36 532.33 286.96 647.73 559.49 195.98 413.09 626.07 581.65 352.42 495.45 253.48 514.68 567.39 530.70 523.04 783.61 732.15 483.65 544.68 627.34 817.20 307.68 501.25 624.08 779.39 414.28 524.89 436.38 124.05 720.73 430.88 789.51 717.43 398.92 731.50 566.51 712.89 659.51 298.86 660.44 550.43 454.47 730.09 652.55 703.79 621.24 743.47 691.43 814.90 583.38 647.52 123.27 438.81 723.39 708.56 525.38 31.31 545.88 315.44 831.50 532.74 490.90 134.84 265.24 633.61 495.31 941.10 256.20 593.11 121.42 298.12 247.06 491.68 488.10 544.02 694.97 707.52 634.52 186.47 258.22 659.51 463.61 478.44 873.25 486.93 666.07 322.90 277.82 929.70 553.42 710.40 619.71 555.98 451.33 79.53 537.09 661.79 698.77 803.64 276.57 656.74 503.81 313.55 568.41 519.48 713.44 562.50 268.45 755.21 676.58 712.70 187.06 580.39 763.30 518.99 485.42 396.07 526.39 596.58 44.67 561.71 591.35 233.05 527.93 549.10 507.75 562.86 655.03 753.81 561.58 235.66 709.61 364.31 752.10 701.13 594.89 441.26
684.77 786.93 610.96 310.62 277.10 398.99 418.15 478.54 491.85 530.16 444.63 230.74 135.39 0.00 708.41 521.10 684.29 658.20 400.65 679.11 644.63 498.48 468.42 598.20 164.96 434.86 553.31 430.27 384.77 437.58 401.70 217.39 201.74 489.16 627.86 672.66 487.17 748.25 202.33 489.09 64.19 442.85 548.68 155.85 554.80 537.24 553.13 568.64 289.39 557.28 222.42 672.68 449.12 60.59 315.47 545.87 498.92 282.19 486.10 118.09 428.66 432.00 555.65 459.17 680.63 649.33 573.30 481.66 530.56 722.34 264.02 557.14 541.26 644.00 496.76 460.95 332.34 124.26 585.34 321.00 654.12 682.27 331.34 650.92 620.97 597.92 719.37 163.47 538.81 457.33 371.59 614.77 597.25 627.46 524.45 629.68 576.46 744.03 608.33 512.13 210.12 303.42 668.24 573.17 389.99 166.70 568.37 240.93 708.76 557.69 404.01 198.26 129.85 658.56 575.28 826.13 157.82 475.67 256.81 323.07 185.96 496.97 352.71 620.88 580.00 620.82 664.19 217.77 212.48 574.08 328.22 343.05 752.10 431.78 595.84 242.63 207.59 917.89 603.30 714.40 644.66 459.20 415.54 197.98 586.97 552.76 607.48 705.91 141.18 525.74 395.39 215.17 546.53 421.10 579.99 629.85 158.35 678.88 571.02 627.42 176.57 495.47 627.91 591.77 499.80 421.02 463.67 535.48 167.81 556.05 628.28 97.66 448.08 684.49 539.25 462.92 599.88 770.84 546.28 100.27 574.22 333.55 616.71 631.70 616.22 532.66
1200.47 1110.69 256.22 807.48 904.15 573.97 703.97 621.06 455.19 905.44 607.17 763.32 843.80 708.41 0.00 886.25 303.07 1065.47 436.29 1054.19 458.48 891.51 620.65 942.67 658.12 922.95 897.78 579.29 576.19 390.98 1023.85 589.99 578.11 941.71 956.33 285.18 424.29 1259.04 819.49 836.78 683.50 636.56 276.07 613.50 1013.13 368.16 282.32 218.45 450.39 1065.20 705.67 1194.39 610.72 712.70 618.42 244.03 537.25 522.59 910.35 654.53 352.91 355.09 958.28 533.80 255.28 551.72 999.49 359.12 609.16 189.67 898.95 941.88 540.15 176.80 942.22 440.12 784.65 744.95 676.01 552.63 195.52 172.56 561.56 650.10 965.44 236.73 1124.20 625.50 314.08 359.18 801.89 204.91 620.14 479.48 289.55 209.46 196.60 1218.62 967.63 285.12 801.59 486.18 704.90 228.66 478.22 838.04 882.72 636.68 110.05 1108.03 521.18 823.68 578.56 1166.48 1045.92 314.19 622.03 632.65 902.95 936.91 607.69 1018.36 504.29 1001.70 159.78 695.03 1020.28 827.94 700.95 222.97 507.53 492.70 144.38 537.26 239.22 619.00 586.27 1111.35 945.29 1084.87 1158.87 577.10 788.31 805.37 950.29 271.54 206.52 243.44 603.21 426.97 440.36 610.56 660.42 689.39 236.13 989.15 617.77 428.06 905.79 222.30 717.00 592.96 116.89 955.78 896.65 960.05 697.42 285.90 824.23 841.12 974.75 688.95 412.71 1148.85 953.30 304.73 722.77 1122.14 423.72 613.64 170.17 804.27 207.65 249.04 939.98 1001.87
912.03 359.23 864.15 696.35 256.65 450.55 316.17 363.69 782.41 117.15 439.07 600.71 429.70 521.10 886.25 0.00 947.73 260.55 556.49 227.63 850.41 52.74 373.40 163.54 399.56 86.24 141.20 430.29 368.26 589.77 745.27 604.86 356.30 73.22 229.25 783.54 610.31 471.73 318.77 283.99 542.77 395.50 700.91 576.34 145.41 680.65 661.93 667.80 568.52 271.04 339.96 395.58 397.85 515.67 334.09 642.22 465.36 489.85 140.24 456.69 685.30 597.42 113.96 469.34 799.76 571.03 126.11 742.29 455.01 842.26 672.99 137.88 494.70 818.58 66.66 536.41 268.30 411.17 544.32 423.39 835.23 887.76 640.23 498.21 180.46 854.42 306.64 443.81 674.27 656.75 191.93 760.93 523.57 632.34 776.06 734.99 768.97 463.49 166.64 698.32 547.49 679.33 546.42 741.31 473.14 461.01 127.59 359.55 865.72 281.17 512.04 564.54 487.84 372.32 177.43 1030.83 363.47 343.43 519.45 225.13 517.88 181.19 460.04 135.13 770.64 508.84 222.50 303.33 644.28 724.58 441.41 456.24 902.08 477.54 797.19 315.41 432.64 500.00 124.73 299.38 368.14 432.23 159.24 454.23 141.06 739.63 829.89 819.79 451.51 619.90 508.58 356.54 384.08 332.76 748.78 179.90 471.63 683.76 299.11 743.54 394.06 479.90 907.58 166.93 148.64 151.16 337.87 703.37 423.30 187.55 205.30 520.76 597.86 314.81 100.99 692.01 496.69 365.56 741.42 490.32 809.08 204.92 816.60 845.73 239.92 168.50
1101.96 1220.35 147.18 835.40 896.69 681.81 673.81 697.19 400.49 899.30 692.92 752.11 813.00 684.29 303.07 947.73 0.00 1105.41 477.27 1113.81 199.59 963.85 687.59 1054.66 650.66 861.49 1041.70 648.53 623.76 402.25 838.86 596.09 661.55 932.08 1058.39 452.63 553.56 1313.80 805.57 903.46 672.06 634.22 476.76 602.29 997.32 571.67 442.09 458.12 486.39 1119.96 665.34 1203.25 671.88 701.26 668.59 440.24 687.64 464.19 931.79 566.20 407.67 506.56 1028.50 651.90 437.22 737.65 1001.68 320.63 719.99 470.70 948.31 1019.28 636.29 392.36 932.31 587.81 780.45 733.51 829.12 563.30 408.71 185.78 498.63 828.13 1044.52 248.31 1161.89 632.11 443.05 425.95 826.67 363.54 787.16 694.81 255.73 305.60 345.91 1203.61 1053.03 447.09 745.12 476.76 773.33 405.14 554.87 826.60 1031.53 594.49 378.11 1130.96 597.83 808.09 567.12 1205.54 1013.34 291.04 674.95 704.37 867.94 897.11 633.22 1009.71 561.50 1062.05 355.28 793.64 1068.73 790.13 669.87 345.00 550.61 535.78 441.17 632.33 150.54 638.63 538.79 1245.69 997.70 1156.59 1170.77 648.63 830.74 793.93 1014.03 270.97 183.24 402.14 609.82 553.84 508.63 679.76 790.25 743.36 399.62 1052.87 606.33 657.77 970.60 366.21 705.56 660.02 186.18 1032.68 945.49 926.41 729.74 336.18 768.33 895.09 1019.68 670.72 423.98 1192.31 972.92 359.49 820.10 1218.05 336.07 602.20 337.09 859.03 344.99 179.15 1074.74 959.29
1141.86 158.05 1026.82 865.51 425.14 584.47 460.49 550.00 965.27 300.01 580.50 751.87 659.53 658.20 1065.47 260.55 1105.41 0.00 766.91 61.18 1059.69 292.09 559.90 157.57 521.97 316.07 169.54 574.89 628.81 747.66 898.66 756.83 517.26 224.38 166.13 928.14 735.08 479.05 548.60 327.16 709.96 539.82 859.70 722.01 210.48 804.15 817.54 847.02 773.58 273.11 440.07 361.93 578.62 675.74 550.55 872.60 666.18 672.28 235.08 603.02 846.17 753.10 146.59 650.21 984.81 626.38 205.60 884.98 631.15 1028.76 806.84 179.19 695.52 1025.75 276.96 694.59 397.06 629.68 607.00 652.55 1014.45 1050.43 833.10 590.42 101.88 940.67 177.32 610.23 868.99 837.46 400.78 962.13 609.73 774.35 979.43 966.32 960.06 313.68 110.59 894.33 688.08 813.27 535.62 920.53 640.30 690.84 182.75 584.32 1060.12 288.49 597.34 751.05 633.51 374.39 176.02 1149.62 537.46 541.31 676.21 454.02 695.84 265.78 663.70 145.23 935.59 638.35 54.73 533.16 795.44 915.67 668.53 661.84 1074.74 631.84 959.86 558.15 682.19 436.52 138.77 234.29 375.46 628.35 360.06 642.16 122.44 926.19 985.04 1002.86 632.52 768.97 714.18 549.71 497.09 427.93 915.69 117.45 670.27 770.34 333.59 970.79 566.67 638.35 1085.07 177.90 237.57 337.13 470.82 895.64 632.62 296.90 90.72 723.09 740.55 270.90 193.69 875.67 585.62 112.64 988.23 640.82 950.58 431.96 981.66 1008.40 168.21 238.69
925.16 864.63 391.35 512.26 564.23 272.92 362.15 329.99 354.43 574.84 304.01 452.23 484.15 400.65 436.29 556.49 477.27 766.91 0.00 743.78 489.25 536.72 336.24 692.27 318.20 617.78 652.60 255.86 207.46 81.74 758.32 357.92 280.29 602.09 685.24 324.02 240.90 874.06 487.82 545.73 354.67 339.75 246.52 331.45 656.62 294.68 227.51 288.24 111.26 760.03 348.54 826.20 305.47 395.83 275.92 305.21 280.36 131.73 599.33 332.08 272.98 151.60 620.32 214.07 389.97 432.21 675.92 237.12 317.86 443.49 597.63 644.06 351.27 388.77 623.15 190.17 446.21 431.10 433.99 133.10 362.43 377.01 285.97 433.44 683.77 306.56 817.51 298.70 277.53 149.37 476.40 317.26 401.41 341.50 335.71 259.32 257.71 882.10 673.00 283.07 375.68 276.46 458.42 313.22 191.41 467.64 637.54 262.03 442.11 797.55 194.53 438.65 293.67 757.35 704.39 633.66 324.21 344.03 587.34 610.20 268.56 737.68 168.83 691.62 276.51 398.51 728.86 472.38 428.09 213.32 157.94 143.11 426.41 229.03 326.73 241.08 206.33 919.56 665.24 796.25 722.58 246.50 457.59 519.96 651.64 217.43 294.03 423.14 276.41 250.17 113.50 282.21 438.90 429.46 320.69 694.52 318.67 392.92 627.66 319.93 430.59 274.27 427.37 650.91 595.89 634.51 393.46 229.72 485.10 488.75 701.15 338.26 97.85 843.38 641.64 231.95 431.47 876.96 273.60 300.38 329.36 499.10 340.93 366.17 693.92 676.28
1109.87 213.16 1034.33 840.37 402.01 574.38 440.00 529.71 945.05 279.79 569.22 747.37 627.54 679.11 1054.19 227.63 1113.81 61.18 743.78 0.00 1062.45 247.64 539.61 171.92 560.25 284.08 186.53 577.65 595.89 737.34 913.01 782.64 520.01 219.88 186.00 930.90 754.95 489.61 516.61 347.03 711.59 519.33 876.82 760.75 172.17 817.14 834.66 835.74 776.33 297.80 486.62 300.75 562.29 652.79 546.05 861.32 669.28 653.72 254.95 622.89 840.05 756.42 123.46 629.92 973.53 687.56 152.87 880.00 608.02 1008.47 816.09 156.24 694.98 1015.25 218.07 701.71 416.93 596.82 625.78 651.02 1003.17 1057.94 841.71 560.20 119.00 1001.85 116.14 621.59 882.35 844.27 403.54 950.85 574.79 785.35 991.69 962.62 949.74 374.86 86.56 871.20 696.93 857.11 555.49 909.25 660.17 658.85 171.47 587.07 1063.91 319.91 617.21 759.90 672.25 372.90 207.52 1169.49 563.93 521.02 623.48 415.71 703.15 213.41 654.94 92.50 938.34 647.20 61.54 501.17 790.94 905.35 664.03 672.48 1088.18 619.27 967.37 543.04 660.27 480.26 120.21 253.99 338.13 608.13 386.87 640.09 131.29 933.00 991.85 991.58 643.88 757.20 724.82 552.46 444.36 442.63 916.72 65.04 683.04 766.87 359.28 962.64 533.81 645.92 1125.19 180.66 246.42 333.66 450.53 885.32 609.49 314.02 110.59 712.91 747.36 209.72 202.11 887.93 594.47 172.11 967.74 641.73 957.39 402.76 1001.53 1015.91 171.53 186.28
1034.92 1160.24 264.35 675.02 883.82 700.13 743.39 737.12 214.47 879.73 709.08 561.38 718.53 644.63 458.48 850.41 199.59 1059.69 489.25 1062.45 0.00 903.15 747.24 955.08 637.79 911.70 939.79 658.03 617.89 472.89 927.28 452.60 575.89 923.63 1021.17 543.49 559.38 1223.44 735.57 960.39 590.13 735.60 479.98 561.67 950.54 626.84 512.25 532.87 476.52 1053.95 682.83 1159.96 729.95 607.09 632.56 531.10 706.70 515.31 912.20 566.46 357.64 551.40 964.37 660.88 562.81 750.69 969.84 398.19 685.29 577.35 773.71 939.66 727.15 515.59 917.07 646.40 750.22 653.18 806.35 614.42 499.57 331.97 470.05 871.93 974.00 339.17 1113.65 534.03 425.47 495.81 777.48 454.40 748.05 638.97 334.99 396.46 415.62 1265.68 1002.20 516.53 601.38 372.07 867.26 496.00 614.59 693.34 954.85 546.16 502.87 1032.88 622.27 664.35 568.86 1154.62 998.31 490.63 619.81 757.38 813.04 887.16 549.44 985.37 583.49 985.54 446.14 797.77 1008.62 720.13 473.21 418.51 572.60 557.77 559.01 656.77 241.40 535.00 440.71 1256.25 953.58 1129.84 1119.85 670.98 854.73 760.43 937.25 361.83 251.96 576.61 511.74 566.09 571.69 576.13 849.90 782.06 490.48 1008.75 573.20 690.39 1009.30 451.89 664.97 620.91 385.30 881.79 925.90 928.43 816.30 427.04 725.57 933.79 998.84 546.97 494.62 1146.63 951.40 309.46 798.90 1164.15 215.65 570.60 472.03 793.02 420.74 289.94 1031.46 984.11
964.77 392.64 855.82 684.33 293.36 442.17 307.79 355.31 800.57 135.31 430.69 602.09 482.44 498.48 891.51 52.74 963.85 292.09 536.72 247.64 903.15 0.00 365.02 187.48 421.11 138.98 172.19 418.73 356.70 566.55 761.95 558.42 409.04 74.60 253.57 771.98 580.08 473.11 329.21 312.93 540.04 380.65 651.35 523.60 198.15 651.56 609.19 693.14 560.70 323.78 341.34 407.56 389.47 559.07 386.83 667.56 456.98 502.73 123.05 448.31 673.74 612.61 166.70 464.52 809.04 562.65 178.85 730.73 446.63 833.88 644.12 173.23 486.32 769.35 119.40 524.85 245.61 448.28 535.94 403.62 795.69 866.91 669.25 516.37 206.40 814.47 343.05 493.62 695.97 636.32 244.67 746.95 551.08 623.96 768.23 723.43 744.49 472.05 205.16 687.90 579.68 677.75 525.76 715.87 459.85 513.75 175.50 412.29 851.74 282.55 485.69 617.28 435.10 393.54 178.81 1019.27 392.17 335.05 529.89 277.87 566.12 233.93 407.30 155.14 731.73 500.46 241.02 313.77 645.66 710.51 429.85 433.02 888.03 453.87 813.31 368.15 485.38 552.74 177.47 352.12 369.52 423.85 150.86 464.67 169.65 692.88 821.94 844.12 492.22 611.52 478.88 409.28 402.24 324.38 708.40 225.54 474.31 675.38 246.37 729.56 446.80 471.52 896.02 114.19 109.35 194.85 285.13 691.81 455.49 216.49 231.24 545.49 586.30 367.28 104.92 664.47 457.40 396.55 794.16 470.18 795.10 164.93 805.04 806.89 263.86 174.96
1045.98 615.41 625.69 637.24 487.06 84.79 113.23 10.12 622.27 331.73 83.15 577.84 562.73 468.42 620.65 373.40 687.59 559.90 336.24 539.61 747.24 365.02 0.00 437.01 342.62 414.08 425.12 126.89 168.43 345.54 830.44 478.03 266.68 439.62 441.81 480.14 248.01 755.26 426.29 265.98 423.49 53.37 344.58 440.62 475.72 319.49 348.86 402.20 360.22 620.17 303.26 688.09 35.55 472.73 180.75 403.27 162.65 302.25 385.02 369.95 485.47 307.94 416.15 126.04 510.78 257.98 475.24 459.18 141.96 468.86 720.97 459.20 219.60 547.20 440.06 219.72 266.07 469.79 190.75 203.14 549.92 559.67 506.31 256.33 473.91 594.86 604.27 352.54 381.92 376.28 250.62 459.21 217.78 319.29 514.17 497.64 480.41 729.04 468.83 381.13 536.92 502.36 239.03 417.61 190.47 558.91 427.68 280.71 572.27 611.96 147.51 599.89 354.82 665.68 502.36 699.79 310.60 30.38 602.12 533.03 381.19 554.59 215.70 454.52 471.40 155.27 524.69 441.73 599.19 436.02 223.30 212.01 548.60 113.01 558.73 239.83 345.61 592.36 463.80 482.60 674.42 94.52 214.16 552.92 447.47 438.30 537.01 490.81 330.25 286.58 250.14 280.96 102.66 131.97 410.14 490.35 369.43 348.81 294.19 465.24 428.09 126.33 641.14 448.30 371.32 460.64 89.08 373.09 518.06 278.89 483.00 424.28 331.96 639.21 390.89 475.46 208.00 634.94 567.30 389.11 488.59 371.75 494.59 587.04 444.70 432.85
1058.04 247.09 971.08 762.14 350.50 504.00 401.87 426.89 830.93 165.67 457.70 670.06 575.71 598.20 942.67 163.54 1054.66 157.57 692.27 171.92 955.08 187.48 437.01 0.00 463.50 232.25 44.89 470.28 517.00 706.45 741.09 699.84 461.15 142.57 66.09 823.53 640.65 461.71 457.59 255.10 623.82 481.20 781.59 665.02 141.50 705.07 765.63 724.22 700.78 267.13 409.31 384.28 455.82 593.93 468.74 749.80 561.91 590.47 140.65 516.88 766.28 661.27 71.95 542.81 862.01 618.10 122.20 829.15 551.62 905.87 649.27 97.38 591.31 903.73 187.01 620.63 302.63 518.59 538.56 564.39 891.65 979.94 774.63 490.38 55.69 942.99 217.03 562.73 771.48 733.79 296.17 839.33 578.93 649.70 821.86 823.56 865.58 395.85 85.83 790.89 606.27 782.51 435.58 797.73 571.35 607.02 59.95 523.09 952.39 292.02 568.26 669.24 576.52 368.41 167.84 1120.54 468.93 440.04 537.06 341.12 643.25 254.01 559.09 116.22 827.06 527.73 129.58 448.25 713.63 821.19 572.33 583.03 976.66 540.64 904.12 478.95 596.18 378.00 56.96 231.46 351.38 494.01 255.85 517.51 40.63 858.57 904.89 880.06 585.02 644.32 630.67 476.72 398.02 360.47 805.20 107.35 584.13 701.12 268.62 851.12 455.58 538.31 996.15 73.29 126.95 262.82 399.02 793.36 552.01 208.74 80.53 636.95 684.72 276.95 111.88 718.10 475.00 269.25 851.43 557.77 880.49 350.15 887.23 929.11 76.38 157.37
823.77 680.02 567.08 427.53 246.03 341.39 296.42 352.74 584.09 389.64 296.04 368.77 220.11 164.96 658.12 399.56 650.66 521.97 318.20 560.25 637.79 421.11 342.62 463.50 0.00 382.01 418.61 324.27 262.24 399.94 535.68 288.97 80.01 348.64 525.01 642.22 420.02 691.22 193.40 485.18 229.15 327.73 519.74 241.24 481.73 424.99 521.76 537.43 322.04 524.26 81.90 612.25 346.75 225.55 200.35 538.12 361.54 186.47 364.37 132.49 433.84 438.27 445.06 302.93 630.03 512.04 491.39 489.80 407.23 686.32 428.98 443.78 403.97 635.29 403.38 378.63 267.53 183.98 506.62 210.77 636.88 590.69 311.13 538.25 486.27 597.89 626.98 137.54 465.23 384.48 249.86 543.47 432.44 557.28 489.42 548.02 548.65 739.45 488.46 556.29 280.71 373.06 503.28 521.92 324.22 251.42 403.55 119.20 676.58 500.66 301.32 337.26 165.65 622.10 452.85 853.60 36.09 373.00 290.83 292.00 223.15 441.37 277.86 467.75 498.34 487.65 541.11 177.96 377.44 504.26 262.45 277.28 700.85 266.82 500.12 102.79 213.63 816.97 466.12 633.86 587.33 335.87 297.36 210.30 450.58 527.01 532.82 665.11 159.83 458.59 315.52 93.44 381.57 299.37 529.39 509.98 160.06 574.77 526.61 560.86 120.97 363.13 666.16 452.13 378.07 374.11 306.28 505.22 175.44 409.46 495.58 231.24 389.32 641.32 398.73 385.66 434.92 634.61 518.99 173.38 570.22 263.33 596.04 548.66 524.90 449.00
825.79 432.39 777.91 610.11 170.41 465.71 402.41 423.68 832.38 190.47 419.41 588.08 343.46 434.86 922.95 86.24 861.49 316.07 617.78 284.08 911.70 138.98 414.08 232.25 382.01 0.00 187.36 444.60 454.50 676.01 659.03 569.58 389.84 133.61 298.34 797.85 638.23 467.47 232.53 370.23 470.26 360.71 741.40 534.76 151.48 709.71 744.26 748.72 611.00 273.52 329.59 365.41 425.77 494.64 420.33 728.46 536.23 551.14 226.48 441.02 666.40 676.22 200.20 487.54 863.80 648.62 140.19 771.73 541.25 882.94 597.87 157.79 540.55 879.23 70.82 581.22 235.59 351.60 591.69 484.68 852.89 801.52 623.00 571.53 245.90 808.72 316.05 447.37 693.45 684.25 278.17 847.14 609.81 692.16 721.98 821.23 855.21 538.32 240.56 777.95 461.25 682.89 587.04 805.54 543.79 374.77 202.42 420.84 946.17 276.91 537.11 478.30 446.26 362.62 151.85 1083.28 345.92 429.67 433.21 182.67 532.98 148.22 533.41 200.56 808.17 568.83 291.06 217.09 601.68 810.82 527.65 542.48 935.96 514.96 710.95 376.70 496.51 586.24 209.96 366.94 335.05 484.74 245.48 367.99 193.63 800.92 743.65 896.97 469.66 676.80 526.81 403.27 377.53 415.57 798.07 219.04 434.25 739.03 385.35 829.78 307.82 523.57 876.99 175.53 215.49 64.92 372.68 763.31 337.06 273.79 264.34 434.52 660.87 330.82 183.70 618.22 518.68 411.72 751.55 439.36 869.51 118.68 884.81 759.49 308.63 97.80
1013.15 280.86 959.10 717.25 342.20 459.11 367.89 415.41 812.55 147.29 412.81 663.22 530.82 553.31 897.78 141.20 1041.70 169.54 652.60 186.53 939.79 172.19 425.12 44.89 418.61 187.36 0.00 454.99 472.11 691.16 745.46 672.45 471.44 135.73 110.98 807.74 610.89 437.69 419.89 246.34 594.06 447.22 736.95 637.63 165.70 660.18 737.66 679.33 676.58 289.96 402.47 375.97 410.93 603.77 461.90 704.91 517.08 578.49 110.89 487.12 789.15 672.71 90.62 525.11 817.12 609.34 149.60 788.84 506.73 882.73 694.16 107.67 546.42 858.84 198.52 590.87 272.87 473.70 537.93 519.50 846.76 935.05 729.74 528.35 67.66 929.77 226.42 540.62 726.59 688.90 280.88 794.44 534.04 604.81 866.75 831.85 820.69 350.96 99.97 746.00 575.90 775.67 480.47 752.84 556.06 562.13 15.06 500.75 907.50 247.13 557.94 638.87 549.13 368.87 149.44 1086.50 439.17 395.15 581.95 296.23 625.90 239.20 543.80 128.40 782.17 502.45 135.81 404.45 706.79 776.30 545.26 559.95 931.77 523.44 892.14 456.61 573.84 422.89 77.63 215.25 334.10 469.90 210.96 472.62 62.65 813.68 892.10 835.17 562.91 599.43 612.29 446.96 414.22 315.58 760.31 121.49 554.37 656.23 290.64 806.23 410.69 519.97 1004.44 58.00 124.59 218.99 358.47 748.47 507.12 163.85 92.50 607.19 669.43 303.68 85.64 762.99 472.64 224.36 882.62 528.01 835.60 306.04 857.47 940.68 121.27 119.65
983.11 675.44 537.33 600.85 521.40 42.10 163.22 126.43 562.73 399.42 51.05 487.21 517.03 430.27 579.29 430.29 648.53 574.89 255.86 577.65 658.03 418.73 126.89 470.28 324.27 444.60 454.99 0.00 62.03 246.28 752.64 401.86 262.37 438.08 535.47 353.25 223.56 794.14 438.67 376.32 380.80 83.89 351.13 337.39 529.24 295.04 325.30 374.65 332.94 586.44 355.49 718.61 107.07 467.20 130.57 349.07 91.63 278.76 394.54 364.96 379.07 267.03 483.77 80.20 419.20 290.55 518.00 402.93 173.67 484.81 681.43 460.98 229.89 450.86 375.29 172.03 232.56 419.61 228.45 179.65 442.94 548.42 446.80 294.03 489.20 495.98 628.85 283.39 357.47 317.83 296.85 464.64 217.07 292.14 452.33 428.76 426.00 768.37 517.40 387.68 508.33 478.87 314.23 431.98 101.07 547.65 448.80 263.52 533.78 629.27 104.86 524.66 349.19 687.72 536.19 657.14 295.74 123.63 614.38 531.88 328.89 548.78 88.81 517.97 419.51 263.93 523.82 452.78 495.96 392.45 102.05 112.75 548.62 70.36 497.99 221.48 239.21 716.24 462.60 575.85 716.24 102.31 307.82 533.85 452.45 429.22 494.14 452.37 299.91 246.17 160.39 262.61 204.19 198.64 424.51 517.77 337.33 309.52 421.08 450.39 430.08 113.21 601.35 396.99 402.23 509.52 179.41 364.01 498.99 350.37 514.04 407.08 258.50 667.95 479.05 348.57 269.77 679.35 481.90 352.93 445.90 404.86 470.14 488.40 546.66 520.97
921.08 708.09 531.12 558.01 508.27 103.11 216.11 169.61 536.75 452.31 113.08 452.59 455.00 384.77 576.19 368.26 623.76 628.81 207.46 595.89 617.89 356.70 168.43 517.00 262.24 454.50 472.11 62.03 0.00 221.51 690.61 339.83 200.34 431.30 521.03 415.28 258.99 807.04 406.19 389.76 351.21 136.78 358.14 328.99 513.67 319.52 370.77 362.23 274.70 639.30 327.90 763.84 169.10 405.17 152.31 355.71 153.66 216.73 456.57 302.93 317.04 263.15 482.22 142.23 481.23 347.41 494.37 374.03 234.68 535.84 643.04 506.14 239.34 457.50 434.92 168.15 294.59 401.95 289.46 117.62 469.84 521.69 384.77 355.04 539.77 486.16 674.90 221.36 389.08 297.76 268.94 420.76 279.10 354.17 436.50 366.73 412.07 792.95 534.90 368.13 446.30 416.84 375.24 424.83 104.88 486.31 457.05 203.59 522.81 639.25 147.84 462.63 287.16 740.58 535.51 662.57 244.26 177.33 553.07 532.22 266.86 549.45 95.45 503.39 416.41 287.06 585.85 390.75 475.24 367.68 73.15 87.98 533.82 115.83 473.22 159.45 177.18 760.79 492.99 629.55 726.22 163.32 343.20 472.54 509.32 400.32 465.24 514.40 243.65 258.77 140.32 200.58 266.22 259.39 432.30 548.16 303.19 371.55 462.62 427.34 368.05 175.24 539.32 459.02 464.26 519.42 232.30 335.11 437.68 411.12 549.08 345.05 229.60 683.07 461.62 365.22 322.66 696.47 478.75 290.90 442.30 417.47 448.34 495.04 537.38 531.66
990.76 858.26 309.61 549.19 645.97 279.56 366.01 347.72 320.13 600.09 295.04 518.20 506.20 437.58 390.98 589.77 402.25 747.66 81.74 737.34 472.89 566.55 345.54 706.45 399.94 676.01 691.16 246.28 221.51 0.00 821.77 397.09 331.04 592.51 710.17 377.49 181.78 955.80 554.76 536.15 391.60 330.17 227.40 368.38 723.56 253.26 185.24 251.65 148.19 817.41 411.06 892.35 318.14 432.76 266.34 226.07 285.39 213.47 610.96 378.20 219.90 115.71 688.93 249.65 376.02 373.09 715.88 166.16 329.25 392.03 663.23 694.81 354.09 317.76 606.26 185.56 448.98 446.30 450.31 214.84 327.52 334.56 367.71 509.23 719.70 302.52 832.04 314.36 214.04 118.64 430.37 276.33 392.01 292.56 283.99 280.88 212.40 920.03 650.78 263.95 441.28 332.20 505.56 267.91 190.35 533.24 678.56 292.44 382.16 800.46 198.03 504.25 372.39 839.09 696.72 586.30 374.96 367.98 626.62 660.58 305.49 765.20 159.25 700.80 231.20 440.80 706.64 539.32 465.02 168.01 148.36 133.53 423.71 232.53 251.71 308.02 284.07 843.44 704.95 809.95 804.32 301.58 482.52 556.89 688.62 201.68 266.22 369.91 317.37 220.35 155.79 343.67 429.20 422.27 275.38 672.30 395.39 343.98 618.08 289.61 468.85 264.87 399.56 633.16 598.30 627.00 401.27 147.98 522.03 570.49 704.65 420.00 21.73 885.19 642.60 225.57 442.86 860.30 257.24 337.31 247.62 566.04 301.29 300.25 700.60 692.87
735.98 988.18 986.04 476.72 567.72 792.00 759.76 840.56 845.35 767.85 777.52 533.02 315.57 401.70 1023.85 745.27 838.86 898.66 758.32 913.01 927.28 761.95 830.44 741.09 535.68 659.03 745.46 752.64 690.61 821.77 0.00 580.81 603.44 773.23 807.18 1011.86 870.63 756.82 432.74 890.79 463.22 798.31 916.85 557.55 793.06 938.94 929.80 883.45 691.09 637.95 571.50 801.26 817.33 462.29 670.93 909.03 812.15 626.59 777.08 519.79 817.89 833.70 813.04 753.54 1009.77 963.91 782.88 856.46 850.95 1062.05 202.95 816.82 920.64 989.89 729.85 840.46 701.42 381.89 972.01 676.81 982.91 1015.16 653.74 993.21 796.78 952.10 954.70 565.17 940.51 824.60 716.18 919.20 913.71 1012.66 908.72 925.76 827.25 1094.97 826.92 911.16 424.90 700.14 992.05 916.60 791.69 343.09 760.52 588.77 1037.55 680.78 751.93 390.05 530.45 739.23 810.88 1129.90 559.52 860.82 421.21 549.52 562.63 765.30 749.64 843.25 894.12 963.43 870.67 448.18 503.45 871.64 729.92 744.75 1038.56 717.43 940.24 632.91 587.93 1119.09 798.05 960.71 767.75 786.48 709.17 395.10 781.72 902.19 972.94 1039.29 542.88 909.20 785.09 616.87 826.25 822.80 909.13 848.44 491.24 1025.38 938.29 936.59 444.90 786.57 1025.04 803.46 763.38 667.27 796.31 912.15 360.24 808.97 821.62 420.06 843.50 864.67 811.97 864.62 964.56 969.82 819.42 501.97 903.01 626.02 963.29 988.78 817.47 756.83
738.67 865.43 480.74 314.01 494.49 438.25 473.89 470.26 434.73 598.28 394.88 200.37 343.90 217.39 589.99 604.86 596.09 756.83 357.92 782.64 452.60 558.42 478.03 699.84 288.97 569.58 672.45 401.86 339.83 397.09 580.81 0.00 262.63 583.50 709.06 574.19 486.10 873.52 364.25 690.80 153.20 453.58 441.98 125.97 681.17 534.82 399.82 499.60 254.14 716.58 316.76 772.58 442.59 220.87 354.73 500.67 471.53 226.19 575.52 199.29 237.08 435.28 672.23 430.43 583.76 607.51 675.98 315.63 494.55 601.12 439.26 626.40 557.70 572.49 582.06 409.34 413.54 289.71 560.42 325.30 546.15 506.37 163.97 626.00 714.01 497.08 841.47 161.05 471.99 420.95 476.27 458.27 482.13 623.51 340.36 508.82 410.31 961.42 724.91 478.53 273.39 119.33 635.46 490.59 398.22 365.35 687.51 274.31 597.84 701.58 372.23 252.16 123.32 769.82 633.40 763.02 262.50 490.52 428.77 481.67 96.84 582.16 391.89 690.14 472.59 595.90 738.22 379.69 228.09 409.40 387.34 372.51 621.62 394.32 445.55 289.45 245.71 1002.31 683.09 795.60 786.18 423.54 496.74 348.24 670.78 335.37 423.39 600.38 180.44 524.67 320.31 295.08 539.59 501.01 483.12 718.57 162.53 674.21 728.25 475.66 261.76 430.17 556.73 664.86 572.89 599.42 524.56 400.58 313.38 644.89 689.17 160.75 375.87 833.37 633.59 285.26 608.16 856.17 362.51 158.40 486.07 455.65 543.57 431.81 725.41 667.38
837.29 627.21 577.97 436.30 326.04 287.01 216.41 276.80 518.37 335.65 298.91 332.81 300.12 201.74 578.11 356.30 661.55 517.26 280.29 520.01 575.89 409.04 266.68 461.15 80.01 389.84 471.44 262.37 200.34 331.04 603.44 262.63 0.00 394.30 501.95 579.38 371.20 725.93 264.41 428.56 210.21 260.80 514.98 255.88 440.68 364.00 472.82 481.37 256.32 532.09 127.56 616.28 279.82 262.33 133.42 458.68 319.32 197.36 368.52 103.27 416.10 374.69 409.60 285.72 569.04 450.14 421.38 453.74 372.72 606.31 454.29 363.77 342.07 555.28 422.96 321.93 206.54 230.72 426.61 147.19 570.11 601.58 352.92 492.19 451.38 564.85 596.92 101.58 464.79 380.99 257.69 463.46 435.48 477.27 471.68 468.01 468.64 792.28 462.28 500.71 287.81 337.10 505.71 460.93 250.97 331.43 456.38 67.06 603.03 574.92 246.23 350.78 167.38 633.37 488.45 787.63 43.92 297.06 370.84 372.01 183.14 488.11 198.42 427.51 418.33 421.95 475.59 257.97 414.22 424.25 200.55 215.38 635.10 249.64 511.01 40.89 172.51 755.98 436.85 588.60 632.99 318.28 288.41 290.31 420.52 463.43 543.71 604.12 123.87 387.46 263.38 32.45 369.34 238.38 468.40 455.94 163.03 528.69 465.62 480.85 167.71 308.34 637.60 460.91 382.22 381.94 261.93 447.84 255.45 390.11 426.54 223.34 309.31 570.74 432.08 367.92 446.68 629.90 501.25 144.16 490.21 271.16 516.03 559.55 500.23 423.76
959.40 341.69 902.12 641.13 264.17 480.18 382.39 429.91 834.57 169.31 484.11 527.49 457.66 489.16 941.71 73.22 932.08 224.38 602.09 219.88 923.63 74.60 439.62 142.57 348.64 133.61 135.73 438.08 431.30 592.51 773.23 583.50 394.30 0.00 208.66 783.61 599.34 398.51 366.14 291.23 504.43 453.55 725.95 548.68 151.98 670.82 683.79 726.14 623.69 250.78 266.74 332.96 464.07 549.75 326.17 715.44 529.71 535.11 114.91 433.32 738.70 589.50 96.42 505.73 849.56 637.25 142.75 745.03 484.15 906.54 659.92 118.40 560.92 830.69 62.79 501.59 276.89 413.31 561.12 472.76 838.52 892.69 659.77 550.37 166.62 873.64 278.34 436.90 715.43 668.76 265.15 763.69 588.60 661.48 807.50 798.03 773.56 417.22 149.10 762.50 537.18 639.94 545.02 764.09 505.92 488.97 120.67 432.77 893.81 207.95 504.12 574.81 460.18 318.94 104.21 1056.40 364.13 409.65 528.38 238.00 500.68 191.95 468.64 177.53 781.93 525.64 204.96 350.70 571.06 738.68 444.15 458.98 920.47 469.62 844.22 388.63 505.86 503.31 118.27 294.53 294.92 497.65 225.46 420.21 101.94 767.48 836.24 876.07 459.19 637.91 511.32 421.48 436.24 361.38 771.56 170.62 492.65 707.26 320.97 781.08 393.34 521.40 969.58 103.49 128.61 120.25 359.73 706.11 412.99 209.65 172.65 547.59 600.60 292.68 50.09 710.63 476.66 337.02 814.64 434.57 838.72 211.09 845.92 868.23 218.95 100.36
1124.13 187.06 993.35 828.23 393.84 518.96 384.58 432.10 897.02 231.76 507.48 736.15 611.24 627.86 956.33 229.25 1058.39 166.13 685.24 186.00 1021.17 253.57 441.81 66.09 525.01 298.34 110.98 535.47 521.03 710.17 807.18 709.06 501.95 208.66 0.00 866.29 678.72 470.00 492.30 195.07 616.71 463.91 781.68 674.24 207.59 738.26 769.10 737.88 734.25 296.96 470.17 393.92 466.26 657.67 514.16 763.46 533.77 612.74 206.74 509.77 832.37 601.24 115.29 532.42 883.94 558.07 188.29 802.91 523.42 891.68 715.36 161.12 563.11 901.94 253.10 591.73 368.72 554.93 472.47 577.17 898.82 990.38 803.34 424.29 100.25 955.35 283.12 590.37 727.17 779.86 362.26 817.43 548.31 676.50 887.95 875.37 837.38 404.84 129.88 803.54 672.36 819.10 369.49 775.83 624.75 631.36 126.04 536.22 930.49 339.79 581.79 728.39 585.74 398.24 233.93 1134.07 488.92 411.84 603.15 384.75 648.55 317.75 602.36 176.07 840.72 476.45 124.46 507.74 779.72 792.99 591.47 576.64 954.76 554.82 926.39 542.84 635.52 350.84 123.05 166.30 394.72 500.64 227.65 531.71 106.72 861.27 947.55 893.72 588.26 677.51 628.98 534.40 395.24 373.25 783.30 151.40 577.02 727.92 207.92 834.82 521.67 472.22 1036.12 139.38 193.04 267.00 410.96 803.80 566.57 221.52 75.41 629.84 704.46 286.59 177.97 784.19 437.85 231.54 912.32 550.66 858.59 299.02 902.73 974.93 16.35 221.11
1173.23 1020.65 362.94 836.28 814.05 395.35 516.47 479.68 549.15 752.67 404.30 728.26 780.06 672.66 285.18 783.54 452.63 928.14 324.02 930.90 543.49 771.98 480.14 823.53 642.22 797.85 807.74 353.25 415.28 377.49 1011.86 574.19 579.38 783.61 866.29 0.00 314.07 1147.39 731.69 729.57 608.47 437.14 150.09 643.75 882.49 242.59 192.25 128.41 435.28 939.69 660.68 1071.86 460.32 691.79 483.82 153.99 411.27 455.75 747.79 623.41 419.46 265.05 837.02 433.45 65.95 401.06 871.25 318.69 479.41 131.56 808.91 814.23 435.44 108.38 728.54 360.05 585.81 708.25 506.11 457.12 89.69 317.63 609.99 560.06 842.45 256.46 982.10 578.16 204.60 299.48 650.10 115.92 530.10 302.08 341.84 161.39 203.45 1121.62 870.65 160.53 699.70 552.73 538.60 129.04 428.23 791.66 792.68 546.64 182.97 982.52 441.65 762.67 612.99 1040.97 887.82 387.11 614.87 476.88 891.35 860.02 559.42 902.03 414.25 871.22 161.05 519.79 877.07 747.13 652.88 224.24 417.49 402.66 195.37 407.68 302.09 565.10 502.24 1042.93 815.85 929.10 1046.60 455.56 661.07 808.55 805.70 238.82 300.71 99.12 555.87 276.29 350.32 557.52 557.44 551.89 121.57 871.02 634.73 338.02 774.33 100.78 645.24 466.46 314.56 750.24 755.48 847.64 532.66 260.00 775.96 703.62 867.29 651.63 355.76 1021.20 832.30 443.36 572.52 1032.10 468.36 608.27 166.32 758.11 168.59 350.63 849.94 874.22
1097.98 839.95 469.98 666.15 666.05 227.77 334.75 246.62 484.52 519.38 263.83 552.51 618.17 487.17 424.29 610.31 553.56 735.08 240.90 754.95 559.38 580.08 248.01 640.65 420.02 638.23 610.89 223.56 258.99 181.78 870.63 486.10 371.20 599.34 678.72 314.07 0.00 976.78 586.64 494.41 456.76 277.52 184.13 508.70 712.63 71.48 141.97 221.19 329.97 810.00 498.76 912.24 212.46 536.40 296.65 224.76 175.19 328.13 500.00 427.79 401.68 89.30 649.01 187.09 331.58 191.31 708.60 290.27 197.91 360.08 751.19 650.99 299.38 331.90 598.85 97.75 456.12 581.45 315.60 280.43 305.56 402.44 464.75 381.18 662.04 353.69 796.82 402.41 133.91 253.06 487.12 290.25 302.36 224.65 349.11 290.75 283.32 896.27 693.24 220.68 588.92 366.77 379.88 248.65 168.71 611.30 608.33 368.10 398.84 807.29 187.70 634.76 420.20 876.44 703.55 602.98 414.55 266.88 676.21 710.17 410.25 772.34 172.78 700.32 264.51 337.39 693.41 571.20 508.48 238.93 185.84 171.01 411.63 153.20 403.02 345.50 397.77 807.65 645.16 719.10 869.22 191.04 451.07 630.32 628.83 311.51 370.32 366.66 380.12 38.57 171.78 357.20 348.46 364.83 241.18 700.33 444.98 238.41 542.20 290.40 518.44 241.11 411.48 605.67 513.70 697.55 321.94 246.30 595.46 515.39 644.36 476.28 192.52 855.54 585.69 396.36 311.52 835.25 439.02 386.90 306.86 603.52 246.58 451.56 673.13 669.76
1235.83 586.50 1214.25 922.75 471.15 776.41 642.03 765.38 1161.12 567.53 780.06 926.00 723.30 748.25 1259.04 471.73 1313.80 479.05 874.06 489.61 1223.44 473.11 755.26 461.71 691.22 467.47 437.69 794.14 807.04 955.80 756.82 873.52 725.93 398.51 470.00 1147.39 976.78 0.00 608.25 632.37 775.60 721.36 1077.49 838.70 389.34 1034.31 1043.40 1117.02 899.07 233.39 656.91 255.10 764.32 805.85 724.68 1113.95 882.60 857.33 513.42 756.01 1002.49 988.01 410.16 846.65 1170.86 985.94 378.32 1107.82 866.15 1224.12 933.96 364.33 897.01 1227.53 418.85 900.10 614.47 679.20 915.77 820.77 1201.19 1224.08 940.75 894.29 468.19 1180.62 442.73 733.99 1029.54 1023.43 538.10 1162.20 869.74 982.18 1058.07 1133.38 1131.77 788.65 462.84 1114.04 802.82 969.51 839.49 1146.38 895.21 723.66 452.75 756.93 1279.28 190.56 872.36 840.45 750.20 166.91 355.39 1424.64 682.01 758.34 730.50 492.40 802.24 369.92 867.15 428.07 1144.26 880.29 518.57 592.81 957.74 1087.38 842.66 857.49 1298.72 850.98 1163.26 712.79 782.73 730.20 426.98 608.73 151.48 823.29 588.36 713.49 421.08 1091.49 1141.10 1199.66 711.70 1015.35 909.83 739.36 729.93 711.58 1138.91 445.43 773.20 1033.60 635.95 1179.59 616.19 840.81 1274.44 461.47 522.02 426.59 734.20 1054.09 678.63 578.86 491.07 818.76 971.91 279.89 432.64 954.31 870.07 530.00 1087.64 715.12 1144.74 454.77 1187.23 1165.32 453.65 369.67
765.13 604.06 750.07 408.46 151.33 480.77 351.73 436.41 668.31 393.08 437.82 377.27 171.03 202.33 819.49 318.77 805.57 548.60 487.82 516.61 735.57 329.21 426.29 457.59 193.40 232.53 419.89 438.67 406.19 554.76 432.74 364.25 264.41 366.14 492.30 731.69 586.64 608.25 0.00 505.00 245.43 425.73 581.60 329.02 384.01 563.51 600.33 639.22 430.74 387.94 154.13 546.91 461.84 262.92 344.30 640.29 429.70 369.46 344.34 239.37 529.96 571.93 429.88 491.60 768.55 655.99 370.97 589.52 547.65 834.16 400.93 390.32 547.92 775.91 303.35 529.53 268.68 149.95 592.07 354.72 786.46 725.64 457.39 560.47 450.70 739.27 548.58 303.40 636.11 484.20 283.44 702.04 513.78 630.21 638.28 732.42 717.81 713.95 473.09 618.15 250.55 483.58 615.27 660.44 466.41 202.34 434.95 290.88 815.10 417.69 452.08 288.18 240.93 489.22 384.38 942.49 229.49 456.67 231.56 197.30 325.24 380.75 413.86 431.34 682.74 581.56 513.24 15.44 414.81 685.64 406.40 421.23 839.37 455.49 683.11 246.74 294.86 818.77 440.94 599.47 504.66 520.81 295.02 161.22 426.16 655.09 715.81 795.06 281.11 584.24 473.57 231.96 486.63 421.28 667.91 451.57 201.72 681.63 505.55 719.43 128.84 515.49 736.20 390.40 330.64 280.98 464.17 647.10 126.36 415.78 475.54 223.71 550.84 496.01 379.23 567.43 611.61 638.72 587.48 259.80 714.15 193.28 756.64 731.65 475.95 330.33
1155.99 349.43 845.76 776.85 447.37 346.72 229.65 272.95 774.67 254.27 348.33 719.83 624.48 489.09 836.78 283.99 903.46 327.16 545.73 347.03 960.39 312.93 265.98 255.10 485.18 370.23 246.34 376.32 389.76 536.15 890.79 690.80 428.56 291.23 195.07 729.57 494.41 632.37 505.00 0.00 553.28 308.98 610.56 644.94 361.68 565.89 611.69 628.30 609.17 459.33 452.50 548.66 301.53 549.68 360.31 653.88 428.63 551.20 217.28 507.43 706.80 491.66 282.20 382.65 754.16 363.00 342.38 702.31 364.27 734.84 753.11 284.77 456.64 790.39 324.91 396.66 327.79 537.26 453.58 452.09 787.80 825.65 728.62 509.98 261.28 807.86 445.53 530.14 617.59 600.31 347.44 707.85 468.72 541.60 736.59 726.68 726.71 525.95 275.60 647.11 663.27 731.39 475.01 666.25 456.45 655.79 245.23 432.52 820.91 482.99 413.49 687.35 567.48 531.89 319.91 965.77 453.46 252.69 622.42 493.34 600.90 409.67 428.34 325.62 677.00 418.10 285.49 520.44 701.57 682.32 417.45 402.62 814.58 378.99 787.86 437.24 532.17 428.80 299.44 273.80 523.82 360.50 209.98 627.02 288.70 695.69 792.62 756.79 510.36 532.98 454.96 396.11 280.12 190.18 673.72 285.79 551.57 565.17 81.93 725.24 519.17 389.16 899.27 262.45 203.58 403.50 227.96 639.07 613.48 96.44 236.44 586.75 557.88 447.62 241.14 724.89 406.65 405.93 757.39 548.32 748.88 318.94 740.99 827.93 178.72 344.76
664.51 803.77 550.57 256.12 341.29 338.70 400.12 431.74 505.46 521.96 385.00 196.72 199.58 64.19 683.50 542.77 672.06 709.96 354.67 711.59 590.13 540.04 423.49 623.82 229.15 470.26 594.06 380.80 351.21 391.60 463.22 153.20 210.21 504.43 616.71 608.47 456.76 775.60 245.43 553.28 0.00 430.39 484.49 95.46 606.74 503.62 488.94 507.26 243.41 621.47 270.61 733.57 416.62 103.28 303.01 481.68 444.89 249.69 483.17 106.94 389.39 419.54 600.85 423.22 616.44 626.32 587.44 421.27 470.27 682.05 328.21 573.98 528.54 621.52 493.52 434.27 321.19 188.45 525.05 299.91 641.66 638.26 276.84 590.63 644.08 551.94 752.93 129.85 511.93 447.70 397.56 550.58 538.96 628.85 493.56 583.70 530.48 808.22 653.53 447.94 155.80 272.53 610.83 508.98 381.99 230.89 598.58 204.56 647.31 585.04 397.16 178.00 104.94 667.75 576.13 780.15 195.11 411.48 295.63 383.35 121.77 521.80 372.74 637.72 534.02 560.53 668.29 253.17 254.03 534.22 368.96 354.13 687.91 413.27 563.34 227.36 199.75 948.61 622.70 702.49 632.98 398.91 404.39 262.17 606.37 488.57 576.59 641.72 128.72 495.33 400.88 242.66 526.15 448.59 515.80 651.40 114.34 653.20 635.21 563.23 201.40 448.98 648.82 588.84 496.87 485.21 472.14 471.29 232.00 552.54 619.24 43.16 402.10 733.74 554.52 404.23 583.88 795.81 498.77 69.86 561.76 397.74 590.12 575.84 633.06 568.06
1037.86 636.20 583.30 596.20 493.50 105.00 79.33 62.97 646.62 315.53 58.70 542.93 540.47 442.85 636.56 395.50 634.22 539.82 339.75 519.33 735.60 380.65 53.37 481.20 327.73 360.71 447.22 83.89 136.78 330.17 798.31 453.58 260.80 453.55 463.91 437.14 277.52 721.36 425.73 308.98 430.39 0.00 397.95 421.28 497.82 349.00 383.55 452.15 401.90 633.62 271.60 634.72 65.06 419.36 127.38 432.96 175.52 343.93 386.45 364.07 453.82 315.51 422.59 126.83 503.09 287.91 488.69 434.73 181.73 522.23 678.24 468.42 179.84 534.75 431.53 220.51 256.22 416.42 243.60 244.82 526.83 566.62 521.55 289.21 473.94 579.87 570.37 311.70 411.43 396.49 232.19 488.72 271.15 359.06 536.22 503.51 509.89 758.55 475.27 434.50 512.95 528.40 254.24 447.12 184.96 527.25 438.93 253.74 601.78 634.06 176.40 556.21 358.79 645.73 512.56 728.68 292.55 70.15 570.46 539.47 356.74 508.93 172.70 502.82 476.78 208.12 498.15 410.29 571.25 465.53 185.94 196.64 601.97 154.25 516.34 224.94 313.96 643.05 470.24 522.37 680.50 124.03 236.26 530.66 453.91 467.81 483.64 536.26 301.67 316.09 244.28 266.07 156.03 138.41 439.65 496.79 344.98 378.32 347.56 494.75 394.19 162.86 616.98 438.20 377.97 425.63 95.52 402.60 495.80 290.14 449.10 416.16 342.39 645.65 430.66 432.46 185.88 641.38 565.79 360.53 508.80 400.54 524.10 564.88 465.49 454.95
1023.14 936.04 385.76 691.89 732.93 355.34 457.81 354.70 457.30 676.31 367.01 642.35 646.00 548.68 276.07 700.91 476.76 859.70 246.52 876.82 479.98 651.35 344.58 781.59 519.74 741.40 736.95 351.13 358.14 227.40 916.85 441.98 514.98 725.95 781.68 150.09 184.13 1077.49 581.60 610.56 484.49 397.95 0.00 509.20 798.14 206.06 42.16 57.62 290.89 883.65 595.06 1032.67 380.13 575.46 400.87 58.69 261.18 377.51 684.13 499.43 269.37 180.44 760.73 316.88 205.05 366.38 778.84 210.87 382.04 270.66 713.90 721.23 384.40 210.13 726.42 247.24 583.69 631.71 490.67 379.62 225.05 299.61 500.62 464.76 757.82 279.73 948.85 478.80 54.51 275.07 595.20 139.19 457.15 295.15 293.38 178.04 163.00 1002.13 806.80 36.55 622.20 402.64 498.26 97.59 293.52 677.31 721.89 452.24 235.92 926.48 315.27 662.49 515.09 984.93 830.16 440.06 535.35 374.96 741.26 778.90 409.33 877.86 318.95 784.97 160.46 499.85 831.71 597.04 607.72 143.48 343.44 331.87 276.52 280.77 326.22 487.60 406.94 936.94 784.46 827.18 969.10 349.82 558.74 660.73 777.98 208.61 326.66 213.46 471.26 186.81 279.53 503.37 447.24 476.55 104.41 811.78 532.85 267.23 638.77 151.84 574.45 346.97 343.63 748.12 697.83 697.55 433.66 166.90 625.87 623.47 782.66 527.65 205.67 928.20 735.47 296.64 494.68 953.24 376.47 480.01 148.30 622.72 178.73 336.83 765.33 777.43
735.33 861.30 455.11 263.46 432.95 379.49 453.84 430.50 482.24 579.49 388.44 149.82 261.51 155.85 613.50 576.34 602.29 722.01 331.45 760.75 561.67 523.60 440.62 665.02 241.24 534.76 637.63 337.39 328.99 368.38 557.55 125.97 255.88 548.68 674.24 643.75 508.70 838.70 329.02 644.94 95.46 421.28 509.20 0.00 660.46 528.07 467.04 542.92 220.19 665.54 281.94 760.27 407.77 138.90 319.55 517.34 429.02 243.69 540.70 164.47 322.87 430.61 645.10 395.08 631.53 538.60 641.16 325.81 500.79 635.12 419.87 619.65 526.79 580.40 547.24 415.58 378.72 254.89 565.84 312.87 554.06 552.79 201.65 631.42 686.41 528.72 806.65 154.30 482.17 431.13 455.09 555.93 554.46 629.53 410.63 560.48 488.33 899.88 697.78 543.40 224.53 189.60 651.62 559.32 394.51 292.82 644.79 269.48 632.28 666.76 378.47 248.82 88.50 735.00 626.65 756.93 249.81 450.76 382.93 446.85 103.08 547.34 363.41 678.74 510.80 564.44 725.82 344.46 158.57 491.35 352.52 337.69 676.25 407.75 515.82 281.72 169.09 995.56 652.29 760.78 728.44 439.70 461.92 315.31 635.96 444.33 493.66 666.61 145.62 479.79 390.03 282.47 541.58 488.40 562.95 705.12 127.30 646.91 676.72 563.28 226.94 436.41 612.36 630.04 538.07 564.60 509.68 452.60 306.18 610.07 676.77 138.62 378.88 810.61 598.77 308.77 605.74 821.35 403.31 123.58 497.74 477.05 558.02 504.04 690.59 632.56
977.27 307.37 913.74 761.59 277.70 552.87 418.49 466.01 925.17 259.91 541.39 679.47 494.94 554.80 1013.13 145.41 997.32 210.48 656.62 172.17 950.54 198.15 475.72 141.50 481.73 151.48 165.70 529.24 513.67 723.56 793.06 681.17 440.68 151.98 207.59 882.49 712.63 389.34 384.01 361.68 606.74 497.82 798.14 660.46 0.00 644.97 755.98 794.68 673.25 164.23 418.72 250.17 500.17 573.46 478.15 787.63 567.68 589.98 227.90 501.41 817.88 723.31 122.74 575.71 907.88 673.35 19.30 854.55 557.33 944.58 689.03 76.91 597.02 932.32 212.07 653.57 373.79 503.08 581.39 523.52 945.58 937.35 766.56 631.88 152.61 944.55 164.57 520.12 819.68 749.23 324.34 879.95 655.98 734.66 873.46 880.40 871.29 486.54 99.89 817.76 609.37 755.64 577.08 838.35 618.55 526.25 150.64 459.68 993.01 207.06 615.70 629.78 571.96 265.51 47.77 1167.98 445.64 445.75 555.20 243.54 605.73 137.53 576.86 79.67 859.01 611.16 155.75 368.57 723.04 826.90 575.20 590.03 1000.94 588.73 846.78 415.54 565.13 514.58 96.88 305.80 237.86 534.55 261.56 519.47 113.21 839.76 879.48 942.96 542.41 705.72 591.79 456.67 431.53 414.48 830.88 121.41 568.66 786.08 341.20 885.98 457.93 582.22 1012.82 132.25 214.79 185.85 420.85 814.74 485.18 271.24 177.45 583.73 719.64 283.88 145.22 769.70 562.84 308.37 886.83 536.88 918.52 270.16 932.13 895.32 217.60 59.22
1148.19 898.68 488.09 718.64 671.02 299.25 406.23 318.10 556.00 590.86 335.31 605.00 645.10 537.24 368.16 680.65 571.67 804.15 294.68 817.14 626.84 651.56 319.49 705.07 424.99 709.71 660.18 295.04 319.52 253.26 938.94 534.82 364.00 670.82 738.26 242.59 71.48 1034.31 563.51 565.89 503.62 349.00 206.06 528.07 644.97 0.00 168.27 149.71 367.41 809.20 486.29 895.14 283.94 573.71 368.13 175.29 215.29 399.61 571.48 467.27 470.93 143.08 720.49 230.17 308.54 231.85 664.27 361.75 241.00 365.69 747.80 721.88 230.22 287.35 670.33 169.23 505.64 566.69 356.14 351.91 313.69 388.14 536.23 406.48 722.97 391.09 809.54 373.77 205.39 292.71 558.60 264.82 345.45 156.52 399.62 302.23 299.24 921.20 744.86 172.79 598.71 438.25 422.97 223.22 214.64 667.71 675.24 416.82 372.16 852.03 257.60 661.68 439.57 910.48 692.74 556.88 388.90 338.36 715.82 716.99 459.38 782.50 244.26 724.64 252.55 362.31 764.89 578.95 579.96 265.71 257.32 242.49 376.95 224.68 421.13 372.68 467.09 879.13 716.64 734.79 882.83 262.52 521.41 612.41 700.31 300.70 421.33 305.55 396.06 60.75 243.26 331.55 409.29 376.22 230.69 766.38 466.51 207.94 537.63 276.61 531.71 266.04 459.29 662.79 585.18 726.92 393.42 289.21 600.43 527.95 715.84 537.69 246.30 927.02 657.17 422.75 354.61 884.54 510.50 443.31 305.98 616.14 294.39 449.44 727.97 704.19
1055.41 923.46 358.51 713.83 751.66 329.51 421.65 338.74 441.33 652.33 324.85 600.19 614.23 553.13 282.32 661.93 442.09 817.54 227.51 834.66 512.25 609.19 348.86 765.63 521.76 744.26 737.66 325.30 370.77 185.24 929.80 399.82 472.82 683.79 769.10 192.25 141.97 1043.40 600.33 611.69 488.94 383.55 42.16 467.04 755.98 168.27 0.00 99.78 322.20 869.63 576.05 993.37 354.43 565.54 398.39 100.85 279.07 335.35 641.97 505.95 302.66 167.86 724.90 291.05 199.85 333.28 736.68 243.14 339.88 265.46 756.06 679.07 342.24 252.29 700.59 239.72 557.86 616.68 457.57 360.61 251.89 326.05 469.22 427.49 715.66 263.68 912.22 452.78 86.78 232.91 574.51 148.28 414.99 270.60 290.73 148.78 145.71 1005.10 777.58 78.71 583.06 435.93 482.29 106.68 298.54 645.54 722.60 462.01 261.34 891.74 289.44 637.17 498.19 970.91 788.00 465.48 516.74 359.00 699.10 753.16 367.17 835.70 314.75 742.81 122.54 479.36 789.55 615.77 570.12 101.32 317.01 302.18 285.61 254.94 291.55 451.71 409.95 941.22 752.15 811.22 950.09 323.99 543.19 618.57 735.82 171.12 309.37 234.93 457.71 144.65 297.57 492.84 451.52 460.81 99.21 769.62 490.69 309.39 643.05 154.31 596.60 349.94 321.37 722.29 655.67 739.71 417.92 139.47 583.71 607.51 740.50 532.10 163.51 886.04 714.11 254.48 453.49 911.08 387.81 465.06 186.85 661.55 220.24 319.54 752.75 739.06
1080.76 892.24 362.13 713.49 783.46 396.11 506.73 412.32 458.87 689.37 424.63 599.85 651.65 568.64 218.45 667.80 458.12 847.02 288.24 835.74 532.87 693.14 402.20 724.22 537.43 748.72 679.33 374.65 362.23 251.65 883.45 499.60 481.37 726.14 737.88 128.41 221.19 1117.02 639.22 628.30 507.26 452.15 57.62 542.92 794.68 149.71 99.78 0.00 348.51 938.15 598.73 1044.85 419.50 601.82 399.97 25.58 318.80 419.97 691.90 499.58 326.99 136.64 739.83 325.32 181.62 333.27 793.91 268.49 390.71 242.29 680.50 756.88 379.93 179.51 734.46 231.64 576.28 579.84 457.56 334.18 167.43 307.58 558.24 431.65 746.99 255.65 905.75 449.75 112.13 225.29 628.03 115.11 401.69 261.03 249.91 152.52 162.86 1000.17 749.18 66.67 654.34 460.26 486.45 73.51 299.82 682.96 664.27 418.23 228.17 926.46 313.24 659.28 484.58 1004.99 828.77 407.17 501.34 414.20 765.93 790.39 466.95 837.23 285.84 783.25 102.84 478.74 801.83 653.25 615.98 166.03 289.08 274.25 252.44 321.54 307.58 442.16 373.83 994.56 726.84 866.42 1010.82 390.59 571.80 680.14 731.84 204.71 280.91 155.84 427.46 210.46 221.91 470.26 441.97 525.93 80.98 770.70 506.32 209.61 687.34 126.90 516.83 384.48 325.11 737.33 678.20 755.17 484.69 139.50 659.22 677.66 756.30 541.70 239.86 962.89 734.85 353.67 504.32 903.69 378.04 479.86 156.27 680.34 200.41 336.69 721.53 790.49
898.05 883.53 339.21 401.00 558.36 296.90 386.13 370.34 262.05 591.97 343.20 370.01 404.36 289.39 450.39 568.52 486.39 773.58 111.26 776.33 476.52 560.70 360.22 700.78 322.04 611.00 676.58 332.94 274.70 148.19 691.09 254.14 256.32 623.69 734.25 435.28 329.97 899.07 430.74 609.17 243.41 401.90 290.89 220.19 673.25 367.41 322.20 348.51 0.00 751.34 378.00 853.99 374.82 284.57 303.67 349.58 333.81 147.97 606.24 230.01 161.72 261.91 665.92 323.66 443.40 521.28 677.70 268.72 427.96 478.59 553.41 620.09 416.57 427.56 612.78 233.98 444.26 360.65 483.25 157.08 442.39 418.84 267.73 544.70 707.70 308.53 837.82 209.66 345.40 255.60 512.67 335.74 511.00 440.75 277.29 340.29 287.07 898.34 717.49 327.44 388.99 190.50 568.52 339.13 293.93 413.52 661.52 241.33 427.14 708.51 305.79 421.33 224.20 828.72 682.01 536.74 300.24 390.60 478.43 512.39 157.30 641.06 244.13 683.83 290.61 509.77 731.91 415.30 316.83 316.20 232.16 246.99 498.38 287.55 368.56 257.71 135.88 947.34 675.01 826.32 795.48 356.60 527.46 408.70 664.36 328.69 335.86 477.85 187.37 342.28 224.76 283.93 462.88 429.74 342.76 712.26 247.20 492.17 654.41 353.13 320.66 383.86 452.93 627.49 619.87 630.14 386.85 296.17 373.84 512.73 682.86 276.35 158.69 827.06 593.11 173.53 541.57 886.22 306.86 189.12 362.49 492.32 388.31 384.54 717.90 680.08
1030.68 399.71 1020.41 710.54 280.18 628.54 554.29 610.46 974.63 388.19 614.74 734.43 532.33 557.28 1065.20 271.04 1119.96 273.11 760.03 297.80 1053.95 323.78 620.17 267.13 524.26 273.52 289.96 586.44 639.30 817.41 637.95 716.58 532.09 250.78 296.96 939.69 810.00 233.39 387.94 459.33 621.47 633.62 883.65 665.54 164.23 809.20 869.63 938.15 751.34 0.00 471.84 163.31 644.62 617.87 576.95 913.26 678.07 693.39 334.84 596.43 808.65 820.97 230.92 632.29 994.91 817.80 144.93 913.98 701.78 1060.52 740.12 190.56 741.47 1033.69 211.15 725.97 466.76 486.05 707.02 626.93 1007.35 1030.24 765.25 721.25 281.12 1054.71 316.75 586.26 835.70 841.26 452.18 987.47 783.82 834.41 864.23 1000.10 1000.73 586.79 255.32 920.20 611.85 821.78 666.45 945.87 687.51 563.64 279.47 563.09 1100.53 42.83 691.30 646.55 621.09 101.28 212.00 1243.58 488.17 590.20 497.11 326.15 654.51 185.98 675.25 205.30 950.42 730.11 295.80 372.50 769.76 956.34 678.61 693.44 1124.33 656.80 969.42 518.95 635.00 645.13 238.74 435.69 129.80 679.00 406.01 522.52 247.31 943.17 947.26 1029.99 563.97 832.61 716.24 545.52 557.16 540.11 938.40 275.70 589.66 885.83 462.18 993.50 506.38 682.26 1080.60 265.94 338.53 250.04 557.99 927.58 487.66 404.30 305.96 611.65 823.05 258.21 249.15 760.47 677.38 385.75 893.80 622.83 997.01 260.93 1039.50 971.48 280.61 187.32
832.43 598.12 648.98 433.16 305.46 366.10 240.29 313.38 634.64 307.74 319.80 401.39 286.96 222.42 705.67 339.96 665.34 440.07 348.54 486.62 682.83 341.34 303.26 409.31 81.90 329.59 402.47 355.49 327.90 411.06 571.50 316.76 127.56 266.74 470.17 660.68 498.76 656.91 154.13 452.50 270.61 271.60 595.06 281.94 418.72 486.29 576.05 598.73 378.00 471.84 0.00 599.70 336.66 283.01 260.98 586.24 406.46 268.37 332.47 166.58 492.25 483.27 363.16 384.83 639.75 559.51 409.49 571.70 393.52 705.36 451.43 385.14 451.44 682.84 329.53 439.93 223.52 189.61 494.01 274.75 697.67 672.59 393.03 559.59 433.36 655.10 545.08 170.16 547.13 466.38 238.92 588.18 497.97 570.85 571.32 595.57 596.20 683.96 415.84 606.97 327.09 373.20 525.84 546.58 378.53 255.65 387.41 180.50 701.24 474.69 373.79 381.54 193.44 540.20 370.95 905.38 97.39 333.64 298.86 351.43 255.77 447.00 325.98 427.66 545.89 458.53 471.70 138.69 417.41 551.81 328.11 342.94 708.51 348.72 582.02 168.45 242.12 770.05 385.01 561.27 505.43 395.63 242.52 289.59 368.68 565.97 614.72 674.83 192.45 515.02 376.82 154.74 395.93 309.84 539.11 437.36 232.65 622.27 472.86 594.21 126.60 392.34 748.06 370.23 318.77 386.99 352.73 559.04 257.34 397.00 439.39 286.65 432.79 559.42 316.83 467.56 457.48 552.71 600.89 200.75 617.77 210.91 643.59 630.56 485.69 367.10
1105.66 331.40 1143.32 839.89 395.58 739.72 643.23 690.75 1078.48 440.89 693.42 860.45 647.73 672.68 1194.39 395.58 1203.25 361.93 826.20 300.75 1159.96 407.56 688.09 384.28 612.25 365.41 375.97 718.61 763.84 892.35 801.26 772.58 616.28 332.96 393.92 1071.86 912.24 255.10 546.91 548.66 733.57 634.72 1032.67 760.27 250.17 895.14 993.37 1044.85 853.99 163.31 599.70 0.00 699.78 726.41 659.13 1028.51 792.42 798.72 447.87 637.05 934.45 922.46 330.39 761.55 1120.42 839.73 269.47 1015.05 782.07 1156.95 845.18 314.30 807.89 1130.30 374.46 834.55 564.22 596.34 831.56 732.94 1156.45 1166.93 898.72 818.21 339.34 1132.76 224.58 691.96 999.01 932.37 532.73 1053.91 864.37 940.15 1023.06 1084.29 1083.91 549.18 340.52 1067.93 727.25 891.91 763.41 1012.31 819.68 679.04 391.03 669.10 1166.97 148.53 807.84 758.72 671.77 99.13 228.75 1360.12 641.18 670.49 572.09 441.55 760.21 248.00 768.25 329.84 1034.61 817.60 362.29 535.81 878.30 1039.52 777.11 791.94 1191.24 788.97 1076.36 624.96 731.88 617.58 347.05 459.97 103.62 758.75 486.30 605.47 355.96 1043.63 1106.09 1155.50 669.67 946.96 839.83 583.83 658.40 603.95 1019.78 321.17 704.30 991.57 583.95 1071.30 533.33 771.84 1188.98 367.95 459.92 384.56 646.84 1033.59 603.06 452.22 318.51 757.12 870.62 107.33 382.61 919.30 786.53 274.90 1033.87 664.87 1095.07 424.24 1132.31 1124.90 396.00 267.61
1035.18 650.96 590.14 626.44 511.32 77.92 122.29 34.16 611.47 356.18 56.02 557.59 559.49 449.12 610.72 397.85 671.88 578.62 305.47 562.29 729.95 389.47 35.55 455.82 346.75 425.77 410.93 107.07 169.10 318.14 817.33 442.59 279.82 464.07 466.26 460.32 212.46 764.32 461.84 301.53 416.62 65.06 380.13 407.77 500.17 283.94 354.43 419.50 374.82 644.62 336.66 699.78 0.00 453.41 146.40 402.45 155.04 316.85 409.47 383.09 486.14 282.86 440.41 150.08 475.23 282.02 499.69 432.05 130.33 504.41 697.26 458.12 193.13 544.36 464.51 187.86 295.78 435.44 214.79 217.74 518.02 524.12 523.08 280.37 478.59 559.31 613.33 342.98 346.37 369.41 274.66 423.66 234.78 307.66 488.80 468.61 444.86 693.49 480.78 416.68 526.12 516.96 266.33 382.06 184.60 572.23 395.87 288.10 536.72 636.41 162.52 575.23 319.27 701.23 526.40 714.80 311.57 54.42 630.21 557.29 354.06 573.99 195.88 490.07 450.94 179.31 533.43 475.26 566.34 400.47 203.44 188.61 560.99 128.02 523.18 243.96 315.49 627.91 458.44 506.64 698.46 58.97 238.61 546.08 460.21 402.75 540.90 510.31 320.69 251.03 240.95 285.09 138.21 156.23 374.59 502.30 342.30 313.26 329.74 429.69 437.15 109.04 605.59 455.07 395.77 485.09 113.34 337.54 514.82 302.93 487.90 413.48 296.41 663.47 414.93 455.64 197.97 635.29 575.38 354.35 462.23 395.79 459.04 551.49 480.25 457.30
624.18 787.65 594.01 273.08 337.69 441.98 478.74 482.33 461.58 560.60 417.58 208.43 195.98 60.59 712.70 515.67 701.26 675.74 395.83 652.79 607.09 559.07 472.73 593.93 225.55 494.64 603.77 467.20 405.17 432.76 462.29 220.87 262.33 549.75 657.67 691.79 536.40 805.85 262.92 549.68 103.28 419.36 575.46 138.90 573.46 573.71 565.54 601.82 284.57 617.87 283.01 726.41 453.41 0.00 365.55 576.24 513.78 266.65 498.78 178.68 376.10 482.08 542.38 447.49 687.22 669.16 554.16 464.71 564.14 661.75 324.61 496.55 574.15 583.41 557.35 497.03 336.80 170.15 628.33 316.87 609.75 629.87 293.80 693.91 605.02 593.10 729.70 199.94 529.06 396.74 403.66 620.31 570.20 566.87 463.86 624.86 571.64 804.62 595.06 551.22 171.41 242.83 673.60 612.26 440.15 227.29 589.16 228.83 703.03 615.29 436.91 137.67 134.14 701.14 603.24 821.31 218.41 489.51 292.62 383.66 198.37 513.48 389.70 560.29 575.18 627.48 646.58 278.36 151.89 598.18 382.09 383.33 709.19 471.41 569.05 272.97 227.99 954.67 569.63 718.86 702.26 502.19 476.13 212.09 553.30 556.24 546.89 686.11 191.26 574.97 425.15 275.76 570.72 481.69 619.08 588.72 131.30 618.29 631.61 637.70 193.08 499.76 665.78 593.69 512.48 481.61 514.88 547.89 177.23 568.15 624.01 60.12 443.26 703.52 564.86 424.28 605.24 787.49 485.69 160.86 624.30 394.14 666.79 571.11 670.31 556.54
915.34 667.86 575.95 496.05 390.83 172.67 206.71 171.03 533.49 341.97 165.49 427.81 413.09 315.47 618.42 334.09 668.59 550.55 275.92 546.05 632.56 386.83 180.75 468.74 200.35 420.33 461.90 130.57 152.31 266.34 670.93 354.73 133.42 326.17 514.16 483.82 296.65 724.68 344.30 360.31 303.01 127.38 400.87 319.55 478.15 368.13 398.39 399.97 303.67 576.95 260.98 659.13 146.40 365.55 0.00 402.73 222.20 245.70 418.11 236.69 465.39 263.33 422.59 179.56 546.03 372.57 460.20 418.86 256.22 582.86 550.86 444.57 307.22 504.52 388.96 250.71 304.43 289.04 351.66 146.59 512.35 566.52 403.34 411.39 492.79 547.47 604.51 196.58 389.26 342.59 228.06 479.52 322.37 422.71 481.33 490.18 456.90 743.39 475.27 437.42 421.23 401.02 381.62 437.92 179.75 425.83 446.84 141.70 567.64 534.12 177.95 428.83 231.41 645.11 430.38 730.23 165.17 191.29 483.81 436.80 264.83 515.28 142.47 469.22 472.76 316.18 531.13 328.86 478.12 412.51 117.98 132.81 594.30 143.45 518.05 97.56 245.32 687.73 444.44 594.53 621.09 184.86 286.51 403.28 428.11 445.15 510.07 555.81 174.29 333.64 185.15 138.69 283.41 170.13 445.39 496.79 253.68 439.15 397.37 496.91 301.13 195.23 643.41 429.66 404.41 446.42 213.02 379.94 368.42 321.86 498.82 310.41 274.43 618.85 376.26 474.16 313.26 663.19 523.58 233.15 513.96 355.58 543.23 542.06 527.03 426.53
1081.83 917.82 336.55 729.08 784.15 370.53 504.91 413.39 484.45 693.35 400.12 625.43 626.07 545.87 244.03 642.22 440.24 872.60 305.21 861.32 531.10 667.56 403.27 749.80 538.12 728.46 704.91 349.07 355.71 226.07 909.03 500.67 458.68 715.44 763.46 153.99 224.76 1113.95 640.29 653.88 481.68 432.96 58.69 517.34 787.63 175.29 100.85 25.58 349.58 913.26 586.24 1028.51 402.45 576.24 402.73 0.00 319.87 422.85 666.32 474.00 328.06 162.22 756.18 332.07 157.54 307.69 768.33 269.56 406.28 223.15 706.08 779.92 380.86 205.09 708.88 257.22 581.63 573.02 431.98 359.76 193.01 318.17 555.84 406.07 772.57 259.25 931.33 441.57 113.20 250.87 624.65 118.71 423.49 282.83 275.49 161.93 182.55 1025.75 774.76 56.10 628.76 461.33 460.87 99.09 312.81 657.38 689.85 443.81 223.50 923.39 287.66 633.70 476.40 1014.54 819.65 427.64 502.03 433.65 740.35 777.55 468.02 823.41 260.26 777.35 128.42 467.46 827.41 627.67 641.56 146.92 284.75 285.98 261.87 295.96 289.70 444.41 348.25 995.63 752.42 885.87 1010.36 365.01 597.38 687.26 757.42 211.39 282.98 177.57 419.28 196.21 247.49 444.68 467.55 507.59 106.56 796.28 480.74 231.41 697.46 101.32 542.41 387.42 334.52 744.59 652.62 756.24 464.70 165.08 652.40 659.32 781.88 516.12 247.80 957.03 742.00 355.33 485.60 929.27 403.62 454.28 166.86 681.41 178.49 338.24 747.11 810.72
1074.74 720.83 595.00 666.62 581.03 106.19 240.57 167.37 594.14 420.78 142.68 578.84 581.65 498.92 537.25 465.36 687.64 666.18 280.36 669.28 706.70 456.98 162.65 561.91 361.54 536.23 517.08 91.63 153.66 285.39 812.15 471.53 319.32 529.71 533.77 411.27 175.19 882.60 429.70 428.63 444.89 175.52 261.18 429.02 567.68 215.29 279.07 318.80 333.81 678.07 406.46 792.42 155.04 513.78 222.20 319.87 0.00 330.21 476.98 422.59 456.87 194.83 572.75 66.29 464.93 229.85 567.20 408.80 150.17 438.08 756.64 536.19 138.26 470.01 466.92 99.83 324.19 511.24 245.80 238.25 480.75 560.79 521.33 223.84 580.83 484.88 720.48 375.02 309.10 303.48 388.48 399.07 201.30 200.51 469.60 409.75 422.88 740.95 609.03 296.43 566.30 513.67 278.64 357.47 134.68 558.89 532.14 284.95 442.15 703.92 99.30 616.29 405.06 779.35 599.03 646.29 363.24 187.63 635.03 623.51 374.69 640.41 169.08 599.93 380.17 262.65 615.45 445.14 587.59 380.39 170.70 155.87 517.82 94.72 537.10 278.43 330.84 755.01 554.23 639.85 785.18 96.07 306.12 516.93 544.08 448.58 523.57 446.73 360.61 154.54 208.21 319.56 265.31 262.73 364.29 609.40 423.82 251.93 456.84 411.72 482.51 85.79 582.34 488.62 463.28 552.60 245.68 383.37 536.98 409.42 605.67 453.66 279.08 743.16 548.14 417.71 233.50 741.44 519.09 419.47 409.48 491.71 421.77 568.67 550.12 524.81
828.23 799.80 380.61 419.49 432.50 238.93 328.16 312.37 410.02 502.66 285.23 360.09 352.42 282.19 522.59 489.85 464.19 672.28 131.73 653.72 515.31 502.73 302.25 590.47 186.47 551.14 578.49 278.76 216.73 213.47 626.59 226.19 197.36 535.11 612.74 455.75 328.13 857.33 369.46 551.20 249.69 343.93 377.51 243.69 589.98 399.61 335.35 419.97 147.97 693.39 268.37 798.72 316.85 266.65 245.70 422.85 330.21 0.00 467.60 200.35 309.69 283.33 581.16 271.07 521.70 453.17 609.28 303.33 340.21 550.79 541.12 561.13 358.60 499.76 556.51 230.38 389.66 299.37 425.28 99.11 494.16 404.22 282.19 490.86 589.24 411.42 715.42 167.92 346.49 198.01 376.29 407.94 402.97 444.55 375.90 391.05 389.44 750.37 604.16 406.98 319.17 338.47 511.06 431.69 265.35 383.73 583.01 130.30 547.51 666.77 262.69 360.05 169.74 788.51 637.75 684.71 213.41 332.63 466.70 478.47 223.47 619.26 234.25 604.01 362.81 452.69 656.92 354.02 372.66 345.05 220.67 208.53 558.14 286.78 313.65 174.44 74.60 886.03 533.51 702.95 753.74 299.14 385.09 396.55 549.84 349.16 346.35 550.05 145.63 366.70 245.23 215.57 404.91 368.43 434.56 588.68 193.60 495.97 595.67 425.33 298.86 275.83 479.69 573.27 481.30 551.43 391.33 360.91 361.91 454.76 611.96 206.53 229.58 768.10 553.29 272.14 453.82 784.92 405.33 204.49 434.69 432.46 433.41 362.19 629.09 603.78
1005.22 339.95 848.21 709.26 323.33 429.11 312.34 375.31 741.40 76.14 445.15 642.40 495.45 486.10 910.35 140.24 931.79 235.08 599.33 254.95 912.20 123.05 385.02 140.65 364.37 226.48 110.89 394.54 456.57 610.96 777.08 575.52 368.52 114.91 206.74 747.79 500.00 513.42 344.34 217.28 483.17 386.45 684.13 540.70 227.90 571.48 641.97 691.90 606.24 334.84 332.47 447.87 409.47 498.78 418.11 666.32 476.98 467.60 0.00 376.23 719.72 574.98 160.15 474.74 813.74 539.66 208.60 764.52 466.63 833.20 688.60 150.99 506.32 831.90 158.37 479.98 161.98 486.68 449.96 476.49 805.56 871.82 675.50 457.20 162.04 853.69 296.82 429.73 633.91 665.61 227.44 776.61 528.25 632.19 775.30 790.75 780.59 451.31 193.78 720.68 515.32 665.25 430.11 748.65 470.18 526.76 115.41 402.06 889.82 322.86 455.01 555.35 452.20 376.44 219.12 1007.29 328.28 355.05 471.65 333.32 515.01 306.66 483.35 204.09 760.32 414.48 193.41 359.78 650.67 736.20 463.64 478.47 911.63 464.90 781.25 377.20 484.12 518.65 145.16 313.88 369.22 404.48 170.86 448.89 128.83 778.08 813.95 843.89 452.02 538.57 516.35 336.07 343.07 272.57 741.18 200.33 443.48 658.77 208.49 767.64 459.07 454.55 911.48 105.67 13.70 235.16 315.46 716.93 450.78 120.84 144.36 496.30 620.09 355.54 85.69 671.54 361.75 335.25 778.05 417.12 806.86 278.62 746.58 829.79 217.03 208.15
741.77 696.83 561.03 333.03 376.88 336.30 319.68 380.07 468.06 415.02 353.53 273.63 253.48 118.09 654.53 456.69 566.20 603.02 332.08 622.89 566.46 448.31 369.95 516.88 132.49 441.02 487.12 364.96 302.93 378.20 519.79 199.29 103.27 433.32 509.77 623.41 427.79 756.01 239.37 507.43 106.94 364.07 499.43 164.47 501.41 467.27 505.95 499.58 230.01 596.43 166.58 637.05 383.09 178.68 236.69 474.00 422.59 200.35 376.23 0.00 374.78 369.31 512.87 366.55 625.92 553.41 482.11 482.10 467.87 672.49 382.11 467.04 445.34 598.41 464.55 370.48 214.25 176.59 522.65 242.25 591.43 584.64 307.54 588.23 537.14 538.54 665.98 100.78 495.24 376.78 290.62 559.41 506.15 580.54 469.17 570.30 517.08 827.54 565.55 462.88 232.71 309.33 608.43 517.81 354.24 265.29 491.64 147.89 646.07 591.44 328.51 284.94 75.97 662.88 537.53 766.75 108.75 400.33 301.74 330.91 138.78 463.01 301.69 530.78 520.62 525.22 561.35 223.93 321.55 527.52 303.82 309.53 696.74 352.91 494.07 144.16 125.75 858.99 521.39 596.31 672.01 396.51 297.45 264.80 505.06 476.60 526.77 604.48 78.49 466.36 344.21 135.72 472.61 341.65 525.28 559.21 67.25 577.55 568.89 575.32 154.82 411.61 601.73 481.90 389.93 440.53 365.20 488.30 229.94 445.60 512.30 120.07 388.70 674.01 461.92 403.54 549.95 711.48 520.86 40.89 511.53 335.99 554.02 542.61 526.12 516.14
898.29 943.06 308.12 491.91 676.15 420.15 533.15 486.65 245.89 751.75 430.12 411.91 514.68 428.66 352.91 685.30 407.67 846.17 272.98 840.05 357.64 673.74 485.47 766.28 433.84 666.40 789.15 379.07 317.04 219.90 817.89 237.08 416.10 738.70 832.37 419.46 401.68 1002.49 529.96 706.80 389.39 453.82 269.37 322.87 817.88 470.93 302.66 326.99 161.72 808.65 492.25 934.45 486.14 376.10 465.39 328.06 456.87 309.69 719.72 374.78 0.00 335.61 799.26 399.60 443.04 592.99 806.59 174.59 518.88 496.00 676.34 779.87 556.38 456.12 737.22 395.70 557.74 464.13 605.89 318.80 435.50 317.95 231.25 671.47 821.97 342.42 934.75 333.72 323.88 234.53 585.98 370.86 586.94 512.46 151.94 332.39 306.93 1060.06 753.49 305.92 510.47 133.27 657.08 362.44 363.31 545.99 774.09 403.05 462.96 851.48 402.24 489.24 298.81 909.18 806.07 574.60 435.17 494.37 599.55 657.16 267.62 721.52 356.98 803.51 325.73 570.41 791.44 545.40 406.83 262.54 352.57 337.74 449.94 432.23 257.13 419.43 297.60 1063.34 810.03 915.88 938.45 447.52 660.24 519.02 806.91 256.29 234.97 432.07 349.09 440.25 285.40 383.65 583.26 576.43 362.56 775.01 338.02 536.60 779.66 388.25 401.12 459.80 368.31 776.06 733.42 731.32 548.57 224.13 484.16 674.45 840.49 397.83 241.63 986.84 754.83 48.18 623.14 952.05 165.06 333.89 369.24 547.72 382.34 259.19 830.39 764.20
1063.09 755.60 425.32 576.85 654.16 292.78 393.30 297.82 418.28 579.32 318.08 463.21 567.39 432.00 355.09 597.42 506.56 753.10 151.60 756.42 551.40 612.61 307.94 661.27 438.27 676.22 672.71 267.03 263.15 115.71 833.70 435.28 374.69 589.50 601.24 265.05 89.30 988.01 571.93 491.66 419.54 315.51 180.44 430.61 723.31 143.08 167.86 136.64 261.91 820.97 483.27 922.46 282.86 482.08 263.33 162.22 194.83 283.33 574.98 369.31 335.61 0.00 664.54 188.68 282.70 280.61 722.83 247.65 287.21 348.31 696.02 689.97 333.09 300.70 642.32 95.00 455.44 514.33 387.66 227.50 297.58 405.60 437.57 418.67 669.56 356.73 809.62 313.11 125.93 178.62 491.39 216.19 374.98 226.61 300.74 274.13 249.94 903.00 698.17 203.31 522.77 413.69 389.85 174.59 165.96 574.08 678.73 377.50 329.25 797.45 192.25 583.89 347.94 908.44 693.71 533.39 414.56 277.56 638.99 672.95 381.36 771.66 218.51 708.81 239.48 397.55 711.43 566.78 549.33 205.55 227.73 222.78 353.52 224.79 360.14 335.48 329.26 896.95 649.55 729.78 874.18 280.34 461.75 573.90 633.22 279.58 347.71 292.48 290.82 127.87 195.29 371.72 410.60 390.94 182.06 704.72 370.21 278.03 573.59 233.58 481.22 247.84 444.27 664.02 588.68 708.23 348.05 234.04 593.71 542.67 662.38 441.39 103.22 873.56 638.07 307.06 400.82 812.10 372.95 349.68 257.35 593.50 301.49 395.70 584.89 680.44
1025.99 245.27 961.77 737.55 278.55 500.94 419.11 406.25 848.17 182.91 473.31 623.91 530.70 555.65 958.28 113.96 1028.50 146.59 620.32 123.46 964.37 166.70 416.15 71.95 445.06 200.20 90.62 483.77 482.22 688.93 813.04 672.23 409.60 96.42 115.29 837.02 649.01 410.16 429.88 282.20 600.85 422.59 760.73 645.10 122.74 720.49 724.90 739.83 665.92 230.92 363.16 330.39 440.41 542.38 422.59 756.18 572.75 581.16 160.15 512.87 799.26 664.54 0.00 506.46 877.62 625.16 103.44 841.45 484.56 885.01 721.22 45.83 577.72 919.34 159.21 598.01 322.13 509.73 582.71 537.35 907.26 964.53 754.19 539.58 70.20 926.88 207.72 511.18 781.68 765.18 302.27 850.38 589.01 661.89 881.28 848.95 827.89 411.46 52.68 747.74 596.96 736.36 484.78 808.78 565.06 562.01 75.56 473.51 947.11 273.75 522.10 647.85 556.60 314.20 158.53 1074.38 453.52 397.56 568.55 324.52 592.74 202.46 565.06 90.21 827.93 547.23 108.54 417.29 667.48 825.79 540.57 555.40 964.75 495.81 894.81 429.37 546.60 432.69 47.65 223.91 279.43 499.38 273.20 516.63 31.32 837.75 906.23 895.67 533.47 687.58 607.74 442.05 442.07 369.96 815.00 74.20 572.63 713.31 259.31 857.50 489.76 522.46 1021.54 86.78 146.45 216.67 327.07 777.95 486.03 223.58 95.04 602.50 697.02 223.06 102.57 777.52 494.50 259.23 855.38 530.99 882.89 307.51 889.92 943.35 131.64 105.82
1009.07 719.48 559.26 600.33 548.96 104.10 204.62 115.92 565.58 426.74 129.66 538.34 523.04 459.17 533.80 469.34 651.90 650.21 214.07 629.92 660.88 464.52 126.04 542.81 302.93 487.54 525.11 80.20 142.23 249.65 753.54 430.43 285.72 505.73 532.42 433.45 187.09 846.65 491.60 382.65 423.22 126.83 316.88 395.08 575.71 230.17 291.05 325.32 323.66 632.29 384.83 761.55 150.08 447.49 179.56 332.07 66.29 271.07 474.74 366.55 399.60 188.68 506.46 0.00 471.38 221.67 575.23 402.65 124.58 504.37 697.38 541.18 204.55 489.38 455.49 93.68 312.76 468.60 245.64 171.96 486.26 503.66 455.04 290.13 569.03 504.88 695.66 350.10 314.61 297.33 350.20 404.87 187.34 266.80 455.18 423.70 424.40 715.36 559.14 353.43 500.01 455.06 257.48 363.27 113.57 502.79 522.80 218.66 508.44 675.12 70.61 562.98 365.31 733.57 597.48 622.89 301.77 129.96 593.76 590.82 346.00 628.98 133.39 580.56 374.02 237.06 604.02 476.16 528.10 380.01 130.95 116.12 542.20 36.11 501.36 244.86 319.41 718.40 542.80 582.18 762.09 98.40 314.15 513.23 532.65 382.29 504.08 468.16 351.03 220.83 168.46 285.99 228.70 222.28 370.74 580.66 357.53 318.22 420.23 422.26 423.90 60.20 585.13 477.19 471.31 552.46 179.39 317.08 478.37 374.01 574.39 387.37 259.59 729.52 490.47 351.42 238.19 725.25 484.75 364.56 445.90 477.55 433.67 531.03 548.77 532.84
1169.45 967.74 402.60 844.40 876.06 461.30 582.42 509.39 540.20 818.62 470.25 745.91 783.61 680.63 255.28 799.76 437.22 984.81 389.97 973.53 562.81 809.04 510.78 862.01 630.03 863.80 817.12 419.20 481.23 376.02 1009.77 583.76 569.04 849.56 883.94 65.95 331.58 1170.86 768.55 754.16 616.44 503.09 205.05 631.53 907.88 308.54 199.85 181.62 443.40 994.91 639.75 1120.42 475.23 687.22 546.03 157.54 464.93 521.70 813.74 625.92 443.04 282.70 877.62 471.38 0.00 391.16 888.58 345.04 447.94 65.61 850.19 878.92 414.51 103.81 794.49 377.70 651.76 730.56 515.45 510.20 77.47 308.68 579.72 563.61 884.78 249.18 1041.31 595.81 237.76 365.43 632.76 149.71 534.74 338.02 360.87 180.58 182.52 1137.96 886.97 168.50 718.97 532.43 587.80 108.11 448.66 810.93 802.06 599.85 168.15 1037.74 445.20 781.94 630.64 1096.19 948.65 372.29 593.94 529.65 897.89 922.03 567.02 897.81 417.80 921.04 176.99 550.93 936.28 778.44 672.07 208.01 442.29 443.52 129.42 453.50 335.64 577.72 505.79 1038.36 864.63 981.87 1112.55 519.30 713.84 818.42 864.91 248.39 344.43 35.08 573.52 323.17 403.53 536.59 613.44 617.84 100.64 908.49 638.28 370.95 804.97 144.50 678.24 499.82 306.97 809.45 810.16 902.60 588.57 239.07 783.56 769.57 894.09 659.60 363.36 1085.89 872.64 418.97 561.55 1024.24 479.62 611.82 157.37 812.53 142.07 356.35 867.59 897.88
1225.71 712.43 644.24 802.06 696.07 287.62 363.05 247.86 672.00 529.36 300.06 688.42 732.15 649.33 551.72 571.03 737.65 626.38 432.21 687.56 750.69 562.65 257.98 618.10 512.04 648.62 609.34 290.55 347.41 373.09 963.91 607.51 450.14 637.25 558.07 401.06 191.31 985.94 655.99 363.00 626.32 287.91 366.38 538.60 673.35 231.85 333.28 333.27 521.28 817.80 559.51 839.73 282.02 669.16 372.57 307.69 229.85 453.17 539.66 553.41 592.99 280.61 625.16 221.67 391.16 0.00 672.87 481.58 225.67 456.77 892.98 647.77 108.07 482.97 637.69 289.06 509.48 661.61 124.29 367.56 456.63 588.05 573.47 189.87 624.28 545.00 803.70 537.65 325.22 444.37 447.84 426.40 143.58 224.14 540.42 438.76 474.63 832.50 638.60 363.79 676.23 558.08 227.27 406.78 333.41 724.46 607.89 440.33 531.19 809.59 292.28 739.20 542.96 878.86 682.57 735.33 494.06 227.60 794.56 742.04 510.67 752.22 345.60 688.62 436.11 159.77 648.49 640.55 697.17 430.24 321.11 328.63 494.99 257.78 587.11 409.25 524.59 791.80 657.42 636.80 860.81 227.41 411.79 722.34 641.09 466.68 561.63 426.24 545.35 229.88 355.41 450.38 338.45 307.37 414.25 648.79 553.13 202.17 444.93 409.01 617.85 177.34 602.79 617.93 525.96 658.27 298.09 401.47 687.48 459.10 599.44 609.04 383.83 732.40 588.11 573.09 177.91 739.02 630.33 578.04 474.55 597.38 437.89 615.42 541.72 630.48
965.98 302.49 918.10 748.55 297.00 543.74 409.36 465.53 908.52 243.26 532.29 670.24 483.65 573.30 999.49 126.11 1001.68 205.60 675.92 152.87 969.84 178.85 475.24 122.20 491.39 140.19 149.60 518.00 494.37 715.88 782.88 675.98 421.38 142.75 188.29 871.25 708.60 378.32 370.97 342.38 587.44 488.69 778.84 641.16 19.30 664.27 736.68 793.91 677.70 144.93 409.49 269.47 499.69 554.16 460.20 768.33 567.20 609.28 208.60 482.11 806.59 722.83 103.44 575.23 888.58 672.87 0.00 868.40 556.85 944.10 672.20 57.61 596.54 944.69 192.77 644.34 354.49 487.31 562.09 542.82 945.10 941.71 763.19 612.58 136.19 948.91 183.87 522.96 800.38 768.53 307.51 860.65 639.15 734.18 862.17 861.10 870.81 470.44 110.39 815.39 601.44 758.48 557.78 819.05 599.25 514.96 134.54 478.98 973.71 187.76 615.22 618.49 552.66 246.21 67.07 1156.94 464.94 445.27 571.65 262.84 604.52 156.83 586.15 60.37 839.71 597.57 150.87 355.53 706.05 826.42 567.52 582.35 997.98 588.25 851.14 434.84 558.75 500.20 116.18 306.95 257.16 534.07 261.08 506.43 114.36 859.06 883.84 923.66 545.25 721.74 611.09 450.37 412.23 395.18 811.58 130.77 549.36 772.30 329.23 866.68 448.01 581.74 1017.18 121.01 212.98 180.79 430.51 795.44 477.25 259.37 161.03 574.71 723.97 264.58 125.92 758.41 561.03 289.07 867.53 517.58 899.22 258.87 912.83 899.68 198.58 42.39
978.24 981.87 267.90 589.27 735.83 396.81 514.06 451.41 263.37 750.26 376.03 475.63 544.68 481.66 359.12 742.29 320.63 884.98 237.12 880.00 398.19 730.73 459.18 829.15 489.80 771.73 788.84 402.93 374.03 166.16 856.46 315.63 453.74 745.03 802.91 318.69 290.27 1107.82 589.52 702.31 421.27 434.73 210.87 325.81 854.55 361.75 243.14 268.49 268.72 913.98 571.70 1015.05 432.05 464.71 418.86 269.56 408.80 303.33 764.52 482.10 174.59 247.65 841.45 402.65 345.04 481.58 868.40 0.00 441.99 379.83 745.68 817.51 513.92 325.11 751.45 308.97 615.14 580.70 583.16 368.82 298.77 226.98 405.84 632.64 848.07 246.04 987.72 435.20 156.36 105.32 596.53 241.42 517.41 458.72 160.82 245.79 162.52 1053.70 816.94 247.42 550.34 307.86 620.70 251.87 340.67 513.37 773.78 433.63 372.82 952.98 364.19 567.79 414.31 994.47 849.24 507.87 497.66 471.67 633.07 723.86 412.47 873.15 325.37 866.96 228.73 547.77 830.25 574.08 484.38 165.54 300.88 299.69 373.83 398.69 200.94 446.66 377.93 966.14 827.65 923.89 959.70 457.02 648.68 613.02 811.32 118.52 168.24 380.12 448.96 327.97 262.76 453.86 529.17 553.35 244.40 838.46 453.11 416.95 753.37 258.81 552.75 428.53 301.58 755.86 750.82 749.70 530.25 183.73 589.35 705.08 839.29 464.43 144.43 1024.48 795.12 153.51 552.34 990.86 182.54 449.39 238.28 653.05 298.56 235.49 819.26 845.39
1126.88 710.48 621.27 718.14 580.05 131.57 252.62 131.84 586.98 399.70 147.72 629.42 627.34 530.56 609.16 455.01 719.99 631.15 317.86 608.02 685.29 446.63 141.96 551.62 407.23 541.25 506.73 173.67 234.68 329.25 850.95 494.55 372.72 484.15 523.42 479.41 197.91 866.15 547.65 364.27 470.27 181.73 382.04 500.79 557.33 241.00 339.88 390.71 427.96 701.78 393.52 782.07 130.33 564.14 256.22 406.28 150.17 340.21 466.63 467.87 518.88 287.21 484.56 124.58 447.94 225.67 556.85 441.99 0.00 513.55 794.58 530.39 148.46 523.36 521.67 217.22 393.46 545.26 174.96 271.39 497.02 570.39 493.92 216.94 554.76 551.60 692.28 398.19 331.82 387.59 328.05 443.55 104.45 177.33 535.07 479.15 470.76 719.54 537.24 350.18 617.82 559.36 181.97 411.22 201.53 627.37 513.68 343.24 549.55 692.10 174.91 648.27 430.00 757.82 588.36 727.19 375.17 111.58 692.38 626.02 397.71 636.20 253.30 546.66 462.42 139.48 593.10 532.21 652.68 426.37 250.70 239.41 577.36 140.41 569.45 349.16 411.86 734.32 532.21 563.80 755.62 71.36 295.77 617.53 515.88 449.02 568.23 483.02 389.38 236.48 279.44 386.29 194.80 224.96 418.04 558.76 434.00 228.75 436.15 460.94 520.12 64.38 609.39 544.90 452.93 542.25 182.07 383.81 582.67 376.69 579.60 505.18 350.98 707.62 472.09 476.00 113.61 727.93 586.49 448.24 485.33 481.36 444.49 597.76 539.77 514.46
1221.34 1019.11 406.19 877.47 932.35 526.91 582.09 478.98 494.84 800.59 535.86 763.83 817.20 722.34 189.67 842.26 470.70 1028.76 443.49 1008.47 577.35 833.88 468.86 905.87 686.32 882.94 882.73 484.81 535.84 392.03 1062.05 601.12 606.31 906.54 891.68 131.56 360.08 1224.12 834.16 734.84 682.05 522.23 270.66 635.12 944.58 365.69 265.46 242.29 478.59 1060.52 705.36 1156.95 504.41 661.75 582.86 223.15 438.08 550.79 833.20 672.49 496.00 348.31 885.01 504.37 65.61 456.77 944.10 379.83 513.55 0.00 915.80 928.06 429.62 78.34 860.10 443.31 717.37 796.17 581.06 575.53 81.06 312.27 645.33 576.99 942.77 252.98 1073.13 616.29 252.71 387.38 698.37 142.85 589.54 403.63 364.62 184.17 234.80 1179.03 937.69 234.11 784.58 583.80 522.19 173.72 475.40 785.89 867.67 650.44 173.63 1080.82 510.81 799.42 651.12 1134.54 971.22 377.77 650.23 499.24 905.59 976.13 591.10 963.42 440.39 923.38 187.98 580.57 993.55 838.81 675.66 251.17 464.88 466.11 79.74 513.28 339.23 620.78 571.40 1012.89 930.24 951.46 1143.28 515.04 683.02 842.50 916.33 265.75 325.39 86.45 594.00 321.51 464.20 602.20 571.52 600.83 166.25 959.21 673.39 417.02 763.05 125.46 743.85 523.87 284.52 875.06 840.18 929.50 557.94 275.70 807.64 747.75 951.86 721.87 370.30 1108.07 859.75 468.38 590.55 1075.61 414.01 652.86 160.96 827.48 159.96 387.77 908.03 901.71
533.03 896.36 823.19 273.77 482.05 663.01 639.69 721.89 658.77 612.46 692.05 330.07 307.68 264.02 898.95 672.99 948.31 806.84 597.63 816.09 773.71 644.12 720.97 649.27 428.98 597.87 694.16 681.43 643.04 663.23 202.95 439.26 454.29 659.92 715.36 808.91 751.19 933.96 400.93 753.11 328.21 678.24 713.90 419.87 689.03 747.80 756.06 680.50 553.41 740.12 451.43 845.18 697.26 324.61 550.86 706.08 756.64 541.12 688.60 382.11 676.34 696.02 721.22 697.38 850.19 892.98 672.20 745.68 794.58 915.80 0.00 689.80 784.91 860.01 668.69 724.97 580.47 261.82 849.36 525.42 847.93 816.92 568.27 843.90 704.96 861.94 853.60 427.49 768.41 677.20 635.61 783.68 844.67 891.48 705.77 791.99 831.43 975.08 735.10 747.17 221.95 558.59 789.10 742.08 654.01 296.52 709.22 503.30 896.74 762.64 668.03 187.10 393.87 832.89 704.03 1087.67 421.84 739.69 348.14 528.02 449.98 645.23 616.73 732.57 783.34 845.29 778.85 390.61 300.50 810.95 592.24 607.07 921.01 694.31 810.96 495.18 471.61 1027.27 706.23 843.96 849.61 723.22 589.10 239.71 689.90 774.63 788.80 836.34 405.20 789.76 659.41 479.19 706.18 685.12 749.55 751.05 405.77 890.11 835.04 801.07 324.83 746.09 891.93 722.56 674.90 603.28 676.24 799.50 274.57 701.69 729.80 334.59 641.50 856.78 702.98 724.52 857.46 918.52 634.30 364.29 824.84 479.19 868.98 813.02 725.65 629.81
983.58 291.10 935.01 759.53 321.83 503.08 435.61 449.08 882.14 220.13 490.36 645.89 501.25 557.14 941.88 137.88 1019.28 179.19 644.06 156.24 939.66 173.23 459.20 97.38 443.78 157.79 107.67 460.98 506.14 694.81 816.82 626.40 363.77 118.40 161.12 814.23 650.99 364.33 390.32 284.77 573.98 468.42 721.23 619.65 76.91 721.88 679.07 756.88 620.09 190.56 385.14 314.30 458.12 496.55 444.57 779.92 536.19 561.13 150.99 467.04 779.87 689.97 45.83 541.18 878.92 647.77 57.61 817.51 530.39 928.06 689.80 0.00 614.14 911.84 181.19 619.99 312.97 509.39 593.95 510.96 903.92 959.31 716.69 585.41 108.47 928.62 233.15 465.35 765.85 744.76 311.21 827.23 611.59 707.72 835.45 827.85 824.78 428.51 98.51 757.78 619.04 700.87 530.61 785.75 562.05 532.56 92.61 430.83 940.41 233.39 565.84 634.22 531.15 291.84 124.68 1118.12 407.69 428.82 522.72 279.70 546.91 156.63 549.79 63.74 782.10 558.47 154.24 374.88 648.44 780.39 562.55 573.73 964.68 531.34 868.74 404.66 536.28 458.12 73.08 249.34 314.77 517.09 278.68 525.78 56.75 827.20 901.44 912.72 487.64 689.56 621.37 396.22 415.60 393.13 778.28 92.17 526.80 744.88 271.62 833.38 465.61 565.29 1000.44 97.14 157.69 222.71 372.90 795.66 494.85 241.40 127.46 556.67 673.08 206.97 68.31 731.69 505.74 291.83 865.02 507.93 853.98 276.47 855.22 917.28 173.76 59.99
1135.73 750.17 552.71 726.99 648.63 194.37 254.98 209.48 567.32 453.03 238.54 655.78 624.08 541.26 540.15 494.70 636.29 695.52 351.27 694.98 727.15 486.32 219.60 591.31 403.97 540.55 546.42 229.89 239.34 354.09 920.64 557.70 342.07 560.92 563.11 435.44 299.38 897.01 547.92 456.64 528.54 179.84 384.40 526.79 597.02 230.22 342.24 379.93 416.57 741.47 451.44 807.89 193.13 574.15 307.22 380.86 138.26 358.60 506.32 445.34 556.38 333.09 577.72 204.55 414.51 108.07 596.54 513.92 148.46 429.62 784.91 614.14 0.00 374.90 561.36 238.09 431.87 572.79 232.36 259.49 348.56 552.82 533.84 297.94 614.08 450.12 746.02 429.58 429.02 429.86 407.84 362.94 181.45 193.19 511.14 330.69 395.75 839.39 630.40 381.73 626.67 558.71 310.05 321.34 250.14 629.45 561.48 345.32 441.84 733.26 237.56 689.64 469.75 825.57 628.37 645.98 385.99 203.95 694.80 673.95 506.20 675.89 237.53 629.83 380.37 267.84 673.80 532.48 685.36 379.44 213.04 220.56 470.75 203.21 485.75 301.18 416.52 807.81 619.43 656.17 814.52 134.16 335.46 614.27 607.75 453.47 518.45 449.59 437.28 271.12 272.90 342.31 322.26 293.54 313.87 651.92 445.06 235.67 513.79 368.97 509.78 184.23 503.28 584.59 492.62 581.94 250.65 426.44 579.41 445.27 624.75 514.03 369.49 700.56 564.46 555.97 256.45 770.78 611.33 486.23 401.51 521.05 412.30 534.29 579.46 554.15
1166.62 1035.36 351.47 802.48 881.32 490.68 614.08 557.32 447.40 827.93 501.91 709.11 779.39 644.00 176.80 818.58 392.36 1025.75 388.77 1015.25 515.59 769.35 547.20 903.73 635.29 879.23 858.84 450.86 457.50 317.76 989.89 572.49 555.28 830.69 901.94 108.38 331.90 1227.53 775.91 790.39 621.52 534.75 210.13 580.40 932.32 287.35 252.29 179.51 427.56 1033.69 682.84 1130.30 544.36 583.41 504.52 205.09 470.01 499.76 831.90 598.41 456.12 300.70 919.34 489.38 103.81 482.97 944.69 325.11 523.36 78.34 860.01 911.84 374.90 0.00 826.15 395.70 683.42 743.43 561.33 497.19 26.34 238.19 608.77 561.57 926.50 198.26 1068.51 542.21 197.99 336.35 715.37 147.73 556.35 410.46 309.90 129.45 162.64 1160.06 928.69 173.58 715.58 527.80 600.53 169.64 414.60 803.18 843.78 590.34 119.62 1038.64 440.44 721.08 577.04 1134.97 934.90 323.76 599.20 574.49 868.09 902.05 584.86 959.34 362.05 924.49 136.95 525.85 974.68 760.47 620.94 200.14 386.54 387.77 125.78 474.94 284.51 546.20 553.34 934.55 906.35 1022.14 1111.35 509.06 710.36 795.50 903.31 237.12 305.71 102.70 519.92 348.10 401.42 546.47 621.48 647.22 174.52 950.21 599.31 389.12 824.98 138.53 696.34 504.90 206.18 847.85 836.48 899.91 625.55 263.07 760.64 798.95 935.81 643.53 296.03 1075.46 874.27 413.66 578.58 1083.20 441.84 578.78 86.88 772.76 94.85 314.67 885.59 929.05
896.61 400.59 848.73 680.93 219.66 417.39 382.83 430.35 788.71 183.81 426.34 590.28 414.28 496.76 942.22 66.66 932.31 276.96 623.15 218.07 917.07 119.40 440.06 187.01 403.38 70.82 198.52 375.29 434.92 606.26 729.85 582.06 422.96 62.79 253.10 728.54 598.85 418.85 303.35 324.91 493.52 431.53 726.42 547.24 212.07 670.33 700.59 734.46 612.78 211.15 329.53 374.46 464.51 557.35 388.96 708.88 466.92 556.51 158.37 464.55 737.22 642.32 159.21 455.49 794.49 637.69 192.77 751.45 521.67 860.10 668.69 181.19 561.36 826.15 0.00 547.32 259.84 422.42 554.44 490.05 818.23 872.34 693.82 564.87 175.08 871.27 334.21 493.20 732.76 646.13 258.59 776.32 590.23 667.43 792.80 801.65 801.29 480.01 211.89 762.97 532.07 692.10 534.59 734.72 476.36 445.59 183.46 426.21 889.38 253.98 480.15 549.12 458.74 312.43 167.00 1032.43 416.74 410.09 468.94 232.22 521.55 188.70 464.10 201.79 794.80 518.96 248.97 287.91 633.85 767.74 477.34 488.04 913.65 445.65 781.77 382.07 499.30 565.01 181.06 357.32 340.95 477.60 225.90 438.81 164.73 804.51 814.47 827.66 482.52 621.46 535.68 423.20 420.85 367.06 727.25 229.04 478.67 684.81 339.46 782.35 378.64 471.11 947.81 166.28 144.67 135.74 404.53 739.30 407.88 251.81 199.92 505.34 627.99 302.23 112.88 689.04 466.23 389.60 808.08 423.66 814.89 189.50 845.43 830.31 259.75 159.46
1058.61 746.09 495.17 634.98 624.66 197.78 298.30 209.60 494.31 520.42 223.08 549.37 524.89 460.95 440.12 536.41 587.81 694.59 190.17 701.71 646.40 524.85 219.72 620.63 378.63 581.22 590.87 172.03 168.15 185.56 840.46 409.34 321.93 501.59 591.73 360.05 97.75 900.10 529.53 396.66 434.27 220.51 247.24 415.58 653.57 169.23 239.72 231.64 233.98 725.97 439.93 834.55 187.86 497.03 250.71 257.22 99.83 230.38 479.98 370.48 395.70 95.00 598.01 93.68 377.70 289.06 644.34 308.97 217.22 443.31 724.97 619.99 238.09 395.70 547.32 0.00 379.16 529.75 292.66 202.51 392.58 500.19 466.24 323.67 628.71 411.20 776.80 376.01 220.93 203.65 437.09 311.19 279.98 214.17 394.91 330.02 344.94 808.00 650.69 283.79 549.55 424.48 351.16 269.59 70.96 556.20 583.73 296.34 424.25 709.54 97.25 582.50 376.97 820.53 605.80 613.35 342.54 223.64 644.43 665.16 312.50 693.54 123.51 671.54 280.34 328.14 640.17 521.93 550.81 300.55 132.73 127.78 448.52 129.79 437.27 292.39 304.98 812.08 619.86 670.46 796.51 192.08 405.95 563.90 603.53 374.54 423.74 374.48 353.72 136.32 112.83 307.93 322.38 315.96 277.06 672.21 388.08 265.59 478.59 328.58 489.64 152.84 502.61 569.02 493.68 621.84 273.07 329.04 529.04 467.69 603.87 436.91 179.25 794.27 551.68 383.09 330.83 777.99 442.80 410.39 352.22 550.41 344.33 471.73 575.38 601.95
879.88 501.93 758.59 547.28 350.17 274.66 176.89 261.62 668.74 223.80 283.61 487.88 436.38 332.34 784.65 268.30 780.45 397.06 446.21 416.93 750.22 245.61 266.07 302.63 267.53 235.59 272.87 232.56 294.59 448.98 701.42 413.54 206.54 276.89 368.72 585.81 456.12 614.47 268.68 327.79 321.19 256.22 583.69 378.72 373.79 505.64 557.86 576.28 444.26 466.76 223.52 564.22 295.78 336.80 304.43 581.63 324.19 389.66 161.98 214.25 557.74 455.44 322.13 312.76 651.76 509.48 354.49 615.14 393.46 717.37 580.47 312.97 431.87 683.42 259.84 379.16 0.00 362.28 442.25 323.20 675.50 742.40 521.79 507.83 324.02 728.54 458.80 308.12 581.37 511.81 76.37 644.17 408.01 524.70 613.32 659.40 658.56 613.29 355.76 620.24 413.84 523.58 486.70 602.57 308.20 467.69 277.39 259.36 757.23 484.84 337.42 393.37 290.22 506.98 381.10 889.70 231.44 281.88 440.60 396.14 353.03 316.22 321.37 366.07 624.87 406.77 355.39 253.24 488.69 616.99 334.61 345.31 763.52 302.92 700.69 215.22 322.14 644.74 307.14 382.06 531.20 324.15 181.13 404.14 290.81 639.44 696.35 684.93 292.74 462.09 354.37 174.09 339.43 242.33 610.04 362.31 281.50 542.08 370.47 661.56 350.12 345.77 779.24 267.65 175.68 298.89 272.47 592.36 395.04 231.35 306.34 334.32 470.71 517.52 247.67 509.56 418.34 497.23 616.07 255.14 671.78 221.74 702.70 720.57 379.01 333.39
678.44 713.92 626.42 369.57 286.86 461.71 377.87 460.07 518.36 444.85 430.50 334.30 124.05 124.26 744.95 411.17 733.51 629.68 431.10 596.82 653.18 448.28 469.79 518.59 183.98 351.60 473.70 419.61 401.95 446.30 381.89 289.71 230.72 413.31 554.93 708.25 581.45 679.20 149.95 537.26 188.45 416.42 631.71 254.89 503.08 566.69 616.68 579.84 360.65 486.05 189.61 596.34 435.44 170.15 289.04 573.02 511.24 299.37 486.68 176.59 464.13 514.33 509.73 468.60 730.56 661.61 487.31 580.70 545.26 796.17 261.82 509.39 572.79 743.43 422.42 529.75 362.28 0.00 618.95 329.97 736.45 668.32 414.42 679.54 541.36 669.18 667.65 232.19 607.39 497.38 402.51 687.02 583.30 707.99 568.19 673.88 647.72 808.29 562.41 629.12 203.57 409.04 670.66 648.08 468.79 155.36 488.76 297.78 787.79 528.88 459.15 191.93 166.39 571.07 473.17 885.17 220.07 480.33 194.77 332.83 260.29 383.41 419.56 546.30 649.05 583.47 609.51 134.51 322.04 614.31 407.02 415.58 827.01 432.49 613.02 271.61 224.77 896.59 523.06 688.95 605.84 473.90 327.28 114.24 512.41 625.08 645.72 735.68 223.51 616.55 450.76 235.14 444.36 441.07 640.61 570.64 144.40 728.19 615.70 674.34 63.01 484.27 678.88 509.47 472.98 341.46 414.42 594.28 79.38 443.28 566.20 180.74 468.03 615.08 441.16 512.31 602.30 657.42 437.53 194.55 656.55 343.23 699.04 654.67 571.28 449.40
1189.56 659.53 745.54 781.17 606.47 186.35 273.74 180.63 745.30 446.64 232.65 697.68 720.73 585.34 676.01 544.32 829.12 607.00 433.99 625.78 806.35 535.94 190.75 538.56 506.62 591.69 537.93 228.45 289.46 450.31 972.01 560.42 426.61 561.12 472.47 506.11 315.60 915.77 592.07 453.58 525.05 243.60 490.67 565.84 581.39 356.14 457.57 457.56 483.25 707.02 494.01 831.56 214.79 628.33 351.66 431.98 245.80 425.28 449.96 522.65 605.89 387.66 582.71 245.64 515.45 124.29 562.09 583.16 174.96 581.06 849.36 593.95 232.36 561.33 554.44 292.66 442.25 618.95 0.00 326.17 534.99 703.88 668.88 65.58 572.72 665.52 719.38 466.45 449.51 477.84 409.93 524.98 78.29 204.03 616.67 563.05 598.92 839.75 602.35 488.08 680.85 617.06 102.98 531.07 329.52 727.42 522.87 451.22 567.90 749.85 295.42 703.05 501.28 777.18 629.16 772.04 470.53 200.89 789.89 652.44 518.77 702.30 317.26 566.02 560.40 35.48 596.93 607.51 724.41 554.53 325.72 340.55 619.28 260.92 678.58 430.58 466.64 679.09 567.72 554.02 809.17 205.26 385.08 697.16 551.39 574.49 685.92 550.53 444.16 354.17 320.49 441.07 214.16 302.70 528.50 622.89 511.74 255.45 412.93 533.30 588.60 185.44 727.08 528.23 436.26 631.56 259.81 517.71 682.06 422.32 547.88 568.21 444.18 745.75 525.64 577.02 88.21 704.01 676.53 503.02 590.15 487.43 562.18 716.85 488.82 603.77
878.45 731.53 479.72 469.71 456.80 139.82 229.05 213.26 419.13 465.25 186.12 396.29 430.88 321.00 552.63 423.39 563.30 652.55 133.10 651.02 614.42 403.62 203.14 564.39 210.77 484.68 519.50 179.65 117.62 214.84 676.81 325.30 147.19 472.76 577.17 457.12 280.43 820.77 354.72 452.09 299.91 244.82 379.62 312.87 523.52 351.91 360.61 334.18 157.08 626.93 274.75 732.94 217.74 316.87 146.59 359.76 238.25 99.11 476.49 242.25 318.80 227.50 537.35 171.96 510.20 367.56 542.82 368.82 271.39 575.53 525.42 510.96 259.49 497.19 490.05 202.51 323.20 329.97 326.17 0.00 495.53 487.23 381.30 391.75 550.67 439.66 688.09 202.11 353.43 263.50 367.26 439.14 359.30 416.68 434.37 392.42 390.81 840.34 589.35 400.85 369.39 299.22 411.95 402.09 166.24 434.13 504.44 150.00 544.25 669.76 163.58 432.36 224.78 728.21 571.29 693.82 191.11 233.52 501.60 480.75 270.36 604.58 135.14 558.52 409.61 358.41 622.78 339.28 468.76 346.42 121.56 109.42 559.51 187.67 412.76 107.98 173.71 795.50 548.12 685.74 756.73 200.03 385.98 419.50 547.91 316.24 427.13 490.02 179.82 310.39 161.76 149.11 305.80 296.36 409.56 603.13 185.57 454.32 497.33 453.03 314.90 232.16 560.47 517.81 462.79 501.41 292.22 300.65 386.21 355.65 573.73 256.75 230.95 717.93 508.54 330.61 385.00 743.86 406.70 238.68 429.92 366.00 474.03 461.30 560.82 557.09
1140.28 1045.21 325.13 796.41 874.85 483.70 603.54 552.18 462.73 801.59 493.99 682.77 789.51 654.12 195.52 835.23 408.71 1014.45 362.43 1003.17 499.57 795.69 549.92 891.65 636.88 852.89 846.76 442.94 469.84 327.52 982.91 546.15 570.11 838.52 898.82 89.69 305.56 1201.19 786.46 787.80 641.66 526.83 225.05 554.06 945.58 313.69 251.89 167.43 442.39 1007.35 697.67 1156.45 518.02 609.75 512.35 193.01 480.75 494.16 805.56 591.43 435.50 297.58 907.26 486.26 77.47 456.63 945.10 298.77 497.02 81.06 847.93 903.92 348.56 26.34 818.23 392.58 675.50 736.45 534.99 495.53 0.00 231.21 601.79 535.23 914.42 171.92 1071.79 535.23 171.65 351.18 689.03 121.39 530.01 391.77 283.56 103.11 155.66 1167.60 916.61 199.92 738.11 504.59 589.60 162.66 440.94 796.20 831.70 569.38 93.28 1034.08 449.21 747.42 570.06 1108.63 942.73 297.42 614.03 552.51 861.11 895.07 559.00 952.36 388.39 950.68 151.78 499.51 966.76 771.02 594.60 200.05 412.88 414.11 122.19 458.76 258.17 539.72 541.26 960.89 894.27 1004.73 1085.01 482.72 684.02 796.02 895.39 210.78 279.37 112.55 512.94 337.35 389.34 572.81 609.40 640.24 167.29 938.13 592.33 377.04 844.11 112.19 684.26 531.24 232.52 839.93 819.26 917.81 599.21 262.98 775.54 791.97 923.73 663.51 322.37 1049.12 888.61 387.32 552.24 1071.12 415.50 571.80 79.90 746.42 78.90 306.71 882.47 902.71
1060.92 1124.53 124.39 745.68 836.72 555.11 645.95 558.28 297.82 827.37 580.14 652.81 717.43 682.27 172.56 887.76 185.78 1050.43 377.01 1057.94 331.97 866.91 559.67 979.94 590.69 801.52 935.05 548.42 521.69 334.56 1015.16 506.37 601.58 892.69 990.38 317.63 402.44 1224.08 725.64 825.65 638.26 566.62 299.61 552.79 937.35 388.14 326.05 307.58 418.84 1030.24 672.59 1166.93 524.12 629.87 566.52 318.17 560.79 404.22 871.82 584.64 317.95 405.60 964.53 503.66 308.68 588.05 941.71 226.98 570.39 312.27 816.92 959.31 552.82 238.19 872.34 500.19 742.40 668.32 703.88 487.23 231.21 0.00 393.88 724.24 984.55 125.77 1101.92 572.14 282.62 332.30 702.57 226.62 625.59 544.66 166.01 226.88 227.07 1143.64 985.34 286.46 685.15 387.04 710.95 234.07 465.94 740.35 919.99 534.52 282.61 1070.99 504.87 748.12 563.13 1131.52 953.37 287.76 617.63 578.54 838.85 882.69 530.55 949.74 459.61 1001.33 223.19 673.04 1008.76 741.08 627.42 228.68 448.54 440.37 316.94 534.86 90.57 578.66 478.82 1149.18 937.73 1030.76 1099.59 499.03 762.73 757.85 954.06 206.29 82.98 340.89 549.85 441.01 388.03 605.24 662.33 680.23 238.95 992.90 523.92 508.41 853.86 216.85 701.57 549.10 81.47 925.45 885.52 866.44 637.46 186.58 747.09 827.05 959.71 595.10 327.47 1132.34 912.95 269.77 684.00 1159.41 293.62 582.00 151.31 769.31 211.59 76.48 990.49 899.32
667.04 957.70 351.45 387.11 557.16 486.86 558.99 496.19 312.64 688.57 497.85 318.52 398.92 331.34 561.56 640.23 498.63 833.10 285.97 841.71 470.05 669.25 506.31 774.63 311.13 623.00 729.74 446.80 384.77 367.71 653.74 163.97 352.92 659.77 803.34 609.99 464.75 940.75 457.39 728.62 276.84 521.55 500.62 201.65 766.56 536.23 469.22 558.24 267.73 765.25 393.03 898.72 523.08 293.80 403.34 555.84 521.33 282.19 675.50 307.54 231.25 437.57 754.19 455.04 579.72 573.47 763.19 405.84 493.92 645.33 568.27 716.69 533.84 608.77 693.82 466.24 521.79 414.42 668.88 381.30 601.79 393.88 0.00 705.08 777.23 449.78 903.41 251.34 552.94 349.47 560.99 518.82 598.37 627.47 319.01 499.46 454.89 1032.56 792.15 537.17 346.32 97.98 650.28 510.40 476.61 367.61 714.68 313.04 625.63 750.19 435.29 409.29 286.17 866.53 718.79 669.40 347.22 475.93 487.31 573.87 204.77 739.85 434.21 775.36 473.69 633.40 828.51 472.83 320.31 410.50 414.84 429.08 658.59 469.79 418.41 357.18 207.59 1067.18 721.50 903.85 837.16 532.47 604.99 456.17 737.83 456.74 402.04 595.33 229.05 503.32 399.47 355.64 608.97 549.58 517.87 776.67 304.86 678.89 776.82 536.21 419.45 515.24 475.35 763.26 689.20 685.24 546.42 444.44 421.31 701.31 779.46 233.68 383.82 923.66 709.86 256.83 607.53 945.74 269.85 287.91 521.89 504.32 556.89 400.38 786.99 720.80
1172.51 611.35 742.62 846.75 618.64 251.93 339.32 246.21 787.87 381.06 298.23 763.26 731.50 650.92 650.10 498.21 828.13 590.42 433.44 560.20 871.93 516.37 256.33 490.38 538.25 571.53 528.35 294.03 355.04 509.23 993.21 626.00 492.19 550.37 424.29 560.06 381.18 894.29 560.47 509.98 590.63 289.21 464.76 631.42 631.88 406.48 427.49 431.65 544.70 721.25 559.59 818.21 280.37 693.91 411.39 406.07 223.84 490.86 457.20 588.23 671.47 418.67 539.58 290.13 563.61 189.87 612.58 632.64 216.94 576.99 843.90 585.41 297.94 561.57 564.87 323.67 507.83 679.54 65.58 391.75 535.23 724.24 705.08 0.00 524.54 665.32 676.34 532.03 514.27 527.32 471.97 524.78 143.87 269.61 633.42 568.00 573.20 829.13 554.17 462.17 746.43 682.64 54.80 505.16 358.52 762.81 513.29 508.79 628.51 758.32 323.14 768.63 566.86 799.24 593.20 832.65 534.60 266.47 761.15 638.24 584.35 652.44 382.84 568.35 534.49 101.06 548.75 545.03 789.99 528.81 391.30 379.71 656.73 295.58 695.77 496.16 532.22 613.51 547.34 590.59 797.11 226.53 450.66 695.93 531.01 598.61 689.05 583.64 509.74 378.38 386.07 477.25 236.22 364.03 512.63 575.69 577.32 321.03 428.05 507.39 617.57 251.02 740.59 535.47 443.50 636.45 321.14 538.98 686.83 437.64 499.70 633.79 502.92 710.88 532.88 641.55 103.33 655.83 707.04 568.60 572.93 553.01 584.56 740.67 440.64 596.59
1071.69 225.51 960.94 784.91 348.75 503.29 394.61 463.79 876.04 210.78 480.47 694.11 566.51 620.97 965.44 180.46 1044.52 101.88 683.77 119.00 974.00 206.40 473.91 55.69 486.27 245.90 67.66 489.20 539.77 719.70 796.78 714.01 451.38 166.62 100.25 842.45 662.04 468.19 450.70 261.28 644.08 473.94 757.82 686.41 152.61 722.97 715.66 746.99 707.70 281.12 433.36 339.34 478.59 605.02 492.79 772.57 580.83 589.24 162.04 537.14 821.97 669.56 70.20 569.03 884.78 624.28 136.19 848.07 554.76 942.77 704.96 108.47 614.08 926.50 175.08 628.71 324.02 541.36 572.72 550.67 914.42 984.55 777.23 524.54 0.00 979.34 213.70 552.96 794.25 756.56 315.09 862.10 601.70 672.47 877.55 864.44 861.37 415.56 68.92 794.37 631.93 788.48 469.74 820.50 574.42 597.82 82.72 518.44 975.16 308.83 531.46 694.90 597.91 370.93 193.50 1083.74 490.32 460.13 592.75 363.89 634.52 265.10 578.01 75.82 838.20 538.54 73.89 462.99 737.68 816.98 591.25 595.96 999.43 558.38 893.98 492.27 602.05 433.69 55.73 239.75 349.63 537.56 278.62 540.28 66.29 852.26 926.68 902.83 575.25 667.09 648.30 454.00 427.68 346.75 813.81 53.96 604.39 723.89 294.28 868.91 478.35 572.47 1037.03 92.21 148.34 286.60 389.64 816.13 556.23 195.02 24.84 657.21 703.64 236.02 137.54 773.79 485.81 214.52 907.12 578.03 901.45 364.58 908.62 942.52 84.67 168.46
1116.82 1098.72 164.73 709.53 843.92 538.08 659.20 593.47 356.12 841.07 547.03 677.28 712.89 597.92 236.73 854.42 248.31 940.67 306.56 1001.85 339.17 814.47 594.86 942.99 597.89 808.72 929.77 495.98 486.16 302.52 952.10 497.08 564.85 873.64 955.35 256.46 353.69 1180.62 739.27 807.86 551.94 579.87 279.73 528.72 944.55 391.09 263.68 255.65 308.53 1054.71 655.10 1132.76 559.31 593.10 547.47 259.25 484.88 411.42 853.69 538.54 342.42 356.73 926.88 504.88 249.18 545.00 948.91 246.04 551.60 252.98 861.94 928.62 450.12 198.26 871.27 411.20 728.54 669.18 665.52 439.66 171.92 125.77 449.78 665.32 979.34 0.00 1109.12 518.19 293.74 332.60 732.89 140.54 587.23 494.41 190.48 119.43 124.85 1150.84 953.30 243.18 682.24 411.51 692.16 182.14 459.72 722.05 919.92 541.72 237.19 1017.04 485.56 729.86 532.73 1063.91 960.57 333.33 608.77 613.73 786.96 820.92 465.83 949.59 407.17 969.61 169.11 671.43 966.61 723.83 610.92 162.36 429.49 432.89 286.52 506.89 97.77 547.64 444.41 1102.50 944.93 1065.95 1029.14 512.73 727.70 717.23 947.68 161.71 107.45 269.83 495.90 330.34 414.85 588.77 678.88 667.22 184.72 974.82 555.73 442.99 889.05 157.93 629.19 535.63 144.40 892.22 867.39 873.64 625.67 225.29 682.37 795.31 966.91 584.88 280.79 1135.59 901.64 294.24 659.92 1053.31 324.65 497.65 154.77 793.78 107.11 146.31 941.62 906.52
1141.84 187.23 1078.31 919.04 442.27 625.42 491.04 613.97 1010.82 345.56 629.07 805.83 659.51 719.37 1124.20 306.64 1161.89 177.32 817.51 116.14 1113.65 343.05 604.27 217.03 626.98 316.05 226.42 628.85 674.90 832.04 954.70 841.47 596.92 278.34 283.12 982.10 796.82 442.73 548.58 445.53 752.93 570.37 948.85 806.65 164.57 809.54 912.22 905.75 837.82 316.75 545.08 224.58 613.33 729.70 604.51 931.33 720.48 715.42 296.82 665.98 934.75 809.62 207.72 695.66 1041.31 803.70 183.87 987.72 692.28 1073.13 853.60 233.15 746.02 1068.51 334.21 776.80 458.80 667.65 719.38 688.09 1071.79 1101.92 903.41 676.34 213.70 1109.12 0.00 684.69 930.73 913.43 454.74 1015.93 690.93 831.23 1038.03 1040.59 1015.26 405.01 181.26 955.46 742.04 918.28 652.61 974.33 729.92 690.82 241.48 624.25 1128.99 359.58 724.43 794.35 718.15 323.71 212.34 1276.71 603.83 605.28 718.89 408.11 770.30 292.08 706.46 187.91 1008.59 683.90 177.68 533.14 849.40 970.87 722.49 723.52 1152.87 699.21 1011.35 580.11 729.70 393.00 181.91 315.73 291.25 672.30 426.13 684.04 176.40 998.85 1044.05 1061.59 706.98 825.85 756.36 621.24 539.77 520.39 981.80 159.74 733.23 882.65 404.39 1032.65 612.48 722.37 1177.39 231.86 283.12 350.42 534.79 950.87 649.75 368.66 226.73 748.30 843.29 162.84 247.65 934.27 631.17 172.06 1018.78 683.07 1029.22 434.73 1043.40 1059.89 287.67 223.79
774.42 728.79 548.53 344.87 383.57 280.10 317.99 362.66 471.71 437.23 326.40 231.23 298.86 163.47 625.50 443.81 632.11 610.23 298.70 621.59 534.03 493.62 352.54 562.73 137.54 447.37 540.62 283.39 221.36 314.36 565.17 161.05 101.58 436.90 590.37 578.16 402.41 733.99 303.40 530.14 129.85 311.70 478.80 154.30 520.12 373.77 452.78 449.75 209.66 586.26 170.16 691.96 342.98 199.94 196.58 441.57 375.02 167.92 429.73 100.78 333.72 313.11 511.18 350.10 595.81 537.65 522.96 435.20 398.19 616.29 427.49 465.35 429.58 542.21 493.20 376.01 308.12 232.19 466.45 202.11 535.23 572.14 251.34 532.03 552.96 518.19 684.69 0.00 439.04 329.88 315.22 529.30 500.46 530.29 436.74 530.90 496.73 854.12 563.86 497.67 224.94 235.52 552.23 487.70 326.24 293.94 541.09 131.44 589.87 543.43 323.31 287.91 65.80 665.17 472.35 746.40 101.45 381.85 358.85 392.81 85.61 521.48 283.68 529.09 500.27 501.93 577.17 289.04 312.87 482.37 288.06 299.62 657.42 337.15 481.57 128.40 93.32 841.26 522.04 690.18 630.40 340.31 362.72 292.61 522.10 496.42 514.27 582.36 22.29 434.52 305.65 134.03 455.20 339.96 495.17 557.52 101.68 581.71 567.20 520.87 201.08 390.38 636.16 535.40 443.43 439.47 363.51 435.13 285.77 491.69 528.12 170.46 295.35 672.32 486.99 381.90 497.58 722.87 457.80 69.54 455.33 328.69 497.82 530.11 589.42 525.34
968.63 881.53 359.47 702.78 703.20 361.68 468.66 380.53 419.73 653.29 388.73 589.14 660.44 538.81 314.08 674.27 443.05 868.99 277.53 882.35 425.47 695.97 381.92 771.48 465.23 693.45 726.59 357.47 389.08 214.04 940.51 471.99 464.79 715.43 727.17 204.60 133.91 1029.54 636.11 617.59 511.93 411.43 54.51 482.17 819.68 205.39 86.78 112.13 345.40 835.70 547.13 999.01 346.37 529.06 389.26 113.20 309.10 346.49 633.91 495.24 323.88 125.93 781.68 314.61 237.76 325.22 800.38 156.36 331.82 252.71 768.41 765.85 429.02 197.99 732.76 220.93 581.37 607.39 449.51 353.43 171.65 282.62 552.94 514.27 794.25 293.74 930.73 439.04 0.00 261.68 617.32 171.25 436.27 324.26 263.65 214.12 168.89 1028.93 824.10 91.06 612.64 457.15 513.79 129.65 291.89 669.73 741.65 397.73 264.93 878.53 277.56 666.73 464.54 936.98 819.64 469.07 480.84 400.79 753.06 749.17 421.13 841.67 306.69 809.40 164.44 471.30 827.32 643.19 640.74 142.44 319.75 304.92 293.84 287.11 292.51 441.87 382.62 941.56 775.48 853.01 965.50 324.95 584.98 672.53 759.15 177.60 324.60 267.97 416.75 171.61 301.04 483.00 482.35 497.50 137.12 830.65 496.14 321.74 676.11 188.64 586.20 373.77 364.09 739.58 647.61 752.06 454.61 112.39 637.67 649.23 778.27 550.49 193.09 972.82 719.60 309.87 445.43 938.03 338.90 475.61 202.81 574.77 233.24 326.34 710.82 791.25
1015.98 934.22 347.40 592.50 630.51 291.49 425.87 386.40 368.69 662.07 337.79 478.86 550.43 457.33 359.18 656.75 425.95 837.46 149.37 844.27 495.81 636.32 376.28 733.79 384.48 684.25 688.90 317.83 297.76 118.64 824.60 420.95 380.99 668.76 779.86 299.48 253.06 1023.43 484.20 600.31 447.70 396.49 275.07 431.13 749.23 292.71 232.91 225.29 255.60 841.26 466.38 932.37 369.41 396.74 342.59 250.87 303.48 198.01 665.61 376.78 234.53 178.62 765.18 297.33 365.43 444.37 768.53 105.32 387.59 387.38 677.20 744.76 429.86 336.35 646.13 203.65 511.81 497.38 477.84 263.50 351.18 332.30 349.47 527.32 756.56 332.60 913.43 329.88 261.68 0.00 549.01 244.53 450.35 405.23 191.26 249.08 245.83 948.38 769.42 291.96 516.46 318.40 549.41 268.28 235.35 581.74 703.96 328.31 384.10 864.78 274.28 534.41 367.75 906.72 772.97 545.09 405.89 406.66 662.39 618.54 330.46 817.27 229.02 791.46 199.40 442.45 782.73 468.76 390.69 201.44 224.61 209.78 416.17 304.27 291.32 341.34 272.61 918.62 731.52 858.88 871.95 351.70 558.77 581.86 738.53 170.89 273.56 381.13 343.64 241.96 157.44 348.54 478.94 448.03 275.75 786.69 391.61 434.90 670.47 261.92 496.87 323.21 338.80 683.07 674.55 702.18 465.36 162.90 547.00 599.76 780.90 404.54 96.91 948.36 718.85 186.35 495.18 913.26 287.86 399.42 271.28 599.36 297.10 298.51 763.51 746.43
956.25 501.33 739.98 600.11 345.60 287.24 152.86 240.50 744.05 190.56 275.49 540.71 454.47 371.59 801.89 191.93 826.67 400.78 476.40 403.54 777.48 244.67 250.62 296.17 249.86 278.17 280.88 296.85 268.94 430.37 716.18 476.27 257.69 265.15 362.26 650.10 487.12 538.10 283.44 347.44 397.56 232.19 595.20 455.09 324.34 558.60 574.51 628.03 512.67 452.18 238.92 532.73 274.66 403.66 228.06 624.65 388.48 376.29 227.44 290.62 585.98 491.39 302.27 350.20 632.76 447.84 307.51 596.53 328.05 698.37 635.61 311.21 407.84 715.37 258.59 437.09 76.37 402.51 409.93 367.26 689.03 702.57 560.99 471.97 315.09 732.89 454.74 315.22 617.32 549.01 0.00 687.24 331.64 505.38 667.25 635.67 623.31 631.84 343.29 631.75 490.21 550.74 417.17 656.72 373.82 485.78 295.94 271.34 782.31 409.35 390.19 469.74 366.59 531.09 339.34 931.51 213.77 220.24 484.12 391.57 400.83 373.12 364.39 327.06 642.11 385.65 349.71 268.00 555.55 578.92 342.09 356.92 762.18 361.81 682.08 259.28 376.79 568.37 294.67 458.43 496.32 333.63 137.46 418.90 278.34 581.20 696.59 667.84 337.51 525.69 409.26 250.46 274.38 205.59 649.25 349.84 357.87 523.72 429.37 696.28 356.04 356.71 784.04 222.88 241.14 273.98 196.10 515.99 409.80 291.94 339.93 387.15 452.10 506.74 273.44 585.93 401.58 505.24 680.60 331.51 677.99 217.17 717.28 729.94 372.55 265.12
1085.82 971.79 279.96 736.74 789.50 432.40 545.95 457.82 433.27 700.53 473.13 637.60 730.09 614.77 204.91 760.93 363.54 962.13 317.26 950.85 454.40 746.95 459.21 839.33 543.47 847.14 794.44 464.64 420.76 276.33 919.20 458.27 463.46 763.69 817.43 115.92 290.25 1162.20 702.04 707.85 550.58 488.72 139.19 555.93 879.95 264.82 148.28 115.11 335.74 987.47 588.18 1053.91 423.66 620.31 479.52 118.71 399.07 407.94 776.61 559.41 370.86 216.19 850.38 404.87 149.71 426.40 860.65 241.42 443.55 142.85 783.68 827.23 362.94 147.73 776.32 311.19 644.17 687.02 524.98 439.14 121.39 226.62 518.82 524.78 862.10 140.54 1015.93 529.30 171.25 244.53 687.24 0.00 446.69 357.03 238.39 57.94 91.95 1077.42 864.29 102.64 652.46 459.42 579.58 41.60 363.57 744.42 779.38 530.52 139.57 971.64 406.37 710.43 559.94 1045.70 867.90 343.71 507.38 478.08 814.17 835.47 483.03 831.30 378.97 887.82 45.13 560.46 916.94 713.29 549.43 108.32 393.28 385.08 177.94 403.22 213.00 504.35 466.96 1051.57 841.95 930.30 1039.84 372.19 645.18 708.34 846.95 122.90 217.32 142.11 507.01 271.21 337.02 470.08 557.08 574.74 49.07 885.81 582.94 305.61 753.40 17.39 626.67 422.26 230.53 852.44 762.97 836.74 537.00 171.25 699.57 713.60 871.41 593.74 285.27 1034.20 813.78 327.44 557.16 1018.80 352.44 524.86 75.31 734.62 85.30 261.54 801.08 863.87
1131.78 706.62 699.80 723.04 665.11 236.02 331.01 227.90 691.43 504.15 249.86 660.84 652.55 597.25 620.14 523.57 787.16 609.73 401.41 574.79 748.05 551.08 217.78 578.93 432.44 609.81 534.04 217.07 279.10 392.01 913.71 482.13 435.48 588.60 548.31 530.10 302.36 869.74 513.78 468.72 538.96 271.15 457.15 554.46 655.98 345.45 414.99 401.69 511.00 783.82 497.97 864.37 234.78 570.20 322.37 423.49 201.30 402.97 528.25 506.15 586.94 374.98 589.01 187.34 534.74 143.58 639.15 517.41 104.45 589.54 844.67 611.59 181.45 556.35 590.23 279.98 408.01 583.30 78.29 359.30 530.01 625.59 598.37 143.87 601.70 587.23 690.93 500.46 436.27 450.35 331.64 446.69 0.00 243.50 631.65 504.63 538.64 782.30 603.89 440.08 622.72 601.46 181.27 472.60 283.21 683.86 518.98 406.00 586.26 740.99 255.47 685.69 478.11 855.47 670.98 790.40 468.53 216.03 723.27 711.08 460.47 704.76 305.88 637.96 491.82 113.77 555.00 529.22 710.22 508.96 318.29 303.46 624.63 223.45 636.62 419.93 456.28 757.38 581.55 632.31 827.96 175.81 400.22 618.87 586.55 516.19 658.23 557.53 493.83 332.43 335.47 459.42 292.45 329.41 465.13 625.41 438.90 192.08 491.22 464.08 553.41 127.14 677.22 554.52 514.55 605.62 286.52 488.26 607.88 481.14 604.05 510.08 413.74 784.51 576.54 538.76 166.50 715.61 649.25 496.98 522.00 548.81 531.99 664.93 564.66 596.76
1191.05 863.56 602.17 803.46 701.91 290.15 415.49 309.17 612.69 577.03 325.05 689.82 703.79 627.46 479.48 632.34 694.81 774.35 341.50 785.35 638.97 623.96 319.29 649.70 557.28 692.16 604.81 292.14 354.17 292.56 1012.66 623.51 477.27 661.48 676.50 302.08 224.65 982.18 630.21 541.60 628.85 359.06 295.15 629.53 734.66 156.52 270.60 261.03 440.75 834.41 570.85 940.15 307.66 566.87 422.71 282.83 200.51 444.55 632.19 580.54 512.46 226.61 661.89 266.80 338.02 224.14 734.18 458.72 177.33 403.63 891.48 707.72 193.19 410.46 667.43 214.17 524.70 707.99 204.03 416.68 391.77 544.66 627.47 269.61 672.47 494.41 831.23 530.29 324.26 405.23 505.38 357.03 243.50 0.00 510.94 403.59 406.35 896.87 704.78 299.42 671.43 551.34 307.01 331.94 285.13 735.10 619.87 474.11 465.16 791.62 299.81 704.54 550.85 913.36 754.25 668.20 521.19 288.91 825.21 747.88 526.67 813.53 337.68 723.99 363.87 217.71 740.62 645.65 718.76 371.92 318.99 333.82 467.44 295.23 544.27 478.65 519.15 883.12 682.44 741.13 878.59 248.69 473.10 717.44 667.46 441.72 541.94 373.10 517.43 186.08 327.00 488.07 372.13 386.76 324.47 726.30 590.06 51.42 595.16 342.98 644.98 241.71 576.18 662.81 618.49 719.58 343.87 400.53 732.72 538.49 697.31 626.99 314.29 884.95 649.42 518.13 270.44 829.17 549.80 576.29 408.52 573.48 420.15 580.18 692.85 691.79
986.05 1056.34 156.18 579.67 731.73 482.75 581.00 522.96 257.17 792.05 503.38 540.73 621.24 524.45 289.55 776.06 255.73 979.43 335.71 991.69 334.99 768.23 514.17 821.86 489.42 721.98 866.75 452.33 436.50 283.99 908.72 340.36 471.68 807.50 887.95 341.84 349.11 1058.07 638.28 736.59 493.56 536.22 293.38 410.63 873.46 399.62 290.73 249.91 277.29 864.23 571.32 1023.06 488.80 463.86 481.33 275.49 469.60 375.90 775.30 469.17 151.94 300.74 881.28 455.18 360.87 540.42 862.17 160.82 535.07 364.62 705.77 835.45 511.14 309.90 792.80 394.91 613.32 568.19 616.67 434.37 283.56 166.01 319.01 633.42 877.55 190.48 1038.03 436.74 263.65 191.26 667.25 238.39 631.65 510.94 0.00 180.45 232.25 1126.27 905.43 295.79 613.75 221.03 578.62 252.76 374.09 648.97 881.81 448.87 363.24 907.06 413.02 592.52 420.48 965.51 873.83 422.66 496.58 543.22 735.52 777.70 419.56 870.20 367.76 899.19 211.47 581.19 943.38 622.84 475.04 208.72 363.35 348.52 347.54 443.01 105.19 480.36 343.42 1106.53 878.82 995.38 994.03 463.71 697.51 647.29 862.49 157.31 83.03 365.78 414.45 387.68 296.18 439.23 616.83 604.32 260.23 926.95 459.69 459.52 808.36 241.06 553.06 513.78 216.37 849.32 789.00 786.90 602.14 151.26 627.53 756.05 898.22 501.11 288.17 1042.42 841.57 103.76 633.92 1081.12 176.34 455.56 238.29 603.30 262.06 107.25 885.63 819.78
1090.37 1029.73 222.02 693.30 794.05 469.84 570.43 487.52 393.22 758.47 473.63 579.66 743.47 629.68 209.46 734.99 305.60 966.32 259.32 962.62 396.46 723.43 497.64 823.56 548.02 821.23 831.85 428.76 366.73 280.88 925.76 508.82 468.01 798.03 875.37 161.39 290.75 1133.38 732.42 726.68 583.70 503.51 178.04 560.48 880.40 302.23 148.78 152.52 340.29 1000.10 595.57 1084.29 468.61 624.86 490.18 161.93 409.75 391.05 790.75 570.30 332.39 274.13 848.95 423.70 180.58 438.76 861.10 245.79 479.15 184.17 791.99 827.85 330.69 129.45 801.65 330.02 659.40 673.88 563.05 392.42 103.11 226.88 499.46 568.00 864.44 119.43 1040.59 530.90 214.12 249.08 635.67 57.94 504.63 403.59 180.45 0.00 98.51 1127.97 901.63 141.49 635.00 401.48 622.80 99.54 368.12 726.96 816.79 501.35 182.79 1005.98 411.08 686.89 552.99 1016.67 902.24 378.88 511.93 507.78 818.72 840.02 497.59 889.24 376.61 870.12 49.68 590.04 938.33 717.84 491.49 112.87 372.20 357.37 167.09 403.72 155.06 500.40 465.65 1064.00 859.72 960.00 981.90 430.13 666.15 712.89 864.19 173.45 187.76 185.33 508.61 293.43 305.03 500.46 594.49 579.29 94.02 914.89 577.99 352.17 791.83 60.61 635.72 472.81 172.59 825.75 804.45 849.95 566.70 175.80 714.13 731.02 889.28 597.58 302.61 1031.25 828.35 284.21 587.14 1056.21 312.39 529.41 75.57 739.17 81.61 203.60 859.02 884.84
1021.89 1005.54 222.76 688.07 794.68 459.61 556.57 479.02 395.17 727.30 470.56 610.68 691.43 576.46 196.60 768.97 345.91 960.06 257.71 949.74 415.62 744.49 480.41 865.58 548.65 855.21 820.69 426.00 412.07 212.40 827.25 410.31 468.64 773.56 837.38 203.45 283.32 1131.77 717.81 726.71 530.48 509.89 163.00 488.33 871.29 299.24 145.71 162.86 287.07 1000.73 596.20 1083.91 444.86 571.64 456.90 182.55 422.88 389.44 780.59 517.08 306.93 249.94 827.89 424.40 182.52 474.63 870.81 162.52 470.76 234.80 831.43 824.78 395.75 162.64 801.29 344.94 658.56 647.72 598.92 390.81 155.66 227.07 454.89 573.20 861.37 124.85 1015.26 496.73 168.89 245.83 623.31 91.95 538.64 406.35 232.25 98.51 0.00 1103.81 863.18 126.45 633.39 412.50 611.32 89.35 380.91 675.89 827.13 493.34 210.30 981.51 388.59 662.47 511.09 1015.06 877.77 377.45 512.56 499.28 765.50 799.46 444.37 879.05 337.19 888.52 66.87 589.20 919.04 702.37 590.00 44.39 338.92 324.09 211.31 400.65 195.37 491.62 422.95 1055.84 855.19 951.50 980.29 399.40 609.73 695.77 838.86 74.94 163.66 217.60 474.44 290.36 349.36 501.09 583.07 543.71 81.88 884.70 520.16 354.93 770.95 109.34 607.73 449.47 269.25 822.99 766.89 839.40 500.82 107.32 660.91 695.44 886.21 563.42 234.13 1031.75 823.65 283.05 544.42 1045.05 345.06 476.19 75.76 739.80 136.04 173.83 834.83 828.42
1364.11 217.78 1120.03 1054.65 643.64 765.44 704.33 727.65 1133.39 468.13 733.65 944.71 814.90 744.03 1218.62 463.49 1203.61 313.68 882.10 374.86 1265.68 472.05 729.04 395.85 739.45 538.32 350.96 768.37 792.95 920.03 1094.97 961.42 792.28 417.22 404.84 1121.62 896.27 788.65 713.95 525.95 808.22 758.55 1002.13 899.88 486.54 921.20 1005.10 1000.17 898.34 586.79 683.96 549.18 693.49 804.62 743.39 1025.75 740.95 750.37 451.31 827.54 1060.06 903.00 411.46 715.36 1137.96 832.50 470.44 1053.70 719.54 1179.03 975.08 428.51 839.39 1160.06 480.01 808.00 613.29 808.29 839.75 840.34 1167.60 1143.64 1032.56 829.13 415.56 1150.84 405.01 854.12 1028.93 948.38 631.84 1077.42 782.30 896.87 1126.27 1127.97 1103.81 0.00 420.81 986.48 894.42 1047.45 774.33 1047.52 811.23 835.02 335.90 823.04 1183.10 598.09 783.49 932.05 873.88 648.31 489.70 1335.77 775.54 727.64 853.47 617.07 896.64 579.46 848.75 454.88 1088.34 823.29 368.41 698.51 956.51 1059.42 846.31 831.48 1226.45 751.47 1053.07 778.90 824.97 297.89 398.47 285.73 650.66 705.23 561.92 735.37 403.47 1044.21 1085.77 1150.44 876.41 860.45 883.82 787.38 723.73 636.42 1054.34 403.13 894.79 948.29 482.89 1094.81 761.65 655.16 1219.11 408.96 456.51 529.49 679.31 996.49 770.23 484.69 404.40 841.69 941.76 567.85 367.13 1022.51 804.56 274.28 1155.70 844.30 1121.63 605.40 1128.66 1101.61 388.49 470.61
1066.35 207.48 960.39 790.23 331.23 528.96 453.34 458.93 882.40 217.14 482.66 676.59 583.38 608.33 967.63 166.64 1053.03 110.59 673.00 86.56 1002.20 205.16 468.83 85.83 488.46 240.56 99.97 517.40 534.90 650.78 826.92 724.91 462.28 149.10 129.88 870.65 693.24 462.84 473.09 275.60 653.53 475.27 806.80 697.78 99.89 744.86 777.58 749.18 717.49 255.32 415.84 340.52 480.78 595.06 475.27 774.76 609.03 604.16 193.78 565.55 753.49 698.17 52.68 559.14 886.97 638.60 110.39 816.94 537.24 937.69 735.10 98.51 630.40 928.69 211.89 650.69 355.76 562.41 602.35 589.35 916.61 985.34 792.15 554.17 68.92 953.30 181.26 563.86 824.10 769.42 343.29 864.29 603.89 704.78 905.43 901.63 863.18 420.81 0.00 800.42 630.59 789.04 499.37 822.69 617.74 614.69 84.91 526.19 977.35 276.39 574.78 693.56 609.28 315.80 147.66 1127.06 506.20 450.24 576.75 343.43 645.04 237.42 606.21 50.02 852.02 572.30 55.86 457.65 720.16 818.79 593.25 608.08 1001.62 548.49 902.49 482.05 599.28 463.83 70.65 233.80 332.11 539.75 310.93 569.31 64.95 852.46 917.00 905.02 586.15 699.40 660.42 494.73 401.88 385.43 830.16 21.52 625.31 737.18 292.94 876.08 510.66 575.14 1050.34 120.41 180.08 269.35 379.75 798.76 538.71 233.70 91.13 655.18 672.51 235.36 124.38 801.67 528.13 216.47 908.02 583.67 898.40 359.24 939.82 951.03 146.23 142.76
1059.69 958.91 349.21 704.06 769.48 387.21 494.36 391.25 475.42 709.73 403.56 644.66 647.52 512.13 285.12 698.32 447.09 894.33 283.07 871.20 516.53 687.90 381.13 790.89 556.29 777.95 746.00 387.68 368.13 263.95 911.16 478.53 500.71 762.50 803.54 160.53 220.68 1114.04 618.15 647.11 447.94 434.50 36.55 543.40 817.76 172.79 78.71 66.67 327.44 920.20 606.97 1067.93 416.68 551.22 437.42 56.10 296.43 406.98 720.68 462.88 305.92 203.31 747.74 353.43 168.50 363.79 815.39 247.42 350.18 234.11 747.17 757.78 381.73 173.58 762.97 283.79 620.24 629.12 488.08 400.85 199.92 286.46 537.17 462.17 794.37 243.18 955.46 497.67 91.06 291.96 631.75 102.64 440.08 299.42 295.79 141.49 126.45 986.48 800.42 0.00 603.74 439.19 495.70 61.04 330.07 678.83 730.94 484.90 199.37 963.03 343.76 625.94 532.50 1021.48 865.53 403.51 544.63 411.51 743.57 793.79 445.88 850.74 316.36 821.52 129.92 489.66 856.28 633.59 632.98 160.94 340.85 340.92 239.97 317.32 296.55 468.34 404.35 973.49 793.51 863.73 1005.65 381.39 595.29 697.28 779.06 178.66 290.11 193.78 475.38 199.77 288.58 489.52 483.79 513.10 67.86 821.94 530.13 248.00 675.32 115.29 583.50 331.32 307.08 778.13 708.72 734.10 470.21 144.53 662.42 660.02 819.21 491.10 242.22 964.75 772.02 333.19 463.79 970.36 413.02 503.77 135.15 659.27 142.18 300.28 788.20 813.98
549.48 837.02 661.54 271.16 331.67 494.50 433.62 545.48 534.64 531.80 470.10 157.52 123.27 210.12 801.59 547.49 745.12 688.08 375.68 696.93 601.38 579.68 536.92 606.27 280.71 461.25 575.90 508.33 446.30 441.28 424.90 273.39 287.81 537.18 672.36 699.70 588.92 802.82 250.55 663.27 155.80 512.95 622.20 224.53 609.37 598.71 583.06 654.34 388.99 611.85 327.09 727.25 526.12 171.41 421.23 628.76 566.30 319.17 515.32 232.71 510.47 522.77 596.96 500.01 718.97 676.23 601.44 550.34 617.82 784.58 221.95 619.04 626.67 715.58 532.07 549.55 413.84 203.57 680.85 369.39 738.11 685.15 346.32 746.43 631.93 682.24 742.04 224.94 612.64 516.46 490.21 652.46 622.72 671.43 613.75 635.00 633.39 894.42 630.59 603.74 0.00 392.72 757.49 610.86 494.77 91.96 560.84 281.35 765.52 612.26 489.43 62.97 223.03 708.55 610.65 924.59 316.80 565.74 211.66 377.64 257.20 520.89 442.22 641.23 652.19 671.88 685.40 265.99 245.69 589.00 466.71 467.94 789.79 523.93 594.58 325.49 280.51 967.01 581.97 758.23 699.23 554.71 530.16 159.05 565.64 593.11 604.84 754.05 247.23 625.85 477.67 320.26 581.84 503.17 618.33 637.14 183.82 722.85 723.81 669.85 200.49 560.21 718.30 620.99 529.02 475.59 546.06 589.26 124.19 636.16 636.35 112.64 419.55 672.37 587.27 533.30 698.83 794.90 553.31 225.66 680.27 443.83 716.61 643.12 674.41 559.05
765.02 964.31 377.21 358.64 580.52 439.04 528.27 512.48 379.16 672.75 485.34 319.70 438.81 303.42 486.18 679.33 476.76 813.27 276.46 857.11 372.07 677.75 502.36 782.51 373.06 682.89 775.67 478.87 416.84 332.20 700.14 119.33 337.10 639.94 819.10 552.73 366.77 969.51 483.58 731.39 272.53 528.40 402.64 189.60 755.64 438.25 435.93 460.26 190.50 821.78 373.20 891.91 516.96 242.83 401.02 461.33 513.67 338.47 665.25 309.33 133.27 413.69 736.36 455.06 532.43 558.08 758.48 307.86 559.36 583.80 558.59 700.87 558.71 527.80 692.10 424.48 523.58 409.04 617.06 299.22 504.59 387.04 97.98 682.64 788.48 411.51 918.28 235.52 457.15 318.40 550.74 459.42 601.46 551.34 221.03 401.48 412.50 1047.45 789.04 439.19 392.72 0.00 699.92 456.47 428.63 465.59 760.61 366.96 527.65 778.95 436.12 371.49 242.65 889.15 707.87 643.69 336.97 532.74 521.89 591.71 216.17 701.49 413.34 764.61 431.30 635.73 812.69 499.02 273.56 368.11 388.85 403.06 568.57 418.95 326.22 363.92 305.57 1076.78 757.56 905.64 865.92 488.00 598.24 441.36 741.88 358.76 304.06 497.35 257.81 405.34 350.72 369.55 605.02 571.15 449.00 793.04 281.86 602.76 796.55 462.09 381.09 515.26 437.40 743.43 678.95 674.99 577.35 357.40 406.50 654.87 763.64 280.08 310.47 907.84 690.03 181.45 672.97 925.91 298.33 268.44 440.92 564.21 483.09 328.28 824.94 740.30
1227.31 556.55 734.80 850.44 563.84 272.13 333.57 244.36 768.95 429.27 312.94 783.46 723.39 668.24 704.90 546.42 773.33 535.62 458.42 555.49 867.26 525.76 239.03 435.58 503.28 587.04 480.47 314.23 375.24 505.56 992.05 635.46 505.71 545.02 369.49 538.60 379.88 839.49 615.27 475.01 610.83 254.24 498.26 651.62 577.08 422.97 482.29 486.45 568.52 666.45 525.84 763.41 266.33 673.60 381.62 460.87 278.64 511.06 430.11 608.43 657.08 389.85 484.78 257.48 587.80 227.27 557.78 620.70 181.97 522.19 789.10 530.61 310.05 600.53 534.59 351.16 486.70 670.66 102.98 411.95 589.60 710.95 650.28 54.80 469.74 692.16 652.61 552.23 513.79 549.41 417.17 579.58 181.27 307.01 578.62 622.80 611.32 774.33 499.37 495.70 757.49 699.92 0.00 556.74 358.43 754.70 495.53 476.14 670.88 709.28 315.47 788.83 585.60 767.73 603.42 807.60 539.37 249.70 794.11 609.81 579.68 687.24 357.80 545.56 589.29 106.96 493.95 599.83 785.58 566.93 382.29 373.60 601.93 280.97 683.81 478.86 552.42 668.31 492.54 535.79 764.21 211.92 413.11 713.58 476.21 589.58 661.65 608.64 529.94 397.94 391.97 519.99 291.02 324.96 563.56 520.89 597.52 358.43 393.08 562.19 624.25 246.35 791.36 508.38 416.41 636.49 282.07 524.37 678.72 402.67 444.90 644.85 493.07 656.08 505.79 608.90 68.36 601.03 732.02 588.80 627.73 578.50 626.46 685.87 385.84 590.60
1061.34 930.19 312.11 740.13 767.95 436.19 504.35 416.22 457.02 738.24 431.53 637.80 708.56 573.17 228.66 741.31 405.14 920.53 313.22 909.25 496.00 715.87 417.61 797.73 521.92 805.54 752.84 431.98 424.83 267.91 916.60 490.59 460.93 764.09 775.83 129.04 248.65 1146.38 660.44 666.25 508.98 447.12 97.59 559.32 838.35 223.22 106.68 73.51 339.13 945.87 546.58 1012.31 382.06 612.26 437.92 99.09 357.47 431.69 748.65 517.81 362.44 174.59 808.78 363.27 108.11 406.78 819.05 251.87 411.22 173.72 742.08 785.75 321.34 169.64 734.72 269.59 602.57 648.08 531.07 402.09 162.66 234.07 510.40 505.16 820.50 182.14 974.33 487.70 129.65 268.28 656.72 41.60 472.60 331.94 252.76 99.54 89.35 1047.52 822.69 61.04 610.86 456.47 556.74 0.00 340.55 702.82 737.78 491.74 154.66 969.06 366.84 673.83 522.53 1004.10 868.30 358.80 485.83 436.48 804.61 813.92 473.85 789.70 359.35 849.49 68.88 549.65 875.34 675.88 591.03 99.90 351.68 347.76 178.93 361.62 254.60 469.61 447.34 1009.97 800.35 888.70 1035.80 413.79 620.67 725.25 805.35 155.22 253.01 143.19 465.41 229.61 295.42 428.48 515.48 538.29 7.47 844.21 544.80 280.52 711.80 58.99 585.07 392.36 269.68 810.84 751.71 795.14 495.40 145.90 690.39 672.00 829.81 552.14 270.19 992.72 796.99 351.19 524.83 977.20 376.19 524.27 82.76 704.42 126.90 263.18 759.48 836.46
1003.83 750.25 471.29 595.09 570.25 143.17 264.29 192.65 499.08 474.85 152.12 514.45 525.38 389.99 478.22 473.14 554.87 640.30 191.41 660.17 614.59 459.85 190.47 571.35 324.22 543.79 556.06 101.07 104.88 190.35 791.69 398.22 250.97 505.92 624.75 428.23 168.71 895.21 466.41 456.45 381.99 184.96 293.52 394.51 618.55 214.64 298.54 299.82 293.93 687.51 378.53 819.68 184.60 440.15 179.75 312.81 134.68 265.35 470.18 354.24 363.31 165.96 565.06 113.57 448.66 333.41 599.25 340.67 201.53 475.40 654.01 562.05 250.14 414.60 476.36 70.96 308.20 468.79 329.52 166.24 440.94 465.94 476.61 358.52 574.42 459.72 729.92 326.24 291.89 235.35 373.82 363.57 283.21 285.13 374.09 368.12 380.91 811.23 617.74 330.07 494.77 428.63 358.43 340.55 0.00 502.55 549.87 225.38 491.65 713.87 42.96 529.08 306.01 788.79 610.13 595.24 294.32 212.91 615.05 594.20 318.35 624.42 52.55 608.27 318.44 332.93 598.63 450.97 553.08 336.52 61.77 56.82 487.06 77.46 404.33 221.43 279.17 782.83 563.67 665.13 800.84 146.51 397.10 506.75 553.52 385.16 437.03 445.44 311.23 153.89 77.91 236.97 293.13 289.09 348.02 618.84 345.22 306.48 484.66 380.96 418.68 156.07 540.71 498.06 483.88 590.41 246.20 319.95 499.66 440.82 549.58 382.13 211.97 760.76 539.53 395.47 300.53 707.03 433.95 341.09 363.58 479.45 415.29 452.14 627.07 606.28
638.72 785.72 719.06 363.12 283.46 541.07 495.94 554.72 623.88 472.40 547.46 249.48 31.31 166.70 838.04 461.01 826.60 690.84 467.64 658.85 693.34 513.75 558.91 607.02 251.42 374.77 562.13 547.65 486.31 533.24 343.09 365.35 331.43 488.97 631.36 791.66 611.30 723.66 202.34 655.79 230.89 527.25 677.31 292.82 526.25 667.71 645.54 682.96 413.52 563.64 255.65 679.04 572.23 227.29 425.83 657.38 558.89 383.73 526.76 265.29 545.99 574.08 562.01 502.79 810.93 724.46 514.96 513.37 627.37 785.89 296.52 532.56 629.45 803.18 445.59 556.20 467.69 155.36 727.42 434.13 796.20 740.35 367.61 762.81 597.82 722.05 690.82 293.94 669.73 581.74 485.78 744.42 683.86 735.10 648.97 726.96 675.89 835.02 614.69 678.83 91.96 465.59 754.70 702.82 502.55 0.00 576.32 284.13 840.66 564.05 459.59 152.21 259.48 664.92 526.62 950.26 287.51 574.98 119.70 295.15 278.37 522.99 512.42 575.33 704.13 699.87 665.83 217.78 289.53 678.91 487.93 502.76 865.63 494.09 686.54 328.27 309.13 961.01 584.73 741.71 651.02 563.14 482.64 99.65 568.40 631.89 681.61 834.95 283.26 649.87 480.45 344.86 599.72 550.79 710.29 593.81 275.78 786.52 695.67 744.01 218.37 562.99 794.61 550.30 516.73 412.90 557.70 627.89 75.98 593.02 622.66 204.60 511.51 580.41 539.06 587.05 686.34 770.64 592.89 224.40 716.30 395.62 758.79 732.44 615.01 472.57
1028.21 289.18 947.95 732.31 327.14 444.05 368.43 417.56 797.49 132.23 397.75 648.16 545.88 568.37 882.72 127.59 1031.53 182.75 637.54 171.47 954.85 175.50 427.68 59.95 403.55 202.42 15.06 448.80 457.05 678.56 760.52 687.51 456.38 120.67 126.04 792.68 608.33 452.75 434.95 245.23 598.58 438.93 721.89 644.79 150.64 675.24 722.60 664.27 661.52 279.47 387.41 391.03 395.87 589.16 446.84 689.85 532.14 583.01 115.41 491.64 774.09 678.73 75.56 522.80 802.06 607.89 134.54 773.78 513.68 867.67 709.22 92.61 561.48 843.78 183.46 583.73 277.39 488.76 522.87 504.44 831.70 919.99 714.68 513.29 82.72 919.92 241.48 541.09 741.65 703.96 295.94 779.38 518.98 619.87 881.81 816.79 827.13 335.90 84.91 730.94 560.84 760.61 495.53 737.78 549.87 576.32 0.00 487.14 892.44 262.19 542.88 623.81 564.19 361.33 164.50 1071.44 439.64 410.21 587.06 281.17 621.35 249.24 537.61 118.98 767.11 487.39 137.56 419.51 691.73 791.36 530.20 545.03 916.71 508.38 880.99 443.00 560.23 437.95 62.57 230.31 349.16 454.84 226.02 487.68 67.57 798.62 907.16 820.11 563.38 614.49 597.37 451.48 399.16 300.52 745.25 106.43 558.89 652.27 295.56 791.17 425.75 504.91 989.38 73.06 129.11 232.94 343.41 733.41 522.18 148.79 92.03 611.71 683.61 298.62 70.58 778.05 477.16 239.42 869.01 532.53 820.54 308.85 854.91 929.53 121.35 134.71
790.41 694.27 510.91 381.67 365.23 269.88 283.47 270.59 503.38 402.71 291.11 319.68 315.44 240.93 636.68 359.55 594.49 584.32 262.03 587.07 546.16 412.29 280.71 523.09 119.20 420.84 500.75 263.52 203.59 292.44 588.77 274.31 67.06 432.77 536.22 546.64 368.10 756.93 290.88 432.52 204.56 253.74 452.24 269.48 459.68 416.82 462.01 418.23 241.33 563.09 180.50 669.10 288.10 228.83 141.70 443.81 284.95 130.30 402.06 147.89 403.05 377.50 473.51 218.66 599.85 440.33 478.98 433.63 343.24 650.44 503.30 430.83 345.32 590.34 426.21 296.34 259.36 297.78 451.22 150.00 569.38 534.52 313.04 508.79 518.44 541.72 624.25 131.44 397.73 328.31 271.34 530.52 406.00 474.11 448.87 501.35 493.34 823.04 526.19 484.90 281.35 366.96 476.14 491.74 225.38 284.13 487.14 0.00 646.40 600.70 208.08 344.32 180.98 664.37 507.45 760.36 83.11 290.85 403.83 372.16 177.47 540.74 228.29 494.57 485.39 415.74 542.65 275.44 380.72 448.95 203.80 218.63 605.47 242.58 443.95 44.14 105.45 765.39 484.28 641.42 685.93 311.63 308.57 328.42 487.58 451.23 476.65 574.07 132.37 379.27 196.32 85.27 375.24 291.20 499.21 523.00 181.01 525.53 514.45 545.13 234.77 278.86 609.99 494.22 415.76 421.13 328.99 386.02 294.64 442.93 493.60 168.71 314.17 637.80 460.54 402.44 439.62 696.96 501.78 145.90 540.06 302.16 563.71 492.49 552.57 490.82
1216.00 1084.85 366.27 828.14 922.61 509.32 643.70 570.88 517.37 840.10 555.62 734.01 831.50 708.76 110.05 865.72 378.11 1060.12 442.11 1063.91 502.87 851.74 572.27 952.39 676.58 946.17 907.50 533.78 522.81 382.16 1037.55 597.84 603.03 893.81 930.49 182.97 398.84 1279.28 815.10 820.91 647.31 601.78 235.92 632.28 993.01 372.16 261.34 228.17 427.14 1100.53 701.24 1166.97 536.72 703.03 567.64 223.50 442.15 547.51 889.82 646.07 462.96 329.25 947.11 508.44 168.15 531.19 973.71 372.82 549.55 173.63 896.74 940.41 441.84 119.62 889.38 424.25 757.23 787.79 567.90 544.25 93.28 282.61 625.63 628.51 975.16 237.19 1128.99 589.87 264.93 384.10 782.31 139.57 586.26 465.16 363.24 182.79 210.30 1183.10 977.35 199.37 765.52 527.65 670.88 154.66 491.65 840.66 892.44 646.40 0.00 1088.72 499.33 825.31 624.70 1158.76 998.02 204.14 640.49 591.14 905.57 939.53 584.44 944.36 460.55 1000.85 184.70 592.79 1030.00 830.54 645.84 247.89 449.66 434.83 123.13 516.28 334.96 609.32 563.02 1054.17 955.01 1043.36 1164.69 511.76 748.27 835.84 960.01 262.47 316.57 157.61 567.58 379.89 450.08 583.14 670.14 632.19 162.13 998.87 646.97 413.74 859.43 122.18 739.73 527.94 226.94 930.77 876.12 933.47 650.06 300.56 800.98 783.92 984.47 690.47 375.55 1142.40 943.90 414.78 645.52 1131.86 492.01 616.26 134.54 839.70 172.18 359.09 914.14 966.96
1073.51 442.54 1047.38 753.37 280.59 671.37 554.73 602.25 970.56 377.26 657.57 735.44 532.74 557.69 1108.03 281.17 1130.96 288.49 797.55 319.91 1032.88 282.55 611.96 292.02 500.66 276.91 247.13 629.27 639.25 800.46 680.78 701.58 574.92 207.95 339.79 982.52 807.29 190.56 417.69 482.99 585.04 634.06 926.48 666.76 207.06 852.03 891.74 926.46 708.51 42.83 474.69 148.53 636.41 615.29 534.12 923.39 703.92 666.77 322.86 591.44 851.48 797.45 273.75 675.12 1037.74 809.59 187.76 952.98 692.10 1080.82 762.64 233.39 733.26 1038.64 253.98 709.54 484.84 528.88 749.85 669.76 1034.08 1070.99 750.19 758.32 308.83 1017.04 359.58 543.43 878.53 864.78 409.35 971.64 740.99 791.62 907.06 1005.98 981.51 598.09 276.39 963.03 612.26 778.95 709.28 969.06 713.87 564.05 262.19 600.70 1088.72 0.00 681.80 649.89 578.26 121.74 190.48 1234.08 531.00 581.99 539.94 301.84 611.68 179.36 676.59 248.13 989.88 733.59 332.25 402.25 767.18 946.63 652.10 666.93 1108.16 677.57 980.42 561.78 592.17 665.69 281.57 448.25 86.97 670.79 397.80 522.93 276.15 975.43 990.09 1009.10 521.14 845.86 719.27 587.09 599.99 549.81 976.53 254.87 600.53 843.04 504.14 989.03 499.76 650.25 1123.43 305.13 336.56 236.03 567.68 914.06 488.07 398.08 332.83 628.20 808.55 215.38 258.04 803.30 684.61 401.13 936.63 580.00 954.18 303.76 996.67 1014.31 323.44 179.11
998.49 707.29 507.64 589.75 528.95 109.07 240.35 149.69 500.62 431.89 145.13 526.08 490.90 404.01 521.18 512.04 597.83 597.34 194.53 617.21 622.27 485.69 147.51 568.26 301.32 537.11 557.94 104.86 147.84 198.03 751.93 372.23 246.23 504.12 581.79 441.65 187.70 872.36 452.08 413.49 397.16 176.40 315.27 378.47 615.70 257.60 289.44 313.24 305.79 691.30 373.79 807.84 162.52 436.91 177.95 287.66 99.30 262.69 455.01 328.51 402.24 192.25 522.10 70.61 445.20 292.28 615.22 364.19 174.91 510.81 668.03 565.84 237.56 440.44 480.15 97.25 337.42 459.15 295.42 163.58 449.21 504.87 435.29 323.14 531.46 485.56 724.43 323.31 277.56 274.28 390.19 406.37 255.47 299.81 413.02 411.08 388.59 783.49 574.78 343.76 489.43 436.12 315.47 366.84 42.96 459.59 542.88 208.08 499.33 681.80 0.00 545.39 313.69 792.58 608.33 552.28 281.36 169.95 579.29 574.92 275.39 653.64 78.39 602.03 361.40 293.35 555.67 436.64 537.04 344.20 75.79 64.50 477.40 34.50 447.29 205.34 305.01 739.87 567.46 622.17 768.77 103.55 354.14 477.81 553.42 399.71 464.25 465.23 339.78 196.85 116.84 224.01 250.17 246.13 374.31 585.42 349.15 342.45 441.70 388.98 413.94 128.33 583.67 501.85 441.31 598.77 203.24 337.75 476.76 397.86 506.62 376.79 219.76 717.80 530.46 422.03 288.52 709.98 419.79 348.77 406.54 463.36 434.28 477.98 584.11 572.83
486.51 876.47 703.93 256.61 369.30 516.70 496.59 599.86 471.67 569.43 533.07 142.97 134.84 198.26 823.68 564.54 808.09 751.05 438.65 759.90 664.35 617.28 599.89 669.24 337.26 478.30 638.87 524.66 462.63 504.25 390.05 252.16 350.78 574.81 728.39 762.67 634.76 840.45 288.18 687.35 178.00 556.21 662.49 248.82 629.78 661.68 637.17 659.28 421.33 646.55 381.54 758.72 575.23 137.67 428.83 633.70 616.29 360.05 555.35 284.94 489.24 583.89 647.85 562.98 781.94 739.20 618.49 567.79 648.27 799.42 187.10 634.22 689.64 721.08 549.12 582.50 393.37 191.93 703.05 432.36 747.42 748.12 409.29 768.63 694.90 729.86 794.35 287.91 666.73 534.41 469.74 710.43 685.69 704.54 592.52 686.89 662.47 932.05 693.56 625.94 62.97 371.49 788.83 673.83 529.08 152.21 623.81 344.32 825.31 649.89 545.39 0.00 271.81 747.83 630.15 913.08 356.08 589.48 256.26 415.27 270.00 575.34 505.19 678.86 705.64 734.85 748.37 303.62 225.08 642.45 519.76 521.00 846.86 571.04 657.55 388.46 285.45 1029.98 644.94 775.43 736.86 576.91 519.21 196.68 628.61 587.53 667.81 811.27 293.07 673.33 511.44 383.23 636.29 566.14 681.30 697.34 246.79 755.96 763.84 727.82 254.94 603.33 706.79 653.83 569.05 513.22 606.35 619.52 161.82 624.72 699.32 175.61 482.52 683.94 624.90 537.42 742.09 849.35 552.50 247.86 726.11 481.46 768.12 683.97 712.04 576.10
732.09 772.80 543.61 323.35 392.26 314.93 365.34 353.43 486.25 490.99 325.49 238.32 265.24 129.85 578.56 487.84 567.12 633.51 293.67 672.25 568.86 435.10 354.82 576.52 165.65 446.26 549.13 349.19 287.16 372.39 530.45 123.32 167.38 460.18 585.74 612.99 420.20 750.20 240.93 567.48 104.94 358.79 515.09 88.50 571.96 439.57 498.19 484.58 224.20 621.09 193.44 671.77 319.27 134.14 231.41 476.40 405.06 169.74 452.20 75.97 298.81 347.94 556.60 365.31 630.64 542.96 552.66 414.31 430.00 651.12 393.87 531.15 469.75 577.04 458.74 376.97 290.22 166.39 501.28 224.78 570.06 563.13 286.17 566.86 597.91 532.73 718.15 65.80 464.54 367.75 366.59 559.94 478.11 550.85 420.48 552.99 511.09 873.88 609.28 532.50 223.03 242.65 585.60 522.53 306.01 259.48 564.19 180.98 624.70 578.26 313.69 271.81 0.00 646.50 538.15 760.94 161.31 373.69 324.39 358.35 131.02 458.84 274.91 590.24 514.81 498.58 637.32 256.37 247.07 466.70 264.02 249.19 692.25 348.19 483.39 193.22 128.15 907.06 563.79 672.28 665.23 375.14 373.42 226.81 547.46 458.69 503.51 640.42 57.12 450.16 301.53 193.97 457.48 399.90 530.00 616.62 39.21 602.27 627.14 555.70 138.44 365.62 573.69 541.54 449.57 476.10 429.31 480.54 245.77 521.57 588.27 110.39 361.15 736.94 510.27 346.99 517.24 732.85 463.87 35.08 490.16 388.55 532.65 527.73 602.09 544.06
1131.96 430.53 1121.69 811.82 381.46 729.82 655.57 671.52 1075.91 442.57 704.43 835.71 633.61 658.56 1166.48 372.32 1205.54 374.39 757.35 372.90 1154.62 393.54 665.68 368.41 622.10 362.62 368.87 687.72 740.58 839.09 739.23 769.82 633.37 318.94 398.24 1040.97 876.44 166.91 489.22 531.89 667.75 645.73 984.93 735.00 265.51 910.48 970.91 1004.99 828.72 101.28 540.20 99.13 701.23 701.14 645.11 1014.54 779.35 788.51 376.44 662.88 909.18 908.44 314.20 733.57 1096.19 878.86 246.21 994.47 757.82 1134.54 832.89 291.84 825.57 1134.97 312.43 820.53 506.98 571.07 777.18 728.21 1108.63 1131.52 866.53 799.24 370.93 1063.91 323.71 665.17 936.98 906.72 531.09 1045.70 855.47 913.36 965.51 1016.67 1015.06 648.31 315.80 1021.48 708.55 889.15 767.73 1004.10 788.79 664.92 361.33 664.37 1158.76 121.74 792.58 747.83 646.50 0.00 238.68 1344.86 589.45 651.26 598.39 372.01 733.42 214.40 776.53 295.11 1033.86 768.77 371.66 473.78 853.03 970.67 763.09 777.92 1181.05 758.08 1070.70 620.23 713.91 613.49 340.02 536.97 34.77 760.20 505.20 623.80 345.52 974.78 1048.54 1130.84 642.88 911.56 817.52 646.80 563.02 613.88 1011.57 337.32 685.71 964.78 563.46 1063.09 508.06 771.99 1181.88 367.22 380.13 323.51 641.27 987.07 588.94 462.15 374.36 710.91 855.20 163.18 290.75 861.75 716.04 374.03 995.08 639.60 1075.92 362.21 1098.28 1072.76 381.89 288.60
977.64 280.54 929.76 716.72 298.18 531.74 444.75 492.24 877.40 212.14 562.25 631.70 495.31 575.28 1045.92 177.43 1013.34 176.02 704.39 207.52 998.31 178.81 502.36 167.84 452.85 151.85 149.44 536.19 535.51 696.72 810.88 633.40 488.45 104.21 233.93 887.82 703.55 355.39 384.38 319.91 576.13 512.56 830.16 626.65 47.77 692.74 788.00 828.77 682.01 212.00 370.95 228.75 526.40 603.24 430.38 819.65 599.03 637.75 219.12 537.53 806.07 693.71 158.53 597.48 948.65 682.57 67.07 849.24 588.36 971.22 704.03 124.68 628.37 934.90 167.00 605.80 381.10 473.17 629.16 571.29 942.73 953.37 718.79 593.20 193.50 960.57 212.34 472.35 819.64 772.97 339.34 867.90 670.98 754.25 873.83 902.24 877.77 489.70 147.66 865.53 610.65 707.87 603.42 868.30 610.13 526.62 164.50 507.45 998.02 190.48 608.33 630.15 538.15 238.68 0.00 1160.61 468.34 477.10 585.06 278.86 557.96 89.76 572.85 127.44 886.14 610.31 169.27 368.94 675.27 842.89 548.36 563.19 1024.68 573.83 862.80 463.31 565.67 528.58 143.54 319.80 203.91 540.48 292.91 519.84 127.21 871.69 895.50 980.28 494.64 741.24 615.53 482.20 429.65 375.20 875.77 143.61 574.03 794.77 355.20 885.29 410.16 590.55 1028.84 139.20 231.17 161.11 418.09 810.32 488.91 223.47 197.92 586.37 704.81 254.79 154.30 770.07 557.78 288.66 903.40 538.78 927.68 270.53 950.13 911.34 244.22 74.22
1272.73 1259.57 317.95 896.88 1081.23 661.35 792.63 701.97 545.93 984.17 697.41 887.07 941.10 826.13 314.19 1030.83 291.04 1149.62 633.66 1169.49 490.63 1019.27 699.79 1120.54 853.60 1083.28 1086.50 657.14 662.57 586.30 1129.90 763.02 787.63 1056.40 1134.07 387.11 602.98 1424.64 942.49 965.77 780.15 728.68 440.06 756.93 1167.98 556.88 465.48 407.17 536.74 1243.58 905.38 1360.12 714.80 821.31 730.23 427.64 646.29 684.71 1007.29 766.75 574.60 533.39 1074.38 622.89 372.29 735.33 1156.94 507.87 727.19 377.77 1087.67 1118.12 645.98 323.76 1032.43 613.35 889.70 885.17 772.04 693.82 297.42 287.76 669.40 832.65 1083.74 333.33 1276.71 746.40 469.07 545.09 931.51 343.71 790.40 668.20 422.66 378.88 377.45 1335.77 1127.06 403.51 924.59 643.69 807.60 358.80 595.24 950.26 1071.44 760.36 204.14 1234.08 552.28 913.08 760.94 1344.86 1160.61 0.00 831.55 722.23 1015.17 1049.13 694.04 1148.50 630.67 1154.31 369.30 796.93 1107.95 952.04 798.90 421.84 628.07 616.78 327.27 586.78 372.33 757.62 672.62 1258.31 1119.74 1174.45 1321.05 655.83 906.42 945.44 1105.70 450.44 339.63 361.75 724.11 584.03 629.08 776.29 802.45 798.41 366.27 1137.70 740.77 616.78 993.98 326.32 857.40 680.61 206.29 1054.13 993.59 1137.61 755.52 474.34 910.58 950.14 1058.90 811.95 579.69 1270.08 1082.74 526.42 840.80 1262.26 465.10 725.86 338.68 1015.64 371.19 364.24 1118.28 1125.11
842.59 668.23 594.02 441.78 282.12 312.07 260.33 320.72 552.00 378.84 330.66 332.68 256.20 157.82 622.03 363.47 674.95 537.46 324.21 563.93 619.81 392.17 310.60 468.93 36.09 345.92 439.17 295.74 244.26 374.96 559.52 262.50 43.92 364.13 488.92 614.87 414.55 682.01 229.49 453.46 195.11 292.55 535.35 249.81 445.64 388.90 516.74 501.34 300.24 488.17 97.39 641.18 311.57 218.41 165.17 502.03 363.24 213.41 328.28 108.75 435.17 414.56 453.52 301.77 593.94 494.06 464.94 497.66 375.17 650.23 421.84 407.69 385.99 599.20 416.74 342.54 231.44 220.07 470.53 191.11 614.03 617.63 347.22 534.60 490.32 608.77 603.83 101.45 480.84 405.89 213.77 507.38 468.53 521.19 496.58 511.93 512.56 775.54 506.20 544.63 316.80 336.97 539.37 485.83 294.32 287.51 439.64 83.11 640.49 531.00 281.36 356.08 161.31 589.45 468.34 831.55 0.00 340.98 326.92 328.09 187.06 477.46 241.77 471.43 462.25 465.87 519.51 214.05 370.30 468.17 244.47 259.30 664.76 293.56 527.06 84.81 188.56 780.88 473.44 613.50 602.82 350.03 261.27 246.39 457.11 507.35 559.76 629.02 123.74 431.38 279.43 57.35 394.46 263.28 493.30 499.86 176.00 572.61 490.52 524.77 157.06 352.26 662.50 433.95 341.98 338.02 305.85 469.13 211.53 415.01 470.46 228.82 353.23 614.66 413.97 392.82 471.01 650.10 526.15 149.64 534.13 227.24 559.95 575.60 505.27 443.72
1074.80 598.90 644.56 666.06 468.47 115.17 143.61 20.26 652.65 301.76 95.64 600.58 593.11 475.67 632.65 343.43 704.37 541.31 344.03 521.02 757.38 335.05 30.38 440.04 373.00 429.67 395.15 123.63 177.33 367.98 860.82 490.52 297.06 409.65 411.84 476.88 266.88 758.34 456.67 252.69 411.48 70.15 374.96 450.76 445.75 338.36 359.00 414.20 390.60 590.20 333.64 670.49 54.42 489.51 191.29 433.65 187.63 332.63 355.05 400.33 494.37 277.56 397.56 129.96 529.65 227.60 445.27 471.67 111.58 499.24 739.69 428.82 203.95 574.49 410.09 223.64 281.88 480.33 200.89 233.52 552.51 578.54 475.93 266.47 460.13 613.73 605.28 381.85 400.79 406.66 220.24 478.08 216.03 288.91 543.22 507.78 499.28 727.64 450.24 411.51 565.74 532.74 249.70 436.48 212.91 574.98 410.21 290.85 591.14 581.99 169.95 589.48 373.69 651.26 477.10 722.23 340.98 0.00 600.57 514.44 393.68 524.62 212.44 478.56 481.54 165.41 506.10 472.11 609.33 454.89 225.68 234.45 578.98 143.39 577.60 270.21 354.51 622.74 442.41 452.22 644.04 113.39 184.19 583.30 428.88 457.17 553.79 521.19 360.63 305.45 280.52 311.34 133.04 113.38 429.01 471.76 381.92 340.33 324.57 484.11 458.47 136.47 660.01 433.32 341.35 430.67 70.49 391.96 548.44 265.11 484.97 453.10 350.83 620.62 360.51 472.20 181.34 616.35 589.74 408.77 516.65 369.78 513.46 605.91 428.19 402.88
533.57 773.10 795.31 432.55 322.87 605.98 539.15 609.26 713.13 490.85 586.87 369.18 121.42 256.81 902.95 519.45 867.94 676.21 587.34 623.48 813.04 529.89 602.12 537.06 290.83 433.21 581.95 614.38 553.07 626.62 421.21 428.77 370.84 528.38 603.15 891.35 676.21 730.50 231.56 622.42 295.63 570.46 741.26 382.93 555.20 715.82 699.10 765.93 478.43 497.11 298.86 572.09 630.21 292.62 483.81 740.35 635.03 466.70 471.65 301.74 599.55 638.99 568.55 593.76 897.89 794.56 571.65 633.07 692.38 905.59 348.14 522.72 694.80 868.09 468.94 644.43 440.60 194.77 789.89 501.60 861.11 838.85 487.31 761.15 592.75 786.96 718.89 358.85 753.06 662.39 484.12 814.17 723.27 825.21 735.52 818.72 765.50 853.47 576.75 743.57 211.66 521.89 794.11 804.61 615.05 119.70 587.06 403.83 905.57 539.94 579.29 256.26 324.39 598.39 585.06 1015.17 326.92 600.57 0.00 368.84 331.93 548.73 568.69 530.98 769.04 754.41 621.48 216.12 379.64 744.38 553.28 568.11 958.12 557.65 780.35 393.62 392.10 915.06 594.02 768.52 626.91 626.70 522.05 118.10 577.69 746.66 801.31 903.38 348.17 714.78 600.15 384.27 618.37 487.19 798.31 598.27 339.17 858.77 636.48 797.57 257.78 653.96 873.65 577.32 485.35 466.79 530.08 681.45 115.39 592.49 616.01 324.30 631.21 615.47 557.34 647.73 725.75 782.09 632.30 289.31 781.21 424.84 823.70 786.00 613.44 531.01
901.78 531.99 851.60 553.15 45.97 573.98 493.38 523.13 774.44 257.18 528.21 493.75 298.12 323.07 936.91 225.13 897.11 454.02 610.20 415.71 887.16 277.87 533.03 341.12 292.00 182.67 296.23 531.88 532.22 660.58 549.52 481.67 372.01 238.00 384.75 860.02 710.17 492.40 197.30 493.34 383.35 539.47 778.90 446.85 243.54 716.99 753.16 790.39 512.39 326.15 351.43 441.55 557.29 383.66 436.80 777.55 623.51 478.47 333.32 330.91 657.16 672.95 324.52 590.82 922.03 742.04 262.84 723.86 626.02 976.13 528.02 279.70 673.95 902.05 232.22 665.16 396.14 332.83 652.44 480.75 895.07 882.69 573.87 638.24 363.89 820.92 408.11 392.81 749.17 618.54 391.57 835.47 711.08 747.88 777.70 840.02 799.46 617.07 343.43 793.79 377.64 591.71 609.81 813.92 594.20 295.15 281.17 372.16 939.53 301.84 574.92 415.27 358.35 372.01 278.86 1049.13 328.09 514.44 368.84 0.00 421.16 263.60 556.92 323.21 790.34 616.96 399.29 212.74 535.55 796.26 532.43 547.26 977.63 558.82 792.12 372.77 453.16 719.12 340.42 511.48 388.81 585.52 359.99 288.31 336.45 789.43 824.82 935.39 382.13 748.09 568.48 385.44 524.11 486.84 821.39 364.95 381.35 799.30 514.41 852.86 326.14 632.03 915.83 312.14 319.62 117.75 443.95 758.18 253.45 396.90 373.20 340.19 671.08 478.45 280.11 673.94 661.76 475.49 770.36 323.27 815.17 174.40 857.66 840.66 401.10 280.47
756.51 810.35 496.51 364.33 424.02 344.34 377.05 373.42 417.62 518.79 298.04 250.69 247.06 185.96 607.69 517.88 633.22 695.84 268.56 703.15 549.44 566.12 381.19 643.25 223.15 532.98 625.90 328.89 266.86 305.49 562.63 96.84 183.14 500.68 648.55 559.42 410.25 802.24 325.24 600.90 121.77 356.74 409.33 103.08 605.73 459.38 367.17 466.95 157.30 654.51 255.77 760.21 354.06 198.37 264.83 468.02 374.69 223.47 515.01 138.78 267.62 381.36 592.74 346.00 567.02 510.67 604.52 412.47 397.71 591.10 449.98 546.91 506.20 584.86 521.55 312.50 353.03 260.29 518.77 270.36 559.00 530.55 204.77 584.35 634.52 465.83 770.30 85.61 421.13 330.46 400.83 483.03 460.47 526.67 419.56 497.59 444.37 896.64 645.04 445.88 257.20 216.17 579.68 473.85 318.35 278.37 621.35 177.47 584.44 611.68 275.39 270.00 131.02 733.42 557.96 694.04 187.06 393.68 331.93 421.16 0.00 549.83 351.93 610.65 447.91 510.19 658.73 340.68 261.65 412.45 340.01 339.89 626.19 309.89 502.61 214.01 148.87 926.87 607.65 735.09 698.65 378.94 436.23 251.40 602.62 414.73 493.16 571.45 90.54 448.82 373.79 215.59 442.75 421.52 466.38 639.08 123.52 578.09 648.76 465.64 229.43 333.33 610.23 604.17 528.71 525.08 445.07 349.52 216.54 573.25 609.68 164.93 315.99 753.88 550.77 315.80 511.32 772.41 384.01 97.89 519.79 414.30 542.81 454.07 664.90 601.04
974.01 370.30 926.13 626.96 250.68 590.88 493.11 544.88 901.77 298.34 567.63 678.41 491.68 496.97 1018.36 181.19 1009.71 265.78 737.68 213.41 985.37 233.93 554.59 254.01 441.37 148.22 239.20 548.78 549.45 765.20 765.30 582.16 488.11 191.95 317.75 902.03 772.34 369.92 380.75 409.67 521.80 508.93 877.86 547.34 137.53 782.50 835.70 837.23 641.06 185.98 447.00 248.00 573.99 513.48 515.28 823.41 640.41 619.26 306.66 463.01 721.52 771.66 202.46 628.98 897.81 752.22 156.83 873.15 636.20 963.42 645.23 156.63 675.89 959.34 188.70 693.54 316.22 383.41 702.30 604.58 952.36 949.74 739.85 652.44 265.10 949.59 292.08 521.48 841.67 817.27 373.12 831.30 704.76 813.53 870.20 889.24 879.05 579.46 237.42 850.74 520.89 701.49 687.24 789.70 624.42 522.99 249.24 540.74 944.36 179.36 653.64 575.34 458.84 214.40 89.76 1148.50 477.46 524.62 548.73 263.60 549.83 0.00 637.59 196.40 858.58 666.82 229.79 365.31 665.37 889.60 622.60 637.43 968.63 619.14 859.17 496.60 544.66 614.75 229.71 405.29 249.17 613.42 340.43 483.71 213.38 917.53 891.87 932.89 510.80 778.31 670.59 490.31 519.41 464.96 797.17 233.37 498.05 858.30 428.25 848.69 320.40 659.81 1025.21 228.96 310.35 213.14 507.85 884.56 458.16 313.23 278.84 564.15 779.05 330.06 220.97 766.44 647.54 378.42 820.94 451.94 872.46 266.90 916.60 907.71 330.39 136.15
951.28 764.25 448.52 542.54 523.89 130.91 252.03 215.24 479.38 484.44 139.86 483.14 488.10 352.71 504.29 460.04 561.50 663.70 168.83 654.94 583.49 407.30 215.70 559.09 277.86 533.41 543.80 88.81 95.45 159.25 749.64 391.89 198.42 468.64 602.36 414.25 172.78 867.15 413.86 428.34 372.74 172.70 318.95 363.41 576.86 244.26 314.75 285.84 244.13 675.25 325.98 768.25 195.88 389.70 142.47 260.26 169.08 234.25 483.35 301.69 356.98 218.51 565.06 133.39 417.80 345.60 586.15 325.37 253.30 440.39 616.73 549.79 237.53 362.05 464.10 123.51 321.37 419.56 317.26 135.14 388.39 459.61 434.21 382.84 578.01 407.17 706.46 283.68 306.69 229.02 364.39 378.97 305.88 337.68 367.76 376.61 337.19 848.75 606.21 316.36 442.22 413.34 357.80 359.35 52.55 512.42 537.61 228.29 460.55 676.59 78.39 505.19 274.91 776.53 572.85 630.67 241.77 212.44 568.69 556.92 351.93 637.59 0.00 562.44 365.67 352.74 612.63 398.42 521.98 305.42 24.49 25.72 480.73 112.89 410.96 184.15 226.62 805.05 551.41 664.66 763.56 181.94 374.71 488.16 541.26 351.66 416.58 437.83 261.39 206.44 71.58 184.42 293.00 287.45 366.82 606.58 311.79 359.03 509.89 361.58 366.13 193.59 541.08 485.80 474.43 537.86 268.22 286.45 453.30 439.18 585.01 329.58 180.94 756.76 512.22 374.05 353.08 759.58 416.49 309.99 406.87 442.17 419.36 399.59 607.06 569.00
1026.35 242.12 978.47 808.92 357.37 539.31 423.49 464.64 852.55 187.29 505.00 705.02 544.02 620.88 1001.70 135.13 1062.05 145.23 691.62 92.50 985.54 155.14 454.52 116.22 467.75 200.56 128.40 517.97 503.39 700.80 843.25 690.14 427.51 177.53 176.07 871.22 700.32 428.07 431.34 325.62 637.72 502.82 784.97 678.74 79.67 724.64 742.81 783.25 683.83 205.30 427.66 329.84 490.07 560.29 469.22 777.35 599.93 604.01 204.09 530.78 803.51 708.81 90.21 580.56 921.04 688.62 60.37 866.96 546.66 923.38 732.57 63.74 629.83 924.49 201.79 671.54 366.07 546.30 566.02 558.52 950.68 1001.33 775.36 568.35 75.82 969.61 187.91 529.09 809.40 791.46 327.06 887.82 637.96 723.99 899.19 870.12 888.52 454.88 50.02 821.52 641.23 764.61 545.56 849.49 608.27 575.33 118.98 494.57 1000.85 248.13 602.03 678.86 590.24 295.11 127.44 1154.31 471.43 478.56 530.98 323.21 610.65 196.40 562.44 0.00 845.84 587.21 90.50 415.90 712.18 844.13 576.54 588.16 1003.12 567.53 911.51 450.54 567.77 476.96 91.92 268.18 317.53 515.63 294.37 560.04 75.59 848.02 944.21 939.09 551.38 700.40 634.02 459.96 351.86 419.50 842.02 70.40 590.54 769.92 303.58 878.67 508.38 565.70 1042.71 120.98 190.39 241.16 417.28 814.75 537.62 267.77 100.66 620.41 722.53 270.71 132.05 795.43 538.44 251.11 876.55 571.67 917.72 319.24 918.96 960.05 160.49 102.76
1040.69 995.08 271.70 691.61 744.37 452.05 544.19 461.28 388.14 745.66 447.39 629.34 694.97 580.00 159.78 770.64 355.28 935.59 276.51 938.34 446.14 731.73 471.40 827.06 498.34 808.17 782.17 419.51 416.41 231.20 894.12 472.59 418.33 781.93 840.72 161.05 264.51 1144.26 682.74 677.00 534.02 476.78 160.46 510.80 859.01 252.55 122.54 102.84 290.61 950.42 545.89 1034.61 450.94 575.18 472.76 128.42 380.17 362.81 760.32 520.62 325.73 239.48 827.93 374.02 176.99 436.11 839.71 228.73 462.42 187.98 783.34 782.10 380.37 136.95 794.80 280.34 624.87 649.05 560.40 409.61 151.78 223.19 473.69 534.49 838.20 169.11 1008.59 500.27 164.44 199.40 642.11 45.13 491.82 363.87 211.47 49.68 66.87 1088.34 852.02 129.92 652.19 431.30 589.29 68.88 318.44 704.13 767.11 485.39 184.70 989.88 361.40 705.64 514.81 1033.86 886.14 369.30 462.25 481.54 769.04 790.34 447.91 858.58 365.67 845.84 0.00 581.58 893.92 668.16 541.17 63.19 354.78 339.95 216.77 377.48 204.74 459.22 426.49 1047.21 829.68 933.76 999.09 417.32 628.53 663.21 834.68 137.22 230.53 187.24 477.98 267.19 313.23 450.78 544.81 529.61 76.35 873.54 537.81 312.45 756.85 62.52 586.04 433.18 222.27 816.50 774.02 800.27 540.46 126.12 664.45 681.34 844.87 566.96 252.93 989.07 832.02 282.31 563.22 1006.53 307.31 479.73 71.88 689.49 97.70 240.70 824.37 842.09
1199.69 663.13 710.06 790.95 570.99 221.83 238.26 145.15 721.88 463.22 220.53 714.26 707.52 620.82 695.03 508.84 793.64 638.35 398.51 647.20 797.77 500.46 155.27 527.73 487.65 568.83 502.45 263.93 287.06 440.80 963.43 595.90 421.95 525.64 476.45 519.79 337.39 880.29 581.56 418.10 560.53 208.12 499.85 564.44 611.16 362.31 479.36 478.74 509.77 730.11 458.53 817.60 179.31 627.48 316.18 467.46 262.65 452.69 414.48 525.22 570.41 397.55 547.23 237.06 550.93 159.77 597.57 547.77 139.48 580.57 845.29 558.47 267.84 525.85 518.96 328.14 406.77 583.47 35.48 358.41 499.51 673.04 633.40 101.06 538.54 671.43 683.90 501.93 471.30 442.45 385.65 560.46 113.77 217.71 581.19 590.04 589.20 823.29 572.30 489.66 671.88 635.73 106.96 549.65 332.93 699.87 487.39 415.74 592.79 733.59 293.35 734.85 498.58 768.77 610.31 796.93 465.87 165.41 754.41 616.96 510.19 666.82 352.74 587.21 581.58 0.00 600.91 597.00 693.41 544.81 352.18 337.35 621.70 258.85 643.10 395.10 464.24 714.57 532.24 574.61 773.69 189.80 349.60 665.54 515.91 565.91 663.56 529.76 479.64 375.96 285.01 436.23 235.35 267.22 542.18 587.41 506.81 269.13 377.45 560.69 553.12 176.86 732.03 492.75 400.78 596.08 224.33 502.25 662.85 386.84 551.86 577.99 419.07 710.27 490.16 588.48 52.73 707.99 641.05 533.66 579.41 471.54 578.41 688.44 492.80 568.29
1116.85 151.62 985.15 846.09 387.09 543.17 418.82 514.79 934.81 269.55 535.31 732.45 634.52 664.19 1020.28 222.50 1068.73 54.73 728.86 61.54 1008.62 241.02 524.69 129.58 541.11 291.06 135.81 523.82 585.85 706.64 870.67 738.22 475.59 204.96 124.46 877.07 693.41 518.57 513.24 285.49 668.29 498.15 831.71 725.82 155.75 764.89 789.55 801.83 731.91 295.80 471.70 362.29 533.43 646.58 531.13 827.41 615.45 656.92 193.41 561.35 791.44 711.43 108.54 604.02 936.28 648.49 150.87 830.25 593.10 993.55 778.85 154.24 673.80 974.68 248.97 640.17 355.39 609.51 596.93 622.78 966.76 1008.76 828.51 548.75 73.89 966.61 177.68 577.17 827.32 782.73 349.71 916.94 555.00 740.62 943.38 938.33 919.04 368.41 55.86 856.28 685.40 812.69 493.95 875.34 598.63 665.83 137.56 542.65 1030.00 332.25 555.67 748.37 637.32 371.66 169.27 1107.95 519.51 506.10 621.48 399.29 658.73 229.79 612.63 90.50 893.92 600.91 0.00 497.80 776.02 874.65 625.87 620.17 1033.07 590.17 918.19 516.48 648.10 418.72 123.41 192.45 373.18 592.40 346.77 608.43 119.76 871.46 930.31 957.67 599.46 728.87 672.51 508.04 442.36 420.64 882.81 77.38 628.60 715.61 332.38 928.73 546.50 596.68 1063.65 126.83 207.11 321.22 435.61 854.62 594.57 268.91 49.05 681.42 685.82 260.23 178.12 839.62 555.16 160.61 946.56 602.24 895.85 396.30 939.99 966.73 126.54 193.26
749.69 588.62 734.63 393.02 166.77 479.10 367.17 451.85 652.87 407.56 453.26 392.71 186.47 217.77 827.94 303.33 790.13 533.16 472.38 501.17 720.13 313.77 441.73 448.25 177.96 217.09 404.45 452.78 390.75 539.32 448.18 379.69 257.97 350.70 507.74 747.13 571.20 592.81 15.44 520.44 253.17 410.29 597.04 344.46 368.57 578.95 615.77 653.25 415.30 372.50 138.69 535.81 475.26 278.36 328.86 627.67 445.14 354.02 359.78 223.93 545.40 566.78 417.29 476.16 778.44 640.55 355.53 574.08 532.21 838.81 390.61 374.88 532.48 760.47 287.91 521.93 253.24 134.51 607.51 339.28 771.02 741.08 472.83 545.03 462.99 723.83 533.14 289.04 643.19 468.76 268.00 713.29 529.22 645.65 622.84 717.84 702.37 698.51 457.65 633.59 265.99 499.02 599.83 675.88 450.97 217.78 419.51 275.44 830.54 402.25 436.64 303.62 256.37 473.78 368.94 952.04 214.05 472.11 216.12 212.74 340.68 365.31 398.42 415.90 668.16 597.00 497.80 0.00 430.25 670.20 390.96 405.79 847.20 440.05 667.67 231.30 279.42 803.33 427.05 584.03 489.22 509.10 310.46 150.90 410.72 639.65 700.37 805.24 296.55 599.68 458.13 247.40 502.07 436.72 677.80 436.13 217.16 697.07 490.11 728.99 144.28 524.09 751.64 374.96 346.08 265.54 464.10 631.66 141.80 431.22 481.43 239.15 535.40 480.57 394.67 563.62 596.17 623.28 572.04 264.82 729.59 208.72 765.86 716.21 491.39 314.89
625.29 912.75 522.69 201.81 489.58 538.06 612.41 589.07 376.26 710.50 547.01 88.17 258.22 212.48 700.95 644.28 669.87 795.44 428.09 790.94 473.21 645.66 599.19 713.63 377.44 601.68 706.79 495.96 475.24 465.02 503.45 228.09 414.22 571.06 779.72 652.88 508.48 957.74 414.81 701.57 254.03 571.25 607.72 158.57 723.04 579.96 570.12 615.98 316.83 769.76 417.41 878.30 566.34 151.89 478.12 641.56 587.59 372.66 650.67 321.55 406.83 549.33 667.48 528.10 672.07 697.17 706.05 484.38 652.68 675.66 300.50 648.44 685.36 620.94 633.85 550.81 488.69 322.04 724.41 468.76 594.60 627.42 320.31 789.99 737.68 610.92 849.40 312.87 640.74 390.69 555.55 549.43 710.22 718.76 475.04 491.49 590.00 956.51 720.16 632.98 245.69 273.56 785.58 591.03 553.08 289.53 691.73 380.72 645.84 767.18 537.04 225.08 247.07 853.03 675.27 798.90 370.30 609.33 379.64 535.55 261.65 665.37 521.98 712.18 541.17 693.41 776.02 430.25 0.00 592.13 511.09 496.26 658.58 564.21 580.23 424.86 298.06 1074.37 689.33 865.59 854.15 598.27 619.00 337.75 673.00 561.58 551.00 676.82 304.19 547.05 524.05 427.65 700.15 633.58 585.51 740.61 283.19 721.86 778.45 552.10 344.97 588.30 664.08 674.55 664.37 633.50 666.77 553.59 302.89 720.04 743.71 212.01 475.52 807.32 621.15 455.01 746.14 908.08 333.80 282.15 567.06 546.03 573.10 550.94 790.01 671.42
977.50 961.15 261.42 698.01 750.29 415.22 512.18 434.63 393.82 682.91 426.17 584.37 659.51 574.08 222.97 724.58 345.00 915.67 213.32 905.35 418.51 710.51 436.02 821.19 504.26 810.82 776.30 392.45 367.68 168.01 871.64 409.40 424.25 738.68 792.99 224.24 238.93 1087.38 685.64 682.32 534.22 465.53 143.48 491.35 826.90 265.71 101.32 166.03 316.20 956.34 551.81 1039.52 400.47 598.18 412.51 146.92 380.39 345.05 736.20 527.52 262.54 205.55 825.79 380.01 208.01 430.24 826.42 165.54 426.37 251.17 810.95 780.39 379.44 200.14 767.74 300.55 616.99 614.31 554.53 346.42 200.05 228.68 410.50 528.81 816.98 162.36 970.87 482.37 142.44 201.44 578.92 108.32 508.96 371.92 208.72 112.87 44.39 1059.42 818.79 160.94 589.00 368.11 566.93 99.90 336.52 678.91 791.36 448.95 247.89 946.63 344.20 642.45 466.70 970.67 842.89 421.84 468.17 454.89 744.38 796.26 412.45 889.60 305.42 844.13 63.19 544.81 874.65 670.20 592.13 0.00 294.53 279.70 255.70 356.26 194.46 454.19 419.65 1011.45 810.80 907.11 935.90 355.01 565.34 663.85 794.47 74.03 208.05 243.09 485.38 245.97 304.97 456.70 538.68 556.58 107.37 840.31 505.91 375.64 730.21 125.71 575.14 405.08 243.13 789.44 722.50 795.01 513.81 62.93 628.99 702.07 841.82 551.58 189.74 987.36 788.77 282.14 500.03 1000.66 315.34 501.78 120.15 695.41 160.89 218.22 790.44 784.03
975.77 766.88 457.97 567.03 508.48 139.37 247.31 225.48 468.49 459.95 153.10 502.34 463.61 328.22 507.53 441.41 550.61 668.53 157.94 664.03 572.60 429.85 223.30 572.33 262.45 527.65 545.26 102.05 73.15 148.36 729.92 387.34 200.55 444.15 591.47 417.49 185.84 842.66 406.40 417.45 368.96 185.94 343.44 352.52 575.20 257.32 317.01 289.08 232.16 678.61 328.11 777.11 203.44 382.09 117.98 284.75 170.70 220.67 463.64 303.82 352.57 227.73 540.57 130.95 442.29 321.11 567.52 300.88 250.70 464.88 592.24 562.55 213.04 386.54 477.34 132.73 334.61 407.02 325.72 121.56 412.88 448.54 414.84 391.30 591.25 429.49 722.49 288.06 319.75 224.61 342.09 393.28 318.29 318.99 363.35 372.20 338.92 846.31 593.25 340.85 466.71 388.85 382.29 351.68 61.77 487.93 530.20 203.80 449.66 652.10 75.79 519.76 264.02 763.09 548.36 628.07 244.47 225.68 553.28 532.43 340.01 622.60 24.49 576.54 354.78 352.18 625.87 390.96 511.09 294.53 0.00 14.83 476.32 110.29 400.07 159.66 250.33 791.51 562.42 677.90 739.07 179.34 363.82 472.75 546.09 327.17 392.09 444.92 275.22 215.66 67.17 200.79 306.24 273.91 359.15 614.77 287.30 368.25 499.38 386.07 368.26 191.15 525.43 499.04 449.94 553.09 279.03 261.96 437.89 425.64 582.41 354.07 156.45 736.83 494.24 360.29 362.30 768.80 405.60 299.10 395.98 417.68 427.55 424.08 596.17 544.51
977.00 752.05 443.14 568.26 523.31 154.20 232.48 214.19 453.66 466.56 163.80 487.51 478.44 343.05 492.70 456.24 535.78 661.84 143.11 672.48 557.77 433.02 212.01 583.03 277.28 542.48 559.95 112.75 87.98 133.53 744.75 372.51 215.38 458.98 576.64 402.66 171.01 857.49 421.23 402.62 354.13 196.64 331.87 337.69 590.03 242.49 302.18 274.25 246.99 693.44 342.94 791.94 188.61 383.33 132.81 285.98 155.87 208.53 478.47 309.53 337.74 222.78 555.40 116.12 443.52 328.63 582.35 299.69 239.41 466.11 607.07 573.73 220.56 387.77 488.04 127.78 345.31 415.58 340.55 109.42 414.11 440.37 429.08 379.71 595.96 432.89 723.52 299.62 304.92 209.78 356.92 385.08 303.46 333.82 348.52 357.37 324.09 831.48 608.08 340.92 467.94 403.06 373.60 347.76 56.82 502.76 545.03 218.63 434.83 666.93 64.50 521.00 249.19 777.92 563.19 616.78 259.30 234.45 568.11 547.26 339.89 637.43 25.72 588.16 339.95 337.35 620.17 405.79 496.26 279.70 14.83 0.00 461.49 99.00 385.24 174.49 252.34 804.37 575.35 676.42 753.90 168.05 348.99 476.00 560.92 335.21 399.75 430.09 287.11 200.97 52.34 210.14 314.67 288.74 355.23 629.60 288.40 363.30 484.55 387.30 383.09 176.32 521.84 509.74 464.77 563.58 267.74 276.79 452.72 440.47 571.12 355.30 155.26 751.66 509.07 359.10 353.02 763.85 390.77 284.27 381.15 432.51 412.72 425.31 581.34 559.34
1233.20 1031.72 389.11 860.39 946.88 586.47 661.83 558.72 555.72 878.47 599.67 746.75 873.25 752.10 144.38 902.08 441.17 1074.74 426.41 1088.18 559.01 888.03 548.60 976.66 700.85 935.96 931.77 548.62 533.82 423.71 1038.56 621.62 635.10 920.47 954.76 195.37 411.63 1298.72 839.37 814.58 687.91 601.97 276.52 676.25 1000.94 376.95 285.61 252.44 498.38 1124.33 708.51 1191.24 560.99 709.19 594.30 261.87 517.82 558.14 911.63 696.74 449.94 353.52 964.75 542.20 129.42 494.99 997.98 373.83 577.36 79.74 921.01 964.68 470.75 125.78 913.65 448.52 763.52 827.01 619.28 559.51 122.19 316.94 658.59 656.73 999.43 286.52 1152.87 657.42 293.84 416.17 762.18 177.94 624.63 467.44 347.54 167.09 211.31 1226.45 1001.62 239.97 789.79 568.57 601.93 178.93 487.06 865.63 916.71 605.47 123.13 1108.16 477.40 846.86 692.25 1181.05 1024.68 327.27 664.76 578.98 958.12 977.63 626.19 968.63 480.73 1003.12 216.77 621.70 1033.07 847.20 658.58 255.70 476.32 461.49 0.00 511.90 322.15 635.98 610.12 1060.33 979.28 1031.20 1148.99 550.13 762.76 877.59 984.28 286.25 307.05 99.06 635.13 401.25 409.15 607.41 651.26 680.57 186.40 1023.14 714.52 443.15 842.79 160.55 764.00 571.29 261.27 938.87 914.49 974.07 637.68 318.63 842.73 827.49 984.02 731.07 421.81 1171.31 939.49 401.76 670.29 1088.22 479.48 687.50 202.09 868.61 201.09 370.69 938.41 981.45
1032.99 728.42 542.14 624.25 512.85 74.57 208.95 123.13 535.12 397.39 110.63 557.57 486.93 431.78 537.26 477.54 632.33 631.84 229.03 619.27 656.77 453.87 113.01 540.64 266.82 514.96 523.44 70.36 115.83 232.53 717.43 394.32 249.64 469.62 554.82 407.68 153.20 850.98 455.49 378.99 413.27 154.25 280.77 407.75 588.73 224.68 254.94 321.54 287.55 656.80 348.72 788.97 128.02 471.41 143.45 295.96 94.72 286.78 464.90 352.91 432.23 224.79 495.81 36.11 453.50 257.78 588.25 398.69 140.41 513.28 694.31 531.34 203.21 474.94 445.65 129.79 302.92 432.49 260.92 187.67 458.76 534.86 469.79 295.58 558.38 506.89 699.21 337.15 287.11 304.27 361.81 403.22 223.45 295.23 443.01 403.72 400.65 751.47 548.49 317.32 523.93 418.95 280.97 361.62 77.46 494.09 508.38 242.58 516.28 677.57 34.50 571.04 348.19 758.08 573.83 586.78 293.56 143.39 557.65 558.82 309.89 619.14 112.89 567.53 377.48 258.85 590.17 440.05 564.21 356.26 110.29 99.00 511.90 0.00 481.79 208.75 285.59 705.37 532.96 595.61 764.54 69.05 327.17 477.12 522.81 418.40 498.75 473.53 317.74 191.77 146.83 249.88 215.67 211.63 354.15 570.01 364.97 307.95 407.20 397.28 387.79 96.31 564.68 467.35 459.83 573.65 168.74 353.19 442.26 363.36 541.12 411.29 254.26 718.87 503.90 387.53 254.02 714.60 454.29 376.60 429.07 464.44 399.78 512.48 557.71 545.86
1021.74 1069.81 66.96 684.86 746.15 531.27 595.67 557.34 269.88 748.76 546.75 602.53 666.07 595.84 239.22 797.19 150.54 959.86 326.73 967.37 241.40 813.31 558.73 904.12 500.12 710.95 892.14 497.99 473.22 251.71 940.24 445.55 511.01 844.22 926.39 302.09 403.02 1163.26 683.11 787.86 563.34 516.34 326.22 515.82 846.78 421.13 291.55 307.58 368.56 969.42 582.02 1076.36 523.18 569.05 518.05 289.70 537.10 313.65 781.25 494.07 257.13 360.14 894.81 501.36 335.64 587.11 851.14 200.94 569.45 339.23 810.96 868.74 485.75 284.51 781.77 437.27 700.69 613.02 678.58 412.76 258.17 90.57 418.41 695.77 893.98 97.77 1011.35 481.57 292.51 291.32 682.08 213.00 636.62 544.27 105.19 155.06 195.37 1053.07 902.49 296.55 594.58 326.22 683.81 254.60 404.33 686.54 880.99 443.95 334.96 980.42 447.29 657.55 483.39 1070.70 862.80 372.33 527.06 577.60 780.35 792.12 502.61 859.17 410.96 911.51 204.74 643.10 918.19 667.67 580.23 194.46 400.07 385.24 322.15 481.79 0.00 488.09 388.25 1095.15 847.16 1016.60 1046.00 498.09 698.74 710.20 863.49 120.43 32.70 340.39 459.28 403.30 358.09 529.22 661.39 625.94 249.08 902.33 507.25 507.23 852.92 215.67 612.51 509.48 166.04 884.87 794.95 775.87 611.86 185.64 675.56 768.41 869.14 520.18 273.44 1041.77 822.38 208.95 683.06 1072.50 249.90 518.14 230.63 708.49 204.88 48.54 942.74 808.75
834.55 668.10 555.05 425.81 348.82 247.80 244.48 249.95 519.76 376.54 263.05 359.63 322.90 242.63 619.00 315.41 638.63 558.15 241.08 543.04 535.00 368.15 239.83 478.95 102.79 376.70 456.61 221.48 159.45 308.02 632.91 289.45 40.89 388.63 542.84 565.10 345.50 712.79 246.74 437.24 227.36 224.94 487.60 281.72 415.54 372.68 451.71 442.16 257.71 518.95 168.45 624.96 243.96 272.97 97.56 444.41 278.43 174.44 377.20 144.16 419.43 335.48 429.37 244.86 577.72 409.25 434.84 446.66 349.16 620.78 495.18 404.66 301.18 546.20 382.07 292.39 215.22 271.61 430.58 107.98 539.72 578.66 357.18 496.16 492.27 547.64 580.11 128.40 441.87 341.34 259.28 504.35 419.93 478.65 480.36 500.40 491.62 778.90 482.05 468.34 325.49 363.92 478.86 469.61 221.43 328.27 443.00 44.14 609.32 561.78 205.34 388.46 193.22 620.23 463.31 757.62 84.81 270.21 393.62 372.77 214.01 496.60 184.15 450.54 459.22 395.10 516.48 231.30 424.86 454.19 159.66 174.49 635.98 208.75 488.09 0.00 149.59 721.25 440.14 597.28 648.75 277.80 329.30 313.09 456.47 424.22 520.79 598.00 136.10 375.32 226.83 41.13 331.10 247.06 477.08 495.16 156.22 516.70 474.30 521.74 208.60 292.79 646.28 482.16 390.90 393.43 289.95 408.63 278.23 398.79 467.43 212.85 304.10 611.63 416.40 376.60 410.82 670.79 493.15 185.05 514.04 258.02 556.92 536.63 540.69 449.11
771.96 791.87 455.21 380.83 446.19 280.29 351.40 346.79 397.93 508.16 290.26 316.29 277.82 207.59 586.27 432.64 538.79 682.19 206.33 660.27 440.71 485.38 345.61 596.18 213.63 496.51 573.84 239.21 177.18 284.07 587.93 245.71 172.51 505.86 635.52 502.24 397.77 782.73 294.86 532.17 199.75 313.96 406.94 169.09 565.13 467.09 409.95 373.83 135.88 635.00 242.12 731.88 315.49 227.99 245.32 348.25 330.84 74.60 484.12 125.75 297.60 329.26 546.60 319.41 505.79 524.59 558.75 377.93 411.86 571.40 471.61 536.28 416.52 553.34 499.30 304.98 322.14 224.77 466.64 173.71 541.26 478.82 207.59 532.22 602.05 444.41 729.70 93.32 382.62 272.61 376.79 466.96 456.28 519.15 343.42 465.65 422.95 824.97 599.28 404.35 280.51 305.57 552.42 447.34 279.17 309.13 560.23 105.45 563.02 592.17 305.01 285.45 128.15 713.91 565.67 672.62 188.56 354.51 392.10 453.16 148.87 544.66 226.62 567.77 426.49 464.24 648.10 279.42 298.06 419.65 250.33 252.34 610.12 285.59 388.25 149.59 0.00 859.59 557.37 704.20 679.14 340.50 414.02 339.01 573.70 409.43 420.95 525.82 71.03 422.24 225.99 148.05 443.40 341.99 454.81 612.54 132.49 548.73 569.23 449.57 224.26 350.43 554.29 589.79 497.82 526.58 384.88 402.51 304.15 493.72 599.05 167.87 294.57 743.25 533.63 309.41 499.84 794.83 442.74 129.89 489.16 407.61 508.01 436.79 651.87 556.03
1412.03 458.98 1153.05 1104.27 711.24 674.14 587.15 602.48 1102.09 543.67 675.51 1030.80 929.70 917.89 1111.35 500.00 1245.69 436.52 919.56 480.26 1256.25 552.74 592.36 378.00 816.97 586.24 422.89 716.24 760.79 843.44 1119.09 1002.31 755.98 503.31 350.84 1042.93 807.65 730.20 818.77 428.80 948.61 643.05 936.94 995.56 514.58 879.13 941.22 994.56 947.34 645.13 770.05 617.58 627.91 954.67 687.73 995.63 755.01 886.03 518.65 858.99 1063.34 896.95 432.69 718.40 1038.36 791.80 500.20 966.14 734.32 1012.89 1027.27 458.12 807.81 934.55 565.01 812.08 644.74 896.59 679.09 795.50 960.89 1149.18 1067.18 613.51 433.69 1102.50 393.00 841.26 941.56 918.62 568.37 1051.57 757.38 883.12 1106.53 1064.00 1055.84 297.89 463.83 973.49 967.01 1076.78 668.31 1009.97 782.83 961.01 437.95 765.39 1054.17 665.69 739.87 1029.98 907.06 613.49 528.58 1258.31 780.88 622.74 915.06 719.12 926.87 614.75 805.05 476.96 1047.21 714.57 418.72 803.33 1074.37 1011.45 791.51 804.37 1060.33 705.37 1095.15 721.25 859.59 0.00 417.70 297.58 578.72 686.88 578.49 882.55 401.37 1023.11 1066.20 1037.25 857.35 846.22 842.50 723.53 648.78 517.60 1002.50 472.87 877.47 899.71 346.87 1057.60 833.58 718.69 1140.73 451.29 504.95 617.84 560.49 965.45 916.30 525.24 426.25 934.10 821.71 555.84 472.62 1025.55 671.59 402.48 1100.68 899.88 1021.43 649.86 1029.40 1114.19 367.19 518.11
1035.75 275.03 914.12 759.40 326.20 504.70 429.87 453.90 859.16 193.90 460.32 645.76 553.42 603.30 945.29 124.73 997.70 138.77 665.24 120.21 953.58 177.47 463.80 56.96 466.12 209.96 77.63 462.60 492.99 704.95 798.05 683.09 436.85 118.27 123.05 815.85 645.16 426.98 440.94 299.44 622.70 470.24 784.46 652.29 96.88 716.64 752.15 726.84 675.01 238.74 385.01 347.05 458.44 569.63 444.44 752.42 554.23 533.51 145.16 521.39 810.03 649.55 47.65 542.80 864.63 657.42 116.18 827.65 532.21 930.24 706.23 73.08 619.43 906.35 181.06 619.86 307.14 523.06 567.72 548.12 894.27 937.73 721.50 547.34 55.73 944.93 181.91 522.04 775.48 731.52 294.67 841.95 581.55 682.44 878.82 859.72 855.19 398.47 70.65 793.51 581.97 757.56 492.54 800.35 563.67 584.73 62.57 484.28 955.01 281.57 567.46 644.94 563.79 340.02 143.54 1119.74 473.44 442.41 594.02 340.42 607.65 229.71 551.41 91.92 829.68 532.24 123.41 427.05 689.33 810.80 562.42 575.35 979.28 532.96 847.16 440.14 557.37 417.70 0.00 208.92 327.08 517.41 283.97 538.48 16.33 838.78 879.86 882.68 544.33 673.83 622.99 469.30 443.78 360.32 807.82 55.17 588.64 714.84 244.32 853.74 488.32 567.48 1013.20 71.79 131.46 238.52 374.72 795.98 531.26 208.59 80.57 629.75 683.22 269.01 81.90 775.06 479.51 251.41 866.15 552.84 883.11 320.17 891.74 895.70 120.72 133.07
1192.73 241.57 1083.56 929.34 502.46 567.39 493.95 472.48 1008.89 361.93 547.86 822.02 710.40 714.40 1084.87 299.38 1156.59 234.29 796.25 253.99 1129.84 352.12 482.60 231.46 633.86 366.94 215.25 575.85 629.55 809.95 960.71 795.60 588.60 294.53 166.30 929.10 719.10 608.73 599.47 273.80 702.49 522.37 827.18 760.78 305.80 734.79 811.22 866.42 826.32 435.69 561.27 459.97 506.64 718.86 594.53 885.87 639.85 702.95 313.88 596.31 915.88 729.78 223.91 582.18 981.87 636.80 306.95 923.89 563.80 951.46 843.96 249.34 656.17 1022.14 357.32 670.46 382.06 688.95 554.02 685.74 1004.73 1030.76 903.85 590.59 239.75 1065.95 315.73 690.18 853.01 858.88 458.43 930.30 632.31 741.13 995.38 960.00 951.50 285.73 233.80 863.73 758.23 905.64 535.79 888.70 665.13 741.71 230.31 641.42 1043.36 448.25 622.17 775.43 672.28 536.97 319.80 1174.45 613.50 452.22 768.52 511.48 735.09 405.29 664.66 268.18 933.76 574.61 192.45 584.03 865.59 907.11 677.90 676.42 1031.20 595.61 1016.60 597.28 704.20 297.58 208.92 0.00 503.34 565.61 393.95 670.44 192.59 909.39 1006.01 973.41 674.80 757.67 728.76 556.15 533.97 424.40 881.23 220.06 663.56 792.55 197.16 936.33 625.94 588.69 1112.23 248.05 307.72 414.78 467.29 844.18 704.00 360.25 232.57 716.38 803.05 433.90 263.84 891.62 521.88 185.07 998.13 637.20 968.87 437.75 965.68 1058.13 155.08 269.14
1160.48 435.02 1112.96 840.34 367.56 735.65 629.38 664.30 1057.53 416.05 717.55 822.41 619.71 644.66 1158.87 368.14 1170.77 375.46 722.58 338.13 1119.85 369.52 674.42 351.38 587.33 335.05 334.10 716.24 726.22 804.32 767.75 786.18 632.99 294.92 394.72 1046.60 869.22 151.48 504.66 523.82 632.98 680.50 969.10 728.44 237.86 882.83 950.09 1010.82 795.48 129.80 505.43 103.62 698.46 702.26 621.09 1010.36 785.18 753.74 369.22 672.01 938.45 874.18 279.43 762.09 1112.55 860.81 257.16 959.70 755.62 1143.28 849.61 314.77 814.52 1111.35 340.95 796.51 531.20 605.84 809.17 756.73 1085.01 1099.59 837.16 797.11 349.63 1029.14 291.25 630.40 965.50 871.95 496.32 1039.84 827.96 878.59 994.03 981.90 980.29 650.66 332.11 1005.65 699.23 865.92 764.21 1035.80 800.84 651.02 349.16 685.93 1164.69 86.97 768.77 736.86 665.23 34.77 203.91 1321.05 602.82 644.04 626.91 388.81 698.65 249.17 763.56 317.53 999.09 773.69 373.18 489.22 854.15 935.90 739.07 753.90 1148.99 764.54 1046.00 648.75 679.14 578.72 327.08 503.34 0.00 744.39 479.06 609.90 310.75 940.01 1016.61 1096.07 608.11 907.79 806.24 660.17 597.79 579.11 1043.27 341.84 687.50 930.01 538.74 1042.51 542.83 737.22 1149.95 343.11 372.91 301.00 606.50 952.30 575.04 427.38 339.59 676.14 820.43 128.41 283.53 890.27 720.96 378.52 996.18 666.97 1041.15 390.73 1063.51 1088.75 410.41 260.37
1063.42 687.70 549.91 655.03 570.29 60.21 181.26 93.13 600.93 328.34 106.51 571.54 555.98 459.20 577.10 432.23 648.63 628.35 246.50 608.13 670.98 423.85 94.52 494.01 335.87 484.74 469.90 102.31 163.32 301.58 786.48 423.54 318.28 497.65 500.64 455.56 191.04 823.29 520.81 360.50 398.91 124.03 349.82 439.70 534.55 262.52 323.99 390.59 356.60 679.00 395.63 758.75 58.97 502.19 184.86 365.01 96.07 299.14 404.48 396.51 447.52 280.34 499.38 98.40 519.30 227.41 534.07 457.02 71.36 515.04 723.22 517.09 134.16 509.06 477.60 192.08 324.15 473.90 205.26 200.03 482.72 499.03 532.47 226.53 537.56 512.73 672.30 340.31 324.95 351.70 333.63 372.19 175.81 248.69 463.71 430.13 399.40 705.23 539.75 381.39 554.71 488.00 211.92 413.79 146.51 563.14 454.84 311.63 511.76 670.79 103.55 576.91 375.14 760.20 540.48 655.83 350.03 113.39 626.70 585.52 378.94 613.42 181.94 515.63 417.32 189.80 592.40 509.10 598.27 355.01 179.34 168.05 550.13 69.05 498.09 277.80 340.50 686.88 517.41 565.61 744.39 0.00 272.99 546.17 505.91 377.66 530.79 514.30 318.02 229.61 212.58 314.93 197.18 215.20 421.26 561.27 385.60 254.29 388.71 389.58 456.84 50.07 580.50 482.75 390.78 519.47 172.31 312.45 511.31 361.90 546.87 442.07 318.04 722.44 473.90 449.82 184.97 694.26 520.10 376.88 447.50 454.76 437.62 526.40 516.99 491.68
1005.72 414.71 765.70 630.48 314.02 291.31 156.93 204.45 748.12 117.57 279.83 571.08 451.33 415.54 788.31 159.24 830.74 360.06 457.59 386.87 854.73 150.86 214.16 255.85 297.36 245.48 210.96 307.82 343.20 482.52 709.17 496.74 288.41 225.46 227.65 661.07 451.07 588.36 295.02 209.98 404.39 236.26 558.74 461.92 261.56 521.41 543.19 571.80 527.46 406.01 242.52 486.30 238.61 476.13 286.51 597.38 306.12 385.09 170.86 297.45 660.24 461.75 273.20 314.15 713.84 411.79 261.08 648.68 295.77 683.02 589.10 278.68 335.46 710.36 225.90 405.95 181.13 327.28 385.08 385.98 684.02 762.73 604.99 450.66 278.62 727.70 426.13 362.72 584.98 558.77 137.46 645.18 400.22 473.10 697.51 666.15 609.73 561.92 310.93 595.29 530.16 598.24 413.11 620.67 397.10 482.64 226.02 308.57 748.27 397.80 354.14 519.21 373.42 505.20 292.91 906.42 261.27 184.19 522.05 359.99 436.23 340.43 374.71 294.37 628.53 349.60 346.77 310.46 619.00 565.34 363.82 348.99 762.76 327.17 698.74 329.30 414.02 578.49 283.97 393.95 479.06 272.99 0.00 441.52 272.29 639.37 719.90 704.97 375.94 460.66 401.33 318.62 293.79 173.52 613.20 332.45 351.37 524.52 291.91 662.57 369.12 320.66 808.47 249.13 157.16 246.48 213.24 576.15 406.66 154.48 303.06 417.52 504.25 474.05 246.54 654.09 365.53 435.32 684.67 338.34 685.49 185.59 697.65 747.28 244.00 218.69
651.67 686.07 714.78 352.02 242.34 535.37 478.17 563.04 632.60 372.75 506.34 316.57 79.53 197.98 805.37 454.23 793.93 642.16 519.96 640.09 760.43 464.67 552.92 517.51 210.30 367.99 472.62 533.85 472.54 556.89 395.10 348.24 290.31 420.21 531.71 808.55 630.32 713.49 161.22 627.02 262.17 530.66 660.73 315.31 519.47 612.41 618.57 680.14 408.70 522.52 289.59 605.47 546.08 212.09 403.28 687.26 516.93 396.55 448.89 264.80 519.02 573.90 516.63 513.23 818.42 722.34 506.43 613.02 617.53 842.50 239.71 525.78 614.27 795.50 438.81 563.90 404.14 114.24 697.16 419.50 796.02 757.85 456.17 695.93 540.28 717.23 684.04 292.61 672.53 581.86 418.90 708.34 618.87 717.44 647.29 712.89 695.77 735.37 569.31 697.28 159.05 441.36 713.58 725.25 506.75 99.65 487.68 328.42 835.84 522.93 477.81 196.68 226.81 623.80 519.84 945.44 246.39 583.30 118.10 288.31 251.40 483.71 488.16 560.04 663.21 665.54 608.43 150.90 337.75 663.85 472.75 476.00 877.59 477.12 710.20 313.09 339.01 882.55 538.48 670.44 609.90 546.17 441.52 0.00 522.15 666.13 730.32 822.85 283.08 660.64 524.74 303.74 544.66 509.67 717.78 587.03 233.93 740.67 629.98 717.04 163.31 573.43 768.41 523.70 435.19 386.26 516.58 600.92 34.86 532.35 565.12 271.69 560.33 628.63 470.30 567.20 645.22 696.98 551.77 261.89 716.12 354.50 758.61 705.47 515.36 465.79
1019.42 271.38 930.45 743.07 309.87 494.55 413.54 437.57 842.83 177.57 465.32 629.43 537.09 586.97 950.29 141.06 1014.03 122.44 651.64 131.29 937.25 169.65 447.47 40.63 450.58 193.63 62.65 452.45 509.32 688.62 781.72 670.78 420.52 101.94 106.72 805.70 628.83 421.08 426.16 288.70 606.37 453.91 777.98 635.96 113.21 700.31 735.82 731.84 664.36 247.31 368.68 355.96 460.21 553.30 428.11 757.42 544.08 549.84 128.83 505.06 806.91 633.22 31.32 532.65 864.91 641.09 114.36 811.32 515.88 916.33 689.90 56.75 607.75 903.31 164.73 603.53 290.81 512.41 551.39 547.91 895.39 954.06 737.83 531.01 66.29 947.68 176.40 522.10 759.15 738.53 278.34 846.95 586.55 667.46 862.49 864.19 838.86 403.47 64.95 779.06 565.64 741.88 476.21 805.35 553.52 568.40 67.57 487.58 960.01 276.15 553.42 628.61 547.46 345.52 127.21 1105.70 457.11 428.88 577.69 336.45 602.62 213.38 541.26 75.59 834.68 515.91 119.76 410.72 673.00 794.47 546.09 560.92 984.28 522.81 863.49 456.47 573.70 401.37 16.33 192.59 310.75 505.91 272.29 522.15 0.00 822.45 896.19 887.68 544.39 657.50 612.84 452.97 427.45 343.99 812.82 71.50 572.31 718.88 227.99 858.74 473.34 553.78 1029.53 55.46 115.13 222.19 358.39 794.33 514.93 192.26 70.71 613.42 666.89 254.38 71.25 758.73 463.18 235.08 882.48 536.51 888.11 309.52 875.41 912.03 117.01 116.74
991.14 1003.16 187.39 649.38 773.04 437.87 525.04 436.91 369.69 706.00 458.77 535.74 661.79 552.76 271.54 739.63 270.97 926.19 217.43 933.00 361.83 692.88 438.30 858.57 527.01 800.92 813.68 429.22 400.32 201.68 902.19 335.37 463.43 767.48 861.27 238.82 311.51 1091.49 655.09 695.69 488.57 467.81 208.61 444.33 839.76 300.70 171.12 204.71 328.69 943.17 565.97 1043.63 402.75 556.24 445.15 211.39 448.58 349.16 778.08 476.60 256.29 279.58 837.75 382.29 248.39 466.68 859.06 118.52 449.02 265.75 774.63 827.20 453.47 237.12 804.51 374.54 639.44 625.08 574.49 316.24 210.78 206.29 456.74 598.61 852.26 161.71 998.85 496.42 177.60 170.89 581.20 122.90 516.19 441.72 157.31 173.45 74.94 1044.21 852.46 178.66 593.11 358.76 589.58 155.22 385.16 631.89 798.62 451.23 262.47 975.43 399.71 587.53 458.69 974.78 871.69 450.44 507.35 457.17 746.66 789.43 414.73 917.53 351.66 848.02 137.22 565.91 871.46 639.65 561.58 74.03 327.17 335.21 286.25 418.40 120.43 424.22 409.43 1023.11 838.78 909.39 940.01 377.66 639.37 666.13 822.45 0.00 153.13 265.01 480.46 315.77 307.25 465.35 540.96 505.51 147.75 873.98 497.90 414.32 732.49 140.29 597.13 389.05 286.47 804.08 764.38 817.65 516.09 65.21 631.27 657.24 877.10 496.12 223.41 1034.17 797.80 208.11 562.63 1032.07 288.86 493.77 150.70 682.24 208.20 148.74 862.41 846.32
1054.44 1081.93 99.66 662.70 778.85 502.32 562.97 546.61 248.67 781.46 542.34 569.83 698.77 607.48 206.52 829.89 183.24 985.04 294.03 991.85 251.96 821.94 537.01 904.89 532.82 743.65 892.10 494.14 465.24 266.22 972.94 423.39 543.71 836.24 947.55 300.71 370.32 1141.10 715.81 792.62 576.59 483.64 326.66 493.66 879.48 421.33 309.37 280.91 335.86 947.26 614.72 1106.09 540.90 546.89 510.07 282.98 523.57 346.35 813.95 526.77 234.97 347.71 906.23 504.08 344.43 561.63 883.84 168.24 568.23 325.39 788.80 901.44 518.45 305.71 814.47 423.74 696.35 645.72 685.92 427.13 279.37 82.98 402.04 689.05 926.68 107.45 1044.05 514.27 324.60 273.56 696.59 217.32 658.23 541.94 83.03 187.76 163.66 1085.77 917.00 290.11 604.84 304.06 661.65 253.01 437.03 681.61 907.16 476.65 316.57 990.09 464.25 667.81 503.51 1048.54 895.50 339.63 559.76 553.79 801.31 824.82 493.16 891.87 416.58 944.21 230.53 663.56 930.31 700.37 551.00 208.05 392.09 399.75 307.05 498.75 32.70 520.79 420.95 1066.20 879.86 1006.01 1016.61 530.79 719.90 730.32 896.19 153.13 0.00 324.65 491.98 370.60 378.55 522.26 639.67 622.05 245.54 935.03 539.95 490.52 831.20 199.93 636.09 531.09 133.34 855.92 827.65 808.57 579.16 218.34 708.26 773.78 901.84 552.88 244.49 1074.47 855.08 186.79 669.52 1090.92 217.20 524.98 234.29 686.33 214.56 81.24 932.60 841.45
1204.53 932.66 407.35 855.99 911.14 494.47 604.04 500.93 550.10 822.54 503.42 755.69 803.64 705.91 243.44 819.79 402.14 1002.86 423.14 991.58 576.61 844.12 490.81 880.06 665.11 896.97 835.17 452.37 514.40 369.91 1039.29 600.38 604.12 876.07 893.72 99.12 366.66 1199.66 795.06 756.79 641.72 536.26 213.46 666.61 942.96 305.55 234.93 155.84 477.85 1029.99 674.83 1155.50 510.31 686.11 555.81 177.57 446.73 550.05 843.89 604.48 432.07 292.48 895.67 468.16 35.08 426.24 923.66 380.12 483.02 86.45 836.34 912.72 449.59 102.70 827.66 374.48 684.93 735.68 550.53 490.02 112.55 340.89 595.33 583.64 902.83 269.83 1061.59 582.36 267.97 381.13 667.84 142.11 557.53 373.10 365.78 185.33 217.60 1150.44 905.02 193.78 754.05 497.35 608.64 143.19 445.44 834.95 820.11 574.07 157.61 1009.10 465.23 811.27 640.42 1130.84 980.28 361.75 629.02 521.19 903.38 935.39 571.45 932.89 437.83 939.09 187.24 529.76 957.67 805.24 676.82 243.09 444.92 430.09 99.06 473.53 340.39 598.00 525.82 1037.25 882.68 973.41 1096.07 514.30 704.97 822.85 887.68 265.01 324.65 0.00 583.30 358.25 377.75 571.67 593.47 622.78 135.72 926.54 658.31 365.45 785.00 124.72 672.67 525.10 308.88 844.53 830.19 911.01 579.89 221.93 787.99 769.70 912.14 684.88 391.64 1118.73 881.70 383.89 582.49 989.16 494.55 631.85 189.58 836.18 162.72 388.93 877.37 923.66
772.27 751.08 526.24 363.53 405.86 257.81 340.28 340.37 449.42 459.52 304.11 253.52 276.57 141.18 603.21 451.51 609.82 632.52 276.41 643.88 511.74 492.22 330.25 585.02 159.83 469.66 562.91 299.91 243.65 317.37 542.88 180.44 123.87 459.19 588.26 555.87 380.12 711.70 281.11 510.36 128.72 301.67 471.26 145.62 542.41 396.06 457.71 427.46 187.37 563.97 192.45 669.67 320.69 191.26 174.29 419.28 360.61 145.63 452.02 78.49 349.09 290.82 533.47 351.03 573.52 545.35 545.25 448.96 389.38 594.00 405.20 487.64 437.28 519.92 482.52 353.72 292.74 223.51 444.16 179.82 512.94 549.85 229.05 509.74 575.25 495.90 706.98 22.29 416.75 343.64 337.51 507.01 493.83 517.43 414.45 508.61 474.44 876.41 586.15 475.38 247.23 257.81 529.94 465.41 311.23 283.26 563.38 132.37 567.58 521.14 339.78 293.07 57.12 642.88 494.64 724.11 123.74 360.63 348.17 382.13 90.54 510.80 261.39 551.38 477.98 479.64 599.46 296.55 304.19 485.38 275.22 287.11 635.13 317.74 459.28 136.10 71.03 857.35 544.33 674.80 608.11 318.02 375.94 283.08 544.39 480.46 491.98 583.30 0.00 418.69 297.02 140.04 432.91 344.42 472.88 579.81 79.39 568.85 571.66 498.58 190.40 368.09 613.87 557.69 465.72 461.76 385.80 440.06 302.89 496.15 550.41 150.57 317.64 694.61 509.28 360.90 487.55 745.16 474.55 58.86 433.04 350.98 475.53 507.82 604.61 547.63
1136.55 864.57 470.26 704.72 704.62 260.73 373.32 285.19 523.09 557.95 297.22 591.08 656.74 525.74 426.97 619.90 553.84 768.97 250.17 757.20 566.09 611.52 286.58 644.32 458.59 676.80 599.43 246.17 258.77 220.35 909.20 524.67 387.46 637.91 677.51 276.29 38.57 1015.35 584.24 532.98 495.33 316.09 186.81 479.79 705.72 60.75 144.65 210.46 342.28 832.61 515.02 946.96 251.03 574.97 333.64 196.21 154.54 366.70 538.57 466.36 440.25 127.87 687.58 220.83 323.17 229.88 721.74 327.97 236.48 321.51 789.76 689.56 271.12 348.10 621.46 136.32 462.09 616.55 354.17 310.39 337.35 441.01 503.32 378.38 667.09 330.34 825.85 434.52 171.61 241.96 525.69 271.21 332.43 186.08 387.68 293.43 290.36 860.45 699.40 199.77 625.85 405.34 397.94 229.61 153.89 649.87 614.49 379.27 379.89 845.86 196.85 673.33 450.16 911.56 741.24 584.03 431.38 305.45 714.78 748.09 448.82 778.31 206.44 700.40 267.19 375.96 728.87 599.68 547.05 245.97 215.66 200.97 401.25 191.77 403.30 375.32 422.24 846.22 673.83 757.67 907.79 229.61 460.66 660.64 657.50 315.77 370.60 358.25 418.69 0.00 210.35 390.86 348.54 401.21 231.50 720.92 483.55 237.50 568.02 257.71 555.17 205.29 450.05 602.04 552.27 707.14 360.51 284.00 634.03 536.86 682.93 514.85 231.09 894.11 624.26 399.13 329.58 823.79 463.75 425.47 312.37 633.34 285.15 451.84 693.86 679.35
986.73 804.39 425.05 550.18 561.55 202.49 284.82 260.26 436.87 518.90 211.44 436.54 503.81 395.39 440.36 508.58 508.63 714.18 113.50 724.82 571.69 478.88 250.14 630.67 315.52 526.81 612.29 160.39 140.32 155.79 785.09 320.31 263.38 511.32 628.98 350.32 171.78 909.83 473.57 454.96 400.88 244.28 279.53 390.03 591.79 243.26 297.57 221.91 224.76 716.24 376.82 839.83 240.95 425.15 185.15 247.49 208.21 245.23 516.35 344.21 285.40 195.29 607.74 168.46 403.53 355.41 611.09 262.76 279.44 464.20 659.41 621.37 272.90 401.42 535.68 112.83 354.37 450.76 320.49 161.76 389.34 388.03 399.47 386.07 648.30 414.85 756.36 305.65 301.04 157.44 409.26 337.02 335.47 327.00 296.18 305.03 349.36 883.82 660.42 288.58 477.67 350.72 391.97 295.42 77.91 480.45 597.37 196.32 450.08 719.27 116.84 511.44 301.53 817.52 615.53 629.08 279.43 280.52 600.15 568.48 373.79 670.59 71.58 634.02 313.23 285.01 672.51 458.13 524.05 304.97 67.17 52.34 409.15 146.83 358.09 226.83 225.99 842.50 622.99 728.76 806.24 212.58 401.33 524.74 612.84 307.25 378.55 377.75 297.02 210.35 0.00 256.00 352.80 341.08 302.89 678.16 340.74 378.42 536.89 348.81 431.09 228.66 469.50 557.38 517.11 591.73 315.57 242.04 490.96 477.88 623.46 365.03 134.06 804.00 561.41 317.56 337.74 784.94 356.04 336.61 378.18 484.85 386.64 403.43 633.68 611.68
857.82 659.66 595.41 449.08 339.47 254.72 203.35 291.08 494.65 368.10 301.02 365.26 313.55 215.17 610.56 356.54 679.76 549.71 282.21 552.46 576.13 409.28 280.96 476.72 93.44 403.27 446.96 262.61 200.58 343.67 616.87 295.08 32.45 421.48 534.40 557.52 357.20 739.36 231.96 396.11 242.66 266.07 503.37 282.47 456.67 331.55 492.84 470.26 283.93 545.52 154.74 583.83 285.09 275.76 138.69 444.68 319.56 215.57 336.07 135.72 383.65 371.72 442.05 285.99 536.59 450.38 450.37 453.86 386.29 602.20 479.19 396.22 342.31 546.47 423.20 307.93 174.09 235.14 441.07 149.11 572.81 605.24 355.64 477.25 454.00 588.77 621.24 134.03 483.00 348.54 250.46 470.08 459.42 488.07 439.23 500.46 501.09 787.38 494.73 489.52 320.26 369.55 519.99 428.48 236.97 344.86 451.48 85.27 583.14 587.09 224.01 383.23 193.97 646.80 482.20 776.29 57.35 311.34 384.27 385.44 215.59 490.31 184.42 459.96 450.78 436.23 508.04 247.40 427.65 456.70 200.79 210.14 607.41 249.88 529.22 41.13 148.05 723.53 469.30 556.15 660.17 314.93 318.62 303.74 452.97 465.35 522.26 571.67 140.04 390.86 256.00 0.00 337.11 205.93 435.95 488.39 164.94 539.49 433.17 487.47 200.16 332.28 605.15 441.74 349.77 395.37 248.82 449.76 268.88 357.66 458.99 236.12 341.76 603.19 421.76 335.47 451.95 662.35 468.80 176.61 511.24 284.59 548.48 546.48 532.68 407.98
1122.80 549.60 728.35 687.91 523.99 187.45 200.73 112.78 715.67 266.93 153.14 658.09 568.41 546.53 660.42 384.08 790.25 497.09 438.90 444.36 849.90 402.24 102.66 398.02 381.57 377.53 414.22 204.19 266.22 429.20 826.25 539.59 369.34 436.24 395.24 557.44 348.46 729.93 486.63 280.12 526.15 156.03 447.24 541.58 431.53 409.29 451.52 441.97 462.88 557.16 395.93 658.40 138.21 570.72 283.41 467.55 265.31 404.91 343.07 472.61 583.26 410.60 442.07 228.70 613.44 338.45 412.23 529.17 194.80 571.52 706.18 415.60 322.26 621.48 420.85 322.38 339.43 444.36 214.16 305.80 609.40 662.33 608.97 236.22 427.68 678.88 539.77 455.20 482.35 478.94 274.38 557.08 292.45 372.13 616.83 594.49 583.07 723.73 401.88 483.79 581.84 605.02 291.02 515.48 293.13 599.72 399.16 375.24 670.14 599.99 250.17 636.29 457.48 563.02 429.65 802.45 394.46 133.04 618.37 524.11 442.75 519.41 293.00 351.86 544.81 235.35 442.36 502.07 700.15 538.68 306.24 314.67 651.26 215.67 661.39 331.10 443.40 648.78 443.78 533.97 597.79 197.18 293.79 544.66 427.45 540.96 639.67 593.47 432.91 348.54 352.80 337.11 0.00 131.18 512.80 422.26 439.42 423.55 358.42 567.90 381.35 228.99 743.80 421.34 329.37 442.45 149.93 475.75 523.74 282.91 452.52 510.60 434.62 622.57 418.75 552.76 248.79 602.97 669.96 491.77 591.25 395.56 595.04 689.70 378.89 454.62
1020.76 527.61 692.90 586.67 440.87 156.54 69.55 122.07 584.49 291.09 197.11 571.19 519.48 421.10 689.39 332.76 743.36 427.93 429.46 442.63 782.06 324.38 131.97 360.47 299.37 415.57 315.58 198.64 259.39 422.27 822.80 501.01 238.38 361.38 373.25 551.89 364.83 711.58 421.28 190.18 448.59 138.41 476.55 488.40 414.48 376.22 460.81 525.93 429.74 540.11 309.84 603.95 156.23 481.69 170.13 507.59 262.73 368.43 272.57 341.65 576.43 390.94 369.96 222.28 617.84 307.37 395.18 553.35 224.96 600.83 685.12 393.13 293.54 647.22 367.06 315.96 242.33 441.07 302.70 296.36 640.24 680.23 549.58 364.03 346.75 667.22 520.39 339.96 497.50 448.03 205.59 574.74 329.41 386.76 604.32 579.29 543.71 636.42 385.43 513.10 503.17 571.15 324.96 538.29 289.09 550.79 300.52 291.20 632.19 549.81 246.13 566.14 399.90 613.88 375.20 798.41 263.28 113.38 487.19 486.84 421.52 464.96 287.45 419.50 529.61 267.22 420.64 436.72 633.58 556.58 273.91 288.74 680.57 211.63 625.94 247.06 341.99 517.60 360.32 424.40 579.11 215.20 173.52 509.67 343.99 505.51 622.05 622.78 344.42 401.21 341.08 205.93 131.18 0.00 530.82 400.71 361.39 438.18 227.24 585.92 384.41 238.28 751.88 321.14 258.87 420.00 42.89 493.65 474.81 151.73 371.59 432.57 414.37 582.77 348.25 541.40 260.70 539.94 597.29 382.54 560.34 339.59 609.24 654.25 356.90 392.21
1068.81 937.66 304.64 743.76 775.42 428.72 496.88 408.75 464.49 730.77 424.06 645.27 713.44 579.99 236.13 748.78 399.62 915.69 320.69 916.72 490.48 708.40 410.14 805.20 529.39 798.07 760.31 424.51 432.30 275.38 909.13 483.12 468.40 771.56 783.30 121.57 241.18 1138.91 667.91 673.72 515.80 439.65 104.41 562.95 830.88 230.69 99.21 80.98 342.76 938.40 539.11 1019.78 374.59 619.08 445.39 106.56 364.29 434.56 741.18 525.28 362.56 182.06 815.00 370.74 100.64 414.25 811.58 244.40 418.04 166.25 749.55 778.28 313.87 174.52 727.25 277.06 610.04 640.61 528.50 409.56 167.29 238.95 517.87 512.63 813.81 184.72 981.80 495.17 137.12 275.75 649.25 49.07 465.13 324.47 260.23 94.02 81.88 1054.34 830.16 67.86 618.33 449.00 563.56 7.47 348.02 710.29 745.25 499.21 162.13 976.53 374.31 681.30 530.00 1011.57 875.77 366.27 493.30 429.01 798.31 821.39 466.38 797.17 366.82 842.02 76.35 542.18 882.81 677.80 585.51 107.37 359.15 355.23 186.40 354.15 249.08 477.08 454.81 1002.50 807.82 881.23 1043.27 421.26 613.20 717.78 812.82 147.75 245.54 135.72 472.88 231.50 302.89 435.95 512.80 530.82 0.00 851.68 552.27 273.05 704.33 55.10 577.60 399.18 266.61 818.31 754.88 801.96 487.93 138.43 682.92 677.52 837.28 558.96 262.72 985.25 789.52 353.69 531.65 984.67 383.66 531.74 87.64 711.89 132.27 255.71 766.95 831.89
1044.83 229.00 969.29 811.75 352.75 550.48 448.57 480.45 903.92 238.66 504.18 698.11 562.50 629.85 989.15 179.90 1052.87 117.45 694.52 65.04 1008.75 225.54 490.35 107.35 509.98 219.04 121.49 517.77 548.16 672.30 848.44 718.57 455.94 170.62 151.40 871.02 700.33 445.43 451.57 285.79 651.40 496.79 811.78 705.12 121.41 766.38 769.62 770.70 712.26 275.70 437.36 321.17 502.30 588.72 496.79 796.28 609.40 588.68 200.33 559.21 775.01 704.72 74.20 580.66 908.49 648.79 130.77 838.46 558.76 959.21 751.05 92.17 651.92 950.21 229.04 672.21 362.31 570.64 622.89 603.13 938.13 992.90 776.67 575.69 53.96 974.82 159.74 557.52 830.65 786.69 349.84 885.81 625.41 726.30 926.95 914.89 884.70 403.13 21.52 821.94 637.14 793.04 520.89 844.21 618.84 593.81 106.43 523.00 998.87 254.87 585.42 697.34 616.62 337.32 143.61 1137.70 499.86 471.76 598.27 364.95 639.08 233.37 606.58 70.40 873.54 587.41 77.38 436.13 740.61 840.31 614.77 629.60 1023.14 570.01 902.33 495.16 612.54 472.87 55.17 220.06 341.84 561.27 332.45 587.03 71.50 873.98 935.03 926.54 579.81 720.92 678.16 488.39 422.26 400.71 851.68 0.00 618.97 758.70 299.49 897.60 526.86 596.66 1068.37 126.96 186.63 283.96 401.27 820.28 556.10 248.98 78.80 648.84 694.03 213.84 137.07 823.19 534.68 230.09 921.32 581.54 919.92 337.72 946.91 950.87 138.63 121.24
692.88 764.08 574.21 284.14 353.05 325.39 368.29 361.66 509.25 468.94 286.28 221.94 268.45 158.35 617.77 471.63 606.33 670.27 318.67 683.04 573.20 474.31 369.43 584.13 160.06 434.25 554.37 337.33 303.19 395.39 491.24 162.53 163.03 492.65 577.02 634.73 444.98 773.20 201.72 551.57 114.34 344.98 532.85 127.30 568.66 466.51 490.69 506.32 247.20 589.66 232.65 704.30 342.30 131.30 253.68 480.74 423.82 193.60 443.48 67.25 338.02 370.21 572.63 357.53 638.28 553.13 549.36 453.11 434.00 673.39 405.77 526.80 445.06 599.31 478.67 388.08 281.50 144.40 511.74 185.57 592.33 523.92 304.86 577.32 604.39 555.73 733.23 101.68 496.14 391.61 357.87 582.94 438.90 590.06 459.69 577.99 520.16 894.79 625.31 530.13 183.82 281.86 597.52 544.80 345.22 275.78 558.89 181.01 646.97 600.53 349.15 246.79 39.21 685.71 574.03 740.77 176.00 381.92 339.17 381.35 123.52 498.05 311.79 590.54 537.81 506.81 628.60 217.16 283.19 505.91 287.30 288.40 714.52 364.97 507.25 156.22 132.49 877.47 588.64 663.56 687.50 385.60 351.37 233.93 572.31 497.90 539.95 658.31 79.39 483.55 340.74 164.94 439.42 361.39 552.27 618.97 0.00 630.98 588.63 577.97 177.65 404.83 534.48 549.15 457.18 442.03 404.28 473.04 223.78 505.85 579.55 71.18 387.11 697.73 529.17 386.20 530.86 772.06 503.08 58.08 512.43 395.00 554.92 555.79 593.37 532.05
1242.47 867.23 567.96 854.88 753.33 314.50 435.55 347.42 664.11 582.63 360.57 741.24 755.21 678.88 428.06 683.76 657.77 770.34 392.92 766.87 690.39 675.38 348.81 701.12 574.77 739.03 656.23 309.52 371.55 343.98 1025.38 674.21 528.69 707.26 727.92 338.02 238.41 1033.60 681.63 565.17 653.20 378.32 267.23 646.91 786.08 207.94 309.39 209.61 492.17 885.83 622.27 991.57 313.26 618.29 439.15 231.41 251.93 495.97 658.77 577.55 536.60 278.03 713.31 318.22 370.95 202.17 772.30 416.95 228.75 417.02 890.11 744.88 235.67 389.12 684.81 265.59 542.08 728.19 255.45 454.32 377.04 508.41 678.89 321.03 723.89 442.99 882.65 581.71 321.74 434.90 523.72 305.61 192.08 51.42 459.52 352.17 354.93 948.29 737.18 248.00 722.85 602.76 358.43 280.52 306.48 786.52 652.27 525.53 413.74 843.04 342.45 755.96 602.27 964.78 794.77 616.78 572.61 340.33 858.77 799.30 578.09 858.30 359.03 769.92 312.45 269.13 715.61 697.07 721.86 375.64 368.25 363.30 443.15 307.95 507.23 516.70 548.73 899.71 714.84 792.55 930.01 254.29 524.52 740.67 718.88 414.32 490.52 365.45 568.85 237.50 378.42 539.49 423.55 438.18 273.05 758.70 630.98 0.00 643.00 291.56 695.74 293.13 524.76 706.51 645.07 771.00 395.29 349.11 750.21 589.91 744.30 678.41 365.71 934.57 700.84 563.28 321.86 876.22 587.65 618.44 357.10 624.90 368.73 528.76 743.89 729.91
1170.05 394.98 919.88 813.91 529.30 378.98 296.79 304.31 811.73 257.23 377.34 798.43 676.58 571.02 905.79 299.11 970.60 333.59 627.66 359.28 1009.30 246.37 294.19 268.62 526.61 385.35 290.64 421.08 462.62 618.08 938.29 728.25 465.62 320.97 207.92 774.33 542.20 635.95 505.55 81.93 635.21 347.56 638.77 676.72 341.20 537.63 643.05 687.34 654.41 462.18 472.86 583.95 329.74 631.61 397.37 697.46 456.84 595.67 208.49 568.89 779.66 573.59 259.31 420.23 804.97 444.93 329.23 753.37 436.15 763.05 835.04 271.62 513.79 824.98 339.46 478.59 370.47 615.70 412.93 497.33 844.11 853.86 776.82 428.05 294.28 889.05 404.39 567.20 676.11 670.47 429.37 753.40 491.22 595.16 808.36 791.83 770.95 482.89 292.94 675.32 723.81 796.55 393.08 711.80 484.66 695.67 295.56 514.45 859.43 504.14 441.70 763.84 627.14 563.46 355.20 993.98 490.52 324.57 636.48 514.41 648.76 428.25 509.89 303.58 756.85 377.45 332.38 490.11 778.45 730.21 499.38 484.55 842.79 407.20 852.92 474.30 569.23 346.87 244.32 197.16 538.74 388.71 291.91 629.98 227.99 732.49 831.20 785.00 571.66 568.02 536.89 433.17 358.42 227.24 704.33 299.49 588.63 643.00 0.00 759.43 599.46 420.52 935.33 283.45 194.79 438.78 270.13 667.28 631.91 178.37 283.33 659.81 626.15 478.59 284.17 768.64 324.72 382.23 824.53 609.78 782.78 400.87 788.78 881.23 224.27 331.61
1103.21 989.18 282.63 753.91 806.89 449.79 551.98 463.85 448.37 717.92 479.16 640.27 712.70 627.42 222.30 743.54 366.21 970.79 319.93 962.64 451.89 729.56 465.24 851.12 560.86 829.78 806.23 450.39 427.34 289.61 936.59 475.66 480.85 781.08 834.82 100.78 290.40 1179.59 719.43 725.24 563.23 494.75 151.84 563.28 885.98 276.61 154.31 126.90 353.13 993.50 594.21 1071.30 429.69 637.70 496.91 101.32 411.72 425.33 767.64 575.32 388.25 233.58 857.50 422.26 144.50 409.01 866.68 258.81 460.94 125.46 801.07 833.38 368.97 138.53 782.35 328.58 661.56 674.34 533.30 453.03 112.19 216.85 536.21 507.39 868.91 157.93 1032.65 520.87 188.64 261.92 696.28 17.39 464.08 342.98 241.06 60.61 109.34 1094.81 876.08 115.29 669.85 462.09 562.19 58.99 380.96 744.01 791.17 545.13 122.18 989.03 388.98 727.82 555.70 1063.09 885.29 326.32 524.77 484.11 797.57 852.86 465.64 848.69 361.58 878.67 62.52 560.69 928.73 728.99 552.10 125.71 386.07 387.30 160.55 397.28 215.67 521.74 449.57 1057.60 853.74 936.33 1042.51 389.58 662.57 717.04 858.74 140.29 199.93 124.72 498.58 257.71 348.81 487.47 567.90 585.92 55.10 897.60 577.97 291.56 759.43 0.00 632.70 439.65 233.20 843.75 753.94 849.39 543.03 188.64 682.18 730.99 883.20 606.39 267.88 1040.35 831.17 344.82 574.55 1030.59 369.83 542.25 65.54 752.01 77.17 264.21 818.47 881.26
741.45 650.91 659.87 306.56 280.17 448.21 314.86 438.21 581.37 434.34 417.01 358.01 187.06 176.57 717.00 394.06 705.56 566.67 430.59 533.81 664.97 446.80 428.09 455.58 120.97 307.82 410.69 430.08 368.05 468.85 444.90 261.76 167.71 393.34 521.67 645.24 518.44 616.19 128.84 519.17 201.40 394.19 574.45 226.94 457.93 531.71 596.60 516.83 320.66 506.38 126.60 533.33 437.15 193.08 301.13 542.41 482.51 298.86 459.07 154.82 401.12 481.22 489.76 423.90 678.24 617.85 448.01 552.75 520.12 743.85 324.83 465.61 509.78 696.34 378.64 489.64 350.12 63.01 588.60 314.90 684.26 701.57 419.45 617.57 478.35 629.19 612.48 201.08 586.20 496.87 356.04 626.67 553.41 644.98 553.06 635.72 607.73 761.65 510.66 583.50 200.49 381.09 624.25 585.07 418.68 218.37 425.75 234.77 739.73 499.76 413.94 254.94 138.44 508.06 410.16 857.40 157.06 458.47 257.78 326.14 229.43 320.40 366.13 508.38 586.04 553.12 546.50 144.28 344.97 575.14 368.26 383.09 764.00 387.79 612.51 208.60 224.26 833.58 488.32 625.94 542.83 456.84 369.12 163.31 473.34 597.13 636.09 672.67 190.40 555.17 431.09 200.16 381.35 384.41 577.60 526.86 177.65 695.74 599.46 632.70 0.00 476.05 712.13 468.69 445.37 372.74 417.40 578.95 142.39 459.29 503.19 243.75 477.02 624.85 443.43 449.30 555.89 594.41 500.54 131.54 623.44 322.12 665.93 660.31 531.96 405.62
1069.27 659.28 574.48 660.53 586.06 110.28 231.33 116.21 585.00 378.41 122.72 584.02 580.39 495.47 592.96 479.90 660.02 638.35 274.27 645.92 620.91 471.52 126.33 538.31 363.13 523.57 519.97 113.21 175.24 264.87 786.57 430.17 308.34 521.40 472.22 466.46 241.11 840.81 515.49 389.16 448.98 162.86 346.97 436.41 582.22 266.04 349.94 384.48 383.86 682.26 392.34 771.84 109.04 499.76 195.23 387.42 85.79 275.83 454.55 411.61 459.80 247.84 522.46 60.20 499.82 177.34 581.74 428.53 64.38 523.87 746.09 565.29 184.23 504.90 471.11 152.84 345.77 484.27 185.44 232.16 531.24 549.10 515.24 251.02 572.47 535.63 722.37 390.38 373.77 323.21 356.71 422.26 127.14 241.71 513.78 472.81 449.47 655.16 575.14 331.32 560.21 515.26 246.35 392.36 156.07 562.99 504.91 278.86 527.94 650.25 128.33 603.33 365.62 771.99 590.55 680.61 352.26 136.47 653.96 632.03 333.33 659.81 193.59 565.70 433.18 176.86 596.68 524.09 588.30 405.08 191.15 176.32 571.29 96.31 509.48 292.79 350.43 718.69 567.48 588.69 737.22 50.07 320.66 573.43 553.78 389.05 531.09 525.10 368.09 205.29 228.66 332.28 228.99 238.28 399.18 596.66 404.83 293.13 420.52 439.65 476.05 0.00 630.57 510.20 440.85 567.14 195.39 362.52 538.57 384.98 547.63 447.57 286.60 745.52 496.98 411.62 177.99 703.76 522.11 400.70 466.47 476.53 473.50 537.79 488.57 539.35
1112.03 1199.87 157.25 690.59 887.53 628.98 696.31 639.75 379.29 908.84 646.22 703.17 763.30 627.91 116.89 907.58 186.18 1085.07 427.37 1125.19 385.30 896.02 641.14 996.15 666.16 876.99 1004.44 601.35 539.32 399.56 1025.04 556.73 637.60 969.58 1036.12 314.56 411.48 1274.44 736.20 899.27 648.82 616.98 343.63 612.36 1012.82 459.29 321.37 325.11 452.93 1080.60 748.06 1188.98 605.59 665.78 643.41 334.52 582.34 479.69 911.48 601.73 368.31 444.27 1021.54 585.13 306.97 602.79 1017.18 301.58 609.39 284.52 891.93 1000.44 503.28 206.18 947.81 502.61 779.24 678.88 727.08 560.47 232.52 81.47 475.35 740.59 1037.03 144.40 1177.39 636.16 364.09 338.80 784.04 230.53 677.22 576.18 216.37 172.59 269.25 1219.11 1050.34 307.08 718.30 437.40 791.36 269.68 540.71 794.61 989.38 609.99 226.94 1123.43 583.67 706.79 573.69 1181.88 1028.84 206.29 662.50 660.01 873.65 915.83 610.23 1025.21 541.08 1042.71 222.27 732.03 1063.65 751.64 664.08 243.13 525.43 521.84 261.27 564.68 166.04 646.28 554.29 1140.73 1013.20 1112.23 1149.95 580.50 808.47 768.41 1029.53 286.47 133.34 308.88 613.87 450.05 469.50 605.15 743.80 751.88 266.61 1068.37 534.48 524.76 935.33 233.20 712.13 630.57 0.00 989.26 925.18 941.91 712.50 268.05 758.26 903.61 1035.18 605.66 377.83 1203.84 988.42 320.13 723.00 1197.71 346.14 592.56 225.18 819.67 164.90 157.95 1029.16 974.79
1001.32 278.45 934.32 744.62 338.31 439.09 358.87 438.18 819.67 154.41 448.04 630.98 518.99 591.77 955.78 166.93 1032.68 177.90 650.91 180.66 881.79 114.19 448.30 73.29 452.13 175.53 58.00 396.99 459.02 633.16 803.46 664.86 460.91 103.49 139.38 750.24 605.67 461.47 390.40 262.45 588.84 438.20 748.12 630.04 132.25 662.79 722.29 737.33 627.49 265.94 370.23 367.95 455.07 593.69 429.66 744.59 488.62 573.27 105.67 481.90 776.06 664.02 86.78 477.19 809.45 617.93 121.01 755.86 544.90 875.06 722.56 97.14 584.59 847.85 166.28 569.02 267.65 509.47 528.23 517.81 839.93 925.45 763.26 535.47 92.21 892.22 231.86 535.40 739.58 683.07 222.88 852.44 554.52 662.81 849.32 825.75 822.99 408.96 120.41 778.13 620.99 743.43 508.38 810.84 498.06 550.30 73.06 494.22 930.77 305.13 501.85 653.83 541.54 367.22 139.20 1054.13 433.95 433.32 577.32 312.14 604.17 228.96 485.80 120.98 816.50 492.75 126.83 374.96 674.55 789.44 499.04 509.74 938.87 467.35 884.87 482.16 589.79 451.29 71.79 248.05 343.11 482.75 249.13 523.70 55.46 804.08 855.92 844.53 557.69 602.04 557.38 441.74 421.34 321.14 818.31 126.96 549.15 706.51 283.45 843.75 468.69 510.20 989.26 0.00 91.97 194.39 364.03 738.87 512.59 169.41 117.05 601.97 611.43 304.11 82.06 745.56 440.02 282.36 878.89 522.79 842.89 279.12 852.25 885.39 149.67 157.13
1018.92 326.25 861.91 722.96 337.03 415.41 298.64 361.61 727.70 62.44 436.67 656.10 485.42 499.80 896.65 148.64 945.49 237.57 595.89 246.42 925.90 109.35 371.32 126.95 378.07 215.49 124.59 402.23 464.26 598.30 763.38 572.89 382.22 128.61 193.04 755.48 513.70 522.02 330.64 203.58 496.87 377.97 697.83 538.07 214.79 585.18 655.67 678.20 619.87 338.53 318.77 459.92 395.77 512.48 404.41 652.62 463.28 481.30 13.70 389.93 733.42 588.68 146.45 471.31 810.16 525.96 212.98 750.82 452.93 840.18 674.90 157.69 492.62 836.48 144.67 493.68 175.68 472.98 436.26 462.79 819.26 885.52 689.20 443.50 148.34 867.39 283.12 443.43 647.61 674.55 241.14 762.97 514.55 618.49 789.00 804.45 766.89 456.51 180.08 708.72 529.02 678.95 416.41 751.71 483.88 516.73 129.11 415.76 876.12 336.56 441.31 569.05 449.57 380.13 231.17 993.59 341.98 341.35 485.35 319.62 528.71 310.35 474.43 190.39 774.02 400.78 207.11 346.08 664.37 722.50 449.94 464.77 914.49 459.83 794.95 390.90 497.82 504.95 131.46 307.72 372.91 390.78 157.16 435.19 115.13 764.38 827.65 830.19 465.72 552.27 517.11 349.77 329.37 258.87 754.88 186.63 457.18 645.07 194.79 753.94 445.37 440.85 925.18 91.97 0.00 246.13 301.76 703.23 457.00 107.14 158.06 510.00 606.39 364.66 89.38 685.24 348.05 348.95 791.75 430.82 819.21 274.28 760.28 843.49 203.33 211.84
890.71 414.24 842.83 658.56 143.92 530.63 403.41 450.93 859.82 255.39 484.33 611.50 396.07 421.02 960.05 151.16 926.41 337.13 634.51 333.66 928.43 194.85 460.64 262.82 374.11 64.92 218.99 509.52 519.42 627.00 667.27 599.42 381.94 120.25 267.00 847.64 697.55 426.59 280.98 403.50 485.21 425.63 697.55 564.60 185.85 726.92 739.71 755.17 630.14 250.04 386.99 384.56 485.09 481.61 446.42 756.24 552.60 551.43 235.16 440.53 731.32 708.23 216.67 552.46 902.60 658.27 180.79 749.70 542.25 929.50 603.28 222.71 581.94 899.91 135.74 621.84 298.89 341.46 631.56 501.41 917.81 866.44 685.24 636.45 286.60 873.64 350.42 439.47 752.06 702.18 273.98 836.74 605.62 719.58 786.90 849.95 839.40 529.49 269.35 734.10 475.59 674.99 636.49 795.14 590.41 412.90 232.94 421.13 933.47 236.03 598.77 513.22 476.10 323.51 161.11 1137.61 338.02 430.67 466.79 117.75 525.08 213.14 537.86 241.16 800.27 596.08 321.22 265.54 633.50 795.01 553.09 563.58 974.07 573.65 775.87 393.43 526.58 617.84 238.52 414.78 301.00 519.47 246.48 386.26 222.19 817.65 808.57 911.01 461.76 707.14 591.73 395.37 442.45 420.00 801.96 283.96 442.03 771.00 438.78 849.39 372.74 567.14 941.91 194.39 246.13 0.00 437.60 774.98 351.40 329.90 291.43 457.94 605.27 360.70 162.36 683.14 583.60 357.74 778.99 441.02 845.85 183.60 876.28 824.41 283.35 162.72
1063.65 565.32 678.82 629.56 397.98 173.87 112.44 79.18 627.38 311.91 154.22 594.74 526.39 463.67 697.42 337.87 729.74 470.82 393.46 450.53 816.30 285.13 89.08 399.02 306.28 372.68 358.47 179.41 232.30 401.27 796.31 524.56 261.93 359.73 410.96 532.66 321.94 734.20 464.17 227.96 472.14 95.52 433.66 509.68 420.85 393.42 417.92 484.69 386.85 557.99 352.73 646.84 113.34 514.88 213.02 464.70 245.68 391.33 315.46 365.20 548.57 348.05 327.07 179.39 588.57 298.09 430.51 530.25 182.07 557.94 676.24 372.90 250.65 625.55 404.53 273.07 272.47 414.42 259.81 292.22 599.21 637.46 546.42 321.14 389.64 625.67 534.79 363.51 454.61 465.36 196.10 537.00 286.52 343.87 602.14 566.70 500.82 679.31 379.75 470.21 546.06 577.35 282.07 495.40 246.20 557.70 343.41 328.99 650.06 567.68 203.24 606.35 429.31 641.27 418.09 755.52 305.85 70.49 530.08 443.95 445.07 507.85 268.22 417.28 540.46 224.33 435.61 464.10 666.77 513.81 279.03 267.74 637.68 168.74 611.86 289.95 384.88 560.49 374.72 467.29 606.50 172.31 213.24 516.58 358.39 516.09 579.16 579.89 385.80 360.51 315.57 248.82 149.93 42.89 487.93 401.27 404.28 395.29 270.13 543.03 417.40 195.39 712.50 364.03 301.76 437.60 0.00 450.88 481.72 194.62 414.48 475.46 409.75 550.13 390.05 527.98 217.81 545.86 623.03 406.09 575.57 349.39 568.52 660.40 394.61 431.93
1040.43 937.95 252.60 697.17 751.25 372.66 459.83 371.70 330.89 640.79 393.56 600.21 596.58 535.48 285.90 703.37 336.18 895.64 229.72 885.32 427.04 691.81 373.09 793.36 505.22 763.31 748.47 364.01 335.11 147.98 912.15 400.58 447.84 706.11 803.80 260.00 246.30 1054.09 647.10 639.07 471.29 402.60 166.90 452.60 814.74 289.21 139.47 139.50 296.17 927.58 559.04 1033.59 337.54 547.89 379.94 165.08 383.37 360.91 716.93 488.30 224.13 234.04 777.95 317.08 239.07 401.47 795.44 183.73 383.81 275.70 799.50 795.66 426.44 263.07 739.30 329.04 592.36 594.28 517.71 300.65 262.98 186.58 444.44 538.98 816.13 225.29 950.87 435.13 112.39 162.90 515.99 171.25 488.26 400.53 151.26 175.80 107.32 996.49 798.76 144.53 589.26 357.40 524.37 145.90 319.95 627.89 733.41 386.02 300.56 914.06 337.75 619.52 480.54 987.07 810.32 474.34 469.13 391.96 681.45 758.18 349.52 884.56 286.45 814.75 126.12 502.25 854.62 631.66 553.59 62.93 261.96 276.79 318.63 353.19 185.64 408.63 402.51 965.45 795.98 844.18 952.30 312.45 576.15 600.92 794.33 65.21 218.34 221.93 440.06 284.00 242.04 449.76 475.75 493.65 138.43 820.28 473.04 349.11 667.28 188.64 578.95 362.52 268.05 738.87 703.23 774.98 450.88 0.00 566.06 640.47 825.44 514.45 169.71 998.79 752.47 255.02 497.42 972.83 327.60 447.41 183.08 666.65 222.20 213.95 817.79 781.11
648.33 720.93 679.92 317.16 207.48 516.83 457.25 528.18 597.74 407.61 471.48 281.71 44.67 167.81 824.23 423.30 768.33 632.62 485.10 609.49 725.57 455.49 518.06 552.01 175.44 337.06 507.12 498.99 437.68 522.03 360.24 313.38 255.45 412.99 566.57 775.96 595.46 678.63 126.36 613.48 232.00 495.80 625.87 306.18 485.18 600.43 583.71 659.22 373.84 487.66 257.34 603.06 514.82 177.23 368.42 652.40 536.98 361.91 450.78 229.94 484.16 593.71 486.03 478.37 783.56 687.48 477.25 589.35 582.67 807.64 274.57 494.85 579.41 760.64 407.88 529.04 395.04 79.38 682.06 386.21 775.54 747.09 421.31 686.83 556.23 682.37 649.75 285.77 637.67 547.00 409.80 699.57 607.88 732.72 627.53 714.13 660.91 770.23 538.71 662.42 124.19 406.50 678.72 690.39 499.66 75.98 522.18 294.64 800.98 488.07 476.76 161.82 245.77 588.94 488.91 910.58 211.53 548.44 115.39 253.45 216.54 458.16 453.30 537.62 664.45 662.85 594.57 141.80 302.89 628.99 437.89 452.72 842.73 442.26 675.56 278.23 304.15 916.30 531.26 704.00 575.04 511.31 406.66 34.86 514.93 631.27 708.26 787.99 302.89 634.03 490.96 268.88 523.74 474.81 682.92 556.10 223.78 750.21 631.91 682.18 142.39 538.57 758.26 512.59 457.00 351.40 481.72 566.06 0.00 517.04 581.07 236.83 532.53 593.77 463.08 532.34 610.36 709.14 516.91 251.09 735.93 319.64 759.35 670.61 550.22 434.86
1099.58 375.88 835.37 738.40 350.93 308.27 221.28 268.77 736.22 159.60 344.15 719.23 561.71 556.05 841.12 187.55 895.09 296.90 488.75 314.02 933.79 216.49 278.89 208.74 409.46 273.79 163.85 350.37 411.12 570.49 808.97 644.89 390.11 209.65 221.52 703.62 515.39 578.86 415.78 96.44 552.54 290.14 623.47 610.07 271.24 527.95 607.51 677.66 512.73 404.30 397.00 452.22 302.93 568.15 321.86 659.32 409.42 454.76 120.84 445.60 674.45 542.67 223.58 374.01 769.57 459.10 259.37 705.08 376.69 747.75 701.69 241.40 445.27 798.95 251.81 467.69 231.35 443.28 422.32 355.65 791.97 827.05 701.31 437.64 195.02 795.31 368.66 491.69 649.23 599.76 291.94 713.60 481.14 538.49 756.05 731.02 695.44 484.69 233.70 660.02 636.16 654.87 402.67 672.00 440.82 593.02 148.79 442.93 783.92 398.08 397.86 624.72 521.57 462.15 223.47 950.14 415.01 265.11 592.49 396.90 573.25 313.23 439.18 267.77 681.34 386.84 268.91 431.22 720.04 702.07 425.64 440.47 827.49 363.36 768.41 398.79 493.72 525.24 208.59 360.25 427.38 361.90 154.48 532.35 192.26 657.24 773.78 769.70 496.15 536.86 477.88 357.66 282.91 151.73 677.52 248.98 505.85 589.91 178.37 730.99 459.29 384.98 903.61 169.41 107.14 329.90 194.62 640.47 517.04 0.00 219.86 565.67 566.10 431.04 196.52 686.26 334.31 388.21 749.02 486.49 712.07 222.50 760.97 805.98 205.17 283.50
1090.13 200.67 936.10 809.75 373.59 504.15 369.77 488.63 885.76 220.50 489.78 700.14 591.35 628.28 974.75 205.30 1019.68 90.72 701.15 110.59 998.84 231.24 483.00 80.53 495.58 264.34 92.50 514.04 549.08 704.65 821.62 689.17 426.54 172.65 75.41 867.29 644.36 491.07 475.54 236.44 619.24 449.10 782.66 676.77 177.45 715.84 740.50 756.30 682.86 305.96 439.39 318.51 487.90 624.01 498.82 781.88 605.67 611.96 144.36 512.30 840.49 662.38 95.04 574.39 894.09 599.44 161.03 839.29 579.60 951.86 729.80 127.46 624.75 935.81 199.92 603.87 306.34 566.20 547.88 573.73 923.73 959.71 779.46 499.70 24.84 966.91 226.73 528.12 778.27 780.90 339.93 871.41 604.05 697.31 898.22 889.28 886.21 404.40 91.13 819.21 636.35 763.64 444.90 829.81 549.58 622.66 92.03 493.60 984.47 332.83 506.62 699.32 588.27 374.36 197.92 1058.90 470.46 484.97 616.01 373.20 609.68 278.84 585.01 100.66 844.87 551.86 49.05 481.43 743.71 841.82 582.41 571.12 984.02 541.12 869.14 467.43 599.05 426.25 80.57 232.57 339.59 546.87 303.06 565.12 70.71 877.10 901.84 912.14 550.41 682.93 623.46 458.99 452.52 371.59 837.28 78.80 579.55 744.30 283.33 883.20 503.19 547.63 1035.18 117.05 158.06 291.43 414.48 825.44 581.07 219.86 0.00 632.37 694.86 211.18 129.07 794.46 506.11 203.36 897.51 553.19 907.95 360.16 890.94 917.68 77.49 176.69
621.70 816.90 585.13 212.96 374.76 381.86 439.47 432.84 521.70 535.09 357.46 153.56 233.05 97.66 688.95 520.76 670.72 723.09 338.26 712.91 546.97 545.49 424.28 636.95 231.24 434.52 607.19 407.08 345.05 420.00 420.06 160.75 223.34 547.59 629.84 651.63 476.28 818.76 223.71 586.75 43.16 416.16 527.65 138.62 583.73 537.69 532.10 541.70 276.35 611.65 286.65 757.12 413.48 60.12 310.41 516.12 453.66 206.53 496.30 120.07 397.83 441.39 602.50 387.37 659.60 609.04 574.71 464.43 505.18 721.87 334.59 556.67 514.03 643.53 505.34 436.91 334.32 180.74 568.21 256.75 663.51 595.10 233.68 633.79 657.21 584.88 748.30 170.46 550.49 404.54 387.15 593.74 510.08 626.99 501.11 597.58 563.42 841.69 655.18 491.10 112.64 280.08 644.85 552.14 382.13 204.60 611.71 168.71 690.47 628.20 376.79 175.61 110.39 710.91 586.37 811.95 228.82 453.10 324.30 340.19 164.93 564.15 329.58 620.41 566.96 577.99 681.42 239.15 212.01 551.58 354.07 355.30 731.07 411.29 520.18 212.85 167.87 934.10 629.75 716.38 676.14 442.07 417.52 271.69 613.42 496.12 552.88 684.88 150.57 514.85 365.03 236.12 510.60 432.57 558.96 648.84 71.18 678.41 659.81 606.39 243.75 447.57 605.66 601.97 510.00 457.94 475.46 514.45 236.83 565.67 632.37 0.00 435.04 719.72 581.99 446.01 602.04 815.68 503.53 113.02 583.61 416.99 626.10 568.72 646.19 532.32
969.03 837.44 331.34 559.69 635.35 257.83 387.74 330.57 315.06 616.40 304.13 526.58 527.93 448.08 412.71 597.86 423.98 740.55 97.85 747.36 494.62 586.30 331.96 684.72 389.32 660.87 669.43 258.50 229.60 21.73 843.50 375.87 309.31 600.60 704.46 355.76 192.52 971.91 550.84 557.88 402.10 342.39 205.67 378.88 719.64 246.30 163.51 239.86 158.69 823.05 432.79 870.62 296.41 443.26 274.43 247.80 279.08 229.58 620.09 388.70 241.63 103.22 697.02 259.59 363.36 383.83 723.97 144.43 350.98 370.30 641.50 673.08 369.49 296.03 627.99 179.25 470.71 468.03 444.18 230.95 322.37 327.47 383.82 502.92 703.64 280.79 843.29 295.35 193.09 96.91 452.10 285.27 413.74 314.29 288.17 302.61 234.13 941.76 672.51 242.22 419.55 310.47 493.07 270.19 211.97 511.51 683.61 314.17 375.55 808.55 219.76 482.52 361.15 855.20 704.81 579.69 353.23 350.83 631.21 671.08 315.99 779.05 180.94 722.53 252.93 419.07 685.82 535.40 475.52 189.74 156.45 155.26 421.81 254.26 273.44 304.10 294.57 821.71 683.22 803.05 820.43 318.04 504.25 560.33 666.89 223.41 244.49 391.64 317.64 231.09 134.06 341.76 434.62 414.37 262.72 694.03 387.11 365.71 626.15 267.88 477.02 286.60 377.83 611.43 606.39 605.27 409.75 169.71 532.53 566.10 694.86 435.04 0.00 880.05 650.69 203.84 464.59 846.43 278.97 347.81 269.35 562.12 323.02 292.48 688.11 700.96
1149.04 350.07 1108.73 873.59 495.97 705.49 580.95 629.31 1071.23 405.97 659.19 820.17 549.10 684.49 1148.85 314.81 1192.31 270.90 843.38 209.72 1146.63 367.28 639.21 276.95 641.32 330.82 303.68 667.95 683.07 885.19 864.67 833.37 570.74 292.68 286.59 1021.20 855.54 279.89 496.01 447.62 733.74 645.65 928.20 810.61 283.88 927.02 886.04 962.89 827.06 258.21 559.42 107.33 663.47 703.52 618.85 957.03 743.16 768.10 355.54 674.01 986.84 873.56 223.06 729.52 1085.89 732.40 264.58 1024.48 707.62 1108.07 856.78 206.97 700.56 1075.46 302.23 794.27 517.52 615.08 745.75 717.93 1049.12 1132.34 923.66 710.88 236.02 1135.59 162.84 672.32 972.82 948.36 506.74 1034.20 784.51 884.95 1042.42 1031.25 1031.75 567.85 235.36 964.75 672.37 907.84 656.08 992.72 760.76 580.41 298.62 637.80 1142.40 215.38 717.80 683.94 736.94 163.18 254.79 1270.08 614.66 620.62 615.47 478.45 753.88 330.06 756.76 270.71 989.07 710.27 260.23 480.57 807.32 987.36 736.83 751.66 1171.31 718.87 1041.77 611.63 743.25 555.84 269.01 433.90 128.41 722.44 474.05 628.63 254.38 1034.17 1074.47 1118.73 694.61 894.11 804.00 603.19 622.57 582.77 985.25 213.84 697.73 934.57 478.59 1040.35 624.85 745.52 1203.84 304.11 364.66 360.70 550.13 998.79 593.77 431.04 211.18 719.72 880.05 0.00 275.28 938.66 712.71 334.90 1052.61 714.90 1060.95 449.50 1062.19 1090.31 288.67 266.96
1009.49 329.74 889.34 691.22 276.51 475.68 388.02 380.77 817.08 151.82 434.02 577.58 507.75 539.25 953.30 100.99 972.92 193.69 641.64 202.11 951.40 104.92 390.89 111.88 398.73 183.70 85.64 479.05 461.62 642.60 811.97 633.59 432.08 50.09 177.97 832.30 585.69 432.64 379.23 241.14 554.52 430.66 735.47 598.77 145.22 657.17 714.11 734.85 593.11 249.15 316.83 382.61 414.93 564.86 376.26 742.00 548.14 553.29 85.69 461.92 754.83 638.07 102.57 490.47 872.64 588.11 125.92 795.12 472.09 859.75 702.98 68.31 564.46 874.27 112.88 551.68 247.67 441.16 525.64 508.54 888.61 912.95 709.86 532.88 137.54 901.64 247.65 486.99 719.60 718.85 273.44 813.78 576.54 649.42 841.57 828.35 823.65 367.13 124.38 772.02 587.27 690.03 505.79 796.99 539.53 539.06 70.58 460.54 943.90 258.04 530.46 624.90 510.27 290.75 154.30 1082.74 413.97 360.51 557.34 280.11 550.77 220.97 512.22 132.05 832.02 490.16 178.12 394.67 621.15 788.77 494.24 509.07 939.49 503.90 822.38 416.40 533.63 472.62 81.90 263.84 283.53 473.90 246.54 470.30 71.25 797.80 855.08 881.70 509.28 624.26 561.41 421.76 418.75 348.25 789.52 137.07 529.17 700.84 284.17 831.17 443.43 496.98 988.42 82.06 89.38 162.36 390.05 752.47 463.08 196.52 129.07 581.99 650.69 275.28 0.00 737.81 437.43 306.33 842.41 484.66 877.16 238.27 832.27 870.92 188.26 122.46
923.87 952.92 259.94 540.09 627.97 390.67 511.79 467.34 214.16 703.57 399.62 458.59 562.86 462.92 304.73 692.01 359.49 875.67 231.95 887.93 309.46 664.47 475.46 718.10 385.66 618.22 762.99 348.57 365.22 225.57 864.62 285.26 367.92 710.63 784.19 443.36 396.36 954.31 567.43 724.89 404.23 432.46 296.64 308.77 769.70 422.75 254.48 353.67 173.53 760.47 467.56 919.30 455.64 424.28 474.16 355.33 417.71 272.14 671.54 403.54 48.18 307.06 777.52 351.42 418.97 573.09 758.41 153.51 476.00 468.38 724.52 731.69 555.97 413.66 689.04 383.09 509.56 512.31 577.02 330.61 387.32 269.77 256.83 641.55 773.79 294.24 934.27 381.90 309.87 186.35 585.93 327.44 538.76 518.13 103.76 284.21 283.05 1022.51 801.67 333.19 533.30 181.45 608.90 351.19 395.47 587.05 778.05 402.44 414.78 803.30 422.03 537.42 346.99 861.75 770.07 526.42 392.82 472.20 647.73 673.94 315.80 766.44 374.05 795.43 282.31 588.48 839.62 563.62 455.01 282.14 360.29 359.10 401.76 387.53 208.95 376.60 309.41 1025.55 775.06 891.62 890.27 449.82 654.09 567.20 758.73 208.11 186.79 383.89 360.90 399.13 317.56 335.47 552.76 541.40 353.69 823.19 386.20 563.28 768.64 344.82 449.30 411.62 320.13 745.56 685.24 683.14 527.98 255.02 532.34 686.26 794.46 446.01 203.84 938.66 737.81 0.00 589.61 987.35 133.33 362.65 342.05 499.54 334.16 211.01 782.21 716.02
1223.74 624.91 734.88 782.08 615.79 245.18 265.21 197.88 700.59 410.49 244.58 728.81 655.03 599.88 722.77 496.69 820.10 585.62 431.47 594.47 798.90 457.40 208.00 475.00 434.92 518.68 472.64 269.77 322.66 442.86 964.56 608.16 446.68 476.66 437.85 572.52 311.52 870.07 611.61 406.65 583.88 185.88 494.68 605.74 562.84 354.61 453.49 504.32 541.57 677.38 457.48 786.53 197.97 605.24 313.26 485.60 233.50 453.82 361.75 549.95 623.14 400.82 494.50 238.19 561.55 177.91 561.03 552.34 113.61 590.55 857.46 505.74 256.45 578.58 466.23 330.83 418.34 602.30 88.21 385.00 552.24 684.00 607.53 103.33 485.81 659.92 631.17 497.58 445.43 495.18 401.58 557.16 166.50 270.44 633.92 587.14 544.42 804.56 528.13 463.79 698.83 672.97 68.36 524.83 300.53 686.34 477.16 439.62 645.52 684.61 288.52 742.09 517.24 716.04 557.78 840.80 471.01 181.34 725.75 661.76 511.32 647.54 353.08 538.44 563.22 52.73 555.16 596.17 746.14 500.03 362.30 353.02 670.29 254.02 683.06 410.82 499.84 671.59 479.51 521.88 720.96 184.97 365.53 645.22 463.18 562.63 669.52 582.49 487.55 329.58 337.74 451.95 248.79 260.70 531.65 534.68 530.86 321.86 324.72 574.55 555.89 177.99 723.00 440.02 348.05 583.60 217.81 497.42 610.36 334.31 506.11 602.04 464.59 712.71 437.43 589.61 0.00 669.39 693.78 546.41 598.94 524.27 558.10 711.37 454.20 559.89
1237.51 56.50 1139.46 900.97 501.66 683.47 573.13 625.04 1036.91 371.65 637.17 864.51 753.81 770.84 1122.14 365.56 1218.05 112.64 876.96 172.11 1164.15 396.55 634.94 269.25 634.61 411.72 224.36 679.35 696.47 860.30 969.82 856.17 629.90 337.02 231.54 1032.10 835.25 530.00 638.72 405.93 795.81 641.38 953.24 821.35 308.37 884.54 911.08 903.69 886.22 385.75 552.71 274.90 635.29 787.49 663.19 929.27 741.44 784.92 335.25 711.48 952.05 812.10 259.23 725.25 1024.24 739.02 289.07 990.86 727.93 1075.61 918.52 291.83 770.78 1083.20 389.60 777.99 497.23 657.42 704.01 743.86 1071.12 1159.41 945.74 655.83 214.52 1053.31 172.06 722.87 938.03 913.26 505.24 1018.80 715.61 829.17 1081.12 1056.21 1045.05 274.28 216.47 970.36 794.90 925.91 601.03 977.20 707.03 770.64 239.42 696.96 1131.86 401.13 709.98 849.35 732.85 374.03 288.66 1262.26 650.10 616.35 782.09 475.49 772.41 378.42 759.58 251.11 1006.53 707.99 160.61 623.28 908.08 1000.66 768.80 763.85 1088.22 714.60 1072.50 670.79 794.83 402.48 251.41 185.07 378.52 694.26 435.32 696.98 235.08 1032.07 1090.92 989.16 745.16 823.79 784.94 662.35 602.97 539.94 984.67 230.09 772.06 876.22 382.23 1030.59 594.41 703.76 1197.71 282.36 348.95 357.74 545.86 972.83 709.14 388.21 203.36 815.68 846.43 334.90 306.33 987.35 669.39 0.00 1094.95 725.95 1056.46 509.88 1081.83 1121.04 227.21 329.56
936.89 1086.25 188.89 535.61 724.39 524.00 527.74 569.48 80.83 746.09 532.95 421.97 561.58 546.28 423.72 741.42 336.07 988.23 273.60 967.74 215.65 794.16 567.30 851.43 518.99 751.55 882.62 481.90 478.75 257.24 819.42 362.51 501.25 814.64 912.32 468.36 439.02 1087.64 587.48 757.39 498.77 565.79 376.47 403.31 886.83 510.50 387.81 378.04 306.86 893.80 600.89 1033.87 575.38 485.69 523.58 403.62 519.09 405.33 778.05 520.86 165.06 372.95 855.38 484.75 479.62 630.33 867.53 182.54 586.49 414.01 634.30 865.02 611.33 441.84 808.08 442.80 616.07 437.53 676.53 406.70 415.50 293.62 269.85 707.04 907.12 324.65 1018.78 457.80 338.90 287.86 680.60 352.44 649.25 549.80 176.34 312.39 345.06 1155.70 908.02 413.02 553.31 298.33 732.02 376.19 433.95 592.89 869.01 501.78 492.01 936.63 419.79 552.50 463.87 995.08 903.40 465.10 526.15 589.74 632.30 770.36 384.01 820.94 416.49 876.55 307.31 641.05 946.56 572.04 333.80 315.34 405.60 390.77 479.48 454.29 249.90 493.15 442.74 1100.68 866.15 998.13 996.18 520.10 684.67 551.77 882.48 288.86 217.20 494.55 474.55 463.75 356.04 468.80 669.96 597.29 383.66 921.32 503.08 587.65 824.53 369.83 500.54 522.11 346.14 878.89 791.75 778.99 623.03 327.60 516.91 749.02 897.51 503.53 278.97 1052.61 842.41 133.33 693.78 1094.95 0.00 481.90 379.19 632.87 394.00 217.14 915.54 849.35
734.37 737.72 528.33 325.98 369.24 316.67 330.26 388.51 451.17 455.91 344.36 266.58 235.66 100.27 613.64 490.32 602.20 640.82 300.38 641.73 570.60 470.18 389.11 557.77 173.38 439.36 528.01 352.93 290.90 337.31 501.97 158.40 144.16 434.57 550.66 608.27 386.90 715.12 259.80 548.32 69.86 360.53 480.01 123.58 536.88 443.31 465.06 479.86 189.12 622.83 200.75 664.87 354.35 160.86 233.15 454.28 419.47 204.49 417.12 40.89 333.89 349.68 530.99 364.56 611.82 578.04 517.58 449.39 448.24 652.86 364.29 507.93 486.23 578.78 423.66 410.39 255.14 194.55 503.02 238.68 571.80 582.00 287.91 568.60 578.03 497.65 683.07 69.54 475.61 399.42 331.51 524.86 496.98 576.29 455.56 529.41 476.19 844.30 583.67 503.77 225.66 268.44 588.80 524.27 341.09 224.40 532.53 145.90 616.26 580.00 348.77 247.86 35.08 639.60 538.78 725.86 149.64 408.77 289.31 323.27 97.89 451.94 309.99 571.67 479.73 533.66 602.24 264.82 282.15 501.78 299.10 284.27 687.50 376.60 518.14 185.05 129.89 899.88 552.84 637.20 666.97 376.88 338.34 261.89 536.51 493.77 524.98 631.85 58.86 425.47 336.61 176.61 491.77 382.54 531.74 581.54 58.08 618.44 609.78 542.25 131.54 400.70 592.56 522.79 430.82 441.02 406.09 447.41 251.09 486.49 553.19 113.02 347.81 714.90 484.66 362.65 546.41 725.95 481.90 0.00 491.90 376.88 534.39 551.96 567.01 534.93
1097.65 1012.95 271.18 761.20 816.25 403.80 538.18 496.39 382.83 766.86 450.10 647.56 709.61 574.22 170.17 809.08 337.09 950.58 329.36 957.39 472.03 795.10 488.59 880.49 570.22 869.51 835.60 445.90 442.30 247.62 903.01 486.07 490.21 838.72 858.59 166.32 306.86 1144.74 714.15 748.88 561.76 508.80 148.30 497.74 918.52 305.98 186.85 156.27 362.49 997.01 617.77 1095.07 462.23 624.30 513.96 166.86 409.48 434.69 806.86 511.53 369.24 257.35 882.89 445.90 157.37 474.55 899.22 238.28 485.33 160.96 824.84 853.98 401.51 86.88 814.89 352.22 671.78 656.55 590.15 429.92 79.90 151.31 521.89 572.93 901.45 154.77 1029.22 455.33 202.81 271.28 677.99 75.31 522.00 408.52 238.29 75.57 75.76 1121.63 898.40 135.15 680.27 440.92 627.73 82.76 363.58 716.30 820.54 540.06 134.54 954.18 406.54 726.11 490.16 1075.92 927.68 338.68 534.13 516.65 781.21 815.17 519.79 872.46 406.87 917.72 71.88 579.41 895.85 729.59 567.06 120.15 395.98 381.15 202.09 429.07 230.63 514.04 489.16 1021.43 883.11 968.87 1041.15 447.50 685.49 716.12 888.11 150.70 234.29 189.58 433.04 312.37 378.18 511.24 591.25 560.34 87.64 919.92 512.43 357.10 782.78 65.54 623.44 466.47 225.18 842.89 819.21 845.85 575.57 183.08 735.93 712.07 907.95 583.61 269.35 1060.95 877.16 342.05 598.94 1056.46 379.19 491.90 0.00 761.37 60.28 227.79 842.24 904.18
944.47 453.38 759.48 601.74 128.43 400.11 341.99 361.63 713.70 300.24 353.81 559.92 364.31 333.55 804.27 204.92 859.03 431.96 499.10 402.76 793.02 164.93 371.75 350.15 263.33 118.68 306.04 404.86 417.47 566.04 626.02 455.65 271.16 211.09 299.02 758.11 603.52 454.77 193.28 318.94 397.74 400.54 622.72 477.05 270.16 616.14 661.55 680.34 492.32 260.93 210.91 424.24 395.79 394.14 355.58 681.41 491.71 432.46 278.62 335.99 547.72 593.50 307.51 477.55 812.53 597.38 258.87 653.05 481.36 827.48 479.19 276.47 521.05 772.76 189.50 550.41 221.74 343.23 487.43 366.00 746.42 769.31 504.32 553.01 364.58 793.78 434.73 328.69 574.77 599.36 217.17 734.62 548.81 573.48 603.30 739.17 739.80 605.40 359.24 659.27 443.83 564.21 578.50 704.42 479.45 395.62 308.85 302.16 839.70 303.76 463.36 481.46 388.55 362.21 270.53 1015.64 227.24 369.78 424.84 174.40 414.30 266.90 442.17 319.24 689.49 471.54 396.30 208.72 546.03 695.41 417.68 432.51 868.61 464.44 708.49 258.02 407.61 649.86 320.17 437.75 390.73 454.76 185.59 354.50 309.52 682.24 686.33 836.18 350.98 633.34 484.85 284.59 395.56 339.59 711.89 337.72 395.00 624.90 400.87 752.01 322.12 476.53 819.67 279.12 274.28 183.60 349.39 666.65 319.64 222.50 360.16 416.99 562.12 449.50 238.27 499.54 524.27 509.88 632.87 376.88 761.37 0.00 787.19 710.55 282.67 216.48
1138.39 1057.09 271.84 774.91 842.07 464.08 581.33 493.20 443.11 765.96 510.38 661.27 752.10 616.71 207.65 816.60 344.99 981.66 340.93 1001.53 420.74 805.04 494.59 887.23 596.04 884.81 857.47 470.14 448.34 301.29 963.29 543.57 516.03 845.92 902.73 168.59 246.58 1187.23 756.64 740.99 590.12 524.10 178.73 558.02 932.13 294.39 220.24 200.41 388.31 1039.50 643.59 1132.31 459.04 666.79 543.23 178.49 421.77 433.41 746.58 554.02 382.34 301.49 889.92 433.67 142.07 437.89 912.83 298.56 444.49 159.96 868.98 855.22 412.30 94.85 845.43 344.33 702.70 699.04 562.18 474.03 78.90 211.59 556.89 584.56 908.62 107.11 1043.40 497.82 233.24 297.10 717.28 85.30 531.99 420.15 262.06 81.61 136.04 1128.66 939.82 142.18 716.61 483.09 626.46 126.90 415.29 758.79 854.91 563.71 172.18 996.67 434.28 768.12 532.65 1098.28 950.13 371.19 559.95 513.46 823.70 857.66 542.81 916.60 419.36 918.96 97.70 578.41 939.99 765.86 573.10 160.89 427.55 412.72 201.09 399.78 204.88 556.92 508.01 1029.40 891.74 965.68 1063.51 437.62 697.65 758.61 875.41 208.20 214.56 162.72 475.53 285.15 386.64 548.48 595.04 609.24 132.27 946.91 554.92 368.73 788.78 77.17 665.93 473.50 164.90 852.25 760.28 876.28 568.52 222.20 759.35 760.97 890.94 626.10 323.02 1062.19 832.27 334.16 558.10 1081.83 394.00 534.39 60.28 787.19 0.00 253.42 886.38 915.21
994.23 1118.35 48.93 686.92 794.69 530.50 644.21 585.65 221.34 797.30 538.96 625.95 701.13 631.70 249.04 845.73 179.15 1008.40 366.17 1015.91 289.94 806.89 587.04 929.11 548.66 759.49 940.68 488.40 495.04 300.25 988.78 431.81 559.55 868.23 974.93 350.63 451.56 1165.32 731.65 827.93 575.84 564.88 336.83 504.04 895.32 449.44 319.54 336.69 384.54 971.48 630.56 1124.90 551.49 571.11 542.06 338.24 568.67 362.19 829.79 542.61 259.19 395.70 943.35 531.03 356.35 615.42 899.68 235.49 597.76 387.77 813.02 917.28 534.29 314.67 830.31 471.73 720.57 654.67 716.85 461.30 306.71 76.48 400.38 740.67 942.52 146.31 1059.89 530.11 326.34 298.51 729.94 261.54 664.93 580.18 107.25 203.60 173.83 1101.61 951.03 300.28 643.12 328.28 685.87 263.18 452.14 732.44 929.53 492.49 359.09 1014.31 477.98 683.97 527.73 1072.76 911.34 364.24 575.60 605.91 786.00 840.66 454.07 907.71 399.59 960.05 240.70 688.44 966.73 716.21 550.94 218.22 424.08 425.31 370.69 512.48 48.54 536.63 436.79 1114.19 895.70 1058.13 1088.75 526.40 747.28 705.47 912.03 148.74 81.24 388.93 507.82 451.84 403.43 546.48 689.70 654.25 255.71 950.87 555.79 528.76 881.23 264.21 660.31 537.79 157.95 885.39 843.49 824.41 660.40 213.95 670.61 805.98 917.68 568.72 292.48 1090.31 870.92 211.01 711.37 1121.04 217.14 551.96 227.79 710.55 253.42 0.00 980.59 857.29
1134.42 170.71 1009.70 838.52 410.19 513.44 400.93 448.45 907.31 242.05 519.10 746.44 594.89 616.22 939.98 239.92 1074.74 168.21 693.92 171.53 1031.46 263.86 444.70 76.38 524.90 308.63 121.27 546.66 537.38 700.60 817.47 725.41 500.23 218.95 16.35 849.94 673.13 453.65 475.95 178.72 633.06 465.49 765.33 690.59 217.60 727.97 752.75 721.53 717.90 280.61 485.69 396.00 480.25 670.31 527.03 747.11 550.12 629.09 217.03 526.12 830.39 584.89 131.64 548.77 867.59 541.72 198.58 819.26 539.77 908.03 725.65 173.76 579.46 885.59 259.75 575.38 379.01 571.28 488.82 560.82 882.47 990.49 786.99 440.64 84.67 941.62 287.67 589.42 710.82 763.51 372.55 801.08 564.66 692.85 885.63 859.02 834.83 388.49 146.23 788.20 674.41 824.94 385.84 759.48 627.07 615.01 121.35 552.57 914.14 323.44 584.11 712.04 602.09 381.89 244.22 1118.28 505.27 428.19 613.44 401.10 664.90 330.39 607.06 160.49 824.37 492.80 126.54 491.39 790.01 790.44 596.17 581.34 938.41 557.71 942.74 540.69 651.87 367.19 120.72 155.08 410.41 516.99 244.00 515.36 117.01 862.41 932.60 877.37 604.61 693.86 633.68 532.68 378.89 356.90 766.95 138.63 593.37 743.89 224.27 818.47 531.96 488.57 1029.16 149.67 203.33 283.35 394.61 817.79 550.22 205.17 77.49 646.19 688.11 288.67 188.26 782.21 454.20 227.21 915.54 567.01 842.24 282.67 886.38 980.59 0.00 219.40
923.59 344.88 875.71 707.91 268.21 510.00 375.62 423.14 880.79 215.53 498.52 627.85 441.26 532.66 1001.87 168.50 959.29 238.69 676.28 186.28 984.11 174.96 432.85 157.37 449.00 97.80 119.65 520.97 531.66 692.87 756.83 667.38 423.76 100.36 221.11 874.22 669.76 369.67 330.33 344.76 568.06 454.95 777.43 632.56 59.22 704.19 739.06 790.49 680.08 187.32 367.10 267.61 457.30 556.54 426.53 810.72 524.81 603.78 208.15 516.14 764.20 680.44 105.82 532.84 897.88 630.48 42.39 845.39 514.46 901.71 629.81 59.99 554.15 929.05 159.46 601.95 333.39 449.40 603.77 557.09 902.71 899.32 720.80 596.59 168.46 906.52 223.79 525.34 791.25 746.43 265.12 863.87 596.76 691.79 819.78 884.84 828.42 470.61 142.76 813.98 559.05 740.30 590.60 836.46 606.28 472.57 134.71 490.82 966.96 179.11 572.83 576.10 544.06 288.60 74.22 1125.11 443.72 402.88 531.01 280.47 601.04 136.15 569.00 102.76 842.09 568.29 193.26 314.89 671.42 784.03 544.51 559.34 981.45 545.86 808.75 449.11 556.03 518.11 133.07 269.14 260.37 491.68 218.69 465.79 116.74 846.32 841.45 923.66 547.63 679.35 611.68 407.98 454.62 392.21 831.89 121.24 532.05 729.91 331.61 881.26 405.62 539.35 974.79 157.13 211.84 162.72 431.93 781.11 434.86 283.50 176.69 532.32 700.96 266.96 122.46 716.02 559.89 329.56 849.35 534.93 904.18 216.48 915.21 857.29 219.40 0.00
DEMAND_SECTION
1 0
2 1
3 1
4 1
5 1
6 1
7 1
8 1
9 1
10 1
11 1
12 1
13 1
14 1
15 1
16 1
17 1
18 1
19 1
20 1
21 1
22 1
23 1
24 1
25 1
26 1
27 1
28 1
29 1
30 1
31 1
32 1
33 1
34 1
35 1
36 1
37 1
38 1
39 1
40 1
41 1
42 1
43 1
44 1
45 1
46 1
47 1
48 1
49 1
50 1
51 1
52 1
53 1
54 1
55 1
56 1
57 1
58 1
59 1
60 1
61 1
62 1
63 1
64 1
65 1
66 1
67 1
68 1
69 1
70 1
71 1
72 1
73 1
74 1
75 1
76 1
77 1
78 1
79 1
80 1
81 1
82 1
83 1
84 1
85 1
86 1
87 1
88 1
89 1
90 1
91 1
92 1
93 1
94 1
95 1
96 1
97 1
98 1
99 1
100 1
101 1
102 1
103 1
104 1
105 1
106 1
107 1
108 1
109 1
110 1
111 1
112 1
113 1
114 1
115 1
116 1
117 1
118 1
119 1
120 1
121 1
122 1
123 1
124 1
125 1
126 1
127 1
128 1
129 1
130 1
131 1
132 1
133 1
134 1
135 1
136 1
137 1
138 1
139 1
140 1
141 1
142 1
143 1
144 1
145 1
146 1
147 1
148 1
149 1
150 1
151 1
152 1
153 1
154 1
155 1
156 1
157 1
158 1
159 1
160 1
161 1
162 1
163 1
164 1
165 1
166 1
167 1
168 1
169 1
170 1
171 1
172 1
173 1
174 1
175 1
176 1
177 1
178 1
179 1
180 1
181 1
182 1
183 1
184 1
185 1
186 1
DEPOT_SECTION
1
-1
EOF
