NAME: LDG170_2162_snow_170_0191
COMMENT: CVRP with travel times.  rootPos=2,custPos=1,demandType=6,avgRouteSizeIndex=2,weather=snow,lambda_cluster=1,lambda_random=4, T1=300,T2=700,beta=1, alpha(i,j) ~ U(0.8,1.2)
TYPE: CVRP
DIMENSION: 171
EDGE_WEIGHT_TYPE: EXPLICIT
EDGE_WEIGHT_FORMAT: FULL_MATRIX
CAPACITY: 337
NODE_COORD_SECTION
1 500 500
2 567 435
3 181 765
4 500 673
5 752 745
6 316 793
7 995 672
8 563 323
9 344 87
10 197 374
11 936 596
12 919 482
13 670 691
14 450 811
15 315 73
16 824 433
17 382 590
18 57 277
19 588 312
20 608 274
21 883 383
22 831 774
23 18 905
24 980 437
25 111 866
26 432 95
27 214 900
28 910 311
29 874 368
30 935 493
31 242 893
32 467 745
33 252 505
34 715 1000
35 540 192
36 561 84
37 789 758
38 924 812
39 183 714
40 447 320
41 616 795
42 526 919
43 60 338
44 32 926
45 56 645
46 914 770
47 628 313
48 960 43
49 278 667
50 41 616
51 512 846
52 906 261
53 296 909
54 735 732
55 400 772
56 969 200
57 197 342
58 850 680
59 948 331
60 993 155
61 275 471
62 737 9
63 777 354
64 668 883
65 175 328
66 592 33
67 489 126
68 945 156
69 982 784
70 288 555
71 572 186
72 754 116
73 643 601
74 149 155
75 746 634
76 817 708
77 412 908
78 701 89
79 836 283
80 998 873
81 974 842
82 92 840
83 652 815
84 666 1
85 341 392
86 115 862
87 865 304
88 106 564
89 943 914
90 259 579
91 622 508
92 461 978
93 706 977
94 47 458
95 642 413
96 499 762
97 32 595
98 796 844
99 955 356
100 0 56
101 97 182
102 499 766
103 694 545
104 943 951
105 897 760
106 137 810
107 402 364
108 181 659
109 437 901
110 360 814
111 398 37
112 878 98
113 70 199
114 878 557
115 719 202
116 912 602
117 327 611
118 595 618
119 27 963
120 885 461
121 290 411
122 24 255
123 710 210
124 107 895
125 157 46
126 878 250
127 241 205
128 353 209
129 280 990
130 308 192
131 557 189
132 600 608
133 189 636
134 285 277
135 696 555
136 903 666
137 956 927
138 737 875
139 538 366
140 982 745
141 670 515
142 12 593
143 376 551
144 592 716
145 590 375
146 864 588
147 512 141
148 649 211
149 122 557
150 950 29
151 260 289
152 31 119
153 314 783
154 112 598
155 930 101
156 889 412
157 769 802
158 611 793
159 653 539
160 116 649
161 950 608
162 622 646
163 557 846
164 463 441
165 307 373
166 573 676
167 876 341
168 627 841
169 455 681
170 45 882
171 201 729
EDGE_WEIGHT_SECTION
0.00 220.28 511.32 255.26 415.93 407.65 633.40 254.83 532.70 415.78 510.06 476.61 327.68 450.91 570.41 385.69 191.28 571.06 302.83 363.60 411.46 533.25 721.42 573.19 592.63 577.99 592.83 506.00 442.84 514.99 541.87 337.96 366.70 666.57 390.45 545.52 480.52 599.31 482.34 251.47 402.00 557.89 615.54 748.11 615.89 543.69 307.38 809.21 341.38 611.15 445.84 566.84 564.49 395.96 384.04 633.43 403.87 525.49 527.43 698.93 376.56 676.19 416.48 482.40 448.87 577.01 521.15 713.24 684.75 319.36 426.47 583.77 256.82 590.36 380.04 450.33 577.46 553.00 544.91 745.13 665.08 649.76 469.60 673.66 282.71 606.41 531.52 489.07 723.34 381.73 189.56 632.80 629.67 612.50 221.17 379.52 607.95 542.86 509.34 792.71 679.74 368.93 248.41 728.80 570.97 569.92 271.29 465.51 552.30 454.26 626.39 708.15 646.86 492.91 462.44 554.54 274.87 203.14 761.73 469.66 339.81 620.69 442.41 649.13 728.51 570.92 431.96 484.38 684.49 421.03 418.88 178.78 466.02 377.97 269.52 503.42 739.63 500.66 189.40 632.64 228.19 622.54 225.42 348.93 244.65 471.89 476.00 436.49 459.50 785.36 407.35 679.42 401.20 516.14 748.79 454.14 516.07 393.21 185.65 540.66 536.76 242.62 479.03 132.95 260.51 260.55 480.78 459.34 259.78 678.46 513.65
220.28 0.00 653.13 419.56 480.75 552.00 537.69 149.98 593.33 441.90 477.26 458.28 381.67 513.80 609.96 402.84 359.38 653.44 160.92 221.69 443.43 522.07 849.86 562.00 729.92 480.42 746.68 471.55 412.05 496.66 711.70 482.87 372.10 720.56 315.48 394.49 462.37 628.22 568.01 256.45 468.87 641.00 597.32 877.79 637.84 572.60 160.53 645.74 427.05 676.76 568.04 498.65 609.05 457.69 428.60 500.14 497.74 500.17 510.85 602.59 337.70 535.91 298.95 564.96 507.74 472.16 424.09 590.22 647.53 385.58 311.67 437.35 256.32 644.39 340.82 432.00 622.02 452.84 438.11 726.14 669.98 781.12 526.63 541.83 347.63 716.14 421.28 605.33 705.01 448.14 143.58 677.36 704.48 628.25 111.53 484.98 674.45 595.88 515.39 856.10 661.52 483.35 209.19 710.47 545.32 689.40 236.39 578.62 619.80 498.82 553.25 604.26 636.20 422.11 316.02 521.74 382.21 279.97 881.91 482.32 321.59 680.58 332.77 764.71 706.37 484.68 498.09 449.59 739.71 508.33 287.05 264.94 556.10 450.98 230.30 459.31 737.95 571.36 139.94 588.53 157.39 697.03 332.14 433.88 130.61 453.56 373.31 296.21 575.76 630.37 434.39 745.55 571.34 572.41 539.51 463.85 545.20 460.08 167.32 626.33 503.96 296.61 580.39 141.62 390.61 334.89 410.76 526.21 468.82 808.14 599.32
511.32 653.13 0.00 458.01 688.50 168.72 943.12 717.63 842.66 432.87 900.47 940.44 619.39 314.23 857.97 865.71 320.04 629.58 765.63 826.40 922.78 713.99 262.66 1024.64 180.06 866.78 147.61 1012.51 954.16 915.94 199.84 393.51 387.14 737.62 855.64 903.57 704.37 836.16 85.12 609.52 526.40 459.34 529.98 298.49 222.77 814.93 757.26 1210.87 226.08 302.53 419.02 1017.18 285.24 675.38 287.46 1074.73 488.71 802.86 1038.75 1168.65 400.89 1037.14 845.67 558.26 498.71 979.56 861.73 1096.65 900.31 339.48 808.01 1034.08 600.29 690.94 665.48 772.48 362.85 992.60 892.06 980.24 927.84 154.48 553.36 1065.57 545.82 166.28 944.02 290.28 899.02 276.92 630.45 453.62 705.53 442.12 732.49 393.41 294.99 751.73 1020.66 820.93 710.22 382.82 649.26 898.38 787.65 91.56 541.52 130.94 368.34 217.24 906.44 1146.20 637.96 859.93 912.75 904.24 305.42 597.60 332.05 897.80 462.00 665.72 932.78 206.49 855.05 999.39 668.00 723.56 294.49 701.08 832.63 595.58 175.85 617.15 670.37 843.58 906.98 669.18 700.72 921.09 701.06 285.57 366.69 509.97 695.68 856.41 834.05 892.94 262.78 1219.80 599.87 775.53 144.72 253.54 1128.94 944.30 676.72 517.61 663.62 188.75 916.95 534.33 508.68 537.80 527.36 497.77 957.48 554.02 397.74 254.90 78.07
255.26 419.56 458.01 0.00 360.97 292.99 625.32 432.00 771.10 528.84 519.83 561.59 209.99 219.22 808.81 476.97 207.17 740.38 480.00 540.77 586.80 447.74 641.89 664.89 537.78 730.90 466.11 645.01 577.26 593.75 442.44 106.27 430.47 527.53 645.71 703.38 379.74 531.37 394.83 425.90 253.48 302.63 689.86 686.37 513.77 534.54 543.15 921.21 304.69 571.68 190.58 659.96 363.34 321.99 182.89 789.93 584.68 432.96 666.38 805.15 410.94 853.36 504.48 393.67 594.68 754.18 636.12 777.06 623.18 335.25 603.64 767.58 200.16 779.69 304.05 409.26 355.63 769.96 572.47 684.56 604.51 594.91 280.54 865.38 476.11 551.56 582.59 505.99 612.10 347.83 281.22 389.37 496.40 653.03 432.56 165.99 569.37 416.29 644.43 1014.54 828.57 167.34 251.76 658.94 511.89 516.22 429.95 403.70 310.07 253.11 805.94 799.81 806.53 479.50 673.83 515.69 237.63 139.59 678.05 560.94 490.73 767.52 653.80 594.28 899.93 672.29 687.22 626.14 494.00 676.29 624.69 163.95 358.79 567.30 272.87 517.50 628.91 409.28 444.66 627.21 303.56 591.95 236.83 157.50 468.50 432.30 585.34 613.66 495.39 945.06 596.68 926.04 313.29 467.33 875.34 546.80 341.28 262.27 282.48 478.24 546.53 204.99 233.03 388.21 449.84 147.44 615.20 313.13 63.97 623.61 430.29
415.93 480.75 688.50 360.97 0.00 556.66 354.39 605.29 948.63 741.94 363.09 424.95 151.59 410.32 986.34 447.89 499.69 953.48 572.65 545.15 478.27 180.32 879.74 476.17 785.84 896.05 650.06 572.81 490.50 441.73 615.08 375.99 710.30 284.34 734.62 853.15 103.34 292.81 674.66 650.81 235.31 401.12 947.49 859.48 844.52 265.98 593.18 873.11 574.85 875.88 310.69 631.53 512.43 38.98 430.95 692.07 797.78 213.23 529.95 765.74 668.57 837.34 514.85 203.11 807.78 901.54 813.71 760.90 284.52 619.84 692.74 751.56 240.83 1000.01 155.85 135.32 478.19 775.32 608.19 364.54 284.49 805.81 167.71 911.30 698.64 790.74 579.18 785.82 373.54 627.66 355.58 523.58 244.21 949.21 473.04 316.27 873.57 157.94 562.36 1206.59 1027.99 305.68 287.48 404.70 238.70 708.64 661.92 694.14 430.18 497.12 983.56 820.16 955.73 290.78 692.88 322.56 517.46 251.28 902.19 420.18 739.32 980.62 694.28 770.81 981.66 618.58 847.89 798.29 688.02 836.96 717.36 256.16 703.91 793.90 266.37 297.77 351.25 166.37 552.02 290.52 339.28 896.15 494.46 211.23 523.18 243.58 779.16 597.64 775.22 895.76 812.19 1093.30 543.78 771.53 816.87 438.70 102.72 244.10 329.83 774.13 336.43 236.65 321.73 522.45 676.44 298.36 528.44 238.37 343.80 853.83 670.29
407.65 552.00 168.72 292.99 556.66 0.00 822.40 593.94 860.73 596.08 779.75 811.53 502.98 192.52 859.20 745.88 300.39 727.06 641.94 702.71 819.11 593.27 407.44 900.45 303.25 783.83 215.63 852.54 829.69 795.22 164.67 224.79 409.34 573.40 780.93 902.93 590.83 698.09 220.19 608.88 405.68 338.62 625.88 409.07 327.79 694.21 680.71 1139.72 221.23 409.30 292.22 913.38 247.42 554.66 152.84 985.23 631.69 682.14 891.62 1045.47 429.22 1015.30 772.10 437.54 651.14 916.12 846.92 1042.18 777.00 380.25 765.58 929.52 431.57 818.56 544.76 638.98 242.13 938.84 847.70 823.73 771.23 314.13 470.47 1037.67 523.79 311.42 842.49 386.53 771.20 361.99 536.96 363.91 537.66 578.70 576.79 267.52 400.01 583.01 857.94 953.82 779.90 259.51 528.54 776.67 666.93 260.28 523.72 269.08 247.62 96.52 875.75 1030.15 796.62 715.06 818.06 755.07 275.08 432.58 461.86 756.25 439.97 766.43 798.03 320.40 827.28 899.86 749.58 694.53 307.29 751.12 789.74 433.16 298.55 636.73 524.79 722.86 738.26 548.46 575.24 793.93 563.11 427.15 346.19 386.66 633.92 725.29 833.41 775.60 371.61 1115.87 618.31 894.68 24.00 373.77 1091.51 823.58 508.00 396.89 520.57 323.82 796.23 446.25 379.34 410.38 519.27 377.05 791.75 430.71 229.02 364.48 211.24
633.40 537.69 943.12 625.32 354.39 822.40 0.00 687.67 1014.88 979.59 123.34 258.77 418.34 692.78 1052.59 358.40 730.09 1160.63 676.58 688.05 377.96 229.13 1134.71 262.40 1051.04 935.60 968.29 461.07 393.13 297.15 916.06 654.23 909.79 564.13 766.57 882.00 282.45 254.64 944.21 794.14 465.15 634.04 1135.01 1090.23 1083.43 199.02 630.29 758.65 881.23 1095.23 593.93 488.94 866.82 371.30 732.44 574.06 1035.43 230.45 387.36 642.76 875.39 798.40 484.49 477.02 1014.93 925.66 831.55 645.56 153.70 858.17 721.59 736.13 502.72 1112.84 358.33 219.07 734.37 781.91 511.41 282.26 223.84 1020.41 489.63 910.77 884.35 1064.82 467.75 1057.12 295.15 920.54 518.23 710.16 545.26 1127.77 590.71 634.69 1063.33 332.58 357.49 1375.38 1199.21 645.28 391.41 341.99 179.39 1034.68 774.08 933.05 671.87 774.31 1010.97 717.52 1173.89 232.94 645.09 167.82 822.19 485.73 1143.02 274.43 859.28 1205.49 638.10 1071.79 1194.21 504.12 1014.63 959.71 911.01 1011.51 744.77 510.09 977.96 955.81 412.52 145.91 328.09 427.13 660.80 94.70 443.21 1092.32 754.13 542.24 626.81 193.02 831.03 615.48 1044.07 768.34 932.17 1262.09 798.40 1070.59 677.48 341.33 335.59 473.94 447.75 1047.84 135.98 503.40 508.31 679.31 893.91 551.66 417.01 476.12 683.29 1104.11 908.75
254.83 149.98 717.63 432.00 605.29 593.94 687.67 0.00 467.88 490.48 568.86 490.35 507.49 651.22 505.06 437.19 446.11 573.13 48.00 108.77 407.89 626.00 924.62 498.55 847.46 393.42 805.33 440.39 424.20 528.73 753.10 538.27 502.04 846.38 218.19 332.05 594.11 714.48 676.17 174.30 596.43 724.48 659.30 969.10 758.59 671.39 111.15 554.38 565.07 744.00 612.43 449.27 759.03 566.31 578.58 507.70 434.64 570.10 499.08 561.51 433.69 421.36 311.10 690.78 427.43 322.18 298.64 509.76 757.89 460.94 171.64 335.58 388.06 554.53 449.44 563.74 768.34 380.35 336.51 841.46 792.78 872.11 641.37 443.73 324.38 854.16 371.90 653.54 786.29 523.50 293.56 745.30 829.63 623.44 198.97 574.30 712.10 713.21 503.16 714.49 590.60 566.98 317.81 833.13 644.11 797.56 219.77 668.52 717.83 648.80 462.46 514.14 638.48 537.43 243.53 542.61 529.70 429.95 1016.56 447.51 407.41 625.56 223.50 902.73 650.29 414.11 423.58 348.84 783.20 426.79 196.26 414.92 631.46 378.42 338.92 574.63 819.23 703.10 65.43 703.85 272.71 683.11 441.41 560.98 112.42 566.02 247.86 181.66 623.97 530.53 417.77 622.67 617.94 680.61 534.64 379.50 676.94 605.22 299.06 644.03 595.56 422.43 634.62 230.29 346.39 484.87 410.46 646.36 495.97 916.30 711.63
532.70 593.33 842.66 771.10 948.63 860.73 1014.88 467.88 0.00 409.79 941.19 805.76 847.59 890.51 37.71 730.66 618.61 455.13 472.52 411.75 739.51 1036.37 1039.60 872.08 980.61 135.60 979.03 687.94 708.13 844.14 926.80 784.58 536.34 1176.59 322.09 299.34 981.79 1132.01 824.02 345.20 934.70 936.18 506.39 1049.76 752.58 1076.39 455.49 736.34 685.92 735.49 905.09 696.82 1003.84 928.66 834.64 736.65 353.95 944.73 748.39 718.57 516.34 558.98 604.57 1015.10 396.97 376.33 230.94 646.57 1105.71 588.03 328.10 534.25 758.25 293.75 826.05 951.42 948.59 459.22 628.86 1133.89 1175.85 942.52 992.55 461.34 388.82 966.83 619.45 637.68 1105.70 574.07 640.43 1051.08 1140.34 577.69 576.29 775.28 703.59 1075.56 776.99 471.75 391.61 785.87 749.50 1152.54 1053.99 891.74 418.82 737.88 998.92 900.30 97.11 621.77 407.45 850.12 493.90 907.64 603.72 735.84 1087.44 740.45 420.76 480.55 513.93 980.83 230.97 709.15 252.37 183.61 1057.54 181.42 306.28 711.48 704.73 290.02 769.30 976.84 1138.64 1033.36 523.30 1046.71 723.14 674.60 554.47 857.35 542.71 895.64 220.02 434.21 651.32 760.19 314.23 491.72 836.73 644.43 704.40 759.93 1035.98 925.91 686.74 723.02 949.80 762.53 931.10 492.86 341.46 793.25 670.19 957.07 777.38 996.64 825.33
415.78 441.90 432.87 528.84 741.94 596.08 979.59 490.48 409.79 0.00 912.95 844.73 655.83 650.40 425.10 762.55 324.16 211.54 499.19 508.30 820.40 884.97 629.81 915.05 574.88 485.22 580.48 807.40 809.85 806.35 632.71 606.21 186.74 940.66 514.80 609.11 807.99 981.84 463.43 327.36 658.51 787.14 268.67 656.50 394.43 932.72 553.60 1024.94 374.85 356.22 676.30 812.07 709.01 702.96 603.31 907.23 55.84 877.21 874.76 963.54 228.35 772.95 696.75 798.70 65.84 654.40 529.01 891.54 1019.22 285.25 525.14 757.02 590.15 258.07 718.41 827.07 686.44 768.99 686.95 1104.96 1024.91 587.35 726.11 759.26 193.42 561.10 738.91 227.89 1056.88 298.45 537.48 811.81 901.43 350.99 552.07 546.49 379.72 849.86 869.78 494.31 299.73 557.08 644.88 1077.39 905.44 524.43 285.48 369.72 705.40 650.11 473.57 920.05 277.69 847.53 677.74 946.88 379.58 567.39 697.24 846.52 196.51 238.68 659.30 609.67 422.18 794.28 235.13 290.69 727.36 268.21 538.49 543.03 324.81 184.28 623.77 861.62 1023.94 854.85 465.14 990.84 599.29 361.36 292.01 664.77 513.16 860.10 508.96 613.48 257.46 1002.21 194.81 414.51 577.59 305.36 918.77 861.65 820.72 667.30 601.43 359.80 939.65 606.87 702.31 300.28 155.27 653.49 789.65 718.16 530.49 586.85 463.19
510.06 477.26 900.47 519.83 363.09 779.75 123.34 568.86 941.19 912.95 0.00 135.43 350.18 657.10 978.90 263.66 700.16 1079.71 553.24 564.71 288.96 272.56 1095.07 243.88 1018.23 840.90 906.53 359.77 298.08 173.81 854.86 620.41 835.59 589.22 672.56 794.19 294.52 237.04 901.39 679.17 439.37 613.90 1023.71 1098.97 1027.71 224.82 521.01 678.41 811.25 1021.72 577.19 420.61 821.95 340.89 690.48 510.93 913.93 166.64 349.32 552.70 807.56 718.16 389.75 446.28 958.93 817.11 790.48 566.20 254.67 742.61 678.06 631.19 379.38 1044.86 234.99 227.81 737.82 658.57 402.86 328.00 333.37 1021.14 438.35 802.22 761.01 1006.07 350.90 943.24 393.53 805.17 394.89 726.63 583.45 1004.43 467.37 579.09 989.82 377.86 305.19 1252.04 1095.84 576.51 268.07 426.42 247.78 923.97 711.60 877.33 680.61 726.41 919.64 642.01 1106.19 109.60 521.75 44.48 705.36 412.22 1151.76 200.74 798.85 1082.15 541.78 997.13 1070.87 423.88 891.29 836.37 944.46 888.17 653.44 436.58 878.62 832.47 289.18 113.10 413.47 440.29 537.46 218.04 319.87 1018.81 685.13 449.36 503.47 119.51 739.70 607.20 945.66 694.69 808.83 1138.75 755.75 987.16 603.83 246.28 360.20 430.58 324.41 973.95 26.70 433.03 550.89 618.88 770.57 478.15 315.77 496.71 570.53 1087.31 899.86
476.61 458.28 940.44 561.59 424.95 811.53 258.77 490.35 805.76 844.73 135.43 0.00 426.49 671.47 843.47 130.20 660.51 1032.17 484.93 476.27 153.53 407.99 1094.61 121.34 1019.39 762.39 971.42 241.13 162.65 38.38 925.04 639.44 784.76 670.30 574.85 702.37 405.65 372.47 877.99 658.73 545.34 719.87 1037.05 1138.62 994.26 360.25 474.71 542.98 737.03 1036.63 673.86 292.84 868.08 416.75 725.15 375.50 880.48 302.07 213.89 434.06 795.98 582.73 256.29 581.71 886.47 681.68 684.60 430.77 390.10 773.17 610.17 495.76 379.96 972.68 299.88 363.24 791.47 566.75 267.43 463.43 468.80 1020.68 537.62 666.79 724.38 1005.61 215.47 941.00 528.96 812.66 369.59 800.05 662.46 990.78 441.04 617.58 1004.73 451.84 169.76 1174.88 1027.53 606.99 309.83 527.37 383.21 923.51 619.65 843.88 753.62 794.21 841.84 506.58 1052.82 134.17 429.93 179.91 702.46 433.85 1150.72 65.31 761.32 1083.41 409.90 1032.95 1036.73 288.45 837.92 795.84 967.50 752.74 586.47 409.49 866.09 760.29 288.72 248.53 548.90 494.36 479.77 353.47 333.50 1033.72 660.51 526.84 404.64 181.37 633.82 507.99 911.43 566.83 817.65 1085.38 795.72 968.07 483.09 110.85 486.31 554.13 290.96 936.31 162.13 420.25 621.67 544.45 737.12 503.46 180.34 504.14 592.54 1086.85 901.18
327.68 381.67 619.39 209.99 151.59 502.98 418.34 507.49 847.59 655.83 350.18 426.49 0.00 367.79 884.77 404.00 406.22 867.37 489.19 520.01 473.87 285.11 837.73 506.45 708.94 773.13 635.58 568.41 505.25 464.87 583.35 314.43 606.28 403.53 647.75 745.61 208.13 378.48 604.82 538.82 165.19 339.72 816.85 827.75 723.76 324.55 477.70 846.84 513.29 767.11 303.01 612.22 526.39 112.61 354.05 695.84 711.67 222.97 589.84 732.18 537.93 825.32 431.39 216.13 721.67 791.06 678.35 729.32 428.87 512.58 623.49 727.03 125.77 906.68 126.61 199.27 481.22 691.86 524.73 516.13 436.08 766.07 214.40 796.24 610.39 722.72 534.85 638.78 459.21 547.50 243.59 473.57 363.40 837.89 364.43 254.71 779.36 229.31 571.46 1120.39 955.56 265.30 204.02 506.05 315.09 700.57 561.14 613.69 422.50 424.27 865.05 736.70 902.26 321.06 605.70 305.70 447.62 150.50 849.21 463.75 633.12 894.51 585.67 739.08 960.81 592.31 759.64 726.31 619.67 748.71 648.11 148.90 568.78 694.29 182.91 307.51 456.28 281.73 442.06 430.71 255.82 772.25 363.82 179.61 429.43 301.46 627.57 612.06 668.35 866.52 723.67 1007.10 496.79 677.32 800.75 495.38 188.39 173.98 214.35 653.94 370.38 85.06 276.71 421.67 576.83 153.36 543.19 224.84 273.96 794.77 640.28
450.91 513.80 314.23 219.22 410.32 192.52 692.78 651.22 890.51 650.40 657.10 671.47 367.79 0.00 878.39 655.15 326.24 817.38 639.49 697.13 718.61 508.65 511.67 732.89 382.88 879.62 329.72 810.87 749.99 709.57 357.19 112.95 488.46 441.74 719.07 877.64 472.81 592.28 398.60 626.37 227.63 216.84 793.38 538.36 520.31 567.85 613.07 1036.19 373.81 532.40 104.79 833.82 265.65 420.91 85.20 940.58 645.31 504.09 818.13 983.56 442.84 956.76 663.51 332.83 671.68 973.40 855.34 917.59 622.13 442.96 772.12 889.89 372.43 839.10 478.33 473.71 185.46 905.38 713.00 723.07 646.65 409.98 292.32 1002.28 551.03 384.12 764.96 547.01 620.84 405.82 452.24 298.18 435.56 706.44 565.97 115.23 564.30 467.54 816.49 1080.32 885.74 104.64 470.98 584.15 540.57 405.79 554.36 395.26 155.51 155.42 931.95 968.82 875.24 547.50 768.56 626.25 295.62 333.42 549.89 690.19 545.81 797.08 787.21 432.69 1003.21 820.33 771.56 769.36 296.03 726.59 747.50 342.36 440.17 669.16 465.65 579.89 637.60 365.86 591.58 661.58 463.21 563.24 390.38 231.79 559.20 594.70 804.56 748.75 526.18 1060.04 662.22 1000.52 216.52 469.54 1028.45 756.02 402.19 236.42 420.67 502.23 674.82 291.38 196.32 454.34 598.39 288.21 758.53 252.29 195.80 468.71 378.56
570.41 609.96 857.97 808.81 986.34 859.20 1052.59 505.06 37.71 425.10 978.90 843.47 884.77 878.39 0.00 767.84 634.32 417.42 510.23 449.46 777.22 1069.62 1054.91 909.79 983.86 173.31 941.32 725.65 745.84 881.85 889.09 822.29 557.34 1211.86 359.27 337.05 1018.97 1151.70 786.83 382.91 928.81 973.89 518.60 1012.05 714.87 1096.08 493.20 773.52 723.63 711.07 942.80 734.53 991.74 951.81 871.32 774.36 391.66 982.44 785.57 756.28 522.20 589.28 641.75 1052.81 359.26 414.04 268.65 684.28 1143.42 586.50 365.81 571.96 795.96 261.63 863.76 988.60 986.30 496.93 666.57 1171.60 1213.56 926.73 996.41 448.19 426.53 972.69 657.16 652.99 1143.41 611.78 678.14 1088.79 1171.73 569.60 613.47 812.99 708.76 1098.71 814.70 434.04 359.49 823.58 759.51 1190.25 1068.80 896.17 456.53 750.29 1025.06 907.72 134.82 659.48 375.33 887.30 531.61 945.35 641.43 739.51 1064.84 778.16 419.23 469.34 528.36 1018.54 193.26 746.86 237.38 221.32 1031.71 186.35 343.46 749.19 715.26 327.73 775.77 1014.02 1176.35 1071.07 490.12 1084.42 760.85 712.31 592.18 832.83 571.43 932.82 257.20 471.92 656.25 795.98 319.16 454.01 835.20 606.72 742.11 797.64 1073.16 937.60 723.92 685.31 987.51 799.71 950.36 468.34 379.17 830.96 707.90 988.46 815.09 1011.95 822.29
385.69 402.84 865.71 476.97 447.89 745.88 358.40 437.19 730.66 762.55 263.66 130.20 404.00 655.15 767.84 0.00 545.67 917.83 402.44 367.90 139.69 451.49 1026.98 219.92 951.76 655.86 921.38 215.11 152.67 154.23 869.60 573.79 752.39 698.12 484.70 572.17 403.42 450.58 855.30 559.30 535.28 681.62 910.97 1070.99 935.01 394.96 366.37 481.02 727.07 942.13 626.03 244.23 788.01 448.48 607.56 350.03 750.64 339.93 220.45 408.04 740.54 519.35 126.09 609.07 781.51 602.59 561.42 368.81 443.61 673.75 480.89 421.06 314.31 842.48 331.61 405.00 749.26 436.55 257.02 572.17 513.75 953.05 523.54 601.08 631.69 937.98 205.06 874.76 594.83 736.12 275.09 811.07 692.10 860.58 321.40 562.14 910.23 485.03 167.46 1088.41 940.34 551.55 225.21 593.91 390.07 855.88 489.45 788.44 686.76 677.78 722.47 431.40 931.26 226.66 299.73 219.18 660.56 374.88 1020.52 83.97 677.09 967.46 279.70 967.30 959.43 226.49 763.54 691.11 914.33 680.55 456.27 354.05 833.35 630.09 221.09 255.39 597.52 586.71 420.88 384.61 256.83 939.22 605.07 503.36 408.28 204.31 510.64 383.75 845.19 493.50 687.45 975.12 729.75 901.83 434.93 100.87 486.25 526.49 235.52 915.50 283.86 364.81 646.06 512.29 607.28 448.02 154.32 528.53 528.27 1019.22 834.17
191.28 359.38 320.04 207.17 499.69 300.39 730.09 446.11 618.61 324.16 700.16 660.51 406.22 326.24 634.32 545.67 0.00 535.70 473.42 534.19 602.74 601.09 569.77 764.47 449.11 677.74 467.65 697.28 634.12 698.89 417.06 289.18 226.59 652.45 581.73 659.50 579.39 657.68 371.68 365.45 369.40 509.80 505.92 604.59 424.61 674.51 498.66 947.10 284.96 461.41 397.75 758.12 474.03 518.83 293.58 824.71 380.00 589.52 718.71 890.21 205.98 717.10 545.30 509.59 390.00 768.29 633.46 845.76 761.01 128.08 583.57 757.82 369.89 582.23 476.99 511.02 487.00 744.28 641.17 785.25 749.00 474.52 437.00 821.50 268.94 462.89 684.90 333.08 732.72 190.45 380.84 524.76 612.32 449.52 412.45 283.08 460.04 571.57 700.62 807.37 623.49 293.67 438.51 753.23 647.23 398.67 357.23 274.23 481.75 348.91 715.72 837.53 601.85 643.85 653.72 711.68 151.38 339.52 618.21 629.64 283.56 562.84 633.69 505.61 745.15 748.50 526.06 443.12 559.68 524.91 595.34 315.16 291.56 394.61 459.62 674.06 699.78 565.74 380.68 779.26 418.29 466.55 64.14 364.67 393.13 632.23 589.98 603.90 354.83 923.25 423.99 738.27 276.39 377.62 898.89 645.42 496.56 378.19 375.75 369.83 712.13 379.00 438.90 217.76 277.15 354.61 657.11 429.05 206.33 534.94 352.76
571.06 653.44 629.58 740.38 953.48 727.06 1160.63 573.13 455.13 211.54 1079.71 1032.17 867.37 817.38 417.42 917.83 535.70 0.00 621.13 681.90 981.02 1058.32 760.15 1071.68 703.11 539.93 724.13 1013.52 957.42 993.79 671.90 766.27 398.28 1075.52 627.64 569.86 1019.53 1164.44 544.46 482.64 870.05 974.22 101.18 725.09 505.26 1114.75 684.28 1088.67 566.24 441.60 862.17 1016.35 774.55 914.50 752.68 1080.83 190.70 1082.13 1056.22 1063.32 393.17 853.96 844.32 1010.24 145.70 691.77 606.74 1046.72 1202.94 496.79 653.40 804.77 801.69 251.47 929.95 1021.39 866.63 729.74 898.49 1269.78 1236.14 745.03 937.65 731.86 357.91 689.33 945.03 358.23 1213.99 468.55 749.02 959.13 1112.97 254.76 731.93 758.03 433.04 1061.40 1076.29 321.27 153.61 768.62 811.64 1260.83 1116.98 665.85 465.34 500.22 882.40 798.48 511.47 984.20 138.40 971.85 780.49 1077.75 521.76 774.20 777.88 1001.80 376.91 52.43 760.46 737.90 391.98 966.89 312.86 403.53 814.52 403.69 651.33 749.84 474.29 297.12 832.75 1014.72 1235.48 1039.29 638.56 1143.94 799.05 462.03 503.55 876.31 677.65 990.97 610.45 656.41 368.38 1067.94 270.88 264.68 745.30 425.02 1003.83 952.63 1032.26 878.84 756.71 490.14 1106.36 813.68 913.85 511.82 310.55 829.37 956.13 929.70 695.42 717.19 579.92
302.83 160.92 765.63 480.00 572.65 641.94 676.58 48.00 472.52 499.19 553.24 484.93 489.19 639.49 510.23 402.44 473.42 621.13 0.00 60.77 418.61 633.52 925.67 545.24 890.84 383.04 828.24 392.39 387.23 523.31 801.10 541.90 533.02 834.24 227.93 344.56 592.76 712.23 724.17 222.30 594.85 741.58 611.30 970.15 754.50 672.02 63.15 577.04 587.97 750.70 645.61 401.27 769.97 533.67 589.52 459.70 479.15 576.15 459.75 513.51 467.40 405.65 302.58 694.26 475.43 370.18 272.27 493.10 740.11 508.94 184.15 290.02 383.95 542.81 416.80 565.12 732.33 355.46 288.51 839.88 793.41 911.59 600.84 454.28 372.38 877.06 323.90 701.54 834.29 571.50 286.47 793.30 796.99 671.44 167.17 545.44 748.39 680.57 471.34 737.18 542.60 534.85 285.17 854.68 644.74 845.56 267.77 689.47 669.83 659.74 465.70 498.43 614.86 530.04 218.64 534.35 506.41 409.20 998.74 486.41 455.41 673.56 211.77 925.63 669.71 366.11 469.91 339.60 831.20 445.54 199.50 384.84 679.46 330.42 306.28 573.05 844.43 705.60 113.43 695.73 271.13 731.11 409.28 532.48 80.29 533.38 281.75 165.95 671.97 553.19 387.78 657.38 665.94 646.35 489.08 426.19 659.00 603.64 311.53 666.31 557.46 440.82 638.54 278.29 394.39 487.35 362.46 613.72 459.05 943.82 697.90
363.60 221.69 826.40 540.77 545.15 702.71 688.05 108.77 411.75 508.30 564.71 476.27 520.01 697.13 449.46 367.90 534.19 681.90 60.77 0.00 386.29 664.94 986.44 484.47 951.61 363.26 889.01 397.98 354.91 514.65 861.87 602.67 593.79 829.49 189.47 308.00 642.46 773.00 741.99 242.83 626.57 801.10 672.07 1023.67 797.17 732.79 84.06 529.72 648.74 786.75 706.38 422.18 792.38 584.13 611.93 398.93 539.92 636.92 445.73 489.73 528.17 344.88 241.81 724.47 536.20 356.39 282.06 437.26 693.96 569.71 147.59 259.10 436.41 603.58 477.57 592.65 793.10 301.09 309.76 822.52 764.10 960.55 658.21 426.99 433.15 937.83 344.81 664.67 857.23 632.27 335.55 854.07 789.36 732.21 207.49 606.21 783.55 703.09 471.88 797.95 603.37 595.62 345.94 890.56 705.51 863.38 328.54 710.38 730.60 682.15 438.41 437.66 675.63 563.01 169.44 520.23 567.18 430.80 1059.51 433.43 494.22 734.33 151.00 986.40 642.72 417.09 530.68 335.68 891.97 426.32 172.21 445.61 730.48 391.19 367.05 608.80 885.94 711.52 174.20 634.96 331.90 777.39 470.05 584.71 141.06 572.21 258.27 105.18 635.10 505.87 448.55 718.15 726.71 691.74 458.16 365.42 647.87 617.78 347.41 727.08 578.37 476.70 699.31 339.06 414.92 527.58 345.64 643.93 519.82 954.02 758.67
411.46 443.43 922.78 586.80 478.27 819.11 377.96 407.89 739.51 820.40 288.96 153.53 473.87 718.61 777.22 139.69 602.74 981.02 418.61 386.29 0.00 508.73 1132.88 161.73 1004.09 633.77 984.25 94.54 31.38 191.91 932.02 657.87 766.95 762.61 503.67 584.68 515.04 526.00 893.80 582.19 563.41 722.97 948.09 1159.57 993.94 485.31 380.81 413.99 752.84 1022.33 695.58 155.38 875.06 439.29 739.24 221.97 815.33 363.68 115.97 287.47 761.46 453.74 144.48 681.38 835.32 547.70 575.41 301.78 512.04 668.44 476.21 399.72 448.37 961.11 347.26 442.18 860.99 444.18 133.45 616.96 567.58 1061.22 551.75 532.81 667.99 1017.87 120.06 900.53 652.46 731.00 356.28 856.82 722.48 979.02 339.79 624.56 991.42 569.79 97.88 1063.86 961.21 613.97 335.04 669.31 460.12 981.38 606.38 876.97 815.07 789.46 725.69 400.82 1012.32 246.22 312.24 258.43 686.33 469.05 1160.21 103.53 672.36 1022.69 292.21 1060.59 970.48 159.46 797.42 642.31 1014.64 748.25 499.39 477.64 838.96 748.72 355.15 347.00 685.40 610.69 439.27 453.04 353.23 1003.50 622.36 486.82 421.83 280.13 529.03 370.10 870.96 429.46 780.77 1030.56 812.66 917.98 338.60 42.68 557.24 554.62 375.21 937.12 315.66 504.50 674.93 540.95 671.97 569.45 69.32 620.75 630.76 1089.92 910.98
533.25 522.07 713.99 447.74 180.32 593.27 229.13 626.00 1036.37 884.97 272.56 407.99 285.11 508.65 1069.62 451.49 601.09 1058.32 633.52 664.94 508.73 0.00 949.29 446.96 870.47 900.77 760.90 595.68 525.01 419.91 709.94 438.93 754.64 360.00 783.47 916.56 76.98 156.56 738.74 728.61 281.02 416.89 1058.52 954.34 921.06 100.94 580.88 888.27 687.60 945.26 418.84 584.28 692.75 182.01 548.31 714.25 894.94 145.05 571.92 784.15 763.22 928.02 535.96 315.72 939.94 948.18 858.84 739.60 187.44 656.13 779.66 843.32 377.66 1081.43 238.39 90.07 581.70 857.86 582.39 302.38 222.33 868.47 280.05 907.98 704.22 856.69 585.63 889.51 223.06 718.69 433.38 524.14 368.29 1050.61 504.83 450.56 958.23 128.45 526.34 1322.55 1127.97 440.92 360.99 269.90 73.66 805.55 740.75 772.42 519.20 581.81 992.69 841.27 1107.83 322.82 734.97 267.21 650.53 330.11 1007.13 405.20 788.04 1110.75 724.17 865.67 1101.21 633.74 965.21 866.71 747.32 954.28 755.04 354.47 806.53 869.04 348.91 196.10 256.00 204.80 630.38 207.10 397.29 985.84 605.49 377.00 553.23 283.29 821.47 716.56 859.94 895.38 898.42 1212.67 569.27 905.67 804.52 473.21 106.46 289.81 354.75 842.37 291.18 370.09 387.25 601.28 751.58 334.43 534.89 269.72 494.92 906.33 703.28
721.42 849.86 262.66 641.89 879.74 407.44 1134.71 924.62 1039.60 629.81 1095.07 1094.61 837.73 511.67 1054.91 1026.98 569.77 760.15 925.67 986.44 1132.88 949.29 0.00 1215.04 128.79 1021.29 288.35 1189.98 1156.74 1126.77 281.71 548.40 544.84 818.74 1058.54 1130.37 920.18 1070.96 283.09 836.32 739.30 650.31 677.08 44.48 413.01 1050.23 951.49 1441.34 422.81 418.73 616.46 1198.86 367.31 905.54 483.68 1272.70 685.65 994.14 1237.94 1375.15 584.21 1286.87 1043.64 788.42 695.65 1181.40 1019.43 1352.30 1117.25 497.63 1024.12 1210.07 788.60 887.88 904.20 915.64 505.15 1213.86 1147.71 1130.72 1088.47 139.45 792.78 1290.60 684.97 133.72 1121.49 401.92 1092.90 525.08 887.69 596.80 778.61 574.88 932.26 598.36 421.22 933.84 1194.44 1005.02 887.23 599.76 827.00 1046.06 1022.95 171.10 739.49 385.91 525.90 447.40 1085.14 1348.95 847.82 1029.65 1106.98 1088.26 480.37 781.48 96.05 1094.53 664.90 793.40 1127.01 135.61 1009.16 1211.19 854.14 910.74 367.85 879.78 1035.82 781.70 397.11 804.33 805.89 1033.92 1098.87 832.16 908.46 1091.81 868.46 434.32 577.50 711.70 845.38 1063.98 1050.24 1056.15 409.88 1417.49 746.97 946.57 383.44 449.81 1389.37 1118.36 880.87 742.81 867.22 371.22 1116.75 786.50 638.76 780.93 732.33 736.49 1140.65 756.29 577.92 42.96 318.55
573.19 562.00 1024.64 664.89 476.17 900.45 262.40 498.55 872.08 915.05 243.88 121.34 506.45 732.89 909.79 219.92 764.47 1071.68 545.24 484.47 161.73 446.96 1215.04 0.00 1115.77 772.07 1051.38 198.67 170.85 108.70 1020.59 728.36 898.90 705.26 641.97 720.49 509.85 480.92 979.93 672.85 566.87 741.40 1107.37 1229.41 1106.03 451.68 513.38 496.25 838.97 1085.46 704.69 226.54 966.30 496.71 795.47 311.66 933.19 370.58 124.96 380.36 899.70 536.00 283.95 617.32 925.98 686.00 704.11 383.16 416.10 830.17 632.06 485.58 468.88 1045.86 379.84 424.64 842.69 560.61 271.75 469.13 486.24 1141.11 607.94 671.11 795.58 1117.01 252.63 1017.02 557.55 882.98 418.42 875.25 716.01 1080.50 479.26 715.80 1053.56 508.96 95.09 1203.33 1087.84 705.21 414.09 597.69 441.79 1043.94 709.37 965.22 824.18 858.45 863.99 456.91 1095.05 185.39 450.54 248.42 772.78 525.30 1176.62 167.25 831.64 1124.11 430.51 1121.87 1103.05 241.72 880.15 804.04 962.73 874.08 635.87 530.83 968.03 850.01 409.15 312.11 554.60 610.64 557.15 357.10 450.11 1082.55 764.75 578.06 475.84 232.59 653.33 531.83 987.45 505.94 907.37 1121.22 879.92 1044.09 415.08 119.05 553.42 558.08 412.30 1038.25 270.58 541.59 678.39 614.77 827.20 578.32 208.79 624.21 694.48 1201.60 1011.24
592.63 729.92 180.06 537.78 785.84 303.25 1051.04 847.46 980.61 574.88 1018.23 1019.39 708.94 382.88 983.86 951.76 449.11 703.11 890.84 951.61 1004.09 870.47 128.79 1115.77 0.00 938.97 184.73 1094.43 1034.93 1041.66 184.38 453.50 469.62 748.89 960.88 1039.52 825.28 966.99 217.27 745.47 610.51 530.37 601.93 155.48 311.50 950.73 882.76 1348.54 302.87 343.38 487.67 1138.80 287.03 787.88 354.89 1206.88 630.72 886.97 1120.06 1287.36 464.27 1166.21 921.83 679.23 640.72 1128.21 944.21 1271.93 997.65 481.44 946.81 1154.34 709.49 832.95 821.96 856.59 407.82 1141.25 1067.34 1056.19 991.14 57.13 675.20 1201.52 609.75 13.78 1061.43 346.99 964.11 443.63 782.19 493.53 708.76 546.10 813.80 469.57 360.75 813.90 1101.97 929.87 812.08 480.16 751.78 917.27 923.45 95.88 648.64 311.00 428.57 372.18 1030.89 1227.14 772.67 930.38 1038.25 993.70 436.45 677.37 169.10 974.59 567.24 738.47 1035.04 56.50 954.23 1141.75 792.99 797.00 264.58 838.99 971.43 701.73 324.50 690.59 730.67 905.13 970.72 712.22 782.03 1034.35 789.82 389.74 513.25 607.31 837.28 970.08 959.39 1000.42 376.56 1360.29 713.65 871.42 301.20 377.14 1269.43 1042.60 785.07 619.30 747.28 320.90 1007.57 666.90 579.20 666.87 646.54 633.92 1033.64 635.17 531.92 85.83 236.47
577.99 480.42 866.78 730.90 896.05 783.83 935.60 393.42 135.60 485.22 840.90 762.39 773.13 879.62 173.31 655.86 677.74 539.93 383.04 363.26 633.77 900.77 1021.29 772.07 938.97 0.00 951.46 620.77 631.49 789.73 900.50 793.66 588.00 1100.86 187.54 163.74 878.29 1049.33 781.66 370.09 880.48 970.99 525.77 1025.85 793.36 993.71 319.89 661.88 753.98 789.56 921.48 625.44 930.92 860.14 794.42 695.93 489.55 827.57 673.93 657.20 591.73 447.84 530.11 956.42 515.82 270.95 113.78 649.69 1023.74 659.00 224.21 398.65 658.29 381.01 777.63 847.92 977.96 323.62 500.32 1144.55 1085.47 881.84 903.77 325.74 459.79 946.82 552.28 713.11 1120.93 699.71 540.47 1043.18 1060.73 671.83 472.29 826.82 775.98 1002.44 683.15 607.35 478.87 837.41 646.00 1126.39 966.43 903.05 325.26 803.99 983.45 832.35 91.92 578.08 494.71 743.43 358.30 815.62 658.92 686.19 1071.04 736.13 491.73 588.72 378.33 978.53 366.57 607.65 339.19 319.21 1005.82 217.01 199.59 661.83 759.08 365.41 667.11 860.11 1136.29 983.71 393.23 964.74 616.84 746.99 625.44 816.00 426.00 761.09 145.56 320.12 686.91 661.82 349.82 528.60 759.83 685.21 597.71 676.45 956.09 889.27 583.24 763.80 814.20 688.07 869.22 459.98 412.43 745.21 593.55 877.46 760.31 1006.85 817.12
592.83 746.68 147.61 466.11 650.06 215.63 968.29 805.33 979.03 580.48 906.53 971.42 635.58 329.72 941.32 921.38 467.65 724.13 828.24 889.01 984.25 760.90 288.35 1051.38 184.73 951.46 0.00 1032.61 1009.76 962.85 52.23 359.84 506.76 616.74 870.52 1029.09 731.62 882.40 205.10 757.13 528.81 421.55 677.59 280.17 370.38 854.05 845.95 1301.83 346.06 394.08 390.99 1093.45 137.63 682.46 318.08 1186.91 636.32 805.27 1071.91 1225.54 513.80 1184.75 929.15 593.97 646.32 1127.17 981.35 1183.23 887.77 487.09 923.57 1118.26 619.32 838.55 671.54 749.22 275.67 1103.50 978.64 939.04 858.99 235.93 589.91 1153.73 653.30 170.95 1022.56 437.89 882.82 424.53 699.13 380.87 576.61 589.73 792.42 380.87 425.97 750.02 1073.57 940.91 834.66 370.28 696.17 878.49 826.77 155.58 661.50 278.55 296.42 252.95 1035.40 1209.69 785.57 865.99 1001.44 910.30 397.89 601.96 332.96 957.93 607.60 776.56 1013.66 184.42 994.91 1079.93 815.61 846.53 151.92 848.69 898.95 620.86 323.46 740.12 712.54 881.07 890.08 648.34 739.90 940.58 728.85 433.18 477.05 497.43 806.04 888.75 972.25 981.63 410.39 1325.68 747.48 923.14 191.63 387.32 1276.55 991.21 692.31 537.60 686.31 308.73 933.23 557.02 474.54 624.70 674.97 544.68 971.82 541.48 430.70 270.56 205.97
506.00 471.55 1012.51 645.01 572.81 852.54 461.07 440.39 687.94 807.40 359.77 241.13 568.41 810.87 725.65 215.11 697.28 1013.52 392.39 397.98 94.54 595.68 1189.98 198.67 1094.43 620.77 1032.61 0.00 98.73 272.46 980.38 706.37 765.60 839.46 465.63 554.79 609.58 596.81 931.75 566.87 657.95 817.51 1003.69 1216.67 1031.34 579.85 329.24 350.29 845.03 1070.26 765.54 60.84 967.32 533.83 791.92 190.81 863.24 458.22 89.75 192.93 785.74 404.58 172.60 775.92 867.82 534.70 541.15 233.54 606.58 762.98 461.82 319.88 479.20 935.20 441.80 536.72 920.98 394.91 120.45 667.80 662.12 1140.56 646.29 510.98 689.42 1108.21 68.49 994.18 743.28 811.76 423.63 941.61 817.02 1063.83 360.71 716.82 1044.69 660.61 125.34 1055.33 934.99 706.23 399.32 761.45 554.66 1053.14 627.30 943.12 885.03 862.14 703.40 326.69 1007.25 337.04 299.24 352.97 711.45 505.42 1235.63 198.07 766.90 1034.60 279.21 1132.19 918.91 110.30 810.78 685.00 1069.01 721.16 437.20 508.73 933.50 722.81 420.43 441.54 753.27 678.04 452.63 547.58 427.08 1015.70 716.90 581.36 435.35 365.24 523.46 383.26 965.50 334.92 780.17 1049.77 876.54 965.91 244.06 137.22 651.78 649.16 390.20 980.04 367.47 519.49 769.47 569.07 736.78 602.70 60.79 714.43 623.52 1147.02 967.21
442.84 412.05 954.16 577.26 490.50 829.69 393.13 424.20 708.13 809.85 298.08 162.65 505.25 749.99 745.84 152.67 634.12 957.42 387.23 354.91 31.38 525.01 1156.74 170.85 1034.93 631.49 1009.76 98.73 0.00 194.44 957.53 664.19 742.75 740.73 510.86 572.68 524.16 535.12 873.65 550.99 594.79 754.35 979.47 1183.43 1008.49 503.68 349.43 382.61 784.22 991.94 666.81 159.57 906.44 451.52 760.15 241.99 827.33 379.96 125.29 291.66 730.08 422.36 113.10 690.23 811.72 554.89 544.03 270.40 540.61 699.82 502.50 368.97 442.72 930.04 378.64 458.46 848.80 412.80 140.64 586.67 596.15 1081.06 583.13 540.00 636.61 1048.71 88.68 931.91 664.73 762.38 324.90 873.86 734.71 1006.08 308.41 655.94 960.04 582.06 129.26 1032.48 929.83 645.35 338.17 683.43 476.40 994.07 575.00 906.64 786.30 820.84 722.07 397.27 980.94 258.49 315.95 287.00 717.71 437.67 1173.19 119.81 703.74 991.31 299.40 1091.43 939.10 128.08 766.04 673.69 996.58 761.27 510.91 446.26 870.34 717.65 359.28 375.57 672.14 579.31 407.89 481.61 383.68 989.03 653.74 518.20 395.29 296.41 497.65 401.48 902.34 406.46 773.00 1013.50 842.71 943.06 336.52 51.80 573.52 586.00 353.72 968.50 324.78 483.01 706.31 509.57 683.97 547.92 37.94 652.13 600.67 1113.78 909.11
514.99 496.66 915.94 593.75 441.73 795.22 297.15 528.73 844.14 806.35 173.81 38.38 464.87 709.57 881.85 154.23 698.89 993.79 523.31 514.65 191.91 419.91 1126.77 108.70 1041.66 789.73 962.85 272.46 194.44 0.00 911.89 673.58 790.99 708.68 613.23 726.40 444.03 410.85 884.38 697.11 566.84 732.65 998.67 1156.29 1032.64 371.71 513.09 577.05 775.41 1030.40 698.16 331.22 867.22 455.13 686.77 410.58 862.19 290.82 233.66 465.39 825.91 616.80 280.32 596.65 848.09 720.06 685.68 425.79 420.36 811.42 575.72 534.14 414.10 996.71 338.26 341.84 819.37 590.78 305.81 501.81 461.34 1052.84 499.24 705.17 713.40 1037.77 253.85 908.32 535.83 774.28 407.97 838.43 685.94 1014.81 475.63 621.35 1027.20 485.64 203.79 1210.98 1062.87 631.94 341.99 488.99 346.25 955.67 643.68 882.26 786.55 756.99 865.10 544.96 1065.13 162.07 453.96 168.66 664.08 472.23 1174.75 103.69 722.94 1045.03 433.93 1067.09 1075.11 322.52 850.23 825.59 997.88 791.12 598.90 447.87 904.47 784.32 320.88 232.14 542.44 532.74 518.15 361.36 371.88 1041.79 698.89 546.38 443.02 209.27 664.87 469.61 878.75 568.17 827.43 1097.69 771.22 935.39 516.52 149.23 447.93 575.61 329.34 932.67 177.06 458.63 653.26 506.07 755.06 541.84 218.72 542.52 628.06 1101.49 919.84
541.87 711.70 199.84 442.44 615.08 164.67 916.06 753.10 926.80 632.71 854.86 925.04 583.35 357.19 889.09 869.60 417.06 671.90 801.10 861.87 932.02 709.94 281.71 1020.59 184.38 900.50 52.23 980.38 957.53 911.89 0.00 340.21 538.50 564.51 893.36 1020.18 705.50 832.11 257.33 726.13 476.58 369.32 715.89 244.40 422.61 801.82 810.97 1249.60 355.33 434.72 338.76 1041.22 102.65 630.23 283.10 1134.68 688.55 753.04 1019.68 1173.31 545.89 1134.16 876.92 554.21 698.55 1075.28 963.59 1131.00 835.54 493.00 924.74 1069.48 588.38 889.14 661.43 696.99 223.44 1051.27 926.41 886.81 806.76 241.51 537.68 1176.57 601.07 198.16 970.33 469.52 834.25 455.86 678.09 350.10 524.38 641.96 741.46 328.64 457.48 697.79 1022.61 993.14 825.51 318.05 645.21 843.51 774.54 187.09 679.32 330.78 244.19 213.19 992.42 1174.71 810.30 837.87 966.46 875.20 345.66 549.73 297.19 905.70 556.64 724.33 962.70 155.73 943.95 1027.70 830.99 811.20 142.62 827.87 921.79 568.63 375.69 753.40 666.32 828.84 865.91 596.11 687.67 894.54 676.62 485.41 424.82 445.20 753.81 836.52 950.66 932.21 448.69 1273.45 756.38 936.58 140.67 392.05 1224.44 940.25 651.14 485.37 634.08 360.96 881.56 504.79 430.29 572.47 635.94 493.72 919.59 489.25 378.47 238.75 258.20
337.96 482.87 393.51 106.27 375.99 224.79 654.23 538.27 784.58 606.21 620.41 639.44 314.43 112.95 822.29 573.79 289.18 766.27 541.90 602.67 657.87 438.93 548.40 728.36 453.50 793.66 359.84 706.37 664.19 673.58 340.21 0.00 445.75 461.03 606.12 764.69 371.78 522.56 403.32 532.17 229.26 280.28 740.66 584.61 541.29 518.93 593.71 979.28 262.36 567.84 189.53 766.23 301.09 370.13 120.64 839.06 649.27 497.02 745.67 899.30 446.80 913.91 601.18 322.05 628.97 860.45 742.39 862.08 587.80 392.67 659.17 815.62 259.48 796.39 403.87 475.34 249.36 831.11 657.49 675.75 595.70 510.63 296.86 889.33 508.32 467.28 688.86 503.03 586.51 341.41 339.29 335.52 424.78 677.46 453.02 59.72 569.47 407.48 741.25 1017.97 862.86 70.31 358.03 633.35 491.65 467.16 536.22 413.93 214.34 190.86 873.11 857.88 807.85 542.97 694.29 608.90 252.91 245.86 615.80 610.08 549.77 713.84 674.26 495.94 959.11 752.32 710.05 714.98 408.98 727.18 634.55 270.22 391.42 608.57 352.70 565.79 619.45 373.23 478.63 618.40 391.02 598.46 323.10 171.05 524.87 538.57 691.61 707.85 473.46 1003.13 665.93 926.09 248.79 499.96 940.51 653.07 332.47 222.32 348.48 461.64 647.11 257.05 154.55 451.22 536.11 212.96 645.58 241.51 82.85 539.33 414.00
366.70 372.10 387.14 430.47 710.30 409.34 909.79 502.04 536.34 186.74 835.59 784.76 606.28 488.46 557.34 752.39 226.59 398.28 533.02 593.79 766.95 754.64 544.84 898.90 469.62 588.00 506.76 765.60 742.75 790.99 538.50 445.75 0.00 808.07 532.33 598.87 763.93 874.83 329.07 394.59 588.54 643.79 343.37 588.85 265.74 819.21 532.63 998.18 188.11 304.66 548.81 826.44 569.95 679.37 416.57 872.24 242.58 765.48 804.90 956.34 68.35 799.73 631.79 681.33 252.58 702.09 474.59 884.34 905.71 98.51 479.28 711.16 540.23 444.81 606.13 737.61 499.70 758.75 763.06 991.09 940.60 470.91 646.83 758.68 222.05 455.84 755.55 260.31 945.79 111.71 480.48 643.56 784.06 416.25 436.48 419.00 302.35 772.92 831.05 671.31 486.47 429.59 567.52 979.82 791.93 373.74 306.61 256.20 518.66 475.29 576.35 877.24 464.43 755.11 669.31 802.82 192.84 486.55 621.61 834.14 148.75 425.42 657.72 504.41 608.92 809.63 397.07 401.08 559.73 370.99 503.90 462.19 211.29 294.67 588.63 817.64 926.37 671.24 449.78 925.37 515.72 324.93 242.46 554.96 502.71 779.26 508.65 585.39 243.76 974.33 280.99 601.25 402.77 200.31 910.22 794.55 723.15 581.60 539.42 278.90 862.29 526.03 534.80 284.92 228.05 501.87 704.81 600.79 366.50 537.08 349.67
666.57 720.56 737.62 527.53 284.34 573.40 564.13 846.38 1176.59 940.66 589.22 670.30 403.53 441.74 1211.86 698.12 652.45 1075.52 834.24 829.49 762.61 360.00 818.74 705.26 748.89 1100.86 616.74 839.46 740.73 708.68 564.51 461.03 808.07 0.00 986.64 1084.50 294.70 377.02 738.47 872.43 283.05 278.28 1129.17 808.91 901.19 432.64 816.59 1117.15 659.89 914.45 336.95 863.91 578.38 323.32 511.74 956.25 884.82 446.79 814.29 1001.87 816.65 1121.68 776.44 187.40 929.82 1129.95 1017.24 1004.94 431.69 709.56 962.38 1035.90 507.54 1122.05 440.19 403.42 459.24 1036.91 835.44 386.87 379.04 806.02 294.06 1131.69 857.32 762.67 829.41 875.38 311.21 750.30 601.03 398.63 40.13 1058.28 703.32 401.31 946.35 231.55 800.35 1331.13 1146.96 394.60 549.07 354.85 424.04 751.60 775.60 811.46 403.41 528.42 1192.78 1081.75 1166.76 554.96 944.59 568.95 640.10 491.59 860.45 684.36 876.83 1127.95 924.56 720.24 1226.63 862.62 1035.88 1065.20 588.65 1087.60 987.00 487.79 788.95 984.36 527.96 496.31 301.40 175.94 780.95 490.69 595.78 975.34 703.60 379.03 777.16 507.76 966.46 881.98 861.97 1141.00 973.60 1261.74 592.90 897.49 1071.06 723.04 295.76 289.53 553.24 842.10 598.75 423.95 313.29 743.52 866.90 480.35 778.67 223.40 501.86 803.26 703.01
390.45 315.48 855.64 645.71 734.62 780.93 766.57 218.19 322.09 514.80 672.56 574.85 647.75 719.07 359.27 484.70 581.73 627.64 227.93 189.47 503.67 783.47 1058.54 641.97 960.88 187.54 870.52 465.63 510.86 613.23 893.36 606.12 532.33 986.64 0.00 158.57 760.99 867.27 806.38 283.71 740.82 880.99 611.40 1047.36 775.40 811.65 202.59 541.97 708.42 771.60 795.65 495.34 907.21 709.83 726.76 546.01 479.25 711.79 555.38 512.21 496.61 352.95 413.67 814.35 481.94 273.50 145.70 548.03 860.79 560.91 53.05 284.93 529.08 542.91 592.96 730.62 855.48 286.43 370.22 977.66 930.93 962.84 732.61 283.21 375.98 947.10 422.18 721.22 978.51 623.47 420.91 923.52 961.62 700.30 351.61 665.84 769.29 856.73 553.05 734.23 550.64 676.43 461.33 1009.09 784.37 889.85 349.98 724.70 820.46 796.98 266.99 444.43 592.61 572.27 279.21 628.08 631.39 566.63 1100.15 563.90 393.64 680.07 261.77 995.67 552.53 477.55 377.71 276.23 1001.39 255.53 28.43 542.27 685.21 330.52 482.44 672.57 965.13 861.35 205.69 801.79 466.78 791.87 572.48 644.84 275.94 573.55 102.07 157.72 691.65 518.12 357.93 620.94 769.73 667.25 463.47 546.35 835.16 749.61 465.94 745.84 688.94 562.69 760.67 370.55 423.34 574.05 472.92 789.88 589.15 1021.29 815.62
545.52 394.49 903.57 703.38 853.15 902.93 882.00 332.05 299.34 609.11 794.19 702.37 745.61 877.64 337.05 572.17 659.50 569.86 344.56 308.00 584.68 916.56 1130.37 720.49 1039.52 163.74 1029.09 554.79 572.68 726.40 1020.18 764.69 598.87 1084.50 158.57 0.00 856.86 1006.50 847.28 294.05 848.18 988.35 671.04 1157.06 864.61 950.88 347.86 518.81 786.98 872.31 893.96 493.95 985.44 821.77 804.99 535.35 591.45 838.07 595.53 493.46 634.20 284.10 480.68 928.90 594.14 121.91 124.28 485.95 999.53 697.38 160.41 234.91 639.95 544.75 704.90 826.49 998.41 159.88 451.23 1089.98 1047.20 1045.58 889.21 162.00 513.50 1050.77 503.19 787.14 1090.83 710.58 522.13 1053.75 1076.17 818.13 432.40 822.96 901.22 968.67 634.06 675.72 636.01 815.78 603.68 1104.96 932.84 968.67 390.88 837.48 979.03 875.21 216.28 414.34 572.56 684.59 272.44 786.65 692.49 667.85 1184.82 656.14 531.23 622.29 292.47 1096.02 530.31 490.75 415.63 336.31 1071.44 340.90 185.03 643.49 792.57 442.72 610.72 811.31 1121.73 965.37 364.26 940.53 551.88 910.73 595.36 752.20 424.85 731.79 118.04 266.52 757.57 498.08 420.48 562.43 923.57 799.18 433.97 624.48 934.00 854.57 561.81 877.77 820.89 660.55 919.24 492.55 466.14 729.38 550.45 907.83 740.07 1087.41 882.74
480.52 462.37 704.37 379.74 103.34 590.83 282.45 594.11 981.79 807.99 294.52 405.65 208.13 472.81 1018.97 403.42 579.39 1019.53 592.76 642.46 515.04 76.98 920.18 509.85 825.28 878.29 731.62 609.58 524.16 444.03 705.50 371.78 763.93 294.70 760.99 856.86 0.00 198.99 661.76 668.91 247.45 421.98 1005.79 949.90 874.22 162.64 558.40 873.20 634.14 868.28 385.27 569.21 615.77 105.03 492.42 699.18 863.83 184.16 571.81 707.17 726.87 906.02 529.51 301.06 873.83 902.59 812.55 741.91 249.14 665.42 743.69 807.01 306.88 1037.76 197.14 136.03 532.50 816.61 540.74 364.08 284.03 839.99 207.18 940.10 763.23 839.06 592.70 846.91 300.04 713.19 373.68 539.90 334.83 1028.91 445.13 398.04 900.18 157.84 570.88 1273.23 1107.72 387.45 328.77 312.68 135.36 779.77 698.76 739.78 470.00 539.03 970.21 808.11 1055.10 324.46 686.40 280.56 617.37 311.97 969.92 444.31 782.26 1046.67 666.37 861.23 1041.51 618.67 912.48 807.01 698.12 897.99 732.56 301.74 738.53 858.49 307.66 252.73 332.98 202.65 593.31 268.80 337.59 929.17 552.76 314.57 512.47 277.26 761.77 694.08 826.37 880.31 869.53 1159.94 611.55 843.98 789.45 472.36 82.83 238.66 295.05 765.39 319.50 293.19 338.05 583.14 741.03 361.49 553.10 220.52 443.71 901.89 626.30
599.31 628.22 836.16 531.37 292.81 698.09 254.64 714.48 1132.01 981.84 237.04 372.47 378.48 592.28 1151.70 450.58 657.68 1164.44 712.23 773.00 526.00 156.56 1070.96 480.92 966.99 1049.33 882.40 596.81 535.12 410.85 832.11 522.56 874.83 377.02 867.27 1006.50 198.99 0.00 860.75 840.54 364.65 539.18 1163.60 1076.51 1006.43 55.62 729.44 915.45 771.23 1042.18 502.47 644.75 796.48 285.38 631.94 742.70 1003.18 242.28 579.89 789.74 819.10 955.20 576.67 363.86 1047.68 1036.66 956.07 803.24 114.70 776.32 871.67 855.17 455.23 1151.37 310.84 219.11 654.55 870.88 626.84 176.38 96.33 990.64 363.68 1009.70 860.78 953.21 574.88 973.14 156.49 838.88 548.99 548.78 347.74 1107.20 628.03 534.19 1041.86 153.09 542.23 1380.48 1249.23 544.78 442.47 203.33 82.90 902.69 774.15 856.05 611.59 673.81 1131.95 867.32 1195.64 321.91 734.06 281.52 769.00 486.67 1049.53 437.78 922.07 1216.87 730.28 987.84 1230.25 660.92 1019.73 953.28 777.73 1020.34 865.75 500.73 868.84 950.92 421.36 195.19 189.43 254.77 661.58 161.78 494.27 1069.47 721.82 456.35 679.10 294.21 950.51 781.90 943.57 931.73 893.56 1267.19 691.44 977.38 840.87 483.32 190.09 373.44 483.79 964.38 242.04 463.54 473.45 728.97 859.82 490.99 552.81 379.63 595.34 1031.92 825.29
482.34 568.01 85.12 394.83 674.66 220.19 944.21 676.17 824.02 463.43 901.39 877.99 604.82 398.60 786.83 855.30 371.68 544.46 724.17 741.99 893.80 738.74 283.09 979.93 217.27 781.66 205.10 931.75 873.65 884.38 257.33 403.32 329.07 738.47 806.38 847.28 661.76 860.75 0.00 553.23 569.08 460.19 501.86 309.78 238.41 824.40 728.54 1187.26 140.96 217.41 494.30 977.52 317.60 666.77 328.82 989.61 483.45 826.43 972.45 1092.06 324.91 1075.02 760.55 636.11 483.21 951.07 803.66 1079.69 910.90 303.13 754.57 974.23 587.71 666.04 698.88 770.56 440.83 964.48 939.00 1018.55 945.79 218.56 541.76 1009.28 475.71 203.49 900.15 235.54 926.33 280.59 656.36 538.74 757.85 409.90 674.98 399.54 246.18 772.18 991.68 735.81 629.56 410.13 646.59 885.60 797.12 121.39 456.40 102.82 437.73 295.09 830.30 1065.86 619.91 858.94 884.03 856.91 220.30 534.42 362.57 812.68 427.88 596.89 892.99 252.06 830.15 980.47 653.63 657.64 357.02 689.80 779.19 535.00 147.73 551.23 638.04 821.06 939.05 670.50 643.69 919.45 662.32 275.17 317.43 519.32 646.42 824.65 767.15 847.17 234.66 1198.38 571.75 743.53 222.70 182.22 1107.52 880.69 715.35 562.14 619.78 103.63 921.59 549.22 555.36 520.86 485.33 466.01 872.36 581.33 330.86 240.13 35.46
251.47 256.45 609.52 425.90 650.81 608.88 794.14 174.30 345.20 327.36 679.17 658.73 538.82 626.37 382.91 559.30 365.45 482.64 222.30 242.83 582.19 728.61 836.32 672.85 745.47 370.09 757.13 566.87 550.99 697.11 726.13 532.17 394.59 872.43 283.71 294.05 668.91 840.54 553.23 0.00 650.64 728.53 527.12 863.01 633.15 784.92 285.45 722.14 516.55 629.35 616.48 575.75 702.49 614.90 565.99 641.76 315.45 692.73 634.23 730.35 354.36 544.29 437.89 729.57 348.83 415.96 275.31 680.09 856.69 418.66 230.66 458.51 413.05 499.00 533.38 638.54 743.31 453.93 510.81 946.69 876.52 764.00 706.44 456.05 219.45 756.72 498.38 548.81 905.20 471.42 295.23 786.94 832.30 524.08 261.63 532.32 627.04 761.80 655.92 731.67 547.60 521.73 422.05 917.01 757.64 674.62 96.83 568.51 735.97 636.21 380.04 628.62 585.82 569.57 410.06 694.34 398.44 440.95 890.77 593.42 251.39 532.27 393.83 801.97 560.27 588.08 370.92 289.72 777.39 252.49 255.28 416.59 589.18 286.61 424.10 679.86 938.14 738.47 178.96 799.62 377.94 649.62 301.31 562.99 260.27 616.77 224.53 304.59 519.24 704.83 294.83 618.38 632.88 525.00 657.57 553.80 710.85 644.68 373.86 603.59 705.87 480.43 658.93 198.50 172.09 495.97 549.12 649.03 489.87 793.36 588.69
402.00 468.87 526.40 253.48 235.31 405.68 465.15 596.43 934.70 658.51 439.37 545.34 165.19 227.63 928.81 535.28 369.40 870.05 594.85 626.57 563.41 281.02 739.30 566.87 610.51 880.48 528.81 657.95 594.79 566.84 476.58 229.26 588.54 283.05 740.82 848.18 247.45 364.65 569.08 650.64 0.00 174.53 846.12 720.98 707.05 363.64 584.11 957.01 428.12 677.53 137.82 690.15 441.22 217.35 267.29 785.38 714.35 276.46 679.38 850.88 575.38 914.56 596.58 140.19 724.35 918.61 766.70 844.80 450.14 497.48 687.77 828.78 258.75 916.58 250.70 246.08 316.03 856.07 664.74 499.07 419.02 637.61 67.60 850.95 618.52 611.75 612.78 608.49 445.38 518.53 355.41 308.38 242.92 786.01 493.27 169.54 709.43 249.57 661.29 1050.39 958.24 180.13 346.99 429.11 336.36 585.46 599.94 577.35 257.31 309.16 919.94 874.00 936.20 445.15 734.54 398.62 408.33 249.89 762.45 507.05 652.96 897.19 714.51 632.31 943.58 702.48 752.83 812.52 513.85 823.03 712.39 253.59 557.18 764.01 348.10 352.26 452.54 196.34 582.14 460.49 323.72 738.42 433.54 95.98 514.56 414.70 777.04 674.86 578.92 961.23 781.83 1000.29 381.68 635.56 902.01 575.06 174.56 8.79 347.75 627.40 447.19 234.53 111.52 460.47 646.55 225.22 632.73 59.65 254.32 696.34 560.65
557.89 641.00 459.34 302.63 401.12 338.62 634.04 724.48 936.18 787.14 613.90 719.87 339.72 216.84 973.89 681.62 509.80 974.22 741.58 801.10 722.97 416.89 650.31 741.40 530.37 970.99 421.55 817.51 754.35 732.65 369.32 280.28 643.79 278.28 880.99 988.35 421.98 539.18 460.19 728.53 174.53 0.00 906.35 613.72 666.41 487.13 737.03 1102.13 462.31 677.60 112.05 864.61 300.10 383.16 302.04 944.94 783.52 450.99 838.94 1010.44 659.68 1082.18 709.13 208.04 828.52 973.02 937.68 981.71 604.33 580.68 827.94 986.36 423.77 1020.75 425.23 420.61 180.96 986.47 777.12 574.66 590.92 581.57 233.41 1025.48 646.26 516.59 787.24 674.45 586.08 555.80 529.59 133.85 318.41 849.39 623.76 240.65 706.37 391.79 820.85 1196.00 1062.41 230.06 456.41 539.24 490.55 496.31 714.91 538.21 125.13 276.23 1014.61 1014.44 1064.83 619.68 865.03 573.15 479.44 390.06 611.12 681.58 730.08 994.12 845.00 525.05 1081.62 847.60 920.72 917.49 339.32 924.13 852.56 408.23 563.11 811.08 477.52 526.79 579.68 318.96 701.39 593.29 498.25 722.81 539.46 236.15 677.37 589.23 886.90 849.39 644.88 1125.98 840.46 1143.71 314.62 642.41 1056.04 749.59 349.09 183.32 473.68 563.82 621.72 344.39 125.73 600.64 693.62 365.39 792.29 234.18 347.75 608.07 424.73
615.54 597.32 529.98 689.86 947.49 625.88 1135.01 659.30 506.39 268.67 1023.71 1037.05 816.85 793.38 518.60 910.97 505.92 101.18 611.30 672.07 948.09 1058.52 677.08 1107.37 601.93 525.77 677.59 1003.69 979.47 998.67 715.89 740.66 343.37 1129.17 611.40 671.04 1005.79 1163.60 501.86 527.12 846.12 906.35 0.00 703.77 416.36 1141.40 674.45 1121.54 478.30 340.42 839.34 1012.57 738.33 921.23 709.10 1071.00 261.86 1039.82 1062.27 1123.61 378.70 869.55 889.07 986.31 246.88 688.30 639.55 1057.14 1193.98 441.88 637.16 869.04 758.78 284.44 887.27 988.09 798.01 830.92 899.81 1271.42 1226.07 643.85 913.72 809.85 359.55 588.15 935.20 296.77 1233.90 427.32 724.27 897.67 1089.04 153.58 708.85 736.88 344.14 1046.16 1045.97 327.94 210.15 747.47 755.64 1259.15 1114.90 588.05 461.21 399.04 781.22 714.21 598.02 1035.12 170.74 968.56 816.53 1060.56 524.96 728.41 746.92 994.94 275.73 140.55 796.50 636.72 424.32 977.41 382.42 387.29 824.47 392.66 635.09 704.05 373.11 280.88 776.75 1005.76 1205.70 1014.61 605.53 1134.98 703.84 373.13 453.03 847.36 679.29 1003.85 605.56 740.22 267.20 1129.52 295.12 269.49 644.12 323.84 1068.10 990.77 1002.48 854.91 746.38 402.18 1042.30 767.89 872.13 492.60 355.03 729.36 973.76 905.77 693.28 634.12 511.49
748.11 877.79 298.49 686.37 859.48 409.07 1090.23 969.10 1049.76 656.50 1098.97 1138.62 827.75 538.36 1012.05 1070.99 604.59 725.09 970.15 1023.67 1159.57 954.34 44.48 1229.41 155.48 1025.85 280.17 1216.67 1183.43 1156.29 244.40 584.61 588.85 808.91 1047.36 1157.06 949.90 1076.51 309.78 863.01 720.98 613.72 703.77 0.00 417.57 1034.65 995.97 1485.82 450.74 440.52 583.16 1225.55 347.05 874.63 510.37 1299.39 712.34 949.66 1264.08 1401.84 619.75 1321.69 1070.33 798.61 722.34 1214.05 1063.44 1375.40 1079.94 542.11 1042.50 1254.55 799.05 889.15 905.83 871.16 467.84 1227.09 1170.81 1086.24 1051.16 144.01 782.08 1317.29 728.98 169.26 1148.18 428.61 1055.49 532.86 908.85 553.54 768.78 601.57 969.28 573.04 460.07 942.19 1238.45 1031.71 852.67 562.45 871.01 1072.75 1007.37 215.11 766.18 412.60 488.59 457.59 1111.83 1375.64 843.02 1073.66 1151.46 1071.82 507.06 794.13 52.79 1122.46 678.94 777.52 1171.49 146.06 1035.85 1237.88 834.78 937.43 324.59 906.47 1062.51 808.39 410.34 831.02 849.90 1034.20 1088.43 840.51 905.34 1118.50 895.15 461.01 604.19 689.60 889.86 1071.85 1076.93 1100.63 436.57 1461.97 773.66 967.45 385.07 405.33 1417.30 1162.37 895.54 729.77 878.48 326.74 1072.27 749.19 665.45 807.62 745.07 738.12 1163.99 733.65 622.40 69.65 329.13
615.89 637.84 222.77 513.77 844.52 327.79 1083.43 758.59 752.58 394.43 1027.71 994.26 723.76 520.31 714.87 935.01 424.61 505.26 754.50 797.17 993.94 921.06 413.01 1106.03 311.50 793.36 370.38 1031.34 1008.49 1032.64 422.61 541.29 265.74 901.19 775.40 864.61 874.22 1006.43 238.41 633.15 707.05 666.41 416.36 417.57 0.00 972.97 776.70 1236.28 278.93 81.51 620.01 1092.18 489.67 835.76 460.44 1137.98 450.27 946.73 1070.64 1222.08 334.09 1065.47 897.53 765.33 460.27 958.69 740.33 1150.08 1059.76 325.50 745.02 976.90 710.11 606.53 817.82 923.03 569.92 971.73 981.86 1151.52 1079.57 273.56 754.22 1024.42 443.28 325.28 1021.29 166.54 1058.47 290.55 687.61 662.37 865.45 272.10 702.22 537.51 72.22 891.35 1091.82 688.00 618.10 542.27 765.53 1098.06 986.95 314.33 569.40 150.38 575.41 424.31 837.33 1114.88 545.84 982.10 922.56 1026.77 400.75 652.03 462.76 950.65 381.76 556.91 902.53 358.05 770.64 1075.37 606.33 662.93 517.26 631.97 769.64 632.07 154.98 556.52 786.64 1021.07 1066.05 875.80 693.16 1079.13 745.84 101.21 447.42 636.21 751.84 940.86 774.39 851.13 162.07 1233.79 499.16 683.41 351.79 108.15 1175.96 1018.66 816.34 700.11 703.30 134.78 1054.41 666.57 687.50 528.30 461.06 661.21 970.55 713.47 500.72 397.33 247.92
543.69 572.60 814.93 534.54 265.98 694.21 199.02 671.39 1076.39 932.72 224.82 360.25 324.55 567.85 1096.08 394.96 674.51 1114.75 672.02 732.79 485.31 100.94 1050.23 451.68 950.73 993.71 854.05 579.85 503.68 371.71 801.82 518.93 819.21 432.64 811.65 950.88 162.64 55.62 824.40 784.92 363.64 487.13 1141.40 1034.65 972.97 0.00 673.82 875.98 764.38 1015.06 463.06 639.19 756.30 229.76 620.48 687.08 947.56 186.66 558.02 772.78 763.48 914.31 521.05 396.15 992.56 981.30 900.45 763.77 141.06 720.70 816.05 799.77 399.61 1106.91 255.22 163.49 635.99 815.26 618.76 201.44 121.39 964.83 369.82 954.08 805.16 951.97 575.72 963.33 199.87 783.26 493.37 604.40 403.36 1111.38 572.41 505.80 1045.19 208.71 530.01 1324.86 1204.77 495.21 386.85 201.60 27.28 906.49 718.53 863.85 573.49 655.22 1076.33 811.70 1179.01 266.29 678.44 226.88 743.81 431.05 1073.41 383.87 866.45 1164.38 674.66 957.55 1174.63 621.45 964.11 897.66 801.61 964.72 810.13 446.94 891.22 919.88 365.74 139.57 222.14 288.66 605.96 106.16 438.65 1074.18 688.37 459.62 623.48 238.59 894.89 726.28 942.56 888.46 916.53 1211.57 670.21 970.24 823.91 451.88 197.89 354.85 428.17 928.03 241.61 409.61 441.54 673.35 804.20 435.37 526.45 324.01 595.86 1007.27 788.94
307.38 160.53 757.26 543.15 593.18 680.71 630.29 111.15 455.49 553.60 521.01 474.71 477.70 613.07 493.20 366.37 498.66 684.28 63.15 84.06 380.81 580.88 951.49 513.38 882.76 319.89 845.95 329.24 349.43 513.09 810.97 593.71 532.63 816.59 202.59 347.86 558.40 729.44 728.54 285.45 584.11 737.03 674.45 995.97 776.70 673.82 0.00 515.77 587.58 813.85 664.07 338.12 708.32 554.20 527.87 468.09 542.30 606.53 396.60 475.78 498.23 375.38 240.28 660.99 538.58 419.23 311.20 461.78 703.85 546.11 198.78 276.82 352.35 605.96 457.74 528.03 721.29 292.31 312.71 832.41 766.01 911.74 622.66 428.94 360.18 876.67 260.75 748.73 801.04 594.27 271.78 776.63 808.26 734.59 152.40 571.26 811.54 691.91 418.29 800.33 605.75 560.67 326.11 806.50 646.54 848.82 309.38 626.32 732.98 598.09 411.81 468.16 678.01 478.95 155.49 558.99 532.23 404.47 1023.03 446.36 444.00 705.36 175.52 925.24 686.46 350.45 533.06 402.75 838.98 458.12 174.16 381.88 646.42 393.57 347.22 581.12 833.98 667.39 176.58 644.85 296.95 794.26 435.10 531.19 106.11 526.15 260.42 135.68 719.16 491.92 450.93 720.53 670.61 709.50 441.41 401.19 641.23 575.32 263.35 729.46 494.31 392.64 678.82 287.72 407.54 475.85 311.49 634.54 510.86 968.59 723.72
809.21 645.74 1210.87 921.21 873.11 1139.72 758.65 554.38 736.34 1024.94 678.41 542.98 846.84 1036.19 773.52 481.02 947.10 1088.67 577.04 529.72 413.99 888.27 1441.34 496.25 1348.54 661.88 1301.83 350.29 382.61 577.05 1249.60 979.28 998.18 1117.15 541.97 518.81 873.20 915.45 1187.26 722.14 957.01 1102.13 1121.54 1485.82 1236.28 875.98 515.77 0.00 1072.79 1224.49 990.08 303.99 1192.64 834.13 1013.01 232.09 969.16 762.57 396.35 193.75 983.44 251.99 426.71 1040.34 981.81 456.84 567.10 217.09 912.35 1015.32 518.90 287.02 747.37 979.62 720.23 841.07 1172.07 362.05 361.86 965.38 966.27 1365.35 965.74 356.81 875.95 1361.88 344.23 1194.39 1045.13 1035.89 639.99 1196.76 1117.32 1177.82 601.55 920.96 1256.39 885.60 401.16 1174.66 1077.48 931.55 675.06 1066.04 859.01 1299.83 766.96 1136.66 1109.57 1083.23 681.34 121.40 1028.81 638.89 360.28 669.61 1003.96 785.71 1496.29 502.42 901.08 1122.82 380.31 1400.36 966.78 254.53 813.91 734.59 1286.28 792.88 537.40 761.35 1091.75 840.66 671.11 736.41 1050.85 961.92 619.81 853.35 722.70 1237.49 906.83 900.81 595.96 667.09 516.32 440.94 1164.82 23.85 898.02 1061.37 1155.75 1174.69 106.23 434.41 924.97 948.22 691.71 1188.73 705.11 798.84 1068.53 729.34 894.23 819.97 362.64 978.55 925.37 1422.76 1195.45
341.38 427.05 226.08 304.69 574.85 221.23 881.23 565.07 685.92 374.85 811.25 737.03 513.29 373.81 723.63 727.07 284.96 566.24 587.97 648.74 752.84 687.60 422.81 838.97 302.87 753.98 346.06 845.03 784.22 775.41 355.33 262.36 188.11 659.89 708.42 786.98 634.14 771.23 140.96 516.55 428.12 462.31 478.30 450.74 278.93 764.38 587.58 1072.79 0.00 313.06 388.39 843.30 421.22 576.89 357.40 927.19 430.69 704.58 859.31 1000.30 256.46 962.96 726.00 520.91 440.69 862.49 662.70 1016.00 786.66 178.72 667.39 864.40 500.99 632.92 581.58 662.16 408.71 866.33 832.07 878.16 831.41 354.07 495.72 946.79 340.75 289.09 843.65 240.67 785.37 140.76 530.94 499.16 623.64 418.19 538.58 258.58 307.11 656.15 850.72 806.24 674.58 269.17 551.26 832.21 737.10 262.35 428.72 151.57 346.21 287.18 753.99 1031.31 649.04 771.66 743.07 766.77 133.58 444.28 454.86 671.72 336.86 601.82 759.82 337.66 797.03 892.76 572.25 568.33 371.62 559.10 692.01 444.86 129.06 461.92 547.90 764.65 818.31 602.70 502.73 829.31 569.57 336.10 230.71 396.32 557.66 736.99 696.76 723.26 211.10 1057.42 440.98 747.79 214.66 237.60 966.56 739.73 581.14 421.18 527.03 199.28 831.45 455.91 414.40 434.14 344.46 438.42 792.91 440.37 240.72 381.09 172.27
611.15 676.76 302.53 571.68 875.88 409.30 1095.23 744.00 735.49 356.22 1021.72 1036.63 767.11 532.40 711.07 942.13 461.41 441.60 750.70 786.75 1022.33 945.26 418.73 1085.46 343.38 789.56 394.08 1070.26 991.94 1030.40 434.72 567.84 304.66 914.45 771.60 872.31 868.28 1042.18 217.41 629.35 677.53 677.60 340.42 440.52 81.51 1015.06 813.85 1224.49 313.06 0.00 637.19 1131.10 443.84 879.72 447.20 1176.90 412.06 944.49 1109.56 1189.68 353.07 1067.19 930.15 771.54 422.06 975.53 748.03 1169.06 1089.96 353.89 783.94 1015.82 749.78 566.21 861.51 923.61 631.96 997.41 1007.34 1176.60 1096.55 344.80 745.13 960.78 461.78 329.73 1059.30 128.33 1088.67 316.03 667.04 641.37 874.32 231.78 741.14 561.88 31.90 927.10 1109.59 647.68 550.57 572.47 793.86 1103.01 987.78 247.63 533.78 217.71 614.02 462.92 810.45 1179.34 511.16 949.41 918.76 988.99 382.37 711.27 493.31 984.78 377.96 480.97 898.73 373.32 730.32 1114.29 591.35 646.91 546.00 621.55 800.03 699.24 212.89 540.50 795.91 1001.23 1110.54 873.87 692.38 1105.84 749.75 60.89 448.22 699.62 756.56 902.21 798.81 890.05 151.65 1248.34 488.74 609.91 433.30 104.35 1214.88 1043.00 852.09 686.32 745.67 113.78 1017.60 748.08 717.70 589.58 457.26 683.42 1009.47 691.05 532.08 410.97 252.87
445.84 568.04 419.02 190.58 310.69 292.22 593.93 612.43 905.09 676.30 577.19 673.86 303.01 104.79 942.80 626.03 397.75 862.17 645.61 706.38 695.58 418.84 616.46 704.69 487.67 921.48 390.99 765.54 666.81 698.16 338.76 189.53 548.81 336.95 795.65 893.96 385.27 502.47 494.30 616.48 137.82 112.05 839.34 583.16 620.01 463.06 664.07 990.08 388.39 637.19 0.00 785.01 359.42 348.67 189.99 888.46 671.47 414.28 792.10 949.87 547.63 992.52 653.42 250.26 716.47 934.61 826.70 877.87 549.56 506.31 784.07 913.40 311.72 908.70 388.52 383.90 181.99 913.89 727.58 636.89 556.84 514.77 198.92 982.19 624.01 488.91 750.60 621.18 583.20 443.75 429.54 221.95 352.99 760.47 550.80 129.81 669.09 387.39 793.46 1144.94 950.36 140.40 426.05 566.93 435.78 510.58 620.53 500.05 119.49 260.21 933.93 948.13 953.41 582.97 792.07 536.44 368.60 330.17 635.95 644.87 650.60 901.87 772.04 494.49 969.57 735.55 808.67 816.72 391.82 817.14 791.15 354.53 466.23 757.88 404.94 490.08 589.21 310.21 597.75 558.79 443.26 668.03 427.41 208.76 565.32 552.52 775.92 776.09 599.49 1013.93 767.01 1056.13 284.90 574.33 943.99 712.88 312.38 146.61 400.72 587.67 585.01 327.14 91.53 521.31 640.42 305.50 704.75 169.72 235.70 573.50 464.18
566.84 498.65 1017.18 659.96 631.53 913.38 488.94 449.27 696.82 812.07 420.61 292.84 612.22 833.82 734.53 244.23 758.12 1016.35 401.27 422.18 155.38 584.28 1198.86 226.54 1138.80 625.44 1093.45 60.84 159.57 331.22 1041.22 766.23 826.44 863.91 495.34 493.95 569.21 644.75 977.52 575.75 690.15 864.61 1012.57 1225.55 1092.18 639.19 338.12 303.99 843.30 1131.10 785.01 0.00 994.57 592.55 837.57 129.97 825.65 519.06 101.58 227.84 812.93 343.74 216.97 736.35 870.65 500.11 550.03 172.70 642.64 807.77 490.92 259.04 522.53 944.08 502.64 584.45 957.48 334.07 125.12 695.67 712.78 1161.27 707.13 450.14 698.30 1132.39 77.37 1010.38 784.09 816.43 484.47 995.27 875.74 1017.60 412.28 722.89 1105.53 680.53 157.84 1107.73 943.87 733.48 408.20 820.21 615.50 1064.10 644.48 964.44 894.98 907.79 710.23 272.16 1016.13 397.88 303.91 413.81 772.29 559.08 1264.75 258.91 782.12 1043.48 283.88 1175.36 927.79 49.46 843.53 695.29 1129.85 750.87 495.39 569.57 952.00 731.69 429.31 499.62 781.14 738.88 485.38 583.64 460.00 1076.54 773.22 638.03 444.23 426.08 569.77 387.93 980.81 311.10 789.05 1056.38 912.74 1026.75 220.24 198.06 652.04 681.36 451.04 1022.55 428.31 580.33 801.67 613.44 745.66 663.54 121.63 723.31 684.36 1155.90 976.02
564.49 609.05 285.24 363.34 512.43 247.42 866.82 759.03 1003.84 709.01 821.95 868.08 526.39 265.65 991.74 788.01 474.03 774.55 769.97 792.38 875.06 692.75 367.31 966.30 287.03 930.92 137.63 967.32 906.44 867.22 102.65 301.09 569.95 578.38 907.21 985.44 615.77 796.48 317.60 702.49 441.22 300.10 738.33 347.05 489.67 756.30 708.32 1192.64 421.22 443.84 359.42 994.57 0.00 551.41 180.45 1097.03 734.00 714.21 991.03 1146.04 609.24 1083.70 819.96 504.79 771.86 1081.21 967.19 1074.04 778.58 547.46 903.83 985.14 531.42 943.60 653.00 647.75 285.74 1000.63 869.45 874.76 796.92 293.38 502.95 1137.26 655.53 278.31 921.41 498.63 777.29 510.32 633.03 278.42 615.56 650.47 720.58 271.68 466.60 670.37 955.47 1053.41 928.16 261.09 615.10 740.86 729.02 196.21 605.66 339.29 239.93 190.26 1022.84 1072.06 909.07 780.91 863.81 832.09 400.12 492.77 389.76 871.98 639.39 826.98 883.84 258.38 1026.70 976.78 879.75 886.56 180.16 865.42 882.48 511.67 384.20 820.25 623.72 776.87 794.31 594.62 727.23 802.95 619.66 495.59 497.25 388.24 715.65 756.01 916.41 844.00 471.13 1200.24 803.66 1007.82 223.42 485.66 1148.56 888.88 606.39 433.40 577.12 421.23 848.65 447.83 406.32 592.12 702.89 444.66 920.21 432.29 357.48 341.40 331.44
395.96 457.69 675.38 321.99 38.98 554.66 371.30 566.31 928.66 702.96 340.89 416.75 112.61 420.91 951.81 448.48 518.83 914.50 533.67 584.13 439.29 182.01 905.54 496.71 787.88 860.14 682.46 533.83 451.52 455.13 630.23 370.13 679.37 323.32 709.83 821.77 105.03 285.38 666.77 614.90 217.35 383.16 921.23 874.63 835.76 229.76 554.20 834.13 576.89 879.72 348.67 592.55 551.41 0.00 432.99 661.26 758.80 174.25 490.97 726.76 642.31 873.88 475.87 242.09 768.80 888.49 790.96 721.92 316.26 580.86 677.70 756.65 201.85 961.03 116.87 152.23 517.17 736.34 569.21 403.52 323.47 805.33 149.75 872.32 678.67 801.66 540.20 751.39 376.61 624.25 319.67 505.62 283.19 946.16 434.06 318.31 875.04 146.90 523.38 1188.67 1002.69 316.27 248.50 395.14 202.48 734.44 622.94 689.23 468.16 458.14 952.06 781.18 970.54 311.32 653.90 296.41 514.05 212.30 927.42 434.40 700.34 941.64 655.30 785.96 1020.64 579.60 827.92 759.31 681.23 816.99 702.32 217.18 680.78 773.93 227.39 258.79 343.67 200.67 513.04 321.32 300.30 884.86 468.20 250.21 484.20 282.56 740.18 636.62 771.81 856.78 773.21 1075.38 530.66 789.32 777.89 399.72 137.55 222.19 290.85 766.55 339.87 197.67 303.77 483.47 656.47 259.38 489.46 220.41 382.78 868.98 631.31
384.04 428.60 287.46 182.89 430.95 152.84 732.44 578.58 834.64 603.31 690.48 725.15 354.05 85.20 871.32 607.56 293.58 752.68 589.52 611.93 739.24 548.31 483.68 795.47 354.89 794.42 318.08 791.92 760.15 686.77 283.10 120.64 416.57 511.74 726.76 804.99 492.42 631.94 328.82 565.99 267.29 302.04 709.10 510.37 460.44 620.48 527.87 1013.01 357.40 447.20 189.99 837.57 180.45 432.99 0.00 928.74 648.99 543.75 828.01 984.85 476.83 903.25 684.14 324.34 606.98 900.76 819.01 917.04 642.76 369.74 726.65 804.69 380.12 774.40 480.66 513.37 193.42 820.18 712.45 734.26 686.31 412.02 326.61 956.81 486.33 368.67 764.41 469.40 641.47 341.12 459.93 248.76 471.61 621.24 540.13 114.68 479.10 516.86 775.02 1009.62 815.04 125.27 434.65 669.35 593.20 346.52 469.16 310.06 218.42 70.22 886.34 891.61 805.89 632.70 683.36 659.75 230.92 322.48 495.16 691.53 475.11 711.88 703.39 411.39 938.51 819.78 723.81 717.36 311.11 684.97 702.03 346.84 354.97 651.15 455.76 619.55 674.41 435.26 568.54 701.76 441.85 478.04 328.05 252.42 559.21 615.19 768.23 663.55 441.90 1019.79 667.16 924.13 142.74 454.33 968.11 708.43 441.85 276.08 441.30 432.45 714.48 312.01 270.50 411.67 533.69 279.03 739.76 296.47 177.03 440.72 293.36
633.43 500.14 1074.73 789.93 692.07 985.23 574.06 507.70 736.65 907.23 510.93 375.50 695.84 940.58 774.36 350.03 824.71 1080.83 459.70 398.93 221.97 714.25 1272.70 311.66 1206.88 695.93 1186.91 190.81 241.99 410.58 1134.68 839.06 872.24 956.25 546.01 535.35 699.18 742.70 989.61 641.76 785.38 944.94 1071.00 1299.39 1137.98 687.08 468.09 232.09 927.19 1176.90 888.46 129.97 1097.03 661.26 928.74 0.00 913.73 576.31 225.26 102.45 837.84 432.18 301.31 866.32 935.13 541.51 650.50 90.08 727.76 885.72 532.32 300.44 643.01 1002.51 569.23 649.18 1070.45 375.47 244.31 780.79 789.55 1208.17 746.22 458.55 828.27 1193.10 207.34 1063.60 828.25 935.62 566.89 1078.79 936.28 1128.39 496.62 842.08 1174.59 758.63 216.57 1181.51 1002.30 835.94 538.17 875.09 672.75 1111.00 727.47 1078.76 1007.95 998.96 682.75 180.00 1074.56 458.85 337.63 480.40 882.35 679.66 1352.18 316.16 821.73 1133.26 357.66 1241.67 967.62 152.91 901.43 704.72 1222.96 801.54 517.58 684.84 1056.24 790.12 549.79 547.51 861.19 821.30 573.13 668.76 575.20 1176.32 832.28 708.79 539.99 448.49 603.84 436.19 1034.03 228.16 847.48 1097.78 1009.23 1072.55 137.30 264.65 769.87 776.59 566.31 1093.24 537.63 673.44 896.90 641.76 813.85 756.65 230.80 816.88 756.21 1229.74 1025.07
403.87 497.74 488.71 584.68 797.78 631.69 1035.43 434.64 353.95 55.84 913.93 880.48 711.67 645.31 391.66 750.64 380.00 190.70 479.15 539.92 815.33 894.94 685.65 933.19 630.72 489.55 636.32 863.24 827.33 862.19 688.55 649.27 242.58 884.82 479.25 591.45 863.83 1003.18 483.45 315.45 714.35 783.52 261.86 712.34 450.27 947.56 542.30 969.16 430.69 412.06 671.47 825.65 734.00 758.80 648.99 913.73 0.00 914.94 918.38 956.31 202.47 737.40 743.62 854.54 45.00 618.85 524.19 918.51 1052.45 309.56 469.30 701.18 645.99 237.23 774.25 854.20 742.28 738.32 742.79 1102.59 1068.95 634.96 781.95 723.71 190.72 616.94 794.75 283.73 1112.72 307.87 576.35 846.88 924.95 295.15 577.08 602.33 435.56 905.70 913.21 473.47 278.89 612.92 652.28 1132.67 938.67 537.79 332.96 415.50 761.24 680.21 451.06 867.26 281.94 885.02 678.17 947.70 418.07 607.01 753.08 834.61 197.97 243.13 658.14 665.51 401.34 776.19 258.53 255.14 755.67 297.13 493.92 582.65 380.65 148.73 673.39 907.29 1079.78 872.10 494.41 1036.51 631.86 408.80 347.85 718.60 510.46 875.76 473.41 575.41 313.30 953.79 206.09 393.67 607.69 361.20 862.93 814.14 876.56 723.14 589.52 415.64 940.63 646.49 758.15 356.12 143.36 664.42 841.61 774.00 566.42 642.69 515.36
525.49 500.17 802.86 432.96 213.23 682.14 230.45 570.10 944.73 877.21 166.64 302.07 222.97 504.09 982.44 339.93 589.52 1082.13 576.15 636.92 363.68 145.05 994.14 370.58 886.97 827.57 805.27 458.22 379.96 290.82 753.04 497.02 765.48 446.79 711.79 838.07 184.16 242.28 826.43 692.73 276.46 450.99 1039.82 949.66 946.73 186.66 606.53 762.57 704.58 944.49 414.28 519.06 714.21 174.25 543.75 576.31 914.94 0.00 447.74 651.15 760.90 802.32 466.02 383.20 942.33 892.28 713.79 650.36 269.00 666.97 720.18 718.92 303.74 1011.04 159.35 78.50 592.49 734.41 497.13 337.14 257.90 873.75 324.00 894.79 783.92 888.21 453.47 861.75 351.51 729.53 397.50 577.32 441.75 1039.04 476.54 446.00 942.18 215.24 448.23 1239.32 1108.90 453.12 290.98 376.11 159.38 861.92 699.29 836.66 531.30 585.62 919.49 703.24 1093.47 185.44 597.59 122.16 669.23 364.31 1002.45 260.15 794.35 1105.06 617.62 908.77 1089.64 508.04 878.57 801.79 779.74 887.53 705.07 371.87 791.75 855.38 269.87 84.54 348.82 273.65 520.42 213.76 342.78 964.76 586.79 325.97 533.62 138.24 764.57 625.93 855.38 786.42 831.74 1126.03 658.14 840.14 702.28 328.16 193.56 285.25 343.18 876.91 183.78 308.03 387.98 577.48 771.58 376.33 402.73 336.11 495.57 972.80 805.56
527.43 510.85 1038.75 666.38 529.95 891.62 387.36 499.08 748.39 874.76 349.32 213.89 589.84 818.13 785.57 220.45 718.71 1056.22 459.75 445.73 115.97 571.92 1237.94 124.96 1120.06 673.93 1071.91 89.75 125.29 233.66 1019.68 745.67 804.90 814.29 555.38 595.53 571.81 579.89 972.45 634.23 679.38 838.94 1062.27 1264.08 1070.64 558.02 396.60 396.35 859.31 1109.56 792.10 101.58 991.03 490.97 828.01 225.26 918.38 447.74 0.00 255.40 848.55 436.47 211.90 733.06 910.52 601.69 579.15 274.28 541.06 784.41 551.57 360.62 525.27 958.47 463.23 482.87 960.22 435.65 187.81 594.09 611.20 1164.01 640.72 551.72 756.78 1133.84 135.85 1016.50 682.51 846.97 450.19 961.34 774.16 1081.03 400.01 740.53 1085.33 633.92 56.26 1094.63 1002.35 729.94 414.62 722.65 544.18 1066.84 666.60 992.94 897.72 898.23 765.85 372.75 1040.86 310.35 366.60 354.78 801.20 562.96 1240.97 187.59 786.54 1074.19 346.57 1175.41 978.83 142.19 825.96 746.64 1087.69 804.93 526.95 556.32 954.93 790.17 432.05 437.07 679.56 691.64 491.93 482.06 433.72 1105.45 711.71 602.79 461.37 357.55 528.37 450.62 986.93 380.98 847.53 1073.42 915.62 1005.21 290.12 119.58 619.50 670.59 455.97 1053.09 337.85 584.03 790.90 608.37 787.94 649.94 100.09 711.38 662.82 1205.89 1000.33
698.93 602.59 1168.65 805.15 765.74 1045.47 642.76 561.51 718.57 963.54 552.70 434.06 732.18 983.56 756.28 408.04 890.21 1063.32 513.51 489.73 287.47 784.15 1375.15 380.36 1287.36 657.20 1225.54 192.93 291.66 465.39 1173.31 899.30 956.34 1001.87 512.21 493.46 707.17 789.74 1092.06 730.35 850.88 1010.44 1123.61 1401.84 1222.08 772.78 475.78 193.75 1000.30 1189.68 949.87 227.84 1146.04 726.76 984.85 102.45 956.31 651.15 255.40 0.00 887.99 388.26 365.53 948.31 988.94 499.62 617.74 72.00 796.46 955.91 524.32 292.44 672.13 1005.36 634.73 721.53 1106.53 333.58 276.59 849.49 855.05 1310.62 839.22 438.46 835.96 1289.39 261.42 1154.40 930.70 967.90 616.56 1101.75 1009.95 1167.75 553.64 874.36 1221.58 845.39 311.66 1164.17 1056.11 884.95 592.25 954.38 747.59 1213.45 781.28 1102.10 1069.36 1055.07 709.74 159.91 1066.02 529.97 320.29 545.90 904.38 665.56 1428.56 391.00 861.09 1115.75 340.32 1325.12 949.54 214.32 886.45 751.73 1217.97 767.74 528.42 641.20 1103.47 842.73 613.36 634.47 934.96 870.97 626.94 737.46 620.01 1208.63 892.22 774.29 581.89 550.94 588.86 429.23 1124.83 184.24 870.14 1055.89 1069.47 1134.70 93.38 330.15 790.00 842.09 583.13 1172.97 560.40 705.04 960.28 696.39 868.77 751.66 253.72 907.36 816.45 1332.19 1127.52
376.56 337.70 400.89 410.94 668.57 429.22 875.39 433.69 516.34 228.35 807.56 795.98 537.93 442.84 522.20 740.54 205.98 393.17 467.40 528.17 761.46 763.22 584.21 899.70 464.27 591.73 513.80 785.74 730.08 825.91 545.89 446.80 68.35 816.65 496.61 634.20 726.87 819.10 324.91 354.36 575.38 659.68 378.70 619.75 334.09 763.48 498.23 983.44 256.46 353.07 547.63 812.93 609.24 642.31 476.83 837.84 202.47 760.90 848.55 887.99 0.00 814.99 636.65 715.57 247.47 696.44 509.92 815.99 849.98 107.09 547.63 705.37 479.86 405.78 614.71 709.17 568.05 762.05 755.91 964.92 884.87 515.47 642.98 760.94 153.70 450.49 758.98 269.61 938.70 169.65 481.28 644.41 818.30 347.90 449.23 476.72 350.76 767.24 853.09 637.48 442.90 487.31 539.49 959.21 736.20 442.09 290.42 269.95 587.01 477.74 580.08 935.98 432.40 752.41 625.23 774.95 245.91 449.49 616.26 765.79 102.97 428.91 605.20 499.06 569.89 822.38 328.72 332.73 553.20 374.72 525.04 425.13 277.61 226.32 560.60 789.61 905.76 739.59 477.64 869.64 487.69 373.34 174.11 552.41 468.31 736.45 551.00 615.35 240.04 961.66 283.68 557.68 405.22 248.72 877.21 781.88 702.54 584.17 505.02 327.31 834.26 482.98 601.35 319.84 182.27 510.45 748.46 635.03 363.95 550.10 360.37
676.19 535.91 1037.14 853.36 837.34 1015.30 798.40 421.36 558.98 772.95 718.16 582.73 825.32 956.76 589.28 519.35 717.10 853.96 405.65 344.88 453.74 928.02 1286.87 536.00 1166.21 447.84 1184.75 404.58 422.36 616.80 1134.16 913.91 799.73 1121.68 352.95 284.10 906.02 955.20 1075.02 544.29 914.56 1082.18 869.55 1321.69 1065.47 914.31 375.38 251.99 962.96 1067.19 992.52 343.74 1083.70 873.88 903.25 432.18 737.40 802.32 436.47 388.26 814.99 0.00 427.86 1008.61 740.09 262.64 408.38 405.74 952.10 845.18 320.45 143.18 699.97 801.06 759.98 858.82 1096.67 148.45 398.41 1005.13 1016.01 1191.62 959.85 141.09 728.08 1179.99 383.98 1000.84 1059.64 907.55 629.03 1117.33 1081.55 988.45 460.89 862.71 1035.29 925.35 440.91 959.82 898.92 852.12 660.19 1098.99 898.76 1115.77 618.62 991.33 1075.48 973.47 467.36 281.44 856.66 653.40 241.25 709.36 868.48 727.22 1335.31 542.17 746.59 906.39 239.65 1222.71 782.54 294.28 699.73 570.32 1204.56 608.48 324.52 702.86 952.61 588.67 657.40 774.74 1090.60 1001.67 486.79 893.10 630.44 1064.28 779.46 865.49 450.47 700.60 402.14 239.70 979.98 275.84 646.03 846.53 993.49 1000.04 294.88 474.16 940.06 905.77 610.97 1065.39 744.86 740.26 997.35 626.15 706.13 813.32 402.39 964.84 831.06 1252.04 1068.08
416.48 298.95 845.67 504.48 514.85 772.10 484.49 311.10 604.57 696.75 389.75 256.29 431.39 663.51 641.75 126.09 545.30 844.32 302.58 241.81 144.48 535.96 1043.64 283.95 921.83 530.11 929.15 172.60 113.10 280.32 876.92 601.18 631.79 776.44 413.67 480.68 529.51 576.67 760.55 437.89 596.58 709.13 889.07 1070.33 897.53 521.05 240.28 426.71 726.00 930.15 653.42 216.97 819.96 475.87 684.14 301.31 743.62 466.02 211.90 365.53 636.65 427.86 0.00 636.46 698.62 500.91 435.33 362.24 569.70 590.80 389.40 329.57 341.70 818.65 359.00 507.32 773.62 345.06 178.45 681.85 639.84 967.96 550.93 495.18 597.57 935.61 139.60 847.31 720.92 653.36 290.60 824.08 739.19 892.98 195.31 569.46 925.74 611.12 238.05 1012.06 845.18 558.87 252.72 720.00 516.16 881.94 461.90 806.23 714.15 746.09 622.03 305.31 867.84 352.75 208.24 345.27 681.16 402.27 1090.93 210.06 613.34 878.21 188.21 978.33 835.01 219.92 652.94 577.49 921.65 648.17 414.02 383.53 761.32 633.00 248.48 381.48 723.61 647.80 294.79 510.70 304.52 954.73 609.44 510.68 282.19 330.40 384.55 292.26 817.74 450.56 659.90 900.40 757.26 832.10 387.94 164.90 599.04 590.92 265.00 859.48 409.95 372.13 673.45 396.47 609.98 455.34 111.81 555.92 555.66 1000.68 796.01
482.40 564.96 558.26 393.67 203.11 437.54 477.02 690.78 1015.10 798.70 446.28 581.71 216.13 332.83 1052.81 609.07 509.59 1010.24 694.26 724.47 681.38 315.72 788.42 617.32 679.23 956.42 593.97 775.92 690.23 596.65 554.21 322.05 681.33 187.40 814.35 928.90 301.06 363.86 636.11 729.57 140.19 208.04 986.31 798.61 765.33 396.15 660.99 1040.34 520.91 771.54 250.26 736.35 504.79 242.09 324.34 866.32 854.54 383.20 733.06 948.31 715.57 1008.61 636.46 0.00 864.54 974.35 861.64 909.05 452.91 637.67 806.78 910.32 341.90 1040.74 342.74 304.70 388.72 896.93 729.80 458.94 382.88 667.34 139.65 988.83 756.40 693.01 726.48 732.52 404.29 611.32 453.55 341.89 147.27 926.20 547.72 262.33 803.44 210.77 712.41 1188.27 1004.10 251.74 409.09 357.45 368.87 617.32 632.74 634.40 326.22 341.02 1048.34 941.77 1076.36 491.23 788.99 453.08 501.12 346.10 819.16 620.27 790.68 1035.89 768.96 709.94 1083.77 785.81 893.02 909.60 547.36 903.43 831.40 332.19 649.97 847.33 387.98 364.51 407.54 110.92 625.35 493.63 440.18 802.38 573.73 236.17 628.88 446.69 810.86 795.35 719.11 1047.45 830.74 1118.88 413.54 731.39 956.59 641.81 230.74 146.67 397.64 720.19 466.95 268.35 184.33 596.46 742.91 351.56 728.17 80.54 359.00 754.02 600.78
448.87 507.74 498.71 594.68 807.78 651.14 1014.93 427.43 396.97 65.84 958.93 886.47 721.67 671.68 359.26 781.51 390.00 145.70 475.43 536.20 835.32 939.94 695.65 925.98 640.72 515.82 646.32 867.82 811.72 848.09 698.55 628.97 252.58 929.82 481.94 594.14 873.83 1047.68 483.21 348.83 724.35 828.52 246.88 722.34 460.27 992.56 538.58 981.81 440.69 422.06 716.47 870.65 771.86 768.80 606.98 935.13 45.00 942.33 910.52 988.94 247.47 740.09 698.62 864.54 0.00 614.31 526.88 937.19 1057.24 351.09 507.70 739.58 655.99 192.23 784.25 892.91 720.93 726.85 752.79 1147.59 1090.75 621.91 791.95 726.40 235.72 626.94 799.33 293.73 1068.29 322.85 603.32 855.74 967.27 340.15 586.23 612.33 445.56 915.70 930.59 428.47 233.89 622.92 697.28 1115.13 971.28 582.79 319.64 432.57 760.13 652.78 423.90 905.66 284.10 892.47 670.96 932.05 376.06 633.23 763.08 865.48 242.97 198.13 650.93 675.51 356.34 821.19 290.91 257.83 732.15 299.36 505.63 608.87 390.65 151.42 689.61 869.02 1089.78 917.10 492.86 998.24 665.13 419.63 357.85 730.61 539.85 845.27 476.10 609.09 300.73 957.96 193.80 348.67 636.39 357.37 907.93 806.93 886.56 733.14 634.52 425.64 960.66 672.71 768.15 366.12 188.36 692.16 810.43 784.00 549.72 652.69 518.67
577.01 472.16 979.56 754.18 901.54 916.12 925.66 322.18 376.33 654.40 817.11 681.68 791.06 973.40 414.04 602.59 768.29 691.77 370.18 356.39 547.70 948.18 1181.40 686.00 1128.21 270.95 1127.17 534.70 554.89 720.06 1075.28 860.45 702.09 1129.95 273.50 121.91 902.59 1036.66 951.07 415.96 918.61 973.02 688.30 1214.05 958.69 981.30 419.23 456.84 862.49 975.53 934.61 500.11 1081.21 888.49 900.76 541.51 618.85 892.28 601.69 499.62 696.44 262.64 500.91 974.35 614.31 0.00 227.50 492.11 973.06 683.77 232.69 241.07 696.54 621.17 771.62 872.22 1090.52 166.04 414.25 1105.25 1074.49 1129.50 936.02 121.55 634.94 1114.43 466.21 882.29 1108.47 746.33 615.74 1067.48 1121.62 841.88 457.46 896.48 1004.44 964.15 597.08 797.63 637.48 889.16 639.99 1150.69 966.29 1032.33 494.67 848.62 1040.01 970.98 279.22 400.10 694.47 715.01 302.86 806.13 810.47 708.88 1259.70 651.23 634.45 744.20 322.89 1163.00 588.71 496.91 521.38 363.71 1105.38 462.81 245.07 684.52 803.71 470.12 661.10 841.73 1141.41 1006.40 387.61 970.95 594.89 977.14 713.34 824.48 434.60 762.21 223.97 338.80 864.57 469.34 527.48 684.34 940.12 902.40 440.13 590.38 979.45 927.40 607.54 936.16 811.79 706.00 956.80 552.47 587.58 789.21 516.95 968.54 805.79 1157.86 942.09
521.15 424.09 861.73 636.12 813.71 846.92 831.55 298.64 230.94 529.01 790.48 684.60 678.35 855.34 268.65 561.42 633.46 606.74 272.27 282.06 575.41 858.84 1019.43 704.11 944.21 113.78 981.35 541.15 544.03 685.68 963.59 742.39 474.59 1017.24 145.70 124.28 812.55 956.07 803.66 275.31 766.70 937.68 639.55 1063.44 740.33 900.45 311.20 567.10 662.70 748.03 826.70 550.03 967.19 790.96 819.01 650.50 524.19 713.79 579.15 617.74 509.92 408.38 435.33 861.64 526.88 227.50 0.00 560.42 938.32 573.10 134.47 359.19 606.50 459.59 689.07 782.18 974.29 284.16 461.65 1030.77 971.69 945.50 823.31 286.28 409.58 930.43 472.66 734.53 1055.19 586.30 511.22 1025.49 1008.91 713.61 407.05 790.62 776.94 907.66 630.20 654.63 557.45 780.03 557.44 1060.65 873.17 848.33 361.53 730.79 942.10 889.23 205.70 527.06 508.78 680.88 322.92 773.78 664.99 624.15 1096.20 645.39 406.95 602.79 302.89 979.00 461.91 562.36 293.88 269.05 1034.32 327.34 137.04 632.58 685.88 375.46 578.55 798.33 1062.61 919.13 331.75 917.02 543.40 799.52 576.62 726.26 352.56 703.76 50.78 216.07 704.96 590.51 425.15 541.34 822.92 674.90 558.25 595.83 866.74 775.49 517.50 753.49 805.51 593.29 853.84 473.81 447.40 676.50 506.09 826.35 672.81 1011.67 824.26
713.24 590.22 1096.65 777.06 760.90 1042.18 645.56 509.76 646.57 891.54 566.20 430.77 729.32 917.59 684.28 368.81 845.76 1046.72 493.10 437.26 301.78 739.60 1352.30 383.16 1271.93 649.69 1183.23 233.54 270.40 425.79 1131.00 862.08 884.34 1004.94 548.03 485.95 741.91 803.24 1079.69 680.09 844.80 981.71 1057.14 1375.40 1150.08 763.77 461.78 217.09 1016.00 1169.06 877.87 172.70 1074.04 721.92 917.04 90.08 918.51 650.36 274.28 72.00 815.99 405.74 362.24 909.05 937.19 492.11 560.42 0.00 763.40 923.08 495.05 309.92 635.16 940.32 608.02 649.53 1059.86 326.07 204.59 852.29 864.83 1251.13 836.30 421.01 821.96 1262.93 232.02 1085.60 918.33 895.90 595.30 1078.16 1005.11 1113.69 507.50 802.36 1166.75 773.39 288.07 1110.11 1035.70 812.95 525.30 914.78 746.80 1181.20 723.95 1076.38 997.36 987.26 702.23 142.46 1038.15 526.68 306.29 557.40 944.99 676.18 1389.33 390.21 807.03 1099.15 286.26 1254.83 877.54 142.32 854.30 697.67 1213.62 803.56 519.60 687.12 1031.47 789.40 546.41 624.20 937.76 849.71 575.19 740.26 577.10 1189.33 893.91 788.60 567.89 538.57 590.98 390.31 1056.03 201.72 846.76 1048.38 1028.29 1064.71 110.86 322.20 797.28 836.01 588.06 1102.02 592.90 690.50 956.32 731.84 812.36 773.71 250.43 853.85 813.16 1310.55 1115.15
684.75 647.53 900.31 623.18 284.52 777.00 153.70 757.89 1105.71 1019.22 254.67 390.10 428.87 622.13 1143.42 443.61 761.01 1202.94 740.11 693.96 512.04 187.44 1117.25 416.10 997.65 1023.74 887.77 606.58 540.61 420.36 835.54 587.80 905.71 431.69 860.79 999.53 249.14 114.70 910.90 856.69 450.14 604.33 1193.98 1079.94 1059.76 141.06 703.85 912.35 786.66 1089.96 549.56 642.64 778.58 316.26 642.76 727.76 1052.45 269.00 541.06 796.46 849.98 952.10 569.70 452.91 1057.24 973.06 938.32 763.40 0.00 807.20 841.55 825.08 467.70 1175.00 323.31 249.99 722.49 863.91 558.81 132.19 101.43 1023.60 452.23 958.17 891.66 1006.25 605.57 998.27 204.07 869.76 561.46 637.83 391.56 1197.38 640.50 528.08 1093.77 242.14 511.19 1411.36 1272.86 517.49 454.94 250.91 113.78 974.79 805.03 938.23 659.99 712.98 1054.82 826.18 1240.25 314.94 727.09 253.61 766.87 517.55 1132.73 420.80 952.95 1252.42 717.57 991.27 1252.45 657.82 1050.61 965.75 862.25 1051.49 858.78 533.44 915.72 1006.38 433.83 188.22 199.88 343.82 692.46 59.00 490.14 1120.80 773.45 495.75 680.98 287.24 945.04 769.18 997.76 922.04 995.70 1298.07 755.59 1024.26 831.18 488.81 281.90 441.35 505.99 985.94 274.22 513.93 528.04 741.44 939.02 521.87 563.38 410.51 628.32 1074.29 875.44
319.36 385.58 339.48 335.25 619.84 380.25 858.17 460.94 588.03 285.25 742.61 773.17 512.58 442.96 586.50 673.75 128.08 496.79 508.94 569.71 668.44 656.13 497.63 830.17 481.44 659.00 487.09 762.98 699.82 811.42 493.00 392.67 98.51 709.56 560.91 697.38 665.42 776.32 303.13 418.66 497.48 580.68 441.88 542.11 325.50 720.70 546.11 1015.32 178.72 353.89 506.31 807.77 547.46 580.86 369.74 885.72 309.56 666.97 784.41 955.91 107.09 845.18 590.80 637.67 351.09 683.77 573.10 923.08 807.20 0.00 577.79 796.52 441.72 512.87 507.62 639.10 492.21 774.43 753.87 913.33 842.09 463.05 565.08 805.32 251.09 467.66 730.40 256.51 860.80 62.56 485.04 618.50 740.40 398.61 497.11 386.13 351.58 699.65 766.32 701.78 507.20 396.72 538.92 881.31 693.42 385.56 354.91 215.43 502.00 407.26 674.86 896.11 539.49 656.60 701.60 704.31 147.34 388.04 575.93 757.72 167.27 523.62 681.86 516.23 676.98 810.72 414.07 439.82 550.34 469.50 589.34 363.68 170.52 333.41 534.01 751.51 827.86 685.56 410.83 826.86 524.75 374.16 162.99 492.75 491.98 680.75 607.16 642.60 226.94 991.47 379.50 621.98 363.90 249.54 925.09 711.12 624.64 506.27 482.21 268.68 768.99 427.52 526.52 345.84 246.57 403.36 702.61 557.13 309.82 524.67 288.09
426.47 311.67 808.01 603.64 692.74 765.58 721.59 171.64 328.10 525.14 678.06 610.17 623.49 772.12 365.81 480.89 583.57 653.40 184.15 147.59 476.21 779.66 1024.12 632.06 946.81 224.21 923.57 461.82 502.50 575.72 924.74 659.17 479.28 962.38 53.05 160.41 743.69 871.67 754.57 230.66 687.77 827.94 637.16 1042.50 745.02 816.05 198.78 518.90 667.39 783.94 784.07 490.92 903.83 677.70 726.65 532.32 469.30 720.18 551.57 524.32 547.63 320.45 389.40 806.78 507.70 232.69 134.47 495.05 841.55 577.79 0.00 231.88 537.64 568.67 560.83 709.15 908.53 306.91 367.55 970.11 911.69 950.19 728.80 279.40 429.03 935.12 419.51 739.59 957.93 590.99 455.25 916.94 930.69 716.76 298.56 714.40 781.63 824.60 550.38 743.60 603.69 705.73 469.32 991.79 788.77 853.02 298.17 677.07 853.98 796.87 290.82 397.96 623.17 568.46 228.82 667.82 616.56 578.39 1095.29 544.86 446.69 705.83 208.79 983.69 559.07 474.88 408.27 249.87 954.84 308.58 24.62 567.17 632.16 356.28 450.31 692.82 961.32 849.63 237.07 782.55 444.35 804.21 519.43 591.79 264.44 593.80 110.68 106.11 723.04 495.05 410.98 655.73 789.58 679.59 430.94 513.01 795.46 696.56 448.64 758.18 693.09 538.43 799.29 401.93 402.75 570.24 470.25 747.42 585.34 986.31 770.54
583.77 437.35 1034.08 767.58 751.56 929.52 736.13 335.58 534.25 757.02 631.19 495.76 727.03 889.89 571.96 421.06 757.82 804.77 290.02 259.10 399.72 843.32 1210.07 485.58 1154.34 398.65 1118.26 319.88 368.97 534.14 1069.48 815.62 711.16 1035.90 284.93 234.91 807.01 855.17 974.23 458.51 828.78 986.36 869.04 1254.55 976.90 799.77 276.82 287.02 864.40 1015.82 913.40 259.04 985.14 756.65 804.69 300.44 701.18 718.92 360.62 292.44 705.37 143.18 329.57 910.32 739.58 241.07 359.19 309.92 825.08 796.52 231.88 0.00 601.68 779.66 639.78 758.59 998.11 75.03 266.27 938.87 896.09 1140.45 857.31 191.10 637.00 1140.56 280.29 923.77 939.72 822.87 530.74 1053.45 995.77 948.64 362.60 829.84 1013.51 857.05 416.88 910.63 832.62 819.25 561.90 979.07 794.88 1084.90 517.83 903.14 959.85 874.91 451.19 236.06 807.47 533.48 121.33 630.00 790.81 641.44 1283.14 462.81 662.13 857.20 141.36 1189.13 761.26 308.50 637.53 481.75 1115.80 540.46 256.50 617.08 864.04 588.16 554.86 660.20 972.66 913.82 401.01 789.42 532.15 1018.69 693.68 767.20 364.69 580.68 339.94 153.92 894.20 263.17 642.86 797.34 945.46 911.47 199.06 394.80 854.28 819.99 512.68 956.33 657.89 641.97 928.15 540.37 630.60 725.18 331.03 851.09 732.77 1213.12 982.30
256.82 256.32 600.29 200.16 240.83 431.57 502.72 388.06 758.25 590.15 379.38 379.96 125.77 372.43 795.96 314.31 369.89 801.69 383.95 436.41 448.37 377.66 788.60 468.88 709.49 658.29 619.32 479.20 442.72 414.10 588.38 259.48 540.23 507.54 529.08 639.95 306.88 455.23 587.71 413.05 258.75 423.77 758.78 799.05 710.11 399.61 352.35 747.37 500.99 749.78 311.72 522.53 531.42 201.85 380.12 643.01 645.99 303.74 525.27 672.13 479.86 699.97 341.70 341.90 655.99 696.54 606.50 635.16 467.70 441.72 537.64 601.68 0.00 847.18 144.39 287.59 485.08 602.17 435.04 599.89 521.00 745.70 313.61 670.47 539.07 701.56 445.16 650.14 492.15 477.61 117.82 496.76 485.04 799.52 239.08 280.92 722.07 348.75 481.77 1042.29 888.54 270.33 114.33 538.99 372.33 691.85 471.21 559.73 427.88 450.34 750.21 636.41 831.40 283.49 480.35 383.15 367.41 60.57 812.11 398.28 548.61 828.83 460.32 652.99 835.46 492.84 681.54 600.96 630.22 665.54 526.51 78.04 558.77 634.79 93.22 388.28 525.09 399.92 323.39 505.77 131.54 751.06 305.75 207.44 303.66 330.69 555.72 488.03 625.17 771.22 653.10 929.00 455.57 667.31 701.28 405.69 314.16 267.54 89.00 636.00 406.08 83.59 370.27 331.74 517.33 166.80 453.51 318.40 264.13 745.64 594.37
590.36 644.39 690.94 779.69 1000.01 818.56 1112.84 554.53 293.75 258.07 1044.86 972.68 906.68 839.10 261.63 842.48 582.23 251.47 542.81 603.58 961.11 1081.43 887.88 1045.86 832.95 381.01 838.55 935.20 930.04 996.71 889.14 796.39 444.81 1122.05 542.91 544.75 1037.76 1151.37 666.04 499.00 916.58 1020.75 284.44 889.15 606.53 1106.91 605.96 979.62 632.92 566.21 908.70 944.08 943.60 961.03 774.40 1002.51 237.23 1011.04 958.47 1005.36 405.78 801.06 818.65 1040.74 192.23 621.17 459.59 940.32 1175.00 512.87 568.67 779.66 847.18 0.00 851.69 1000.01 888.35 704.63 831.32 1289.08 1228.30 814.14 984.18 677.94 377.21 819.17 866.71 485.96 1260.52 515.08 753.73 1023.16 1143.47 366.22 674.59 782.27 534.31 1107.93 1009.94 285.27 97.86 792.86 776.79 1282.54 1079.63 775.02 408.00 624.80 950.85 840.06 341.95 915.52 113.70 947.40 685.07 1061.66 543.48 793.50 941.94 926.45 409.15 207.71 705.10 867.74 164.11 908.92 165.71 318.80 924.38 287.89 549.56 769.14 582.88 212.39 797.90 1061.25 1282.01 1058.59 523.86 1190.47 796.01 563.30 542.86 825.30 605.17 994.60 463.30 671.73 492.96 1003.47 257.81 212.64 811.00 549.60 955.26 926.81 1078.79 925.37 776.01 562.41 1071.56 832.98 938.09 547.47 329.85 850.91 905.27 960.20 717.14 844.92 701.50
380.04 340.82 665.48 304.05 155.85 544.76 358.33 449.44 826.05 718.41 234.99 299.88 126.61 478.33 863.76 331.61 476.99 929.95 416.80 477.57 347.26 238.39 904.20 379.84 821.96 777.63 671.54 441.80 378.64 338.26 661.43 403.87 606.13 440.19 592.96 704.90 197.14 310.84 698.88 533.38 250.70 425.23 887.27 905.83 817.82 255.22 457.74 720.23 581.58 861.51 388.52 502.64 653.00 116.87 480.66 569.23 774.25 159.35 463.23 634.73 614.71 759.98 359.00 342.74 784.25 771.62 689.07 608.02 323.31 507.62 560.83 639.78 144.39 851.69 0.00 148.32 566.73 619.47 452.34 455.50 376.61 819.96 264.67 784.00 624.57 808.18 462.46 764.13 421.33 570.18 238.15 559.08 400.06 906.23 317.19 381.32 859.20 263.77 445.14 1115.07 949.55 391.91 131.63 456.82 227.94 745.31 539.94 703.01 508.01 550.88 851.65 664.31 965.39 194.45 537.03 238.76 511.80 204.96 956.50 337.14 635.00 945.71 538.43 797.38 940.85 465.70 754.32 642.44 746.28 728.18 585.45 222.43 662.84 696.03 110.52 243.89 454.27 317.54 396.17 361.38 183.43 881.78 450.14 302.03 374.27 241.65 661.11 565.98 734.56 739.91 672.39 1001.78 520.76 757.16 674.14 389.94 254.42 259.49 194.39 776.30 261.69 211.67 362.22 418.13 640.55 279.97 416.58 310.35 368.02 861.24 708.00
450.33 432.00 772.48 409.26 135.32 638.98 219.07 563.74 951.42 827.07 227.81 363.24 199.27 473.71 988.60 405.00 511.02 1021.39 565.12 592.65 442.18 90.07 915.64 424.64 856.59 847.92 749.22 536.72 458.46 341.84 696.99 475.34 737.61 403.42 730.62 826.49 136.03 219.11 770.56 638.54 246.08 420.61 988.09 871.16 923.03 163.49 528.03 841.07 662.16 923.61 383.90 584.45 647.75 152.23 513.37 649.18 854.20 78.50 482.87 721.53 709.17 858.82 507.32 304.70 892.91 872.22 782.18 649.53 249.99 639.10 709.15 758.59 287.59 1000.01 148.32 0.00 515.30 767.79 492.32 318.03 237.98 801.34 301.98 891.68 733.04 857.83 531.97 838.05 273.01 701.47 343.31 498.82 379.53 960.54 414.76 415.62 951.38 171.87 519.73 1238.64 1093.52 426.21 279.95 319.85 136.21 831.54 668.39 785.25 452.80 555.24 939.84 759.69 1068.20 239.25 651.40 200.66 632.19 346.78 923.95 338.65 753.59 1065.75 636.00 852.72 1011.14 586.54 877.89 776.64 721.92 867.62 702.19 322.42 768.05 828.30 258.84 163.04 305.95 251.11 544.49 268.24 307.22 971.52 535.06 323.17 495.92 200.69 731.40 663.71 825.00 851.25 820.71 1125.35 627.76 876.59 760.39 406.66 147.75 254.87 264.68 853.21 201.11 284.33 357.60 566.45 710.84 352.63 481.23 305.73 473.23 926.35 735.10
577.46 622.02 362.85 355.63 478.19 242.13 734.37 768.34 948.59 686.44 737.82 791.47 481.22 185.46 986.30 749.26 487.00 866.63 732.33 793.10 860.99 581.70 505.15 842.69 407.82 977.96 275.67 920.98 848.80 819.37 223.44 249.36 499.70 459.24 855.48 998.41 532.50 654.55 440.83 743.31 316.03 180.96 798.01 467.84 569.92 635.99 721.29 1172.07 408.71 631.96 181.99 957.48 285.74 517.17 193.42 1070.45 742.28 592.49 960.22 1106.53 568.05 1096.67 773.62 388.72 720.93 1090.52 974.29 1059.86 722.49 492.21 908.53 998.11 485.08 888.35 566.73 515.30 0.00 1013.60 855.38 705.12 625.07 464.95 380.91 1138.69 600.28 421.60 880.11 560.38 687.71 455.07 538.72 143.86 439.39 737.90 680.86 257.61 642.14 539.55 916.72 1125.95 954.82 247.02 549.28 720.20 608.71 410.53 662.58 463.21 62.50 196.83 1045.70 1057.31 964.13 657.30 876.78 714.65 344.87 478.70 481.63 799.99 634.10 905.30 896.81 379.17 1021.41 917.54 837.76 831.31 209.83 870.69 883.91 465.33 507.72 765.10 528.17 650.71 687.69 478.71 703.76 740.78 573.32 648.42 442.00 374.17 701.58 704.50 940.97 856.97 530.81 1195.92 780.69 1067.50 218.13 550.86 1125.98 840.64 484.00 307.24 530.78 527.10 716.41 401.49 260.03 605.09 647.64 410.97 885.43 311.98 332.21 462.19 405.37
553.00 452.84 992.60 769.96 775.32 938.84 781.91 380.35 459.22 768.99 658.57 566.75 691.86 905.38 496.93 436.55 744.28 729.74 355.46 301.09 444.18 857.86 1213.86 560.61 1141.25 323.62 1103.50 394.91 412.80 590.78 1051.27 831.11 758.75 1036.91 286.43 159.88 816.61 870.88 964.48 453.93 856.07 986.47 830.92 1227.09 971.73 815.26 292.31 362.05 866.33 997.41 913.89 334.07 1000.63 736.34 820.18 375.47 738.32 734.41 435.65 333.58 762.05 148.45 345.06 896.93 726.85 166.04 284.16 326.07 863.91 774.43 306.91 75.03 602.17 704.63 619.47 767.79 1013.60 0.00 315.61 954.36 911.58 1142.54 811.40 164.53 649.64 1127.47 355.32 947.02 955.21 835.01 546.23 1068.94 999.66 966.07 378.09 854.22 965.51 872.54 477.50 835.60 795.89 844.20 530.06 994.56 810.37 1045.37 550.76 861.66 974.62 890.40 376.16 254.46 732.44 548.97 136.82 655.73 824.54 651.94 1279.88 520.52 659.41 782.17 156.85 1176.04 686.23 330.87 562.50 483.18 1131.29 500.78 289.71 627.58 816.75 589.59 508.95 675.69 988.15 908.27 363.60 804.91 532.35 994.50 727.41 782.69 398.42 596.17 264.91 223.10 917.45 338.20 580.36 722.31 954.20 925.29 274.09 464.60 873.89 855.28 528.17 942.20 685.27 657.46 933.92 528.46 626.02 738.04 406.06 816.39 748.26 1170.90 955.13
544.91 438.11 892.06 572.47 608.19 847.70 511.41 336.51 628.86 686.95 402.86 267.43 524.73 713.00 666.57 257.02 641.17 898.49 288.51 309.76 133.45 582.39 1147.71 271.75 1067.34 500.32 978.64 120.45 140.64 305.81 926.41 657.49 763.06 835.44 370.22 451.23 540.74 626.84 939.00 510.81 664.74 777.12 899.81 1170.81 981.86 618.76 312.71 361.86 832.07 1007.34 727.58 125.12 869.45 569.21 712.45 244.31 742.79 497.13 187.81 276.59 755.91 398.41 178.45 729.80 752.79 414.25 461.65 204.59 558.81 753.87 367.55 266.27 435.04 831.32 452.34 492.32 855.38 315.61 0.00 691.00 660.24 1046.54 644.27 399.36 660.89 1058.34 51.96 885.26 762.88 691.31 447.53 873.57 832.53 959.95 326.58 597.77 1004.14 664.19 182.83 982.61 831.11 608.36 320.71 794.80 593.57 976.61 519.36 871.79 807.49 782.67 592.24 267.37 903.37 378.95 178.79 391.88 758.00 471.59 1204.68 236.98 679.53 918.43 158.76 1050.24 859.83 107.33 747.93 570.17 1009.03 625.75 370.27 495.95 826.88 618.93 341.82 480.45 758.69 719.95 401.94 586.49 372.51 1018.73 697.79 620.27 368.80 407.15 456.53 262.81 855.69 385.71 676.29 945.89 823.70 912.33 315.45 176.13 623.57 655.95 383.47 897.43 397.54 512.76 753.59 534.50 682.90 581.84 102.70 649.26 636.44 1130.49 952.50
745.13 726.14 980.24 684.56 364.54 823.73 282.26 841.46 1133.89 1104.96 328.00 463.43 516.13 723.07 1171.60 572.17 785.25 1269.78 839.88 822.52 616.96 302.38 1130.72 469.13 1056.19 1144.55 939.04 667.80 586.67 501.81 886.81 675.75 991.09 386.87 977.66 1089.98 364.08 176.38 1018.55 946.69 499.07 574.66 1271.42 1086.24 1151.52 201.44 832.41 965.38 878.16 1176.60 636.89 695.67 874.76 403.52 734.26 780.79 1102.59 337.14 594.09 849.49 964.92 1005.13 681.85 458.94 1147.59 1105.25 1030.77 852.29 132.19 913.33 970.11 938.87 599.89 1289.08 455.50 318.03 705.12 954.36 691.00 0.00 80.05 1113.32 510.83 1090.36 911.87 1050.62 675.35 1080.98 118.41 908.45 651.46 662.26 427.00 1230.36 732.79 619.58 1182.61 293.55 564.22 1508.39 1320.18 630.17 578.97 138.92 228.72 1039.30 919.97 1009.24 642.62 763.00 1183.38 926.04 1320.27 405.39 817.54 372.48 798.25 615.82 1121.11 528.74 995.69 1319.41 837.57 1042.54 1329.17 710.85 1165.55 1094.67 849.31 1166.16 949.23 620.70 1007.22 1076.69 557.86 316.78 85.47 382.09 807.40 187.56 568.75 1200.74 849.39 553.21 759.59 415.80 1035.49 897.74 1056.01 975.07 1069.94 1397.66 835.52 1112.65 884.21 574.28 343.28 490.28 582.71 1066.84 354.70 601.19 600.77 867.76 959.23 636.81 624.61 504.96 708.34 1125.56 989.06
665.08 669.98 927.84 604.51 284.49 771.23 223.84 792.78 1175.85 1024.91 333.37 468.80 436.08 646.65 1213.56 513.75 749.00 1236.14 793.41 764.10 567.58 222.33 1088.47 486.24 991.14 1085.47 858.99 662.12 596.15 461.34 806.76 595.70 940.60 379.04 930.93 1047.20 284.03 96.33 945.79 876.52 419.02 590.92 1226.07 1051.16 1079.57 121.39 766.01 966.27 831.41 1096.55 556.84 712.78 796.92 323.47 686.31 789.55 1068.95 257.90 611.20 855.05 884.87 1016.01 639.84 382.88 1090.75 1074.49 971.69 864.83 101.43 842.09 911.69 896.09 521.00 1228.30 376.61 237.98 625.07 911.58 660.24 80.05 0.00 1039.32 435.97 1059.60 926.55 1004.92 669.66 1027.51 112.58 904.65 581.29 645.11 419.17 1198.52 652.74 572.83 1115.00 249.42 581.33 1430.90 1312.48 582.54 508.24 159.42 148.67 975.83 839.92 929.19 562.57 710.60 1124.96 919.43 1240.22 362.61 774.76 309.15 801.95 535.77 1103.95 476.34 987.84 1263.59 793.45 962.49 1249.12 724.23 1085.50 1014.62 834.90 1086.11 906.45 540.65 960.47 1041.27 487.13 258.36 121.84 307.23 727.35 129.14 545.20 1120.69 773.04 473.16 733.90 357.38 969.38 839.32 997.94 950.90 989.89 1317.61 783.12 1054.58 860.04 544.35 263.23 410.23 502.66 1030.69 338.37 521.14 525.91 794.74 925.59 556.76 618.92 445.40 628.29 1045.51 910.33
649.76 781.12 154.48 594.91 805.81 314.13 1020.41 872.11 942.52 587.35 1021.14 1020.68 766.07 409.98 926.73 953.05 474.52 745.03 911.59 960.55 1061.22 868.47 139.45 1141.11 57.13 881.84 235.93 1140.56 1081.06 1052.84 241.51 510.63 470.91 806.02 962.84 1045.58 839.99 990.64 218.56 764.00 637.61 581.57 643.85 144.01 273.56 964.83 911.74 1365.35 354.07 344.80 514.77 1161.27 293.38 805.33 412.02 1208.17 634.96 873.75 1164.01 1310.62 515.47 1191.62 967.96 667.34 621.91 1129.50 945.50 1251.13 1023.60 463.05 950.19 1140.45 745.70 814.14 819.96 801.34 464.95 1142.54 1046.54 1113.32 1039.32 0.00 655.58 1194.10 586.86 64.98 1083.90 397.48 1021.24 431.40 784.93 550.66 765.89 545.66 870.93 516.70 345.78 865.10 1120.51 954.37 829.96 506.11 753.07 974.40 937.55 97.17 674.96 285.42 485.70 371.72 973.76 1273.27 757.70 955.72 1067.23 995.91 438.86 734.50 189.20 1025.79 593.62 784.40 1082.11 96.69 978.25 1148.54 820.91 824.93 321.71 841.90 974.81 731.20 325.79 718.52 731.96 958.29 1027.85 763.42 839.16 1069.58 804.87 374.77 502.31 633.26 831.30 990.05 979.56 986.53 376.65 1374.28 713.74 895.27 299.20 320.01 1283.42 1044.43 809.77 646.40 776.55 316.11 1002.45 688.81 606.30 692.28 601.06 652.25 1079.77 662.27 541.00 125.01 213.69
469.60 526.63 553.36 280.54 167.71 470.47 489.63 641.37 992.55 726.11 438.35 537.62 214.40 292.32 996.41 523.54 437.00 937.65 600.84 658.21 551.75 280.05 792.78 607.94 675.20 903.77 589.91 646.29 583.13 499.24 537.68 296.86 646.83 294.06 732.61 889.21 207.18 363.68 541.76 706.44 67.60 233.41 913.72 782.08 754.22 369.82 622.66 965.74 495.72 745.13 198.92 707.13 502.95 149.75 326.61 746.22 781.95 324.00 640.72 839.22 642.98 959.85 550.93 139.65 791.95 936.02 823.31 836.30 452.23 565.08 728.80 857.31 313.61 984.18 264.67 301.98 380.91 811.40 644.27 510.83 435.97 655.58 0.00 918.55 686.12 676.44 654.39 676.09 400.38 564.19 415.22 355.87 253.93 853.61 509.12 237.14 777.03 230.42 649.63 1117.99 994.22 241.86 323.56 447.22 342.54 644.92 622.86 619.78 318.41 373.95 970.38 856.24 1003.80 458.49 750.39 393.87 453.99 291.69 820.06 520.46 720.56 964.79 730.36 676.20 1011.18 711.21 820.43 871.27 548.26 890.63 704.18 293.86 621.12 831.61 302.45 408.54 425.36 128.74 587.02 458.23 375.36 804.65 501.14 163.58 566.20 411.29 772.53 742.46 646.52 974.38 820.86 1067.89 446.47 703.16 883.52 549.47 173.59 76.39 359.31 645.39 458.55 230.02 154.02 528.07 714.15 277.93 621.07 70.66 280.33 749.82 506.30
673.66 541.83 1065.57 865.38 911.30 1037.67 910.77 443.73 461.34 759.26 802.22 666.79 796.24 1002.28 448.19 601.08 821.50 731.86 454.28 426.99 532.81 907.98 1290.60 671.11 1201.52 325.74 1153.73 510.98 540.00 705.17 1176.57 889.33 758.68 1131.69 283.21 162.00 940.10 1009.70 1009.28 456.05 850.95 1025.48 809.85 1317.29 1024.42 954.08 428.94 356.81 946.79 960.78 982.19 450.14 1137.26 872.32 956.81 458.55 723.71 894.79 551.72 438.46 760.94 141.09 495.18 988.83 726.40 121.55 286.28 421.01 958.17 805.32 279.40 191.10 670.47 677.94 784.00 891.68 1138.69 164.53 399.36 1090.36 1059.60 1194.10 918.55 0.00 607.24 1203.21 451.32 949.14 1086.22 867.88 684.13 1159.33 1091.56 963.43 542.62 944.56 992.68 1019.22 582.00 837.72 759.03 940.80 694.59 1133.06 974.90 1121.11 552.88 956.47 1098.35 1027.03 378.28 278.55 734.56 713.50 301.35 791.24 854.49 731.04 1346.82 636.34 676.85 784.29 321.38 1251.78 641.45 435.37 577.63 468.57 1226.93 502.90 254.78 748.51 911.56 574.98 673.48 840.22 1119.16 1047.29 488.90 969.44 696.88 1021.67 757.36 871.19 522.40 756.55 280.04 345.02 919.57 347.79 582.48 724.43 1052.94 950.46 361.18 575.49 984.63 842.16 662.15 1029.05 796.90 754.06 962.47 653.76 628.14 800.40 502.06 908.29 815.50 1247.64 1044.74
282.71 347.63 545.82 476.11 698.64 523.79 884.35 324.38 388.82 193.42 761.01 724.38 610.39 551.03 426.53 631.69 268.94 357.91 372.38 433.15 667.99 704.22 684.97 795.58 609.75 459.79 653.30 689.42 636.61 713.40 601.07 508.32 222.05 857.32 375.98 513.50 763.23 860.78 475.71 219.45 618.52 646.26 359.55 728.98 443.28 805.16 360.18 875.95 340.75 461.78 624.01 698.30 655.53 678.67 486.33 828.27 190.72 783.92 756.78 835.96 153.70 728.08 597.57 756.40 235.72 634.94 409.58 821.96 891.66 251.09 429.03 637.00 539.07 377.21 624.57 733.04 600.28 649.64 660.89 911.87 926.55 586.86 686.12 607.24 0.00 595.97 620.93 411.40 927.28 313.65 444.53 735.09 849.48 390.48 402.26 494.20 459.47 783.06 765.87 618.33 423.75 504.79 492.94 974.12 777.88 513.87 142.24 414.88 662.78 528.42 466.02 787.80 465.99 705.86 515.67 805.49 255.41 478.50 761.74 715.66 83.82 407.54 535.70 644.54 515.36 710.63 296.27 271.23 706.90 311.53 404.41 461.49 421.61 164.82 514.05 743.06 960.22 681.38 347.88 872.28 441.14 482.05 260.37 571.82 319.74 741.15 443.98 488.38 381.83 852.10 194.20 523.56 499.79 357.43 801.59 688.41 765.50 609.73 468.36 436.02 787.71 525.33 650.02 207.33 47.36 523.50 671.67 675.86 429.07 677.21 505.80
606.41 716.14 166.28 551.56 790.74 311.42 1064.82 854.16 966.83 561.10 1006.07 1005.61 722.72 384.12 972.69 937.98 462.89 689.33 877.06 937.83 1017.87 856.69 133.72 1117.01 13.78 946.82 170.95 1108.21 1048.71 1037.77 198.16 467.28 455.84 762.67 947.10 1050.77 839.06 953.21 203.49 756.72 611.75 516.59 588.15 169.26 325.28 951.97 876.67 1361.88 289.09 329.73 488.91 1132.39 278.31 801.66 368.67 1193.10 616.94 888.21 1133.84 1289.39 450.49 1179.99 935.61 693.01 626.94 1114.43 930.43 1262.93 1006.25 467.66 935.12 1140.56 701.56 819.17 808.18 857.83 421.60 1127.47 1058.34 1050.62 1004.92 64.98 676.44 1203.21 595.97 0.00 1068.83 333.21 974.09 429.85 795.97 506.63 722.54 532.32 827.58 483.35 346.97 800.12 1105.44 916.09 798.30 488.76 738.00 931.05 924.69 82.10 659.89 297.22 442.35 358.40 1030.57 1240.92 758.89 931.62 1032.16 1001.22 422.67 691.15 165.77 960.81 553.46 724.69 1048.82 48.57 940.45 1133.47 779.21 783.22 277.68 825.21 959.74 715.51 310.72 676.81 716.89 918.91 965.15 698.44 791.82 1037.70 776.04 375.96 519.80 615.91 846.75 974.98 964.49 986.64 362.78 1346.51 699.87 857.64 287.42 371.55 1255.65 1028.82 786.31 620.54 733.50 307.12 1021.35 675.50 580.44 680.65 632.76 640.47 1047.42 636.41 529.81 99.61 235.57
531.52 421.28 944.02 582.59 579.18 842.49 467.75 371.90 619.45 738.91 350.90 215.47 534.85 764.96 657.16 205.06 684.90 945.03 323.90 344.81 120.06 585.63 1121.49 252.63 1061.43 552.28 1022.56 68.49 88.68 253.85 970.33 688.86 755.55 829.41 422.18 503.19 592.70 574.88 900.15 498.38 612.78 787.24 935.20 1148.18 1021.29 575.72 260.75 344.23 843.65 1059.30 750.60 77.37 921.41 540.20 764.41 207.34 794.75 453.47 135.85 261.42 758.98 383.98 139.60 726.48 799.33 466.21 472.66 232.02 605.57 730.40 419.51 280.29 445.16 866.71 462.46 531.97 880.11 355.32 51.96 675.35 669.66 1083.90 654.39 451.32 620.93 1068.83 0.00 937.22 714.84 743.27 413.58 917.90 823.39 995.34 334.91 649.73 1048.72 650.56 157.54 1034.57 866.50 660.32 330.83 742.84 549.91 986.73 570.13 887.07 817.61 834.63 644.20 308.59 938.76 326.99 230.75 360.51 768.12 481.71 1200.97 193.32 704.75 966.11 210.72 1098.15 850.42 89.70 766.54 622.13 1058.27 677.71 422.23 506.07 878.84 654.32 351.94 449.08 747.78 667.99 429.88 555.12 382.63 1055.01 695.85 606.88 366.86 355.19 492.40 314.77 907.65 368.08 711.68 981.28 835.37 955.86 292.75 140.48 647.03 603.99 393.59 949.39 377.60 511.73 724.30 536.07 668.29 591.96 50.74 645.94 613.47 1078.53 935.61
489.07 605.33 290.28 505.99 785.82 386.53 1057.12 653.54 637.68 227.89 943.24 941.00 638.78 547.01 652.99 874.76 333.08 358.23 701.54 664.67 900.53 889.51 401.92 1017.02 346.99 713.11 437.89 994.18 931.91 908.32 469.52 503.03 260.31 875.38 721.22 787.14 846.91 973.14 235.54 548.81 608.49 674.45 296.77 428.61 166.54 963.33 748.73 1194.39 240.67 128.33 621.18 1010.38 498.63 751.39 469.40 1063.60 283.73 861.75 1016.50 1154.40 269.61 1000.84 847.31 732.52 293.73 882.29 734.53 1085.60 998.27 256.51 739.59 923.77 650.14 485.96 764.13 838.05 560.38 947.02 885.26 1080.98 1027.51 397.48 676.09 949.14 411.40 333.21 937.22 0.00 996.98 193.95 678.63 600.90 835.25 199.11 677.39 491.37 157.75 858.06 998.41 624.71 506.92 480.78 702.45 1037.60 944.85 341.15 513.37 159.34 585.03 467.84 701.46 1076.34 467.51 913.11 834.11 898.76 282.73 639.85 469.35 875.69 327.58 391.48 815.67 381.78 607.24 992.59 463.02 518.58 584.77 496.10 749.65 620.19 186.01 412.17 723.56 946.29 1015.01 804.83 633.09 1030.61 650.65 133.47 379.86 607.93 692.03 911.90 736.85 769.85 29.57 1170.54 366.66 566.26 404.42 77.47 1122.83 943.21 783.05 617.28 674.72 131.91 948.53 667.52 626.01 500.50 376.72 588.09 959.12 651.98 442.02 358.96 271.00
723.34 705.01 899.02 612.10 373.54 771.20 295.15 786.29 1105.70 1056.88 393.53 528.96 459.21 620.84 1143.41 594.83 732.72 1213.99 834.29 857.23 652.46 223.06 1092.90 557.55 964.11 1120.93 882.82 743.28 664.73 535.83 834.25 586.51 945.79 311.21 978.51 1090.83 300.04 156.49 926.33 905.20 445.38 586.08 1233.90 1055.49 1058.47 199.87 801.04 1045.13 785.37 1088.67 583.20 784.09 777.29 376.61 641.47 828.25 1112.72 351.51 682.51 930.70 938.70 1059.64 720.92 404.29 1068.29 1108.47 1055.19 918.33 204.07 860.80 957.93 939.72 492.15 1260.52 421.33 273.01 687.71 955.21 762.88 118.41 112.58 1021.24 400.38 1086.22 927.28 974.09 714.84 996.98 0.00 875.78 609.97 543.85 351.34 1182.24 687.77 526.79 1092.48 276.71 652.64 1396.35 1201.77 516.20 552.96 46.84 227.15 973.50 918.40 936.78 675.15 711.69 1202.81 992.02 1274.03 406.24 818.39 416.88 765.58 552.72 1002.70 548.93 1011.10 1266.42 838.42 989.98 1284.15 790.60 1150.90 1049.65 730.90 1140.63 950.08 570.19 914.43 1092.10 531.85 339.44 32.94 321.13 805.83 222.27 580.23 1119.51 796.86 541.36 768.93 438.46 1004.41 910.63 996.47 1056.41 1050.05 1316.55 754.30 1022.97 965.55 616.94 270.82 454.17 537.69 984.65 398.53 544.27 539.81 823.89 974.64 557.49 682.49 435.26 655.85 1049.94 896.98
381.73 448.14 276.92 347.83 627.66 361.99 920.54 523.50 574.07 298.45 805.17 812.66 547.50 405.82 611.78 736.12 190.45 468.55 571.50 632.27 731.00 718.69 525.08 882.98 443.63 699.71 424.53 811.76 762.38 774.28 455.86 341.41 111.71 750.30 623.47 710.58 713.19 838.88 280.59 471.42 518.53 555.80 427.32 532.86 290.55 783.26 594.27 1035.89 140.76 316.03 443.75 816.43 510.32 624.25 341.12 935.62 307.87 729.53 846.97 967.90 169.65 907.55 653.36 611.32 322.85 746.33 586.30 895.90 869.76 62.56 590.99 822.87 477.61 515.08 570.18 701.47 455.07 835.01 691.31 908.45 904.65 431.40 564.19 867.88 313.65 429.85 743.27 193.95 875.78 0.00 537.94 589.88 714.05 336.05 483.44 348.99 312.83 748.89 828.88 751.32 556.74 359.58 547.49 922.62 755.98 364.19 374.59 180.48 486.97 406.78 671.18 926.32 555.07 719.16 724.71 766.87 110.20 445.90 513.37 811.09 229.83 461.06 704.68 478.42 679.19 798.64 476.63 502.38 512.38 482.70 615.61 426.24 135.57 395.97 568.60 814.07 890.23 692.93 471.41 868.20 587.31 327.42 191.61 472.32 520.60 738.61 620.36 693.00 164.38 1012.04 392.70 671.52 350.51 221.02 987.65 773.68 673.88 511.59 544.77 206.12 831.55 477.35 495.96 306.55 309.13 394.14 765.17 530.78 283.86 482.12 273.12
189.56 143.58 630.45 281.22 355.58 536.96 518.23 293.56 640.43 537.48 394.89 369.59 243.59 452.24 678.14 275.09 380.84 749.02 286.47 335.55 356.28 433.38 887.69 418.42 782.19 540.47 699.13 423.63 324.90 407.97 678.09 339.29 480.48 601.03 420.91 522.13 373.68 548.99 656.36 295.23 355.41 529.59 724.27 908.85 687.61 493.37 271.78 639.99 530.94 667.04 429.54 484.47 633.03 319.67 459.93 566.89 576.35 397.50 450.19 616.56 481.28 629.03 290.60 453.55 603.32 615.74 511.22 595.30 561.46 485.04 455.25 530.74 117.82 753.73 238.15 343.31 538.72 546.23 447.53 651.46 581.29 784.93 415.22 684.13 444.53 795.97 413.58 678.63 609.97 537.94 0.00 581.91 560.90 760.45 228.71 366.81 635.14 466.57 442.55 982.27 793.72 371.94 126.82 621.78 466.09 722.01 367.74 603.05 476.22 530.15 632.39 518.59 779.78 347.43 409.41 415.31 443.46 145.72 929.93 359.06 453.79 776.16 389.38 770.81 825.09 452.98 621.52 584.95 698.13 547.72 430.63 121.36 640.01 567.53 128.87 384.63 642.91 443.24 280.34 513.85 82.71 664.13 346.33 299.63 273.55 364.87 516.89 407.46 649.06 663.84 538.81 868.98 537.42 680.79 601.22 375.96 415.62 364.20 78.63 709.74 421.59 185.20 440.44 237.20 450.07 231.82 362.84 415.06 325.50 860.10 626.36
632.80 677.36 453.62 389.37 523.58 363.91 710.16 745.30 1051.08 811.81 726.63 800.05 473.57 298.18 1088.79 811.07 524.76 959.13 793.30 854.07 856.82 524.14 596.80 875.25 493.53 1043.18 380.87 941.61 873.86 838.43 350.10 335.52 643.56 398.63 923.52 1053.75 539.90 548.78 538.74 786.94 308.38 133.85 897.67 553.54 662.37 604.40 776.63 1196.76 499.16 641.37 221.95 995.27 278.42 505.62 248.76 1078.79 846.88 577.32 961.34 1101.75 644.41 1117.33 824.08 341.89 855.74 1067.48 1025.49 1078.16 637.83 618.50 916.94 1053.45 496.76 1023.16 559.08 498.82 143.86 1068.94 873.57 662.26 645.11 550.66 355.87 1159.33 735.09 506.63 917.90 600.90 543.85 589.88 581.91 0.00 438.76 800.01 729.16 275.80 673.27 395.69 954.70 1225.61 1053.52 265.21 587.07 590.69 588.18 474.63 717.92 558.82 183.35 318.98 1135.10 1100.50 1043.87 713.75 932.12 699.48 479.68 436.19 500.75 815.43 723.87 960.64 950.40 505.83 1160.08 957.50 972.57 966.12 228.95 933.73 941.56 460.55 603.73 870.73 589.98 660.45 576.79 412.17 717.83 696.83 609.95 702.26 576.81 370.00 719.77 699.51 974.71 912.31 630.47 1220.61 892.65 1167.16 356.80 606.18 1165.94 841.76 470.70 317.17 579.08 527.59 699.93 451.95 201.85 660.43 782.45 448.78 911.80 319.38 404.86 579.36 531.69
629.67 704.48 705.53 496.40 244.21 537.66 545.26 829.63 1140.34 901.43 583.45 662.46 363.40 435.56 1171.73 692.10 612.32 1112.97 796.99 789.36 722.48 368.29 778.61 716.01 708.76 1060.73 576.61 817.02 734.71 685.94 524.38 424.78 784.06 40.13 961.62 1076.17 334.83 347.74 757.85 832.30 242.92 318.41 1089.04 768.78 865.45 403.36 808.26 1117.32 623.64 874.32 352.99 875.74 615.56 283.19 471.61 936.28 924.95 441.75 774.16 1009.95 818.30 1081.55 739.19 147.27 967.27 1121.62 1008.91 1005.11 391.56 740.40 930.69 995.77 485.04 1143.47 400.06 379.53 439.39 999.66 832.53 427.00 419.17 765.89 253.93 1091.56 849.48 722.54 823.39 835.25 351.34 714.05 560.90 438.76 0.00 1028.93 694.99 365.06 906.22 247.71 806.57 1291.00 1106.83 354.47 511.82 394.98 430.64 711.47 735.47 775.21 376.89 488.29 1152.65 1044.50 1155.28 534.99 913.03 558.92 603.85 479.64 821.57 664.39 893.41 1138.62 916.23 680.11 1186.50 862.79 995.75 1042.50 567.44 1050.70 955.31 479.46 752.70 944.23 490.71 470.35 341.53 168.10 772.62 450.56 563.62 935.21 663.47 338.90 737.03 487.79 958.13 841.85 821.84 1139.97 933.47 1221.61 560.81 861.24 1061.08 682.91 277.03 249.40 544.91 822.92 572.79 415.62 300.80 703.39 826.77 440.22 772.65 183.27 461.73 763.13 724.07
612.50 628.25 442.12 653.03 949.21 578.70 1127.77 623.44 577.69 350.99 1004.43 990.78 837.89 706.44 569.60 860.58 449.52 254.76 671.44 732.21 979.02 1050.61 574.88 1080.50 546.10 671.83 589.73 1063.83 1006.08 1014.81 641.96 677.46 416.25 1058.28 700.30 818.13 1028.91 1107.20 409.90 524.08 786.01 849.39 153.58 601.57 272.10 1111.38 734.59 1177.82 418.19 231.78 760.47 1017.60 650.47 946.16 621.24 1128.39 295.15 1039.04 1081.03 1167.75 347.90 988.45 892.98 926.20 340.15 841.88 713.61 1113.69 1197.38 398.61 716.76 948.64 799.52 366.22 906.23 960.54 737.90 966.07 959.95 1230.36 1198.52 545.66 853.61 963.43 390.48 532.32 995.34 199.11 1182.24 336.05 760.45 800.01 1028.93 0.00 739.78 670.90 199.88 1021.09 1028.04 481.52 363.73 679.89 837.44 1202.75 1084.10 470.27 494.30 311.18 730.41 628.78 674.80 1114.72 324.32 1050.36 847.46 959.95 432.11 781.95 593.34 944.55 306.66 294.13 827.43 576.97 505.09 1037.55 449.77 506.19 736.61 546.24 728.73 762.29 294.24 399.78 858.55 1048.52 1149.30 963.67 688.39 1154.56 785.64 228.87 513.66 794.23 710.22 1046.73 724.46 805.10 207.09 1153.97 421.11 423.07 556.26 249.93 1147.70 961.45 946.08 794.80 784.89 306.27 1024.63 799.87 744.99 523.53 351.99 730.19 1004.79 845.66 605.77 531.92 424.66
221.17 111.53 732.49 432.56 473.04 576.79 590.71 198.97 576.29 552.07 467.37 441.04 364.43 565.97 613.47 321.40 412.45 731.93 167.17 207.49 339.79 504.83 932.26 479.26 813.80 472.29 792.42 360.71 308.41 475.63 741.46 453.02 436.48 703.32 351.61 432.40 445.13 628.03 674.98 261.63 493.27 623.76 708.85 969.28 702.22 572.41 152.40 601.55 538.58 741.14 550.80 412.28 720.58 434.06 540.13 496.62 577.08 476.54 400.01 553.64 449.23 460.89 195.31 547.72 586.23 457.46 407.05 507.50 640.50 497.11 298.56 362.60 239.08 674.59 317.19 414.76 680.86 378.09 326.58 732.79 652.74 870.93 509.12 542.62 402.26 827.58 334.91 677.39 687.77 483.44 228.71 729.16 694.99 739.78 0.00 476.70 738.83 578.64 403.86 887.09 709.77 466.11 199.30 693.23 545.13 791.09 266.59 663.92 666.96 610.35 564.21 500.62 741.24 430.43 241.27 461.76 493.74 292.97 982.90 405.37 433.12 682.90 221.24 870.30 736.57 373.15 526.34 506.77 828.89 452.86 323.18 268.61 619.01 481.18 206.67 467.85 720.71 554.12 168.19 597.07 169.55 761.41 415.87 404.60 86.88 436.32 356.27 288.08 647.82 577.70 464.59 773.80 600.79 636.79 556.28 360.21 527.96 502.06 150.08 689.56 494.07 279.37 565.55 253.15 433.72 362.58 299.92 514.11 370.17 899.63 704.49
379.52 484.98 393.41 165.99 316.27 267.52 634.69 574.30 775.28 546.49 579.09 617.58 254.71 115.23 812.99 562.14 283.08 758.03 545.44 606.21 624.56 450.56 598.36 715.80 469.57 826.82 380.87 716.82 655.94 621.35 328.64 59.72 419.00 401.31 665.84 822.96 398.04 534.19 399.54 532.32 169.54 240.65 736.88 573.04 537.51 505.80 571.26 920.96 258.58 561.88 129.81 722.89 271.68 318.31 114.68 842.08 602.33 446.00 740.53 874.36 476.72 862.71 569.46 262.33 612.33 896.48 790.62 802.36 528.08 386.13 714.40 829.84 280.92 782.27 381.32 415.62 257.61 854.22 597.77 619.58 572.83 516.70 237.14 944.56 494.20 483.35 649.73 491.37 526.79 348.99 366.81 275.80 365.06 670.90 476.70 0.00 565.69 419.11 722.44 1040.80 846.22 10.59 371.97 573.63 478.52 461.20 530.97 410.15 232.08 184.90 872.39 865.14 824.18 530.41 717.97 560.41 238.79 221.09 609.84 646.11 553.40 773.56 697.94 484.37 946.38 705.10 731.68 725.23 411.26 687.33 689.78 245.45 387.64 659.02 373.22 506.07 559.73 344.12 529.84 587.08 369.16 592.72 335.92 137.74 465.15 507.88 739.84 675.92 469.68 944.81 638.03 961.00 248.69 496.18 913.22 663.01 344.10 162.60 326.62 457.86 605.79 197.33 155.82 391.50 541.56 183.08 681.27 181.79 129.06 555.40 408.04
607.95 674.45 294.99 569.37 873.57 400.01 1063.33 712.10 703.59 379.72 989.82 1004.73 779.36 564.30 708.76 910.23 460.04 433.04 748.39 783.55 991.42 958.23 421.22 1053.56 360.75 775.98 425.97 1044.69 960.04 1027.20 457.48 569.47 302.35 946.35 769.29 901.22 900.18 1041.86 246.18 627.04 709.43 706.37 344.14 460.07 72.22 1045.19 811.54 1256.39 307.11 31.90 669.09 1105.53 466.60 875.04 479.10 1174.59 435.56 942.18 1085.33 1221.58 350.76 1035.29 925.74 803.44 445.56 1004.44 776.94 1166.75 1093.77 351.58 781.63 1013.51 722.07 534.31 859.20 951.38 642.14 965.51 1004.14 1182.61 1115.00 345.78 777.03 992.68 459.47 346.97 1048.72 157.75 1092.48 312.83 635.14 673.27 906.22 199.88 738.83 565.69 0.00 926.78 1077.69 615.78 554.29 576.28 761.96 1131.78 1019.68 270.39 563.29 185.81 622.28 492.41 800.70 1153.73 514.88 917.51 916.45 957.09 384.36 691.70 512.74 978.83 375.65 484.69 896.42 395.54 698.42 1088.12 592.71 646.35 577.89 615.39 797.72 667.34 210.58 539.94 764.01 969.33 1124.70 905.77 724.28 1073.94 717.85 28.99 416.32 703.43 745.31 870.31 811.00 887.74 148.45 1242.63 482.58 613.63 424.01 102.04 1202.15 1011.10 851.77 718.22 713.77 145.68 985.70 731.18 721.51 587.27 454.95 700.46 997.98 722.95 529.77 390.42 281.64
542.86 595.88 751.73 416.29 157.94 583.01 332.58 713.21 1075.56 849.86 377.86 451.84 229.31 467.54 1098.71 485.03 571.57 1061.40 680.57 703.09 569.79 128.45 933.84 508.96 813.90 1002.44 750.02 660.61 582.06 485.64 697.79 407.48 772.92 231.55 856.73 968.67 157.84 153.09 772.18 761.80 249.57 391.79 1046.16 942.19 891.35 208.71 691.91 885.60 656.15 927.10 387.39 680.53 670.37 146.90 516.86 758.63 905.70 215.24 633.92 845.39 767.24 925.35 611.12 210.77 915.70 964.15 907.66 773.39 242.14 699.65 824.60 857.05 348.75 1107.93 263.77 171.87 539.55 872.54 664.19 293.55 249.42 865.10 230.42 1019.22 783.06 800.12 650.56 858.06 276.71 748.89 466.57 395.69 247.71 1021.09 578.64 419.11 926.78 0.00 604.05 1299.96 1142.85 429.70 395.40 278.48 192.49 787.61 727.18 740.97 496.51 551.79 1094.36 909.35 1113.67 323.57 735.72 337.40 653.92 359.20 896.44 466.26 847.24 1088.54 755.75 848.69 1139.60 631.07 974.82 906.21 624.64 963.89 849.22 364.08 775.08 920.83 374.29 264.76 243.77 101.68 659.94 301.14 447.20 954.39 593.13 345.55 631.10 310.14 856.88 755.58 828.49 909.45 920.11 1222.28 607.01 883.62 839.51 534.27 75.01 258.36 428.56 855.43 367.20 314.37 320.36 630.37 803.37 382.67 599.82 266.76 480.26 899.73 736.72
509.34 515.39 1020.66 644.43 562.36 857.94 357.49 503.16 776.99 869.78 305.19 169.76 571.46 816.49 814.70 167.46 700.62 1076.29 471.34 471.88 97.88 526.34 1194.44 95.09 1101.97 683.15 1073.57 125.34 129.26 203.79 1022.61 741.25 831.05 800.35 553.05 634.06 570.88 542.23 991.68 655.92 661.29 820.85 1045.97 1238.45 1091.82 530.01 418.29 401.16 850.72 1109.59 793.46 157.84 955.47 523.38 775.02 216.57 913.21 448.23 56.26 311.66 853.09 440.91 238.05 712.41 930.59 597.08 630.20 288.07 511.19 766.32 550.38 416.88 481.77 1009.94 445.14 519.73 916.72 477.50 182.83 564.22 581.33 1120.51 649.63 582.00 765.87 1105.44 157.54 998.41 652.64 828.88 442.55 954.70 806.57 1028.04 403.86 722.44 1077.69 604.05 0.00 1120.78 1013.94 711.85 392.67 669.80 536.88 1023.34 656.91 955.90 854.22 845.24 775.07 379.25 1086.20 280.48 361.62 326.07 776.85 542.34 1187.98 191.67 770.24 1086.76 341.59 1134.76 1007.96 146.63 876.23 740.19 1057.82 808.58 553.10 521.51 936.84 797.55 388.55 407.20 649.69 664.12 518.08 452.19 424.29 1101.38 679.72 584.70 490.74 327.68 584.63 445.64 968.84 425.01 837.10 1123.69 881.94 1015.86 346.38 123.66 563.24 652.50 402.98 1035.00 331.89 532.27 772.81 634.52 769.85 615.48 126.24 673.90 688.97 1186.68 968.34
792.71 856.10 820.93 1014.54 1206.59 953.82 1375.38 714.49 471.75 494.31 1252.04 1174.88 1120.39 1080.32 434.04 1088.41 807.37 321.27 737.18 797.95 1063.86 1322.55 1005.02 1203.33 929.87 607.35 940.91 1055.33 1032.48 1210.98 993.14 1017.97 671.31 1331.13 734.23 675.72 1273.23 1380.48 735.81 731.67 1050.39 1196.00 327.94 1031.71 688.00 1324.86 800.33 1174.66 806.24 647.68 1144.94 1107.73 1053.41 1188.67 1009.62 1181.51 473.47 1239.32 1094.63 1164.17 637.48 959.82 1012.06 1188.27 428.47 797.63 654.63 1110.11 1411.36 701.78 743.60 910.63 1042.29 285.27 1115.07 1238.64 1125.95 835.60 982.61 1508.39 1430.90 954.37 1117.99 837.72 618.33 916.09 1034.57 624.71 1396.35 751.32 982.27 1225.61 1291.00 481.52 887.09 1040.80 615.78 1299.96 1120.78 0.00 194.58 1051.39 988.29 1443.19 1297.58 857.20 634.84 726.98 1109.16 1003.40 525.54 1090.06 250.86 1142.44 843.88 1257.10 804.53 995.85 1074.86 1133.36 534.51 304.13 823.85 964.66 258.54 1089.94 360.75 493.73 1092.83 482.93 741.53 971.49 701.05 472.03 1004.55 1241.56 1429.29 1246.73 718.90 1370.78 939.64 644.77 780.97 1107.62 800.21 1189.64 658.34 849.71 595.14 1173.80 492.02 113.29 930.88 651.78 1109.69 1084.28 1224.95 1041.60 978.36 720.51 1278.74 1035.33 1161.91 751.38 589.49 1048.81 994.54 1107.73 978.19 962.06 771.27
679.74 661.52 710.22 828.57 1027.99 779.90 1199.21 590.60 391.61 299.73 1095.84 1027.53 955.56 885.74 359.49 940.34 623.49 153.61 542.60 603.37 961.21 1127.97 887.23 1087.84 812.08 478.87 834.66 934.99 929.83 1062.87 825.51 862.86 486.47 1146.96 550.64 636.01 1107.72 1249.23 629.56 547.60 958.24 1062.41 210.15 852.67 618.10 1204.77 605.75 1077.48 674.58 550.57 950.36 943.87 928.16 1002.69 815.04 1002.30 278.89 1108.90 1002.35 1056.11 442.90 898.92 845.18 1004.10 233.89 637.48 557.45 1035.70 1272.86 507.20 603.69 832.62 888.54 97.86 949.55 1093.52 954.82 795.89 831.11 1320.18 1312.48 829.96 994.22 759.03 423.75 798.30 866.50 506.92 1201.77 556.74 793.72 1053.52 1106.83 363.73 709.77 846.22 554.29 1142.85 1013.94 194.58 0.00 856.81 827.77 1248.61 1177.49 750.95 505.86 609.19 979.52 828.42 439.81 988.39 72.26 1045.26 761.24 1076.95 609.95 827.97 905.46 1024.31 339.93 166.27 754.37 846.87 258.20 908.71 263.57 381.59 966.04 295.11 579.07 825.62 583.26 310.25 848.88 1102.91 1234.71 1105.13 621.72 1232.13 813.73 583.28 591.74 921.29 622.89 1075.98 561.16 708.36 477.35 1068.76 355.67 114.78 755.90 509.95 1014.11 968.79 1120.05 953.41 828.84 525.93 1100.06 889.46 1002.04 556.80 419.23 910.56 905.06 923.56 783.61 844.27 665.02
368.93 483.35 382.82 167.34 305.68 259.51 645.28 566.98 785.87 557.08 576.51 606.99 265.30 104.64 823.58 551.55 293.67 768.62 534.85 595.62 613.97 440.92 599.76 705.21 480.16 837.41 370.28 706.23 645.35 631.94 318.05 70.31 429.59 394.60 676.43 815.78 387.45 544.78 410.13 521.73 180.13 230.06 747.47 562.45 542.27 495.21 560.67 931.55 269.17 572.47 140.40 733.48 261.09 316.27 125.27 835.94 612.92 453.12 729.94 884.95 487.31 852.12 558.87 251.74 622.92 889.16 780.03 812.95 517.49 396.72 705.73 819.25 270.33 792.86 391.91 426.21 247.02 844.20 608.36 630.17 582.54 506.11 241.86 940.80 504.79 488.76 660.32 480.78 516.20 359.58 371.94 265.21 354.47 679.89 466.11 10.59 576.28 429.70 711.85 1051.39 856.81 0.00 378.79 563.04 467.93 457.30 541.56 420.74 242.67 195.49 882.98 864.18 834.77 519.82 707.38 571.00 249.38 231.68 615.24 635.52 547.97 784.15 687.35 473.78 956.97 715.69 742.27 735.82 400.67 697.92 700.37 250.58 398.23 669.61 362.63 515.78 549.14 333.53 519.25 576.49 358.57 603.31 346.51 127.15 454.56 518.47 729.25 665.33 480.27 955.40 627.44 971.59 238.10 506.77 923.81 652.42 354.69 172.31 316.03 468.45 603.21 186.74 145.23 402.09 552.15 183.57 670.68 171.20 139.65 556.80 418.63
248.41 209.19 649.26 251.76 287.48 528.54 391.41 317.81 749.50 644.88 268.07 309.83 204.02 470.98 759.51 225.21 438.51 811.64 285.17 345.94 335.04 360.99 827.00 414.09 751.78 646.00 696.17 399.32 338.17 341.99 645.21 358.03 567.52 549.07 461.33 603.68 328.77 442.47 646.59 422.05 346.99 456.41 755.64 871.01 765.53 386.85 326.11 675.06 551.26 793.86 426.05 408.20 615.10 248.50 434.65 538.17 652.28 290.98 414.62 592.25 539.49 660.19 252.72 409.09 697.28 639.99 557.44 525.30 454.94 538.92 469.32 561.90 114.33 776.79 131.63 279.95 549.28 530.06 320.71 578.97 508.24 753.07 323.56 694.59 492.94 738.00 330.83 702.45 552.96 547.49 126.82 587.07 511.82 837.44 199.30 371.97 761.96 395.40 392.67 988.29 827.77 378.79 0.00 588.45 359.57 655.90 443.53 615.68 486.78 504.87 728.32 558.03 842.44 244.87 440.57 312.55 437.29 150.88 903.77 309.18 530.78 814.08 420.54 767.32 809.22 420.53 627.54 574.72 727.44 638.77 484.67 175.24 610.55 564.40 21.11 347.23 585.90 420.43 269.39 476.45 51.80 790.95 420.08 304.79 242.64 248.21 529.48 451.12 695.05 698.91 540.76 875.00 504.54 719.09 623.58 295.04 373.83 338.20 62.76 705.88 294.77 192.05 446.08 350.81 508.92 261.13 364.53 328.55 315.73 819.24 631.79
728.80 710.47 898.38 658.94 404.70 776.67 341.99 833.13 1152.54 1077.39 426.42 527.37 506.05 584.15 1190.25 593.91 753.23 1260.83 854.68 890.56 669.31 269.90 1046.06 597.69 917.27 1126.39 878.49 761.45 683.43 488.99 843.51 633.35 979.82 354.85 1009.09 1104.96 312.68 203.33 885.60 917.01 429.11 539.24 1259.15 1072.75 1098.06 201.60 806.50 1066.04 832.21 1103.01 566.93 820.21 740.86 395.14 669.35 875.09 1132.67 376.11 722.65 954.38 959.21 1098.99 720.00 357.45 1115.13 1150.69 1060.65 914.78 250.91 881.31 991.79 979.07 538.99 1282.54 456.82 319.85 720.20 994.56 794.80 138.92 159.42 974.40 447.22 1133.06 974.12 931.05 742.84 1037.60 46.84 922.62 621.78 590.69 394.98 1202.75 693.23 573.63 1131.78 278.48 669.80 1443.19 1248.61 563.04 588.45 0.00 228.88 937.07 920.13 963.62 664.37 698.47 1218.31 1010.65 1320.87 445.59 857.74 410.88 812.42 599.56 1049.54 578.07 1032.06 1313.26 873.61 973.77 1289.61 811.51 1160.76 1055.11 777.74 1146.09 980.66 612.32 961.27 1106.77 567.34 338.52 53.45 350.07 807.56 269.11 585.69 1147.39 817.37 525.09 774.39 437.54 1009.87 925.23 1008.03 1057.16 1096.89 1363.39 770.99 1053.69 1005.51 638.22 317.66 437.90 543.15 989.23 440.96 591.11 540.63 852.09 989.31 604.33 707.71 437.99 683.43 1003.10 850.14
570.97 545.32 787.65 511.89 238.70 666.93 179.39 644.11 1053.99 905.44 247.78 383.21 315.09 540.57 1068.80 390.07 647.23 1116.98 644.74 705.51 460.12 73.66 1022.95 441.79 923.45 966.43 826.77 554.66 476.40 346.25 774.54 491.65 791.93 424.04 784.37 932.84 135.36 82.90 797.12 757.64 336.36 490.55 1114.90 1007.37 986.95 27.28 646.54 859.01 737.10 987.78 435.78 615.50 729.02 202.48 593.20 672.75 938.67 159.38 544.18 747.59 736.20 898.76 516.16 368.87 971.28 966.29 873.17 746.80 113.78 693.42 788.77 794.88 372.33 1079.63 227.94 136.21 608.71 810.37 593.57 228.72 148.67 937.55 342.54 974.90 777.88 924.69 549.91 944.85 227.15 755.98 466.09 588.18 430.64 1084.10 545.13 478.52 1019.68 192.49 536.88 1297.58 1177.49 467.93 359.57 228.88 0.00 879.21 691.25 836.57 546.21 627.94 1051.36 799.68 1151.73 261.40 673.55 223.25 716.53 403.77 1046.13 356.59 839.17 1144.12 669.77 930.27 1147.35 604.48 936.83 870.38 774.33 949.87 805.24 419.66 863.94 892.60 338.46 134.68 249.42 278.46 578.68 133.44 411.37 1048.67 670.68 432.34 596.20 233.70 867.61 721.39 915.28 882.86 889.25 1184.29 642.93 942.96 798.72 424.60 170.61 327.57 400.89 900.75 237.12 400.15 414.26 646.07 825.24 408.09 499.17 296.73 568.58 979.99 761.66
569.92 689.40 91.56 516.22 708.64 260.28 1034.68 797.56 891.74 524.43 923.97 923.51 700.57 405.79 896.17 855.88 398.67 665.85 845.56 863.38 981.38 805.55 171.10 1043.94 95.88 903.05 155.58 1053.14 994.07 955.67 187.09 467.16 373.74 751.60 889.85 968.67 779.77 902.69 121.39 674.62 585.46 496.31 588.05 215.11 314.33 906.49 848.82 1299.83 262.35 247.63 510.58 1064.10 196.21 734.44 346.52 1111.00 537.79 861.92 1066.84 1213.45 442.09 1115.77 881.94 617.32 582.79 1032.33 848.33 1181.20 974.79 385.56 853.02 1084.90 691.85 775.02 745.31 831.54 410.53 1045.37 976.61 1039.30 975.83 97.17 644.92 1121.11 513.87 82.10 986.73 341.15 973.50 364.19 722.01 474.63 711.47 470.27 791.09 461.20 270.39 787.61 1023.34 857.20 750.95 457.30 655.90 937.07 879.21 0.00 577.79 222.50 415.32 276.30 950.09 1187.25 727.14 858.55 1004.31 968.45 341.69 655.81 247.87 934.07 522.49 718.28 1012.33 130.67 939.13 1051.37 759.56 774.82 307.50 744.73 877.64 656.39 228.62 668.41 634.79 920.14 990.52 728.24 759.32 998.53 707.70 299.38 438.82 578.94 767.81 892.88 882.39 959.13 346.09 1311.36 654.73 857.54 236.28 289.45 1220.50 947.26 712.60 576.67 718.66 225.02 950.67 625.89 567.74 616.43 561.23 587.40 993.75 628.50 452.25 163.34 153.47
271.29 236.39 541.52 429.95 661.92 523.72 774.08 219.77 418.82 285.48 711.60 619.65 561.14 554.36 456.53 489.45 357.23 465.34 267.77 328.54 606.38 740.75 739.49 709.37 648.64 325.26 661.50 627.30 575.00 643.68 679.32 536.22 306.61 775.60 349.98 390.88 698.76 774.15 456.40 96.83 599.94 714.91 461.21 766.18 569.40 718.53 309.38 766.96 428.72 533.78 620.53 644.48 605.66 622.94 469.16 727.47 332.96 699.29 666.60 781.28 290.42 618.62 461.90 632.74 319.64 494.67 361.53 723.95 805.03 354.91 298.17 517.83 471.21 408.00 539.94 668.39 662.58 550.76 519.36 919.97 839.92 674.96 622.86 552.88 142.24 659.89 570.13 513.37 918.40 374.59 367.74 717.92 735.47 494.30 266.59 530.97 563.29 727.18 656.91 634.84 505.86 541.56 443.53 920.13 691.25 577.79 0.00 518.70 687.58 539.38 417.18 645.56 488.99 653.18 463.30 708.63 333.66 410.64 817.74 573.42 187.64 517.77 443.27 705.14 469.98 626.69 274.09 321.00 680.56 330.81 322.79 435.00 510.16 214.59 429.42 695.70 940.67 743.66 205.64 824.69 393.78 585.87 314.10 503.96 258.36 687.51 310.75 401.42 485.65 750.30 198.00 521.55 547.72 461.25 716.89 590.32 749.53 608.73 403.71 535.99 738.30 488.39 621.49 139.47 189.60 509.70 566.51 552.20 493.92 696.53 491.86
465.51 578.62 130.94 403.70 694.14 269.08 933.05 668.52 737.88 369.72 877.33 843.88 613.69 395.26 750.29 788.44 274.23 500.22 689.47 710.38 876.97 772.42 385.91 965.22 311.00 803.99 278.55 943.12 906.64 882.26 330.78 413.93 256.20 811.46 724.70 837.48 739.78 856.05 102.82 568.51 577.35 538.21 399.04 412.60 150.38 863.85 626.32 1136.66 151.57 217.71 500.05 964.44 339.29 689.23 310.06 1078.76 415.50 836.66 992.94 1102.10 269.95 991.33 806.23 634.40 432.57 848.62 730.79 1076.38 938.23 215.43 677.07 903.14 559.73 624.80 703.01 785.25 463.21 861.66 871.79 1009.24 929.19 285.42 619.78 956.47 414.88 297.22 887.07 159.34 936.78 180.48 603.05 558.82 775.21 311.18 663.92 410.15 185.81 740.97 955.90 726.98 609.19 420.74 615.68 963.62 836.57 222.50 518.70 0.00 468.70 317.60 792.34 1015.26 569.78 843.22 781.81 876.39 259.62 506.05 462.99 823.29 331.06 534.78 801.84 337.43 748.27 976.77 576.10 602.68 425.43 586.98 701.69 481.69 44.91 496.27 636.79 870.69 938.89 745.32 603.09 938.93 595.46 213.42 311.71 538.80 640.70 798.76 764.85 762.00 131.84 1118.24 468.93 668.53 245.08 153.45 1067.73 889.31 665.96 572.75 552.92 137.72 904.03 545.53 565.97 438.23 396.42 551.14 913.07 591.94 350.34 342.95 113.48
552.30 619.80 368.34 310.07 430.18 247.62 671.87 717.83 998.92 705.40 680.61 753.62 422.50 155.51 1025.06 686.76 481.75 882.40 669.83 730.60 815.07 519.20 525.90 824.18 428.57 983.45 296.42 885.03 786.30 786.55 244.19 214.34 518.66 403.41 820.46 979.03 470.00 611.59 437.73 735.97 257.31 125.13 781.22 488.59 575.41 573.49 732.98 1109.57 346.21 614.02 119.49 894.98 239.93 468.16 218.42 1007.95 761.24 531.30 897.72 1069.36 587.01 1075.48 714.15 326.22 760.13 1040.01 942.10 997.36 659.99 502.00 853.98 959.85 427.88 950.85 508.01 452.80 62.50 974.62 807.49 642.62 562.57 485.70 318.41 1098.35 662.78 442.35 817.61 585.03 675.15 486.97 476.22 183.35 376.89 730.41 666.96 232.08 622.28 496.51 854.22 1109.16 979.52 242.67 486.78 664.37 546.21 415.32 687.58 468.70 0.00 151.10 1053.42 994.81 951.96 689.43 885.63 653.46 407.37 449.66 541.38 764.36 639.59 921.77 865.60 399.92 1026.90 855.04 900.26 893.81 272.33 882.10 848.89 442.01 448.55 808.13 465.67 609.57 668.97 416.21 692.97 678.28 538.58 644.86 504.50 328.25 684.81 653.49 895.41 835.78 557.31 1133.42 787.19 1050.71 223.62 520.24 1063.48 778.14 421.50 266.10 516.88 541.36 653.91 429.41 197.53 609.85 690.67 348.47 824.24 249.48 297.19 482.94 402.27
454.26 498.82 217.24 253.11 497.12 96.52 774.31 648.80 900.30 650.11 726.41 794.21 424.27 155.42 907.72 677.78 348.91 798.48 659.74 682.15 789.46 581.81 447.40 858.45 372.18 832.35 252.95 862.14 820.84 756.99 213.19 190.86 475.29 528.42 796.98 875.21 539.03 673.81 295.09 636.21 309.16 276.23 714.21 457.59 424.31 655.22 598.09 1083.23 287.18 462.92 260.21 907.79 190.26 458.14 70.22 998.96 680.21 585.62 898.23 1055.07 477.74 973.47 746.09 341.02 652.78 970.98 889.23 987.26 712.98 407.26 796.87 874.91 450.34 840.06 550.88 555.24 196.83 890.40 782.67 763.00 710.60 371.72 373.95 1027.03 528.42 358.40 834.63 467.84 711.69 406.78 530.15 318.98 488.29 628.78 610.35 184.90 492.41 551.79 845.24 1003.40 828.42 195.49 504.87 698.47 627.94 276.30 539.38 317.60 151.10 0.00 924.27 961.83 828.06 695.31 753.58 707.78 296.58 392.70 510.38 761.75 488.49 782.10 773.61 368.92 875.80 890.00 789.47 743.05 240.89 755.19 772.25 417.06 362.11 685.25 525.98 643.84 744.63 451.94 638.76 728.03 512.07 502.81 370.72 302.64 586.96 685.41 838.45 733.77 447.01 1090.01 688.23 943.20 72.52 390.37 1038.33 778.65 483.72 300.37 503.25 398.72 699.71 373.96 291.44 481.89 567.79 349.25 809.98 361.14 247.25 413.00 259.76
626.39 553.25 906.44 805.94 983.56 875.75 1010.97 462.46 97.11 473.57 919.64 841.84 865.05 931.95 134.82 722.47 715.72 511.47 465.70 438.41 725.69 992.69 1085.14 863.99 1030.89 91.92 1035.40 703.40 722.07 865.10 992.42 873.11 576.35 1192.78 266.99 216.28 970.21 1131.95 830.30 380.04 919.94 1014.61 598.02 1111.83 837.33 1076.33 411.81 681.34 753.99 810.45 933.93 710.23 1022.84 952.06 886.34 682.75 451.06 919.49 765.85 709.74 580.08 467.36 622.03 1048.34 423.90 279.22 205.70 702.23 1054.82 674.86 290.82 451.19 750.21 341.95 851.65 939.84 1045.70 376.16 592.24 1183.38 1124.96 973.76 970.38 378.28 466.02 1030.57 644.20 701.46 1202.81 671.18 632.39 1135.10 1152.65 674.80 564.21 872.39 800.70 1094.36 775.07 525.54 439.81 882.98 728.32 1218.31 1051.36 950.09 417.18 792.34 1053.42 924.27 0.00 630.62 455.65 810.04 450.22 895.07 700.83 778.11 1162.96 806.44 517.87 549.66 470.25 1070.45 328.08 699.57 327.54 280.72 1097.74 205.36 266.20 753.75 747.43 353.76 741.13 936.76 1202.90 1075.63 472.68 995.82 708.76 771.71 651.58 882.61 517.92 840.54 237.48 395.49 675.26 705.19 338.17 467.46 851.75 731.90 650.25 768.37 1048.01 911.15 675.16 810.24 906.12 779.99 961.14 551.90 438.57 811.82 685.47 969.38 826.92 1042.18 865.76
708.15 604.26 1146.20 799.81 820.16 1030.15 717.52 514.14 621.77 920.05 642.01 506.58 736.70 968.82 659.48 431.40 837.53 984.20 498.43 437.66 400.82 841.27 1348.95 456.91 1227.14 578.08 1209.69 326.69 397.27 544.96 1174.71 857.88 877.24 1081.75 444.43 414.34 808.11 867.32 1065.86 628.62 874.00 1014.44 1035.12 1375.64 1114.88 811.70 468.16 121.40 1031.31 1179.34 948.13 272.16 1072.06 781.18 891.61 180.00 867.26 703.24 372.75 159.91 935.98 281.44 305.31 941.77 905.66 400.10 527.06 142.46 826.18 896.11 397.96 236.06 636.41 915.52 664.31 759.69 1057.31 254.46 267.37 926.04 919.43 1273.27 856.24 278.55 787.80 1240.92 308.59 1076.34 992.02 926.32 518.59 1100.50 1044.50 1114.72 500.62 865.14 1153.73 909.35 379.25 1090.06 988.39 864.18 558.03 1010.65 799.68 1187.25 645.56 1015.26 994.81 961.83 630.62 0.00 986.90 585.78 350.71 610.28 920.33 664.31 1386.77 443.09 833.20 1036.63 333.58 1283.64 852.74 284.78 773.87 647.83 1202.72 693.28 416.00 639.95 970.35 754.24 553.79 672.13 1011.51 953.11 579.57 801.35 601.30 1182.72 858.83 815.99 543.25 602.65 476.28 332.48 1072.76 145.25 802.36 976.77 1034.35 1077.55 82.63 395.73 890.94 866.80 570.31 1102.80 664.91 677.44 959.03 619.77 800.71 750.41 359.33 861.23 844.09 1305.99 1101.32
646.86 636.20 637.96 806.53 955.73 796.62 1173.89 638.48 407.45 277.69 1106.19 1052.82 902.26 875.24 375.33 931.26 601.85 138.40 614.86 675.63 1012.32 1107.83 847.82 1095.05 772.67 494.71 785.57 1007.25 980.94 1065.13 810.30 807.85 464.43 1166.76 592.61 572.56 1055.10 1195.64 619.91 585.82 936.20 1064.83 170.74 843.02 545.84 1179.01 678.01 1028.81 649.04 511.16 953.41 1016.13 909.07 970.54 805.89 1074.56 281.94 1093.47 1040.86 1066.02 432.40 856.66 867.84 1076.36 284.10 694.47 508.78 1038.15 1240.25 539.49 623.17 807.47 831.40 113.70 965.39 1068.20 964.13 732.44 903.37 1320.27 1240.22 757.70 1003.80 734.56 465.99 758.89 938.76 467.51 1274.03 555.07 779.78 1043.87 1155.28 324.32 741.24 824.18 514.88 1113.67 1086.20 250.86 72.26 834.77 842.44 1320.87 1151.73 727.14 488.99 569.78 951.96 828.06 455.65 986.90 0.00 996.59 771.92 1121.36 657.18 777.72 895.81 987.51 412.19 94.01 751.89 807.46 253.58 980.97 214.90 388.68 932.45 337.08 598.75 753.36 543.85 301.17 858.70 1095.51 1301.63 1075.24 573.05 1224.73 793.59 543.87 569.70 931.63 654.36 1043.79 512.49 669.95 437.94 1052.66 302.08 137.57 782.68 437.69 1006.53 976.00 1058.45 944.99 803.52 516.28 1132.89 817.20 962.40 577.97 418.63 863.82 964.89 995.82 796.35 804.86 655.37
492.91 422.11 859.93 479.50 290.78 715.06 232.94 537.43 850.12 847.53 109.60 134.17 321.06 547.50 887.30 226.66 643.85 971.85 530.04 563.01 246.22 322.82 1029.65 185.39 930.38 743.43 865.99 337.04 258.49 162.07 837.87 542.97 755.11 554.96 572.27 684.59 324.46 321.91 858.94 569.57 445.15 619.68 968.56 1073.66 982.10 266.29 478.95 638.89 771.66 949.41 582.97 397.88 780.91 311.32 632.70 458.85 885.02 185.44 310.35 529.97 752.41 653.40 352.75 491.23 892.47 715.01 680.88 526.68 314.94 656.60 568.46 533.48 283.49 947.40 194.45 239.25 657.30 548.97 378.95 405.39 362.61 955.72 458.49 713.50 705.86 931.62 326.99 913.11 406.24 719.16 347.43 713.75 534.99 1050.36 430.43 530.41 917.51 323.57 280.48 1142.44 1045.26 519.82 244.87 445.59 261.40 858.55 653.18 843.22 689.43 695.31 810.04 585.78 996.59 0.00 412.15 124.77 650.90 339.91 1095.60 142.69 743.70 1024.28 432.18 936.48 1053.72 384.36 781.69 753.54 843.53 822.06 543.84 361.53 827.12 809.27 223.76 126.72 439.18 425.25 509.41 255.94 264.72 946.50 589.24 392.67 455.56 47.20 630.10 534.89 883.54 662.74 783.52 1029.15 715.21 906.14 581.10 210.70 373.88 453.94 307.26 919.49 136.30 367.08 511.90 547.89 741.66 392.93 276.25 443.83 530.94 1016.21 876.66
462.44 316.02 912.75 673.83 692.88 818.06 645.09 243.53 493.90 677.74 521.75 429.93 605.70 768.56 531.61 299.73 653.72 780.49 218.64 169.44 312.24 734.97 1106.98 450.54 1038.25 358.30 1001.44 299.24 315.95 453.96 966.46 694.29 669.31 944.59 279.21 272.44 686.40 734.06 884.03 410.06 734.54 865.03 816.53 1151.46 922.56 678.44 155.49 360.28 743.07 918.76 792.07 303.91 863.81 653.90 683.36 337.63 678.17 597.59 366.60 320.29 625.23 241.25 208.24 788.99 670.96 302.86 322.92 306.29 727.09 701.60 228.82 121.33 480.35 685.07 537.03 651.40 876.78 136.82 178.79 817.54 774.76 1067.23 750.39 301.35 515.67 1032.16 230.75 834.11 818.39 724.71 409.41 932.12 913.03 847.46 241.27 717.97 916.45 735.72 361.62 843.88 761.24 707.38 440.57 857.74 673.55 1004.31 463.30 781.81 885.63 753.58 450.22 350.71 771.92 412.15 0.00 518.91 687.72 534.24 1178.52 383.70 540.80 832.92 20.03 1080.73 724.87 286.12 616.80 431.44 994.47 534.74 253.37 509.88 801.91 537.85 447.94 538.87 851.33 792.49 308.96 668.09 410.82 926.64 590.59 645.87 261.60 459.35 339.50 124.08 804.54 336.43 595.21 823.42 826.10 814.41 320.39 354.92 769.23 730.81 391.35 884.95 548.45 520.64 806.82 443.21 563.03 603.85 278.01 729.76 611.44 1123.46 879.21
554.54 521.74 904.24 515.69 322.56 755.07 167.82 542.61 907.64 946.88 44.48 179.91 305.70 626.25 945.35 219.18 711.68 1077.75 534.35 520.23 258.43 267.21 1088.26 248.42 993.70 815.62 910.30 352.97 287.00 168.66 875.20 608.90 802.82 568.95 628.08 786.65 280.56 281.52 856.91 694.34 398.62 573.15 1060.56 1071.82 1026.77 226.88 558.99 669.61 766.77 988.99 536.44 413.81 832.09 296.41 659.75 480.40 947.70 122.16 354.78 545.90 774.95 709.36 345.27 453.08 932.05 806.13 773.78 557.40 253.61 704.31 667.82 630.00 383.15 1061.66 238.76 200.66 714.65 655.73 391.88 372.48 309.15 995.91 393.87 791.24 805.49 1001.22 360.51 898.76 416.88 766.87 415.31 699.48 558.92 959.95 461.76 560.41 957.09 337.40 326.07 1257.10 1076.95 571.00 312.55 410.88 223.25 968.45 708.63 876.39 653.46 707.78 895.07 610.28 1121.36 124.77 518.91 0.00 699.71 379.49 1111.77 167.19 784.83 1126.63 498.88 952.65 1115.35 415.08 906.46 855.91 901.90 883.61 656.51 403.85 872.66 849.27 333.66 88.57 430.70 395.81 581.65 194.61 364.35 986.08 654.87 448.13 547.95 86.78 729.82 574.47 928.33 687.89 853.31 1153.92 759.52 953.78 597.03 235.20 315.72 407.41 368.89 959.64 64.68 388.55 510.14 649.53 815.05 445.42 309.77 458.27 526.05 1045.30 892.37
274.87 382.21 305.42 237.63 517.46 275.08 822.19 529.70 603.72 379.58 705.36 702.46 447.62 295.62 641.43 660.56 151.38 521.76 506.41 567.18 686.33 650.53 480.37 772.78 436.45 658.92 397.89 711.45 717.71 664.08 345.66 252.91 192.84 640.10 631.39 692.49 617.37 769.00 220.30 398.44 408.33 479.44 524.96 507.06 400.75 743.81 532.23 1003.96 133.58 382.37 368.60 772.29 400.12 514.05 230.92 882.35 418.07 669.23 801.20 904.38 245.91 868.48 681.16 501.12 376.06 810.47 664.99 944.99 766.87 147.34 616.56 790.81 367.41 543.48 511.80 632.19 344.87 824.54 758.00 798.25 801.95 438.86 453.99 854.49 255.41 422.67 768.12 282.73 765.58 110.20 443.46 479.68 603.85 432.11 493.74 238.79 384.36 653.92 776.85 804.53 609.95 249.38 437.29 812.42 716.53 341.69 333.66 259.62 407.37 296.58 700.83 920.33 657.18 650.90 687.72 699.71 0.00 372.51 530.49 700.89 314.61 571.26 707.75 450.54 707.59 821.75 492.89 486.44 488.28 559.02 641.18 348.15 245.77 420.23 458.40 728.19 798.52 582.73 464.27 758.00 489.09 413.35 97.13 362.12 426.12 629.17 622.97 636.89 257.76 980.11 449.61 724.73 272.36 314.40 921.72 729.01 578.91 401.39 456.41 268.59 732.06 390.37 394.61 300.56 302.77 316.10 736.39 420.58 173.66 437.41 255.76
203.14 279.97 597.60 139.59 251.28 432.58 485.73 429.95 735.84 567.39 412.22 433.85 150.50 333.42 739.51 374.88 339.52 774.20 409.20 430.80 469.05 330.11 781.48 525.30 677.37 686.19 601.96 505.42 437.67 472.23 549.73 245.86 486.55 491.59 566.63 667.85 311.97 486.67 534.42 440.95 249.89 390.06 728.41 794.13 652.03 431.05 404.47 785.71 444.28 711.27 330.17 559.08 492.77 212.30 322.48 679.66 607.01 364.31 562.96 665.56 449.49 727.22 402.27 346.10 633.23 708.88 624.15 676.18 517.55 388.04 578.39 641.44 60.57 793.50 204.96 346.78 478.70 651.94 471.59 615.82 535.77 734.50 291.69 731.04 478.50 691.15 481.71 639.85 552.72 445.90 145.72 436.19 479.64 781.95 292.97 221.09 691.70 359.20 542.34 995.85 827.97 231.68 150.88 599.56 403.77 655.81 410.64 506.05 449.66 392.70 778.11 664.31 777.72 339.91 534.24 379.49 372.51 0.00 817.64 458.85 488.04 806.07 514.21 705.46 868.90 553.41 635.10 654.85 576.56 624.17 567.02 24.36 498.38 581.11 153.79 391.73 555.97 346.24 383.96 520.95 173.76 707.54 275.38 153.91 328.91 292.71 609.61 487.52 610.28 809.56 592.53 882.56 452.88 606.92 746.94 445.92 338.89 258.68 142.89 617.83 408.10 77.75 342.16 271.17 463.65 110.25 475.61 296.37 203.56 763.10 541.87
761.73 881.91 332.05 678.05 902.19 461.86 1143.02 1016.56 1087.44 697.24 1151.76 1150.72 849.21 549.89 1064.84 1020.52 618.21 777.88 998.74 1059.51 1160.21 1007.13 96.05 1176.62 169.10 1071.04 332.96 1235.63 1173.19 1174.75 297.19 615.80 621.61 860.45 1100.15 1184.82 969.92 1049.53 362.57 890.77 762.45 611.12 746.92 52.79 462.76 1073.41 1023.03 1496.29 454.86 493.31 635.95 1264.75 389.76 927.42 495.16 1352.18 753.08 1002.45 1240.97 1428.56 616.26 1335.31 1090.93 819.16 763.08 1259.70 1096.20 1389.33 1132.73 575.93 1095.29 1283.14 812.11 941.94 956.50 923.95 481.63 1279.88 1204.68 1121.11 1103.95 189.20 820.06 1346.82 761.74 165.77 1200.97 469.35 1002.70 513.37 929.93 500.75 821.57 593.34 982.90 609.84 512.74 896.44 1187.98 1074.86 905.46 615.24 903.77 1049.54 1046.13 247.87 817.74 462.99 541.38 510.38 1162.96 1386.77 895.81 1095.60 1178.52 1111.77 530.49 817.64 0.00 1104.49 719.23 830.31 1198.55 159.12 1076.59 1247.01 887.57 948.99 271.80 959.26 1115.30 840.48 463.13 842.58 882.66 1074.23 1035.64 864.21 951.13 1171.29 937.01 513.80 589.46 742.39 918.45 1096.75 1115.30 1129.22 489.36 1472.44 826.45 1016.41 437.86 458.12 1421.42 1121.39 937.01 771.24 899.27 379.53 1125.06 801.98 674.50 819.92 790.26 738.11 1174.84 749.40 672.19 122.44 381.92
469.66 482.32 897.80 560.94 420.18 756.25 274.43 447.51 740.45 846.52 200.74 65.31 463.75 690.19 778.16 83.97 629.64 1001.80 486.41 433.43 103.53 405.20 1094.53 167.25 974.59 736.13 957.93 198.07 119.81 103.69 905.70 610.08 834.14 684.36 563.90 656.14 444.31 437.78 812.68 593.42 507.05 681.58 994.94 1122.46 950.65 383.87 446.36 502.42 671.72 984.78 644.87 258.91 871.98 434.40 691.53 316.16 834.61 260.15 187.59 391.00 765.79 542.17 210.06 620.27 865.48 651.23 645.39 390.21 420.80 757.72 544.86 462.81 398.28 926.45 337.14 338.65 799.99 520.52 236.98 528.74 476.34 1025.79 520.46 636.34 715.66 960.81 193.32 875.69 548.93 811.09 359.06 815.43 664.39 944.55 405.37 646.11 978.83 466.26 191.67 1133.36 1024.31 635.52 309.18 578.07 356.59 934.07 573.42 823.29 764.36 761.75 806.44 443.09 987.51 142.69 383.70 167.19 700.89 458.85 1104.49 0.00 761.06 1051.43 363.67 1009.38 971.42 247.89 772.61 745.84 986.22 764.52 540.24 438.02 800.78 714.06 305.06 255.76 581.87 533.80 414.46 361.80 340.80 1007.82 689.04 535.36 469.95 176.60 594.61 467.72 846.12 526.27 771.42 1020.07 780.25 902.76 442.13 68.01 453.71 498.26 319.49 871.00 227.44 448.78 618.57 579.32 691.25 531.99 142.58 564.39 527.23 1052.81 843.99
339.81 321.59 462.00 490.73 739.32 439.97 859.28 407.41 420.76 196.51 798.85 761.32 633.12 545.81 419.23 677.09 283.56 376.91 455.41 494.22 672.36 788.04 664.90 831.64 567.24 491.73 607.60 766.90 703.74 722.94 556.64 549.77 148.75 876.83 393.64 531.23 782.26 922.07 427.88 251.39 652.96 730.08 275.73 678.94 381.76 866.45 444.00 901.08 336.86 377.96 650.60 782.12 639.39 700.34 475.11 821.73 197.97 794.35 786.54 861.09 102.97 746.59 613.34 790.68 242.97 634.45 406.95 807.03 952.95 167.27 446.69 662.13 548.61 409.15 635.00 753.59 634.10 659.41 679.53 995.69 987.84 593.62 720.56 676.85 83.82 553.46 704.75 327.58 1011.10 229.83 453.79 723.87 893.41 306.66 433.12 553.40 375.65 847.24 770.24 534.51 339.93 547.97 530.78 1032.06 839.17 522.49 187.64 331.06 639.59 488.49 517.87 833.20 412.19 743.70 540.80 784.83 314.61 488.04 719.23 761.06 0.00 416.28 520.77 602.03 547.30 786.86 328.21 303.17 656.17 343.47 422.07 512.40 337.79 196.76 551.89 780.90 983.34 765.20 381.73 910.12 478.98 398.23 269.30 581.36 403.56 775.15 457.73 551.36 298.01 877.23 226.14 454.71 415.97 273.61 855.81 715.04 780.12 661.75 488.91 352.20 825.55 565.79 683.55 216.87 79.30 570.63 725.15 710.14 466.92 653.07 421.98
620.69 680.58 665.72 767.52 980.62 766.43 1205.49 625.56 480.55 238.68 1082.15 1083.41 894.51 797.08 469.34 967.46 562.84 52.43 673.56 734.33 1022.69 1110.75 793.40 1124.11 738.47 588.72 776.56 1034.60 991.31 1045.03 724.33 713.84 425.42 1127.95 680.07 622.29 1046.67 1216.87 596.89 532.27 897.19 994.12 140.55 777.52 556.91 1164.38 705.36 1122.82 601.82 480.97 901.87 1043.48 826.98 941.64 711.88 1133.26 243.13 1105.06 1074.19 1115.75 428.91 906.39 878.21 1035.89 198.13 744.20 602.79 1099.15 1252.42 523.62 705.83 857.20 828.83 207.71 945.71 1065.75 905.30 782.17 918.43 1319.41 1263.59 784.40 964.79 784.29 407.54 724.69 966.11 391.48 1266.42 461.06 776.16 960.64 1138.62 294.13 682.90 773.56 484.69 1088.54 1086.76 304.13 166.27 784.15 814.08 1313.26 1144.12 718.28 517.77 534.78 921.77 782.10 549.66 1036.63 94.01 1024.28 832.92 1126.63 571.26 806.07 830.31 1051.43 416.28 0.00 812.89 773.26 347.59 1019.32 308.91 455.96 866.95 429.20 692.76 781.71 489.87 349.55 835.19 1064.20 1262.62 1087.07 649.97 1193.42 762.28 491.39 530.69 884.89 722.97 1043.40 606.50 708.84 407.75 1120.37 323.31 212.25 779.46 464.39 1056.26 1005.06 1046.31 905.98 804.82 523.39 1108.85 845.55 868.39 538.96 360.18 776.94 982.82 955.35 744.92 750.44 628.25
442.41 332.77 932.78 653.80 694.28 798.03 638.10 223.50 513.93 659.30 541.78 409.90 585.67 787.21 528.36 279.70 633.69 760.46 211.77 151.00 292.21 724.17 1127.01 430.51 1035.04 378.33 1013.66 279.21 299.40 433.93 962.70 674.26 657.72 924.56 261.77 292.47 666.37 730.28 892.99 393.83 714.51 845.00 796.50 1171.49 902.53 674.66 175.52 380.31 759.82 898.73 772.04 283.88 883.84 655.30 703.39 357.66 658.14 617.62 346.57 340.32 605.20 239.65 188.21 768.96 650.93 322.89 302.89 286.26 717.57 681.86 208.79 141.36 460.32 705.10 538.43 636.00 896.81 156.85 158.76 837.57 793.45 1082.11 730.36 321.38 535.70 1048.82 210.72 815.67 838.42 704.68 389.38 950.40 916.23 827.43 221.24 697.94 896.42 755.75 341.59 823.85 754.37 687.35 420.54 873.61 669.77 1012.33 443.27 801.84 865.60 773.61 470.25 333.58 751.89 432.18 20.03 498.88 707.75 514.21 1198.55 363.67 520.77 812.89 0.00 1091.54 721.62 266.09 596.77 411.41 1006.70 517.30 233.34 489.85 821.94 517.82 427.91 535.09 871.36 772.46 288.93 664.31 390.79 906.61 610.62 625.84 281.63 479.38 319.47 104.05 786.10 356.46 575.18 803.39 822.03 794.38 335.04 334.89 749.20 723.30 371.32 867.53 556.30 500.61 786.79 453.79 565.92 583.82 261.46 735.35 591.41 1105.02 899.24
649.13 764.71 206.49 594.28 770.81 320.40 1071.79 902.73 980.83 609.67 997.13 1032.95 739.08 432.69 1018.54 967.30 505.61 737.90 925.63 986.40 1060.59 865.67 135.61 1121.87 56.50 978.53 184.42 1132.19 1091.43 1067.09 155.73 495.94 504.41 720.24 995.67 1096.02 861.23 987.84 252.06 801.97 632.31 525.05 636.72 146.06 358.05 957.55 925.24 1400.36 337.66 373.32 494.49 1175.36 258.38 785.96 411.39 1241.67 665.51 908.77 1175.41 1325.12 499.06 1222.71 978.33 709.94 675.51 1163.00 979.00 1254.83 991.27 516.23 983.69 1189.13 652.99 867.74 797.38 852.72 379.17 1176.04 1050.24 1042.54 962.49 96.69 676.20 1251.78 644.54 48.57 1098.15 381.78 989.98 478.42 770.81 505.83 680.11 576.97 870.30 484.37 395.54 848.69 1134.76 964.66 846.87 473.78 767.32 973.77 930.27 130.67 705.14 337.43 399.92 368.92 1070.45 1283.64 807.46 936.48 1080.73 952.65 450.54 705.46 159.12 1009.38 602.03 773.26 1091.54 0.00 989.02 1145.83 827.78 831.79 296.01 873.78 1008.31 724.36 359.29 725.38 746.21 961.63 1013.72 747.01 838.53 1050.27 784.53 424.53 547.67 600.93 876.66 983.68 1013.06 1035.21 411.35 1395.08 748.44 906.21 296.40 416.70 1304.22 1058.68 806.87 641.10 741.99 355.69 1017.33 660.52 586.02 723.37 639.37 649.45 1075.32 644.98 534.20 92.65 267.73
728.51 706.37 855.05 899.93 981.66 827.28 1194.21 650.29 230.97 422.18 1070.87 1036.73 960.81 1003.21 193.26 959.43 745.15 391.98 669.71 642.72 970.48 1101.21 1009.16 1103.05 954.23 366.57 994.91 918.91 939.10 1075.11 943.95 959.11 608.92 1226.63 552.53 530.31 1041.51 1230.25 830.15 560.27 943.58 1081.62 424.32 1035.85 770.64 1174.63 686.46 966.78 797.03 730.32 969.57 927.79 1026.70 1020.64 938.51 967.62 401.34 1089.64 978.83 949.54 569.89 782.54 835.01 1083.77 356.34 588.71 461.91 877.54 1252.45 676.98 559.07 761.26 835.46 164.11 940.85 1011.14 1021.41 686.23 859.83 1329.17 1249.12 978.25 1011.18 641.45 515.36 940.45 850.42 607.24 1284.15 679.19 825.09 1160.08 1186.50 505.09 736.57 946.38 698.42 1139.60 1007.96 258.54 258.20 956.97 809.22 1289.61 1147.35 939.13 469.98 748.27 1026.90 875.80 328.08 852.74 253.58 1053.72 724.87 1115.35 707.59 868.90 1076.59 971.42 547.30 347.59 721.62 989.02 0.00 940.12 329.82 330.11 1086.57 307.78 536.72 864.99 746.99 350.54 830.33 1064.23 1317.09 1139.92 584.86 1193.45 789.00 727.41 681.01 973.94 666.17 1032.70 450.46 665.18 616.43 989.24 377.19 260.75 803.28 673.07 935.37 990.90 1084.38 952.37 746.46 726.52 1097.57 875.75 1055.10 609.45 468.00 958.96 901.16 1003.23 881.25 966.20 861.75
570.92 484.68 999.39 672.29 618.58 899.86 504.12 414.11 709.15 794.28 423.88 288.45 592.31 820.33 746.86 226.49 748.50 966.89 366.11 417.09 159.46 633.74 1211.19 241.72 1141.75 607.65 1079.93 110.30 128.08 322.52 1027.70 752.32 809.63 862.62 477.55 490.75 618.67 660.92 980.47 588.08 702.48 847.60 977.41 1237.88 1075.37 621.45 350.45 254.53 892.76 1114.29 735.55 49.46 976.78 579.60 819.78 152.91 776.19 508.04 142.19 214.32 822.38 294.28 219.92 785.81 821.19 496.91 562.36 142.32 657.82 810.72 474.88 308.50 492.84 908.92 465.70 586.54 917.54 330.87 107.33 710.85 724.23 1148.54 711.21 435.37 710.63 1133.47 89.70 992.59 790.60 798.64 452.98 957.50 862.79 1037.55 373.15 705.10 1088.12 631.07 146.63 1089.94 908.71 715.69 420.53 811.51 604.48 1051.37 626.69 976.77 855.04 890.00 699.57 284.78 980.97 384.36 286.12 415.08 821.75 553.41 1247.01 247.89 786.86 1019.32 266.09 1145.83 940.12 0.00 836.02 677.50 1116.36 733.08 477.60 544.80 934.21 696.53 416.58 481.88 796.32 707.39 479.54 598.82 472.33 1097.22 775.39 646.28 446.40 412.56 563.86 370.14 963.02 278.38 753.89 1023.49 923.86 1009.94 208.44 179.88 701.50 693.69 462.01 1004.76 450.58 576.43 814.00 616.39 757.99 655.26 108.11 724.02 670.84 1168.23 1015.93
431.96 498.09 668.00 687.22 847.89 749.58 1014.63 423.58 252.37 235.13 891.29 837.92 759.64 771.56 237.38 763.54 526.06 312.86 469.91 530.68 797.42 965.21 854.14 880.15 792.99 339.19 815.61 810.78 766.04 850.23 830.99 710.05 397.07 1035.88 377.71 415.63 912.48 1019.73 653.63 370.92 752.83 920.72 382.42 834.78 606.33 964.11 533.06 813.91 572.25 591.35 808.67 843.53 879.75 827.92 723.81 901.43 258.53 878.57 825.96 886.45 328.72 699.73 652.94 893.02 290.91 521.38 293.88 854.30 1050.61 414.07 408.27 637.53 681.54 165.71 754.32 877.89 837.76 562.50 747.93 1165.55 1085.50 820.91 820.43 577.63 296.27 779.21 766.54 463.02 1150.90 476.63 621.52 972.57 995.75 449.77 526.34 731.68 592.71 974.82 876.23 360.75 263.57 742.27 627.54 1160.76 936.83 759.56 274.09 576.10 900.26 789.47 327.54 773.87 214.90 781.69 616.80 906.46 492.89 635.10 887.57 772.61 328.21 308.91 596.77 827.78 329.82 836.02 0.00 218.49 881.92 122.18 383.85 610.74 559.94 139.49 643.80 908.41 1171.59 932.62 358.15 1037.63 630.30 596.49 461.92 778.05 439.46 828.89 297.59 509.95 444.26 837.76 131.27 247.46 730.83 500.90 818.89 761.10 927.39 761.62 617.61 579.24 917.99 674.58 864.35 413.56 248.91 688.06 749.99 812.48 627.20 811.18 652.20
484.38 449.59 723.56 626.14 798.29 694.53 959.71 348.84 183.61 290.69 836.37 795.84 726.31 769.36 221.32 691.11 443.12 403.53 339.60 335.68 642.31 866.71 910.74 804.04 797.00 319.21 846.53 685.00 673.69 825.59 811.20 714.98 401.08 1065.20 276.23 336.31 807.01 953.28 657.64 289.72 812.52 917.49 387.29 937.43 662.93 897.66 402.75 734.59 568.33 646.91 816.72 695.29 886.56 759.31 717.36 704.72 255.14 801.79 746.64 751.73 332.73 570.32 577.49 909.60 257.83 363.71 269.05 697.67 965.75 439.82 249.87 481.75 600.96 318.80 642.44 776.64 831.31 483.18 570.17 1094.67 1014.62 824.93 871.27 468.57 271.23 783.22 622.13 518.58 1049.65 502.38 584.95 966.12 1042.50 506.19 506.77 725.23 646.35 906.21 740.19 493.73 381.59 735.82 574.72 1055.11 870.38 774.82 321.00 602.68 893.81 743.05 280.72 647.83 388.68 753.54 431.44 855.91 486.44 654.85 948.99 745.84 303.17 455.96 411.41 831.79 330.11 677.50 218.49 0.00 885.93 105.94 247.80 630.49 610.34 106.41 595.83 829.73 1082.59 916.00 353.27 958.95 554.50 640.09 436.88 779.80 419.89 798.20 218.27 355.98 500.86 744.92 163.77 442.03 670.53 557.50 680.81 684.99 889.84 821.31 511.96 635.84 863.07 641.25 859.17 460.47 223.87 724.46 672.87 872.17 649.45 867.78 693.10
684.49 739.71 294.49 494.00 688.02 307.29 911.01 783.20 1057.54 727.36 944.46 967.50 619.67 296.03 1031.71 914.33 559.68 814.52 831.20 891.97 1014.64 747.32 367.85 962.73 264.58 1005.82 151.92 1069.01 996.58 997.88 142.62 408.98 559.73 588.65 1001.39 1071.44 698.12 777.73 357.02 777.39 513.85 339.32 824.47 324.59 517.26 801.61 838.98 1286.28 371.62 546.00 391.82 1129.85 180.16 681.23 311.11 1222.96 755.67 779.74 1087.69 1217.97 553.20 1204.56 921.65 547.36 732.15 1105.38 1034.32 1213.62 862.25 550.34 954.84 1115.80 630.22 924.38 746.28 721.92 209.83 1131.29 1009.03 849.31 834.90 321.71 548.26 1226.93 706.90 277.68 1058.27 584.77 730.90 512.38 698.13 228.95 567.44 736.61 828.89 411.26 577.89 624.64 1057.82 1092.83 966.04 400.67 727.44 777.74 774.33 307.50 680.56 425.43 272.33 240.89 1097.74 1202.72 932.45 843.53 994.47 901.90 488.28 576.56 271.80 986.22 656.17 866.95 1006.70 296.01 1086.57 1116.36 881.92 885.93 0.00 927.92 979.46 576.77 470.34 779.52 723.44 860.54 763.84 603.85 830.29 907.77 682.53 580.06 567.44 527.82 827.85 824.95 991.31 964.86 557.27 1310.13 812.60 1070.02 283.29 534.67 1279.22 1013.51 675.33 517.07 678.81 460.65 923.03 549.52 402.70 715.09 716.08 466.31 1033.46 477.60 488.14 350.41 357.89
421.03 508.33 701.08 676.29 836.96 751.12 1011.51 426.79 181.42 268.21 888.17 752.74 748.71 726.59 186.35 680.55 524.91 403.69 445.54 426.32 748.25 954.28 879.78 874.08 838.99 217.01 848.69 721.16 761.27 791.12 827.87 727.18 370.99 1087.60 255.53 340.90 897.99 1020.34 689.80 252.49 823.03 924.13 392.66 906.47 631.97 964.72 458.12 792.88 559.10 621.55 817.14 750.87 865.42 816.99 684.97 801.54 297.13 887.53 804.93 767.74 374.72 608.48 648.17 903.43 299.36 462.81 327.34 803.56 1051.49 469.50 308.58 540.46 665.54 287.89 728.18 867.62 870.69 500.78 625.75 1166.16 1086.11 841.90 890.63 502.90 311.53 825.21 677.71 496.10 1140.63 482.70 547.72 933.73 1050.70 546.24 452.86 687.33 615.39 963.89 808.58 482.93 295.11 697.92 638.77 1146.09 949.87 744.73 330.81 586.98 882.10 755.19 205.36 693.28 337.08 822.06 534.74 883.61 559.02 624.17 959.26 764.52 343.47 429.20 517.30 873.78 307.78 733.08 122.18 105.94 927.92 0.00 283.96 599.81 542.07 148.40 617.66 912.36 1160.66 921.69 420.80 1041.58 622.41 629.57 461.89 731.20 502.11 829.08 276.56 413.25 469.90 773.65 132.81 369.64 748.52 526.54 719.00 781.42 937.10 814.24 602.94 604.88 914.87 663.65 843.15 366.71 264.17 681.58 728.45 869.12 644.33 836.82 680.45
418.88 287.05 832.63 624.69 717.36 789.74 744.77 196.26 306.28 538.49 653.44 586.47 648.11 747.50 343.46 456.27 595.34 651.33 199.50 172.21 499.39 755.04 1035.82 635.87 971.43 199.59 898.95 437.20 510.91 598.90 921.79 634.55 503.90 987.00 28.43 185.03 732.56 865.75 779.19 255.28 712.39 852.56 635.09 1062.51 769.64 810.13 174.16 537.40 692.01 800.03 791.15 495.39 882.48 702.32 702.03 517.58 493.92 705.07 526.95 528.42 525.04 324.52 414.02 831.40 505.63 245.07 137.04 519.60 858.78 589.34 24.62 256.50 526.51 549.56 585.45 702.19 883.91 289.71 370.27 949.23 906.45 974.81 704.18 254.78 404.41 959.74 422.23 749.65 950.08 615.61 430.63 941.56 955.31 728.73 323.18 689.78 797.72 849.22 553.10 741.53 579.07 700.37 484.67 980.66 805.24 877.64 322.79 701.69 848.89 772.25 266.20 416.00 598.75 543.84 253.37 656.51 641.18 567.02 1115.30 540.24 422.07 692.76 233.34 1008.31 536.72 477.60 383.85 247.80 979.46 283.96 0.00 551.99 656.78 354.21 474.93 670.56 936.70 832.92 234.12 799.78 444.44 820.30 544.05 616.41 278.94 591.04 86.26 129.29 720.08 519.67 386.36 631.31 798.16 695.68 435.04 537.63 815.39 721.18 437.51 774.27 668.47 563.05 789.10 398.98 427.37 545.62 472.97 772.04 560.72 992.86 795.16
178.78 264.94 595.58 163.95 256.16 433.16 510.09 414.92 711.48 543.03 436.58 409.49 148.90 342.36 749.19 354.05 315.16 749.84 384.84 445.61 477.64 354.47 781.70 530.83 701.73 661.83 620.86 508.73 446.26 447.87 568.63 270.22 462.19 487.79 542.27 643.49 301.74 500.73 535.00 416.59 253.59 408.23 704.05 808.39 632.07 446.94 381.88 761.35 444.86 699.24 354.53 569.57 511.67 217.18 346.84 684.84 582.65 371.87 556.32 641.20 425.13 702.86 383.53 332.19 608.87 684.52 632.58 687.12 533.44 363.68 567.17 617.08 78.04 769.14 222.43 322.42 465.33 627.58 495.95 620.70 540.65 731.20 293.86 748.51 461.49 715.51 506.07 620.19 570.19 426.24 121.36 460.55 479.46 762.29 268.61 245.45 667.34 364.08 521.51 971.49 825.62 250.58 175.24 612.32 419.66 656.39 435.00 481.69 442.01 417.06 753.75 639.95 753.36 361.53 509.88 403.85 348.15 24.36 840.48 438.02 512.40 781.71 489.85 724.36 864.99 544.80 610.74 630.49 576.77 599.81 551.99 0.00 522.74 556.75 170.33 416.09 560.85 321.88 368.18 538.50 161.07 695.11 251.02 178.27 304.55 317.07 585.25 463.16 590.62 785.20 586.13 858.20 457.16 613.22 722.58 436.74 337.29 244.80 118.53 614.43 432.46 63.84 319.08 295.53 439.29 110.46 484.20 310.93 204.14 738.74 517.51
466.02 556.10 175.85 358.79 703.91 298.55 977.96 631.46 704.73 324.81 878.62 866.09 568.78 440.17 715.26 833.35 291.56 474.29 679.46 730.48 838.96 806.53 397.11 968.03 324.50 759.08 323.46 933.50 870.34 904.47 375.69 391.42 211.29 788.95 685.21 792.57 738.53 868.84 147.73 589.18 557.18 563.11 373.11 410.34 154.98 891.22 646.42 1091.75 129.06 212.89 466.23 952.00 384.20 680.78 354.97 1056.24 380.65 791.75 954.93 1103.47 277.61 952.61 761.32 649.97 390.65 803.71 685.88 1031.47 915.72 170.52 632.16 864.04 558.77 582.88 662.84 768.05 507.72 816.75 826.88 1007.22 960.47 325.79 621.12 911.56 421.61 310.72 878.84 186.01 914.43 135.57 640.01 603.73 752.70 294.24 619.01 387.64 210.58 775.08 936.84 701.05 583.26 398.23 610.55 961.27 863.94 228.62 510.16 44.91 448.55 362.11 747.43 970.35 543.85 827.12 801.91 872.66 245.77 498.38 463.13 800.78 337.79 489.87 821.94 359.29 746.99 934.21 559.94 610.34 470.34 542.07 656.78 522.74 0.00 503.93 631.66 876.29 947.37 731.76 581.35 958.37 640.37 233.16 323.23 516.29 652.22 785.88 719.94 738.27 165.18 1115.60 492.28 642.60 289.59 108.54 1052.98 868.79 700.07 550.24 597.83 132.45 901.27 563.78 543.46 442.12 417.09 506.23 873.13 569.43 369.78 354.15 138.38
377.97 450.98 617.15 567.30 793.90 636.73 955.81 378.42 290.02 184.28 832.47 760.29 694.29 669.16 327.73 630.09 394.61 297.12 330.42 391.19 748.72 869.04 804.33 850.01 690.59 365.41 740.12 722.81 717.65 784.32 753.40 608.57 294.67 984.36 330.52 442.72 858.49 950.92 551.23 286.61 764.01 811.08 280.88 831.02 556.52 919.88 393.57 840.66 461.92 540.50 757.88 731.69 820.25 773.93 651.15 790.12 148.73 855.38 790.17 842.73 226.32 588.67 633.00 847.33 151.42 470.12 375.46 789.40 1006.38 333.41 356.28 588.16 634.79 212.39 696.03 828.30 765.10 589.59 618.93 1076.69 1041.27 718.52 831.61 574.98 164.82 676.81 654.32 412.17 1092.10 395.97 567.53 870.73 944.23 399.78 481.18 659.02 539.94 920.83 797.55 472.03 310.25 669.61 564.40 1106.77 892.60 668.41 214.59 496.27 808.13 685.25 353.76 754.24 301.17 809.27 537.85 849.27 420.23 581.11 842.58 714.06 196.76 349.55 517.82 725.38 350.54 696.53 139.49 106.41 779.52 148.40 354.21 556.75 503.93 0.00 585.51 881.39 1094.39 846.20 420.23 1010.61 601.55 533.68 330.47 692.70 410.71 812.61 324.68 459.34 394.45 848.64 57.36 358.74 612.73 451.09 787.22 730.96 882.68 771.18 563.62 529.43 859.17 620.59 763.12 354.06 117.46 638.52 692.88 766.79 570.72 761.37 586.69
269.52 230.30 670.37 272.87 266.37 524.79 412.52 338.92 769.30 623.77 289.18 288.72 182.91 465.65 775.77 221.09 459.62 832.75 306.28 367.05 355.15 348.91 805.89 409.15 730.67 667.11 712.54 420.43 359.28 320.88 666.32 352.70 588.63 527.96 482.44 610.72 307.66 421.36 638.04 424.10 348.10 477.52 776.75 849.90 786.64 365.74 347.22 671.11 547.90 795.91 404.94 429.31 623.72 227.39 455.76 549.79 673.39 269.87 432.05 613.36 560.60 657.40 248.48 387.98 689.61 661.10 578.55 546.41 433.83 534.01 450.31 554.86 93.22 797.90 110.52 258.84 528.17 508.95 341.82 557.86 487.13 731.96 302.45 673.48 514.05 716.89 351.94 723.56 531.85 568.60 128.87 589.98 490.71 858.55 206.67 373.22 764.01 374.29 388.55 1004.55 848.88 362.63 21.11 567.34 338.46 634.79 429.42 636.79 465.67 525.98 741.13 553.79 858.70 223.76 447.94 333.66 458.40 153.79 882.66 305.06 551.89 835.19 427.91 746.21 830.33 416.58 643.80 595.83 723.44 617.66 474.93 170.33 631.66 585.51 0.00 350.48 564.79 399.32 285.65 471.90 72.91 793.00 398.97 300.66 263.75 258.09 550.59 472.23 716.16 694.96 561.87 891.26 525.65 734.91 625.02 312.47 364.94 346.33 83.87 726.99 315.88 176.81 424.97 366.07 530.03 260.02 360.29 307.44 307.18 798.13 652.90
503.42 459.31 843.58 517.50 297.77 722.86 145.91 574.63 976.84 861.62 113.10 248.53 307.51 579.89 1014.02 255.39 674.06 1014.72 573.05 608.80 347.00 196.10 1033.92 312.11 905.13 860.11 881.07 441.54 375.57 232.14 828.84 565.79 817.64 496.31 672.57 811.31 252.73 195.19 821.06 679.86 352.26 526.79 1005.76 1034.20 1021.07 139.57 581.12 736.41 764.65 1001.23 490.08 499.62 776.87 258.79 619.55 547.51 907.29 84.54 437.07 634.47 789.61 774.74 381.48 364.51 869.02 841.73 798.33 624.20 188.22 751.51 692.82 660.20 388.28 1061.25 243.89 163.04 650.71 675.69 480.45 316.78 258.36 958.29 408.54 840.22 743.06 918.91 449.08 946.29 339.44 814.07 384.63 660.45 470.35 1048.52 467.85 506.07 969.33 264.76 407.20 1241.56 1102.91 515.78 347.23 338.52 134.68 920.14 695.70 870.69 609.57 643.84 936.76 672.13 1095.51 126.72 538.87 88.57 728.19 391.73 1074.23 255.76 780.90 1064.20 535.09 961.63 1064.23 481.88 908.41 829.73 860.54 912.36 670.56 416.09 876.29 881.39 350.48 0.00 342.13 333.08 574.07 129.22 301.92 998.32 667.11 410.51 492.76 99.02 756.82 586.71 931.18 748.89 887.99 1155.87 698.86 924.68 684.81 323.77 278.10 343.47 317.77 924.69 102.44 392.57 463.78 600.93 763.93 457.66 398.34 409.60 580.11 990.96 856.52
739.63 737.95 906.98 628.91 351.25 738.26 328.09 819.23 1138.64 1023.94 413.47 548.90 456.28 637.60 1176.35 597.52 699.78 1235.48 844.43 885.94 685.40 256.00 1098.87 554.60 970.72 1136.29 890.08 753.27 672.14 542.44 865.91 619.45 926.37 301.40 965.13 1121.73 332.98 189.43 939.05 938.14 452.54 579.68 1205.70 1088.43 1066.05 222.14 833.98 1050.85 818.31 1110.54 589.21 781.14 794.31 343.67 674.41 861.19 1079.78 348.82 679.56 934.96 905.76 1090.60 723.61 407.54 1089.78 1141.41 1062.61 937.76 199.88 827.86 961.32 972.66 525.09 1282.01 454.27 305.95 687.69 988.15 758.69 85.47 121.84 1027.85 425.36 1119.16 960.22 965.15 747.78 1015.01 32.94 890.23 642.91 576.79 341.53 1149.30 720.71 559.73 1124.70 243.77 649.69 1429.29 1234.71 549.14 585.90 53.45 249.42 990.52 940.67 938.89 668.97 744.63 1202.90 1011.51 1301.63 439.18 851.33 430.70 798.52 555.97 1035.64 581.87 983.34 1262.62 871.36 1013.72 1317.09 796.32 1171.59 1082.59 763.84 1160.66 936.70 560.85 947.37 1094.39 564.79 342.13 0.00 296.62 828.10 250.98 613.17 1148.48 763.92 548.52 801.87 441.15 1022.96 928.84 1029.41 1060.54 1082.99 1349.49 762.26 1055.91 969.68 649.88 287.63 461.33 570.63 1017.59 431.47 541.34 515.30 827.14 976.93 590.43 710.08 419.49 688.79 1056.55 903.59
500.66 571.36 669.18 409.28 166.37 548.46 427.13 703.10 1033.36 854.85 440.29 494.36 281.73 365.86 1071.07 586.71 565.74 1039.29 705.60 711.52 610.69 204.80 832.16 610.64 712.22 983.71 648.34 678.04 579.31 532.74 596.11 373.23 671.24 175.94 861.35 965.37 202.65 254.77 670.50 738.47 196.34 318.96 1014.61 840.51 875.80 288.66 667.39 961.92 602.70 873.87 310.21 738.88 594.62 200.67 435.26 821.30 872.10 273.65 691.64 870.97 739.59 1001.67 647.80 110.92 917.10 1006.40 919.13 849.71 343.82 685.56 849.63 913.82 399.92 1058.59 317.54 251.11 478.71 908.27 719.95 382.09 307.23 763.42 128.74 1047.29 681.38 698.44 667.99 804.83 321.13 692.93 443.24 412.17 168.10 963.67 554.12 344.12 905.77 101.68 664.12 1246.73 1105.13 333.53 420.43 350.07 278.46 728.24 743.66 745.32 416.21 451.94 1075.63 953.11 1075.24 425.25 792.49 395.81 582.73 346.24 864.21 533.80 765.20 1087.07 772.46 747.01 1139.92 707.39 932.62 916.00 603.85 921.69 832.92 321.88 731.76 846.20 399.32 333.08 296.62 0.00 682.84 394.82 446.58 913.30 572.90 292.32 626.43 409.95 868.35 764.01 775.26 985.77 875.58 1180.08 524.46 831.90 915.83 600.39 119.82 205.13 404.04 774.13 426.29 325.84 218.68 617.41 728.74 371.38 617.25 191.46 409.07 798.05 635.04
189.40 139.94 700.72 444.66 552.02 575.24 660.80 65.43 523.30 465.14 537.46 479.77 442.06 591.58 490.12 420.88 380.68 638.56 113.43 174.20 439.27 630.38 908.46 557.15 782.03 393.23 739.90 452.63 407.89 518.15 687.67 478.63 449.78 780.95 205.69 364.26 593.31 661.58 643.69 178.96 582.14 701.39 605.53 905.34 693.16 605.96 176.58 619.81 502.73 692.38 597.75 485.38 727.23 513.04 568.54 573.13 494.41 520.42 491.93 626.94 477.64 486.79 294.79 625.35 492.86 387.61 331.75 575.19 692.46 410.83 237.07 401.01 323.39 523.86 396.17 544.49 703.76 363.60 401.94 807.40 727.35 839.16 587.02 488.90 347.88 791.82 429.88 633.09 805.83 471.41 280.34 717.83 772.62 688.39 168.19 529.84 724.28 659.94 518.08 718.90 621.72 519.25 269.39 807.56 578.68 759.32 205.64 603.09 692.97 638.76 472.68 579.57 573.05 509.41 308.96 581.65 464.27 383.96 951.13 414.46 381.73 649.97 288.93 838.53 584.86 479.54 358.15 353.27 830.29 420.80 234.12 368.18 581.35 420.23 285.65 574.07 828.10 682.84 0.00 703.29 272.15 748.54 378.65 495.55 81.31 517.60 307.76 247.09 603.52 595.96 403.64 605.61 590.60 650.09 600.07 444.93 630.45 582.61 307.26 578.60 564.16 357.00 633.18 164.86 351.05 440.21 391.84 593.09 449.18 867.86 667.27
632.64 588.53 921.09 627.21 290.52 793.93 94.70 703.85 1046.71 990.84 218.04 353.47 430.71 661.58 1084.42 384.61 779.26 1143.94 695.73 634.96 453.04 207.10 1091.81 357.10 1034.35 964.74 940.58 547.58 481.61 361.36 894.54 618.40 925.37 490.69 801.79 940.53 268.80 161.78 919.45 799.62 460.49 593.29 1134.98 1118.50 1079.13 106.16 644.85 853.35 829.31 1105.84 558.79 583.64 802.95 321.32 701.76 668.76 1036.51 213.76 482.06 737.46 869.64 893.10 510.70 493.63 998.24 970.95 917.02 740.26 59.00 826.86 782.55 789.42 505.77 1190.47 361.38 268.24 740.78 804.91 586.49 187.56 129.14 1069.58 458.23 969.44 872.28 1037.70 555.12 1030.61 222.27 868.20 513.85 696.83 450.56 1154.56 597.07 587.08 1073.94 301.14 452.19 1370.78 1232.13 576.49 476.45 269.11 133.44 998.53 824.69 938.93 678.28 728.03 995.82 801.35 1224.73 255.94 668.09 194.61 758.00 520.95 1171.29 361.80 910.12 1193.42 664.31 1050.27 1193.45 598.82 1037.63 958.95 907.77 1041.58 799.78 538.50 958.37 1010.61 471.90 129.22 250.98 394.82 703.29 0.00 431.14 1102.93 769.74 501.75 621.98 228.24 886.04 710.18 1015.76 863.04 1017.21 1285.09 776.37 1016.32 772.18 429.81 285.93 461.01 446.99 1023.08 215.22 515.77 547.70 730.15 893.15 541.53 504.38 430.17 588.59 1048.85 895.10
228.19 157.39 701.06 303.56 339.28 563.11 443.21 272.71 723.14 599.29 319.87 333.50 255.82 463.21 760.85 256.83 418.29 799.05 271.13 331.90 353.23 397.29 868.46 450.11 789.82 616.84 728.85 427.08 383.68 371.88 676.62 391.02 515.72 595.78 466.78 551.88 337.59 494.27 662.32 377.94 323.72 498.25 703.84 895.15 745.84 438.65 296.95 722.70 569.57 749.75 443.26 460.00 619.66 300.30 441.85 575.20 631.86 342.78 433.72 620.01 487.69 630.44 304.52 440.18 665.13 594.89 543.40 577.10 490.14 524.75 444.35 532.15 131.54 796.01 183.43 307.22 573.32 532.35 372.51 568.75 545.20 804.87 375.36 696.88 441.14 776.04 382.63 650.65 580.23 587.31 82.71 609.95 563.62 785.64 169.55 369.16 717.85 447.20 424.29 939.64 813.73 358.57 51.80 585.69 411.37 707.70 393.78 595.46 538.58 512.07 708.76 601.30 793.59 264.72 410.82 364.35 489.09 173.76 937.01 340.80 478.98 762.28 390.79 784.53 789.00 472.33 630.30 554.50 682.53 622.41 444.44 161.07 640.37 601.55 72.91 301.92 613.17 446.58 272.15 431.14 0.00 746.84 412.09 310.38 190.84 300.01 509.26 401.61 680.22 746.55 591.78 877.76 556.34 716.03 671.14 345.06 420.42 332.51 42.54 733.18 346.57 171.83 435.24 299.01 488.50 216.22 366.29 380.35 365.21 825.50 652.76
622.54 697.03 285.57 591.95 896.15 427.15 1092.32 683.11 674.60 361.36 1018.81 1033.72 772.25 563.24 712.31 939.22 466.55 462.03 731.11 777.39 1003.50 985.84 434.32 1082.55 389.74 746.99 433.18 1015.70 989.03 1041.79 485.41 598.46 324.93 975.34 791.87 910.73 929.17 1069.47 275.17 649.62 738.42 722.81 373.13 461.01 101.21 1074.18 794.26 1237.49 336.10 60.89 668.03 1076.54 495.59 884.86 478.04 1176.32 408.80 964.76 1105.45 1208.63 373.34 1064.28 954.73 802.38 419.63 977.14 799.52 1189.33 1120.80 374.16 804.21 1018.69 751.06 563.30 881.78 971.52 648.42 994.50 1018.73 1200.74 1120.69 374.77 804.65 1021.67 482.05 375.96 1055.01 133.47 1119.51 327.42 664.13 702.26 935.21 228.87 761.41 592.72 28.99 954.39 1101.38 644.77 583.28 603.31 790.95 1147.39 1048.67 299.38 585.87 213.42 644.86 502.81 771.71 1182.72 543.87 946.50 926.64 986.08 413.35 707.54 513.80 1007.82 398.23 491.39 906.61 424.53 727.41 1097.22 596.49 640.09 580.06 629.57 820.30 695.11 233.16 533.68 793.00 998.32 1148.48 913.30 748.54 1102.93 746.84 0.00 445.31 730.46 774.30 899.30 833.58 864.77 163.04 1213.64 500.13 642.62 430.29 124.62 1217.75 1040.09 879.38 747.21 742.76 174.67 1014.69 728.11 748.54 609.85 477.53 721.56 1026.97 751.94 552.35 391.36 310.63
225.42 332.14 366.69 236.83 494.46 346.19 754.13 441.41 554.47 292.01 685.13 660.51 363.82 390.38 592.18 605.07 64.14 503.55 409.28 470.05 622.36 605.49 577.50 764.75 513.25 625.44 477.05 716.90 653.74 698.89 424.82 323.10 242.46 703.60 572.48 595.36 552.76 721.82 317.43 301.31 433.54 539.46 453.03 604.19 447.42 688.37 435.10 906.83 230.71 448.22 427.41 773.22 497.25 468.20 328.05 832.28 347.85 586.79 711.71 892.22 174.11 779.46 609.44 573.73 357.85 713.34 576.62 893.91 773.45 162.99 519.43 693.68 305.75 542.86 450.14 535.06 442.00 727.41 697.79 849.39 773.04 502.31 501.14 757.36 260.37 519.80 695.85 379.86 796.86 191.61 346.33 576.81 663.47 513.66 415.87 335.92 416.32 593.13 679.72 780.97 591.74 346.51 420.08 817.37 670.68 438.82 314.10 311.71 504.50 370.72 651.58 858.83 569.70 589.24 590.59 654.87 97.13 275.38 589.46 689.04 269.30 530.69 610.62 547.67 681.01 775.39 461.92 436.88 567.44 461.89 544.05 251.02 323.23 330.47 398.97 667.11 763.92 572.90 378.65 769.74 412.09 445.31 0.00 394.33 328.99 568.09 525.84 539.76 354.89 882.98 359.85 689.21 340.53 395.08 871.65 665.04 552.21 442.33 369.55 363.41 683.48 314.86 469.86 239.06 213.01 361.48 691.68 493.19 240.25 534.54 288.62
348.93 433.88 509.97 157.50 211.23 386.66 542.24 560.98 857.35 664.77 449.36 526.84 179.61 231.79 832.83 503.36 364.67 876.31 532.48 584.71 486.82 377.00 711.70 578.06 607.31 816.00 497.43 581.36 518.20 546.38 445.20 171.05 554.96 379.03 644.84 752.20 314.57 456.35 519.32 562.99 95.98 236.15 847.36 689.60 636.21 459.62 531.19 900.81 396.32 699.62 208.76 638.03 388.24 250.21 252.42 708.79 718.60 325.97 602.79 774.29 552.41 865.49 510.68 236.17 730.61 824.48 726.26 788.60 495.75 492.75 591.79 767.20 207.44 825.30 302.03 323.17 374.17 782.69 620.27 553.21 473.16 633.26 163.58 871.19 571.82 615.91 606.88 607.93 541.36 472.32 299.63 370.00 338.90 794.23 404.60 137.74 703.43 345.55 584.70 1107.62 921.29 127.15 304.79 525.09 432.34 578.94 503.96 538.80 328.25 302.64 882.61 815.99 931.63 392.67 645.87 448.13 362.12 153.91 742.39 535.36 581.36 884.89 625.84 600.93 973.94 646.28 778.05 779.80 527.82 731.20 616.41 178.27 516.29 692.70 300.66 410.51 548.52 292.32 495.55 501.75 310.38 730.46 394.33 0.00 452.19 435.81 681.06 641.43 607.42 916.28 685.85 994.33 365.25 616.19 825.42 529.50 270.54 104.77 267.84 595.60 476.06 138.55 207.50 364.49 575.24 129.24 556.14 155.63 188.46 668.74 545.78
244.65 130.61 695.68 468.50 523.18 633.92 626.81 112.42 542.71 513.16 503.47 404.64 429.43 559.20 571.43 408.28 393.13 677.65 80.29 141.06 421.83 553.23 845.38 475.84 837.28 426.00 806.04 435.35 395.29 443.02 753.81 524.87 502.71 777.16 275.94 424.85 512.47 679.10 646.42 260.27 514.56 677.37 679.29 889.86 751.84 623.48 106.11 595.96 557.66 756.56 565.32 444.23 715.65 484.20 559.21 539.99 510.46 533.62 461.37 581.89 468.31 450.47 282.19 628.88 539.85 434.60 352.56 567.89 680.98 491.98 264.44 364.69 303.66 605.17 374.27 495.92 701.58 398.42 368.80 759.59 733.90 831.30 566.20 522.40 319.74 846.75 366.86 692.03 768.93 520.60 273.55 719.77 737.03 710.22 86.88 465.15 745.31 631.10 490.74 800.21 622.89 454.56 242.64 774.39 596.20 767.81 258.36 640.70 684.81 586.96 517.92 543.25 654.36 455.56 261.60 547.95 426.12 328.91 918.45 469.95 403.56 722.97 281.63 876.66 666.17 446.40 439.46 419.89 827.85 502.11 278.94 304.55 652.22 410.71 263.75 492.76 801.87 626.43 81.31 621.98 190.84 774.30 328.99 452.19 0.00 467.75 322.69 210.77 662.46 572.11 448.17 686.92 645.85 652.21 547.52 431.71 595.30 523.35 231.24 659.91 530.17 360.53 599.79 223.54 367.10 407.06 386.80 553.76 457.05 863.53 617.61
471.89 453.56 856.41 432.30 243.58 725.29 193.02 566.02 895.64 860.10 119.51 181.37 301.46 594.70 932.82 204.31 632.23 990.97 533.38 572.21 280.13 283.29 1063.98 232.59 970.08 761.09 888.75 365.24 296.41 209.27 836.52 538.57 779.26 507.76 573.55 731.79 277.26 294.21 824.65 616.77 414.70 589.23 1003.85 1071.85 940.86 238.59 526.15 667.09 736.99 902.21 552.52 426.08 756.01 282.56 615.19 448.49 875.76 138.24 357.55 550.94 736.45 700.60 330.40 446.69 845.27 762.21 703.76 538.57 287.24 680.75 593.80 580.68 330.69 994.60 241.65 200.69 704.50 596.17 407.15 415.80 357.38 990.05 411.29 756.55 741.15 974.98 355.19 911.90 438.46 738.61 364.87 699.51 487.79 1046.73 436.32 507.88 870.31 310.14 327.68 1189.64 1075.98 518.47 248.21 437.54 233.70 892.88 687.51 798.76 653.49 685.41 840.54 602.65 1043.79 47.20 459.35 86.78 629.17 292.71 1096.75 176.60 775.15 1043.40 479.38 983.68 1032.70 412.56 828.89 798.20 824.95 829.08 591.04 317.07 785.88 812.61 258.09 99.02 441.15 409.95 517.60 228.24 300.01 899.30 568.09 435.81 467.75 0.00 675.62 487.69 886.93 676.65 788.97 1076.35 711.69 894.42 585.79 244.61 331.80 423.49 286.24 897.76 115.39 370.46 526.22 562.75 732.40 358.64 304.45 474.35 496.27 1052.17 834.58
476.00 373.31 834.05 585.34 779.16 833.41 831.03 247.86 220.02 508.96 739.70 633.82 627.57 804.56 257.20 510.64 589.98 610.45 281.75 258.27 529.03 821.47 1050.24 653.33 959.39 145.56 972.25 523.46 497.65 664.87 950.66 691.61 508.65 966.46 102.07 118.04 761.77 950.51 767.15 224.53 777.04 886.90 605.56 1076.93 774.39 894.89 260.42 516.32 696.76 798.81 775.92 569.77 916.41 740.18 768.23 603.84 473.41 764.57 528.37 588.86 551.00 402.14 384.55 810.86 476.10 223.97 50.78 590.98 945.04 607.16 110.68 339.94 555.72 463.30 661.11 731.40 940.97 264.91 456.53 1035.49 969.38 979.56 772.53 280.04 443.98 964.49 492.40 736.85 1004.41 620.36 516.89 974.71 958.13 724.46 356.27 739.84 811.00 856.88 584.63 658.34 561.16 729.25 529.48 1009.87 867.61 882.39 310.75 764.85 895.41 838.45 237.48 476.28 512.49 630.10 339.50 729.82 622.97 609.61 1115.30 594.61 457.73 606.50 319.47 1013.06 450.46 563.86 297.59 218.27 991.31 276.56 86.26 585.25 719.94 324.68 550.59 756.82 1022.96 868.35 307.76 886.04 509.26 833.58 525.84 681.06 322.69 675.62 0.00 215.55 719.13 540.17 382.04 545.05 857.41 708.96 521.30 549.45 815.96 785.83 466.72 787.55 754.73 542.51 803.06 423.03 396.62 625.72 496.36 836.69 622.03 1007.28 802.61
436.49 296.21 892.94 613.66 597.64 775.60 615.48 181.66 434.21 613.48 607.20 507.99 612.06 748.75 471.92 383.75 603.90 656.41 165.95 105.18 370.10 716.56 1056.15 531.83 1000.42 320.12 981.63 383.26 401.48 469.61 932.21 707.85 585.39 881.98 157.72 266.52 694.08 781.90 847.17 304.59 674.86 849.39 740.22 1100.63 851.13 726.28 135.68 440.94 723.26 890.05 776.09 387.93 844.00 636.62 663.55 436.19 575.41 625.93 450.62 429.23 615.35 239.70 292.26 795.35 609.09 338.80 216.07 390.31 769.18 642.60 106.11 153.92 488.03 671.73 565.98 663.71 856.97 223.10 262.81 897.74 839.32 986.53 742.46 345.02 488.38 986.64 314.77 769.85 910.63 693.00 407.46 912.31 841.85 805.10 288.08 675.92 887.74 755.58 445.64 849.71 708.36 665.33 451.12 925.23 721.39 959.13 401.42 762.00 835.78 733.77 395.49 332.48 669.95 534.89 124.08 574.47 636.89 487.52 1129.22 467.72 551.36 708.84 104.05 1035.21 665.18 370.14 509.95 355.98 964.86 413.25 129.29 463.16 738.27 459.34 472.23 586.71 928.84 764.01 247.09 710.18 401.61 864.77 539.76 641.43 210.77 487.69 215.55 0.00 740.28 417.09 515.65 746.70 791.54 785.70 352.98 412.78 700.36 666.07 399.03 825.69 603.08 527.00 782.24 386.45 476.68 573.62 365.51 732.20 625.00 1059.20 828.38
459.50 575.76 262.78 495.39 775.22 371.61 1044.07 623.97 651.32 257.46 945.66 911.43 668.35 526.18 656.25 845.19 354.83 368.38 671.97 635.10 870.96 859.94 409.88 987.45 376.56 686.91 410.39 965.50 902.34 878.75 448.69 473.46 243.76 861.97 691.65 757.57 826.37 943.57 234.66 519.24 578.92 644.88 267.20 436.57 162.07 942.56 719.16 1164.82 211.10 151.65 599.49 980.81 471.13 771.81 441.90 1034.03 313.30 855.38 986.93 1124.83 240.04 979.98 817.74 719.11 300.73 864.57 704.96 1056.03 997.76 226.94 723.04 894.20 625.17 492.96 734.56 825.00 530.81 917.45 855.69 1056.01 997.94 376.65 646.52 919.57 381.83 362.78 907.65 29.57 996.47 164.38 649.06 630.47 821.84 207.09 647.82 469.68 148.45 828.49 968.84 595.14 477.35 480.27 695.05 1008.03 915.28 346.09 485.65 131.84 557.31 447.01 675.26 1072.76 437.94 883.54 804.54 928.33 257.76 610.28 489.36 846.12 298.01 407.75 786.10 411.35 616.43 963.02 444.26 500.86 557.27 469.90 720.08 590.62 165.18 394.45 716.16 931.18 1029.41 775.26 603.52 1015.76 680.22 163.04 354.89 607.42 662.46 886.93 719.13 740.28 0.00 1140.97 337.09 536.69 376.92 56.64 1093.26 913.64 753.48 587.71 645.15 134.98 918.96 641.73 604.93 470.93 347.15 558.52 929.55 638.57 431.42 366.92 245.32
785.36 630.37 1219.80 945.06 895.76 1115.87 768.34 530.53 760.19 1002.21 694.69 566.83 866.52 1060.04 795.98 493.50 923.25 1067.94 553.19 505.87 429.46 895.38 1417.49 505.94 1360.29 661.82 1325.68 334.92 406.46 568.17 1273.45 1003.13 974.33 1141.00 518.12 498.08 880.31 931.73 1198.38 704.83 961.23 1125.98 1129.52 1461.97 1233.79 888.46 491.92 23.85 1057.42 1248.34 1013.93 311.10 1200.24 856.78 1019.79 228.16 953.79 786.42 380.98 184.24 961.66 275.84 450.56 1047.45 957.96 469.34 590.51 201.72 922.04 991.47 495.05 263.17 771.22 1003.47 739.91 851.25 1195.92 338.20 385.71 975.07 950.90 1374.28 974.38 347.79 852.10 1346.51 368.08 1170.54 1056.41 1012.04 663.84 1220.61 1139.97 1153.97 577.70 944.81 1242.63 909.45 425.01 1173.80 1068.76 955.40 698.91 1057.16 882.86 1311.36 750.30 1118.24 1133.42 1090.01 705.19 145.25 1052.66 662.74 336.43 687.89 980.11 809.56 1472.44 526.27 877.23 1120.37 356.46 1395.08 989.24 278.38 837.76 744.92 1310.13 773.65 519.67 785.20 1115.60 848.64 694.96 748.89 1060.54 985.77 595.96 863.04 746.55 1213.64 882.98 916.28 572.11 676.65 540.17 417.09 1140.97 0.00 876.05 1060.51 1139.87 1150.84 90.86 458.26 948.82 970.02 715.56 1174.56 702.39 822.69 1072.75 705.49 876.92 843.82 386.49 1002.40 947.87 1417.52 1171.60
407.35 434.39 599.87 596.68 812.19 618.31 932.17 417.77 314.23 194.81 808.83 817.65 723.67 662.22 319.16 687.45 423.99 270.88 387.78 448.55 780.77 898.42 746.97 907.37 713.65 349.82 747.48 780.17 773.00 827.43 756.38 665.93 280.99 973.60 357.93 420.48 869.53 893.56 571.75 294.83 781.83 840.46 295.12 773.66 499.16 916.53 450.93 898.02 440.98 488.74 767.01 789.05 803.66 773.21 667.16 847.48 206.09 831.74 847.53 870.14 283.68 646.03 659.90 830.74 193.80 527.48 425.15 846.76 995.70 379.50 410.98 642.86 653.10 257.81 672.39 820.71 780.69 580.36 676.29 1069.94 989.89 713.74 820.86 582.48 194.20 699.87 711.68 366.66 1050.05 392.70 538.81 892.65 933.47 421.11 464.59 638.03 482.58 920.11 837.10 492.02 355.67 627.44 540.76 1096.89 889.25 654.73 198.00 468.93 787.19 688.23 338.17 802.36 302.08 783.52 595.21 853.31 449.61 592.53 826.45 771.42 226.14 323.31 575.18 748.44 377.19 753.89 131.27 163.77 812.60 132.81 386.36 586.13 492.28 57.36 561.87 887.99 1082.99 875.58 403.64 1017.21 591.78 500.13 359.85 685.85 448.17 788.97 382.04 515.65 337.09 876.05 0.00 378.73 615.71 393.73 821.40 788.32 853.00 787.73 593.00 472.07 835.53 649.97 772.67 321.36 146.84 667.90 750.24 750.20 600.10 704.01 582.41
679.42 745.55 775.53 926.04 1093.30 894.68 1262.09 622.67 491.72 414.51 1138.75 1085.38 1007.10 1000.52 454.01 975.12 738.27 264.68 657.38 718.15 1030.56 1212.67 946.57 1121.22 871.42 528.60 923.14 1049.77 1013.50 1097.69 936.58 926.09 601.25 1261.74 620.94 562.43 1159.94 1267.19 743.53 618.38 1000.29 1143.71 269.49 967.45 683.41 1211.57 720.53 1061.37 747.79 609.91 1056.13 1056.38 1007.82 1075.38 924.13 1097.78 393.67 1126.03 1073.42 1055.89 557.68 846.53 900.40 1118.88 348.67 684.34 541.34 1048.38 1298.07 621.98 655.73 797.34 929.00 212.64 1001.78 1125.35 1067.50 722.31 945.89 1397.66 1317.61 895.27 1067.89 724.43 523.56 857.64 981.28 566.26 1316.55 671.52 868.98 1167.16 1221.61 423.07 773.80 961.00 613.63 1222.28 1123.69 113.29 114.78 971.59 875.00 1363.39 1184.29 857.54 521.55 668.53 1050.71 943.20 467.46 976.77 137.57 1029.15 823.42 1153.92 724.73 882.56 1016.41 1020.07 454.71 212.25 803.39 906.21 260.75 1023.49 247.46 442.03 1070.02 369.64 631.31 858.20 642.60 358.74 891.26 1155.87 1349.49 1180.08 605.61 1285.09 877.76 642.62 689.21 994.33 686.92 1076.35 545.05 746.70 536.69 1060.51 378.73 0.00 870.68 575.26 996.40 1002.17 1174.85 1009.08 865.07 640.71 1165.45 922.04 1080.64 661.02 476.20 935.52 997.45 1038.34 874.66 903.61 778.99
401.20 571.34 144.72 313.29 543.78 24.00 798.40 617.94 836.73 577.59 755.75 795.72 496.79 216.52 835.20 729.75 276.39 745.30 665.94 726.71 812.66 569.27 383.44 879.92 301.20 759.83 191.63 876.54 842.71 771.22 140.67 248.79 402.77 592.90 769.73 923.57 611.55 691.44 222.70 632.88 381.68 314.62 644.12 385.07 351.79 670.21 670.61 1155.75 214.66 433.30 284.90 912.74 223.42 530.66 142.74 1009.23 607.69 658.14 915.62 1069.47 405.22 993.49 757.26 413.54 636.39 940.12 822.92 1028.29 755.59 363.90 789.58 945.46 455.57 811.00 520.76 627.76 218.13 954.20 823.70 835.52 783.12 299.20 446.47 1052.94 499.79 287.42 835.37 404.42 754.30 350.51 537.42 356.80 560.81 556.26 600.79 248.69 424.01 607.01 881.94 930.88 755.90 238.10 504.54 770.99 642.93 236.28 547.72 245.08 223.62 72.52 851.75 1034.35 782.68 715.21 826.10 759.52 272.36 452.88 437.86 780.25 415.97 779.46 822.03 296.40 803.28 923.86 730.83 670.53 283.29 748.52 798.16 457.16 289.59 612.73 525.65 698.86 762.26 524.46 590.60 776.37 556.34 430.29 340.53 365.25 645.85 711.69 857.41 791.54 376.92 1139.87 615.71 870.68 0.00 349.77 1110.85 799.58 532.00 372.89 544.57 326.33 772.23 424.84 363.96 434.38 495.27 353.05 815.75 409.30 253.02 340.48 187.24
516.14 572.41 253.54 467.33 771.53 373.77 1070.59 680.61 644.43 305.36 987.16 968.07 677.32 469.54 606.72 901.83 377.62 425.02 646.35 691.74 917.98 905.67 449.81 1044.09 377.14 685.21 387.32 965.91 943.06 935.39 392.05 499.96 200.31 897.49 667.25 799.18 843.98 977.38 182.22 525.00 635.56 642.41 323.84 405.33 108.15 970.24 709.50 1174.69 237.60 104.35 574.33 1026.75 485.66 789.32 454.33 1072.55 361.20 840.14 1005.21 1134.70 248.72 1000.04 832.10 731.39 357.37 902.40 674.90 1064.71 1024.26 249.54 679.59 911.47 667.31 549.60 757.16 876.59 550.86 925.29 912.33 1112.65 1054.58 320.01 703.16 950.46 357.43 371.55 955.86 77.47 1022.97 221.02 680.79 606.18 861.24 249.93 636.79 496.18 102.04 883.62 1015.86 651.78 509.95 506.77 719.09 1053.69 942.96 289.45 461.25 153.45 520.24 390.37 731.90 1077.55 437.69 906.14 814.41 953.78 314.40 606.92 458.12 902.76 273.61 464.39 794.38 416.70 673.07 1009.94 500.90 557.50 534.67 526.54 695.68 613.22 108.54 451.09 734.91 924.68 1055.91 831.90 650.09 1016.32 716.03 124.62 395.08 616.19 652.21 894.42 708.96 785.70 56.64 1150.84 393.73 575.26 349.77 0.00 1110.53 960.66 808.61 644.35 701.79 78.59 975.60 672.32 652.00 485.23 352.91 614.77 905.12 677.97 427.73 422.35 217.68
748.79 539.51 1128.94 875.34 816.87 1091.51 677.48 534.64 704.40 918.77 603.83 483.09 800.75 1028.45 742.11 434.93 898.89 1003.83 489.08 458.16 338.60 804.52 1389.37 415.08 1269.43 597.71 1276.55 244.06 336.52 516.52 1224.44 940.51 910.22 1071.06 463.47 433.97 789.45 840.87 1107.52 657.57 902.01 1056.04 1068.10 1417.30 1175.96 823.91 441.41 106.23 966.56 1214.88 943.99 220.24 1148.56 777.89 968.11 137.30 862.93 702.28 290.12 93.38 877.21 294.88 387.94 956.59 907.93 440.13 558.25 110.86 831.18 925.09 430.94 199.06 701.28 955.26 674.14 760.39 1125.98 274.09 315.45 884.21 860.04 1283.42 883.52 361.18 801.59 1255.65 292.75 1122.83 965.55 987.65 601.22 1165.94 1061.08 1147.70 556.28 913.22 1202.15 839.51 346.38 1109.69 1014.11 923.81 623.58 1005.51 798.72 1220.50 716.89 1067.73 1063.48 1038.33 650.25 82.63 1006.53 581.10 320.39 597.03 921.72 746.94 1421.42 442.13 855.81 1056.26 335.04 1304.22 935.37 208.44 818.89 680.81 1279.22 719.00 435.04 722.58 1052.98 787.22 625.02 684.81 969.68 915.83 600.07 772.18 671.14 1217.75 871.65 825.42 547.52 585.79 521.30 352.98 1093.26 90.86 821.40 996.40 1110.85 1110.53 0.00 381.28 872.28 893.22 634.26 1155.39 611.53 760.07 1013.53 681.13 829.66 833.04 304.85 932.46 867.58 1347.65 1138.83
454.14 463.85 944.30 546.80 438.70 823.58 341.33 379.50 759.93 861.65 246.28 110.85 495.38 756.02 797.64 100.87 645.42 952.63 426.19 365.42 42.68 473.21 1118.36 119.05 1042.60 676.45 991.21 137.22 51.80 149.23 940.25 653.07 794.55 723.04 546.35 624.48 472.36 483.32 880.69 553.80 575.06 749.59 990.77 1162.37 1018.66 451.88 401.19 434.41 739.73 1043.00 712.88 198.06 888.88 399.72 708.43 264.65 814.14 328.16 119.58 330.15 781.88 474.16 164.90 641.81 806.93 590.38 595.83 322.20 488.81 711.12 513.01 394.80 405.69 926.81 389.94 406.66 840.64 464.60 176.13 574.28 544.35 1044.43 549.47 575.49 688.41 1028.82 140.48 943.21 616.94 773.68 375.96 841.76 682.91 961.45 360.21 663.01 1011.10 534.27 123.66 1084.28 968.79 652.42 295.04 638.22 424.60 947.26 590.32 889.31 778.14 778.65 768.37 395.73 976.00 210.70 354.92 235.20 729.01 445.92 1121.39 68.01 715.04 1005.06 334.89 1058.68 990.90 179.88 761.10 684.99 1013.51 781.42 537.63 436.74 868.79 730.96 312.47 323.77 649.88 600.39 444.93 429.81 345.06 1040.09 665.04 529.50 431.71 244.61 549.45 412.78 913.64 458.26 788.32 1002.17 799.58 960.66 381.28 0.00 521.72 566.27 336.39 939.01 272.98 465.68 686.58 561.37 708.15 547.20 89.74 614.99 595.24 1110.60 912.00
516.07 545.20 676.72 341.28 102.72 508.00 335.59 676.94 1035.98 820.72 360.20 486.31 188.39 402.19 1073.16 486.25 496.56 1032.26 659.00 647.87 557.24 106.46 880.87 553.42 785.07 956.09 692.31 651.78 573.52 447.93 651.14 332.47 723.15 295.76 835.16 934.00 82.83 190.09 715.35 710.85 174.56 349.09 1002.48 895.54 816.34 197.89 641.23 924.97 581.14 852.09 312.38 652.04 606.39 137.55 441.85 769.87 876.56 193.56 619.50 790.00 702.54 940.06 599.04 230.74 886.56 979.45 866.74 797.28 281.90 624.64 795.46 854.28 314.16 1078.79 254.42 147.75 484.00 873.89 623.57 343.28 263.23 809.77 173.59 984.63 765.50 786.31 647.03 783.05 270.82 673.88 415.62 470.70 277.03 946.08 527.96 344.10 851.77 75.01 563.24 1224.95 1120.05 354.69 373.83 317.66 170.61 712.60 749.53 665.96 421.50 483.72 1048.01 890.94 1058.45 373.88 769.23 315.72 578.91 338.89 937.01 453.71 780.12 1046.31 749.20 806.87 1084.38 701.50 927.39 889.84 675.33 937.10 815.39 337.29 700.07 882.68 364.94 278.10 287.63 119.82 630.45 285.93 420.42 879.38 552.21 270.54 595.30 331.80 815.96 700.36 753.48 948.82 853.00 1174.85 532.00 808.61 872.28 521.72 0.00 183.35 377.88 780.42 348.86 273.45 286.08 610.06 765.22 341.75 596.29 197.73 405.25 870.90 679.89
393.21 460.08 517.61 262.27 244.10 396.89 473.94 605.22 925.91 667.30 430.58 554.13 173.98 236.42 937.60 526.49 378.19 878.84 603.64 617.78 554.62 289.81 742.81 558.08 619.30 889.27 537.60 649.16 586.00 575.61 485.37 222.32 581.60 289.53 749.61 854.57 238.66 373.44 562.14 644.68 8.79 183.32 854.91 729.77 700.11 354.85 575.32 948.22 421.18 686.32 146.61 681.36 433.40 222.19 276.08 776.59 723.14 285.25 670.59 842.09 584.17 905.77 590.92 146.67 733.14 927.40 775.49 836.01 441.35 506.27 696.56 819.99 267.54 925.37 259.49 254.87 307.24 855.28 655.95 490.28 410.23 646.40 76.39 842.16 609.73 620.54 603.99 617.28 454.17 511.59 364.20 317.17 249.40 794.80 502.06 162.60 718.22 258.36 652.50 1041.60 953.41 172.31 338.20 437.90 327.57 576.67 608.73 572.75 266.10 300.37 911.15 866.80 944.99 453.94 730.81 407.41 401.39 258.68 771.24 498.26 661.75 905.98 723.30 641.10 952.37 693.69 761.62 821.31 517.07 814.24 721.18 244.80 550.24 771.18 346.33 343.47 461.33 205.13 582.61 461.01 332.51 747.21 442.33 104.77 523.35 423.49 785.83 666.07 587.71 970.02 787.73 1009.08 372.89 644.35 893.22 566.27 183.35 0.00 356.54 620.46 445.91 243.32 120.31 469.26 653.72 234.01 623.94 66.13 263.11 699.85 560.13
185.65 167.32 663.62 282.48 329.83 520.57 447.75 299.06 686.74 601.43 324.41 290.96 214.35 420.67 723.92 235.52 375.75 756.71 311.53 347.41 375.21 354.75 867.22 412.30 747.28 583.24 686.31 390.20 353.72 329.34 634.08 348.48 539.42 553.24 465.94 561.81 295.05 483.79 619.78 373.86 347.75 473.68 746.38 878.48 703.30 428.17 263.35 691.71 527.03 745.67 400.72 451.04 577.12 290.85 441.30 566.31 589.52 343.18 455.97 583.13 505.02 610.97 265.00 397.64 634.52 607.54 517.50 588.06 505.99 482.21 448.64 512.68 89.00 776.01 194.39 264.68 530.78 528.17 383.47 582.71 502.66 776.55 359.31 662.15 468.36 733.50 393.59 674.72 537.69 544.77 78.63 579.08 544.91 784.89 150.08 326.62 713.77 428.56 402.98 978.36 828.84 316.03 62.76 543.15 400.89 718.66 403.71 552.92 516.88 503.25 675.16 570.31 803.52 307.26 391.35 368.89 456.41 142.89 899.27 319.49 488.91 804.82 371.32 741.99 746.46 462.01 617.61 511.96 678.81 602.94 437.51 118.53 597.83 563.62 83.87 317.77 570.63 404.04 307.26 446.99 42.54 742.76 369.55 267.84 231.24 286.24 466.72 399.03 645.15 715.56 593.00 865.07 544.57 701.79 634.26 336.39 377.88 356.54 0.00 690.64 351.11 129.29 415.47 308.94 446.16 212.50 376.81 371.19 322.67 833.11 610.22
540.66 626.33 188.75 478.24 774.13 323.82 1047.84 644.03 723.02 359.80 973.95 936.31 653.94 502.23 685.31 915.50 369.83 490.14 666.31 727.08 937.12 842.37 371.22 1038.25 320.90 763.80 308.73 980.04 968.50 932.67 360.96 461.64 278.90 842.10 745.84 877.77 765.39 964.38 103.63 603.59 627.40 563.82 402.18 326.74 134.78 928.03 729.46 1188.73 199.28 113.78 587.67 1022.55 421.23 766.55 432.45 1093.24 415.64 876.91 1053.09 1172.97 327.31 1065.39 859.48 720.19 425.64 936.16 753.49 1102.02 985.94 268.68 758.18 956.33 636.00 562.41 776.30 853.21 527.10 942.20 897.43 1066.84 1030.69 316.11 645.39 1029.05 436.02 307.12 949.39 131.91 984.65 206.12 709.74 527.59 822.92 306.27 689.56 457.86 145.68 855.43 1035.00 720.51 525.93 468.45 705.88 989.23 900.75 225.02 535.99 137.72 541.36 398.72 810.24 1102.80 516.28 919.49 884.95 959.64 268.59 617.83 379.53 871.00 352.20 523.39 867.53 355.69 726.52 1004.76 579.24 635.84 460.65 604.88 774.27 614.43 132.45 529.43 726.99 924.69 1017.59 774.13 578.60 1023.08 733.18 174.67 363.41 595.60 659.91 897.76 787.55 825.69 134.98 1174.56 472.07 640.71 326.33 78.59 1155.39 939.01 780.42 620.46 690.64 0.00 1000.65 652.85 613.68 512.67 431.50 569.64 970.44 639.65 434.49 343.76 139.09
536.76 503.96 916.95 546.53 336.43 796.23 135.98 595.56 949.80 939.65 26.70 162.13 370.38 674.82 987.51 283.86 712.13 1106.36 557.46 578.37 315.66 291.18 1116.75 270.58 1007.57 814.20 933.23 367.47 324.78 177.06 881.56 647.11 862.29 598.75 688.94 820.89 319.50 242.04 921.59 705.87 447.19 621.72 1042.30 1072.27 1054.41 241.61 494.31 705.11 831.45 1017.60 585.01 428.31 848.65 339.87 714.48 537.63 940.63 183.78 337.85 560.40 834.26 744.86 409.95 466.95 960.66 811.79 805.51 592.90 274.22 768.99 693.09 657.89 406.08 1071.56 261.69 201.11 716.41 685.27 397.54 354.70 338.37 1002.45 458.55 796.90 787.71 1021.35 377.60 948.53 398.53 831.55 421.59 699.93 572.79 1024.63 494.07 605.79 985.70 367.20 331.89 1278.74 1100.06 603.21 294.77 440.96 237.12 950.67 738.30 904.03 653.91 699.71 906.12 664.91 1132.89 136.30 548.45 64.68 732.06 408.10 1125.06 227.44 825.55 1108.85 556.30 1017.33 1097.57 450.58 917.99 863.07 923.03 914.87 668.47 432.46 901.27 859.17 315.88 102.44 431.47 426.29 564.16 215.22 346.57 1014.69 683.48 476.06 530.17 115.39 754.73 603.08 918.96 702.39 835.53 1165.45 772.23 975.60 611.53 272.98 348.86 445.91 351.11 1000.65 0.00 453.23 558.71 645.58 797.27 474.03 342.47 506.84 590.73 1093.40 926.56
242.62 296.61 534.33 204.99 236.65 446.25 503.40 422.43 762.53 606.87 433.03 420.25 85.06 291.38 799.71 364.81 379.00 813.68 440.82 476.70 504.50 370.09 786.50 541.59 666.90 688.07 557.02 519.49 483.01 458.63 504.79 257.05 526.03 423.95 562.69 660.55 293.19 463.54 549.22 480.43 234.53 344.39 767.89 749.19 666.57 409.61 392.64 798.84 455.91 748.08 327.14 580.33 447.83 197.67 312.01 673.44 646.49 308.03 584.03 705.04 482.98 740.26 372.13 268.35 672.71 706.00 593.29 690.50 513.93 427.52 538.43 641.97 83.59 832.98 211.67 284.33 401.49 657.46 512.76 601.19 521.14 688.81 230.02 754.06 525.33 675.50 511.73 667.52 544.27 477.35 185.20 451.95 415.62 799.87 279.37 197.33 731.18 314.37 532.27 1035.33 889.46 186.74 192.05 591.11 400.15 625.89 488.39 545.53 429.41 373.96 779.99 677.44 817.20 367.08 520.64 388.55 390.37 77.75 801.98 448.78 565.79 845.55 500.61 660.52 875.75 576.43 674.58 641.25 549.52 663.65 563.05 63.84 563.78 620.59 176.81 392.57 541.34 325.84 357.00 515.77 171.83 728.11 314.86 138.55 360.53 370.46 542.51 527.00 641.73 822.69 649.97 922.04 424.84 672.32 760.07 465.68 273.45 243.32 129.29 652.85 453.23 0.00 331.97 348.92 503.13 83.21 483.94 294.18 267.98 743.54 581.35
479.03 580.39 508.68 233.03 321.73 379.34 508.31 634.62 931.10 702.31 550.89 621.67 276.71 196.32 950.36 646.06 438.90 913.85 638.54 699.31 674.93 387.25 638.76 678.39 579.20 869.22 474.54 769.47 706.31 653.26 430.29 154.55 534.80 313.29 760.67 919.24 338.05 473.45 555.36 658.93 111.52 125.73 872.13 665.45 687.50 441.54 678.82 1068.53 414.40 717.70 91.53 801.67 406.32 303.77 270.50 896.90 758.15 387.98 790.90 960.28 601.35 997.35 673.45 184.33 768.15 956.80 853.84 956.32 528.04 526.52 799.29 928.15 370.27 938.09 362.22 357.60 260.03 933.92 753.59 600.77 525.91 606.30 154.02 962.47 650.02 580.44 724.30 626.01 539.81 495.96 440.44 201.85 300.80 744.99 565.55 155.82 721.51 320.36 772.81 1161.91 1002.04 145.23 446.08 540.63 414.26 567.74 621.49 565.97 197.53 291.44 961.14 959.03 962.40 511.90 806.82 510.14 394.61 342.16 674.50 618.57 683.55 868.39 786.79 586.02 1055.10 814.00 864.35 859.17 402.70 843.15 789.10 319.08 543.46 763.12 424.97 463.78 515.30 218.68 633.18 547.70 435.24 748.54 469.86 207.50 599.79 526.22 803.06 782.24 604.93 1072.75 772.67 1080.64 363.96 652.00 1013.53 686.58 286.08 120.31 415.47 613.68 558.71 331.97 0.00 482.02 682.87 328.80 744.25 117.53 237.40 595.80 550.46
132.95 141.62 537.80 388.21 522.45 410.38 679.31 230.29 492.86 300.28 618.88 544.45 421.67 454.34 468.34 512.29 217.76 511.82 278.29 339.06 540.95 601.28 780.93 614.77 666.87 459.98 624.70 569.07 509.57 506.07 572.47 451.22 284.92 743.52 370.55 492.55 583.14 728.97 520.86 198.50 460.47 600.64 492.60 807.62 528.30 673.35 287.72 729.34 434.14 589.58 521.31 613.44 592.12 483.47 411.67 641.76 356.12 577.48 608.37 696.39 319.84 626.15 396.47 596.46 366.12 552.47 473.81 731.84 741.44 345.84 401.93 540.37 331.74 547.47 418.13 566.45 605.09 528.46 534.50 867.76 794.74 692.28 528.07 653.76 207.33 680.65 536.07 500.50 823.89 306.55 237.20 660.43 703.39 523.53 253.15 391.50 587.27 630.37 634.52 751.38 556.80 402.09 350.81 852.09 646.07 616.43 139.47 438.23 609.85 481.89 551.90 619.77 577.97 547.89 443.21 649.53 300.56 271.17 819.92 579.32 216.87 538.96 453.79 723.37 609.45 616.39 413.56 460.47 715.09 366.71 398.98 295.53 442.12 354.06 366.07 600.93 827.14 617.41 164.86 730.15 299.01 609.85 239.06 364.49 223.54 562.75 423.03 386.45 470.93 705.49 321.36 661.02 434.38 485.23 681.13 561.37 610.06 469.26 308.94 512.67 645.58 348.92 482.02 0.00 248.99 370.23 508.28 520.12 377.87 737.97 527.68
260.51 390.61 527.36 449.84 676.44 519.27 893.91 346.39 341.46 155.27 770.57 737.12 576.83 598.39 379.17 607.28 277.15 310.55 394.39 414.92 671.97 751.58 732.33 827.20 646.54 412.43 674.97 736.78 683.97 755.06 635.94 536.11 228.05 866.90 423.34 466.14 741.03 859.82 485.33 172.09 646.55 693.62 355.03 745.07 461.06 804.20 407.54 894.23 344.46 457.26 640.42 745.66 702.89 656.47 533.69 813.85 143.36 771.58 787.94 868.77 182.27 706.13 609.98 742.91 188.36 587.58 447.40 812.36 939.02 246.57 402.75 630.60 517.33 329.85 640.55 710.84 647.64 626.02 682.90 959.23 925.59 601.06 714.15 628.14 47.36 632.76 668.29 376.72 974.64 309.13 450.07 782.45 826.77 351.99 433.72 541.56 454.95 803.37 769.85 589.49 419.23 552.15 508.92 989.31 825.24 561.23 189.60 396.42 690.67 567.79 438.57 800.71 418.63 741.66 563.03 815.05 302.77 463.65 790.26 691.25 79.30 360.18 565.92 639.37 468.00 757.99 248.91 223.87 716.08 264.17 427.37 439.29 417.09 117.46 530.03 763.93 976.93 728.74 351.05 893.15 488.50 477.53 213.01 575.24 367.10 732.40 396.62 476.68 347.15 876.92 146.84 476.20 495.27 352.91 829.66 708.15 765.22 653.72 446.16 431.50 797.27 503.13 682.87 248.99 0.00 521.06 719.03 706.20 453.26 714.07 483.87
260.55 334.89 497.77 147.44 298.36 377.05 551.66 484.87 793.25 653.49 478.15 503.46 153.36 288.21 830.96 448.02 354.61 829.37 487.35 527.58 569.45 334.43 736.49 578.32 633.92 745.21 544.68 602.70 547.92 541.84 493.72 212.96 501.87 480.35 574.05 729.38 361.49 490.99 466.01 495.97 225.22 365.39 729.36 738.12 661.21 435.37 475.85 819.97 438.42 683.42 305.50 663.54 444.66 259.38 279.03 756.65 664.42 376.33 649.94 751.66 510.45 813.32 455.34 351.56 692.16 789.21 676.50 773.71 521.87 403.36 570.24 725.18 166.80 850.91 279.97 352.63 410.97 738.04 581.84 636.81 556.76 652.25 277.93 800.40 523.50 640.47 591.96 588.09 557.49 394.14 231.82 448.78 440.22 730.19 362.58 183.08 700.46 382.67 615.48 1048.81 910.56 183.57 261.13 604.33 408.09 587.40 509.70 551.14 348.47 349.25 811.82 750.41 863.82 392.93 603.85 445.42 316.10 110.25 738.11 531.99 570.63 776.94 583.82 649.45 958.96 655.26 688.06 724.46 466.31 681.58 545.62 110.46 506.23 638.52 260.02 457.66 590.43 371.38 440.21 541.53 216.22 721.56 361.48 129.24 407.06 358.64 625.72 573.62 558.52 843.82 667.90 935.52 353.05 614.77 833.04 547.20 341.75 234.01 212.50 569.64 474.03 83.21 328.80 370.23 521.06 0.00 567.15 284.87 211.41 693.53 501.47
480.78 410.76 957.48 615.20 528.44 791.75 417.01 410.46 670.19 789.65 315.77 180.34 543.19 758.53 707.90 154.32 657.11 956.13 362.46 345.64 69.32 534.89 1140.65 208.79 1033.64 593.55 971.82 60.79 37.94 218.72 919.59 645.58 704.81 778.67 472.92 550.45 553.10 552.81 872.36 549.12 632.73 792.29 973.76 1163.99 970.55 526.45 311.49 362.64 792.91 1009.47 704.75 121.63 920.21 489.46 739.76 230.80 841.61 402.73 100.09 253.72 748.46 402.39 111.81 728.17 810.43 516.95 506.09 250.43 563.38 702.61 470.25 331.03 453.51 905.27 416.58 481.23 885.43 406.06 102.70 624.61 618.92 1079.77 621.07 502.06 671.67 1047.42 50.74 959.12 682.49 765.17 362.84 911.80 772.65 1004.79 299.92 681.27 997.98 599.82 126.24 994.54 905.06 670.68 364.53 707.71 499.17 993.75 566.51 913.07 824.24 809.98 685.47 359.33 964.89 276.25 278.01 309.77 736.39 475.61 1174.84 142.58 725.15 982.82 261.46 1075.32 901.16 108.11 749.99 672.87 1033.46 728.45 472.97 484.20 873.13 692.88 360.29 398.34 710.08 617.25 391.84 504.38 366.29 1026.97 691.68 556.14 386.80 304.45 496.36 365.51 929.55 386.49 750.24 997.45 815.75 905.12 304.85 89.74 596.29 623.94 376.81 970.44 342.47 483.94 744.25 508.28 719.03 567.15 0.00 667.73 562.73 1112.49 907.82
459.34 526.21 554.02 313.13 238.37 430.71 476.12 646.36 957.07 718.16 496.71 504.14 224.84 252.29 988.46 528.53 429.05 929.70 613.72 643.93 620.75 269.72 756.29 624.21 635.17 877.46 541.48 714.43 652.13 542.52 489.25 241.51 600.79 223.40 789.88 907.83 220.52 379.63 581.33 649.03 59.65 234.18 905.77 733.65 713.47 324.01 634.54 978.55 440.37 691.05 169.72 723.31 432.29 220.41 296.47 816.88 774.00 336.11 711.38 907.36 635.03 964.84 555.92 80.54 784.00 968.54 826.35 853.85 410.51 557.13 747.42 851.09 318.40 960.20 310.35 305.73 311.98 816.39 649.26 504.96 445.40 662.27 70.66 908.29 675.86 636.41 645.94 651.98 435.26 530.78 415.06 319.38 183.27 845.66 514.11 181.79 722.95 266.76 673.90 1107.73 923.56 171.20 328.55 437.99 296.73 628.50 552.20 591.94 249.48 361.14 969.38 861.23 995.82 443.83 729.76 458.27 420.58 296.37 749.40 564.39 710.14 955.35 735.35 644.98 1003.23 724.02 812.48 872.17 477.60 869.12 772.04 310.93 569.43 766.79 307.44 409.60 419.49 191.46 593.09 430.17 380.35 751.94 493.19 155.63 553.76 474.35 836.69 732.20 638.57 1002.40 750.20 1038.34 409.30 677.97 932.46 614.99 197.73 66.13 371.19 639.65 506.84 294.18 117.53 520.12 706.20 284.87 667.73 0.00 278.46 713.33 576.96
259.78 468.82 397.74 63.97 343.80 229.02 683.29 495.97 777.38 530.49 570.53 592.54 273.96 195.80 815.09 528.27 206.33 695.42 459.05 519.82 630.76 494.92 577.92 694.48 531.92 760.31 430.70 623.52 600.67 628.06 378.47 82.85 366.50 501.86 589.15 740.07 443.71 595.34 330.86 489.87 254.32 347.75 693.28 622.40 500.72 595.86 510.86 925.37 240.72 532.08 235.70 684.36 357.48 382.78 177.03 756.21 566.42 495.57 662.82 816.45 363.95 831.06 555.66 359.00 549.72 805.79 672.81 813.16 628.32 309.82 585.34 732.77 264.13 717.14 368.02 473.23 332.21 748.26 636.44 708.34 628.29 541.00 280.33 815.50 429.07 529.81 613.47 442.02 655.85 283.86 325.50 404.86 461.73 605.77 370.17 129.06 529.77 480.26 688.97 978.19 783.61 139.65 315.73 683.43 568.58 452.25 493.92 350.34 297.19 247.25 826.92 844.09 796.35 530.94 611.44 526.05 173.66 203.56 672.19 527.23 466.92 744.92 591.41 534.20 881.25 670.84 627.20 649.45 488.14 644.33 560.72 204.14 369.78 570.72 307.18 580.11 688.79 409.07 449.18 588.59 365.21 552.35 240.25 188.46 457.05 496.27 622.03 625.00 431.42 947.87 600.10 874.66 253.02 427.73 867.58 595.24 405.25 263.11 322.67 434.49 590.73 267.98 237.40 377.87 453.26 211.41 562.73 278.46 0.00 570.99 366.32
678.46 808.14 254.90 623.61 853.83 364.48 1104.11 916.30 996.64 586.85 1087.31 1086.85 794.77 468.71 1011.95 1019.22 534.94 717.19 943.82 954.02 1089.92 906.33 42.96 1201.60 85.83 1006.85 270.56 1147.02 1113.78 1101.49 238.75 539.33 537.08 803.26 1021.29 1087.41 901.89 1031.92 240.13 793.36 696.34 608.07 634.12 69.65 397.33 1007.27 968.59 1422.76 381.09 410.97 573.50 1155.90 341.40 868.98 440.72 1229.74 642.69 972.80 1205.89 1332.19 550.10 1252.04 1000.68 754.02 652.69 1157.86 1011.67 1310.55 1074.29 524.67 986.31 1213.12 745.64 844.92 861.24 926.35 462.19 1170.90 1130.49 1125.56 1045.51 125.01 749.82 1247.64 677.21 99.61 1078.53 358.96 1049.94 482.12 860.10 579.36 763.13 531.92 899.63 555.40 390.42 899.73 1186.68 962.06 844.27 556.80 819.24 1003.10 979.99 163.34 696.53 342.95 482.94 413.00 1042.18 1305.99 804.86 1016.21 1123.46 1045.30 437.41 763.10 122.44 1052.81 653.07 750.44 1105.02 92.65 966.20 1168.23 811.18 867.78 350.41 836.82 992.86 738.74 354.15 761.37 798.13 990.96 1056.55 798.05 867.86 1048.85 825.50 391.36 534.54 668.74 863.53 1052.17 1007.28 1059.20 366.92 1417.52 704.01 903.61 340.48 422.35 1347.65 1110.60 870.90 699.85 833.11 343.76 1093.40 743.54 595.80 737.97 714.07 693.53 1112.49 713.33 570.99 0.00 275.59
513.65 599.32 78.07 430.29 670.29 211.24 908.75 711.63 825.33 463.19 899.86 901.18 640.28 378.56 822.29 834.17 352.76 579.92 697.90 758.67 910.98 703.28 318.55 1011.24 236.47 817.12 205.97 967.21 909.11 919.84 258.20 414.00 349.67 703.01 815.62 882.74 626.30 825.29 35.46 588.69 560.65 424.73 511.49 329.13 247.92 788.94 723.72 1195.45 172.27 252.87 464.18 976.02 331.44 631.31 293.36 1025.07 515.36 805.56 1000.33 1127.52 360.37 1068.08 796.01 600.78 518.67 942.09 824.26 1115.15 875.44 288.09 770.54 982.30 594.37 701.50 708.00 735.10 405.37 955.13 952.50 989.06 910.33 213.69 506.30 1044.74 505.80 235.57 935.61 271.00 896.98 273.12 626.36 531.69 724.07 424.66 704.49 408.04 281.64 736.72 968.34 771.27 665.02 418.63 631.79 850.14 761.66 153.47 491.86 113.48 402.27 259.76 865.76 1101.32 655.37 876.66 879.21 892.37 255.76 541.87 381.92 843.99 421.98 628.25 899.24 267.73 861.75 1015.93 652.20 693.10 357.89 680.45 795.16 517.51 138.38 586.69 652.90 856.52 903.59 635.04 667.27 895.10 652.76 310.63 288.62 545.78 617.61 834.58 802.61 828.38 245.32 1171.60 582.41 778.99 187.24 217.68 1138.83 912.00 679.89 560.13 610.22 139.09 926.56 581.35 550.46 527.68 483.87 501.47 907.82 576.96 366.32 275.59 0.00
DEMAND_SECTION
1 0
2 1
3 14
4 56
5 63
6 40
7 85
8 34
9 86
10 95
11 76
12 32
13 90
14 14
15 94
16 23
17 16
18 70
19 23
20 13
21 4
22 63
23 44
24 22
25 30
26 89
27 37
28 38
29 29
30 14
31 21
32 46
33 50
34 69
35 27
36 37
37 54
38 53
39 22
40 93
41 56
42 70
43 69
44 44
45 26
46 53
47 6
48 2
49 6
50 48
51 98
52 7
53 44
54 56
55 26
56 38
57 94
58 58
59 4
60 11
61 99
62 7
63 8
64 79
65 71
66 26
67 96
68 27
69 57
70 45
71 34
72 5
73 61
74 57
75 51
76 87
77 3
78 6
79 19
80 100
81 59
82 21
83 87
84 29
85 54
86 8
87 43
88 14
89 87
90 34
91 82
92 40
93 68
94 61
95 29
96 47
97 10
98 76
99 38
100 52
101 65
102 14
103 86
104 73
105 78
106 16
107 100
108 10
109 47
110 36
111 88
112 14
113 65
114 79
115 39
116 77
117 33
118 88
119 25
120 32
121 82
122 66
123 10
124 15
125 70
126 25
127 60
128 84
129 6
130 88
131 5
132 67
133 23
134 98
135 78
136 61
137 68
138 89
139 40
140 79
141 56
142 5
143 22
144 75
145 29
146 51
147 20
148 30
149 38
150 23
151 83
152 59
153 35
154 3
155 8
156 48
157 93
158 62
159 69
160 27
161 95
162 66
163 73
164 71
165 59
166 57
167 49
168 82
169 26
170 36
171 20
DEPOT_SECTION
1
-1
EOF
