NAME: LDG130_3176_rain_130_0201
COMMENT: CVRP with travel times.  rootPos=3,custPos=1,demandType=7,avgRouteSizeIndex=6,weather=rain,lambda_cluster=1,lambda_random=4, T1=300,T2=700,beta=1, alpha(i,j) ~ U(0.8,1.2)
TYPE: CVRP
DIMENSION: 131
EDGE_WEIGHT_TYPE: EXPLICIT
EDGE_WEIGHT_FORMAT: FULL_MATRIX
CAPACITY: 318
NODE_COORD_SECTION
1 0 0
2 437 805
3 941 927
4 940 862
5 745 138
6 252 501
7 217 269
8 207 655
9 733 632
10 77 562
11 906 181
12 781 26
13 286 572
14 536 585
15 855 120
16 839 908
17 168 624
18 311 185
19 414 895
20 404 839
21 95 278
22 40 73
23 501 171
24 555 437
25 743 43
26 463 980
27 569 422
28 392 344
29 584 563
30 659 74
31 671 816
32 512 483
33 533 231
34 365 988
35 721 40
36 705 830
37 200 69
38 129 837
39 496 129
40 300 20
41 164 895
42 505 141
43 673 804
44 148 34
45 594 947
46 636 98
47 936 338
48 810 236
49 748 519
50 445 259
51 197 320
52 395 471
53 704 90
54 706 588
55 635 607
56 245 794
57 987 395
58 40 434
59 259 246
60 507 12
61 666 583
62 948 946
63 886 501
64 824 609
65 454 420
66 573 81
67 49 17
68 157 978
69 184 426
70 237 713
71 686 13
72 105 93
73 263 935
74 420 559
75 173 488
76 695 626
77 940 535
78 883 795
79 260 449
80 497 57
81 491 321
82 70 897
83 645 994
84 390 552
85 589 272
86 5 5
87 259 886
88 190 335
89 142 199
90 938 71
91 773 808
92 961 607
93 551 549
94 91 601
95 719 137
96 969 55
97 871 6
98 454 704
99 367 598
100 578 608
101 345 629
102 426 102
103 487 99
104 786 484
105 868 845
106 249 588
107 119 833
108 865 868
109 300 279
110 266 383
111 938 53
112 469 354
113 68 50
114 446 118
115 940 841
116 837 504
117 822 178
118 358 188
119 576 29
120 15 170
121 38 78
122 266 745
123 799 844
124 510 325
125 294 552
126 974 980
127 1000 908
128 790 93
129 228 36
130 420 17
131 882 48
EDGE_WEIGHT_SECTION
0.00 877.97 1232.90 1172.69 723.57 505.17 364.23 691.71 913.22 603.00 861.14 750.91 612.01 769.23 845.96 1151.46 677.41 358.53 896.66 879.69 293.36 93.12 486.33 704.66 742.64 1016.40 720.57 519.26 740.69 638.10 984.13 698.54 558.95 1020.37 740.02 1051.55 252.31 832.67 462.20 318.04 921.13 496.85 1012.91 175.26 1096.52 627.00 974.55 827.39 912.43 533.31 404.03 579.47 696.11 856.52 812.76 795.79 1029.64 407.41 354.17 527.94 814.36 1248.89 944.62 1001.45 623.91 575.20 55.38 1001.73 475.18 722.37 687.41 165.46 904.46 674.40 562.15 883.37 1011.28 1163.43 506.10 501.81 581.88 862.92 1114.51 653.22 659.24 25.35 857.08 379.46 243.03 914.37 1009.02 1074.03 764.29 654.69 702.67 893.60 856.16 840.90 705.14 807.60 683.25 396.76 487.02 852.23 1168.94 592.25 843.07 1144.93 389.73 473.96 912.85 605.00 102.83 430.02 1150.81 890.95 778.46 391.88 580.97 221.95 104.67 727.19 1074.29 558.99 581.10 1291.22 1271.00 779.93 206.59 401.59 866.65
877.97 0.00 507.23 455.05 698.79 394.50 606.14 291.08 435.68 498.52 766.11 821.22 328.77 327.79 768.63 440.18 350.16 652.91 121.10 99.93 662.85 784.85 630.03 342.47 783.01 237.88 370.77 501.11 309.35 765.86 257.89 393.42 552.68 244.81 734.04 325.31 799.60 284.31 642.78 822.01 332.38 658.49 286.67 870.09 279.78 736.27 716.03 687.72 480.63 565.73 558.17 390.17 750.81 384.06 342.31 271.84 740.02 627.03 634.50 771.92 341.90 508.48 522.54 530.63 490.01 668.58 845.02 384.33 479.79 278.19 825.56 834.02 243.98 323.58 471.33 414.93 604.04 470.23 446.62 712.55 496.06 393.30 301.27 292.82 542.12 874.32 205.12 566.58 709.69 872.51 415.60 572.91 291.05 461.78 738.79 881.89 867.52 135.83 255.74 273.76 216.42 708.22 685.00 524.69 405.32 329.67 294.71 381.09 628.28 516.93 870.70 527.56 821.12 681.61 476.93 569.75 744.78 616.48 759.67 801.92 773.51 245.59 450.42 491.48 332.39 574.90 545.21 738.09 823.19 799.52 807.78
1232.90 507.23 0.00 64.41 786.43 786.24 961.04 797.73 369.08 905.03 750.50 880.82 740.40 518.43 773.54 131.07 829.91 886.83 592.02 607.16 998.30 1139.78 875.82 597.28 874.11 461.46 625.58 815.51 497.82 878.59 311.64 605.48 807.49 599.05 889.34 298.42 1057.50 791.54 902.88 1077.60 776.32 868.23 299.09 1145.91 402.61 884.10 587.06 634.92 466.40 789.27 913.63 667.11 825.98 421.93 480.18 750.05 482.06 998.32 915.00 952.88 456.71 25.87 456.01 393.64 689.51 923.39 1191.20 780.62 833.80 729.11 886.85 1094.16 685.37 610.32 885.53 429.89 472.94 183.00 795.28 883.75 748.23 876.64 305.74 621.54 713.55 1234.08 712.35 892.66 1045.16 822.27 250.60 433.29 536.64 906.48 775.08 800.97 896.61 515.05 635.73 531.00 689.93 956.58 926.46 504.99 143.32 763.70 801.94 126.14 848.78 836.91 800.11 710.61 1156.79 936.42 82.09 511.95 691.98 932.96 957.25 1124.63 1128.23 681.45 164.22 731.84 732.63 80.26 105.83 804.33 1076.70 983.97 842.96
1172.69 455.05 64.41 0.00 795.02 747.05 903.01 738.97 304.67 895.04 742.42 833.11 714.69 498.41 782.13 133.87 782.49 822.42 527.61 553.74 979.36 1079.57 815.61 585.62 870.86 512.71 583.52 751.10 486.16 818.38 304.18 541.07 757.12 585.22 841.24 262.60 993.09 739.36 850.91 1013.19 764.66 816.26 292.04 1081.50 380.88 841.28 606.52 645.90 454.09 754.18 849.22 602.70 822.73 357.52 428.00 718.87 544.51 978.03 891.66 888.47 399.68 90.28 473.39 333.43 653.11 898.76 1126.79 779.15 813.51 668.63 886.93 1034.32 638.80 603.04 833.35 365.48 408.53 122.79 785.68 819.34 722.21 848.35 343.72 633.00 653.34 1170.19 660.17 828.25 980.75 798.41 190.76 381.11 472.23 854.30 771.83 736.56 869.63 534.38 583.55 466.59 637.75 906.34 874.49 444.78 78.91 751.00 749.76 73.96 837.12 772.50 777.04 646.20 1096.95 886.05 21.88 478.28 700.57 873.33 941.03 1060.22 1068.02 650.27 152.56 715.46 715.89 144.67 102.23 815.31 1048.96 919.56 820.61
723.57 698.79 786.43 795.02 0.00 597.35 552.52 783.89 561.22 781.38 196.05 166.85 669.19 544.01 148.09 817.06 769.59 461.34 814.16 731.53 701.45 718.19 257.82 356.32 130.30 910.20 328.02 484.28 493.37 143.58 661.53 442.97 300.00 892.41 133.37 694.32 555.98 931.30 281.03 522.76 954.19 287.43 632.75 602.53 817.75 129.35 351.91 151.51 407.95 378.81 606.31 540.73 90.90 504.52 541.33 804.50 342.54 786.38 543.05 290.46 507.31 812.30 429.95 553.00 448.58 225.74 722.41 1030.88 688.29 758.83 202.92 624.63 893.12 531.16 698.79 540.07 478.52 674.62 610.83 294.10 358.32 1005.46 809.80 574.74 251.88 748.92 903.91 625.53 614.94 255.36 743.16 572.29 491.34 793.70 40.00 261.35 180.08 662.28 625.07 553.43 667.27 326.81 269.33 388.91 732.92 684.43 920.90 757.15 545.63 597.31 244.94 401.30 687.26 360.07 775.53 438.74 94.45 434.92 219.32 737.70 715.20 806.49 746.61 352.13 637.69 866.69 844.10 96.44 516.98 378.26 212.80
505.17 394.50 786.24 747.05 597.35 0.00 255.84 186.54 492.92 186.00 720.35 680.32 106.84 311.10 722.69 661.25 172.24 371.15 391.49 374.52 299.86 477.66 437.95 372.53 678.77 532.13 344.23 199.27 370.08 589.46 478.96 289.26 442.42 515.20 673.48 546.38 434.22 389.17 449.76 498.22 464.31 415.11 507.74 522.63 604.89 573.19 763.87 614.18 524.85 327.35 211.39 144.35 597.67 436.22 435.78 290.62 837.69 274.22 262.43 533.13 394.06 777.50 621.89 582.79 262.43 547.57 537.62 509.32 116.80 256.88 658.01 448.07 399.29 225.95 101.44 467.09 703.39 673.97 68.42 464.00 325.23 430.01 644.33 187.02 419.63 479.82 351.91 212.52 323.74 789.52 607.37 752.98 319.59 237.69 626.61 816.09 773.34 335.73 209.84 389.81 178.08 471.95 473.34 543.33 713.91 87.08 378.77 709.18 262.01 122.43 791.62 304.17 510.70 438.93 768.93 586.78 641.13 360.95 585.69 428.35 466.11 222.02 665.31 319.38 75.93 786.05 849.28 681.49 428.69 530.91 713.60
364.23 606.14 961.04 903.01 552.52 255.84 0.00 373.76 635.93 301.73 695.66 601.32 343.98 504.07 650.90 872.15 407.82 163.47 647.33 630.36 177.86 271.11 294.70 451.49 594.59 735.28 461.85 236.36 463.22 490.05 734.80 364.84 372.05 729.65 555.52 704.80 285.06 548.19 345.36 308.70 640.16 336.11 741.18 358.80 811.03 469.99 709.77 610.71 600.43 271.22 53.79 300.31 522.79 589.96 535.29 535.95 814.77 239.21 56.29 428.01 547.80 947.79 716.66 736.53 361.90 430.99 339.71 717.25 161.58 422.33 558.60 260.03 629.70 401.29 265.81 605.90 798.16 862.33 196.76 380.85 342.45 636.38 784.93 352.12 416.16 359.95 575.52 78.36 142.27 752.99 761.05 820.13 476.44 353.42 512.52 755.30 723.91 571.12 391.54 524.12 395.54 281.61 330.01 630.97 891.47 342.92 537.79 875.42 112.26 133.41 730.83 323.25 316.82 314.87 924.89 631.12 580.34 166.70 465.82 249.54 282.66 467.35 796.82 315.91 326.13 1028.81 974.32 593.37 259.05 407.02 685.32
691.71 291.08 797.73 738.97 783.89 186.54 373.76 0.00 579.97 207.44 824.14 838.93 145.58 390.46 859.55 731.26 59.08 516.87 334.05 307.60 422.51 621.51 568.05 466.48 813.07 474.69 494.78 357.88 407.88 752.03 548.97 411.03 593.72 377.66 792.44 591.91 569.39 257.94 554.10 678.78 277.77 573.72 556.14 631.89 533.65 731.80 838.14 720.93 642.29 485.96 319.97 306.92 773.87 545.72 479.95 183.99 872.65 364.32 430.05 704.26 505.26 786.52 700.01 621.13 383.31 654.30 682.71 389.57 239.45 70.34 820.58 611.90 276.40 295.68 241.12 550.56 781.51 715.60 254.96 650.54 483.84 346.13 592.35 262.86 546.95 666.36 222.22 335.17 487.67 880.84 685.84 797.15 398.95 170.70 752.98 942.69 931.95 295.55 217.35 418.05 163.15 616.50 605.96 607.62 687.64 99.46 247.54 672.17 428.52 294.63 903.00 433.67 658.81 611.13 760.85 681.82 777.99 500.08 705.78 587.66 611.20 116.28 633.51 494.28 155.29 834.04 836.29 831.30 615.23 651.11 872.21
913.22 435.68 369.08 304.67 561.22 492.92 635.93 579.97 0.00 640.76 518.52 648.07 460.41 193.74 553.63 332.71 543.34 554.69 487.00 463.58 712.28 820.10 553.00 307.15 620.25 482.62 278.85 450.28 197.51 598.72 231.92 304.99 497.41 601.17 642.12 190.28 725.36 610.97 546.24 771.18 590.91 511.59 203.14 813.77 381.89 540.46 428.34 442.02 153.27 453.36 582.14 397.50 572.12 56.70 151.63 484.17 415.53 757.10 614.69 662.37 98.86 394.95 266.76 176.60 399.41 633.26 880.06 702.71 592.58 563.24 629.75 799.27 571.79 363.30 594.36 60.81 343.46 343.21 546.21 647.27 417.54 699.16 377.88 410.70 448.01 914.40 617.09 606.71 725.18 592.57 190.27 352.31 245.63 633.37 521.22 579.00 678.79 325.37 362.62 161.92 416.82 605.52 569.82 204.62 364.68 502.78 600.57 355.25 548.47 536.42 614.73 345.38 856.16 598.75 326.55 206.88 499.08 597.05 661.80 800.41 808.55 550.10 276.65 414.64 428.91 449.34 406.90 578.89 780.08 691.00 638.42
603.00 498.52 905.03 895.04 781.38 186.00 301.73 207.44 640.76 0.00 848.70 866.32 180.35 447.02 844.69 811.12 157.45 465.20 517.53 439.94 380.40 509.88 596.43 481.66 847.84 585.17 453.36 385.27 466.89 775.46 655.69 475.26 624.81 562.73 816.63 643.77 523.86 322.27 635.05 610.43 378.76 601.11 684.47 576.82 717.00 727.95 895.64 777.48 704.27 509.74 287.59 330.35 769.34 607.70 538.96 318.36 969.89 262.58 358.02 647.15 565.54 879.16 765.39 754.27 439.87 684.21 570.36 425.41 202.26 263.49 817.24 460.28 407.37 344.39 128.53 609.57 846.89 774.47 240.09 650.00 511.23 376.65 762.35 299.21 593.51 604.18 407.88 263.02 415.52 935.78 737.70 856.16 455.51 51.69 805.39 938.09 959.34 439.99 311.49 503.47 292.70 583.34 587.97 682.23 839.38 205.10 332.67 821.08 396.14 261.95 913.62 446.63 522.91 578.45 875.38 756.43 763.13 462.89 718.29 500.93 521.43 277.99 795.22 498.79 211.85 960.18 963.23 794.11 560.78 698.96 899.60
861.14 766.11 750.50 742.42 196.05 720.35 695.66 824.14 518.52 848.70 0.00 209.40 700.35 606.61 114.57 741.59 849.30 602.00 882.16 845.93 799.94 815.59 404.71 423.64 211.69 939.84 395.34 568.90 560.69 295.80 687.07 501.68 414.35 986.70 260.66 693.08 710.42 1007.27 427.92 642.27 1021.51 446.12 658.29 754.30 831.79 309.72 163.44 145.91 365.25 440.82 669.80 596.02 237.79 461.82 537.16 902.82 268.44 848.39 639.37 470.60 503.98 776.37 357.35 408.99 457.92 372.63 874.18 1070.80 762.99 823.67 284.31 805.00 953.72 598.48 794.86 497.37 400.67 669.02 678.80 464.20 467.25 1072.78 832.76 642.06 398.77 886.49 971.23 687.54 737.80 161.90 599.15 434.28 558.66 863.28 186.89 127.55 169.65 697.80 649.49 614.76 703.69 464.38 449.70 383.31 718.53 742.72 996.87 694.30 666.15 715.31 139.74 509.97 861.30 497.64 720.54 384.90 115.32 581.81 399.46 878.36 827.14 842.73 685.53 440.71 668.85 780.69 791.02 179.98 654.55 503.97 143.90
750.91 821.22 880.82 833.11 166.85 680.32 601.32 838.93 648.07 866.32 209.40 0.00 715.14 640.84 124.74 903.91 852.56 502.38 934.10 898.38 750.25 704.75 306.62 478.75 60.50 1000.72 450.45 481.05 587.50 137.52 816.62 565.40 336.67 1038.60 87.18 838.35 600.19 1044.41 299.86 432.87 1015.57 265.21 787.84 644.07 942.27 195.11 355.53 245.90 494.80 399.46 628.44 582.63 111.55 591.37 622.57 917.61 460.53 803.31 588.93 298.07 633.53 906.69 524.34 618.39 510.58 234.28 711.69 1105.84 702.20 881.26 105.82 657.71 1001.93 653.59 781.76 626.92 596.51 769.01 640.80 285.73 445.17 1100.44 962.31 632.10 338.73 767.88 974.14 642.46 645.70 211.51 808.55 626.37 601.04 836.93 126.85 229.83 127.64 784.71 699.34 654.41 747.63 365.30 323.44 483.30 819.77 757.51 1034.01 844.00 539.57 668.87 189.35 488.15 720.34 352.37 854.99 521.89 188.84 483.72 226.93 778.74 716.30 871.42 841.00 438.98 683.64 961.08 928.01 110.35 544.32 377.85 144.35
612.01 328.77 740.40 714.69 669.19 106.84 343.98 145.58 460.41 180.35 700.35 715.14 0.00 266.67 763.44 643.29 193.03 371.29 409.41 349.42 340.55 540.79 444.26 337.28 667.49 483.90 365.58 234.09 286.54 628.24 515.29 311.41 469.93 463.78 646.86 557.41 522.36 357.16 484.58 554.99 418.18 449.93 521.64 602.45 556.68 608.01 719.44 634.72 523.92 362.17 290.53 183.13 650.08 427.35 358.61 233.16 802.52 306.65 350.57 600.71 385.19 714.53 585.04 573.92 259.52 582.39 600.75 482.18 223.64 210.40 696.79 534.96 341.83 164.04 162.32 429.22 666.54 594.12 147.56 570.84 360.05 404.97 619.29 118.86 423.16 586.66 294.45 305.07 410.63 819.98 562.94 675.81 275.16 207.92 629.19 827.90 803.03 261.05 131.14 323.12 112.35 525.01 508.16 501.88 659.03 62.04 346.76 640.73 299.51 210.57 822.76 288.09 576.85 527.07 695.03 576.08 687.22 422.20 636.26 505.70 529.24 164.56 620.14 357.35 31.50 795.55 782.88 710.04 535.53 522.63 743.29
769.23 327.79 518.43 498.41 544.01 311.10 504.07 390.46 193.74 447.02 606.61 640.84 266.67 0.00 572.85 490.86 439.64 475.99 293.26 269.84 560.92 703.37 405.50 196.03 607.64 433.90 215.99 353.50 58.98 503.99 324.52 158.17 371.85 416.97 579.26 380.70 646.66 571.41 440.82 630.29 541.03 446.91 341.62 709.81 466.38 445.73 496.95 511.72 276.16 377.61 450.28 203.76 542.16 199.79 131.05 444.61 583.65 572.09 472.98 563.52 157.63 544.30 366.71 346.36 210.61 522.14 727.85 642.73 407.57 375.97 535.02 706.14 524.88 175.18 412.54 201.66 448.21 453.87 364.54 494.39 322.93 611.12 508.59 222.94 387.34 743.88 479.72 429.31 581.81 663.94 384.01 448.25 52.67 462.45 519.63 666.25 691.12 242.16 241.21 78.71 229.08 487.21 492.68 274.32 448.86 309.04 561.01 432.81 406.76 389.60 641.78 269.63 739.12 500.78 506.60 348.52 491.29 487.34 539.52 677.32 714.92 398.28 354.21 314.43 235.17 598.69 578.99 553.34 645.89 594.61 631.38
845.96 768.63 773.54 782.13 148.09 722.69 650.90 859.55 553.63 844.69 114.57 124.74 763.44 572.85 0.00 806.00 814.09 487.43 866.11 812.49 784.31 752.84 405.91 426.16 153.81 960.25 454.46 582.04 528.18 249.61 726.81 485.35 356.23 960.99 190.83 743.91 658.10 999.98 397.82 557.61 1022.81 389.95 698.03 718.45 883.03 277.44 257.72 138.62 436.93 471.30 700.28 589.87 191.60 496.93 511.45 904.04 362.72 864.15 596.15 405.48 538.54 799.41 417.06 523.56 528.50 302.14 812.80 1112.17 699.63 828.67 218.60 772.72 1012.61 601.00 787.57 537.11 494.00 661.73 692.12 392.00 459.96 1074.53 888.99 644.58 395.36 847.14 965.33 714.77 717.55 107.27 713.72 528.56 523.93 896.38 188.09 113.26 162.37 690.51 642.20 592.13 696.40 463.26 417.42 376.02 726.64 797.22 989.58 750.87 648.17 716.78 102.07 480.69 788.90 462.24 762.64 444.16 81.56 538.34 339.71 763.79 741.29 835.44 733.72 433.42 741.50 853.80 850.28 107.78 653.43 489.87 116.65
1151.46 440.18 131.07 133.87 817.06 661.25 872.15 731.26 332.71 811.12 741.59 903.91 643.29 490.86 806.00 0.00 742.15 823.82 487.06 540.11 905.18 1079.56 822.13 569.71 876.09 437.22 589.44 701.33 470.25 885.97 182.29 587.29 744.78 574.81 872.21 167.35 994.49 724.49 778.66 1022.23 684.20 813.31 211.07 1057.64 305.39 839.12 637.90 667.38 478.32 748.47 818.36 625.77 827.96 381.75 402.22 624.45 591.66 897.07 885.21 935.50 390.48 127.26 472.56 332.60 558.44 895.82 1096.08 649.55 732.55 683.88 919.31 986.00 594.31 479.25 762.69 355.80 461.22 144.27 702.16 889.55 670.76 745.57 329.67 528.42 739.59 1141.07 616.82 802.18 954.68 897.09 142.44 367.06 475.69 786.29 777.06 869.14 880.28 436.53 569.50 473.61 614.23 844.10 830.52 496.69 84.14 675.47 734.89 59.91 821.21 745.21 874.93 640.49 1048.63 859.63 155.75 437.30 724.44 863.65 904.88 1070.33 1077.68 653.88 136.65 669.41 638.49 161.69 204.61 836.79 1034.27 935.40 875.42
677.41 350.16 829.91 782.49 769.59 172.24 407.82 59.08 543.34 157.45 849.30 852.56 193.03 439.64 814.09 742.15 0.00 480.39 377.57 352.84 453.57 584.59 610.19 468.56 851.01 498.76 496.86 371.51 439.99 761.70 569.10 461.50 614.66 421.18 811.97 574.80 586.20 216.93 613.18 629.06 308.90 587.35 575.45 586.10 578.48 745.43 820.60 703.39 583.21 499.59 364.63 316.59 769.91 486.64 481.19 227.51 866.00 375.28 371.67 705.37 488.95 830.04 682.47 641.22 432.49 713.38 644.55 385.99 270.51 113.86 813.51 580.03 319.00 293.72 205.28 561.98 763.97 774.68 240.66 636.24 497.47 305.12 651.43 267.05 591.87 652.06 267.05 348.54 495.98 921.36 668.73 798.39 388.35 111.62 798.85 927.35 945.58 314.86 199.81 400.51 222.23 619.19 645.39 590.08 732.88 158.54 206.53 709.40 413.99 274.41 910.94 476.41 620.65 590.91 804.37 664.28 760.45 513.41 692.40 560.86 573.04 161.52 678.75 491.62 204.47 877.56 873.52 823.55 574.43 703.15 885.84
358.53 652.91 886.83 822.42 461.34 371.15 163.47 516.87 554.69 465.20 602.00 502.38 371.29 475.99 487.43 823.82 480.39 0.00 754.49 694.30 296.88 265.41 228.01 398.11 458.57 822.52 381.61 244.04 510.25 390.25 718.56 360.22 301.72 802.40 474.07 727.27 170.67 682.29 202.52 227.61 774.26 237.17 689.78 259.08 807.45 331.99 716.23 549.57 594.56 186.65 217.26 380.83 434.64 497.99 528.52 604.45 769.96 388.19 108.72 264.54 455.83 912.70 695.10 644.56 265.38 315.20 325.37 826.72 295.68 581.69 421.28 295.83 713.12 480.94 399.28 528.86 764.42 811.26 329.67 243.89 281.34 770.48 874.88 431.77 353.42 359.71 665.74 227.34 230.12 594.70 705.42 795.99 471.82 516.89 443.55 600.69 585.91 576.75 397.17 514.41 450.97 185.00 192.01 611.13 810.63 433.33 671.89 786.40 174.94 248.72 589.50 268.17 301.47 188.07 844.30 663.04 518.78 50.91 329.45 276.36 253.86 535.85 749.34 289.61 391.31 967.09 924.65 518.46 226.54 258.90 604.08
896.66 121.10 592.02 527.61 814.16 391.49 647.33 334.05 487.00 517.53 882.16 934.10 409.41 293.26 866.11 487.06 377.57 754.49 0.00 82.63 675.19 869.15 698.76 463.57 900.90 140.64 491.87 590.76 352.24 797.25 315.07 451.43 665.11 123.71 855.14 354.92 817.30 307.47 734.08 889.71 353.82 738.96 343.85 905.71 213.40 738.99 771.25 736.25 569.42 670.87 602.88 456.23 835.42 493.05 397.53 199.17 756.92 644.73 653.92 856.78 450.89 596.17 637.64 503.84 503.87 789.68 929.11 365.85 508.29 263.71 828.28 839.56 231.62 342.44 489.03 477.38 620.94 518.17 459.91 787.65 564.67 414.16 312.95 391.61 663.22 871.31 212.27 604.01 715.23 946.56 367.72 694.01 345.93 465.84 812.89 959.51 984.38 184.36 357.72 347.81 303.52 780.47 785.94 545.25 493.01 347.37 315.57 468.78 653.50 513.92 935.04 562.89 902.19 794.04 544.93 619.45 784.55 703.58 832.78 819.84 857.60 267.77 454.10 591.21 419.49 648.75 629.84 846.60 820.18 887.87 924.64
879.69 99.93 607.16 553.74 731.53 374.52 630.36 307.60 463.58 439.94 845.93 898.38 349.42 269.84 812.49 540.11 352.84 694.30 82.63 0.00 674.38 836.30 675.34 434.65 861.83 178.67 462.95 517.27 328.82 773.83 357.82 428.01 641.69 160.88 826.22 402.07 757.37 353.37 710.66 819.38 271.19 696.83 340.50 845.78 296.03 715.57 693.14 700.02 511.97 605.58 585.08 406.33 812.00 418.35 329.13 226.57 674.29 571.04 636.95 774.41 376.19 608.41 555.01 564.92 480.45 740.84 878.83 382.99 491.32 238.98 804.86 822.59 264.06 259.81 429.10 419.95 538.31 435.54 442.94 764.23 514.75 372.02 377.04 308.98 615.60 854.34 209.88 582.74 698.26 902.61 450.35 646.33 322.51 406.67 771.53 922.45 911.61 225.30 297.53 303.86 243.33 757.05 752.42 462.62 500.45 287.44 342.97 481.02 581.02 496.95 907.57 497.60 831.38 730.09 531.86 536.82 757.08 643.39 809.36 802.87 835.42 191.32 504.25 515.35 349.21 642.02 624.30 823.18 803.21 839.09 901.22
293.36 662.85 998.30 979.36 701.45 299.86 177.86 422.51 712.28 380.40 799.94 750.25 340.55 560.92 784.31 905.18 453.57 296.88 675.19 674.38 0.00 200.24 443.63 501.83 704.60 723.04 473.53 368.22 588.89 632.43 763.99 467.58 474.19 797.86 689.69 781.15 274.55 569.67 452.39 388.42 661.64 485.04 792.77 314.08 854.87 574.17 836.20 722.04 703.17 359.12 130.14 376.66 647.03 662.67 647.80 573.71 941.20 247.07 234.15 518.83 624.15 972.43 798.38 812.88 408.67 530.82 260.20 738.73 183.06 492.85 663.46 197.54 682.38 425.93 287.15 697.18 879.88 886.97 273.11 508.74 479.74 586.86 861.28 376.76 554.31 294.54 635.00 154.71 129.93 881.07 841.50 891.50 508.25 432.09 661.45 897.57 828.09 592.60 413.02 594.30 446.43 405.16 434.19 705.99 946.84 386.94 559.27 922.61 238.69 236.15 860.02 430.25 236.30 438.42 987.88 757.55 758.20 266.53 571.63 165.15 188.69 505.11 852.64 462.08 372.05 1053.45 1075.73 730.85 329.65 514.42 834.25
93.12 784.85 1139.78 1079.57 718.19 477.66 271.11 621.51 820.10 509.88 815.59 704.75 540.79 703.37 752.84 1079.56 584.59 265.41 869.15 836.30 200.24 0.00 480.95 645.99 715.78 923.28 646.20 426.14 647.57 611.24 956.62 605.42 545.35 947.96 713.16 961.92 194.37 739.55 467.93 318.40 852.32 439.54 930.21 142.84 1019.01 588.84 894.12 789.22 841.01 452.06 310.91 511.89 660.36 763.40 719.64 713.58 999.12 314.29 307.22 497.26 721.24 1155.77 885.62 909.97 530.79 558.64 68.60 908.61 382.06 679.45 678.13 93.56 822.25 609.27 469.03 790.25 953.49 1070.31 428.98 471.13 522.24 783.82 1021.39 560.10 612.23 94.30 774.87 286.34 165.91 857.06 937.12 1004.48 696.71 561.57 698.77 863.03 832.39 781.24 612.02 714.48 603.64 432.76 457.42 795.11 1075.82 564.74 749.95 1051.81 296.61 380.84 854.91 524.55 45.71 453.48 1057.69 815.47 732.16 316.32 568.40 128.83 11.55 644.98 981.17 548.78 553.59 1220.04 1177.88 744.18 242.59 370.91 834.23
486.33 630.03 875.82 815.61 257.82 437.95 294.70 568.05 553.00 596.43 404.71 306.62 444.26 405.50 405.91 822.13 610.19 228.01 698.76 675.34 443.63 480.95 0.00 287.56 307.32 816.06 295.91 244.44 390.22 202.78 674.69 373.11 77.35 822.47 304.70 724.35 335.61 773.53 67.94 341.36 739.50 41.41 662.78 379.49 779.19 179.82 488.22 345.79 511.18 179.33 348.49 306.56 228.09 520.13 462.29 646.73 593.22 533.91 290.21 192.19 487.60 901.69 528.43 631.42 287.76 144.26 499.37 851.30 437.73 638.39 269.11 438.32 786.09 453.08 513.60 532.90 548.70 692.82 369.53 162.25 206.55 829.56 839.83 403.91 181.13 511.68 738.71 373.06 420.65 458.93 679.69 661.36 352.83 603.93 217.82 493.29 434.26 578.43 467.67 438.88 519.44 133.38 99.64 494.68 757.73 486.63 763.13 781.96 327.30 428.11 465.67 269.09 491.72 128.57 793.73 486.57 333.90 177.10 219.62 504.37 481.87 608.82 720.62 211.93 412.76 899.30 881.58 298.67 279.74 220.82 390.62
704.66 342.47 597.28 585.62 356.32 372.53 451.49 466.48 307.15 481.66 423.64 478.75 337.28 196.03 426.16 569.71 468.56 398.11 463.57 434.65 501.83 645.99 287.56 0.00 440.54 569.12 28.30 219.85 137.05 423.39 435.45 86.65 210.21 587.28 391.57 460.90 563.75 619.33 348.00 540.75 597.87 316.02 406.67 602.45 587.32 393.80 413.98 438.83 223.62 223.26 424.09 231.56 408.34 252.21 209.12 516.16 518.98 539.89 415.60 429.45 235.70 623.15 349.41 363.51 148.86 326.11 652.62 709.67 421.45 402.51 483.09 606.22 586.45 174.84 449.36 279.73 430.91 532.72 332.70 370.08 153.59 649.14 586.10 218.42 199.65 699.57 547.59 412.58 481.89 533.43 468.90 446.27 155.01 524.47 396.32 539.42 536.40 305.96 268.75 203.96 310.95 372.40 342.53 257.02 527.71 371.06 608.93 511.66 349.38 318.08 528.23 196.75 668.63 339.14 585.45 331.22 431.95 366.95 417.20 605.80 636.25 450.17 433.06 149.01 329.51 675.62 668.82 395.62 549.98 460.21 540.32
742.64 783.01 874.11 870.86 130.30 678.77 594.59 813.07 620.25 847.84 211.69 60.50 667.49 607.64 153.81 876.09 851.01 458.57 900.90 861.83 704.60 715.78 307.32 440.54 0.00 991.75 412.24 497.09 559.68 104.54 788.80 527.19 276.17 1008.15 48.97 810.53 576.09 988.09 336.57 471.10 982.59 301.92 760.02 595.68 945.02 161.91 375.13 239.19 466.98 369.01 597.99 549.65 81.10 563.55 625.55 879.52 472.84 776.58 567.29 264.38 605.71 899.98 494.15 620.68 450.08 173.78 715.56 1067.63 680.08 843.05 72.62 657.19 941.43 615.38 759.55 599.10 575.65 762.30 610.35 283.74 399.87 1053.00 934.49 593.89 302.82 724.61 940.81 615.73 612.72 223.98 810.52 581.16 570.59 844.64 99.03 242.30 188.14 746.50 661.13 626.59 709.42 352.22 301.89 476.59 791.95 729.53 993.12 816.18 506.59 643.50 201.82 452.24 716.20 352.27 863.21 491.44 210.54 438.07 193.24 734.93 712.43 810.92 827.08 403.07 678.10 937.21 897.56 88.23 536.05 344.87 189.88
1016.40 237.88 461.46 512.71 910.20 532.13 735.28 474.69 482.62 585.17 939.84 1000.72 483.90 433.90 960.25 437.22 498.76 822.52 140.64 178.67 723.04 923.28 816.06 569.12 991.75 0.00 597.42 690.11 432.07 937.89 329.95 582.10 744.94 137.59 960.69 292.34 913.66 448.11 874.72 997.40 402.79 850.75 308.71 1002.07 131.83 879.63 856.46 863.34 574.59 784.25 707.88 584.43 943.62 478.02 504.14 339.81 752.47 749.71 741.87 953.08 483.45 487.33 666.46 554.63 644.51 895.23 983.24 332.03 634.92 404.35 968.92 920.58 223.91 438.48 607.77 469.63 616.49 487.22 600.55 928.29 693.42 478.08 231.38 487.08 768.77 1011.95 278.09 696.37 848.87 1034.31 386.27 603.36 486.57 585.34 892.72 1053.65 1038.19 325.00 425.75 440.62 371.55 896.92 880.64 625.94 470.65 466.11 442.88 487.74 741.45 601.87 1029.18 676.27 959.34 873.87 534.59 663.71 878.69 771.61 973.42 888.19 911.73 369.99 409.14 694.02 487.52 541.72 567.29 964.74 944.63 994.94 978.45
720.57 370.77 625.58 583.52 328.02 344.23 461.85 494.78 278.85 453.36 395.34 450.45 365.58 215.99 454.46 589.44 496.86 381.61 491.87 462.95 473.53 646.20 295.91 28.30 412.24 597.42 0.00 239.44 165.35 423.76 407.15 114.95 218.56 615.58 363.27 432.60 552.28 647.63 326.55 537.38 626.17 324.37 378.37 574.15 563.37 365.50 442.28 434.75 251.92 194.96 423.94 218.60 380.04 280.51 213.31 544.46 516.53 516.70 409.89 457.75 264.00 651.45 324.85 391.81 120.56 354.41 665.19 706.18 425.63 430.81 454.79 634.52 614.75 203.14 445.67 302.18 406.35 561.02 341.44 398.38 138.69 677.44 557.80 246.72 171.35 723.35 575.89 440.88 510.19 509.92 469.12 417.97 163.32 505.05 368.02 522.89 508.10 334.26 297.05 225.41 339.25 362.27 370.83 232.46 556.01 399.36 637.23 539.96 349.59 346.38 532.08 181.16 640.33 347.49 605.40 306.66 422.47 338.65 408.26 634.10 635.47 478.47 461.36 165.23 348.58 703.92 682.82 423.92 521.68 468.56 512.02
519.26 501.11 815.51 751.10 484.28 199.27 236.36 357.88 450.28 385.27 568.90 481.05 234.09 353.50 582.04 701.33 371.51 244.04 590.76 517.27 368.22 426.14 244.44 219.85 497.09 690.11 239.44 0.00 349.03 432.18 588.45 254.93 243.15 669.99 493.46 621.24 343.90 563.36 250.49 320.90 621.58 215.84 559.67 408.18 631.20 373.92 564.95 443.42 443.47 128.08 238.08 240.99 415.99 393.58 402.88 436.56 669.95 381.26 195.75 366.62 435.74 803.96 548.14 548.16 142.89 348.30 494.54 687.28 310.49 428.22 463.21 423.79 575.92 257.46 300.71 398.75 629.64 677.39 210.71 351.52 125.96 619.39 730.75 208.29 248.87 517.14 528.54 220.41 299.46 591.02 640.55 657.41 339.26 429.87 444.28 622.96 574.07 429.43 275.53 322.20 318.56 290.92 274.07 455.75 732.62 276.46 552.96 708.39 129.53 221.92 593.80 104.90 471.85 295.90 766.62 529.95 500.48 221.17 402.17 485.90 437.69 398.65 652.91 148.62 202.59 863.02 853.33 499.81 398.51 395.25 514.33
740.69 309.35 497.82 486.16 493.37 370.08 463.22 407.88 197.51 466.89 560.69 587.50 286.54 58.98 528.18 470.25 439.99 510.25 352.24 328.82 588.89 647.57 390.22 137.05 559.68 432.07 165.35 349.03 0.00 526.05 311.42 150.03 312.87 475.95 528.62 343.23 658.20 593.66 450.66 622.15 574.23 418.68 282.64 718.27 450.27 504.71 445.79 452.74 237.38 360.31 459.51 237.95 511.55 140.81 72.07 497.46 524.67 576.42 417.18 566.50 98.65 523.69 307.73 287.38 262.07 463.16 715.97 630.12 411.90 383.81 561.14 682.82 553.33 211.45 448.86 142.68 389.23 425.08 396.08 507.13 290.64 639.09 449.61 260.62 336.70 741.87 514.47 463.50 558.49 619.27 331.85 389.27 80.64 461.83 460.65 621.58 651.75 230.36 267.61 66.91 288.06 475.06 476.91 215.34 428.25 308.42 590.23 412.20 350.96 381.46 597.11 328.61 693.28 441.80 485.99 289.54 446.62 504.00 554.25 669.18 659.12 431.47 333.60 286.06 294.15 578.08 569.36 532.67 619.94 562.87 597.60
638.10 765.86 878.59 818.38 143.58 589.46 490.05 752.03 598.72 775.46 295.80 137.52 628.24 503.99 249.61 885.97 761.70 390.25 797.25 773.83 632.43 611.24 202.78 423.39 104.54 937.89 423.76 432.18 526.05 0.00 731.28 484.79 213.18 920.96 101.92 764.07 480.20 933.52 232.45 432.69 878.05 216.34 702.50 531.26 866.83 58.26 432.73 249.07 476.86 328.25 510.60 445.11 58.01 542.02 587.90 806.72 486.12 696.02 468.27 209.92 515.21 904.46 471.06 611.02 421.44 164.40 651.14 989.22 618.39 790.31 68.55 553.54 890.80 566.01 690.90 541.58 552.56 772.18 569.17 260.47 337.01 999.02 916.38 542.46 252.41 663.45 836.62 535.17 508.18 312.93 764.80 613.40 540.26 788.06 108.91 342.81 237.30 716.98 606.22 582.70 657.99 280.99 198.24 486.47 801.83 669.60 923.12 826.06 402.05 541.63 303.38 379.73 616.17 247.73 796.50 468.35 224.99 365.90 138.78 666.61 622.79 792.80 811.15 310.47 596.74 948.98 874.47 141.83 431.51 240.33 236.24
984.13 257.89 311.64 304.18 661.53 478.96 734.80 548.97 231.92 655.69 687.07 816.62 515.29 324.52 726.81 182.29 569.10 718.56 315.07 357.82 763.99 956.62 674.69 435.45 788.80 329.95 407.15 588.45 311.42 731.28 0.00 420.30 614.21 438.78 770.42 67.42 889.23 542.20 710.01 892.42 501.91 716.10 28.78 977.64 198.12 673.02 580.16 588.19 321.82 602.11 690.35 486.27 740.67 275.98 239.35 514.24 613.13 753.18 713.67 793.73 262.73 302.00 395.65 349.96 511.01 761.56 1010.36 609.74 595.76 501.59 762.31 927.03 496.98 441.99 580.40 189.70 477.15 268.35 547.38 805.53 545.84 622.88 216.99 475.38 576.90 958.78 463.01 691.48 802.70 817.90 159.80 403.07 321.86 604.00 689.77 810.62 824.96 254.24 433.82 291.32 431.94 756.40 761.87 350.79 234.95 502.89 552.60 230.22 662.38 601.39 795.74 564.66 989.66 743.14 314.81 406.97 645.25 745.80 722.59 907.31 945.07 478.97 192.53 572.38 546.79 343.98 376.82 757.60 907.65 864.21 789.69
698.54 393.42 605.48 541.07 442.97 289.26 364.84 411.03 304.99 475.26 501.68 565.40 311.41 158.17 485.35 587.29 461.50 360.22 451.43 428.01 467.58 605.42 373.11 86.65 527.19 582.10 114.95 254.93 150.03 484.79 420.30 0.00 295.76 575.14 478.22 467.83 530.89 610.79 403.54 472.12 577.85 384.37 420.22 611.24 556.28 474.43 499.54 497.69 235.59 297.53 337.44 144.91 494.99 248.29 222.10 496.39 548.43 486.78 371.43 516.10 235.25 631.35 388.89 402.87 112.04 412.76 669.00 689.65 334.80 418.99 553.34 582.03 626.36 191.32 362.71 266.52 470.39 548.92 246.05 456.73 224.36 670.05 599.64 240.49 280.28 696.11 572.18 325.93 478.43 592.62 444.85 486.01 111.60 480.45 482.97 598.61 605.49 329.22 266.10 197.65 280.86 448.52 429.18 296.50 578.28 369.40 608.61 562.23 308.81 231.43 587.42 194.09 640.55 424.69 562.95 370.70 518.60 380.43 503.85 519.15 614.08 450.06 483.63 202.89 296.54 685.74 643.30 482.27 574.19 545.76 545.75
558.95 552.68 807.49 757.12 300.00 442.42 372.05 593.72 497.41 624.81 414.35 336.67 469.93 371.85 356.23 744.78 614.66 301.72 665.11 641.69 474.19 545.35 77.35 210.21 276.17 744.94 218.56 243.15 312.87 213.18 614.21 295.76 0.00 788.82 315.10 647.00 408.23 757.63 137.79 348.37 761.48 105.81 585.43 452.11 701.84 227.42 468.84 268.44 433.83 115.07 344.05 339.84 265.87 453.68 384.94 630.83 543.08 522.64 330.00 256.59 411.52 832.09 509.72 573.72 210.41 206.91 571.99 813.33 451.84 610.72 281.73 510.94 796.66 384.14 509.91 455.55 471.35 737.95 393.28 239.60 129.20 845.82 762.48 412.35 103.78 584.30 757.80 361.79 471.31 463.50 602.34 584.01 365.22 615.77 295.17 469.49 450.48 516.17 436.93 379.78 491.13 162.19 164.04 417.33 680.47 512.30 747.23 704.70 322.14 388.32 458.30 191.81 560.44 128.93 735.24 479.05 325.50 251.22 242.26 578.08 555.58 630.17 643.27 134.58 438.43 885.83 842.45 349.69 352.36 250.00 449.42
1020.37 244.81 599.05 585.22 892.41 515.20 729.65 377.66 601.17 562.73 986.70 1038.60 463.78 416.97 960.99 574.81 421.18 802.40 123.71 160.88 797.86 947.96 822.47 587.28 1008.15 137.59 615.58 669.99 475.95 920.96 438.78 575.14 788.82 0.00 978.85 429.93 867.61 377.97 857.79 977.28 265.20 839.89 446.30 952.86 269.42 862.70 823.26 845.16 632.38 762.82 675.86 538.05 927.05 562.24 449.54 307.29 835.17 649.34 724.19 935.29 522.23 624.92 715.89 627.55 627.58 901.72 974.31 242.14 614.80 307.32 951.99 906.57 170.08 420.69 589.98 540.36 699.19 562.73 581.63 911.36 675.63 386.17 313.38 466.96 776.48 995.02 224.26 674.68 825.15 1055.47 467.52 740.95 469.64 511.04 932.41 1074.25 1072.49 293.27 405.63 456.72 351.43 904.18 860.52 623.50 506.31 448.32 367.57 530.54 741.90 637.63 1052.71 658.48 969.20 890.97 607.10 697.70 902.22 751.49 956.49 888.54 943.52 347.35 546.73 676.23 467.40 661.05 595.05 970.31 923.48 981.70 1048.35
740.02 734.04 889.34 841.24 133.37 673.48 555.52 792.44 642.12 816.63 260.66 87.18 646.86 579.26 190.83 872.21 811.97 474.07 855.14 826.22 689.69 713.16 304.70 391.57 48.97 960.69 363.27 493.46 528.62 101.92 770.42 478.22 315.10 978.85 0.00 795.87 569.60 969.94 332.94 509.63 976.24 298.29 741.64 616.15 921.36 142.97 424.10 254.42 496.32 365.38 593.89 543.30 77.47 592.89 576.58 850.35 475.91 772.95 556.67 274.39 613.22 915.21 490.52 630.48 465.07 212.31 717.24 1018.66 683.79 794.08 121.59 638.25 966.19 566.41 721.37 626.29 572.02 777.53 606.72 284.31 380.64 1040.71 921.07 544.92 253.85 763.14 935.29 612.10 610.10 272.95 820.64 630.13 526.59 795.67 128.37 240.89 203.73 697.53 612.16 588.68 660.45 363.16 282.95 482.02 821.29 708.32 959.54 845.52 503.97 639.76 250.79 403.27 669.79 329.90 863.12 487.81 227.82 423.16 239.14 750.43 717.40 805.40 824.63 354.10 645.51 968.44 893.93 114.95 533.43 342.25 231.53
1051.55 325.31 298.42 262.60 694.32 546.38 704.80 591.91 190.28 643.77 693.08 838.35 557.41 380.70 743.91 167.35 574.80 727.27 354.92 402.07 781.15 961.92 724.35 460.90 810.53 292.34 432.60 621.24 343.23 764.07 67.42 467.83 647.00 429.93 795.87 0.00 897.94 583.90 736.52 939.95 569.33 701.87 61.57 962.93 191.61 705.81 568.03 620.98 343.55 627.56 651.01 519.06 732.15 246.98 272.14 457.10 551.93 820.60 746.46 852.65 289.14 294.61 374.12 284.09 543.80 787.01 1030.52 586.03 663.18 521.85 795.10 937.49 516.25 429.73 647.82 222.49 415.95 256.19 575.88 830.98 571.29 672.09 187.60 478.90 603.95 1026.20 503.04 675.58 828.08 782.85 93.93 391.83 389.28 671.42 711.50 769.28 852.89 296.36 475.94 331.11 474.06 794.87 760.10 383.58 203.57 531.89 573.50 201.12 694.19 656.83 805.01 535.66 1000.12 775.93 247.39 397.16 678.04 771.25 790.01 933.08 969.84 521.09 180.31 597.83 588.91 329.04 336.56 769.17 949.22 848.31 793.15
252.31 799.60 1057.50 993.09 555.98 434.22 285.06 569.39 725.36 523.86 710.42 600.19 522.36 646.66 658.10 994.49 586.20 170.67 817.30 757.37 274.55 194.37 335.61 563.75 576.09 913.66 552.28 343.90 658.20 480.20 889.23 530.89 408.23 867.61 569.60 897.94 0.00 781.72 311.48 167.32 847.16 344.88 860.45 88.41 975.10 426.63 823.83 645.15 765.23 357.32 338.85 514.14 529.28 668.66 699.19 704.28 878.92 494.14 258.63 366.22 626.50 1083.37 864.04 815.23 436.05 424.48 196.93 892.17 415.16 639.73 503.47 125.16 812.95 553.14 395.33 699.53 860.56 981.93 392.74 340.09 452.01 812.86 1027.18 552.19 512.01 255.09 765.57 362.02 210.24 734.64 876.09 918.20 642.49 575.55 549.46 752.96 672.22 718.58 567.84 657.02 583.18 246.04 286.65 774.41 981.30 469.93 791.37 957.07 307.24 311.79 712.48 438.84 187.79 279.30 1014.97 822.18 612.84 221.58 424.09 254.94 205.92 635.68 920.01 460.28 495.31 1137.76 1095.32 613.10 55.87 239.87 716.44
832.67 284.31 791.54 739.36 931.30 389.17 548.19 257.94 610.97 322.27 1007.27 1044.41 357.16 571.41 999.98 724.49 216.93 682.29 307.47 353.37 569.67 739.55 773.53 619.33 988.09 448.11 647.63 563.36 593.66 933.52 542.20 610.79 757.63 377.97 969.94 583.90 781.72 0.00 812.04 845.99 112.77 779.20 570.98 787.87 513.66 917.45 923.32 861.36 715.29 691.44 494.40 512.40 979.35 656.04 626.62 126.80 1024.33 425.26 588.60 922.30 626.21 792.79 806.85 787.57 588.79 875.68 807.10 169.06 386.61 216.82 1002.07 759.06 225.29 444.49 386.39 671.78 888.35 754.54 457.59 853.17 649.59 108.99 569.91 425.02 723.30 833.85 202.23 482.33 634.83 1091.07 675.19 857.22 546.32 270.58 935.18 1093.38 1109.58 417.33 357.78 558.07 342.33 794.67 814.90 748.05 689.63 355.20 10.40 665.40 602.95 489.98 1068.91 601.13 759.65 761.41 761.24 817.85 918.42 647.24 909.33 664.46 751.10 192.60 687.33 623.05 360.77 859.21 829.52 978.46 791.36 822.69 1051.31
462.20 642.78 902.88 850.91 281.03 449.76 345.36 554.10 546.24 635.05 427.92 299.86 484.58 440.82 397.82 778.66 613.18 202.52 734.08 710.66 452.39 467.93 67.94 348.00 336.57 874.72 326.55 250.49 450.66 232.45 710.01 403.54 137.79 857.79 332.94 736.52 311.48 812.04 0.00 273.42 807.44 34.65 704.92 355.36 767.91 191.84 556.16 373.32 555.42 157.79 373.21 374.50 255.47 513.37 522.73 687.05 567.44 558.63 289.07 156.84 532.60 905.92 596.37 667.95 311.62 167.11 475.24 879.40 446.49 624.44 272.79 414.19 826.41 456.19 533.34 584.27 609.14 760.76 437.47 110.89 204.11 869.88 867.46 458.78 207.56 487.55 776.32 397.78 410.85 452.17 721.40 683.41 388.15 606.37 241.03 491.22 427.50 616.57 468.91 474.20 523.11 65.44 51.86 533.90 779.50 526.95 801.64 803.73 304.41 373.10 466.75 262.33 467.59 80.97 839.02 554.51 316.26 185.86 151.68 478.88 456.38 649.14 738.66 200.65 453.08 940.35 941.48 321.88 255.61 156.74 413.83
318.04 822.01 1077.60 1013.19 522.76 498.22 308.70 678.78 771.18 610.43 642.27 432.87 554.99 630.29 557.61 1022.23 629.06 227.61 889.71 819.38 388.42 318.40 341.36 540.75 471.10 997.40 537.38 320.90 622.15 432.69 892.42 472.12 348.37 977.28 509.63 939.95 167.32 845.99 273.42 0.00 937.96 305.86 880.57 211.20 952.10 400.81 788.40 616.81 707.71 370.17 362.49 546.35 432.16 714.48 694.22 757.46 840.86 536.86 257.39 318.71 683.44 1103.47 806.94 781.64 463.79 297.32 278.82 975.39 469.09 731.03 456.01 224.84 896.82 578.36 562.65 719.65 819.72 998.29 478.34 292.58 398.69 928.23 1051.65 529.19 451.16 336.98 849.44 376.01 258.49 644.38 916.11 885.25 582.86 662.12 482.76 662.70 560.51 750.33 571.65 643.10 625.85 207.98 298.24 714.55 1028.84 585.30 835.59 1014.01 323.61 397.39 622.22 425.80 287.47 219.44 1035.07 788.75 589.68 226.48 334.90 388.66 327.53 719.55 955.75 425.23 523.49 1100.36 1115.42 515.98 111.45 192.36 577.22
921.13 332.38 776.32 764.66 954.19 464.31 640.16 277.77 590.91 378.76 1021.51 1015.57 418.18 541.03 1022.81 684.20 308.90 774.26 353.82 271.19 661.64 852.32 739.50 597.87 982.59 402.79 626.17 621.58 574.23 878.05 501.91 577.85 761.48 265.20 976.24 569.33 847.16 112.77 807.44 937.96 0.00 780.91 530.69 879.84 518.95 919.32 948.50 921.70 666.63 657.71 586.37 432.94 936.06 570.06 591.45 185.02 945.48 538.03 680.57 931.69 612.22 802.19 810.37 724.64 571.04 879.53 915.31 111.80 478.58 248.32 946.60 839.04 252.15 475.99 499.16 651.72 809.50 706.73 509.30 901.75 653.44 120.97 531.68 514.10 727.15 944.13 207.52 574.30 726.80 1078.11 661.71 904.98 562.38 327.07 933.67 1116.21 1089.79 468.21 446.86 510.77 399.92 825.02 839.14 717.98 706.75 377.23 102.37 690.70 694.92 572.40 1091.74 628.08 872.42 810.14 764.49 755.75 941.25 739.21 959.12 776.31 850.33 253.62 612.10 626.90 418.99 845.89 847.86 993.49 868.76 914.66 1030.05
496.85 658.49 868.23 816.26 287.43 415.11 336.11 573.72 511.59 601.11 446.12 265.21 449.93 446.91 389.95 813.31 587.35 237.17 738.96 696.83 485.04 439.54 41.41 316.02 301.92 850.75 324.37 215.84 418.68 216.34 716.10 384.37 105.81 839.89 298.29 701.87 344.88 779.20 34.65 305.86 780.91 0.00 691.24 390.01 748.74 158.08 529.63 374.25 539.64 174.04 389.90 347.97 220.82 478.72 490.75 652.40 602.09 575.32 323.72 150.78 517.33 894.10 569.84 633.30 292.45 132.46 508.14 860.23 479.14 644.06 247.37 448.84 791.76 437.02 516.55 561.36 577.16 734.23 410.94 135.68 208.02 835.23 848.29 424.13 209.59 522.20 744.38 414.47 445.50 417.52 701.86 689.78 394.24 571.72 259.23 479.37 392.85 597.40 434.26 480.29 488.46 100.09 58.23 523.14 744.85 492.30 768.80 769.08 339.06 403.66 439.68 227.68 485.25 87.16 835.14 527.98 350.91 218.51 186.33 513.53 451.09 614.49 704.01 181.48 418.43 940.71 906.83 304.64 290.26 179.41 409.56
1012.91 286.67 299.09 292.04 632.75 507.74 741.18 556.14 203.14 684.47 658.29 787.84 521.64 341.62 698.03 211.07 575.45 689.78 343.85 340.50 792.77 930.21 662.78 406.67 760.02 308.71 378.37 559.67 282.64 702.50 28.78 420.22 585.43 446.30 741.64 61.57 860.45 570.98 704.92 880.57 530.69 691.24 0.00 948.86 185.00 644.24 551.38 559.41 293.04 573.33 704.01 457.49 711.89 247.20 210.57 510.95 584.35 781.96 684.89 822.51 233.95 273.22 366.87 335.99 482.23 732.78 981.58 605.04 624.54 507.94 733.53 950.53 525.76 433.96 609.18 160.92 448.37 239.57 576.16 776.75 517.06 651.66 213.88 481.73 548.12 987.56 491.79 683.04 826.20 789.12 155.50 431.85 350.12 632.78 660.99 781.84 796.18 260.59 440.17 269.54 438.29 740.64 749.20 322.01 213.13 509.24 581.38 237.36 633.60 630.17 766.96 535.88 975.92 714.36 308.96 378.19 616.47 717.02 751.37 900.52 941.76 485.32 163.75 543.60 553.14 354.24 373.58 728.82 887.65 835.43 760.91
175.26 870.09 1145.91 1081.50 602.53 522.63 358.80 631.89 813.77 576.82 754.30 644.07 602.45 709.81 718.45 1057.64 586.10 259.08 905.71 845.78 314.08 142.84 379.49 602.45 595.68 1002.07 574.15 408.18 718.27 531.26 977.64 611.24 452.11 952.86 616.15 962.93 88.41 787.87 355.36 211.20 879.84 390.01 948.86 0.00 1039.38 473.18 867.71 720.55 825.45 379.19 311.92 558.44 575.83 757.07 784.44 759.19 922.80 435.93 302.51 421.10 714.91 1171.78 882.71 874.72 499.20 468.36 119.88 956.93 419.71 645.54 562.47 116.54 852.91 641.55 463.42 787.94 904.44 1070.34 454.89 394.97 508.69 876.06 1043.06 610.25 555.89 178.04 798.73 336.49 234.38 768.08 960.10 964.75 722.84 628.51 595.83 720.19 727.10 806.99 649.67 730.38 653.67 289.92 333.20 806.61 1069.71 558.34 777.47 1045.48 367.31 400.20 759.03 487.17 134.37 323.18 1103.38 797.17 671.62 265.15 470.64 196.73 131.29 693.20 1008.42 482.15 583.72 1219.33 1183.73 659.65 99.75 294.75 691.39
1096.52 279.78 402.61 380.88 817.75 604.89 811.03 533.65 381.89 717.00 831.79 942.27 556.68 466.38 883.03 305.39 578.48 807.45 213.40 296.03 854.87 1019.01 779.19 587.32 945.02 131.83 563.37 631.20 450.27 866.83 198.12 556.28 701.84 269.42 921.36 191.61 975.10 513.66 767.91 952.10 518.95 748.74 185.00 1039.38 0.00 821.87 725.64 744.41 478.04 670.22 757.24 599.56 896.89 393.78 395.57 400.94 620.64 776.29 826.95 899.52 351.62 415.63 547.05 422.80 656.65 819.89 1070.87 463.86 707.70 464.62 911.16 1009.50 355.74 494.13 603.51 345.92 484.66 355.39 673.31 878.80 593.80 559.65 99.55 529.71 667.51 1071.17 311.43 732.67 885.17 913.93 285.54 583.44 498.39 667.61 845.99 955.25 906.36 327.69 498.53 454.54 444.33 833.35 806.97 507.01 338.82 533.45 503.26 355.91 760.73 727.32 926.09 636.52 1064.72 830.77 402.76 563.19 801.47 813.91 910.98 1015.49 1030.56 441.32 277.31 567.26 560.30 447.22 483.11 879.15 996.94 924.65 846.62
627.00 736.27 884.10 841.28 129.35 573.19 469.99 731.80 540.46 727.95 309.72 195.11 608.01 445.73 277.44 839.12 745.43 331.99 738.99 715.57 574.17 588.84 179.82 393.80 161.91 879.63 365.50 373.92 504.71 58.26 673.02 474.43 227.42 862.70 142.97 705.81 426.63 917.45 191.84 400.81 919.32 158.08 644.24 473.18 821.87 0.00 446.65 249.18 490.78 288.24 509.14 486.38 102.65 483.76 542.94 790.65 471.89 662.14 413.70 192.48 470.25 909.97 515.70 638.34 405.37 106.14 593.06 971.12 568.27 777.61 89.29 495.28 949.06 549.94 661.67 483.32 503.82 765.72 549.35 216.10 320.94 993.31 858.12 578.31 194.15 638.19 894.88 532.32 492.57 308.01 719.84 616.48 482.00 729.80 122.83 326.33 258.04 687.89 592.00 524.44 646.20 230.24 139.98 479.61 815.75 650.38 907.05 800.82 460.31 553.70 285.85 343.57 557.91 237.36 825.61 512.99 223.80 307.64 121.34 608.35 585.85 772.57 752.89 294.40 576.51 926.46 871.41 186.47 420.41 261.16 294.50
974.55 716.03 587.06 606.52 351.91 763.87 709.77 838.14 428.34 895.64 163.44 355.53 719.44 496.95 257.72 637.90 820.60 716.23 771.25 693.14 836.20 894.12 488.22 413.98 375.13 856.46 442.28 564.95 445.79 432.73 580.16 499.54 468.84 823.26 424.10 568.03 823.83 923.32 556.16 788.40 948.50 529.63 551.38 867.71 725.64 446.65 0.00 200.40 291.43 551.60 706.06 629.10 374.72 378.44 373.72 799.32 105.00 891.48 663.73 547.53 420.60 612.93 193.91 333.87 542.10 509.56 952.25 1009.72 751.54 769.97 447.75 913.94 869.37 575.09 778.15 390.46 240.98 531.64 705.43 558.54 475.18 972.80 751.26 624.26 432.02 988.42 860.61 730.63 805.04 325.34 524.03 270.84 444.28 886.96 323.82 290.99 333.09 586.89 620.79 454.40 674.99 621.60 586.63 230.52 596.37 754.21 912.92 577.99 597.51 702.00 303.18 460.05 939.83 597.77 584.64 221.46 257.46 665.32 536.39 959.31 905.67 730.72 600.23 448.64 687.94 626.89 627.58 343.42 767.96 626.57 307.34
827.39 687.72 634.92 645.90 151.51 614.18 610.71 720.93 442.02 777.48 145.91 245.90 634.72 511.72 138.62 667.38 703.39 549.57 736.25 700.02 722.04 789.22 345.79 438.83 239.19 863.34 434.75 443.42 452.74 249.07 588.19 497.69 268.44 845.16 254.42 620.98 645.15 861.36 373.32 616.81 921.70 374.25 559.41 720.55 744.41 249.18 200.40 0.00 298.31 362.92 591.90 527.98 191.06 385.32 437.15 765.42 274.64 770.49 577.85 423.87 402.10 660.79 278.44 401.49 389.88 325.90 798.41 973.55 653.28 723.77 251.93 744.46 874.09 550.34 648.95 398.49 359.94 523.11 553.50 435.86 321.34 935.91 765.82 570.82 263.40 847.45 826.71 609.64 719.16 229.71 591.65 420.78 533.38 774.33 140.16 232.02 262.19 551.89 503.58 494.36 557.78 430.63 389.16 237.40 588.02 671.03 850.96 612.25 571.76 580.46 207.55 364.06 807.09 397.37 624.02 305.54 57.06 506.61 352.73 825.33 777.67 696.82 595.10 294.80 617.90 715.18 711.66 169.41 620.80 426.17 208.04
912.43 480.63 466.40 454.09 407.95 524.85 600.43 642.29 153.27 704.27 365.25 494.80 523.92 276.16 436.93 478.32 583.21 594.56 569.42 511.97 703.17 841.01 511.18 223.62 466.98 574.59 251.92 443.47 237.38 476.86 321.82 235.59 433.83 632.38 496.32 343.55 765.23 715.29 555.42 707.71 666.63 539.64 293.04 825.45 478.04 490.78 291.43 298.31 0.00 446.88 573.03 380.50 418.85 96.57 182.84 637.44 343.64 722.37 607.02 631.25 138.73 440.53 153.30 188.91 347.63 549.73 857.05 725.39 570.39 574.98 539.60 817.62 643.86 398.46 598.30 132.12 234.80 414.52 481.64 593.70 377.21 787.60 467.51 442.04 347.86 915.21 656.96 561.52 705.51 527.15 343.54 250.42 267.79 694.83 367.95 492.80 534.90 396.01 451.18 263.52 505.24 535.53 566.15 60.91 402.93 545.80 704.89 418.41 544.40 467.02 504.99 385.25 810.31 502.27 469.61 135.11 355.37 590.57 560.11 754.74 848.42 620.74 360.10 372.63 511.33 521.55 541.23 448.80 725.70 623.34 495.69
533.31 565.73 789.27 754.18 378.81 327.35 271.22 485.96 453.36 509.74 440.82 399.46 362.17 377.61 471.30 748.47 499.59 186.65 670.87 605.58 359.12 452.06 179.33 223.26 369.01 784.25 194.96 128.08 360.31 328.25 602.11 297.53 115.07 762.82 365.38 627.56 357.32 691.44 157.79 370.17 657.71 174.04 573.33 379.19 670.22 288.24 551.60 362.92 446.88 0.00 228.98 224.77 287.91 396.66 408.27 564.64 637.56 407.57 214.93 314.63 438.82 815.14 519.02 551.24 190.03 225.09 480.19 769.51 336.77 556.30 341.56 480.57 704.00 345.77 426.08 482.94 586.42 721.08 300.30 268.68 129.50 747.47 752.76 322.12 203.21 538.35 656.62 246.72 356.24 555.44 643.63 612.93 358.28 534.70 338.81 568.37 495.45 496.64 385.88 420.37 437.65 167.31 209.65 427.42 742.73 404.54 681.04 718.50 225.33 274.49 533.28 107.98 445.37 167.82 769.70 501.62 419.98 143.69 304.24 463.01 440.51 526.73 656.32 102.96 330.67 869.53 856.41 371.73 326.72 288.89 511.61
404.03 558.17 913.63 849.22 606.31 211.39 53.79 319.97 582.14 287.59 669.80 628.44 290.53 450.28 700.28 818.36 364.63 217.26 602.88 585.08 130.14 310.91 348.49 424.09 597.99 707.88 423.94 238.08 459.51 510.60 690.35 337.44 344.05 675.86 593.89 651.01 338.85 494.40 373.21 362.49 586.37 389.90 704.01 311.92 757.24 509.14 706.06 591.90 573.03 228.98 0.00 246.52 516.89 536.17 531.58 482.19 811.06 185.42 110.08 458.57 494.01 894.00 710.27 682.74 348.62 454.07 379.51 663.46 107.79 368.54 570.54 301.40 575.91 347.50 212.02 567.04 791.77 808.54 142.97 434.64 349.60 582.59 731.14 298.33 424.17 394.75 521.73 24.57 177.07 750.93 733.65 816.42 431.34 339.28 566.31 797.35 724.43 517.33 337.75 484.62 341.75 307.77 369.16 617.88 848.81 298.47 484.00 824.58 108.55 106.01 762.26 324.94 356.62 341.03 871.10 627.41 634.13 201.50 491.98 282.07 318.83 416.20 777.37 331.94 272.34 975.02 951.45 600.71 312.84 433.18 739.11
579.47 390.17 667.11 602.70 540.73 144.35 300.31 306.92 397.50 330.35 596.02 582.63 183.13 203.76 589.87 625.77 316.59 380.83 456.23 406.33 376.66 511.89 306.56 231.56 549.65 584.43 218.60 240.99 237.95 445.11 486.27 144.91 339.84 538.05 543.30 519.06 514.14 512.40 374.50 546.35 432.94 347.97 457.49 558.44 599.56 486.38 629.10 527.98 380.50 224.77 246.52 0.00 503.12 373.75 310.02 385.60 693.34 386.40 288.96 498.75 331.59 692.98 495.01 520.32 138.10 449.86 524.09 544.74 260.06 345.20 513.66 502.38 518.62 146.52 245.79 380.63 576.51 607.56 182.98 468.81 230.70 553.91 667.43 97.35 344.56 582.25 477.58 225.55 378.05 645.17 518.07 627.22 184.82 377.90 500.73 683.27 656.85 271.87 161.11 270.87 212.88 392.08 406.20 441.41 652.62 224.49 502.00 636.57 273.53 202.35 658.80 195.14 536.46 377.20 624.58 442.43 508.31 338.79 526.18 528.59 523.44 347.69 557.97 245.99 151.63 747.37 704.93 581.58 491.72 498.27 597.11
696.11 750.81 825.98 822.73 90.90 597.67 522.79 773.87 572.12 769.34 237.79 111.55 650.08 542.16 191.60 827.96 769.91 434.64 835.42 812.00 647.03 660.36 228.09 408.34 81.10 943.62 380.04 415.99 511.55 58.01 740.67 494.99 265.87 927.05 77.47 732.15 529.28 979.35 255.47 432.16 936.06 220.82 711.89 575.83 896.89 102.65 374.72 191.06 418.85 287.91 516.89 503.12 0.00 515.42 583.62 852.55 433.44 695.48 502.84 232.81 557.58 851.85 413.05 553.01 473.25 134.84 695.71 1041.78 624.68 805.36 126.56 597.93 948.81 583.18 678.45 550.97 494.55 714.17 529.25 244.80 360.93 1027.68 886.36 597.13 262.78 685.67 894.63 534.63 566.19 267.53 743.17 555.39 489.49 763.65 50.90 285.85 207.54 714.30 655.08 575.54 709.28 308.17 242.63 428.46 743.82 684.75 968.95 768.05 460.06 562.40 245.37 395.89 660.56 305.74 815.08 410.34 166.98 399.13 161.67 711.00 671.91 814.64 778.95 363.03 618.58 890.97 816.46 83.82 489.52 298.34 223.70
856.52 384.06 421.93 357.52 504.52 436.22 589.96 545.72 56.70 607.70 461.82 591.37 427.35 199.79 496.93 381.75 486.64 497.99 493.05 418.35 662.67 763.40 520.13 252.21 563.55 478.02 280.51 393.58 140.81 542.02 275.98 248.29 453.68 562.24 592.89 246.98 668.66 656.04 513.37 714.48 570.06 478.72 247.20 757.07 393.78 483.76 378.44 385.32 96.57 396.66 536.17 373.75 515.42 0.00 112.70 540.87 426.33 708.35 557.99 629.50 42.16 447.80 240.31 154.58 347.19 578.32 823.36 681.86 543.83 524.31 573.05 742.57 598.02 306.60 537.66 86.28 299.74 324.42 489.51 614.40 366.43 691.03 434.58 354.00 438.10 857.70 560.39 560.74 668.48 604.20 246.97 346.99 188.93 598.26 464.52 589.37 622.09 325.87 374.16 173.46 428.36 548.82 536.95 147.92 346.07 449.23 657.27 321.84 491.77 479.72 592.87 288.68 799.46 564.48 373.04 185.69 442.38 540.35 605.10 767.44 751.85 550.60 333.35 357.94 432.59 502.19 459.75 545.37 723.38 658.13 586.82
812.76 342.31 480.18 428.00 541.33 435.78 535.29 479.95 151.63 538.96 537.16 622.57 358.61 131.05 511.45 402.22 481.19 528.52 397.53 329.13 647.80 719.64 462.29 209.12 625.55 504.14 213.31 402.88 72.07 587.90 239.35 222.10 384.94 449.54 576.58 272.14 699.19 626.62 522.73 694.22 591.45 490.75 210.57 784.44 395.57 542.94 373.72 437.15 182.84 408.27 531.58 310.02 583.62 112.70 0.00 506.50 478.72 620.97 489.25 638.57 72.69 481.43 292.14 253.27 285.24 535.23 788.04 691.68 483.97 411.61 632.23 754.89 586.29 259.17 448.19 90.82 373.64 362.81 395.25 579.20 352.00 679.98 377.54 308.34 384.66 813.94 539.01 535.57 630.56 618.72 259.78 317.20 139.55 513.24 532.72 624.71 673.82 213.17 281.38 80.68 327.98 547.13 548.98 199.75 378.27 380.49 618.03 354.04 423.03 453.53 613.52 367.29 765.35 513.87 436.99 273.95 494.21 551.96 621.57 741.25 731.19 437.90 344.26 358.13 366.22 547.85 518.16 579.19 692.01 634.94 628.10
795.79 271.84 750.05 718.87 804.50 290.62 535.95 183.99 484.17 318.36 902.82 917.61 233.16 444.61 904.04 624.45 227.51 604.45 199.17 226.57 573.71 713.58 646.73 516.16 879.52 339.81 544.46 436.56 497.46 806.72 514.24 496.39 630.83 307.29 850.35 457.10 704.28 126.80 687.05 757.46 185.02 652.40 510.95 759.19 400.94 790.65 799.32 765.42 637.44 564.64 482.19 385.60 852.55 540.87 506.50 0.00 899.70 507.99 553.05 803.18 550.27 751.71 744.50 660.77 461.99 748.88 780.64 250.72 407.42 113.65 875.27 738.69 174.90 341.32 376.01 544.98 764.88 662.11 359.04 754.62 522.79 214.99 500.49 329.08 596.50 770.44 143.59 503.14 614.36 995.13 551.03 823.70 438.16 266.67 808.38 997.44 982.78 293.33 261.84 456.78 215.53 727.48 710.63 652.11 639.96 234.35 116.40 652.93 532.67 413.05 972.97 521.25 759.29 729.55 704.49 691.05 822.48 615.59 838.73 715.91 725.13 68.60 585.83 496.25 233.97 786.14 793.66 885.58 719.31 755.79 927.31
1029.64 740.02 482.06 544.51 342.54 837.69 814.77 872.65 415.53 969.89 268.44 460.53 802.52 583.65 362.72 591.66 866.00 769.96 756.92 674.29 941.20 999.12 593.22 518.98 472.84 752.47 516.53 669.95 524.67 486.12 613.13 548.43 543.08 835.17 475.91 551.93 878.92 1024.33 567.44 840.86 945.48 602.09 584.35 922.80 620.64 471.89 105.00 274.64 343.64 637.56 811.06 693.34 433.44 426.33 478.72 899.70 0.00 996.48 768.73 633.00 450.51 507.93 217.48 302.84 635.02 568.28 1042.68 1057.28 856.54 825.67 526.57 967.17 935.17 680.09 883.15 423.43 135.98 456.43 784.78 586.43 580.18 1046.31 720.19 683.66 537.02 1054.99 884.17 835.63 910.04 340.21 458.00 231.42 549.28 970.89 382.54 358.53 414.55 691.89 700.14 559.40 754.34 632.88 611.87 309.87 507.52 833.09 1016.10 531.75 702.51 779.86 318.05 565.05 1029.80 648.41 557.34 292.53 319.43 753.30 561.86 1046.32 1010.67 835.72 495.23 553.64 781.41 562.32 524.77 438.98 823.05 686.65 397.52
407.41 627.03 998.32 978.03 786.38 274.22 239.21 364.32 757.10 262.58 848.39 803.31 306.65 572.09 864.15 897.07 375.28 388.19 644.73 571.04 247.07 314.29 533.91 539.89 776.58 749.71 516.70 381.26 576.42 696.02 753.18 486.78 522.64 649.34 772.95 820.60 494.14 425.26 558.63 536.86 538.03 575.32 781.96 435.93 776.29 662.14 891.48 770.49 722.37 407.57 185.42 386.40 695.48 708.35 620.97 507.99 996.48 0.00 279.47 643.99 666.19 1021.18 824.12 842.46 469.59 632.66 382.89 594.32 164.52 427.30 749.13 407.80 628.51 417.82 172.78 711.79 905.62 900.77 264.30 620.06 478.77 469.53 854.61 425.51 561.42 408.59 580.49 160.85 304.54 936.35 837.11 934.67 519.42 263.66 746.38 975.94 903.02 546.01 394.48 595.18 410.61 493.19 553.19 731.73 928.30 297.36 435.66 904.07 293.97 255.35 936.76 456.01 360.00 499.97 986.49 805.93 803.52 386.92 669.58 239.20 325.84 463.11 834.10 505.31 338.15 1058.76 1068.19 756.37 470.87 612.71 895.59
354.17 634.50 915.00 891.66 543.05 262.43 56.29 430.05 614.69 358.02 639.37 588.93 350.57 472.98 596.15 885.21 371.67 108.72 653.92 636.95 234.15 307.22 290.21 415.60 567.29 741.87 409.89 195.75 417.18 468.27 713.67 371.43 330.00 724.19 556.67 746.46 258.63 588.60 289.07 257.39 680.57 323.72 684.89 302.51 826.95 413.70 663.73 577.85 607.02 214.93 110.08 288.96 502.84 557.99 489.25 553.05 768.73 279.47 0.00 373.26 515.83 940.87 667.07 704.56 338.64 406.03 298.79 718.00 214.34 478.62 502.99 265.64 661.72 412.53 318.57 559.86 748.57 842.26 220.95 351.17 287.58 676.79 841.22 386.31 379.47 356.95 614.34 118.62 141.31 696.70 749.03 774.09 470.99 409.71 508.03 699.01 667.62 558.34 378.76 484.09 432.96 247.52 273.72 574.68 845.43 349.51 578.20 829.38 66.22 140.00 674.54 294.16 294.01 280.78 903.17 585.08 524.05 141.74 411.16 305.83 295.67 484.45 750.78 314.12 338.36 992.54 918.03 586.66 202.76 367.62 675.03
527.94 771.92 952.88 888.47 290.46 533.13 428.01 704.26 662.37 647.15 470.60 298.07 600.71 563.52 405.48 935.50 705.37 264.54 856.78 774.41 518.83 497.26 192.19 429.45 264.38 953.08 457.75 366.62 566.50 209.92 793.73 516.10 256.59 935.29 274.39 852.65 366.22 922.30 156.84 318.71 931.69 150.78 822.51 421.10 899.52 192.48 547.53 423.87 631.25 314.63 458.57 498.75 232.81 629.50 638.57 803.18 633.00 643.99 373.26 0.00 662.73 978.75 622.83 681.92 441.75 103.34 490.51 952.47 549.62 774.60 192.25 479.93 932.42 584.37 618.70 675.80 696.30 885.01 537.93 69.13 329.43 947.73 999.07 574.91 332.26 548.67 885.04 483.14 494.66 474.96 852.64 752.88 544.99 698.84 283.71 494.07 361.00 735.41 585.04 621.87 630.42 150.80 121.33 570.34 895.63 604.80 911.90 919.86 389.77 500.32 464.71 378.46 451.82 184.06 910.35 643.15 384.91 288.99 71.14 540.90 499.43 755.15 854.79 332.26 569.21 1033.14 990.70 304.39 321.35 126.35 420.74
814.36 341.90 456.71 399.68 507.31 394.06 547.80 505.26 98.86 565.54 503.98 633.53 385.19 157.63 538.54 390.48 488.95 455.83 450.89 376.19 624.15 721.24 487.60 235.70 605.71 483.45 264.00 435.74 98.65 515.21 262.73 235.25 411.52 522.23 613.22 289.14 626.50 626.21 532.60 683.44 612.22 517.33 233.95 714.91 351.62 470.25 420.60 402.10 138.73 438.82 494.01 331.59 557.58 42.16 72.69 550.27 450.51 666.19 515.83 662.73 0.00 457.96 239.27 188.73 305.03 561.81 781.20 712.76 501.67 482.46 559.54 751.66 572.41 277.58 495.50 73.03 320.77 355.43 462.48 605.78 373.35 705.22 447.83 326.75 435.35 815.54 518.23 518.58 657.14 631.81 249.59 364.53 146.77 560.48 506.68 631.53 664.25 285.86 335.31 153.37 386.71 573.71 575.56 190.08 354.80 407.07 636.61 330.57 449.61 466.68 609.65 330.84 757.30 540.45 414.69 227.85 459.16 506.74 591.59 732.19 709.69 510.59 335.97 346.81 390.43 524.38 494.69 527.53 682.37 661.52 610.14
1248.89 508.48 25.87 90.28 812.30 777.50 947.79 786.52 394.95 879.16 776.37 906.69 714.53 544.30 799.41 127.26 830.04 912.70 596.17 608.41 972.43 1155.77 901.69 623.15 899.98 487.33 651.45 803.96 523.69 904.46 302.00 631.35 832.09 624.92 915.21 294.61 1083.37 792.79 905.92 1103.47 802.19 894.10 273.22 1171.78 415.63 909.97 612.93 660.79 440.53 815.14 894.00 692.98 851.85 447.80 481.43 751.71 507.93 1021.18 940.87 978.75 457.96 0.00 481.88 412.70 685.70 949.26 1217.07 776.81 859.67 716.18 912.72 1108.98 711.24 606.51 865.53 434.14 498.81 208.87 769.41 909.62 774.10 872.83 316.08 595.67 739.42 1239.61 700.54 869.43 1021.93 848.14 265.42 434.54 562.51 906.00 800.95 826.84 922.48 533.81 636.98 542.76 691.18 971.36 952.33 501.44 151.62 759.07 803.19 127.39 874.65 844.51 825.98 736.48 1171.61 942.80 107.96 510.19 717.85 958.83 983.12 1137.58 1153.75 707.32 190.09 757.71 706.76 81.02 104.07 830.20 1102.57 1009.84 868.83
944.62 522.54 456.01 473.39 429.95 621.89 716.66 700.01 266.76 765.39 357.35 524.34 585.04 366.71 417.06 472.56 682.47 695.10 637.64 555.01 798.38 885.62 528.43 349.41 494.15 666.46 324.85 548.14 307.73 471.06 395.65 388.89 509.72 715.89 490.52 374.12 864.04 806.85 596.37 806.94 810.37 569.84 366.87 882.71 547.05 515.70 193.91 278.44 153.30 519.02 710.27 495.01 413.05 240.31 292.14 744.50 217.48 824.12 667.07 622.83 239.27 481.88 0.00 139.96 445.41 519.49 889.24 858.04 659.60 631.84 530.37 904.42 717.69 515.35 716.50 205.95 81.50 401.95 567.30 629.45 422.18 914.99 561.72 466.18 448.99 947.40 727.66 714.82 808.38 495.72 330.12 142.34 386.04 753.41 418.60 484.90 478.77 505.31 482.66 349.35 536.86 620.76 628.07 92.39 449.50 616.15 817.25 425.27 604.40 620.32 485.99 499.93 841.79 587.50 451.51 85.54 335.50 662.71 574.72 908.04 874.07 675.90 416.50 448.72 577.27 498.39 491.66 447.85 808.17 704.61 419.03
1001.45 530.63 393.64 333.43 553.00 582.79 736.53 621.13 176.60 754.27 408.99 618.39 573.92 346.36 523.56 332.60 641.22 644.56 503.84 564.92 812.88 909.97 631.42 363.51 620.68 554.63 391.81 548.16 287.38 611.02 349.96 402.87 573.72 627.55 630.48 284.09 815.23 787.57 667.95 781.64 724.64 633.30 335.99 874.72 422.80 638.34 333.87 401.49 188.91 551.24 682.74 520.32 553.01 154.58 253.27 660.77 302.84 842.46 704.56 681.92 188.73 412.70 139.96 0.00 463.70 659.45 946.07 806.58 690.40 664.88 653.42 897.15 666.23 461.18 669.68 175.07 166.86 274.47 639.00 733.59 493.88 845.61 452.73 508.58 520.12 1004.23 612.05 707.31 823.06 570.89 190.16 222.69 335.50 719.66 541.65 536.54 578.64 466.44 516.52 315.82 570.72 692.46 691.53 164.09 309.54 595.80 777.17 285.31 638.34 634.30 548.73 443.26 913.49 659.20 311.55 144.85 458.55 609.57 663.29 914.67 898.42 691.17 276.54 512.52 544.99 473.90 431.74 570.90 862.15 780.27 552.89
623.91 490.01 689.51 653.11 448.58 262.43 361.90 383.31 399.41 439.87 457.92 510.58 259.52 210.61 528.50 558.44 432.49 265.38 503.87 480.45 408.67 530.79 287.76 148.86 450.08 644.51 120.56 142.89 262.07 421.44 511.01 112.04 210.41 627.58 465.07 543.80 436.05 588.79 311.62 463.79 571.04 292.45 482.23 499.20 656.65 405.37 542.10 389.88 347.63 190.03 348.62 138.10 473.25 347.19 285.24 461.99 635.02 469.59 338.64 441.75 305.03 685.70 445.41 463.70 0.00 338.41 575.96 682.84 305.07 453.65 489.99 535.94 601.35 251.11 363.87 376.06 499.04 648.05 220.88 422.51 112.32 644.82 662.78 201.94 211.22 625.09 553.97 363.30 429.57 613.94 545.02 538.53 223.64 405.36 423.10 585.47 572.31 380.89 241.35 249.03 295.55 352.97 350.68 353.02 642.58 301.89 578.39 618.35 272.42 269.19 597.43 82.05 528.51 333.79 674.99 427.22 446.94 305.21 429.50 541.74 519.24 424.08 549.86 110.97 228.02 720.13 755.34 503.95 491.92 454.86 537.25
575.20 668.58 923.39 898.76 225.74 547.57 430.99 654.30 633.26 684.21 372.63 234.28 582.39 522.14 302.14 895.82 713.38 315.20 789.68 740.84 530.82 558.64 144.26 326.11 173.78 895.23 354.41 348.30 463.16 164.40 761.56 412.76 206.91 901.72 212.31 787.01 424.48 875.68 167.11 297.32 879.53 132.46 732.78 468.36 819.89 106.14 509.56 325.90 549.73 225.09 454.07 449.86 134.84 578.32 535.23 748.88 568.28 632.66 406.03 103.34 561.81 949.26 519.49 659.45 338.41 0.00 576.14 931.38 524.92 707.61 186.68 522.16 871.41 481.03 621.94 589.46 600.99 837.08 511.33 109.96 226.09 936.22 912.21 530.20 245.42 550.83 824.03 471.81 545.32 397.76 795.01 661.83 481.12 693.20 185.74 415.40 342.38 632.07 533.82 518.53 588.02 178.44 174.91 555.88 853.82 624.76 865.28 837.77 417.41 485.21 375.60 303.84 555.16 211.53 876.88 545.18 301.82 264.29 91.09 583.87 565.89 694.14 759.17 252.63 550.89 1001.73 951.30 218.66 368.61 187.73 323.53
55.38 845.02 1191.20 1126.79 722.41 537.62 339.71 682.71 880.06 570.36 874.18 711.69 600.75 727.85 812.80 1096.08 644.55 325.37 929.11 878.83 260.20 68.60 499.37 652.62 715.56 983.24 665.19 494.54 715.97 651.14 1010.36 669.00 571.99 974.31 717.24 1030.52 196.93 807.10 475.24 278.82 915.31 508.14 981.58 119.88 1070.87 593.06 952.25 798.41 857.05 480.19 379.51 524.09 695.71 823.36 788.04 780.64 1042.68 382.89 298.79 490.51 781.20 1217.07 889.24 946.07 575.96 576.14 0.00 971.48 443.26 666.99 682.35 110.08 855.52 619.02 522.70 854.23 970.74 1115.90 488.94 514.85 526.50 807.54 1081.35 621.44 603.86 58.16 820.18 354.94 225.87 887.96 953.64 1024.58 708.91 622.05 715.71 840.07 839.33 795.96 673.22 782.88 663.60 409.80 453.08 796.85 1128.05 624.70 817.50 1111.77 365.01 438.79 878.91 563.97 47.45 443.06 1117.65 835.57 791.50 336.50 561.65 188.79 71.51 713.58 1040.02 503.61 613.55 1257.77 1216.82 779.53 219.63 414.63 811.27
1001.73 384.33 780.62 779.15 1030.88 509.32 717.25 389.57 702.71 425.41 1070.80 1105.84 482.18 642.73 1112.17 649.55 385.99 826.72 365.85 382.99 738.73 908.61 851.30 709.67 1067.63 332.03 706.18 687.28 630.12 989.22 609.74 689.65 813.33 242.14 1018.66 586.03 892.17 169.06 879.40 975.39 111.80 860.23 605.04 956.93 463.86 971.12 1009.72 973.55 725.39 769.51 663.46 544.74 1041.78 681.86 691.68 250.72 1057.28 594.32 718.00 952.47 712.76 776.81 858.04 806.58 682.84 931.38 971.48 0.00 555.67 347.72 1057.77 885.69 140.35 575.39 553.94 652.09 921.30 740.15 577.74 908.59 705.29 163.94 555.52 561.62 779.00 989.14 194.53 651.39 803.89 1189.91 679.96 935.39 674.18 403.46 990.88 1198.35 1165.28 520.16 510.86 622.57 466.25 890.75 831.14 779.20 733.69 422.24 179.46 709.46 651.78 631.75 1181.10 739.88 928.71 921.94 757.27 853.40 1030.61 811.25 968.58 833.52 920.16 317.62 723.90 678.75 484.69 811.24 837.19 1034.73 920.76 952.32 1141.85
475.18 479.79 833.80 813.51 688.29 116.80 161.58 239.45 592.58 202.26 762.99 702.20 223.64 407.57 699.63 732.55 270.51 295.68 508.29 491.32 183.06 382.06 437.73 421.45 680.08 634.92 425.63 310.49 411.90 618.39 595.76 334.80 451.84 614.80 683.79 663.18 415.16 386.61 446.49 469.09 478.58 479.14 624.54 419.71 707.70 568.27 751.54 653.28 570.39 336.77 107.79 260.06 624.68 543.83 483.97 407.42 856.54 164.52 214.34 549.62 501.67 859.67 659.60 690.40 305.07 524.92 443.26 555.67 0.00 309.79 657.56 372.45 515.85 253.30 104.23 554.58 741.10 769.24 99.78 502.84 362.49 474.80 737.50 273.52 440.91 465.90 461.67 95.72 248.22 790.46 688.15 801.17 354.90 253.95 652.79 812.72 781.26 409.54 229.96 430.66 263.37 415.56 428.29 567.21 763.78 203.88 376.21 739.55 216.34 103.37 772.24 291.49 419.36 419.87 821.97 641.41 690.62 260.63 565.73 348.21 371.75 338.82 669.58 358.48 192.73 894.24 903.67 591.85 405.74 515.56 739.06
722.37 278.19 729.11 668.63 758.83 256.88 422.33 70.34 563.24 263.49 823.67 881.26 210.40 375.97 828.67 683.88 113.86 581.69 263.71 238.98 492.85 679.45 638.39 402.51 843.05 404.35 430.81 428.22 383.81 790.31 501.59 418.99 610.72 307.32 794.08 521.85 639.73 216.82 624.44 731.03 248.32 644.06 507.94 645.54 464.62 777.61 769.97 723.77 574.98 556.30 368.54 345.20 805.36 524.31 411.61 113.65 825.67 427.30 478.62 774.60 482.46 716.18 631.84 664.88 453.65 707.61 666.99 347.72 309.79 0.00 858.86 663.51 207.37 227.67 311.46 502.43 713.34 664.55 276.11 720.88 481.52 289.74 555.97 272.87 583.46 725.15 153.19 393.11 539.18 935.94 615.78 728.81 358.48 225.48 795.34 920.24 938.91 247.35 220.19 410.80 165.99 676.31 675.08 539.45 619.02 169.80 206.42 643.25 477.09 342.76 930.74 465.46 714.44 659.26 690.51 613.65 780.83 548.68 776.12 650.61 681.54 47.66 564.89 483.21 225.63 763.70 770.86 785.58 670.16 721.45 906.37
687.41 825.56 886.85 886.93 202.92 658.01 558.60 820.58 629.75 817.24 284.31 105.82 696.79 535.02 218.60 919.31 813.51 421.28 828.28 804.86 663.46 678.13 269.11 483.09 72.62 968.92 454.79 463.21 561.14 68.55 762.31 553.34 281.73 951.99 121.59 795.10 503.47 1002.07 272.79 456.01 946.60 247.37 733.53 562.47 911.16 89.29 447.75 251.93 539.60 341.56 570.54 513.66 126.56 573.05 632.23 875.27 526.57 749.13 502.99 192.25 559.54 912.72 530.37 653.42 489.99 186.68 682.35 1057.77 657.56 858.86 0.00 584.57 959.35 634.56 750.96 572.61 593.11 775.04 637.72 228.83 405.56 1067.57 947.41 611.01 283.44 662.06 905.17 588.28 576.73 282.71 809.13 653.78 571.29 819.09 171.65 301.82 168.75 777.18 674.77 613.73 726.54 305.32 229.27 489.33 839.95 738.15 991.67 864.18 470.60 607.22 272.46 432.86 644.07 290.72 865.05 536.90 266.63 396.93 121.11 697.64 675.14 861.35 819.80 379.02 665.29 967.11 943.02 160.85 495.49 308.88 228.49
165.46 834.02 1094.16 1034.32 624.63 448.07 260.03 611.90 799.27 460.28 805.00 657.71 534.96 706.14 772.72 986.00 580.03 295.83 839.56 822.59 197.54 93.56 438.32 606.22 657.19 920.58 634.52 423.79 682.82 553.54 927.03 582.03 510.94 906.57 638.25 937.49 125.16 759.06 414.19 224.84 839.04 448.84 950.53 116.54 1009.50 495.28 913.94 744.46 817.62 480.57 301.40 502.38 597.93 742.57 754.89 738.69 967.17 407.80 265.64 479.93 751.66 1108.98 904.42 897.15 535.94 522.16 110.08 885.69 372.45 663.51 584.57 0.00 847.36 599.76 476.68 822.54 911.91 1005.82 387.40 453.80 531.64 784.40 1032.54 550.59 603.31 168.24 799.98 276.83 124.33 803.29 843.56 1024.57 687.20 511.97 618.11 821.61 753.32 717.37 602.41 682.53 617.60 348.75 411.81 812.03 1017.97 535.15 748.66 1008.54 331.86 371.33 781.13 453.89 62.63 382.01 1020.77 850.72 719.08 346.74 532.96 214.85 105.11 670.09 929.94 523.15 516.77 1147.69 1136.55 681.75 158.58 353.58 789.78
904.46 243.98 685.37 638.80 893.12 399.29 629.70 276.40 571.79 407.37 953.72 1001.93 341.83 524.88 1012.61 594.31 319.00 713.12 231.62 264.06 682.38 822.25 786.09 586.45 941.43 223.91 614.75 575.92 553.33 890.80 496.98 626.36 796.66 170.08 966.19 516.25 812.95 225.29 826.41 896.82 252.15 791.76 525.76 852.91 355.74 949.06 869.37 874.09 643.86 704.00 575.91 518.62 948.81 598.02 586.29 174.90 935.17 628.51 661.72 932.42 572.41 711.24 717.69 666.23 601.35 871.41 855.52 140.35 515.85 207.37 959.35 847.36 0.00 435.04 484.68 511.74 799.19 682.30 467.71 863.29 668.97 254.17 455.29 421.27 764.99 879.11 54.18 600.48 723.03 1103.80 599.34 803.24 535.03 396.96 933.12 1081.27 1073.20 379.81 370.51 517.74 346.47 860.06 849.99 638.85 617.39 343.02 218.97 625.07 641.34 521.72 1081.64 629.92 867.96 838.22 616.92 713.05 931.15 746.53 962.50 827.64 833.80 177.27 633.05 671.15 373.33 756.00 737.11 982.07 827.98 864.46 1035.98
674.40 323.58 610.32 603.04 531.16 225.95 401.29 295.68 363.30 344.39 598.48 653.59 164.04 175.18 601.00 479.25 293.72 480.94 342.44 259.81 425.93 609.27 453.08 174.84 615.38 438.48 203.14 257.46 211.45 566.01 441.99 191.32 384.14 420.69 566.41 429.73 553.14 444.49 456.19 578.36 475.99 437.02 433.96 641.55 494.13 549.94 575.09 550.34 398.46 345.77 347.50 146.52 583.18 306.60 259.17 341.32 680.09 417.82 412.53 584.37 277.58 606.51 515.35 461.18 251.11 481.03 619.02 575.39 253.30 227.67 634.56 599.76 435.04 0.00 319.03 349.99 583.32 559.38 222.91 544.92 254.94 517.41 593.68 49.17 355.79 677.18 380.86 322.93 475.43 708.27 464.06 576.37 130.81 349.63 567.67 714.26 711.24 187.75 93.91 208.56 136.11 508.71 495.25 426.79 563.39 196.22 434.09 539.16 386.99 272.53 703.07 237.79 571.57 513.07 624.92 435.25 606.79 463.06 572.12 591.08 607.25 275.33 529.39 255.54 160.26 640.94 683.86 570.46 609.01 612.93 692.99
562.15 471.33 885.53 833.35 698.79 101.44 265.81 241.12 594.36 128.53 794.86 781.76 162.32 412.54 787.57 762.69 205.28 399.28 489.03 429.10 287.15 469.03 513.60 449.36 759.55 607.77 445.67 300.71 448.86 690.90 580.40 362.71 509.91 589.98 721.37 647.82 395.33 386.39 533.34 562.65 499.16 516.55 609.18 463.42 603.51 661.67 778.15 648.95 598.30 426.08 212.02 245.79 678.45 537.66 448.19 376.01 883.15 172.78 318.57 618.70 495.50 865.53 716.50 669.68 363.87 621.94 522.70 553.94 104.23 311.46 750.96 476.68 484.68 319.03 0.00 539.01 798.00 756.44 149.20 565.44 395.85 484.59 698.91 269.86 467.52 537.03 437.30 199.95 352.45 849.99 664.33 765.39 421.03 180.22 679.40 880.97 833.04 390.31 293.46 485.44 254.91 467.90 532.52 624.11 783.62 141.66 396.79 759.39 320.57 207.60 852.77 318.10 514.74 501.16 841.54 673.71 706.01 364.86 652.11 411.98 475.84 307.41 750.71 387.36 177.37 887.49 923.51 696.08 451.20 570.43 773.30
883.37 414.93 429.89 365.48 540.07 467.09 605.90 550.56 60.81 609.57 497.37 626.92 429.22 201.66 537.11 355.80 561.98 528.86 477.38 419.95 697.18 790.25 532.90 279.73 599.10 469.63 302.18 398.75 142.68 541.58 189.70 266.52 455.55 540.36 626.29 222.49 699.53 671.78 584.27 719.65 651.72 561.36 160.92 787.94 345.92 483.32 390.46 398.49 132.12 482.94 567.04 380.63 550.97 86.28 90.82 544.98 423.43 711.79 559.86 675.80 73.03 434.14 205.95 175.07 376.06 589.46 854.23 652.09 554.58 502.43 572.61 822.54 511.74 349.99 539.01 0.00 287.45 282.40 486.07 649.81 433.32 759.97 374.80 399.16 387.20 884.55 565.92 591.61 698.21 628.20 251.08 291.50 219.80 604.06 500.07 620.92 635.26 303.99 372.20 171.50 418.80 617.74 619.59 161.09 347.31 451.10 661.38 348.17 493.64 497.95 606.04 374.96 830.33 584.48 383.31 217.27 455.55 579.77 604.66 739.60 782.72 528.72 269.57 419.84 436.83 488.88 467.71 567.90 728.07 705.55 599.99
1011.28 604.04 472.94 408.53 478.52 703.39 798.16 781.51 343.46 846.89 400.67 596.51 666.54 448.21 494.00 461.22 763.97 764.42 620.94 538.31 879.88 953.49 548.70 430.91 575.65 616.49 406.35 629.64 389.23 552.56 477.15 470.39 471.35 699.19 572.02 415.95 860.56 888.35 609.14 819.72 809.50 577.16 448.37 904.44 484.66 503.82 240.98 359.94 234.80 586.42 791.77 576.51 494.55 299.74 373.64 764.88 135.98 905.62 748.57 696.30 320.77 498.81 81.50 166.86 499.04 600.99 970.74 921.30 741.10 713.34 593.11 911.91 799.19 583.32 798.00 287.45 0.00 320.45 648.80 710.95 503.68 910.33 584.21 547.68 530.49 1005.26 748.19 796.32 787.58 470.50 322.02 112.66 452.51 834.91 500.10 494.51 550.53 586.81 564.16 430.85 618.36 633.54 635.39 173.89 377.08 697.65 881.28 401.31 685.90 701.82 454.03 581.09 923.29 600.28 421.36 167.04 412.44 722.57 625.16 974.16 941.94 729.63 359.25 523.48 645.43 468.71 475.53 529.35 804.69 721.35 500.53
1163.43 470.23 183.00 122.79 674.62 673.97 862.33 715.60 343.21 774.47 669.02 769.01 594.12 453.87 661.73 144.27 774.68 811.26 518.17 435.54 886.97 1070.31 692.82 532.72 762.30 487.22 561.02 677.39 425.08 772.18 268.35 548.92 737.95 562.73 777.53 256.19 981.93 754.54 760.76 998.29 706.73 734.23 239.57 1070.34 355.39 765.72 531.64 523.11 414.52 721.08 808.54 607.56 714.17 324.42 362.81 662.11 456.43 900.77 842.26 885.01 355.43 208.87 401.95 274.47 648.05 837.08 1115.90 740.15 769.24 664.55 775.04 1005.82 682.30 559.38 756.44 282.40 320.45 0.00 683.95 855.07 686.31 807.56 358.90 510.21 669.60 1153.79 645.42 783.97 936.47 752.82 162.26 260.80 495.51 802.04 663.27 755.13 785.30 500.16 577.45 431.11 552.45 826.20 792.46 367.45 64.91 656.16 764.94 89.14 776.04 759.05 730.66 613.10 1068.45 821.39 100.91 419.32 580.17 862.17 866.65 1022.00 1065.12 616.89 99.66 681.73 598.04 206.48 188.76 692.52 972.56 828.46 731.15
506.10 446.62 795.28 785.68 610.83 68.42 196.76 254.96 546.21 240.09 678.80 640.80 147.56 364.54 692.12 702.16 240.66 329.67 459.91 442.94 273.11 428.98 369.53 332.70 610.35 600.55 341.44 210.71 396.08 569.17 547.38 246.05 393.28 581.63 606.72 575.88 392.74 457.59 437.47 478.34 509.30 410.94 576.16 454.89 673.31 549.35 705.43 553.50 481.64 300.30 142.97 182.98 529.25 489.51 395.25 359.04 784.78 264.30 220.95 537.93 462.48 769.41 567.30 639.00 220.88 511.33 488.94 577.74 99.78 276.11 637.72 387.40 467.71 222.91 149.20 486.07 648.80 683.95 0.00 503.76 285.24 498.43 675.10 173.74 358.95 480.75 420.33 167.54 263.07 779.02 650.98 709.64 317.73 234.40 570.83 785.52 736.79 394.88 240.98 403.78 230.20 430.47 426.31 474.91 748.86 155.50 447.19 749.29 215.10 80.95 761.05 302.93 450.03 397.45 784.86 549.11 610.56 292.53 563.75 422.64 417.43 290.44 718.75 258.70 129.37 850.43 872.71 613.07 394.05 510.19 725.04
501.81 712.55 883.75 819.34 294.10 464.00 380.85 650.54 647.27 650.00 464.20 285.73 570.84 494.39 392.00 889.55 636.24 243.89 787.65 764.23 508.74 471.13 162.25 370.08 283.74 928.29 398.38 351.52 507.13 260.47 805.53 456.73 239.60 911.36 284.31 830.98 340.09 853.17 110.89 292.58 901.75 135.68 776.75 394.97 878.80 216.10 558.54 435.86 593.70 268.68 434.64 468.81 244.80 614.40 579.20 754.62 586.43 620.06 351.17 69.13 605.78 909.62 629.45 733.59 422.51 109.96 514.85 908.59 502.84 720.88 228.83 453.80 863.29 544.92 565.44 649.81 710.95 855.07 503.76 0.00 315.00 894.01 956.18 519.81 318.45 527.16 815.91 459.21 474.01 482.83 824.30 709.00 499.04 701.69 295.70 505.09 397.58 676.04 569.94 573.10 586.54 136.57 77.45 571.18 880.53 551.08 842.77 881.74 375.54 443.40 464.61 363.36 507.20 126.90 841.22 638.26 388.55 242.21 121.69 520.25 482.68 686.02 803.14 311.54 539.93 964.01 921.57 284.22 295.22 100.22 430.08
581.88 496.06 748.23 722.21 358.32 325.23 342.45 483.84 417.54 511.23 467.25 445.17 360.05 322.93 459.96 670.76 497.47 281.34 564.67 514.75 479.74 522.24 206.55 153.59 399.87 693.42 138.69 125.96 290.64 337.01 545.84 224.36 129.20 675.63 380.64 571.29 452.01 649.59 204.11 398.69 653.44 208.02 517.06 508.69 593.80 320.94 475.18 321.34 377.21 129.50 349.60 230.70 360.93 366.43 352.00 522.79 580.18 478.77 287.58 329.43 373.35 774.10 422.18 493.88 112.32 226.09 526.50 705.29 362.49 481.52 405.56 531.64 668.97 254.94 395.85 433.32 503.68 686.31 285.24 315.00 0.00 737.78 693.35 304.11 126.79 584.66 630.86 346.37 425.42 546.86 607.81 556.66 288.30 517.68 318.32 553.36 459.99 442.46 307.73 321.94 361.93 269.55 255.97 329.79 681.30 402.42 639.19 665.25 250.42 259.12 528.89 77.75 567.95 258.13 739.04 403.99 378.40 273.19 317.18 557.07 533.79 500.97 586.65 26.54 328.55 828.49 810.11 399.17 455.37 360.85 491.12
862.92 393.30 876.64 848.35 1005.46 430.01 636.38 346.13 699.16 376.65 1072.78 1100.44 404.97 611.12 1074.53 745.57 305.12 770.48 414.16 372.02 586.86 783.82 829.56 649.14 1053.00 478.08 677.44 619.39 639.09 999.02 622.88 670.05 845.82 386.17 1040.71 672.09 812.86 108.99 869.88 928.23 120.97 835.23 651.66 876.06 559.65 993.31 972.80 935.91 787.60 747.47 582.59 553.91 1027.68 691.03 679.98 214.99 1046.31 469.53 676.79 947.73 705.22 872.83 914.99 845.61 644.82 936.22 807.54 163.94 474.80 289.74 1067.57 784.40 254.17 517.41 484.59 759.97 910.33 807.56 498.43 894.01 737.78 0.00 652.65 499.57 808.46 865.70 248.22 570.52 716.79 1086.29 766.02 966.21 558.45 379.57 1014.49 1104.61 1160.53 466.81 432.33 601.69 411.28 859.97 893.46 822.60 798.62 342.93 98.59 774.39 691.14 552.44 1064.13 689.32 823.16 868.94 870.23 876.72 992.97 735.43 997.52 708.73 775.55 242.08 733.07 711.24 416.80 907.26 938.51 1044.76 858.70 894.58 1100.79
1114.51 301.27 305.74 343.72 809.80 644.33 784.93 592.35 377.88 762.35 832.76 962.31 619.29 508.59 888.99 329.67 651.43 874.88 312.95 377.04 861.28 1021.39 839.83 586.10 934.49 231.38 557.80 730.75 449.61 916.38 216.99 599.64 762.48 313.38 921.07 187.60 1027.18 569.91 867.46 1051.65 531.68 848.29 213.88 1043.06 99.55 858.12 751.26 765.82 467.51 752.76 731.14 667.43 886.36 434.58 377.54 500.49 720.19 854.61 841.22 999.07 447.83 316.08 561.72 452.73 662.78 912.21 1081.35 555.52 737.50 555.97 947.41 1032.54 455.29 593.68 698.91 374.80 584.21 358.90 675.10 956.18 693.35 652.65 0.00 570.08 729.15 1115.69 410.98 755.71 908.21 970.45 262.57 576.91 517.09 710.66 835.46 956.88 989.88 427.24 557.01 458.22 517.69 920.07 906.52 528.42 293.99 557.25 580.31 269.76 800.57 738.39 972.50 723.26 1057.45 891.41 365.60 584.76 822.88 896.45 939.58 1013.21 1009.84 540.87 348.36 666.81 631.12 347.67 396.23 906.24 1043.98 1012.48 946.17
653.22 292.82 621.54 633.00 574.74 187.02 352.12 262.86 410.70 299.21 642.06 632.10 118.86 222.94 644.58 528.42 267.05 431.77 391.61 308.98 376.76 560.10 403.91 218.42 593.89 487.08 246.72 208.29 260.62 542.46 475.38 240.49 412.35 466.96 544.92 478.90 552.19 425.02 458.78 529.19 514.10 424.13 481.73 610.25 529.71 578.31 624.26 570.82 442.04 322.12 298.33 97.35 597.13 354.00 308.34 329.08 683.66 425.51 386.31 574.91 326.75 595.67 466.18 508.58 201.94 530.20 621.44 561.62 273.52 272.87 611.01 550.59 421.27 49.17 269.86 399.16 547.68 510.21 173.74 519.81 304.11 499.57 570.08 0.00 384.16 643.94 390.37 273.76 426.26 742.52 513.23 608.52 179.98 316.81 596.04 757.84 748.65 221.14 67.24 257.73 115.53 489.43 482.36 457.51 575.12 163.40 414.62 576.83 337.82 248.84 746.65 234.74 605.69 469.11 611.12 484.42 605.66 413.89 585.97 541.91 558.08 260.48 577.15 304.00 111.09 676.69 698.97 614.04 567.79 590.18 689.94
659.24 542.12 713.55 653.34 251.88 419.63 416.16 546.95 448.01 593.51 398.77 338.73 423.16 387.34 395.36 739.59 591.87 353.42 663.22 615.60 554.31 612.23 181.13 199.65 302.82 768.77 171.35 248.87 336.70 252.41 576.90 280.28 103.78 776.48 253.85 603.95 512.01 723.30 207.56 451.16 727.15 209.59 548.12 555.89 667.51 194.15 432.02 263.40 347.86 203.21 424.17 344.56 262.78 438.10 384.66 596.50 537.02 561.42 379.47 332.26 435.35 739.42 448.99 520.12 211.22 245.42 603.86 779.00 440.91 583.46 283.44 603.31 764.99 355.79 467.52 387.20 530.49 669.60 358.95 318.45 126.79 808.46 729.15 384.16 0.00 662.02 717.61 448.74 520.78 461.37 638.28 527.62 334.67 541.82 211.88 487.35 431.96 494.20 397.85 381.45 452.05 265.97 253.94 356.60 727.36 465.53 712.90 711.31 315.62 385.91 464.15 149.42 591.95 232.71 631.46 375.27 313.80 346.90 315.49 629.78 607.28 587.72 632.71 100.25 391.66 793.81 751.65 292.73 456.14 353.78 384.68
25.35 874.32 1234.08 1170.19 748.92 479.82 359.95 666.36 914.40 604.18 886.49 767.88 586.66 743.88 847.14 1141.07 652.06 359.71 871.31 854.34 294.54 94.30 511.68 699.57 724.61 1011.95 723.35 517.14 741.87 663.45 958.78 696.11 584.30 995.02 763.14 1026.20 255.09 833.85 487.55 336.98 944.13 522.20 987.56 178.04 1071.17 638.19 988.42 847.45 915.21 538.35 394.75 582.25 685.67 857.70 813.94 770.44 1054.99 408.59 356.95 548.67 815.54 1239.61 947.40 1004.23 625.09 550.83 58.16 989.14 465.90 725.15 662.06 168.24 879.11 677.18 537.03 884.55 1005.26 1153.79 480.75 527.16 584.66 865.70 1115.69 643.94 662.02 0.00 831.73 370.18 217.68 930.10 1011.80 1082.74 767.07 655.87 728.02 868.25 830.81 815.55 689.66 808.78 657.90 422.11 511.24 855.01 1170.12 566.90 842.11 1146.11 390.91 464.68 908.73 579.65 105.61 455.37 1151.99 893.73 790.39 394.66 599.44 223.13 105.85 701.84 1075.47 561.77 555.75 1265.87 1272.18 769.49 231.94 426.94 869.43
857.08 205.12 712.35 660.17 903.91 351.91 575.52 222.22 617.09 407.88 971.23 974.14 294.45 479.72 965.33 616.82 267.05 665.74 212.27 209.88 635.00 774.87 738.71 547.59 940.81 278.09 575.89 528.54 514.47 836.62 463.01 572.18 757.80 224.26 935.29 503.04 765.57 202.23 776.32 849.44 207.52 744.38 491.79 798.73 311.43 894.88 860.61 826.71 656.96 656.62 521.73 477.58 894.63 560.39 539.01 143.59 884.17 580.49 614.34 885.04 518.23 700.54 727.66 612.05 553.97 824.03 820.18 194.53 461.67 153.19 905.17 799.98 54.18 380.86 437.30 565.92 748.19 645.42 420.33 815.91 630.86 248.22 410.98 390.37 717.61 831.73 0.00 546.30 675.65 1056.42 579.99 778.03 496.17 356.19 914.18 1058.73 1048.34 340.95 323.13 478.88 299.09 812.68 802.61 672.50 610.44 295.64 191.83 586.21 593.96 474.34 1034.26 582.54 820.58 790.84 671.10 746.08 883.77 699.15 915.12 780.26 786.42 129.89 588.74 625.62 325.95 758.65 750.33 938.77 780.60 817.08 988.60
379.46 566.58 892.66 828.25 625.53 212.52 78.36 335.17 606.71 263.02 687.54 642.46 305.07 429.31 714.77 802.18 348.54 227.34 604.01 582.74 154.71 286.34 373.06 412.58 615.73 696.37 440.88 220.41 463.50 535.17 691.48 325.93 361.79 674.68 612.10 675.58 362.02 482.33 397.78 376.01 574.30 414.47 683.04 336.49 732.67 532.32 730.63 609.64 561.52 246.72 24.57 225.55 534.63 560.74 535.57 503.14 835.63 160.85 118.62 483.14 518.58 869.43 714.82 707.31 363.30 471.81 354.94 651.39 95.72 393.11 588.28 276.83 600.48 322.93 199.95 591.61 796.32 783.97 167.54 459.21 346.37 570.52 755.71 273.76 448.74 370.18 546.30 0.00 152.50 775.50 722.14 811.94 410.37 314.71 585.53 815.09 742.17 494.90 325.68 460.05 359.09 332.34 392.34 622.43 848.88 299.60 471.93 835.27 133.12 94.50 780.00 325.31 332.05 339.12 850.13 651.98 642.67 226.07 508.73 306.64 297.89 434.54 765.30 349.68 288.45 950.45 930.48 618.45 310.02 457.75 734.74
243.03 709.69 1045.16 980.75 614.94 323.74 142.27 487.67 725.18 415.52 737.80 645.70 410.63 581.81 717.55 954.68 495.98 230.12 715.23 698.26 129.93 165.91 420.65 481.89 612.72 848.87 510.19 299.46 558.49 508.18 802.70 478.43 471.31 825.15 610.10 828.08 210.24 634.83 410.85 258.49 726.80 445.50 826.20 234.38 885.17 492.57 805.04 719.16 705.51 356.24 177.07 378.05 566.19 668.48 630.56 614.36 910.04 304.54 141.31 494.66 657.14 1021.93 808.38 823.06 429.57 545.32 225.87 803.89 248.22 539.18 576.73 124.33 723.03 475.43 352.45 698.21 787.58 936.47 263.07 474.01 425.42 716.79 908.21 426.26 520.78 217.68 675.65 152.50 0.00 800.58 874.64 900.24 562.87 467.21 583.27 818.90 745.48 647.40 478.18 612.55 493.27 388.83 415.03 715.99 986.74 410.82 624.43 970.69 207.53 247.00 778.42 379.80 186.96 401.05 1002.63 726.39 665.36 281.03 505.01 186.58 154.36 545.76 892.09 448.08 392.44 1102.95 1059.34 650.01 266.11 450.11 744.42
914.37 872.51 822.27 798.41 255.36 789.52 752.99 880.84 592.57 935.78 161.90 211.51 819.98 663.94 107.27 897.09 921.36 594.70 946.56 902.61 881.07 857.06 458.93 533.43 223.98 1034.31 509.92 591.02 619.27 312.93 817.90 592.62 463.50 1055.47 272.95 782.85 734.64 1091.07 452.17 644.38 1078.11 417.52 789.12 768.08 913.93 308.01 325.34 229.71 527.15 555.44 750.93 645.17 267.53 604.20 618.72 995.13 340.21 936.35 696.70 474.96 631.81 848.14 495.72 570.89 613.94 397.76 887.96 1189.91 790.46 935.94 282.71 803.29 1103.80 708.27 849.99 628.20 470.50 752.82 779.02 482.83 546.86 1086.29 970.45 742.52 461.37 930.10 1056.42 775.50 800.58 0.00 761.05 571.63 631.20 934.79 249.49 61.85 113.96 762.20 733.29 598.75 787.49 517.61 447.99 467.11 817.73 781.38 1080.67 841.96 642.38 773.84 22.16 531.89 865.92 504.68 820.29 535.25 172.65 615.65 403.82 871.06 848.56 926.53 815.64 520.32 793.61 902.53 864.98 198.61 707.78 553.26 76.69
1009.02 415.60 250.60 190.76 743.16 607.37 761.05 685.84 190.27 737.70 599.15 808.55 562.94 384.01 713.72 142.44 668.73 705.42 367.72 450.35 841.50 937.12 679.69 468.90 810.52 386.27 469.12 640.55 331.85 764.80 159.80 444.85 602.34 467.52 820.64 93.93 876.09 675.19 721.40 916.11 661.71 701.86 155.50 960.10 285.54 719.84 524.03 591.65 343.54 643.63 733.65 518.07 743.17 246.97 259.78 551.03 458.00 837.11 749.03 852.64 249.59 265.42 330.12 190.16 545.02 795.01 953.64 679.96 688.15 615.78 809.13 843.56 599.34 464.06 664.33 251.08 322.02 162.26 650.98 824.30 607.81 766.02 262.57 513.23 638.28 1011.80 579.99 722.14 874.64 761.05 0.00 331.55 333.25 758.72 711.49 726.70 768.80 390.29 492.71 340.46 546.91 764.53 746.85 354.25 174.41 605.31 667.43 164.98 682.81 627.64 738.89 535.65 906.19 731.27 177.21 335.01 648.71 756.33 820.10 964.00 948.67 603.61 86.38 595.01 531.44 304.13 292.99 761.06 931.96 852.34 743.05
1074.03 572.91 433.29 381.11 572.29 752.98 820.13 797.15 352.31 856.16 434.28 626.37 675.81 448.25 528.56 367.06 798.39 795.99 694.01 646.33 891.50 1004.48 661.36 446.27 581.16 603.36 417.97 657.41 389.27 613.40 403.07 486.01 584.01 740.95 630.13 391.83 918.20 857.22 683.41 885.25 904.98 689.78 431.85 964.75 583.44 616.48 270.84 420.78 250.42 612.93 816.42 627.22 555.39 346.99 317.20 823.70 231.42 934.67 774.09 752.88 364.53 434.54 142.34 222.69 538.53 661.83 1024.58 935.39 801.17 728.81 653.78 1024.57 803.24 576.37 765.39 291.50 112.66 260.80 709.64 709.00 556.66 966.21 576.91 608.52 527.62 1082.74 778.03 811.94 900.24 571.63 331.55 0.00 456.75 830.44 560.94 561.83 603.93 530.37 598.58 397.88 645.18 677.27 631.55 234.73 325.71 697.69 867.62 307.15 707.87 717.44 549.47 599.13 984.13 710.53 361.71 189.01 477.84 745.08 717.06 1005.16 1016.03 755.10 359.41 583.20 683.42 356.05 430.56 590.19 867.44 752.73 561.37
764.29 291.05 536.64 472.23 491.34 319.59 476.44 398.95 245.63 455.51 558.66 601.04 275.16 52.67 523.93 475.69 388.35 471.82 345.93 322.51 508.25 696.71 352.83 155.01 570.59 486.57 163.32 339.26 80.64 540.26 321.86 111.60 365.22 469.64 526.59 389.28 642.49 546.32 388.15 582.86 562.38 394.24 350.12 722.84 498.39 482.00 444.28 533.38 267.79 358.28 431.34 184.82 489.49 188.93 139.55 438.16 549.28 519.42 470.99 544.99 146.77 562.51 386.04 335.50 223.64 481.12 708.91 674.18 354.90 358.48 571.29 687.20 535.03 130.81 421.03 219.80 452.51 495.51 317.73 499.04 288.30 558.45 517.09 179.98 334.67 767.07 496.17 410.37 562.87 631.20 333.25 456.75 0.00 459.29 531.34 637.19 638.45 249.50 188.54 86.05 242.74 434.54 440.01 295.98 501.53 317.53 535.92 477.34 404.77 343.03 626.00 284.95 702.38 467.80 494.11 332.42 527.26 492.03 486.85 630.75 696.94 369.56 406.88 261.76 243.66 616.90 574.46 550.63 624.71 544.89 578.71
654.69 461.78 906.48 854.30 793.70 237.69 353.42 170.70 633.37 51.69 863.28 836.93 207.92 462.45 896.38 786.29 111.62 516.89 465.84 406.67 432.09 561.57 603.93 524.47 844.64 585.34 505.05 429.87 461.83 788.06 604.00 480.45 615.77 511.04 795.67 671.42 575.55 270.58 606.37 662.12 327.07 571.72 632.78 628.51 667.61 729.80 886.96 774.33 694.83 534.70 339.28 377.90 763.65 598.26 513.24 266.67 970.89 263.66 409.71 698.84 560.48 906.00 753.41 719.66 405.36 693.20 622.05 403.46 253.95 225.48 819.09 511.97 396.96 349.63 180.22 604.06 834.91 802.04 234.40 701.69 517.68 379.57 710.66 316.81 541.82 655.87 356.19 314.71 467.21 934.79 758.72 830.44 459.29 0.00 753.70 940.46 964.57 402.06 270.75 471.45 266.66 630.07 629.95 661.02 797.66 153.41 280.98 780.34 420.13 280.55 956.95 487.41 574.60 597.05 876.18 735.22 814.82 514.58 750.28 449.24 566.52 226.30 743.53 493.10 227.28 947.98 930.27 834.55 612.47 705.06 926.50
702.67 738.79 775.08 771.83 40.00 626.61 512.52 752.98 521.22 805.39 186.89 126.85 629.19 519.63 188.09 777.06 798.85 443.55 812.89 771.53 661.45 698.77 217.82 396.32 99.03 892.72 368.02 444.28 460.65 108.91 689.77 482.97 295.17 932.41 128.37 711.50 549.46 935.18 241.03 482.76 933.67 259.23 660.99 595.83 845.99 122.83 323.82 140.16 367.95 338.81 566.31 500.73 50.90 464.52 532.72 808.38 382.54 746.38 508.03 283.71 506.68 800.95 418.60 541.65 423.10 185.74 715.71 990.88 652.79 795.34 171.65 618.11 933.12 567.67 679.40 500.07 500.10 663.27 570.83 295.70 318.32 1014.49 835.46 596.04 211.88 728.02 914.18 585.53 583.27 249.49 711.49 560.94 531.34 753.70 0.00 275.47 220.08 691.01 609.73 527.56 663.93 305.91 262.81 377.56 692.92 671.56 924.78 717.15 510.96 557.31 252.27 361.30 680.74 322.00 764.18 445.70 116.08 394.92 212.57 719.91 697.41 793.75 728.05 312.13 597.69 855.34 804.10 80.85 496.08 349.24 172.80
893.60 881.89 800.97 736.56 261.35 816.09 755.30 942.69 579.00 938.09 127.55 229.83 827.90 666.25 113.26 869.14 927.35 600.69 959.51 922.45 897.57 863.03 493.29 539.42 242.30 1053.65 522.89 622.96 621.58 342.81 810.62 598.61 469.49 1074.25 240.89 769.28 752.96 1093.38 491.22 662.70 1116.21 479.37 781.84 720.19 955.25 326.33 290.99 232.02 492.80 568.37 797.35 683.27 285.85 589.37 624.71 997.44 358.53 975.94 699.01 494.07 631.53 826.84 484.90 536.54 585.47 415.40 840.07 1198.35 812.72 920.24 301.82 821.61 1081.27 714.26 880.97 620.92 494.51 755.13 785.52 505.09 553.36 1104.61 956.88 757.84 487.35 868.25 1058.73 815.09 818.90 61.85 726.70 561.83 637.19 940.46 275.47 0.00 133.07 783.91 735.60 660.60 789.80 556.57 466.31 459.83 815.47 843.23 1082.98 810.52 704.23 805.78 40.48 563.83 854.56 563.69 758.44 512.45 174.96 633.97 422.93 877.05 851.48 928.84 813.08 526.82 796.40 881.23 838.79 220.87 746.74 583.14 108.63
856.16 867.52 896.61 869.63 180.08 773.34 723.91 931.95 678.79 959.34 169.65 127.64 803.03 691.12 162.37 880.28 945.58 585.91 984.38 911.61 828.09 832.39 434.26 536.40 188.14 1038.19 508.10 574.07 651.75 237.30 824.96 605.49 450.48 1072.49 203.73 852.89 672.22 1109.58 427.50 560.51 1089.79 392.85 796.18 727.10 906.36 258.04 333.09 262.19 534.90 495.45 724.43 656.85 207.54 622.09 673.82 982.78 414.55 903.02 667.62 361.00 664.25 922.48 478.77 578.64 572.31 342.38 839.33 1165.28 781.26 938.91 168.75 753.32 1073.20 711.24 833.04 635.26 550.53 785.30 736.79 397.58 459.99 1160.53 989.88 748.65 431.96 830.81 1048.34 742.17 745.48 113.96 768.80 603.93 638.45 964.57 220.08 133.07 0.00 814.08 765.77 691.24 819.97 472.81 393.90 474.17 796.14 850.53 1099.18 820.37 639.35 719.11 103.71 514.94 812.82 459.47 858.47 548.37 205.13 561.56 289.86 862.27 839.77 918.45 855.18 486.53 776.66 950.34 939.32 189.41 662.98 477.63 59.74
840.90 135.83 515.05 534.38 662.28 335.73 571.12 295.55 325.37 439.99 697.80 784.71 261.05 242.16 690.51 436.53 314.86 576.75 184.36 225.30 592.60 781.24 578.43 305.96 746.50 325.00 334.26 429.43 230.36 716.98 254.24 329.22 516.17 293.27 697.53 296.36 718.58 417.33 616.57 750.33 468.21 597.40 260.59 806.99 327.69 687.89 586.89 551.89 396.01 496.64 517.33 271.87 714.30 325.87 213.17 293.33 691.89 546.01 558.34 735.41 285.86 533.81 505.31 466.44 380.89 632.07 795.96 520.16 409.54 247.35 777.18 717.37 379.81 187.75 390.31 303.99 586.81 500.16 394.88 676.04 442.46 466.81 427.24 221.14 494.20 815.55 340.95 494.90 647.40 762.20 390.29 530.37 249.50 402.06 691.01 783.91 814.08 0.00 179.58 163.45 177.70 663.95 648.49 412.92 473.72 248.65 406.93 484.46 545.40 455.53 759.44 425.54 759.32 645.10 543.75 487.12 608.95 577.76 723.16 754.42 769.79 224.73 424.34 415.92 292.55 595.31 620.88 701.58 761.10 758.79 759.93
705.14 255.74 635.73 583.55 625.07 209.84 391.54 217.35 362.62 311.49 649.49 699.34 131.14 241.21 642.20 569.50 199.81 397.17 357.72 297.53 413.02 612.02 467.67 268.75 661.13 425.75 297.05 275.53 267.61 606.22 433.82 266.10 436.93 405.63 612.16 475.94 567.84 357.78 468.91 571.65 446.86 434.26 440.17 649.67 498.53 592.00 620.79 503.58 451.18 385.88 337.75 161.11 655.08 374.16 281.38 261.84 700.14 394.48 378.76 585.04 335.31 636.98 482.66 516.52 241.35 533.82 673.22 510.86 229.96 220.19 674.77 602.41 370.51 93.91 293.46 372.20 564.16 577.45 240.98 569.94 307.73 432.33 557.01 67.24 397.85 689.66 323.13 325.68 478.18 733.29 492.71 598.58 188.54 270.75 609.73 735.60 765.77 179.58 0.00 200.70 54.20 534.35 492.49 390.27 533.82 167.45 347.38 509.59 405.06 275.95 711.13 301.98 649.32 521.42 605.43 464.47 560.64 448.08 620.59 574.84 601.71 193.24 579.09 334.27 133.91 703.40 673.71 623.74 581.52 579.21 711.62
807.60 273.76 531.00 466.59 553.43 389.81 524.12 418.05 161.92 503.47 614.76 654.41 323.12 78.71 592.13 473.61 400.51 514.41 347.81 303.86 594.30 714.48 438.88 203.96 626.59 440.62 225.41 322.20 66.91 582.70 291.32 197.65 379.78 456.72 588.68 331.11 657.02 558.07 474.20 643.10 510.77 480.29 269.54 730.38 454.54 524.44 454.40 494.36 263.52 420.37 484.62 270.87 575.54 173.46 80.68 456.78 559.40 595.18 484.09 621.87 153.37 542.76 349.35 315.82 249.03 518.53 782.88 622.57 430.66 410.80 613.73 682.53 517.74 208.56 485.44 171.50 430.85 431.11 403.78 573.10 321.94 601.69 458.22 257.73 381.45 808.78 478.88 460.05 612.55 598.75 340.46 397.88 86.05 471.45 527.56 660.60 691.24 163.45 200.70 0.00 254.90 520.59 526.06 256.96 458.95 368.15 548.08 434.72 417.87 390.71 620.91 331.08 745.16 508.71 488.47 331.02 513.53 543.37 572.90 716.80 726.03 388.18 400.51 347.81 313.88 611.26 568.82 599.58 686.85 629.78 664.51
683.25 216.42 689.93 637.75 667.27 178.08 395.54 163.15 416.82 292.70 703.69 747.63 112.35 229.08 696.40 614.23 222.23 450.97 303.52 243.33 446.43 603.64 519.44 310.95 709.42 371.55 339.25 318.56 288.06 657.99 431.94 280.86 491.13 351.43 660.45 474.06 583.18 342.33 523.11 625.85 399.92 488.46 438.29 653.67 444.33 646.20 674.99 557.78 505.24 437.65 341.75 212.88 709.28 428.36 327.98 215.53 754.34 410.61 432.96 630.42 386.71 691.18 536.86 570.72 295.55 588.02 663.60 466.25 263.37 165.99 726.54 617.60 346.47 136.11 254.91 418.80 618.36 552.45 230.20 586.54 361.93 411.28 517.69 115.53 452.05 657.90 299.09 359.09 493.27 787.49 546.91 645.18 242.74 266.66 663.93 789.80 819.97 177.70 54.20 254.90 0.00 567.23 509.09 444.47 588.02 113.25 331.93 563.79 411.86 300.51 765.33 350.27 639.70 575.62 653.36 518.67 614.84 400.06 646.53 606.43 592.09 169.20 583.29 388.47 115.97 757.60 727.91 677.94 606.77 630.27 765.82
396.76 708.22 956.58 906.34 326.81 471.95 281.61 616.50 605.52 583.34 464.38 365.30 525.01 487.21 463.26 844.10 619.19 185.00 780.47 757.05 405.16 432.76 133.38 372.40 352.22 896.92 362.27 290.92 475.06 280.99 756.40 448.52 162.19 904.18 363.16 794.87 246.04 794.67 65.44 207.98 825.02 100.09 740.64 289.92 833.35 230.24 621.60 430.63 535.53 167.31 307.77 392.08 308.17 548.82 547.13 727.48 632.88 493.19 247.52 150.80 573.71 971.36 620.76 692.46 352.97 178.44 409.80 890.75 415.56 676.31 305.32 348.75 860.06 508.71 467.90 617.74 633.54 826.20 430.47 136.57 269.55 859.97 920.07 489.43 265.97 422.11 812.68 332.34 388.83 517.61 764.53 677.27 434.54 630.07 305.91 556.57 472.81 663.95 534.35 520.59 567.23 0.00 90.26 528.37 842.66 517.04 791.77 866.89 238.97 349.52 516.09 270.92 402.15 33.26 897.43 602.57 381.70 167.17 184.21 461.36 421.21 682.79 799.02 266.09 493.51 1005.79 1004.64 386.76 190.17 125.41 478.71
487.02 685.00 926.46 874.49 269.33 473.34 330.01 605.96 569.82 587.97 449.70 323.44 508.16 492.68 417.42 830.52 645.39 192.01 785.94 752.42 434.19 457.42 99.64 342.53 301.89 880.64 370.83 274.07 476.91 198.24 761.87 429.18 164.04 860.52 282.95 760.10 286.65 814.90 51.86 298.24 839.14 58.23 749.20 333.20 806.97 139.98 586.63 389.16 566.15 209.65 369.16 406.20 242.63 536.95 548.98 710.63 611.87 553.19 273.72 121.33 575.56 952.33 628.07 691.53 350.68 174.91 453.08 831.14 428.29 675.08 229.27 411.81 849.99 495.25 532.52 619.59 635.39 792.46 426.31 77.45 255.97 893.46 906.52 482.36 253.94 511.24 802.61 392.34 415.03 447.99 746.85 631.55 440.01 629.95 262.81 466.31 393.90 648.49 492.49 526.06 509.09 90.26 0.00 581.37 803.08 550.53 804.50 827.31 327.13 413.72 425.83 285.91 467.57 97.38 885.40 560.81 363.78 167.66 137.44 468.37 445.87 672.72 762.24 239.71 476.66 987.60 965.06 326.45 280.43 121.18 434.48
852.23 524.69 504.99 444.78 388.91 543.33 630.97 607.62 204.62 682.23 383.31 483.30 501.88 274.32 376.02 496.69 590.08 611.13 545.25 462.62 705.99 795.11 494.68 257.02 476.59 625.94 232.46 455.75 215.34 486.47 350.79 296.50 417.33 623.50 482.02 383.58 774.41 748.05 533.90 714.55 717.98 523.14 322.01 806.61 507.01 479.61 230.52 237.40 60.91 427.42 617.88 441.41 428.46 147.92 199.75 652.11 309.87 731.73 574.68 570.34 190.08 501.44 92.39 164.09 353.02 555.88 796.85 779.20 567.21 539.45 489.33 812.03 638.85 426.79 624.11 161.09 173.89 367.45 474.91 571.18 329.79 822.60 528.42 457.51 356.60 855.01 672.50 622.43 715.99 467.11 354.25 234.73 295.98 661.02 377.56 459.83 474.17 412.92 390.27 256.96 444.47 528.37 581.37 0.00 432.36 523.76 737.65 449.40 566.30 527.93 444.95 407.54 749.40 495.11 422.90 74.20 294.46 571.11 499.20 815.65 797.01 583.51 415.43 356.33 509.49 554.83 480.32 406.81 718.54 616.18 438.90
1168.94 405.32 143.32 78.91 732.92 713.91 891.47 687.64 364.68 839.38 718.53 819.77 659.03 448.86 726.64 84.14 732.88 810.63 493.01 500.45 946.84 1075.82 757.73 527.71 791.95 470.65 556.01 732.62 428.25 801.83 234.95 578.28 680.47 506.31 821.29 203.57 981.30 689.63 779.50 1028.84 706.75 744.85 213.13 1069.71 338.82 815.75 596.37 588.02 402.93 742.73 848.81 652.62 743.82 346.07 378.27 639.96 507.52 928.30 845.43 895.63 354.80 151.62 449.50 309.54 642.58 853.82 1128.05 733.69 763.78 619.02 839.95 1017.97 617.39 563.39 783.62 347.31 377.08 64.91 748.86 880.53 681.30 798.62 293.99 575.12 727.36 1170.12 610.44 848.88 986.74 817.73 174.41 325.71 501.53 797.66 692.92 815.47 796.14 473.72 533.82 458.95 588.02 842.66 803.08 432.36 0.00 701.27 700.03 24.23 779.21 802.05 795.57 634.75 1080.60 809.40 100.79 430.39 645.08 861.54 905.49 1086.91 1064.49 571.36 94.65 676.72 662.95 216.17 161.98 757.43 1007.13 893.37 796.06
592.25 329.67 763.70 751.00 684.43 87.08 342.92 99.46 502.78 205.10 742.72 757.51 62.04 309.04 797.22 675.47 158.54 433.33 347.37 287.44 386.94 564.74 486.63 371.06 729.53 466.11 399.36 276.46 308.42 669.60 502.89 369.40 512.30 448.32 708.32 531.89 469.93 355.20 526.95 585.30 377.23 492.30 509.24 558.34 533.45 650.38 754.21 671.03 545.80 404.54 298.47 224.49 684.75 449.23 380.49 234.35 833.09 297.36 349.51 604.80 407.07 759.07 616.15 595.80 301.89 624.76 624.70 422.24 203.88 169.80 738.15 535.15 343.02 196.22 141.66 451.10 697.65 656.16 155.50 551.08 402.42 342.93 557.25 163.40 465.53 566.90 295.64 299.60 410.82 781.38 605.31 697.69 317.53 153.41 671.56 843.23 850.53 248.65 167.45 368.15 113.25 517.04 550.53 523.76 701.27 0.00 347.00 677.04 349.09 209.51 803.54 350.13 597.78 526.01 757.07 597.96 728.09 448.03 672.77 515.43 553.19 165.75 642.02 406.46 73.87 837.16 841.16 752.41 515.77 551.65 790.79
843.07 294.71 801.94 749.76 920.90 378.77 537.79 247.54 600.57 332.67 996.87 1034.01 346.76 561.01 989.58 734.89 206.53 671.89 315.57 342.97 559.27 749.95 763.13 608.93 993.12 442.88 637.23 552.96 590.23 923.12 552.60 608.61 747.23 367.57 959.54 573.50 791.37 10.40 801.64 835.59 102.37 768.80 581.38 777.47 503.26 907.05 912.92 850.96 704.89 681.04 484.00 502.00 968.95 657.27 618.03 116.40 1016.10 435.66 578.20 911.90 636.61 803.19 817.25 777.17 578.39 865.28 817.50 179.46 376.21 206.42 991.67 748.66 218.97 434.09 396.79 661.38 881.28 764.94 447.19 842.77 639.19 98.59 580.31 414.62 712.90 842.11 191.83 471.93 624.43 1080.67 667.43 867.62 535.92 280.98 924.78 1082.98 1099.18 406.93 347.38 548.08 331.93 791.77 804.50 737.65 700.03 347.00 0.00 675.80 592.55 479.58 1058.51 590.73 770.05 771.81 771.64 807.45 908.02 636.84 898.93 674.86 747.96 182.20 676.93 612.65 350.37 869.61 839.92 968.06 780.96 812.29 1040.91
1144.93 381.09 126.14 73.96 757.15 709.18 875.42 672.17 355.25 821.08 694.30 844.00 640.73 432.81 750.87 59.91 709.40 786.40 468.78 481.02 922.61 1051.81 781.96 511.66 816.18 487.74 539.96 708.39 412.20 826.06 230.22 562.23 704.70 530.54 845.52 201.12 957.07 665.40 803.73 1014.01 690.70 769.08 237.36 1045.48 355.91 800.82 577.99 612.25 418.41 718.50 824.58 636.57 768.05 321.84 354.04 652.93 531.75 904.07 829.38 919.86 330.57 127.39 425.27 285.31 618.35 837.77 1111.77 709.46 739.55 643.25 864.18 1008.54 625.07 539.16 759.39 348.17 401.31 89.14 749.29 881.74 665.25 774.39 269.76 576.83 711.31 1146.11 586.21 835.27 970.69 841.96 164.98 307.15 477.34 780.34 717.15 810.52 820.37 484.46 509.59 434.72 563.79 866.89 827.31 449.40 24.23 677.04 675.80 0.00 763.16 785.54 819.80 610.52 1071.17 833.63 95.84 406.16 669.31 837.31 922.16 1062.76 1040.26 595.59 78.60 660.67 643.50 193.81 164.12 781.66 991.08 917.60 820.29
389.73 628.28 848.78 837.12 545.63 262.01 112.26 428.52 548.47 396.14 666.15 539.57 299.51 406.76 648.17 821.21 413.99 174.94 653.50 581.02 238.69 296.61 327.30 349.38 506.59 741.45 349.59 129.53 350.96 402.05 662.38 308.81 322.14 741.90 503.97 694.19 307.24 602.95 304.41 323.61 694.92 339.06 633.60 367.31 760.73 460.31 597.51 571.76 544.40 225.33 108.55 273.53 460.06 491.77 423.03 532.67 702.51 293.97 66.22 389.77 449.61 874.65 604.40 638.34 272.42 417.41 365.01 651.78 216.34 477.09 470.60 331.86 641.34 386.99 320.57 493.64 685.90 776.04 215.10 375.54 250.42 691.14 800.57 337.82 315.62 390.91 593.96 133.12 207.53 642.38 682.81 707.87 404.77 420.13 510.96 704.23 639.35 545.40 405.06 417.87 411.86 238.97 327.13 566.30 779.21 349.09 592.55 763.16 0.00 139.58 664.54 227.94 342.32 272.23 836.95 518.86 590.27 159.47 423.18 361.80 308.16 464.07 684.56 276.96 331.01 929.04 920.32 543.88 268.98 364.38 638.29
473.96 516.93 836.91 772.50 597.31 122.43 133.41 294.63 536.42 261.95 715.31 668.87 210.57 389.60 716.78 745.21 274.41 248.72 513.92 496.95 236.15 380.84 428.11 318.08 643.50 601.87 346.38 221.92 381.46 541.63 601.39 231.43 388.32 637.63 639.76 656.83 311.79 489.98 373.10 397.39 572.40 403.66 630.17 400.20 727.32 553.70 702.00 580.46 467.02 274.49 106.01 202.35 562.40 479.72 453.53 413.05 779.86 255.35 140.00 500.32 466.68 844.51 620.32 634.30 269.19 485.21 438.79 631.75 103.37 342.76 607.22 371.33 521.72 272.53 207.60 497.95 701.82 759.05 80.95 443.40 259.12 552.44 738.39 248.84 385.91 464.68 474.34 94.50 247.00 773.84 627.64 717.44 343.03 280.55 557.31 805.78 719.11 455.53 275.95 390.71 300.51 349.52 413.72 527.93 802.05 209.51 479.58 785.54 139.58 0.00 776.62 241.95 426.55 316.50 794.38 602.13 637.52 281.74 486.11 382.95 392.39 344.45 714.02 285.66 198.36 906.90 874.73 638.16 342.76 437.57 697.15
912.85 870.70 800.11 777.04 244.94 791.62 730.83 903.00 614.73 913.62 139.74 189.35 822.76 641.78 102.07 874.93 910.94 589.50 935.04 907.57 860.02 854.91 465.67 528.23 201.82 1029.18 532.08 593.80 597.11 303.38 795.74 587.42 458.30 1052.71 250.79 805.01 712.48 1068.91 466.75 622.22 1091.74 439.68 766.96 759.03 926.09 285.85 303.18 207.55 504.99 533.28 762.26 658.80 245.37 592.87 613.52 972.97 318.05 936.76 674.54 464.71 609.65 825.98 485.99 548.73 597.43 375.60 878.91 1181.10 772.24 930.74 272.46 781.13 1081.64 703.07 852.77 606.04 454.03 730.66 761.05 464.61 528.89 1064.13 972.50 746.65 464.15 908.73 1034.26 780.00 778.42 22.16 738.89 549.47 626.00 956.95 252.27 40.48 103.71 759.44 711.13 620.91 765.33 516.09 425.83 444.95 795.57 803.54 1058.51 819.80 664.54 776.62 0.00 534.67 843.76 523.21 798.92 513.09 150.49 593.49 393.57 855.55 843.36 904.37 802.65 502.35 796.39 880.37 842.82 180.39 706.26 543.71 79.47
605.00 527.56 710.61 646.20 401.30 304.17 323.25 433.67 345.38 446.63 509.97 488.15 288.09 269.63 480.69 640.49 476.41 268.17 562.89 497.60 430.25 524.55 269.09 196.75 452.24 676.27 181.16 104.90 328.61 379.73 564.66 194.09 191.81 658.48 403.27 535.66 438.84 601.13 262.33 425.80 628.08 227.68 535.88 487.17 636.52 343.57 460.05 364.06 385.25 107.98 324.94 195.14 395.89 288.68 367.29 521.25 565.05 456.01 294.16 378.46 330.84 736.48 499.93 443.26 82.05 303.84 563.97 739.88 291.49 465.46 432.86 453.89 629.92 237.79 318.10 374.96 581.09 613.10 302.93 363.36 77.75 689.32 723.26 234.74 149.42 579.65 582.54 325.31 379.80 531.89 535.65 599.13 284.95 487.41 361.30 563.83 514.94 425.54 301.98 331.08 350.27 270.92 285.91 407.54 634.75 350.13 590.73 610.52 227.94 241.95 534.67 0.00 516.52 275.80 661.72 474.37 399.13 251.67 351.23 544.53 522.03 452.65 622.03 69.26 307.49 790.87 748.43 442.15 434.70 396.33 455.20
102.83 821.12 1156.79 1096.95 687.26 510.70 316.82 658.81 856.16 522.91 861.30 720.34 576.85 739.12 788.90 1048.63 620.65 301.47 902.19 831.38 236.30 45.71 491.72 668.63 716.20 959.34 640.33 471.85 693.28 616.17 989.66 640.55 560.44 969.20 669.79 1000.12 187.79 759.65 467.59 287.47 872.42 485.25 975.92 134.37 1064.72 557.91 939.83 807.09 810.31 445.37 356.62 536.46 660.56 799.46 765.35 759.29 1029.80 360.00 294.01 451.82 757.30 1171.61 841.79 913.49 528.51 555.16 47.45 928.71 419.36 714.44 644.07 62.63 867.96 571.57 514.74 830.33 923.29 1068.45 450.03 507.20 567.95 823.16 1057.45 605.69 591.95 105.61 820.58 332.05 186.96 865.92 906.19 984.13 702.38 574.60 680.74 854.56 812.82 759.32 649.32 745.16 639.70 402.15 467.57 749.40 1080.60 597.78 770.05 1071.17 342.32 426.55 843.76 516.52 0.00 435.41 1083.40 823.60 768.22 352.38 522.96 164.89 47.61 690.69 992.57 548.33 579.40 1210.32 1199.18 744.38 211.98 406.98 825.76
430.02 681.61 936.42 886.05 360.07 438.93 314.87 611.13 598.75 578.45 497.64 352.37 527.07 500.78 462.24 859.63 590.91 188.07 794.04 730.09 438.42 453.48 128.57 339.14 352.27 873.87 347.49 295.90 441.80 247.73 743.14 424.69 128.93 890.97 329.90 775.93 279.30 761.41 80.97 219.44 810.14 87.16 714.36 323.18 830.77 237.36 597.77 397.37 502.27 167.82 341.03 377.20 305.74 564.48 513.87 729.55 648.41 499.97 280.78 184.06 540.45 942.80 587.50 659.20 333.79 211.53 443.06 921.94 419.87 659.26 290.72 382.01 838.22 513.07 501.16 584.48 600.28 821.39 397.45 126.90 258.13 868.94 891.41 469.11 232.71 455.37 790.84 339.12 401.05 504.68 731.27 710.53 467.80 597.05 322.00 563.69 459.47 645.10 521.42 508.71 575.62 33.26 97.38 495.11 809.40 526.01 771.81 833.63 272.23 316.50 523.21 275.80 435.41 0.00 864.17 569.31 397.23 200.43 169.61 464.43 441.93 660.95 772.20 263.51 498.49 1014.76 971.38 389.56 223.43 121.07 483.97
1150.81 476.93 82.09 21.88 775.53 768.93 924.89 760.85 326.55 875.38 720.54 854.99 695.03 506.60 762.64 155.75 804.37 844.30 544.93 531.86 987.88 1057.69 793.73 585.45 863.21 534.59 605.40 766.62 485.99 796.50 314.81 562.95 735.24 607.10 863.12 247.39 1014.97 761.24 839.02 1035.07 764.49 835.14 308.96 1103.38 402.76 825.61 584.64 624.02 469.61 769.70 871.10 624.58 815.08 373.04 436.99 704.49 557.34 986.49 903.17 910.35 414.69 107.96 451.51 311.55 674.99 876.88 1117.65 757.27 821.97 690.51 865.05 1020.77 616.92 624.92 841.54 383.31 421.36 100.91 784.86 841.22 739.04 870.23 365.60 611.12 631.46 1151.99 671.10 850.13 1002.63 820.29 177.21 361.71 494.11 876.18 764.18 758.44 858.47 543.75 605.43 488.47 653.36 897.43 885.40 422.90 100.79 757.07 771.64 95.84 836.95 794.38 798.92 661.72 1083.40 864.17 0.00 456.40 681.08 895.21 922.10 1082.10 1046.14 669.62 152.39 730.98 698.95 162.35 120.19 793.43 1064.87 929.37 798.73
890.95 569.75 511.95 478.28 438.74 586.78 631.12 681.82 206.88 756.43 384.90 521.89 576.08 348.52 444.16 437.30 664.28 663.04 619.45 536.82 757.55 815.47 486.57 331.22 491.44 663.71 306.66 529.95 289.54 468.35 406.97 370.70 479.05 697.70 487.81 397.16 822.18 817.85 554.51 788.75 755.75 527.98 378.19 797.17 563.19 512.99 221.46 305.54 135.11 501.62 627.41 442.43 410.34 185.69 273.95 691.05 292.53 805.93 585.08 643.15 227.85 510.19 85.54 144.85 427.22 545.18 835.57 853.40 641.41 613.65 536.90 850.72 713.05 435.25 673.71 217.27 167.04 419.32 549.11 638.26 403.99 876.72 584.76 484.42 375.27 893.73 746.08 651.98 726.39 535.25 335.01 189.01 332.42 735.22 445.70 512.45 548.37 487.12 464.47 331.02 518.67 602.57 560.81 74.20 430.39 597.96 807.45 406.16 518.86 602.13 513.09 474.37 823.60 569.31 456.40 0.00 362.60 612.13 572.01 880.66 827.02 657.71 421.39 430.53 576.08 480.63 406.12 474.95 766.31 681.99 504.57
778.46 744.78 691.98 700.57 94.45 641.13 580.34 777.99 499.08 763.13 115.32 188.84 687.22 491.29 81.56 724.44 760.45 518.78 784.55 757.08 758.20 732.16 333.90 431.95 210.54 878.69 422.47 500.48 446.62 224.99 645.25 518.60 325.50 902.22 227.82 678.04 612.84 918.42 316.26 589.68 941.25 350.91 616.47 671.62 801.47 223.80 257.46 57.06 355.37 419.98 634.13 508.31 166.98 442.38 494.21 822.48 319.43 803.52 524.05 384.91 459.16 717.85 335.50 458.55 446.94 301.82 791.50 1030.61 690.62 780.83 266.63 719.08 931.15 606.79 706.01 455.55 412.44 580.17 610.56 388.55 378.40 992.97 822.88 605.66 313.80 790.39 883.77 642.67 665.36 172.65 648.71 477.84 527.26 814.82 116.08 174.96 205.13 608.95 560.64 513.53 614.84 381.70 363.78 294.46 645.08 728.09 908.02 669.31 590.27 637.52 150.49 399.13 768.22 397.23 681.08 362.60 0.00 502.12 313.77 795.14 720.61 753.88 652.16 351.86 659.94 772.24 768.72 131.03 571.87 465.32 150.98
391.88 616.48 932.96 873.33 434.92 360.95 166.70 500.08 597.05 462.89 581.81 483.72 422.20 487.34 538.34 863.65 513.41 50.91 703.58 643.39 266.53 316.32 177.10 366.95 438.07 771.61 338.65 221.17 504.00 365.90 745.80 380.43 251.22 751.49 423.16 771.25 221.58 647.24 185.86 226.48 739.21 218.51 717.02 265.15 813.91 307.64 665.32 506.61 590.57 143.69 201.50 338.79 399.13 540.35 551.96 615.59 753.30 386.92 141.74 288.99 506.74 958.83 662.71 609.57 305.21 264.29 336.50 811.25 260.63 548.68 396.93 346.74 746.53 463.06 364.86 579.77 722.57 862.17 292.53 242.21 273.19 735.43 896.45 413.89 346.90 394.66 699.15 226.07 281.03 615.65 756.33 745.08 492.03 514.58 394.92 633.97 561.56 577.76 448.08 543.37 400.06 167.17 167.66 571.11 861.54 448.03 636.84 837.31 159.47 281.74 593.49 251.67 352.38 200.43 895.21 612.13 502.12 0.00 305.10 327.27 304.77 569.26 800.01 246.65 421.90 1013.22 975.56 475.77 252.58 254.93 567.72
580.97 759.67 957.25 941.03 219.32 585.69 465.82 705.78 661.80 718.29 399.46 226.93 636.26 539.52 339.71 904.88 692.40 329.45 832.78 809.36 571.63 568.40 219.62 417.20 193.24 973.42 408.26 402.17 554.25 138.78 722.59 503.85 242.26 956.49 239.14 790.01 424.09 909.33 151.68 334.90 959.12 186.33 751.37 470.64 910.98 121.34 536.39 352.73 560.11 304.24 491.98 526.18 161.67 605.10 621.57 838.73 561.86 669.58 411.16 71.14 591.59 983.12 574.72 663.29 429.50 91.09 561.65 968.58 565.73 776.12 121.11 532.96 962.50 572.12 652.11 604.66 625.16 866.65 563.75 121.69 317.18 997.52 939.58 585.97 315.49 599.44 915.12 508.73 505.01 403.82 820.10 717.06 486.85 750.28 212.57 422.93 289.86 723.16 620.59 572.90 646.53 184.21 137.44 499.20 905.49 672.77 898.93 922.16 423.18 486.11 393.57 351.23 522.96 169.61 922.10 572.01 313.77 305.10 0.00 605.81 570.57 785.23 850.26 343.72 604.76 1037.51 978.13 245.49 374.38 197.49 349.60
221.95 801.92 1124.63 1060.22 737.70 428.35 249.54 587.66 800.41 500.93 878.36 778.74 505.70 677.32 763.79 1070.33 560.86 276.36 819.84 802.87 165.15 128.83 504.37 605.80 734.93 888.19 634.10 485.90 669.18 666.61 907.31 519.15 578.08 888.54 750.43 933.08 254.94 664.46 478.88 388.66 776.31 513.53 900.52 196.73 1015.49 608.35 959.31 825.33 754.74 463.01 282.07 528.59 711.00 767.44 741.25 715.91 1046.32 239.20 305.83 540.90 732.19 1137.58 908.04 914.67 541.74 583.87 188.79 833.52 348.21 650.61 697.64 214.85 827.64 591.08 411.98 739.60 974.16 1022.00 422.64 520.25 557.07 708.73 1013.21 541.91 629.78 223.13 780.26 306.64 186.58 871.06 964.00 1005.16 630.75 449.24 719.91 877.05 862.27 754.42 574.84 716.80 606.43 461.36 468.37 815.65 1086.91 515.43 674.86 1062.76 361.80 382.95 855.55 544.53 164.89 464.43 1082.10 880.66 795.14 327.27 605.81 0.00 117.28 650.37 1002.78 530.53 501.74 1204.89 1162.45 794.82 278.39 439.94 880.44
104.67 773.51 1128.23 1068.02 715.20 466.11 282.66 611.20 808.55 521.43 827.14 716.30 529.24 714.92 741.29 1077.68 573.04 253.86 857.60 835.42 188.69 11.55 481.87 636.25 712.43 911.73 635.47 437.69 659.12 622.79 945.07 614.08 555.58 943.52 717.40 969.84 205.92 751.10 456.38 327.53 850.33 451.09 941.76 131.29 1030.56 585.85 905.67 777.67 848.42 440.51 318.83 523.44 671.91 751.85 731.19 725.13 1010.67 325.84 295.67 499.43 709.69 1153.75 874.07 898.42 519.24 565.89 71.51 920.16 371.75 681.54 675.14 105.11 833.80 607.25 475.84 782.72 941.94 1065.12 417.43 482.68 533.79 775.55 1009.84 558.08 607.28 105.85 786.42 297.89 154.36 848.56 948.67 1016.03 696.94 566.52 697.41 851.48 839.77 769.79 601.71 726.03 592.09 421.21 445.87 797.01 1064.49 553.19 747.96 1040.26 308.16 392.39 843.36 522.03 47.61 441.93 1046.14 827.02 720.61 304.77 570.57 117.28 0.00 656.53 992.72 543.47 542.04 1208.49 1166.33 755.73 231.04 382.46 822.68
727.19 245.59 681.45 650.27 806.49 222.02 467.35 116.28 550.10 277.99 842.73 871.42 164.56 398.28 835.44 653.88 161.52 535.85 267.77 191.32 505.11 644.98 608.82 450.17 810.92 369.99 478.47 398.65 431.47 792.80 478.97 450.06 630.17 347.35 805.40 521.09 635.68 192.60 649.14 719.55 253.62 614.49 485.32 693.20 441.32 772.57 730.72 696.82 620.74 526.73 416.20 347.69 814.64 550.60 437.90 68.60 835.72 463.11 484.45 755.15 510.59 707.32 675.90 691.17 424.08 694.14 713.58 317.62 338.82 47.66 861.35 670.09 177.27 275.33 307.41 528.72 729.63 616.89 290.44 686.02 500.97 242.08 540.87 260.48 587.72 701.84 129.89 434.54 545.76 926.53 603.61 755.10 369.56 226.30 793.75 928.84 918.45 224.73 193.24 388.18 169.20 682.79 672.72 583.51 571.36 165.75 182.20 595.59 464.07 344.45 904.37 452.65 690.69 660.95 669.62 657.71 753.88 569.26 785.23 650.37 656.53 0.00 517.23 495.73 196.06 761.71 733.34 816.98 650.71 687.19 858.71
1074.29 450.42 164.22 152.56 746.61 665.31 796.82 633.51 276.65 795.22 685.53 841.00 620.14 354.21 733.72 136.65 678.75 749.34 454.10 504.25 852.64 981.17 720.62 433.06 827.08 409.14 461.36 652.91 333.60 811.15 192.53 483.63 643.27 546.73 824.63 180.31 920.01 687.33 738.66 955.75 612.10 704.01 163.75 1008.42 277.31 752.89 600.23 595.10 360.10 656.32 777.37 557.97 778.95 333.35 344.26 585.83 495.23 834.10 750.78 854.79 335.97 190.09 416.50 276.54 549.86 759.17 1040.02 723.90 669.58 564.89 819.80 929.94 633.05 529.39 750.71 269.57 359.25 99.66 718.75 803.14 586.65 733.07 348.36 577.15 632.71 1075.47 588.74 765.30 892.09 815.64 86.38 359.41 406.88 743.53 728.05 813.08 855.18 424.34 579.09 400.51 583.29 799.02 762.24 415.43 94.65 642.02 676.93 78.60 684.56 714.02 802.65 622.03 992.57 772.20 152.39 421.39 652.16 800.01 850.26 1002.78 992.72 517.23 0.00 582.07 589.38 244.48 235.76 764.51 912.48 883.42 803.14
558.99 491.48 731.84 715.46 352.13 319.38 315.91 494.28 414.64 498.79 440.71 438.98 357.35 314.43 433.42 669.41 491.62 289.61 591.21 515.35 462.08 548.78 211.93 149.01 403.07 694.02 165.23 148.62 286.06 310.47 572.38 202.89 134.58 676.23 354.10 597.83 460.28 623.05 200.65 425.23 626.90 181.48 543.60 482.15 567.26 294.40 448.64 294.80 372.63 102.96 331.94 245.99 363.03 357.94 358.13 496.25 553.64 505.31 314.12 332.26 346.81 757.71 448.72 512.52 110.97 252.63 503.61 678.75 358.48 483.21 379.02 523.15 671.15 255.54 387.36 419.84 523.48 681.73 258.70 311.54 26.54 711.24 666.81 304.00 100.25 561.77 625.62 349.68 448.08 520.32 595.01 583.20 261.76 493.10 312.13 526.82 486.53 415.92 334.27 347.81 388.47 266.09 239.71 356.33 676.72 406.46 612.65 660.67 276.96 285.66 502.35 69.26 548.33 263.51 730.98 430.53 351.86 246.65 343.72 530.53 543.47 495.73 582.07 0.00 338.99 802.42 817.69 392.98 429.68 357.39 484.93
581.10 332.39 732.63 715.89 637.69 75.93 326.13 155.29 428.91 211.85 668.85 683.64 31.50 235.17 741.50 638.49 204.47 391.31 419.49 349.21 372.05 553.59 412.76 329.51 678.10 487.52 348.58 202.59 294.15 596.74 546.79 296.54 438.43 467.40 645.51 588.91 495.31 360.77 453.08 523.49 418.99 418.43 553.14 583.72 560.30 576.51 687.94 617.90 511.33 330.67 272.34 151.63 618.58 432.59 366.22 233.97 781.41 338.15 338.36 569.21 390.43 706.76 577.27 544.99 228.02 550.89 613.55 484.69 192.73 225.63 665.29 516.77 373.33 160.26 177.37 436.83 645.43 598.04 129.37 539.93 328.55 416.80 631.12 111.09 391.66 555.75 325.95 288.45 392.44 793.61 531.44 683.42 243.66 227.28 597.69 796.40 776.66 292.55 133.91 313.88 115.97 493.51 476.66 509.49 662.95 73.87 350.37 643.50 331.01 198.36 796.39 307.49 579.40 498.49 698.95 576.08 659.94 421.90 604.76 501.74 542.04 196.06 589.38 338.99 0.00 787.78 786.80 678.54 504.62 554.13 716.92
1291.22 574.90 80.26 144.67 866.69 786.05 1028.81 834.04 449.34 960.18 780.69 961.08 795.55 598.69 853.80 161.69 877.56 967.09 648.75 642.02 1053.45 1220.04 899.30 675.62 937.21 541.72 703.92 863.02 578.08 948.98 343.98 685.74 885.83 661.05 968.44 329.04 1137.76 859.21 940.35 1100.36 845.89 940.71 354.24 1219.33 447.22 926.46 626.89 715.18 521.55 869.53 975.02 747.37 890.97 502.19 547.85 786.14 562.32 1058.76 992.54 1033.14 524.38 81.02 498.39 473.90 720.13 1001.73 1257.77 811.24 894.24 763.70 967.11 1147.69 756.00 640.94 887.49 488.88 468.71 206.48 850.43 964.01 828.49 907.26 347.67 676.69 793.81 1265.87 758.65 950.45 1102.95 902.53 304.13 356.05 616.90 947.98 855.34 881.23 950.34 595.31 703.40 611.26 757.60 1005.79 987.60 554.83 216.17 837.16 869.61 193.81 929.04 906.90 880.37 790.87 1210.32 1014.76 162.35 480.63 772.24 1013.22 1037.51 1204.89 1208.49 761.71 244.48 802.42 787.78 0.00 74.51 884.59 1156.96 1034.94 917.42
1271.00 545.21 105.83 102.23 844.10 849.28 974.32 836.29 406.90 963.23 791.02 928.01 782.88 578.99 850.28 204.61 873.52 924.65 629.84 624.30 1075.73 1177.88 881.58 668.82 897.56 567.29 682.82 853.33 569.36 874.47 376.82 643.30 842.45 595.05 893.93 336.56 1095.32 829.52 941.48 1115.42 847.86 906.83 373.58 1183.73 483.11 871.41 627.58 711.66 541.23 856.41 951.45 704.93 816.46 459.75 518.16 793.66 524.77 1068.19 918.03 990.70 494.69 104.07 491.66 431.74 755.34 951.30 1216.82 837.19 903.67 770.86 943.02 1136.55 737.11 683.86 923.51 467.71 475.53 188.76 872.71 921.57 810.11 938.51 396.23 698.97 751.65 1272.18 750.33 930.48 1059.34 864.98 292.99 430.56 574.46 930.27 804.10 838.79 939.32 620.88 673.71 568.82 727.91 1004.64 965.06 480.32 161.98 841.16 839.92 164.12 920.32 874.73 842.82 748.43 1199.18 971.38 120.19 406.12 768.72 975.56 978.13 1162.45 1166.33 733.34 235.76 817.69 786.80 74.51 0.00 881.07 1120.79 1017.22 910.69
779.93 738.09 804.33 815.31 96.44 681.49 593.37 831.30 578.89 794.11 179.98 110.35 710.04 553.34 107.78 836.79 823.55 518.46 846.60 823.18 730.85 744.18 298.67 395.62 88.23 964.74 423.92 499.81 532.67 141.83 757.60 482.27 349.69 970.31 114.95 769.17 613.10 978.46 321.88 515.98 993.49 304.64 728.82 659.65 879.15 186.47 343.42 169.41 448.80 371.73 600.71 581.58 83.82 545.37 579.19 885.58 438.98 756.37 586.66 304.39 527.53 830.20 447.85 570.90 503.95 218.66 779.53 1034.73 591.85 785.58 160.85 681.75 982.07 570.46 696.08 567.90 529.35 692.52 613.07 284.22 399.17 1044.76 906.24 614.04 292.73 769.49 938.77 618.45 650.01 198.61 761.06 590.19 550.63 834.55 80.85 220.87 189.41 701.58 623.74 599.58 677.94 386.76 326.45 406.81 757.43 752.41 968.06 781.66 543.88 638.16 180.39 442.15 744.38 389.56 793.43 474.95 131.03 475.77 245.49 794.82 755.73 816.98 764.51 392.98 678.54 884.59 881.07 0.00 573.34 382.16 147.21
206.59 823.19 1076.70 1048.96 516.98 428.69 259.05 615.23 780.08 560.78 654.55 544.32 535.53 645.89 653.43 1034.27 574.43 226.54 820.18 803.21 329.65 242.59 279.74 549.98 536.05 944.63 521.68 398.51 619.94 431.51 907.65 574.19 352.36 923.48 533.43 949.22 55.87 791.36 255.61 111.45 868.76 290.26 887.65 99.75 996.94 420.41 767.96 620.80 725.70 326.72 312.84 491.72 489.52 723.38 692.01 719.31 823.05 470.87 202.76 321.35 682.37 1102.57 808.17 862.15 491.92 368.61 219.63 920.76 405.74 670.16 495.49 158.58 827.98 609.01 451.20 728.07 804.69 972.56 394.05 295.22 455.37 858.70 1043.98 567.79 456.14 231.94 780.60 310.02 266.11 707.78 931.96 867.44 624.71 612.47 496.08 746.74 662.98 761.10 581.52 686.85 606.77 190.17 280.43 718.54 1007.13 515.77 780.96 991.08 268.98 342.76 706.26 434.70 211.98 223.43 1064.87 766.31 571.87 252.58 374.38 278.39 231.04 650.71 912.48 429.68 504.62 1156.96 1120.79 573.34 0.00 195.00 667.75
401.59 799.52 983.97 919.56 378.26 530.91 407.02 651.11 691.00 698.96 503.97 377.85 522.63 594.61 489.87 935.40 703.15 258.90 887.87 839.09 514.42 370.91 220.82 460.21 344.87 994.94 468.56 395.25 562.87 240.33 864.21 545.76 250.00 981.70 342.25 848.31 239.87 822.69 156.74 192.36 914.66 179.41 835.43 294.75 924.65 261.16 626.57 426.17 623.34 288.89 433.18 498.27 298.34 658.13 634.94 755.79 686.65 612.71 367.62 126.35 661.52 1009.84 704.61 780.27 454.86 187.73 414.63 952.32 515.56 721.45 308.88 353.58 864.46 612.93 570.43 705.55 721.35 828.46 510.19 100.22 360.85 894.58 1012.48 590.18 353.78 426.94 817.08 457.75 450.11 553.26 852.34 752.73 544.89 705.06 349.24 583.14 477.63 758.79 579.21 629.78 630.27 125.41 121.18 616.18 893.37 551.65 812.29 917.60 364.38 437.57 543.71 396.33 406.98 121.07 929.37 681.99 465.32 254.93 197.49 439.94 382.46 687.19 883.42 357.39 554.13 1034.94 1017.22 382.16 195.00 0.00 476.57
866.65 807.78 842.96 820.61 212.80 713.60 685.32 872.21 638.42 899.60 143.90 144.35 743.29 631.38 116.65 875.42 885.84 604.08 924.64 901.22 834.25 834.23 390.62 540.32 189.88 978.45 512.02 514.33 597.60 236.24 789.69 545.75 449.42 1048.35 231.53 793.15 716.44 1051.31 413.83 577.22 1030.05 409.56 760.91 691.39 846.62 294.50 307.34 208.04 495.69 511.61 739.11 597.11 223.70 586.82 628.10 927.31 397.52 895.59 675.03 420.74 610.14 868.83 419.03 552.89 537.25 323.53 811.27 1141.85 739.06 906.37 228.49 789.78 1035.98 692.99 773.30 599.99 500.53 731.15 725.04 430.08 491.12 1100.79 946.17 689.94 384.68 869.43 988.60 734.74 744.42 76.69 743.05 561.37 578.71 926.50 172.80 108.63 59.74 759.93 711.62 664.51 765.82 478.71 434.48 438.90 796.06 790.79 1040.91 820.29 638.29 697.15 79.47 455.20 825.76 483.97 798.73 504.57 150.98 567.72 349.60 880.44 822.68 858.71 803.14 484.93 716.92 917.42 910.69 147.21 667.75 476.57 0.00
DEMAND_SECTION
1 0
2 55
3 74
4 8
5 4
6 8
7 8
8 2
9 6
10 1
11 10
12 8
13 2
14 6
15 7
16 7
17 1
18 1
19 1
20 2
21 9
22 2
23 3
24 7
25 6
26 10
27 7
28 3
29 7
30 3
31 5
32 6
33 4
34 2
35 9
36 4
37 7
38 1
39 1
40 4
41 8
42 4
43 5
44 4
45 1
46 1
47 1
48 5
49 5
50 4
51 5
52 3
53 9
54 2
55 7
56 8
57 4
58 6
59 5
60 2
61 4
62 9
63 5
64 6
65 3
66 7
67 8
68 10
69 7
70 3
71 2
72 4
73 10
74 4
75 8
76 6
77 8
78 8
79 10
80 6
81 10
82 1
83 2
84 10
85 10
86 3
87 10
88 2
89 9
90 5
91 10
92 9
93 9
94 5
95 6
96 10
97 8
98 8
99 6
100 4
101 3
102 2
103 10
104 3
105 6
106 3
107 9
108 2
109 3
110 2
111 7
112 4
113 1
114 9
115 3
116 10
117 8
118 3
119 1
120 9
121 6
122 9
123 7
124 9
125 4
126 10
127 8
128 1
129 2
130 1
131 7
DEPOT_SECTION
1
-1
EOF
