NAME: LDG115_3123_fog_115_0005
COMMENT: CVRP with travel times.  rootPos=3,custPos=1,demandType=2,avgRouteSizeIndex=3,weather=fog,lambda_cluster=1,lambda_random=4, T1=300,T2=700,beta=1, alpha(i,j) ~ U(0.8,1.2)
TYPE: CVRP
DIMENSION: 116
EDGE_WEIGHT_TYPE: EXPLICIT
EDGE_WEIGHT_FORMAT: FULL_MATRIX
CAPACITY: 67
NODE_COORD_SECTION
1 0 0
2 473 984
3 404 637
4 303 302
5 372 498
6 440 505
7 919 547
8 573 253
9 696 451
10 918 443
11 68 174
12 21 51
13 171 75
14 718 814
15 236 721
16 476 138
17 841 662
18 846 385
19 336 827
20 667 157
21 145 191
22 543 756
23 995 717
24 721 833
25 329 406
26 930 13
27 736 556
28 994 309
29 781 353
30 459 377
31 986 167
32 223 328
33 524 127
34 254 596
35 29 780
36 905 923
37 600 26
38 715 445
39 290 572
40 40 324
41 506 637
42 630 353
43 64 836
44 496 738
45 423 250
46 627 865
47 196 237
48 538 454
49 483 300
50 93 754
51 67 368
52 754 659
53 15 232
54 846 20
55 286 39
56 707 887
57 237 795
58 26 994
59 755 518
60 883 180
61 947 338
62 738 250
63 580 187
64 139 138
65 123 570
66 51 974
67 953 401
68 954 232
69 879 321
70 639 518
71 74 316
72 756 351
73 524 551
74 110 416
75 388 746
76 21 225
77 158 30
78 572 575
79 986 351
80 269 476
81 596 459
82 307 439
83 865 377
84 433 354
85 0 780
86 425 219
87 110 775
88 968 255
89 562 534
90 175 205
91 293 409
92 656 646
93 918 165
94 865 474
95 592 53
96 106 784
97 650 366
98 408 287
99 616 572
100 287 97
101 593 332
102 42 388
103 967 538
104 348 525
105 299 547
106 305 318
107 236 422
108 473 985
109 124 552
110 812 647
111 842 616
112 549 708
113 673 941
114 915 189
115 414 996
116 816 477
EDGE_WEIGHT_SECTION
0.00 1137.14 833.17 502.34 696.72 744.37 1108.39 735.65 949.68 1019.03 208.34 80.94 254.57 1123.66 789.67 588.41 1132.96 999.65 971.52 753.81 276.98 967.00 1323.25 1139.52 599.76 1003.09 982.40 1163.27 930.60 655.04 999.00 476.91 608.98 666.11 837.78 1334.44 657.12 910.94 711.37 403.75 894.25 811.91 877.58 892.00 563.20 1117.38 366.97 791.73 663.37 824.94 438.30 1092.39 276.85 928.80 310.73 1213.57 872.00 1072.06 1021.08 1001.60 1106.27 858.62 660.99 252.63 652.91 1011.48 1126.23 1025.97 1042.58 910.12 361.37 913.18 847.69 470.00 866.22 258.72 259.60 914.55 1119.48 637.54 812.62 621.10 1038.89 668.26 884.36 580.57 780.22 1074.73 846.18 330.28 588.41 988.10 1002.29 1010.75 608.68 800.47 793.20 587.73 916.79 341.79 745.12 458.43 1149.49 646.11 721.42 531.15 562.72 1133.09 621.82 1089.25 1117.82 969.26 1192.81 970.56 1206.05 1028.96
1137.14 0.00 479.39 754.85 597.91 586.32 715.74 792.48 645.27 742.85 967.36 1056.20 976.40 324.43 418.16 884.50 532.87 728.94 225.41 875.44 909.71 241.83 602.43 350.19 612.76 1129.92 573.46 884.93 786.06 685.34 986.56 705.34 928.70 471.03 563.05 522.47 956.90 623.07 543.81 798.99 398.04 665.82 494.18 316.83 772.78 202.38 846.21 595.36 727.57 491.33 769.11 455.11 925.89 1120.92 985.43 329.84 335.83 567.22 596.77 947.15 871.64 795.16 829.85 939.75 578.31 506.64 799.22 907.20 813.43 495.69 834.39 755.82 476.75 749.01 323.17 923.53 1070.12 499.16 853.41 623.85 527.76 554.60 768.18 687.35 609.63 800.97 478.88 952.60 473.28 896.35 604.35 423.19 972.46 659.02 996.67 499.13 660.97 724.60 490.25 905.51 656.99 801.83 663.18 549.28 549.07 726.04 665.26 4.05 609.40 548.68 510.38 304.39 250.23 952.26 78.04 699.30
833.17 479.39 0.00 427.98 169.78 196.42 623.29 520.79 389.76 579.86 645.11 817.96 636.76 389.68 280.65 540.74 539.41 560.59 253.98 603.75 611.18 241.55 663.37 415.44 316.52 868.98 410.50 698.28 454.49 301.49 777.70 422.02 592.38 251.04 516.18 610.36 700.19 395.61 221.66 549.38 151.31 394.13 468.98 279.79 445.82 445.15 562.89 326.48 391.25 429.15 541.44 453.14 612.85 854.36 722.04 489.93 351.51 520.69 432.55 659.01 624.81 537.06 558.16 656.43 366.66 581.27 651.21 699.52 570.11 270.87 492.08 497.68 231.90 461.97 169.85 624.80 732.11 282.31 671.88 276.35 256.07 320.92 521.35 341.12 538.46 488.01 411.17 671.13 273.15 584.66 323.82 348.45 702.40 544.90 679.12 431.42 389.28 412.36 325.68 667.13 464.44 537.59 656.88 187.06 186.68 410.70 373.86 475.34 382.37 535.71 545.92 244.96 483.28 715.30 537.50 499.62
502.34 754.85 427.98 0.00 288.83 275.53 684.12 366.41 465.87 670.31 327.51 421.40 343.86 677.31 431.10 306.17 689.76 600.23 576.55 456.61 226.92 587.92 866.10 703.07 142.09 762.79 529.79 762.12 512.35 202.43 769.03 111.77 359.43 307.54 614.92 897.99 484.92 499.55 276.28 284.09 474.98 433.79 609.11 542.32 192.10 768.82 151.57 339.12 255.33 499.13 325.86 619.46 339.37 718.44 367.45 772.82 513.43 771.93 521.61 676.66 659.10 544.70 360.96 249.71 355.56 711.35 724.97 767.64 627.97 437.19 226.79 496.33 385.10 268.72 471.25 329.96 380.12 430.53 706.17 231.52 360.01 200.25 625.29 201.04 629.33 208.76 548.10 728.99 437.00 173.62 191.13 512.50 692.47 586.48 453.25 552.68 397.03 146.27 485.35 306.66 374.68 330.06 732.96 245.14 241.30 28.81 168.51 758.90 384.09 646.05 665.21 524.27 827.94 724.20 790.90 526.62
696.72 597.91 169.78 288.83 0.00 79.52 628.67 444.74 410.15 609.72 541.99 660.88 466.98 512.74 296.30 370.96 545.22 522.95 382.02 489.36 441.40 356.08 691.52 538.50 146.74 757.43 396.14 690.20 483.21 222.92 694.99 254.78 424.22 172.74 514.15 727.85 566.48 387.53 129.68 448.75 249.34 279.74 503.48 281.08 328.92 543.18 395.65 246.27 285.91 478.97 387.98 452.29 491.10 746.09 581.30 601.04 378.63 591.48 443.35 631.73 616.73 422.67 469.25 489.19 288.17 638.16 643.13 691.44 565.88 340.91 417.14 472.20 189.09 308.51 276.72 472.97 562.33 255.95 663.80 171.23 247.99 184.47 513.27 258.26 554.11 332.57 476.99 699.85 240.99 414.88 154.04 344.44 618.43 540.82 518.04 456.74 316.50 326.63 296.06 497.35 308.22 409.21 648.80 50.61 94.70 260.02 226.75 595.84 290.39 533.95 531.56 342.99 581.89 650.16 605.95 500.42
744.37 586.32 196.42 275.53 79.52 0.00 558.94 396.02 330.63 530.20 567.98 696.93 546.50 471.86 368.32 378.07 465.70 472.99 415.06 487.24 467.39 353.33 612.00 497.62 173.14 766.47 338.25 610.68 458.41 216.91 697.19 334.30 407.52 252.26 570.95 670.34 515.33 308.01 209.20 517.05 203.82 303.29 583.00 344.14 249.40 497.66 427.10 166.75 206.39 522.07 457.56 372.77 520.75 669.50 535.85 537.31 450.65 671.00 376.93 623.29 537.21 446.22 389.73 525.24 367.69 700.78 563.61 611.92 505.73 261.39 459.75 410.08 109.57 388.03 356.24 502.62 614.64 176.43 584.28 183.58 168.47 231.30 433.75 181.94 598.21 291.59 488.77 628.22 161.47 449.15 222.18 264.92 641.98 461.30 501.34 468.52 301.68 296.93 216.54 470.81 331.45 488.73 569.28 130.13 174.22 286.42 269.87 582.27 359.02 454.43 473.67 297.47 580.05 617.95 607.82 420.90
1108.39 715.74 623.29 684.12 628.67 558.94 0.00 516.06 233.53 167.59 1006.82 1105.52 950.42 475.46 797.03 618.36 267.02 195.49 724.69 488.77 906.23 513.37 366.80 474.68 680.14 592.51 258.33 304.50 243.48 528.17 428.24 767.95 565.10 778.21 961.39 552.40 676.58 277.33 720.85 948.13 516.42 431.83 1020.51 555.17 633.71 571.78 835.69 423.03 559.33 982.54 939.57 300.09 1004.27 636.75 877.54 444.32 848.39 1061.73 227.89 439.70 255.92 350.93 544.00 933.83 837.52 1081.85 146.10 349.47 275.16 382.27 910.91 291.81 467.50 891.36 665.14 986.14 986.14 420.15 258.37 690.24 390.47 682.60 230.68 567.80 1007.97 658.38 946.04 321.67 415.60 852.93 729.18 407.94 425.93 97.64 633.90 957.47 395.07 611.43 365.33 832.29 451.13 937.97 57.20 633.20 708.51 670.59 791.27 719.79 841.76 263.12 205.36 564.38 532.31 426.19 793.78 157.50
735.65 792.48 520.79 366.41 444.74 396.02 516.06 0.00 288.81 436.19 611.06 682.96 481.08 613.86 672.12 260.75 563.94 360.39 700.42 187.95 510.47 584.01 713.83 633.34 373.79 494.13 420.26 520.36 272.58 221.82 492.15 436.31 239.32 548.56 878.02 828.26 248.21 287.64 511.84 625.79 483.87 177.37 774.41 582.06 183.04 693.15 421.73 260.75 189.63 853.10 548.24 526.25 631.58 443.19 490.96 709.07 739.20 969.67 407.83 371.00 417.34 246.56 74.66 555.78 645.26 909.09 452.89 461.98 388.20 366.26 593.20 224.25 389.62 620.12 629.66 629.30 548.28 360.66 464.41 472.75 264.72 405.43 362.78 261.45 904.51 229.32 839.22 489.22 373.55 457.17 422.83 489.15 426.70 418.42 255.42 827.59 214.13 220.14 415.48 404.45 168.85 584.81 564.90 403.55 478.86 354.83 486.95 788.43 614.17 531.63 508.40 577.52 722.56 394.97 863.34 431.44
949.68 645.27 389.76 465.87 410.15 330.63 233.53 288.81 0.00 292.87 773.29 887.27 767.55 440.97 620.75 436.18 275.13 204.28 569.61 407.92 672.70 403.44 453.25 466.73 446.61 580.41 186.49 375.95 157.54 294.64 445.46 534.42 382.92 544.68 781.71 593.79 525.18 43.80 487.32 714.60 344.63 198.30 825.68 427.49 400.18 464.49 607.48 189.50 325.80 777.29 706.04 237.44 770.74 508.16 644.01 535.38 694.89 910.45 164.64 388.71 302.48 304.90 363.47 715.58 603.99 867.04 294.90 375.65 224.17 149.58 692.66 143.74 250.38 691.39 535.61 752.61 752.61 240.47 349.55 456.71 162.16 454.29 199.02 334.27 789.66 442.81 728.32 374.18 270.99 619.40 495.65 262.99 413.83 247.46 476.74 748.57 161.54 395.86 185.65 621.59 217.60 704.44 290.73 399.67 474.98 437.06 557.74 649.32 613.45 269.26 247.82 387.44 558.70 407.13 673.01 187.60
1019.03 742.85 579.86 670.31 609.72 530.20 167.59 436.19 292.87 0.00 945.82 938.09 870.55 461.08 765.25 555.77 252.64 95.48 738.66 388.76 845.23 534.28 350.76 486.84 643.48 447.25 226.55 203.35 180.89 493.28 330.04 686.90 502.51 761.80 947.58 552.55 582.33 249.07 692.59 912.33 485.74 338.69 986.59 593.36 559.67 583.13 798.36 432.14 548.06 979.24 891.85 321.00 923.22 505.36 784.40 524.69 847.58 1100.55 179.34 322.62 132.46 291.25 464.13 911.67 809.26 1121.27 107.20 267.92 158.08 308.99 855.03 211.94 443.61 872.98 633.36 905.09 924.91 406.34 179.53 638.30 361.73 653.86 97.85 532.91 994.16 569.51 945.94 223.47 412.58 818.04 692.52 366.22 280.67 83.83 533.89 925.69 301.93 572.25 351.52 769.70 377.09 905.19 130.46 659.60 683.76 658.43 754.84 738.80 813.02 296.35 283.26 516.15 612.68 312.40 814.18 143.69
208.34 967.36 645.11 327.51 541.99 567.98 1006.82 611.06 773.29 945.82 0.00 172.85 230.83 956.94 670.51 482.98 965.98 850.34 831.59 686.43 100.59 875.16 1146.86 931.18 414.73 992.61 806.01 1030.56 796.85 478.65 989.91 304.96 527.61 546.95 737.98 1126.10 669.87 753.68 543.84 210.33 717.86 649.10 760.27 808.26 429.27 1011.15 190.58 615.34 499.99 681.03 252.10 884.05 145.18 896.65 301.64 1005.23 725.84 955.53 844.69 888.86 939.12 753.19 536.40 119.67 449.15 894.95 1001.03 979.84 893.27 701.78 153.03 772.39 662.66 261.66 747.06 127.05 254.83 729.52 986.19 429.20 636.23 412.76 889.58 507.68 699.35 432.22 686.47 985.79 669.79 153.89 390.06 811.71 945.19 913.99 621.43 699.09 643.89 411.34 737.56 304.44 568.73 250.09 1035.15 541.18 518.87 356.32 354.38 971.41 418.06 922.27 941.43 811.51 1082.00 945.15 1045.40 854.13
80.94 1056.20 817.96 421.40 660.88 696.93 1105.52 682.96 887.27 938.09 172.85 0.00 201.88 1042.72 708.73 606.94 1089.94 931.01 890.58 718.73 236.41 886.06 1267.43 1068.48 559.19 968.01 929.97 1128.19 908.82 602.61 1028.19 406.10 615.03 585.17 756.84 1257.83 622.04 885.47 657.95 343.95 853.68 730.97 869.31 811.06 544.43 1127.35 315.75 739.30 625.16 765.14 378.50 1040.86 217.05 893.72 339.92 1142.97 791.06 1039.99 943.01 966.52 1053.58 849.20 608.30 171.69 593.11 979.41 1045.29 990.89 1015.50 858.59 325.88 860.49 806.50 434.51 785.28 235.18 226.64 851.93 1084.40 561.70 760.19 585.61 970.25 622.44 803.42 542.77 814.11 1039.65 805.61 277.85 547.84 933.90 1003.66 1007.88 573.60 818.69 767.73 543.05 864.10 347.84 704.55 411.54 1068.55 666.54 651.37 450.21 527.23 1052.15 562.02 1046.23 1062.00 888.32 1111.87 971.93 1125.11 948.02
254.57 976.40 636.76 343.86 466.98 546.50 950.42 481.08 767.55 870.55 230.83 201.88 0.00 917.54 687.89 430.02 937.13 811.12 849.00 556.45 148.96 809.45 1122.20 943.30 396.66 862.63 781.35 954.72 706.94 492.75 826.31 271.86 413.15 564.33 857.24 1138.22 533.39 738.25 491.55 321.64 652.15 630.32 840.62 748.06 367.37 945.99 229.67 621.03 457.90 762.33 341.40 855.86 249.71 780.76 138.04 1003.85 770.22 934.41 820.03 852.08 851.70 647.32 406.42 142.08 560.46 975.30 887.25 874.59 822.56 717.06 264.34 658.61 644.59 372.97 743.70 267.18 95.35 711.45 898.77 491.05 611.57 421.80 809.11 453.12 810.66 340.89 797.78 915.99 696.49 170.24 414.20 748.01 829.60 852.78 506.97 810.40 620.51 415.55 662.22 145.96 549.95 375.51 999.26 517.59 526.53 361.82 410.18 973.15 529.37 893.42 916.77 745.80 1028.38 797.87 1052.94 841.77
1123.66 324.43 389.68 677.31 512.74 471.86 475.46 613.86 440.97 461.08 956.94 1042.72 917.54 0.00 598.91 790.44 208.44 524.82 490.49 713.92 904.23 214.23 278.00 25.76 610.22 884.35 345.95 600.08 555.33 571.39 755.36 767.52 776.64 543.90 732.02 220.68 862.07 481.58 471.12 874.09 343.61 514.41 765.29 231.66 708.48 122.05 818.92 453.94 618.76 659.03 822.48 227.60 960.62 801.10 987.14 100.25 524.88 841.19 366.04 672.90 586.83 645.95 688.52 927.02 662.92 803.78 502.47 672.88 597.85 325.52 839.85 579.11 362.29 781.35 385.19 972.57 1012.89 310.14 601.98 585.76 431.01 638.41 536.11 611.02 778.60 735.77 667.93 648.79 364.47 850.93 659.26 271.33 729.23 420.33 859.05 674.53 533.95 660.30 255.32 877.91 550.45 787.05 428.86 555.21 506.10 648.50 679.45 328.48 631.83 243.90 276.06 277.88 176.58 729.19 353.10 395.49
789.67 418.16 280.65 431.10 296.30 368.32 797.03 672.12 620.75 765.25 670.51 708.73 687.89 598.91 0.00 667.26 681.65 763.11 200.94 703.48 589.31 414.98 850.30 624.67 387.31 1009.66 538.70 900.80 735.14 500.49 972.90 439.92 658.93 123.56 249.73 773.21 801.19 591.41 196.34 508.41 283.73 576.04 278.05 367.25 560.69 577.57 553.85 513.94 529.15 213.99 505.38 588.72 622.83 974.32 688.90 588.21 82.33 425.74 585.91 928.03 827.33 718.97 649.89 642.17 249.38 392.70 839.59 902.04 795.85 503.23 536.07 700.20 377.98 451.67 213.72 640.96 743.22 414.73 874.40 259.90 458.59 329.15 723.87 473.13 257.81 588.88 180.69 918.34 429.88 536.01 370.13 480.87 896.34 699.39 752.75 160.44 591.80 512.51 469.55 731.20 604.52 470.29 826.92 268.57 201.60 402.29 336.89 422.21 277.86 670.38 674.12 377.38 500.97 928.07 496.20 694.18
588.41 884.50 540.74 306.17 370.96 378.07 618.36 260.75 436.18 555.77 482.98 606.94 430.02 790.44 667.26 0.00 699.78 465.98 752.98 274.47 382.39 657.42 844.63 816.20 339.79 510.64 567.98 641.19 374.88 261.44 600.42 406.14 53.26 543.70 753.77 934.84 195.52 472.89 500.64 522.30 564.79 335.32 866.24 652.04 167.88 798.66 337.04 366.26 171.68 805.30 556.49 670.73 539.71 413.67 307.65 855.02 721.25 955.26 550.12 479.27 545.57 270.21 213.41 435.25 612.87 965.41 624.31 564.37 490.50 498.78 522.76 423.21 470.54 512.40 647.68 521.58 493.73 507.95 585.24 412.51 398.20 397.95 505.22 274.89 800.35 121.60 778.98 591.52 425.97 329.09 366.68 582.63 535.60 520.72 147.08 786.93 372.08 159.90 535.12 284.06 323.23 536.42 667.20 421.57 465.66 317.88 456.83 880.45 587.95 656.07 666.35 608.88 855.08 531.31 873.30 567.53
1132.96 532.87 539.41 689.76 545.22 465.70 267.02 563.94 275.13 252.64 965.98 1089.94 937.13 208.44 681.65 699.78 0.00 336.49 517.53 607.59 865.39 306.21 204.85 234.20 562.52 684.16 164.77 391.64 359.37 487.33 556.73 734.46 658.05 608.85 843.89 368.24 800.31 307.46 603.40 920.75 397.92 397.97 836.24 381.21 646.38 330.49 809.12 404.96 577.09 787.85 846.94 92.93 950.25 758.00 901.48 297.72 674.43 1013.91 211.98 555.59 385.10 475.71 636.64 918.25 762.87 953.33 294.03 475.54 391.05 268.54 866.58 397.93 389.02 805.61 507.47 932.12 945.30 334.40 393.54 649.28 334.55 620.68 346.57 525.84 888.82 642.06 738.88 469.60 347.97 812.09 611.56 200.78 533.31 213.53 751.87 759.13 425.20 598.20 282.05 791.17 478.34 883.51 231.52 577.38 568.42 675.80 701.71 536.92 763.15 43.71 78.72 309.53 385.02 552.26 561.54 273.33
999.65 728.94 560.59 600.23 522.95 472.99 195.49 360.39 204.28 95.48 850.34 931.01 811.12 524.82 763.11 465.98 336.49 0.00 740.22 293.28 749.75 487.11 446.24 550.58 549.77 410.10 238.98 211.49 108.88 397.80 257.62 673.45 430.50 695.69 954.47 591.68 486.85 248.08 652.63 861.69 498.17 243.21 927.98 562.11 464.19 632.92 702.88 374.93 465.14 977.10 833.24 355.34 865.72 468.21 688.92 563.82 845.44 1081.28 213.68 249.03 142.70 195.77 404.70 816.19 786.39 1062.66 158.33 217.41 84.49 290.15 804.39 152.51 441.70 810.56 645.79 847.59 829.43 413.23 155.54 630.90 304.52 561.65 39.24 437.43 993.94 474.03 932.60 233.71 402.67 722.56 598.81 339.12 243.52 122.96 438.41 923.55 206.45 476.77 358.41 685.60 281.61 852.05 225.94 573.56 617.65 592.42 662.93 732.99 755.81 353.80 282.03 522.60 651.81 247.39 783.06 133.78
971.52 225.41 253.98 576.55 382.02 415.06 724.69 700.42 569.61 738.66 831.59 890.58 849.00 490.49 200.94 752.98 517.53 740.22 0.00 783.38 738.34 279.13 722.38 516.25 483.74 986.21 512.11 854.42 686.45 555.47 964.42 636.80 775.36 305.41 374.39 705.60 893.42 575.24 378.19 679.59 313.91 573.76 396.05 258.83 646.60 404.93 725.47 506.11 598.10 319.49 638.44 424.60 758.50 1040.11 760.02 532.39 163.99 516.91 559.32 912.99 804.44 716.69 737.79 804.90 382.44 456.33 805.59 879.15 772.96 495.74 678.56 677.31 408.16 587.34 105.30 776.63 932.53 444.91 843.32 441.39 435.70 465.27 700.98 576.40 420.97 692.88 307.04 895.45 460.06 736.95 515.02 460.49 899.70 672.80 869.18 327.29 568.91 639.98 455.26 830.46 644.07 605.96 688.81 331.41 383.45 555.05 518.21 221.36 413.53 518.17 584.75 294.30 467.54 931.43 301.15 667.97
753.81 875.44 603.75 456.61 489.36 487.24 488.77 187.95 407.92 388.76 686.43 718.73 556.45 713.92 703.48 274.47 607.59 293.28 783.38 0.00 585.84 652.37 739.52 739.68 490.23 306.18 471.30 421.62 349.59 370.61 375.67 510.21 238.95 579.92 950.78 861.29 193.57 364.12 564.63 725.75 498.91 209.62 921.70 639.23 322.32 778.56 561.01 346.16 280.85 834.99 726.94 574.01 665.16 270.84 517.77 793.79 785.81 1080.84 432.35 374.07 412.74 267.28 150.03 638.70 733.94 1056.38 451.61 428.22 377.77 398.51 678.34 304.45 417.68 673.96 707.52 683.14 601.56 421.07 365.67 562.95 347.68 537.89 332.52 393.91 961.29 283.16 883.96 408.38 452.31 532.54 539.27 521.40 350.77 416.24 145.13 863.92 246.38 310.34 458.60 506.14 266.89 690.37 519.22 539.97 584.06 468.32 538.77 871.39 725.34 563.88 540.65 592.56 834.98 351.50 895.59 427.06
276.98 909.71 611.18 226.92 441.40 467.39 906.23 510.47 672.70 845.23 100.59 236.41 148.96 904.23 589.31 382.39 865.39 749.75 738.34 585.84 0.00 774.57 1046.27 929.99 322.78 892.02 705.42 929.97 696.26 378.06 889.32 204.37 427.02 520.28 752.80 1078.07 569.28 653.09 463.00 182.83 617.27 548.51 700.94 707.67 328.68 911.11 89.99 514.75 399.40 637.01 237.36 818.97 186.51 796.06 201.05 968.97 671.64 896.20 744.10 788.27 838.53 652.60 435.81 66.56 467.82 835.62 900.44 879.25 792.68 641.13 171.70 671.80 570.71 280.33 698.17 204.64 201.72 637.57 885.60 384.27 535.64 361.18 788.99 407.09 718.02 331.63 677.49 885.20 569.20 53.30 311.43 711.12 844.60 813.40 520.84 690.56 543.30 310.75 677.68 238.49 468.14 273.93 934.56 472.06 468.22 255.73 305.32 905.66 436.73 821.68 840.84 710.92 993.50 844.56 985.45 753.54
967.00 241.83 241.55 587.92 356.08 353.33 513.37 584.01 403.44 534.28 875.16 886.06 809.45 214.23 414.98 657.42 306.21 487.11 279.13 652.37 774.57 0.00 492.23 239.99 490.19 888.09 331.63 643.10 544.23 452.86 744.73 610.86 686.87 401.37 616.28 434.91 781.99 439.52 398.28 717.43 157.30 442.75 608.63 75.00 560.81 335.94 739.49 353.53 485.74 502.37 668.08 213.28 827.65 883.57 773.99 314.48 368.22 707.70 354.94 705.32 629.81 553.33 608.44 835.53 555.39 647.12 600.24 704.52 571.60 253.86 733.63 515.08 243.76 645.23 201.26 829.05 871.80 257.33 612.67 465.69 340.28 513.09 526.35 492.49 632.57 589.00 511.27 710.77 231.45 729.37 510.12 181.36 730.63 492.32 758.85 531.52 459.69 512.63 265.44 663.68 415.16 704.65 477.49 398.55 376.02 581.06 562.20 245.88 555.67 306.85 372.92 63.65 241.73 711.52 295.95 457.47
1323.25 602.43 663.37 866.10 691.52 612.00 366.80 713.83 453.25 350.76 1146.86 1267.43 1122.20 278.00 850.30 844.63 204.85 446.24 722.38 739.52 1046.27 492.23 0.00 303.76 750.36 781.98 340.85 490.89 469.75 668.21 585.45 910.54 791.37 813.70 1010.02 498.68 827.76 483.54 749.12 1024.36 566.57 536.46 1029.91 509.66 799.41 400.05 963.96 581.04 757.97 937.03 986.25 297.78 1126.33 790.27 1055.69 378.25 789.50 1119.19 388.06 604.58 387.87 627.67 770.27 1099.13 920.79 1081.78 457.96 523.33 499.05 473.39 1015.41 518.08 502.43 906.78 663.19 1108.20 1126.18 435.57 434.94 795.58 510.63 802.76 433.98 701.92 1056.60 845.69 932.55 478.88 517.55 992.97 780.27 405.63 615.40 323.91 876.20 952.53 573.22 779.08 486.90 996.02 616.83 1007.48 328.43 712.54 759.55 863.64 870.42 606.48 889.70 248.56 205.43 514.38 454.58 592.47 631.10 383.77
1139.52 350.19 415.44 703.07 538.50 497.62 474.68 633.34 466.73 486.84 931.18 1068.48 943.30 25.76 624.67 816.20 234.20 550.58 516.25 739.68 929.99 239.99 303.76 0.00 635.98 878.05 327.15 625.84 549.65 565.87 751.41 793.28 802.40 569.66 751.20 194.92 881.55 469.84 496.88 899.85 369.37 540.17 766.38 257.42 724.92 147.81 844.68 479.70 644.52 684.79 848.24 253.36 986.38 826.86 1002.74 89.23 550.64 858.45 360.36 664.62 612.59 638.09 708.00 952.78 688.68 829.54 528.23 666.14 615.56 351.28 865.61 560.31 388.05 807.11 410.95 998.33 1023.84 335.90 599.07 611.52 456.77 664.17 543.58 605.50 778.46 753.11 669.02 674.55 390.23 876.69 685.02 245.57 720.95 446.09 884.81 648.77 520.27 676.74 281.08 903.67 576.21 812.81 422.12 580.97 531.86 674.26 705.21 354.24 657.59 237.60 269.32 303.64 150.82 720.91 378.86 421.25
599.76 612.76 316.52 142.09 146.74 173.14 680.14 373.79 446.61 643.48 414.73 559.19 396.66 610.22 387.31 339.79 562.52 549.77 483.74 490.23 322.78 490.19 750.36 635.98 0.00 796.41 433.74 727.65 479.87 151.97 748.03 191.38 393.05 273.27 581.50 808.70 535.31 449.09 225.45 361.97 332.89 383.33 591.79 427.82 210.92 626.73 283.70 264.92 241.73 544.33 284.42 545.91 427.70 704.84 451.92 684.59 388.83 715.77 480.95 694.26 624.63 526.26 401.52 389.34 295.23 680.31 660.18 745.27 595.49 399.75 312.71 431.54 247.93 279.47 378.44 409.57 490.76 314.79 671.70 127.41 309.55 58.16 574.83 168.49 612.70 256.26 525.37 696.51 299.83 315.71 49.04 438.06 722.02 594.43 486.87 521.35 346.57 179.89 354.90 410.11 359.67 320.99 710.36 153.59 195.23 113.28 139.19 616.81 287.02 518.81 569.16 426.54 709.12 716.12 690.80 561.98
1003.09 1129.92 868.98 762.79 757.43 766.47 592.51 494.13 580.41 447.25 992.61 968.01 862.63 884.35 1009.66 510.64 684.16 410.10 986.21 306.18 892.02 888.09 781.98 878.05 796.41 0.00 645.70 352.58 469.45 649.84 213.82 809.26 477.99 886.10 1242.30 932.38 437.01 594.82 870.81 1008.19 779.19 477.69 1227.88 904.64 628.50 981.59 847.68 614.23 560.08 1141.17 1033.12 734.02 971.34 96.97 739.69 935.73 1091.99 1348.91 610.36 222.91 394.11 334.76 456.21 929.95 1020.87 1302.37 466.07 262.70 370.10 654.43 950.89 461.13 708.54 980.14 960.98 989.32 850.84 727.25 371.35 834.50 615.75 818.79 434.49 674.81 1267.47 589.34 1190.14 311.46 656.64 838.72 845.45 749.22 166.58 494.87 394.41 1170.10 514.45 616.52 733.40 745.18 558.06 996.55 577.71 808.04 852.13 774.50 844.95 1133.97 1009.94 640.45 637.93 846.18 1023.72 198.31 1156.53 543.88
982.40 573.46 410.50 529.79 396.14 338.25 258.33 420.26 186.49 226.55 806.01 929.97 781.35 345.95 538.70 567.98 164.77 238.98 512.11 471.30 705.42 331.63 340.85 327.15 433.74 645.70 0.00 401.66 236.50 327.36 493.87 569.69 544.86 568.88 780.31 468.59 636.59 142.69 525.82 785.69 259.19 297.19 816.75 399.51 486.41 441.50 649.15 240.19 417.12 752.69 718.16 118.35 785.48 626.56 742.90 415.61 621.03 931.19 47.21 466.95 333.89 310.94 471.87 758.28 652.16 909.45 300.89 408.60 302.41 166.48 737.82 233.16 245.33 704.65 406.81 767.35 785.33 239.07 380.96 507.40 169.78 461.91 230.43 361.07 796.51 514.60 719.39 414.31 213.14 652.12 482.78 214.14 482.50 160.69 592.85 699.14 260.43 438.23 184.25 687.54 335.59 754.73 288.22 446.75 490.84 547.02 572.57 577.51 621.07 144.06 135.42 352.84 477.97 459.26 627.58 161.01
1163.27 884.93 698.28 762.12 690.20 610.68 304.50 520.36 375.95 203.35 1030.56 1128.19 954.72 600.08 900.80 641.19 391.64 211.49 854.42 421.62 929.97 643.10 490.89 625.84 727.65 352.58 401.66 0.00 297.19 581.27 165.09 825.87 618.81 862.94 1085.51 709.69 556.55 391.26 815.26 959.17 629.07 423.43 1065.67 658.41 631.77 722.13 870.46 512.62 643.57 969.72 881.62 429.82 1011.33 410.69 853.36 681.83 951.63 1218.97 360.15 214.24 103.02 370.98 548.30 996.41 924.59 1200.35 158.40 137.30 181.57 501.64 980.69 296.11 534.82 961.09 808.47 993.20 997.01 560.76 55.95 760.49 442.21 734.34 176.93 613.73 1099.92 678.05 1018.69 88.54 550.20 906.03 751.63 537.67 186.00 240.97 554.59 1023.27 386.67 656.99 505.94 853.18 461.83 918.19 333.81 740.08 784.90 733.31 841.78 888.98 893.50 435.35 414.07 595.27 769.82 206.66 905.62 281.31
930.60 786.06 454.49 512.35 483.21 458.41 243.48 272.58 157.54 180.89 796.85 908.82 706.94 555.33 735.14 374.88 359.37 108.88 686.45 349.59 696.26 544.23 469.75 549.65 479.87 469.45 236.50 297.19 0.00 389.67 323.21 624.12 321.62 653.20 905.35 614.56 463.88 171.10 612.89 796.44 478.78 231.83 923.47 523.36 434.57 591.79 653.96 347.04 367.17 882.46 764.29 330.95 851.72 413.47 677.54 586.70 806.00 975.18 189.29 280.16 226.80 157.92 300.52 749.12 731.29 1024.58 262.20 265.40 115.62 307.12 739.14 48.33 395.74 721.58 581.15 836.21 798.48 364.11 243.73 566.77 289.94 497.52 132.34 429.30 947.20 480.85 833.49 216.64 343.84 642.96 528.91 376.17 302.87 145.84 415.44 851.13 195.07 417.24 309.29 588.81 251.99 797.27 292.32 508.19 577.91 483.54 573.95 790.11 741.23 380.02 351.31 499.76 674.69 298.58 810.11 205.70
655.04 685.34 301.49 202.43 222.92 216.91 528.17 221.82 294.64 493.28 478.65 602.61 492.75 571.39 500.49 261.44 487.33 397.80 555.47 370.61 378.06 452.86 668.21 565.87 151.97 649.84 327.36 581.27 389.67 0.00 596.06 275.65 290.89 376.93 733.47 746.95 398.70 297.12 333.87 486.52 303.35 231.36 661.68 443.67 159.05 569.09 321.79 136.69 89.76 631.28 436.39 440.91 511.97 552.87 476.41 605.45 540.80 814.40 366.04 547.32 526.32 374.29 273.10 430.92 447.20 796.36 552.72 595.46 443.98 263.07 429.22 355.01 209.10 412.76 461.11 493.84 457.97 275.96 553.34 252.86 157.58 183.61 422.86 39.63 738.15 187.24 650.82 603.27 258.77 324.76 201.01 333.06 570.05 450.41 377.63 646.80 194.60 110.87 316.07 366.10 258.42 472.96 558.39 265.11 298.89 231.24 265.13 681.29 428.30 443.62 462.78 397.00 625.51 587.89 648.94 410.01
999.00 986.56 777.70 769.03 694.99 697.19 428.24 492.15 445.46 330.04 989.91 1028.19 826.31 755.36 972.90 600.42 556.73 257.62 964.42 375.67 889.32 744.73 585.45 751.41 748.03 213.82 493.87 165.09 323.21 596.06 0.00 850.60 573.77 867.73 1171.77 849.30 454.95 461.02 824.67 1033.73 689.17 415.25 1152.18 784.48 659.20 832.78 897.89 551.79 656.52 1134.81 1018.37 588.32 1037.76 264.80 688.27 821.44 1055.23 1243.95 446.66 121.15 197.58 330.21 476.93 955.88 958.43 1286.86 282.14 85.27 221.29 547.77 976.43 371.54 665.90 955.23 870.96 1019.63 921.66 618.72 216.03 819.00 528.72 756.66 263.44 614.58 1185.80 658.83 1128.14 106.57 628.76 859.44 797.07 596.74 76.56 380.58 479.95 1133.34 401.46 651.54 575.71 798.58 476.62 1024.09 444.67 726.90 789.69 797.84 842.38 990.61 980.01 553.86 482.09 752.93 902.23 105.06 1040.68 359.87
476.91 705.34 422.02 111.77 254.78 334.30 767.95 436.31 534.42 686.90 304.96 406.10 271.86 767.52 439.92 406.14 734.46 673.45 636.80 510.21 204.37 610.86 910.54 793.28 191.38 809.26 569.69 825.87 624.12 275.65 850.60 0.00 444.76 342.37 673.51 970.77 587.02 539.45 299.31 225.43 504.12 497.05 675.29 535.86 253.27 792.38 140.87 360.51 350.75 561.34 239.58 687.67 236.32 781.05 326.52 795.85 522.25 809.07 608.37 776.63 768.65 577.68 443.87 234.41 384.99 806.04 794.10 843.36 711.05 505.40 168.13 608.10 426.46 189.24 531.50 218.19 367.21 493.32 793.80 253.14 399.91 183.89 665.19 236.02 626.93 299.55 606.13 840.76 478.36 191.01 142.34 599.22 804.24 692.74 538.58 600.36 470.25 246.24 533.43 358.34 435.85 218.29 800.72 305.39 264.33 140.58 138.32 701.29 353.90 710.19 705.11 595.88 836.67 811.71 781.08 638.39
608.98 928.70 592.38 359.43 424.22 407.52 565.10 239.32 382.92 502.51 527.61 615.03 413.15 776.64 658.93 53.26 658.05 430.50 775.36 238.95 427.02 686.87 791.37 802.40 393.05 477.99 544.86 618.81 321.62 290.89 573.77 444.76 0.00 535.37 807.03 936.18 142.26 426.72 533.94 530.20 594.24 357.36 877.15 705.30 220.29 828.48 390.30 396.08 201.13 855.98 571.97 620.36 592.97 381.02 360.91 846.40 741.26 1008.52 497.65 486.74 524.29 323.47 223.92 451.96 666.13 1011.83 583.82 511.11 437.24 451.12 472.90 369.95 499.99 565.66 693.93 574.84 476.86 502.53 565.35 465.77 448.47 451.21 453.96 315.86 853.61 174.86 832.24 538.26 455.42 382.35 419.94 574.01 523.88 467.46 93.82 819.37 374.66 213.16 530.09 267.19 376.49 584.07 613.94 467.82 513.60 371.14 510.09 932.75 641.21 652.18 630.74 662.14 884.90 492.15 925.17 527.32
666.11 471.03 251.04 307.54 172.74 252.26 778.21 548.56 544.68 761.80 546.95 585.17 564.33 543.90 123.56 543.70 608.85 695.69 305.41 579.92 520.28 401.37 813.70 569.66 273.27 886.10 568.88 862.94 653.20 376.93 867.73 342.37 535.37 0.00 373.29 764.58 677.63 516.30 72.78 384.85 399.38 452.48 341.78 353.64 460.20 576.24 430.29 419.01 405.59 320.61 383.30 553.53 499.27 850.76 613.40 609.56 205.89 537.04 582.46 804.47 789.47 595.41 550.15 557.25 154.02 476.46 815.87 864.18 738.62 504.49 419.33 604.87 361.83 328.11 200.11 517.40 640.38 428.69 807.09 167.71 420.73 215.11 686.01 359.09 381.37 477.24 304.25 869.84 384.25 470.16 246.57 502.79 791.17 693.21 629.19 284.00 489.24 420.32 425.52 607.64 480.96 346.73 786.69 145.01 78.04 278.73 221.16 466.98 154.30 647.10 633.89 407.41 624.53 822.90 539.94 650.15
837.78 563.05 516.18 614.92 514.15 570.95 961.39 878.02 781.71 947.58 737.98 756.84 857.24 732.02 249.73 753.77 843.89 954.47 374.39 950.78 752.80 616.28 1010.02 751.20 581.50 1242.30 780.31 1085.51 905.35 733.47 1171.77 673.51 807.03 373.29 0.00 946.12 949.29 823.57 446.07 601.20 533.46 764.61 112.47 541.28 772.27 609.97 692.51 628.07 777.34 115.79 532.00 750.96 663.88 1167.44 896.05 737.43 248.06 283.15 816.62 1084.61 1044.69 907.54 899.62 736.04 314.81 222.57 1003.95 1122.75 1005.88 675.03 592.90 890.17 627.71 484.27 452.76 682.01 846.10 650.88 1046.05 505.13 698.48 565.62 963.28 709.60 46.58 800.46 105.01 1073.99 635.41 702.92 561.00 681.85 1103.30 863.75 900.85 102.43 801.37 724.09 596.06 812.01 792.77 522.12 1010.23 518.30 451.33 641.56 542.55 559.00 329.69 844.53 879.91 618.54 704.18 1079.27 528.61 820.69
1334.44 522.47 610.36 897.99 727.85 670.34 552.40 828.26 593.79 552.55 1126.10 1257.83 1138.22 220.68 773.21 934.84 368.24 591.68 705.60 861.29 1078.07 434.91 498.68 194.92 808.70 932.38 468.59 709.69 614.56 746.95 849.30 970.77 936.18 764.58 946.12 0.00 1054.86 611.28 691.80 1089.20 564.29 678.79 934.73 446.77 837.53 342.73 1039.60 610.26 763.16 874.14 1037.91 418.10 1181.30 1021.70 1168.67 262.72 739.99 1031.94 515.80 810.78 685.01 771.95 902.92 1144.63 883.60 1018.89 608.92 779.93 646.24 546.20 1060.53 662.89 560.77 1002.03 600.30 1172.96 1186.94 530.82 726.48 806.44 603.77 859.09 601.76 773.65 973.38 880.17 863.94 776.02 508.87 1071.61 857.74 440.49 797.01 468.72 1006.42 843.69 715.19 816.62 476.00 1058.94 759.16 1007.73 501.72 770.32 726.78 869.18 900.13 518.42 852.51 324.53 396.30 498.56 272.24 828.74 518.59 528.58
657.12 956.90 700.19 484.92 566.48 515.33 676.58 248.21 525.18 582.33 669.87 622.04 533.39 862.07 801.19 195.52 800.31 486.85 893.42 193.57 569.28 781.99 827.76 881.55 535.31 437.01 636.59 556.55 463.88 398.70 454.95 587.02 142.26 677.63 949.29 1054.86 0.00 523.34 641.75 672.46 662.28 403.19 925.97 771.83 352.60 936.29 532.56 503.89 308.94 977.38 691.76 747.22 675.72 340.04 444.41 957.28 858.51 1121.23 605.56 346.75 554.49 325.65 173.55 572.20 782.86 1060.65 590.39 426.61 511.29 581.13 615.16 425.74 607.80 690.65 801.74 693.85 504.87 608.87 559.24 608.03 475.64 561.41 500.98 417.43 995.87 314.34 974.50 468.01 563.23 524.61 562.20 704.02 381.62 609.72 48.44 961.63 439.95 355.42 641.07 387.43 366.83 726.33 691.27 575.63 645.66 456.11 604.28 952.85 783.47 757.45 734.22 755.93 970.77 349.89 1026.74 589.86
910.94 623.07 395.61 499.55 387.53 308.01 277.33 287.64 43.80 249.07 753.68 885.47 738.25 481.58 591.41 472.89 307.46 248.08 575.24 364.12 653.09 439.52 483.54 469.84 449.09 594.82 142.69 391.26 171.10 297.12 461.02 539.45 426.72 516.30 823.57 611.28 523.34 0.00 443.52 670.80 307.68 154.50 819.50 448.00 375.48 420.69 610.62 195.50 301.21 792.81 662.24 253.98 755.24 497.85 600.21 548.15 673.74 916.30 120.84 401.68 317.79 272.84 349.79 719.65 560.19 910.84 338.70 391.21 239.73 185.66 707.58 150.32 276.72 676.68 516.29 737.11 740.72 278.51 364.86 462.71 139.54 431.67 214.33 330.83 833.46 407.29 772.10 387.74 232.03 621.88 481.42 306.79 443.25 203.66 509.25 751.85 117.74 388.06 229.45 596.89 192.90 698.81 313.54 437.41 478.50 480.86 542.33 627.12 590.83 286.75 278.11 401.33 514.90 422.69 701.11 143.80
711.37 543.81 221.66 276.28 129.68 209.20 720.85 511.84 487.32 692.59 543.84 657.95 491.55 471.12 196.34 500.64 603.40 652.63 378.19 564.63 463.00 398.28 749.12 496.88 225.45 870.81 525.82 815.26 612.89 333.87 824.67 299.31 533.94 72.78 446.07 691.80 641.75 443.52 0.00 412.50 364.86 409.42 375.98 336.00 415.43 509.19 427.85 375.95 332.81 349.29 351.36 510.47 505.68 795.92 560.33 566.50 278.67 571.24 539.40 761.41 741.79 552.35 507.09 504.65 191.80 510.66 768.19 816.50 683.25 462.01 390.81 568.15 318.77 310.27 272.89 517.50 586.90 363.85 788.86 114.64 373.05 167.29 638.33 311.27 454.15 434.18 377.03 829.53 341.19 409.70 203.51 459.73 748.11 647.18 627.76 356.78 446.18 367.25 418.67 564.58 437.90 315.93 757.06 108.29 34.98 305.09 208.33 539.76 160.71 604.04 616.19 334.63 603.40 779.84 612.72 587.32
403.75 798.99 549.38 284.09 448.75 517.05 948.13 625.79 714.60 912.33 210.33 343.95 321.64 874.09 508.41 522.30 920.75 861.69 679.59 725.75 182.83 717.43 1024.36 899.85 361.97 1008.19 785.69 959.17 796.44 486.52 1033.73 225.43 530.20 384.85 601.20 1089.20 672.46 670.80 412.50 0.00 645.59 618.48 613.72 642.43 455.99 864.94 217.30 585.94 526.71 506.48 77.55 827.82 126.90 911.22 383.88 947.05 573.84 806.83 791.64 960.75 943.19 761.41 575.72 249.39 297.15 748.40 906.07 1019.04 904.62 682.10 57.30 780.42 551.34 140.24 584.96 145.03 384.55 588.79 990.26 333.47 615.91 323.78 871.55 461.45 562.97 471.54 534.47 989.35 603.24 193.21 312.93 722.41 957.17 870.57 624.02 554.72 655.24 430.36 641.83 416.13 638.57 96.57 984.34 445.45 415.53 312.90 258.65 794.94 271.51 880.78 887.77 719.69 943.24 988.90 874.73 810.71
894.25 398.04 151.31 474.98 249.34 203.82 516.42 483.87 344.63 485.74 717.86 853.68 652.15 343.61 283.73 564.79 397.92 498.17 313.91 498.91 617.27 157.30 566.57 369.37 332.89 779.19 259.19 629.07 478.78 303.35 689.17 504.12 594.24 399.38 533.46 564.29 662.28 307.68 364.86 645.59 0.00 366.49 561.78 140.32 453.22 293.84 616.59 230.21 393.11 497.72 617.31 304.99 670.35 769.75 739.67 351.70 366.06 672.00 306.40 668.94 593.08 468.03 533.52 683.83 517.97 676.43 558.98 640.29 545.32 246.07 641.98 441.66 94.25 557.85 208.61 688.48 747.50 131.00 635.81 365.81 231.43 387.78 489.62 339.26 541.54 480.37 464.42 643.15 146.15 628.11 381.93 197.14 612.61 418.78 644.04 444.17 364.64 414.22 185.82 665.73 378.70 588.42 545.18 299.95 329.88 446.17 472.08 402.09 503.36 386.65 394.61 93.65 376.23 644.34 404.00 410.45
811.91 665.82 394.13 433.79 279.74 303.29 431.83 177.37 198.30 338.69 649.10 730.97 630.32 514.41 576.04 335.32 397.97 243.21 573.76 209.62 548.51 442.75 536.46 540.17 383.33 477.69 297.19 423.43 231.83 231.36 415.25 497.05 357.36 452.48 764.61 678.79 403.19 154.50 409.42 618.48 366.49 0.00 783.22 480.73 262.95 568.94 501.64 136.54 270.44 758.71 645.41 368.71 622.51 466.35 519.23 584.17 658.37 871.22 275.34 351.99 385.55 142.93 247.53 572.98 543.18 917.90 391.85 437.62 286.14 188.89 561.18 192.46 272.24 588.25 531.52 604.38 628.19 277.03 398.75 403.75 138.06 391.96 282.45 270.99 811.19 309.23 750.41 445.43 242.69 513.05 432.37 311.78 338.69 358.16 354.75 736.48 36.76 307.08 267.86 484.36 80.37 608.84 397.95 330.35 374.44 430.95 496.49 661.77 570.13 354.26 331.03 460.14 625.36 370.42 685.97 298.30
877.58 494.18 468.98 609.11 503.48 583.00 1020.51 774.41 825.68 986.59 760.27 869.31 840.62 765.29 278.05 866.24 836.24 927.98 396.05 921.70 700.94 608.63 1029.91 766.38 591.79 1227.88 816.75 1065.67 923.47 661.68 1152.18 675.29 877.15 341.78 112.47 934.73 925.97 819.50 375.98 613.72 561.78 783.22 0.00 533.63 764.62 696.56 610.95 711.23 708.79 146.33 571.21 743.31 687.18 1171.90 888.40 824.02 240.41 195.26 863.96 1104.35 992.20 926.15 849.07 755.01 334.68 134.68 1018.60 1066.91 960.72 739.85 607.24 882.52 656.03 516.02 415.72 705.31 839.50 692.78 1039.27 490.62 725.05 533.63 888.74 622.05 130.10 777.15 97.36 1083.21 707.93 670.38 579.49 758.92 1080.46 922.87 970.97 117.61 819.98 716.44 677.18 824.53 811.70 534.64 1007.52 452.87 410.96 620.51 557.79 495.93 342.21 836.88 903.46 610.89 742.11 1048.73 416.14 863.01
892.00 316.83 279.79 542.32 281.08 344.14 555.17 582.06 427.49 593.36 808.26 811.06 748.06 231.66 367.25 652.04 381.21 562.11 258.83 639.23 707.67 75.00 509.66 257.42 427.82 904.64 399.51 658.41 523.36 443.67 784.48 535.86 705.30 353.64 541.28 446.77 771.83 448.00 336.00 642.43 140.32 480.73 533.63 0.00 574.42 317.17 676.73 370.53 533.43 427.37 649.70 288.28 769.33 902.79 801.70 331.91 293.22 632.70 414.07 681.73 673.35 608.35 598.28 760.53 507.66 572.12 649.73 699.21 638.98 291.84 666.86 528.69 234.57 570.23 153.53 754.05 843.41 229.70 626.28 390.69 368.67 438.09 597.29 479.58 557.57 602.61 436.27 719.77 286.47 654.37 435.12 256.36 738.06 509.53 779.04 456.52 488.37 526.24 241.84 738.68 413.21 651.93 497.97 323.55 301.02 517.29 499.79 320.88 496.71 381.85 439.38 77.26 300.81 725.13 324.87 466.47
563.20 772.78 445.82 192.10 328.92 249.40 633.71 183.04 400.18 559.67 429.27 544.43 367.37 708.48 560.69 167.88 646.38 464.19 646.60 322.32 328.68 560.81 799.41 724.92 210.92 628.50 486.41 631.77 434.57 159.05 659.20 253.27 220.29 460.20 772.27 837.53 352.60 375.48 415.43 455.99 453.22 262.95 764.62 574.42 0.00 686.94 238.69 254.54 100.17 691.23 445.71 563.20 448.54 563.28 331.72 764.50 599.75 843.54 477.94 554.04 579.33 405.88 190.60 372.74 480.32 853.69 610.09 591.93 507.12 407.51 418.89 386.24 358.97 437.08 541.30 446.26 365.24 425.83 619.73 300.79 316.63 269.08 503.43 144.75 803.94 46.28 667.26 640.69 345.21 298.12 259.96 492.11 601.64 536.11 312.18 675.21 257.74 48.18 453.16 221.41 182.58 428.21 649.00 315.19 390.46 206.16 313.41 768.73 449.23 602.67 593.98 497.16 743.36 578.01 754.06 476.25
1117.38 202.38 445.15 768.82 543.18 497.66 571.78 693.15 464.49 583.13 1011.15 1127.35 945.99 122.05 577.57 798.66 330.49 632.92 404.93 778.56 911.11 335.94 400.05 147.81 626.73 981.59 441.50 722.13 591.79 569.09 832.78 792.38 828.48 576.24 609.97 342.73 936.29 420.69 509.19 864.94 293.84 568.94 696.56 317.17 686.94 0.00 890.88 432.40 627.35 645.45 787.39 349.65 947.56 918.54 1006.28 127.46 538.21 719.14 444.94 776.03 708.88 693.53 767.81 955.66 633.68 709.02 624.52 762.97 611.49 447.57 858.12 571.01 388.09 776.40 376.13 965.69 1027.06 424.84 724.03 581.95 502.81 651.20 628.16 600.31 656.55 715.13 681.26 752.44 439.99 893.85 650.04 383.05 815.01 542.38 913.88 699.00 538.43 638.76 377.37 908.35 597.10 795.02 519.88 593.79 544.17 740.01 717.52 206.43 602.59 365.95 367.08 327.73 94.21 787.27 280.42 499.14
366.97 846.21 562.89 151.57 395.65 427.10 835.69 421.73 607.48 798.36 190.58 315.75 229.67 818.92 553.85 337.04 809.12 702.88 725.47 561.01 89.99 739.49 963.96 844.68 283.70 847.68 649.15 870.46 653.96 321.79 897.89 140.87 390.30 430.29 692.51 1039.60 532.56 610.62 427.85 217.30 616.59 501.64 610.95 676.73 238.69 890.88 0.00 458.48 309.41 636.47 219.45 761.07 209.85 750.71 291.04 919.17 603.16 806.21 673.18 792.73 800.71 607.25 429.29 144.06 475.45 745.63 848.78 830.62 745.81 578.80 185.72 624.93 530.89 294.35 620.17 217.69 228.55 582.10 847.78 380.11 479.37 310.86 742.12 328.76 704.87 284.97 587.50 870.60 563.70 59.43 261.11 654.85 840.33 738.05 484.12 607.75 496.43 286.87 636.92 249.31 421.27 256.02 880.18 394.06 392.87 170.42 279.19 842.16 448.45 765.41 758.53 675.84 947.30 816.70 921.95 678.19
791.73 595.36 326.48 339.12 246.27 166.75 423.03 260.75 189.50 432.14 615.34 739.30 621.03 453.94 513.94 366.26 404.96 374.93 506.11 346.16 514.75 353.53 581.04 479.70 264.92 614.23 240.19 512.62 347.04 136.69 551.79 360.51 396.08 419.01 628.07 610.26 503.89 195.50 375.95 585.94 230.21 136.54 711.23 370.53 254.54 432.40 458.48 0.00 194.95 662.84 549.34 358.17 596.83 602.89 573.88 526.54 552.08 826.95 278.87 456.54 439.15 279.47 335.41 567.61 473.74 820.11 465.55 513.86 407.67 175.90 528.64 312.02 135.96 501.89 438.82 578.70 594.66 187.23 486.22 267.21 70.41 311.89 335.69 167.91 674.65 282.73 613.87 530.16 122.08 461.45 313.96 254.15 475.23 363.24 489.90 634.12 173.30 206.36 198.62 475.95 164.70 578.80 471.22 289.70 340.97 364.34 401.82 594.12 442.65 384.25 375.61 323.86 488.82 451.20 634.21 322.84
663.37 727.57 391.25 255.33 285.91 206.39 559.33 189.63 325.80 548.06 499.99 625.16 457.90 618.76 529.15 171.68 577.09 465.14 598.10 280.85 399.40 485.74 757.97 644.52 241.73 560.08 417.12 643.57 367.17 89.76 656.52 350.75 201.13 405.59 777.34 763.16 308.94 301.21 332.81 526.71 393.11 270.44 708.79 533.43 100.17 627.35 309.41 194.95 0.00 682.10 525.66 509.33 519.26 463.11 405.51 683.34 549.57 877.39 422.05 560.63 540.55 413.37 183.34 453.47 479.64 843.47 581.70 632.57 482.79 327.10 482.12 366.26 298.86 466.21 492.80 516.99 465.41 336.27 587.62 327.96 247.34 258.71 499.51 114.73 786.96 117.01 692.62 583.81 254.29 368.84 290.77 410.95 609.13 504.87 294.95 674.91 259.67 109.06 363.44 321.58 190.07 489.09 573.52 266.69 342.00 267.04 318.58 731.62 493.52 533.38 552.54 486.76 683.77 584.60 724.04 445.01
824.94 491.33 429.15 499.13 478.97 522.07 982.54 853.10 777.29 979.24 681.03 765.14 762.33 659.03 213.99 805.30 787.85 977.10 319.49 834.99 637.01 502.37 937.03 684.79 544.33 1141.17 752.69 969.72 882.46 631.28 1134.81 561.34 855.98 320.61 115.79 874.14 977.38 792.81 349.29 506.48 497.72 758.71 146.33 427.37 691.23 645.45 636.47 662.84 682.10 0.00 428.93 694.92 548.09 1105.83 830.25 759.28 155.50 338.56 799.90 1055.96 1027.22 901.64 856.38 620.25 286.29 280.23 1033.86 1065.83 998.08 700.02 528.00 834.13 591.97 490.98 362.59 566.22 730.31 609.92 1025.67 459.03 672.58 516.18 937.86 660.16 130.20 707.89 48.97 1058.26 597.75 672.75 516.91 683.73 1097.40 913.38 949.80 53.55 795.47 645.40 664.74 775.73 787.19 465.50 925.34 457.58 384.27 527.94 426.76 495.38 317.38 788.49 851.37 504.63 714.96 1112.25 562.47 862.28
438.30 769.11 541.44 325.86 387.98 457.56 939.57 548.24 706.04 891.85 252.10 378.50 341.40 822.48 505.38 556.49 846.94 833.24 638.44 726.94 237.36 668.08 986.25 848.24 284.42 1033.12 718.16 881.62 764.29 436.39 1018.37 239.58 571.97 383.30 532.00 1037.91 691.76 662.24 351.36 77.55 617.31 645.41 571.21 649.70 445.71 787.39 219.45 549.34 525.66 428.93 0.00 792.15 161.45 952.99 438.41 886.28 532.69 765.68 757.13 913.55 897.46 776.91 622.90 298.20 256.00 705.89 923.86 960.56 865.98 675.30 99.07 715.96 532.35 79.47 583.41 179.58 433.36 550.68 931.06 314.15 569.81 277.68 794.00 415.59 485.42 470.27 477.90 911.80 565.09 264.39 235.38 684.30 969.88 862.64 643.32 482.48 630.99 416.60 605.50 346.80 628.29 36.57 963.02 411.54 354.76 322.03 227.10 765.06 229.00 803.23 810.22 685.99 881.60 943.21 844.85 806.04
1092.39 455.11 453.14 619.46 452.29 372.77 300.09 526.25 237.44 321.00 884.05 1040.86 855.86 227.60 588.72 670.73 92.93 355.34 424.60 574.01 818.97 213.28 297.78 253.36 545.91 734.02 118.35 429.82 330.95 440.91 588.32 687.67 620.36 553.53 750.96 418.10 747.22 253.98 510.47 827.82 304.99 368.71 743.31 288.28 563.20 349.65 761.07 358.17 509.33 694.92 792.15 0.00 893.52 670.29 854.19 327.85 581.50 920.98 141.66 561.40 428.34 421.57 589.85 869.17 685.02 860.40 386.96 503.05 396.86 182.27 778.17 351.51 300.61 712.68 414.54 875.39 898.88 241.47 469.55 556.35 287.76 579.89 324.88 479.05 795.89 549.13 645.95 497.49 255.04 765.67 594.95 107.85 585.44 279.04 711.20 666.20 371.72 551.78 193.64 784.61 407.20 813.38 264.21 484.45 475.49 590.65 642.64 459.16 671.18 93.57 160.15 274.91 404.18 553.71 509.23 244.19
276.85 925.89 612.85 339.37 491.10 520.75 1004.27 631.58 770.74 923.22 145.18 217.05 249.71 960.62 622.83 539.71 950.25 865.72 758.50 665.16 186.51 827.65 1126.33 986.38 427.70 971.34 785.48 1011.33 851.72 511.97 1037.76 236.32 592.97 499.27 663.88 1181.30 675.72 755.24 505.68 126.90 670.35 622.51 687.18 769.33 448.54 947.56 209.85 596.83 519.26 548.09 161.45 893.52 0.00 936.00 387.56 1018.13 652.75 882.44 795.84 974.50 908.31 765.44 613.35 194.53 376.06 821.86 1010.84 1016.89 908.65 721.19 120.77 814.97 630.32 229.40 699.38 18.13 279.73 697.18 955.38 396.94 615.70 400.56 880.98 472.34 646.87 418.11 597.06 999.32 682.22 230.84 378.66 785.67 961.20 908.53 684.01 601.64 659.27 477.40 705.30 379.30 631.12 194.49 1016.51 508.55 486.61 368.18 322.12 921.84 344.97 929.54 920.90 764.00 1041.77 992.93 1001.63 865.99
928.80 1120.92 854.36 718.44 746.09 669.50 636.75 443.19 508.16 505.36 896.65 893.72 780.76 801.10 974.32 413.67 758.00 468.21 1040.11 270.84 796.06 883.57 790.27 826.86 704.84 96.97 626.56 410.69 413.47 552.87 264.80 781.05 381.02 850.76 1167.44 1021.70 340.04 497.85 795.92 911.22 769.75 466.35 1171.90 902.79 563.28 918.54 750.71 602.89 463.11 1105.83 952.99 670.29 936.00 0.00 642.72 901.35 1012.68 1337.57 602.76 221.06 402.40 371.54 420.87 832.98 942.75 1306.58 498.84 312.04 385.60 655.24 853.92 393.40 688.52 919.73 939.88 935.25 776.55 691.91 429.46 791.07 604.41 721.82 457.58 577.84 1214.02 535.27 1154.80 323.27 688.91 742.76 753.88 771.15 224.69 552.98 320.12 1134.76 503.11 572.17 693.81 648.21 508.72 950.09 635.82 729.80 805.11 730.15 781.69 1124.97 956.63 737.42 696.04 844.83 977.68 256.42 1152.32 576.57
310.73 985.43 722.04 367.45 581.30 535.85 877.54 490.96 644.01 784.40 301.64 339.92 138.04 987.14 688.90 307.65 901.48 688.92 760.02 517.77 201.05 773.99 1055.69 1002.74 451.92 739.69 742.90 853.36 677.54 476.41 688.27 326.52 360.91 613.40 896.05 1168.67 444.41 600.21 560.33 383.88 739.67 519.23 888.40 801.70 331.72 1006.28 291.04 573.88 405.51 830.25 438.41 854.19 387.56 642.72 0.00 1038.24 771.23 1059.17 721.05 716.12 831.62 577.86 416.30 267.61 623.72 998.59 847.25 736.55 731.85 708.12 372.75 668.49 645.42 481.38 788.39 405.22 233.39 712.28 844.46 445.69 615.68 510.08 728.16 436.78 919.07 349.09 791.04 777.95 659.80 254.35 468.86 765.85 691.56 803.87 454.73 811.29 482.47 367.52 752.39 110.31 501.59 474.98 873.73 562.28 535.36 338.64 403.49 981.38 592.63 857.77 850.26 724.44 1015.72 659.83 1034.79 744.01
1213.57 329.84 489.93 772.82 601.04 537.31 444.32 709.07 535.38 524.69 1005.23 1142.97 1003.85 100.25 588.21 855.02 297.72 563.82 532.39 793.79 968.97 314.48 378.25 89.23 684.59 935.73 415.61 681.83 586.70 605.45 821.44 795.85 846.40 609.56 737.43 262.72 957.28 548.15 566.50 947.05 351.70 584.17 824.02 331.91 764.50 127.46 919.17 526.54 683.34 759.28 886.28 327.85 1018.13 901.35 1038.24 0.00 625.13 769.22 449.59 753.85 657.15 726.55 783.73 1011.20 724.58 829.80 581.06 752.07 618.38 395.28 897.36 635.03 445.95 806.81 428.92 1014.04 1063.42 406.01 646.54 621.19 500.77 668.59 573.90 645.08 784.01 792.69 758.25 748.16 429.05 930.21 700.05 272.39 769.15 440.86 938.92 738.00 555.77 716.32 355.57 971.55 620.21 882.43 471.84 606.83 531.52 748.75 730.29 333.89 693.49 326.83 358.55 324.64 87.99 800.88 407.88 495.74
872.00 335.83 351.51 513.43 378.63 450.65 848.39 739.20 694.89 847.58 725.84 791.06 770.22 524.88 82.33 721.25 674.43 845.44 163.99 785.81 671.64 368.22 789.50 550.64 388.83 1091.99 621.03 951.63 806.00 540.80 1055.23 522.25 741.26 205.89 248.06 739.99 858.51 673.74 278.67 573.84 366.06 658.37 240.41 293.22 599.75 538.21 603.16 552.08 549.57 155.50 532.69 581.50 652.75 1012.68 771.23 625.13 0.00 387.71 668.24 974.95 909.66 801.30 732.22 665.35 276.69 374.31 917.13 984.37 878.18 581.21 572.81 782.53 460.31 481.59 269.29 670.88 800.51 454.42 919.50 342.23 540.92 411.48 806.20 555.46 285.70 645.09 143.05 966.57 512.21 618.34 437.87 549.58 978.67 776.93 835.08 163.30 674.13 568.72 509.24 666.47 686.85 500.21 791.19 350.90 283.93 484.62 419.22 339.88 307.78 645.39 717.16 370.48 583.30 1003.28 413.87 733.87
1072.06 567.22 520.69 771.93 591.48 671.00 1061.73 969.67 910.45 1100.55 955.53 1039.99 934.41 841.19 425.74 955.26 1013.91 1081.28 516.91 1080.84 896.20 707.70 1119.19 858.45 715.77 1348.91 931.19 1218.97 975.18 814.40 1243.95 809.07 1008.52 537.04 283.15 1031.94 1121.23 916.30 571.24 806.83 672.00 871.22 195.26 632.70 843.54 719.14 806.21 826.95 877.39 338.56 765.68 920.98 882.44 1337.57 1059.17 769.22 387.71 0.00 953.24 1179.70 1145.50 1014.15 1034.14 950.27 509.68 60.58 1171.90 1220.21 1090.80 791.56 802.50 1018.37 690.99 711.28 556.44 900.57 1029.76 757.85 1192.57 613.48 776.76 682.73 1042.04 817.31 325.36 871.73 291.84 1191.82 742.89 865.64 666.73 869.14 1209.91 1065.59 1102.34 292.84 907.98 795.36 797.96 1000.89 899.70 729.39 1118.15 642.09 606.22 800.74 753.05 563.17 537.47 1014.55 965.35 709.96 809.35 1235.99 610.34 1011.78
1021.08 596.77 432.55 521.61 443.35 376.93 227.89 407.83 164.64 179.34 844.69 943.01 820.03 366.04 585.91 550.12 211.98 213.68 559.32 432.35 744.10 354.94 388.06 360.36 480.95 610.36 47.21 360.15 189.29 366.04 446.66 608.37 497.65 582.46 816.62 515.80 605.56 120.84 539.40 791.64 306.40 275.34 863.96 414.07 477.94 444.94 673.18 278.87 422.05 799.90 757.13 141.66 795.84 602.76 721.05 449.59 668.24 953.24 0.00 419.74 286.68 279.91 470.63 771.32 681.03 956.66 286.54 361.39 255.20 161.68 748.40 237.62 270.90 737.74 454.02 777.71 824.01 286.28 333.75 546.08 208.46 479.45 183.22 399.75 843.72 524.22 766.60 367.10 260.35 690.80 529.20 186.88 443.78 161.34 577.48 746.35 238.58 476.91 231.46 699.35 313.74 793.70 285.09 493.96 504.42 550.42 590.11 600.82 659.75 191.27 182.63 336.81 511.18 412.05 647.16 113.80
1001.60 947.15 659.01 676.66 631.73 623.29 439.70 371.00 388.71 322.62 888.86 966.52 852.08 672.90 928.03 479.27 555.59 249.03 912.99 374.07 788.27 705.32 604.58 664.62 694.26 222.91 466.95 214.24 280.16 547.32 121.15 776.63 486.74 804.47 1084.61 810.78 346.75 401.68 761.41 960.75 668.94 351.99 1104.35 681.73 554.04 776.03 792.73 456.54 560.63 1055.96 913.55 561.40 974.50 221.06 716.12 753.85 974.95 1179.70 419.74 0.00 216.71 209.06 445.66 854.83 895.17 1176.67 294.35 90.98 164.54 507.06 903.45 316.07 582.84 834.08 828.86 956.37 849.35 601.02 218.88 723.75 490.05 714.36 236.52 570.38 1129.05 600.32 1006.99 125.70 530.94 808.36 743.30 588.15 56.33 342.06 392.92 1027.24 387.60 530.39 574.36 734.18 432.36 910.42 453.08 682.34 726.43 688.37 721.23 951.20 899.19 559.57 487.80 704.16 815.44 56.29 1001.27 377.80
1106.27 871.64 624.81 659.10 616.73 537.21 255.92 417.34 302.48 132.46 939.12 1053.58 851.70 586.83 827.33 545.57 385.10 142.70 804.44 412.74 838.53 629.81 387.87 612.59 624.63 394.11 333.89 103.02 226.80 526.32 197.58 768.65 524.29 789.47 1044.69 685.01 554.49 317.79 741.79 943.19 593.08 385.55 992.20 673.35 579.33 708.88 800.71 439.15 540.55 1027.22 897.46 428.34 908.31 402.40 831.62 657.15 909.66 1145.50 286.68 216.71 0.00 338.47 445.28 905.09 851.12 1126.88 109.82 135.46 111.18 432.85 885.89 193.09 505.92 887.13 740.70 890.18 944.57 503.45 47.07 706.36 368.74 660.87 103.46 560.03 1075.69 616.73 978.25 91.01 477.57 827.79 673.67 473.56 227.53 216.29 552.75 987.77 349.15 619.47 448.63 791.48 396.75 934.03 262.92 652.95 711.43 630.29 763.82 871.26 820.03 428.25 387.63 596.09 745.14 204.60 891.41 224.00
858.62 795.16 537.06 544.70 422.67 446.22 350.93 246.56 304.90 291.25 753.19 849.20 647.32 645.95 718.97 270.21 475.71 195.77 716.69 267.28 652.60 553.33 627.67 638.09 526.26 334.76 310.94 370.98 157.92 374.29 330.21 577.68 323.47 595.41 907.54 771.95 325.65 272.84 552.35 761.41 468.03 142.93 926.15 608.35 405.88 693.53 607.25 279.47 413.37 901.64 776.91 421.57 765.44 371.54 577.86 726.55 801.30 1014.15 279.91 209.06 338.47 0.00 240.90 705.46 686.11 967.61 354.10 300.04 233.86 331.82 704.11 161.16 373.78 731.18 674.45 747.31 709.82 403.86 315.03 546.68 280.99 505.30 235.01 361.32 936.98 391.81 893.34 322.89 321.88 599.30 549.30 454.71 265.39 303.76 374.09 879.41 179.69 430.11 410.79 554.27 223.30 751.77 408.13 473.28 517.37 573.51 615.96 799.21 713.06 455.00 446.36 561.68 768.29 265.35 828.90 297.32
660.99 829.85 558.16 360.96 469.25 389.73 544.00 74.66 363.47 464.13 536.40 608.30 406.42 688.52 649.89 213.41 636.64 404.70 737.79 150.03 435.81 608.44 770.27 708.00 401.52 456.21 471.87 548.30 300.52 273.10 476.93 443.87 223.92 550.15 899.62 902.92 173.55 349.79 507.09 575.72 533.52 247.53 849.07 598.28 190.60 767.81 429.29 335.41 183.34 856.38 622.90 589.85 613.35 420.87 416.30 783.73 732.22 1034.14 470.63 445.66 445.28 240.90 0.00 488.67 662.98 983.75 480.83 493.62 416.14 407.58 587.75 252.19 439.27 627.68 676.14 595.22 501.77 435.32 492.35 457.11 302.09 387.86 402.69 243.88 907.70 236.88 830.58 517.16 410.92 382.51 431.86 530.47 499.79 446.36 180.76 810.33 268.44 238.78 484.95 412.01 193.28 618.81 592.84 450.03 472.11 389.77 486.89 825.80 632.55 601.79 578.56 627.17 797.22 468.06 853.19 461.08
252.63 939.75 656.43 249.71 489.19 525.24 933.83 555.78 715.58 911.67 119.67 171.69 142.08 927.02 642.17 435.25 918.25 816.19 804.90 638.70 66.56 835.53 1099.13 952.78 389.34 929.95 758.28 996.41 749.12 430.92 955.88 234.41 451.96 557.25 736.04 1144.63 572.20 719.65 504.65 249.39 683.83 572.98 755.01 760.53 372.74 955.66 144.06 567.61 453.47 620.25 298.20 869.17 194.53 832.98 267.61 1011.20 665.35 950.27 771.32 854.83 905.09 705.46 488.67 0.00 485.15 889.69 964.83 945.81 859.12 686.90 238.26 738.36 634.81 346.89 720.96 176.40 135.16 680.24 952.16 390.01 588.50 418.30 853.78 450.75 746.12 384.49 669.22 951.76 635.76 106.16 376.75 762.21 911.16 836.19 545.78 673.80 609.74 371.36 735.06 184.77 534.70 261.63 970.93 494.85 479.68 278.52 371.88 935.70 454.06 874.54 893.70 773.98 1049.87 911.12 1015.49 776.33
652.91 578.31 366.66 355.56 288.17 367.69 837.52 645.26 603.99 809.26 449.15 593.11 560.46 662.92 249.38 612.87 762.87 786.39 382.44 733.94 467.82 555.39 920.79 688.68 295.23 1020.87 652.16 924.59 731.29 447.20 958.43 384.99 666.13 154.02 314.81 883.60 782.86 560.19 191.80 297.15 517.97 543.18 334.68 507.66 480.32 633.68 475.45 473.74 479.64 286.29 256.00 685.02 376.06 942.75 623.72 724.58 276.69 509.68 681.03 895.17 851.12 686.11 662.98 485.15 0.00 468.58 877.52 925.83 799.92 583.39 296.12 710.51 477.26 204.90 354.13 394.19 620.31 485.22 898.19 206.53 482.38 275.78 747.66 419.76 361.39 526.60 237.32 942.13 515.74 490.36 246.19 592.12 881.87 763.85 759.95 257.57 579.94 459.14 540.04 513.41 596.39 223.52 873.73 270.53 209.53 326.75 246.67 574.26 31.09 768.69 781.22 526.43 727.89 913.60 654.05 703.99
1011.48 506.64 581.27 711.35 638.16 700.78 1081.85 909.09 867.04 1121.27 894.95 979.41 975.30 803.78 392.70 965.41 953.33 1062.66 456.33 1056.38 835.62 647.12 1081.78 829.54 680.31 1302.37 909.45 1200.35 1024.58 796.36 1286.86 806.04 1011.83 476.46 222.57 1018.89 1060.65 910.84 510.66 748.40 676.43 917.90 134.68 572.12 853.69 709.02 745.63 820.11 843.47 280.23 705.89 860.40 821.86 1306.58 998.59 829.80 374.31 60.58 956.66 1176.67 1126.88 967.61 983.75 889.69 468.58 0.00 1153.28 1201.59 1091.21 852.14 741.92 1010.78 751.57 650.70 502.64 839.99 974.18 801.82 1173.95 552.90 837.34 622.15 1023.42 756.73 264.78 881.88 231.26 1217.89 803.47 805.06 670.99 828.48 1215.14 1057.55 1105.65 232.26 954.66 805.51 811.86 959.21 946.38 669.32 1070.09 587.55 545.64 740.16 692.47 502.59 476.89 953.97 991.42 649.38 748.77 1183.41 549.76 997.69
1126.23 799.22 651.21 724.97 643.13 563.61 146.10 452.89 294.90 107.20 1001.03 1045.29 887.25 502.47 839.59 624.31 294.03 158.33 805.59 451.61 900.44 600.24 457.96 528.23 660.18 466.07 300.89 158.40 262.20 552.72 282.14 794.10 583.82 815.87 1003.95 608.92 590.39 338.70 768.19 906.07 558.98 391.85 1018.60 649.73 610.09 624.52 848.78 465.55 581.70 1033.86 923.86 386.96 1010.84 498.84 847.25 581.06 917.13 1171.90 286.54 294.35 109.82 354.10 480.83 964.83 877.52 1153.28 0.00 203.37 150.48 416.19 934.76 228.64 488.01 922.68 700.29 992.71 975.33 462.71 117.56 732.76 395.14 687.27 129.86 586.43 1050.53 632.36 1013.37 175.57 436.11 863.34 709.22 451.85 307.81 140.20 541.95 1000.03 364.78 635.10 407.89 831.50 432.30 960.43 203.30 688.50 737.83 731.96 797.93 795.17 846.43 331.36 319.00 603.56 669.05 280.09 855.57 200.06
1025.97 907.20 699.52 767.64 691.44 611.92 349.47 461.98 375.65 267.92 979.84 990.89 874.59 672.88 902.04 564.37 475.54 217.41 879.15 428.22 879.25 704.52 523.33 666.14 745.27 262.70 408.60 137.30 265.40 595.46 85.27 843.36 511.11 864.18 1122.75 779.93 426.61 391.21 816.50 1019.04 640.29 437.62 1066.91 699.21 591.93 762.97 830.62 513.86 632.57 1065.83 960.56 503.05 1016.89 312.04 736.55 752.07 984.37 1220.21 361.39 90.98 135.46 300.04 493.62 945.81 925.83 1201.59 203.37 0.00 151.48 507.56 961.74 313.73 580.63 908.02 815.41 998.76 873.72 560.91 158.22 781.07 443.45 735.58 178.17 634.74 1115.99 598.78 1082.73 48.76 552.28 876.13 785.33 548.27 104.44 311.21 417.29 1062.48 400.86 621.37 526.69 778.30 476.02 997.13 398.38 719.19 786.14 748.94 760.39 911.25 894.74 468.59 396.82 698.20 816.96 76.72 966.12 302.06
1042.58 813.43 570.11 627.97 565.88 505.73 275.16 388.20 224.17 158.08 893.27 1015.50 822.56 597.85 795.85 490.50 391.05 84.49 772.96 377.77 792.68 571.60 499.05 615.56 595.49 370.10 302.41 181.57 115.62 443.98 221.29 711.05 437.24 738.62 1005.88 646.24 511.29 239.73 683.25 904.62 545.32 286.14 960.72 638.98 507.12 611.49 745.81 407.67 482.79 998.08 865.98 396.86 908.65 385.60 731.85 618.38 878.18 1090.80 255.20 164.54 111.18 233.86 416.14 859.12 799.92 1091.21 150.48 151.48 0.00 373.75 847.32 163.95 474.44 837.20 691.58 890.52 872.36 436.48 152.64 673.83 337.26 604.58 71.98 483.61 964.51 553.40 949.11 159.29 446.09 758.58 644.53 423.61 203.52 177.52 522.90 956.29 249.38 519.70 409.82 704.43 324.54 894.98 288.54 616.49 660.58 599.16 689.57 817.48 788.55 412.80 356.15 582.11 705.70 182.96 859.93 213.26
910.12 495.69 270.87 437.19 340.91 261.39 382.27 366.26 149.58 308.99 701.78 858.59 717.06 325.52 503.23 498.78 268.54 290.15 495.74 398.51 641.13 253.86 473.39 351.28 399.75 654.43 166.48 501.64 307.12 263.07 547.77 505.40 451.12 504.49 675.03 546.20 581.13 185.66 462.01 682.10 246.07 188.89 739.85 291.84 407.51 447.57 578.80 175.90 327.10 700.02 675.30 182.27 721.19 655.24 708.12 395.28 581.21 791.56 161.68 507.06 432.85 331.82 407.58 686.90 583.39 852.14 416.19 507.56 373.75 0.00 663.50 293.32 151.82 605.00 390.44 703.06 721.04 133.79 445.69 443.11 105.49 397.62 329.39 296.78 721.61 444.11 682.04 482.05 121.82 587.83 447.37 122.89 491.94 284.63 543.64 663.67 225.65 373.94 78.97 623.25 224.93 659.71 431.11 377.00 427.03 408.38 508.28 499.74 552.30 264.84 301.90 280.76 483.27 460.21 549.81 228.75
361.37 834.39 492.08 226.79 417.14 459.75 910.91 593.20 692.66 855.03 153.03 325.88 264.34 839.85 536.07 522.76 866.58 804.39 678.56 678.34 171.70 733.63 1015.41 865.61 312.71 950.89 737.82 980.69 739.14 429.22 976.43 168.13 472.90 419.33 592.90 1060.53 615.16 707.58 390.81 57.30 641.98 561.18 607.24 666.86 418.89 858.12 185.72 528.64 482.12 528.00 99.07 778.17 120.77 853.92 372.75 897.36 572.81 802.50 748.40 903.45 885.89 704.11 587.75 238.26 296.12 741.92 934.76 961.74 847.32 663.50 0.00 723.12 560.64 108.63 614.26 132.72 359.69 579.84 932.96 276.17 568.04 279.79 833.32 404.15 546.32 435.55 533.44 955.78 612.54 225.00 287.37 670.32 899.87 813.27 566.72 546.06 597.94 373.06 584.53 410.19 601.47 111.17 959.13 388.15 365.84 255.60 201.35 838.44 265.03 831.52 862.21 724.28 952.33 931.60 912.43 753.41
913.18 755.82 497.68 496.33 472.20 410.08 291.81 224.25 143.74 211.94 772.39 860.49 658.61 579.11 700.20 423.21 397.93 152.51 677.31 304.45 671.80 515.08 518.08 560.31 431.54 461.13 233.16 296.11 48.33 355.01 371.54 608.10 369.95 604.87 890.17 662.89 425.74 150.32 568.15 780.42 441.66 192.46 882.52 528.69 386.24 571.01 624.93 312.02 366.26 834.13 715.96 351.51 814.97 393.40 668.49 635.03 782.53 1018.37 237.62 316.07 193.09 161.16 252.19 738.36 710.51 1010.78 228.64 313.73 163.95 293.32 723.12 0.00 347.41 694.04 629.48 796.84 751.48 377.49 240.16 558.95 241.61 489.70 150.50 394.64 933.40 432.52 785.16 264.97 295.51 634.70 480.58 406.73 305.96 194.17 432.95 805.41 192.36 434.42 329.39 607.65 203.66 752.53 340.65 459.86 535.17 525.14 570.73 759.87 692.90 376.42 368.58 451.43 649.00 307.53 761.78 208.89
847.69 476.75 231.90 385.10 189.09 109.57 467.50 389.62 250.38 443.61 662.66 806.50 644.59 362.29 377.98 470.54 389.02 441.70 408.16 417.68 570.71 243.76 502.43 388.05 247.93 708.54 245.33 534.82 395.74 209.10 665.90 426.46 499.99 361.83 627.71 560.77 607.80 276.72 318.77 551.34 94.25 272.24 656.03 234.57 358.97 388.09 530.89 135.96 298.86 591.97 532.35 300.61 630.32 688.52 645.42 445.95 460.31 690.99 270.90 582.84 505.92 373.78 439.27 634.81 477.26 751.57 488.01 580.63 474.44 151.82 560.64 347.41 0.00 497.60 302.86 612.19 667.07 66.86 546.15 293.15 137.18 306.09 402.46 248.73 635.79 386.12 558.67 574.09 51.90 533.86 296.97 192.76 610.93 374.66 562.81 538.42 270.39 319.97 106.97 575.20 284.45 568.92 521.14 225.18 283.79 361.21 379.44 472.70 468.59 376.48 374.43 187.90 470.48 587.16 498.25 320.79
470.00 749.01 461.97 268.72 308.51 388.03 891.36 620.12 691.39 872.98 261.66 434.51 372.97 781.35 451.67 512.40 805.61 810.56 587.34 673.96 280.33 645.23 906.78 807.11 279.47 980.14 704.65 961.09 721.58 412.76 955.23 189.24 565.66 328.11 484.27 1002.03 690.65 676.68 310.27 140.24 557.85 588.25 516.02 570.23 437.08 776.40 294.35 501.89 466.21 490.98 79.47 712.68 229.40 919.73 481.38 806.81 481.59 711.28 737.74 834.08 887.13 731.18 627.68 346.89 204.90 650.70 922.68 908.02 837.20 605.00 108.63 694.04 497.60 0.00 528.22 241.35 468.32 471.21 926.11 234.68 537.14 258.29 802.42 402.27 437.69 390.80 442.22 938.22 549.50 333.45 230.43 604.83 890.41 793.72 642.21 437.43 607.36 400.71 526.03 426.27 616.73 100.70 931.58 333.76 275.29 281.34 147.63 753.06 173.81 794.34 778.78 629.82 862.22 890.37 827.05 750.66
866.22 323.17 169.85 471.25 276.72 356.24 665.14 629.66 535.61 633.36 747.06 785.28 743.70 385.19 213.72 647.68 507.47 645.79 105.30 707.52 698.17 201.26 663.19 410.95 378.44 960.98 406.81 808.47 581.15 461.11 870.96 531.50 693.93 200.11 452.76 600.30 801.74 516.29 272.89 584.96 208.61 531.52 415.72 153.53 541.30 376.13 620.17 438.82 492.80 362.59 583.41 414.54 699.38 939.88 788.39 428.92 269.29 556.44 454.02 828.86 740.70 674.45 676.14 720.96 354.13 502.64 700.29 815.41 691.58 390.44 614.26 629.48 302.86 528.22 0.00 703.23 827.23 339.61 779.81 346.73 393.46 359.97 637.24 471.10 471.53 587.58 370.58 797.79 354.76 644.87 409.72 360.77 794.40 567.50 787.75 350.33 526.67 534.68 349.96 762.71 566.74 546.84 641.58 226.11 278.15 449.75 412.91 319.12 354.41 508.11 488.78 230.79 442.99 826.13 398.91 562.67
258.72 923.53 624.80 329.96 472.97 502.62 986.14 629.30 752.61 905.09 127.05 235.18 267.18 972.57 640.96 521.58 932.12 847.59 776.63 683.14 204.64 829.05 1108.20 998.33 409.57 989.32 767.35 993.20 836.21 493.84 1019.63 218.19 574.84 517.40 682.01 1172.96 693.85 737.11 517.50 145.03 688.48 604.38 705.31 754.05 446.26 965.69 217.69 578.70 516.99 566.22 179.58 875.39 18.13 935.25 405.22 1014.04 670.88 900.57 777.71 956.37 890.18 747.31 595.22 176.40 394.19 839.99 992.71 998.76 890.52 703.06 132.72 796.84 612.19 241.35 703.23 0.00 261.60 679.05 937.25 408.89 597.57 402.08 862.85 454.21 665.00 399.98 615.19 981.19 664.09 212.71 360.53 767.54 943.07 890.40 665.88 619.77 641.14 464.43 717.25 361.17 628.84 212.62 998.38 520.87 482.52 358.77 334.07 919.48 363.10 911.41 902.77 782.13 1054.86 974.80 999.27 850.00
259.60 1070.12 732.11 380.12 562.33 614.64 986.14 548.28 752.61 924.91 254.83 226.64 95.35 1012.89 743.22 493.73 945.30 829.43 932.53 601.56 201.72 871.80 1126.18 1023.84 490.76 850.84 785.33 997.01 798.48 457.97 921.66 367.21 476.86 640.38 846.10 1186.94 504.87 740.72 586.90 384.55 747.50 628.19 839.50 843.41 365.24 1027.06 228.55 594.66 465.41 730.31 433.36 898.88 279.73 776.55 233.39 1063.42 800.51 1029.76 824.01 849.35 944.57 709.82 501.77 135.16 620.31 974.18 975.33 873.72 872.36 721.04 359.69 751.48 667.07 468.32 827.23 261.60 0.00 733.93 967.23 525.17 615.55 517.15 868.67 495.60 860.51 411.52 779.28 922.48 710.45 207.21 485.65 791.03 886.49 901.35 456.43 783.86 622.98 413.42 757.57 209.67 547.82 396.79 1014.24 601.12 614.84 377.48 419.22 1068.50 589.22 901.59 920.75 841.15 1083.48 854.76 1104.91 841.49
914.55 499.16 282.31 430.53 255.95 176.43 420.15 360.66 240.47 406.34 729.52 851.93 711.45 310.14 414.73 507.95 334.40 413.23 444.91 421.07 637.57 257.33 435.57 335.90 314.79 727.25 239.07 560.76 364.11 275.96 618.72 493.32 502.53 428.69 650.88 530.82 608.87 278.51 363.85 588.79 131.00 277.03 692.78 229.70 425.83 424.84 582.10 187.23 336.27 609.92 550.68 241.47 697.18 691.91 712.28 406.01 454.42 757.85 286.28 601.02 503.45 403.86 435.32 680.24 485.22 801.82 462.71 560.91 436.48 133.79 579.84 377.49 66.86 471.21 339.61 679.05 733.93 0.00 504.81 360.01 138.97 372.95 404.25 315.59 661.45 452.98 595.42 512.15 81.98 585.93 363.83 133.62 615.72 322.51 566.20 575.17 269.26 386.83 54.82 642.06 344.42 571.91 460.37 289.42 350.65 428.07 446.30 503.21 454.13 323.13 307.57 217.82 486.72 594.00 507.89 279.45
1119.48 853.41 671.88 706.17 663.80 584.28 258.37 464.41 349.55 179.53 986.19 1084.40 898.77 601.98 874.40 585.24 393.54 155.54 843.32 365.67 885.60 612.67 434.94 599.07 671.70 371.35 380.96 55.95 243.73 553.34 216.03 793.80 565.35 807.09 1046.05 726.48 559.24 364.86 788.86 990.26 635.81 398.75 1039.27 626.28 619.73 724.03 847.78 486.22 587.62 1025.67 931.06 469.55 955.38 429.46 844.46 646.54 919.50 1192.57 333.75 218.88 47.07 315.03 492.35 952.16 898.19 1173.95 117.56 158.22 152.64 445.69 932.96 240.16 546.15 926.11 779.81 937.25 967.23 504.81 0.00 753.43 415.81 701.76 150.53 557.78 1092.63 629.57 1025.32 109.46 494.25 874.86 695.68 494.66 204.77 257.76 510.80 1034.84 361.99 632.31 449.99 832.54 437.15 967.63 309.99 700.02 758.50 677.36 785.83 857.46 867.10 437.25 419.97 549.02 729.05 227.58 859.37 225.36
637.54 623.85 276.35 231.52 171.23 183.58 690.24 472.75 456.71 638.30 429.20 561.70 491.05 585.76 259.90 412.51 649.28 630.90 441.39 562.95 384.27 465.69 795.58 611.52 127.41 834.50 507.40 760.49 566.77 252.86 819.00 253.14 465.77 167.71 505.13 806.44 608.03 462.71 114.64 333.47 365.81 403.75 490.62 390.69 300.79 581.95 380.11 267.21 327.96 459.03 314.15 556.35 396.94 791.07 445.69 621.19 342.23 613.48 546.08 723.75 706.36 546.68 457.11 390.01 206.53 552.90 732.76 781.07 673.83 443.11 276.17 558.95 293.15 234.68 346.73 408.89 525.17 360.01 753.43 0.00 337.62 69.25 602.90 213.23 517.71 328.98 425.73 783.41 345.05 330.97 119.00 448.50 742.44 630.45 559.59 405.48 424.45 252.61 400.12 480.07 431.91 335.38 738.43 120.62 89.67 240.69 151.12 627.90 175.44 627.77 642.82 449.27 676.16 718.41 697.91 590.05
812.62 527.76 256.07 360.01 247.99 168.47 390.47 264.72 162.16 361.73 636.23 760.19 611.57 431.01 458.59 398.20 334.55 304.52 435.70 347.68 535.64 340.28 510.63 456.77 309.55 615.75 169.78 442.21 289.94 157.58 528.72 399.91 448.47 420.73 698.48 603.77 475.64 139.54 373.05 615.91 231.43 138.06 725.05 368.67 316.63 502.81 479.37 70.41 247.34 672.58 569.81 287.76 615.70 604.41 615.68 500.77 540.92 776.76 208.46 490.05 368.74 280.99 302.09 588.50 482.38 837.34 395.14 443.45 337.26 105.49 568.04 241.61 137.18 537.14 393.46 597.57 615.55 138.97 415.81 337.62 0.00 292.13 265.28 191.29 716.40 344.82 639.28 459.75 108.83 482.34 341.88 228.38 476.75 292.83 468.91 619.03 133.21 268.45 182.86 517.76 208.37 606.38 400.81 297.87 342.69 388.82 402.79 523.71 451.29 313.84 305.20 325.08 559.23 501.46 603.50 252.43
621.10 554.60 320.92 200.25 184.47 231.30 682.60 405.43 454.29 653.86 412.76 585.61 421.80 638.41 329.15 397.95 620.68 561.65 465.27 537.89 361.18 513.09 802.76 664.17 58.16 818.79 461.91 734.34 497.52 183.61 756.66 183.89 451.21 215.11 565.62 859.09 561.41 431.67 167.29 323.78 387.78 391.96 533.63 438.09 269.08 651.20 310.86 311.89 258.71 516.18 277.68 579.89 400.56 721.82 510.08 668.59 411.48 682.73 479.45 714.36 660.87 505.30 387.86 418.30 275.78 622.15 687.27 735.58 604.58 397.62 279.79 489.70 306.09 258.29 359.97 402.08 517.15 372.95 701.76 69.25 292.13 0.00 557.41 143.98 554.54 301.24 467.21 714.16 357.99 370.29 49.75 496.22 730.65 584.96 545.03 463.19 355.20 238.05 413.06 410.82 382.12 314.25 692.94 133.86 137.07 171.44 110.66 558.65 244.69 576.97 597.33 450.92 722.15 741.60 632.64 544.56
1038.89 768.18 521.35 625.29 513.27 433.75 230.68 362.78 199.02 97.85 889.58 970.25 809.11 536.11 723.87 505.22 346.57 39.24 700.98 332.52 788.99 526.35 433.98 543.58 574.83 434.49 230.43 176.93 132.34 422.86 263.44 665.19 453.96 686.01 963.28 601.76 500.98 214.33 638.33 871.55 489.62 282.45 888.74 597.29 503.43 628.16 742.12 335.69 499.51 937.86 794.00 324.88 880.98 457.58 728.16 573.90 806.20 1042.04 183.22 236.52 103.46 235.01 402.69 853.78 747.66 1023.42 129.86 178.17 71.98 329.39 833.32 150.50 402.46 802.42 637.24 862.85 868.67 404.25 150.53 602.90 265.28 557.41 0.00 456.57 981.68 513.27 904.56 194.47 374.11 747.62 607.16 370.10 267.91 133.04 477.65 884.31 245.69 516.01 367.22 721.15 320.85 830.57 228.31 563.15 607.97 615.88 668.07 772.23 716.57 355.94 284.17 520.03 661.89 236.18 787.95 142.59
668.26 687.35 341.12 201.04 258.26 181.94 567.80 261.45 334.27 532.91 507.68 622.44 453.12 611.02 473.13 274.89 525.84 437.43 576.40 393.91 407.09 492.49 701.92 605.50 168.49 674.81 361.07 613.73 429.30 39.63 614.58 236.02 315.86 359.09 709.60 773.65 417.43 330.83 311.27 461.45 339.26 270.99 622.05 479.58 144.75 600.31 328.76 167.91 114.73 660.16 415.59 479.05 472.34 577.84 436.78 645.08 555.46 817.31 399.75 570.38 560.03 361.32 243.88 450.75 419.76 756.73 586.43 634.74 483.61 296.78 404.15 394.64 248.73 402.27 471.10 454.21 495.60 315.59 557.78 213.23 191.29 143.98 456.57 0.00 698.52 157.26 611.19 642.90 264.78 353.79 187.98 372.69 609.68 484.12 409.68 607.17 234.23 114.99 355.70 326.47 238.14 452.16 592.10 244.99 281.05 229.85 254.64 689.10 388.67 483.25 496.49 432.91 656.73 597.62 609.31 443.72
884.36 609.63 538.46 629.33 554.11 598.21 1007.97 904.51 789.66 994.16 699.35 803.42 810.66 778.60 257.81 800.35 888.82 993.94 420.97 961.29 718.02 632.57 1056.60 778.46 612.70 1267.47 796.51 1099.92 947.20 738.15 1185.80 626.93 853.61 381.37 46.58 973.38 995.87 833.46 454.15 562.97 541.54 811.19 130.10 557.57 803.94 656.55 704.87 674.65 786.96 130.20 485.42 795.89 646.87 1214.02 919.07 784.01 285.70 325.36 843.72 1129.05 1075.69 936.98 907.70 746.12 361.39 264.78 1050.53 1115.99 964.51 721.61 546.32 933.40 635.79 437.69 471.53 665.00 860.51 661.45 1092.63 517.71 716.40 554.54 981.68 698.52 0.00 828.49 149.94 1120.57 681.99 749.50 599.85 728.43 1149.88 910.33 947.43 129.69 847.95 756.72 642.64 832.22 839.35 484.49 1055.54 526.38 459.41 658.14 556.96 605.58 354.71 889.46 926.49 634.83 750.76 1125.85 536.00 867.27
580.57 800.97 488.01 208.76 332.57 291.59 658.38 229.32 442.81 569.51 432.22 542.77 340.89 735.77 588.88 121.60 642.06 474.03 692.88 283.16 331.63 589.00 845.69 753.11 256.26 589.34 514.60 678.05 480.85 187.24 658.83 299.55 174.86 477.24 800.46 880.17 314.34 407.29 434.18 471.54 480.37 309.23 777.15 602.61 46.28 715.13 284.97 282.73 117.01 707.89 470.27 549.13 418.11 535.27 349.09 792.69 645.09 871.73 524.22 600.32 616.73 391.81 236.88 384.49 526.60 881.88 632.36 598.78 553.40 444.11 435.55 432.52 386.12 390.80 587.58 399.98 411.52 452.98 629.57 328.98 344.82 301.24 513.27 157.26 828.49 0.00 695.45 647.54 371.30 278.33 305.30 520.30 633.93 560.74 265.90 703.40 304.02 76.37 480.45 238.78 228.86 456.40 690.53 361.47 399.20 218.64 359.69 796.92 495.51 630.86 640.26 525.35 771.55 624.29 766.57 500.88
780.22 478.88 411.17 548.10 476.99 488.77 946.04 839.22 728.32 945.94 686.47 814.11 797.78 667.93 180.69 778.98 738.88 932.60 307.04 883.96 677.49 511.27 932.55 669.02 525.37 1190.14 719.39 1018.69 833.49 650.82 1128.14 606.13 832.24 304.25 105.01 863.94 974.50 772.10 377.03 534.47 464.42 750.41 97.36 436.27 667.26 681.26 587.50 613.87 692.62 48.97 477.90 645.95 597.06 1154.80 791.04 758.25 143.05 291.84 766.60 1006.99 978.25 893.34 830.58 669.22 237.32 231.26 1013.37 1082.73 949.11 682.04 533.44 785.16 558.67 442.22 370.58 615.19 779.28 595.42 1025.32 425.73 639.28 467.21 904.56 611.19 149.94 695.45 0.00 1050.13 610.57 646.93 483.51 661.56 1063.32 873.17 926.06 20.25 772.49 619.08 618.08 750.73 765.27 460.84 910.16 444.29 382.29 564.07 467.81 482.93 268.41 739.52 806.10 513.53 681.66 1063.28 513.50 813.31
1074.73 952.60 671.13 728.99 699.85 628.22 321.67 489.22 374.18 223.47 985.79 1039.65 915.99 648.79 918.34 591.52 469.60 233.71 895.45 408.38 885.20 710.77 478.88 674.55 696.51 311.46 414.31 88.54 216.64 603.27 106.57 840.76 538.26 869.84 1073.99 776.02 468.01 387.74 829.53 989.35 643.15 445.43 1083.21 719.77 640.69 752.44 870.60 530.16 583.81 1058.26 911.80 497.49 999.32 323.27 777.95 748.16 966.57 1191.82 367.10 125.70 91.01 322.89 517.16 951.76 942.13 1217.89 175.57 48.76 159.29 482.05 955.78 264.97 574.09 938.22 797.79 981.19 922.48 512.15 109.46 783.41 459.75 714.16 194.47 642.90 1120.57 647.54 1050.13 0.00 522.19 859.60 745.55 553.98 148.94 307.30 466.05 1067.77 408.67 607.42 477.93 805.45 468.63 948.37 353.93 724.83 794.55 700.18 790.59 956.65 911.04 506.93 445.58 658.48 825.37 118.12 968.83 253.30
846.18 473.28 273.15 437.00 240.99 161.47 415.60 373.55 270.99 412.58 669.79 805.61 696.49 364.47 429.88 425.97 347.97 402.67 460.06 452.31 569.20 231.45 517.55 390.23 299.83 656.64 213.14 550.20 343.84 258.77 628.76 478.36 455.42 384.25 635.41 508.87 563.23 232.03 341.19 603.24 146.15 242.69 707.93 286.47 345.21 439.99 563.70 122.08 254.29 597.75 565.09 255.04 682.22 688.91 659.80 429.05 512.21 742.89 260.35 530.94 477.57 321.88 410.92 635.76 515.74 803.47 436.11 552.28 446.09 121.82 612.54 295.51 51.90 549.50 354.76 664.09 710.45 81.98 494.25 345.05 108.83 357.99 374.11 264.78 681.99 371.30 610.57 522.19 0.00 583.53 348.87 156.66 581.38 328.75 527.40 590.32 242.04 328.44 109.15 566.62 286.78 601.66 472.80 277.08 306.21 413.11 431.34 477.33 501.90 346.17 348.56 239.80 469.07 573.28 527.40 268.89
330.28 896.35 584.66 173.62 414.88 449.15 852.93 457.17 619.40 818.04 153.89 277.85 170.24 850.93 536.01 329.09 812.09 722.56 736.95 532.54 53.30 729.37 992.97 876.69 315.71 838.72 652.12 906.03 642.96 324.76 859.44 191.01 382.35 470.16 702.92 1071.61 524.61 621.88 409.70 193.21 628.11 513.05 670.38 654.37 298.12 893.85 59.43 461.45 368.84 672.75 264.39 765.67 230.84 742.76 254.35 930.21 618.34 865.64 690.80 808.36 827.79 599.30 382.51 106.16 490.36 805.06 863.34 876.13 758.58 587.83 225.00 634.70 533.86 333.45 644.87 212.71 207.21 585.93 874.86 330.97 482.34 370.29 747.62 353.79 749.50 278.33 646.93 859.60 583.53 0.00 320.54 657.82 851.74 760.10 476.17 667.18 519.36 318.25 640.75 222.92 480.70 289.78 883.15 418.76 414.92 202.43 329.33 892.30 464.72 768.38 787.54 697.89 950.27 850.57 946.85 700.24
588.41 604.35 323.82 191.13 154.04 222.18 729.18 422.83 495.65 692.52 390.06 547.84 414.20 659.26 370.13 366.68 611.56 598.81 515.02 539.27 311.43 510.12 780.27 685.02 49.04 845.45 482.78 751.63 528.91 201.01 797.07 142.34 419.94 246.57 561.00 857.74 562.20 481.42 203.51 312.93 381.93 432.37 579.49 435.12 259.96 650.04 261.11 313.96 290.77 516.91 235.38 594.95 378.66 753.88 468.86 700.05 437.87 666.73 529.20 743.30 673.67 549.30 431.86 376.75 246.19 670.99 709.22 785.33 644.53 447.37 287.37 480.58 296.97 230.43 409.72 360.53 485.65 363.83 695.68 119.00 341.88 49.75 607.16 187.98 599.85 305.30 483.51 745.55 348.87 320.54 0.00 487.10 771.06 634.71 513.76 503.76 395.61 228.93 403.94 361.07 408.71 271.95 727.64 183.61 168.53 162.32 90.15 608.40 245.14 567.85 574.84 453.54 735.93 765.16 682.39 592.05
988.10 423.19 348.45 512.50 344.44 264.92 407.94 489.15 262.99 366.22 811.71 933.90 748.01 271.33 480.87 582.63 200.78 339.12 460.49 521.40 711.12 181.36 405.63 245.57 438.06 749.22 214.14 537.67 376.17 333.06 596.74 599.22 574.01 502.79 681.85 440.49 704.02 306.79 459.73 722.41 197.14 311.78 758.92 256.36 492.11 383.05 654.85 254.15 410.95 683.73 684.30 107.85 785.67 771.15 765.85 272.39 549.58 869.14 186.88 588.15 473.56 454.71 530.47 762.21 592.12 828.48 451.85 548.27 423.61 122.89 670.32 406.73 192.76 604.83 360.77 767.54 791.03 133.62 494.66 448.50 228.38 496.22 370.10 372.69 728.43 520.30 661.56 553.98 156.66 657.82 487.10 0.00 582.64 348.22 666.53 641.31 283.38 443.93 85.79 699.16 347.82 705.53 372.06 395.05 424.75 531.27 534.79 427.24 587.75 189.51 261.28 183.48 360.38 583.10 477.31 300.68
1002.29 972.46 702.40 692.47 618.43 641.98 425.93 426.70 413.83 280.67 945.19 1003.66 829.60 729.23 896.34 535.60 533.31 243.52 899.70 350.77 844.60 730.63 615.40 720.95 722.02 166.58 482.50 186.00 302.87 570.05 76.56 804.24 523.88 791.17 1103.30 797.01 381.62 443.25 748.11 957.17 612.61 338.69 1080.46 738.06 601.64 815.01 840.33 475.23 609.13 1097.40 969.88 585.44 961.20 224.69 691.56 769.15 978.67 1209.91 443.78 56.33 227.53 265.39 499.79 911.16 881.87 1215.14 307.81 104.44 203.52 491.94 899.87 305.96 610.93 890.41 794.40 943.07 886.49 615.72 204.77 742.44 476.75 730.65 267.91 609.68 1149.88 633.93 1063.32 148.94 581.38 851.74 771.06 582.64 0.00 328.29 430.06 1056.78 375.45 586.72 570.91 769.05 419.06 947.53 411.13 669.04 713.13 721.28 777.56 976.51 908.82 543.12 471.35 679.60 857.14 31.73 989.95 377.30
1010.75 659.02 544.90 586.48 540.82 461.30 97.64 418.42 247.46 83.83 913.99 1007.88 852.78 420.33 699.39 520.72 213.53 122.96 672.80 416.24 813.40 492.32 323.91 446.09 594.43 494.87 160.69 240.97 145.84 450.41 380.58 692.74 467.46 693.21 863.75 468.72 609.72 203.66 647.18 870.57 418.78 358.16 922.87 509.53 536.11 542.38 738.05 363.24 504.87 913.38 862.64 279.04 908.53 552.98 803.87 440.86 776.93 1065.59 161.34 342.06 216.29 303.76 446.36 836.19 763.85 1057.55 140.20 311.21 177.52 284.63 813.27 194.17 374.66 793.72 567.50 890.40 901.35 322.51 257.76 630.45 292.83 584.96 133.04 484.12 910.33 560.74 873.17 307.30 328.75 760.10 634.71 348.22 328.29 0.00 561.28 859.83 321.40 561.28 267.69 734.65 353.53 894.42 146.48 590.70 634.96 615.29 695.62 654.97 744.12 235.28 205.47 466.74 528.85 360.02 734.76 59.86
608.68 996.67 679.12 453.25 518.04 501.34 633.90 255.42 476.74 533.89 621.43 573.60 506.97 859.05 752.75 147.08 751.87 438.41 869.18 145.13 520.84 758.85 876.20 884.81 486.87 394.41 592.85 554.59 415.44 377.63 479.95 538.58 93.82 629.19 900.85 1006.42 48.44 509.25 627.76 624.02 644.04 354.75 970.97 779.04 312.18 913.88 484.12 489.90 294.95 949.80 643.32 711.20 684.01 320.12 454.73 938.92 835.08 1102.34 577.48 392.92 552.75 374.09 180.76 545.78 759.95 1105.65 541.95 417.29 522.90 543.64 566.72 432.95 562.81 642.21 787.75 665.88 456.43 566.20 510.80 559.59 468.91 545.03 477.65 409.68 947.43 265.90 926.06 466.05 527.40 476.17 513.76 666.53 430.06 561.28 0.00 913.19 391.51 306.98 603.73 361.01 374.04 677.89 664.35 561.64 607.42 464.96 603.91 992.62 735.03 709.01 685.78 737.69 977.98 398.33 1018.99 572.19
800.47 499.13 431.42 552.68 456.74 468.52 957.47 827.59 748.57 925.69 699.09 818.69 810.40 674.53 160.44 786.93 759.13 923.55 327.29 863.92 690.56 531.52 952.53 648.77 521.35 1170.10 699.14 1023.27 851.13 646.80 1133.34 600.36 819.37 284.00 102.43 843.69 961.63 751.85 356.78 554.72 444.17 736.48 117.61 456.52 675.21 699.00 607.75 634.12 674.91 53.55 482.48 666.20 601.64 1134.76 811.29 738.00 163.30 292.84 746.35 1027.24 987.77 879.41 810.33 673.80 257.57 232.26 1000.03 1062.48 956.29 663.67 546.06 805.41 538.42 437.43 350.33 619.77 783.86 575.17 1034.84 405.48 619.03 463.19 884.31 607.17 129.69 703.40 20.25 1067.77 590.32 667.18 503.76 641.31 1056.78 859.83 913.19 0.00 752.24 627.03 629.99 770.98 764.96 481.09 930.41 424.04 362.04 562.73 480.31 503.18 288.66 759.77 826.35 533.78 661.41 1083.53 533.75 818.37
793.20 660.97 389.28 397.03 316.50 301.68 395.07 214.13 161.54 301.93 643.89 767.73 620.51 533.95 591.80 372.08 425.20 206.45 568.91 246.38 543.30 459.69 573.22 520.27 346.57 514.45 260.43 386.67 195.07 194.60 401.46 470.25 374.66 489.24 801.37 715.19 439.95 117.74 446.18 655.24 364.64 36.76 819.98 488.37 257.74 538.43 496.43 173.30 259.67 795.47 630.99 371.72 659.27 503.11 482.47 555.77 674.13 907.98 238.58 387.60 349.15 179.69 268.44 609.74 579.94 954.66 364.78 400.86 249.38 225.65 597.94 192.36 270.39 607.36 526.67 641.14 622.98 269.26 361.99 424.45 133.21 355.20 245.69 234.23 847.95 304.02 772.49 408.67 242.04 519.36 395.61 283.38 375.45 321.40 391.51 752.24 0.00 270.32 295.70 479.15 75.16 645.60 391.26 367.11 411.20 425.74 459.73 656.92 584.50 391.02 367.79 458.29 632.64 407.18 722.73 261.54
587.73 724.60 412.36 146.27 326.63 296.93 611.43 220.14 395.86 572.25 411.34 543.05 415.55 660.30 512.51 159.90 598.20 476.77 639.98 310.34 310.75 512.63 779.08 676.74 179.89 616.52 438.23 656.99 417.24 110.87 651.54 246.24 213.16 420.32 724.09 816.62 355.42 388.06 367.25 430.36 414.22 307.08 716.44 526.24 48.18 638.76 286.87 206.36 109.06 645.40 416.60 551.78 477.40 572.17 367.52 716.32 568.72 795.36 476.91 530.39 619.47 430.11 238.78 371.36 459.14 805.51 635.10 621.37 519.70 373.94 373.06 434.42 319.97 400.71 534.68 464.43 413.42 386.83 632.31 252.61 268.45 238.05 516.01 114.99 756.72 76.37 619.08 607.42 328.44 318.25 228.93 443.93 586.72 561.28 306.98 627.03 270.32 0.00 404.98 269.59 230.76 380.03 661.58 308.57 342.28 157.98 306.15 720.55 428.05 554.49 573.65 448.98 695.18 586.68 713.40 520.88
916.79 490.25 325.68 485.35 296.06 216.54 365.33 415.48 185.65 351.52 737.56 864.10 662.22 255.32 469.55 535.12 282.05 358.41 455.26 458.60 677.68 265.44 486.90 281.08 354.90 733.40 184.25 505.94 309.29 316.07 575.71 533.43 530.09 425.52 596.06 476.00 641.07 229.45 418.67 641.83 185.82 267.86 677.18 241.84 453.16 377.37 636.92 198.62 363.44 664.74 605.50 193.64 705.30 693.81 752.39 355.57 509.24 797.96 231.46 574.36 448.63 410.79 484.95 735.06 540.04 811.86 407.89 526.69 409.82 78.97 584.53 329.39 106.97 526.03 349.96 717.25 757.57 54.82 449.99 400.12 182.86 413.06 367.22 355.70 642.64 480.45 618.08 477.93 109.15 640.75 403.94 85.79 570.91 267.69 603.73 629.99 295.70 404.98 0.00 674.57 303.90 626.73 414.17 332.15 390.76 468.18 454.95 494.30 508.95 269.51 283.85 201.79 431.90 539.18 512.14 224.63
341.79 905.51 667.13 306.66 497.35 470.81 832.29 404.45 621.59 769.70 304.44 347.84 145.96 877.91 731.20 284.06 791.17 685.60 830.46 506.14 238.49 663.68 996.02 903.67 410.11 745.18 687.54 853.18 588.81 366.10 798.58 358.34 267.19 607.64 812.01 1058.94 387.43 596.89 564.58 416.13 665.73 484.36 824.53 738.68 221.41 908.35 249.31 475.95 321.58 775.73 346.80 784.61 379.30 648.21 110.31 971.55 666.47 1000.89 699.35 734.18 791.48 554.27 412.01 184.77 513.41 959.21 831.50 778.30 704.43 623.25 410.19 607.65 575.20 426.27 762.71 361.17 209.67 642.06 832.54 480.07 517.76 410.82 721.15 326.47 832.22 238.78 750.73 805.45 566.62 222.92 361.07 699.16 769.05 734.65 361.01 770.98 479.15 269.59 674.57 0.00 403.99 383.37 870.41 536.60 529.60 335.47 451.22 909.56 482.32 747.46 815.39 718.57 905.41 737.32 935.78 697.66
745.12 656.99 464.44 374.68 308.22 331.45 451.13 168.85 217.60 377.09 568.73 704.55 549.95 550.45 604.52 323.23 478.34 281.61 644.07 266.89 468.14 415.16 616.83 576.21 359.67 558.06 335.59 461.83 251.99 258.42 476.62 435.85 376.49 480.96 792.77 759.16 366.83 192.90 437.90 638.57 378.70 80.37 811.70 413.21 182.58 597.10 421.27 164.70 190.07 787.19 628.29 407.20 631.12 508.72 501.59 620.21 686.85 899.70 313.74 432.36 396.75 223.30 193.28 534.70 596.39 946.38 432.30 476.02 324.54 224.93 601.47 203.66 284.45 616.73 566.74 628.84 547.82 344.42 437.15 431.91 208.37 382.12 320.85 238.14 839.35 228.86 765.27 468.63 286.78 480.70 408.71 347.82 419.06 353.53 374.04 764.96 75.16 230.76 303.90 403.99 0.00 610.79 466.42 358.83 402.92 350.58 479.30 660.22 598.61 434.63 411.40 468.55 653.52 450.79 711.11 293.67
458.43 801.83 537.59 330.06 409.21 488.73 937.97 584.81 704.44 905.19 250.09 411.54 375.51 787.05 470.29 536.42 883.51 852.05 605.96 690.37 273.93 704.65 1007.48 812.81 320.99 996.55 754.73 918.19 797.27 472.96 1024.09 218.29 584.07 346.73 522.12 1007.73 726.33 698.81 315.93 96.57 588.42 608.84 534.64 651.93 428.21 795.02 256.02 578.80 489.09 465.50 36.57 813.38 194.49 950.09 474.98 882.43 500.21 729.39 793.70 910.42 934.03 751.77 618.81 261.63 223.52 669.32 960.43 997.13 894.98 659.71 111.17 752.53 568.92 100.70 546.84 212.62 396.79 571.91 967.63 335.38 606.38 314.25 830.57 452.16 484.49 456.40 460.84 948.37 601.66 289.78 271.95 705.53 947.53 894.42 677.89 481.09 645.60 380.03 626.73 383.37 610.79 0.00 995.17 424.22 350.91 358.60 248.33 797.78 192.43 839.80 846.79 650.56 889.23 966.71 827.49 842.61
1149.49 663.18 656.88 732.96 648.80 569.28 57.20 564.90 290.73 130.46 1035.15 1068.55 999.26 428.86 826.92 667.20 231.52 225.94 688.81 519.22 934.56 477.49 328.43 422.12 710.36 577.71 288.22 333.81 292.32 558.39 444.67 800.72 613.94 786.69 1010.23 501.72 691.27 313.54 757.06 984.34 545.18 397.95 1007.52 497.97 649.00 519.88 880.18 471.22 573.52 925.34 963.02 264.21 1016.51 635.82 873.73 471.84 791.19 1118.15 285.09 453.08 262.92 408.13 592.84 970.93 873.73 1070.09 203.30 398.38 288.54 431.11 959.13 340.65 521.14 931.58 641.58 998.38 1014.24 460.37 309.99 738.43 400.81 692.94 228.31 592.10 1055.54 690.53 910.16 353.93 472.80 883.15 727.64 372.06 411.13 146.48 664.35 930.41 391.26 661.58 414.17 870.41 466.42 995.17 0.00 690.40 739.70 727.79 803.60 667.23 852.10 224.57 152.80 514.92 559.83 442.86 741.22 206.34
646.11 549.28 187.06 245.14 50.61 130.13 633.20 403.55 399.67 659.60 541.18 666.54 517.59 555.21 268.57 421.57 577.38 573.56 331.41 539.97 472.06 398.55 712.54 580.97 153.59 808.04 446.75 740.08 508.19 265.11 726.90 305.39 467.82 145.01 518.30 770.32 575.63 437.41 108.29 445.45 299.95 330.35 452.87 323.55 315.19 593.79 394.06 289.70 266.69 457.58 411.54 484.45 508.55 729.80 562.28 606.83 350.90 642.09 493.96 682.34 652.95 473.28 450.03 494.85 270.53 587.55 688.50 719.19 616.49 377.00 388.15 459.86 225.18 333.76 226.11 520.87 601.12 289.42 700.02 120.62 297.87 133.86 563.15 244.99 526.38 361.47 444.29 724.83 277.08 418.76 183.61 395.05 669.04 590.70 561.64 424.04 367.11 308.57 332.15 536.60 358.83 424.22 690.40 0.00 75.31 223.64 186.80 545.23 269.00 572.50 582.17 393.60 588.29 700.77 625.02 545.97
721.42 549.07 186.68 241.30 94.70 174.22 708.51 478.86 474.98 683.76 518.87 651.37 526.53 506.10 201.60 465.66 568.42 617.65 383.45 584.06 468.22 376.02 759.55 531.86 195.23 852.13 490.84 784.90 577.91 298.89 789.69 264.33 513.60 78.04 451.33 726.78 645.66 478.50 34.98 415.53 329.88 374.44 410.96 301.02 390.46 544.17 392.87 340.97 342.00 384.27 354.76 475.49 486.61 805.11 535.36 531.52 283.93 606.22 504.42 726.43 711.43 517.37 472.11 479.68 209.53 545.64 737.83 786.14 660.58 427.03 365.84 535.17 283.79 275.29 278.15 482.52 614.84 350.65 758.50 89.67 342.69 137.07 607.97 281.05 459.41 399.20 382.29 794.55 306.21 414.92 168.53 424.75 713.13 634.96 607.42 362.04 411.20 342.28 390.76 529.60 402.92 350.91 739.70 75.31 0.00 270.11 198.77 545.02 195.69 569.06 626.26 369.61 586.93 744.86 608.24 575.10
531.15 726.04 410.70 28.81 260.02 286.42 670.59 354.83 437.06 658.43 356.32 450.21 361.82 648.50 402.29 317.88 675.80 592.42 555.05 468.32 255.73 581.06 863.64 674.26 113.28 774.50 547.02 733.31 483.54 231.24 797.84 140.58 371.14 278.73 641.56 869.18 456.11 480.86 305.09 312.90 446.17 430.95 620.51 517.29 206.16 740.01 170.42 364.34 267.04 527.94 322.03 590.65 368.18 730.15 338.64 748.75 484.62 800.74 550.42 688.37 630.29 573.51 389.77 278.52 326.75 740.16 731.96 748.94 599.16 408.38 255.60 525.14 361.21 281.34 449.75 358.77 377.48 428.07 677.36 240.69 388.82 171.44 615.88 229.85 658.14 218.64 564.07 700.18 413.11 202.43 162.32 531.27 721.28 615.29 464.96 562.73 425.74 157.98 468.18 335.47 350.58 358.60 727.79 223.64 270.11 0.00 148.17 730.09 357.84 632.09 682.44 539.82 811.93 744.66 762.09 555.43
562.72 665.26 373.86 168.51 226.75 269.87 791.27 486.95 557.74 754.84 354.38 527.23 410.18 679.45 336.89 456.83 701.71 662.93 518.21 538.77 305.32 562.20 870.42 705.21 139.19 844.95 572.57 841.78 573.95 265.13 842.38 138.32 510.09 221.16 542.55 900.13 604.28 542.33 208.33 258.65 472.08 496.49 557.79 499.79 313.41 717.52 279.19 401.82 318.58 426.76 227.10 642.64 322.12 781.69 403.49 730.29 419.22 753.05 590.11 721.23 763.82 615.96 486.89 371.88 246.67 692.47 797.93 760.39 689.57 508.28 201.35 570.73 379.44 147.63 412.91 334.07 419.22 446.30 785.83 151.12 402.79 110.66 668.07 254.64 556.96 359.69 467.81 790.59 431.34 329.33 90.15 534.79 777.56 695.62 603.91 480.31 459.73 306.15 454.95 451.22 479.30 248.33 803.60 186.80 198.77 148.17 0.00 669.31 215.58 658.00 664.99 542.96 775.09 777.52 743.30 655.22
1133.09 4.05 475.34 758.90 595.84 582.27 719.79 788.43 649.32 738.80 971.41 1052.15 973.15 328.48 422.21 880.45 536.92 732.99 221.36 871.39 905.66 245.88 606.48 354.24 616.81 1133.97 577.51 888.98 790.11 681.29 990.61 701.29 932.75 466.98 559.00 518.42 952.85 627.12 539.76 794.94 402.09 661.77 495.93 320.88 768.73 206.43 842.16 594.12 731.62 495.38 765.06 459.16 921.84 1124.97 981.38 333.89 339.88 563.17 600.82 951.20 871.26 799.21 825.80 935.70 574.26 502.59 795.17 911.25 817.48 499.74 838.44 759.87 472.70 753.06 319.12 919.48 1068.50 503.21 857.46 627.90 523.71 558.65 772.23 689.10 605.58 796.92 482.93 956.65 477.33 892.30 608.40 427.24 976.51 654.97 992.62 503.18 656.92 720.55 494.30 909.56 660.22 797.78 667.23 545.23 545.02 730.09 669.31 0.00 605.35 552.73 514.43 308.44 246.18 956.31 79.79 703.35
621.82 609.40 382.37 384.09 290.39 359.02 841.76 614.17 613.45 813.02 418.06 562.02 529.37 631.83 277.86 587.95 763.15 755.81 413.53 725.34 436.73 555.67 889.70 657.59 287.02 1009.94 621.07 893.50 741.23 428.30 980.01 353.90 641.21 154.30 329.69 852.51 783.47 590.83 160.71 271.51 503.36 570.13 342.21 496.71 449.23 602.59 448.45 442.65 493.52 317.38 229.00 671.18 344.97 956.63 592.63 693.49 307.78 537.47 659.75 899.19 820.03 713.06 632.55 454.06 31.09 476.89 846.43 894.74 788.55 552.30 265.03 692.90 468.59 173.81 354.41 363.10 589.22 454.13 867.10 175.44 451.29 244.69 716.57 388.67 354.71 495.51 268.41 911.04 501.90 464.72 245.14 587.75 908.82 744.12 735.03 288.66 584.50 428.05 508.95 482.32 598.61 192.43 852.10 269.00 195.69 357.84 215.58 605.35 0.00 737.60 756.49 495.34 696.80 893.85 685.14 703.72
1089.25 548.68 535.71 646.05 533.95 454.43 263.12 531.63 269.26 296.35 922.27 1046.23 893.42 243.90 670.38 656.07 43.71 353.80 518.17 563.88 821.68 306.85 248.56 237.60 518.81 640.45 144.06 435.35 380.02 443.62 553.86 710.19 652.18 647.10 844.53 324.53 757.45 286.75 604.04 880.78 386.65 354.26 836.88 381.85 602.67 365.95 765.41 384.25 533.38 788.49 803.23 93.57 929.54 737.42 857.77 326.83 645.39 1014.55 191.27 559.57 428.25 455.00 601.79 874.54 768.69 953.97 331.36 468.59 412.80 264.84 831.52 376.42 376.48 794.34 508.11 911.41 901.59 323.13 437.25 627.77 313.84 576.97 355.94 483.25 889.46 630.86 739.52 506.93 346.17 768.38 567.85 189.51 543.12 235.28 709.01 759.77 391.02 554.49 269.51 747.46 434.63 839.80 224.57 572.50 569.06 632.09 658.00 552.73 737.60 0.00 71.77 353.24 388.42 545.31 570.25 266.38
1117.82 510.38 545.92 665.21 531.56 473.67 205.36 508.40 247.82 283.26 941.43 1062.00 916.77 276.06 674.12 666.35 78.72 282.03 584.75 540.65 840.84 372.92 205.43 269.32 569.16 637.93 135.42 414.07 351.31 462.78 482.09 705.11 630.74 633.89 879.91 396.30 734.22 278.11 616.19 887.77 394.61 331.03 903.46 439.38 593.98 367.08 758.53 375.61 552.54 851.37 810.22 160.15 920.90 696.04 850.26 358.55 717.16 965.35 182.63 487.80 387.63 446.36 578.56 893.70 781.22 991.42 319.00 396.82 356.15 301.90 862.21 368.58 374.43 778.78 488.78 902.77 920.75 307.57 419.97 642.82 305.20 597.33 284.17 496.49 926.49 640.26 806.10 445.58 348.56 787.54 574.84 261.28 471.35 205.47 685.78 826.35 367.79 573.65 283.85 815.39 411.40 846.79 152.80 582.17 626.26 682.44 664.99 514.43 756.49 71.77 0.00 362.12 420.14 473.54 588.42 194.61
969.26 304.39 244.96 524.27 342.99 297.47 564.38 577.52 387.44 516.15 811.51 888.32 745.80 277.88 377.38 608.88 309.53 522.60 294.30 592.56 710.92 63.65 514.38 303.64 426.54 846.18 352.84 595.27 499.76 397.00 752.93 595.88 662.14 407.41 618.54 498.56 755.93 401.33 334.63 719.69 93.65 460.14 610.89 77.26 497.16 327.73 675.84 323.86 486.76 504.63 685.99 274.91 764.00 844.83 724.44 324.64 370.48 709.96 336.81 704.16 596.09 561.68 627.17 773.98 526.43 649.38 603.56 698.20 582.11 280.76 724.28 451.43 187.90 629.82 230.79 782.13 841.15 217.82 549.02 449.27 325.08 450.92 520.03 432.91 634.83 525.35 513.53 658.48 239.80 697.89 453.54 183.48 679.60 466.74 737.69 533.78 458.29 448.98 201.79 718.57 468.55 650.56 514.92 393.60 369.61 539.82 542.96 308.44 495.34 353.24 362.12 0.00 305.38 647.87 310.35 406.88
1192.81 250.23 483.28 827.94 581.89 580.05 532.31 722.56 558.70 612.68 1082.00 1111.87 1028.38 176.58 500.97 855.08 385.02 651.81 467.54 834.98 993.50 241.73 454.58 150.82 709.12 1023.72 477.97 769.82 674.69 625.51 902.23 836.67 884.90 624.53 704.18 272.24 970.77 514.90 603.40 943.24 376.23 625.36 742.11 300.81 743.36 94.21 947.30 488.82 683.77 714.96 881.60 404.18 1041.77 977.68 1015.72 87.99 583.30 809.35 511.18 815.44 745.14 768.29 797.22 1049.87 727.89 748.77 669.05 816.96 705.70 483.27 952.33 649.00 470.48 862.22 442.99 1054.86 1083.48 486.72 729.05 676.16 559.23 722.15 661.89 656.73 750.76 771.55 681.66 825.37 469.07 950.27 735.93 360.38 857.14 528.85 977.98 661.41 632.64 695.18 431.90 905.41 653.52 889.23 559.83 588.29 586.93 811.93 775.09 246.18 696.80 388.42 420.14 305.38 0.00 871.73 325.97 572.07
970.56 952.26 715.30 724.20 650.16 617.95 426.19 394.97 407.13 312.40 945.15 971.93 797.87 729.19 928.07 531.31 552.26 247.39 931.43 351.50 844.56 711.52 592.47 720.91 716.12 198.31 459.26 206.66 298.58 587.89 105.06 811.71 492.15 822.90 1079.27 828.74 349.89 422.69 779.84 988.90 644.34 370.42 1048.73 725.13 578.01 787.27 816.70 451.20 584.60 1112.25 943.21 553.71 992.93 256.42 659.83 800.88 1003.28 1235.99 412.05 56.29 204.60 265.35 468.06 911.12 913.60 1183.41 280.09 76.72 182.96 460.21 931.60 307.53 587.16 890.37 826.13 974.80 854.76 594.00 227.58 718.41 501.46 741.60 236.18 597.62 1125.85 624.29 1063.28 118.12 573.28 850.57 765.16 583.10 31.73 360.02 398.33 1083.53 407.18 586.68 539.18 737.32 450.79 966.71 442.86 700.77 744.86 744.66 777.52 956.31 893.85 545.31 473.54 647.87 871.73 0.00 958.22 371.42
1206.05 78.04 537.50 790.90 605.95 607.82 793.78 863.34 673.01 814.18 1045.40 1125.11 1052.94 353.10 496.20 873.30 561.54 783.06 301.15 895.59 985.45 295.95 631.10 378.86 690.80 1156.53 627.58 905.62 810.11 648.94 1040.68 781.08 925.17 539.94 528.61 518.59 1026.74 701.11 612.72 874.73 404.00 685.97 416.14 324.87 754.06 280.42 921.95 634.21 724.04 562.47 844.85 509.23 1001.63 1152.32 1034.79 407.88 413.87 610.34 647.16 1001.27 891.41 828.90 853.19 1015.49 654.05 549.76 855.57 966.12 859.93 549.81 912.43 761.78 498.25 827.05 398.91 999.27 1104.91 507.89 859.37 697.91 603.50 632.64 787.95 609.31 536.00 766.57 513.50 968.83 527.40 946.85 682.39 477.31 989.95 734.76 1018.99 533.75 722.73 713.40 512.14 935.78 711.11 827.49 741.22 625.02 608.24 762.09 743.30 79.79 685.14 570.25 588.42 310.35 325.97 958.22 0.00 717.23
1028.96 699.30 499.62 526.62 500.42 420.90 157.50 431.44 187.60 143.69 854.13 948.02 841.77 395.49 694.18 567.53 273.33 133.78 667.97 427.06 753.54 457.47 383.77 421.25 561.98 543.88 161.01 281.31 205.70 410.01 359.87 638.39 527.32 650.15 820.69 528.58 589.86 143.80 587.32 810.71 410.45 298.30 863.01 466.47 476.25 499.14 678.19 322.84 445.01 862.28 806.04 244.19 865.99 576.57 744.01 495.74 733.87 1011.78 113.80 377.80 224.00 297.32 461.08 776.33 703.99 997.69 200.06 302.06 213.26 228.75 753.41 208.89 320.79 750.66 562.67 850.00 841.49 279.45 225.36 590.05 252.43 544.56 142.59 443.72 867.27 500.88 813.31 253.30 268.89 700.24 592.05 300.68 377.30 59.86 572.19 818.37 261.54 520.88 224.63 697.66 293.67 842.61 206.34 545.97 575.10 555.43 655.22 703.35 703.72 266.38 194.61 406.88 572.07 371.42 717.23 0.00
DEMAND_SECTION
1 0
2 10
3 3
4 8
5 8
6 5
7 1
8 9
9 2
10 9
11 9
12 5
13 5
14 7
15 1
16 7
17 2
18 10
19 6
20 3
21 2
22 4
23 4
24 9
25 7
26 5
27 2
28 9
29 8
30 5
31 6
32 10
33 7
34 6
35 10
36 8
37 6
38 10
39 1
40 2
41 2
42 1
43 10
44 6
45 9
46 3
47 9
48 4
49 4
50 6
51 6
52 1
53 8
54 2
55 6
56 1
57 8
58 5
59 7
60 9
61 10
62 2
63 10
64 8
65 7
66 8
67 3
68 2
69 8
70 8
71 9
72 1
73 8
74 4
75 4
76 4
77 4
78 4
79 1
80 4
81 6
82 7
83 7
84 5
85 5
86 6
87 3
88 10
89 8
90 1
91 9
92 4
93 7
94 5
95 6
96 6
97 2
98 1
99 5
100 1
101 5
102 9
103 4
104 5
105 8
106 10
107 6
108 3
109 5
110 7
111 5
112 10
113 8
114 6
115 8
116 8
DEPOT_SECTION
1
-1
EOF
