NAME: LDG100_1135_snow_100_0220
COMMENT: CVRP with travel times.  rootPos=1,custPos=1,demandType=3,avgRouteSizeIndex=5,weather=snow,lambda_cluster=1,lambda_random=4, T1=300,T2=700,beta=1, alpha(i,j) ~ U(0.8,1.2)
TYPE: CVRP
DIMENSION: 101
EDGE_WEIGHT_TYPE: EXPLICIT
EDGE_WEIGHT_FORMAT: FULL_MATRIX
CAPACITY: 169
NODE_COORD_SECTION
1 217 713
2 187 7
3 408 408
4 706 28
5 334 875
6 239 59
7 764 680
8 415 657
9 628 753
10 799 450
11 171 950
12 154 960
13 710 101
14 606 38
15 763 975
16 149 793
17 188 503
18 18 927
19 382 599
20 402 997
21 37 370
22 425 211
23 981 467
24 962 436
25 388 877
26 282 961
27 197 797
28 67 37
29 570 314
30 466 934
31 652 114
32 971 940
33 707 354
34 666 864
35 68 471
36 473 339
37 64 445
38 361 876
39 72 482
40 596 691
41 985 268
42 737 312
43 723 531
44 244 942
45 361 436
46 403 226
47 231 633
48 596 862
49 635 472
50 319 170
51 781 50
52 339 216
53 352 492
54 682 215
55 985 800
56 695 449
57 48 258
58 71 119
59 603 242
60 160 894
61 761 685
62 819 354
63 945 909
64 412 992
65 686 332
66 248 56
67 305 905
68 187 944
69 698 157
70 49 884
71 289 917
72 917 595
73 903 91
74 721 516
75 36 470
76 143 134
77 961 904
78 24 948
79 739 246
80 298 457
81 36 134
82 159 845
83 816 154
84 50 717
85 776 451
86 17 325
87 514 656
88 893 302
89 257 117
90 344 578
91 613 958
92 44 27
93 944 958
94 717 347
95 503 101
96 191 340
97 569 482
98 493 319
99 745 571
100 727 716
101 818 75
EDGE_WEIGHT_SECTION
0.00 820.51 367.27 874.62 258.88 778.19 656.28 253.56 473.50 721.98 295.06 319.33 833.34 833.78 716.71 175.45 249.22 326.64 269.34 421.59 452.28 608.94 928.06 874.35 308.93 248.15 108.11 781.82 606.09 405.93 762.51 939.89 709.95 600.72 383.81 495.27 411.39 302.79 400.01 472.98 1024.01 745.13 661.12 292.62 381.01 585.90 102.10 525.18 583.23 641.83 948.17 617.68 321.34 742.27 901.39 655.40 606.94 728.24 630.50 248.45 639.46 734.53 908.08 415.77 740.24 757.69 290.38 270.22 789.23 307.92 286.45 842.73 1037.99 651.37 434.97 672.01 899.34 360.39 790.37 293.93 669.33 184.55 910.56 160.51 750.82 523.52 386.76 864.43 670.63 203.87 548.48 797.59 949.93 685.70 766.79 426.38 556.80 509.75 717.19 583.68 958.67
820.51 0.00 504.14 619.32 981.53 98.99 944.04 769.07 1009.04 816.11 970.12 994.39 644.49 537.73 1235.76 857.61 571.29 1054.79 681.91 1091.43 486.36 363.33 978.93 943.74 985.06 995.67 790.27 171.60 571.66 1020.28 629.13 1284.56 706.78 1070.93 591.27 512.53 572.24 944.71 562.60 948.75 995.77 656.11 852.35 1025.15 562.64 383.85 792.33 1075.36 749.39 254.37 708.93 310.16 599.22 650.03 1155.08 744.58 408.38 244.98 538.26 951.59 960.86 781.02 1259.94 1113.88 668.60 121.69 963.66 945.28 697.85 990.08 1010.48 1027.28 755.01 837.49 592.12 186.73 1244.01 1088.54 689.86 600.50 240.47 887.69 718.75 827.41 787.27 428.15 817.16 864.65 156.91 646.21 1096.90 205.06 1258.90 682.53 405.16 394.13 767.09 541.32 816.23 1016.64 743.26
367.27 504.14 0.00 507.35 547.91 465.97 544.27 327.72 542.34 491.11 662.33 674.76 466.07 493.44 731.62 511.69 292.23 686.82 263.33 587.29 443.76 288.60 656.79 605.53 544.35 615.42 475.38 592.19 245.66 592.12 395.24 884.79 436.02 645.26 413.37 128.00 384.36 504.00 384.86 482.05 736.39 470.58 348.69 633.98 72.85 272.55 345.64 621.61 378.44 355.39 580.90 325.33 132.52 417.80 755.31 389.73 496.39 571.21 306.03 598.50 561.09 466.95 860.17 609.74 434.43 465.27 618.48 637.49 421.96 670.01 612.84 555.02 677.56 379.00 442.98 411.70 844.24 720.57 465.90 153.81 545.07 551.82 582.80 527.78 469.74 506.42 350.46 576.00 358.41 256.15 718.11 625.65 872.85 418.87 399.52 291.49 315.07 142.48 416.46 616.87 602.60
874.62 619.32 507.35 0.00 1054.48 569.97 684.31 748.41 826.54 472.98 1155.81 1164.40 117.71 182.36 1043.25 1019.04 791.95 1194.17 683.01 1076.19 817.13 413.41 611.71 541.43 974.67 1053.58 968.86 701.82 370.59 1057.48 112.11 1024.83 354.34 907.47 863.61 411.62 834.60 1011.35 860.08 712.99 481.10 342.13 554.26 1113.53 580.20 452.53 852.99 926.84 511.22 449.40 109.17 522.64 639.87 216.90 853.60 448.71 766.04 701.71 274.16 1105.85 701.13 414.77 971.39 1098.64 375.46 569.27 1069.66 1130.97 165.76 1161.94 1103.40 684.15 229.47 523.95 893.22 624.44 984.28 1227.92 225.33 661.16 745.75 1059.17 260.02 1035.13 464.51 838.39 689.54 377.44 462.41 754.92 1026.99 693.11 994.38 334.94 247.44 683.73 517.23 437.71 589.77 735.56 123.94
258.88 981.53 547.91 1054.48 0.00 889.63 503.55 344.68 458.88 710.19 201.52 230.48 983.47 992.47 487.59 285.04 410.24 381.72 398.75 162.71 625.48 815.04 845.84 874.11 79.81 114.75 217.70 942.84 740.23 176.81 943.15 742.14 756.72 406.48 544.83 658.32 573.47 43.91 547.62 394.26 1029.36 768.48 567.39 153.64 537.46 782.25 336.09 305.10 635.95 734.25 1098.30 789.94 477.79 893.49 764.88 621.07 727.04 901.44 800.60 240.73 486.73 843.78 730.06 185.16 734.93 918.71 76.71 207.42 931.24 390.78 64.93 702.85 1117.36 568.05 595.99 833.03 746.61 388.23 844.45 527.92 830.35 263.07 990.49 415.22 691.88 696.72 364.94 906.29 831.65 395.87 319.36 935.04 723.06 734.84 894.09 587.40 633.72 637.05 631.36 430.95 1102.08
778.19 98.99 465.97 569.97 889.63 0.00 845.05 727.31 941.93 717.12 1015.22 1004.50 545.50 438.74 1166.14 895.65 528.97 1045.81 662.92 1043.29 506.93 264.34 879.94 844.75 886.07 900.52 886.30 237.89 472.67 983.07 536.94 1185.57 607.79 1055.39 549.39 413.54 529.92 845.72 566.06 881.64 905.57 568.47 753.36 960.47 472.44 303.46 695.11 985.16 659.19 155.38 660.33 219.96 532.11 559.83 1056.09 645.59 405.01 232.44 448.06 928.24 861.87 693.38 1160.95 1020.84 578.40 31.49 921.34 1021.44 607.65 970.71 935.57 928.29 799.44 738.50 545.01 183.36 1145.02 1079.56 607.93 503.28 261.04 962.74 619.76 829.88 688.28 437.16 750.05 774.45 107.56 654.04 997.91 256.80 1159.91 583.54 357.34 351.81 697.08 442.33 717.24 917.65 693.91
656.28 944.04 544.27 684.31 503.55 845.05 0.00 437.88 182.78 275.45 705.07 734.03 610.93 720.45 419.44 673.01 641.31 870.19 433.22 548.91 856.55 628.25 342.48 416.51 493.66 618.30 712.68 1027.96 500.92 498.70 624.52 340.52 371.81 242.27 775.90 504.50 799.29 534.01 792.10 218.46 584.85 421.00 195.58 642.35 487.78 667.37 638.73 316.58 276.07 689.67 725.76 715.30 547.45 519.73 283.34 280.29 885.62 991.77 517.17 744.28 16.82 409.04 315.90 552.75 386.83 876.54 565.42 710.97 583.46 819.41 568.48 232.94 738.81 180.92 827.06 955.97 299.97 891.78 479.54 599.25 986.02 766.62 616.70 770.39 246.61 927.79 349.58 471.55 818.02 505.13 411.06 1019.00 364.71 394.06 708.50 713.62 361.43 527.54 127.81 72.60 736.13
253.56 769.07 327.72 748.41 344.68 727.31 437.88 0.00 295.20 468.42 481.09 459.49 701.51 684.30 551.81 384.84 328.61 580.20 87.65 483.12 543.85 538.78 674.50 710.31 324.19 448.00 361.67 817.72 471.86 378.73 658.55 734.00 549.82 422.42 463.20 455.72 491.84 342.37 479.40 219.42 770.45 492.86 481.03 428.29 254.87 499.66 274.09 448.98 444.67 580.59 816.34 507.35 195.20 592.79 647.83 418.66 572.97 715.13 481.02 502.01 427.46 602.01 725.11 467.77 532.52 695.82 351.36 456.25 640.61 561.48 398.18 592.11 820.51 454.31 493.46 737.87 712.61 572.48 547.60 287.01 748.72 438.11 693.64 414.07 497.26 615.09 189.70 664.52 637.51 122.86 460.40 796.30 768.24 532.43 672.35 425.09 353.15 438.96 520.13 396.95 809.19
473.50 1009.04 542.34 826.54 458.88 941.93 182.78 295.20 0.00 425.79 547.17 576.13 774.77 758.50 286.36 495.40 513.40 692.58 340.48 412.51 708.35 751.10 525.26 502.45 379.07 479.28 557.53 1046.00 612.87 322.85 734.25 466.39 515.85 127.22 647.99 601.09 676.63 419.42 664.19 113.55 702.97 539.72 366.15 459.57 469.49 713.26 533.57 153.78 381.26 795.21 830.01 721.97 409.82 629.46 466.12 429.43 860.28 983.53 582.88 596.63 165.96 483.21 454.48 390.06 535.97 910.44 382.64 539.44 693.19 636.63 429.46 369.23 812.98 356.15 699.15 936.19 425.84 726.33 601.21 501.63 933.51 588.29 742.05 634.01 427.42 779.59 191.88 542.58 852.13 406.51 273.53 1026.59 490.58 491.60 774.21 655.38 411.56 573.11 310.59 110.18 834.32
721.98 816.11 491.11 472.98 710.19 717.12 275.45 468.42 425.79 0.00 832.95 861.91 393.16 470.68 657.91 839.74 686.28 1036.92 537.55 726.13 826.29 509.18 206.08 241.89 639.09 812.49 772.40 893.07 323.47 669.13 372.48 560.97 147.65 504.16 819.93 423.49 806.45 676.81 791.26 324.64 356.49 197.47 153.33 813.79 494.94 525.68 736.57 570.91 211.93 618.14 483.53 598.69 517.33 267.69 380.62 147.94 924.76 790.48 322.92 905.52 290.30 133.59 498.41 703.68 192.58 739.49 736.86 857.79 331.42 972.21 774.29 211.17 463.36 142.14 863.16 817.14 527.05 1022.27 247.65 601.12 873.84 869.82 374.38 882.49 28.84 864.16 406.75 196.10 745.55 591.28 685.58 922.61 558.43 138.04 514.25 720.78 252.72 395.19 178.58 315.61 484.09
295.06 970.12 662.33 1155.81 201.52 1015.22 705.07 481.09 547.17 832.95 0.00 28.96 1114.53 1104.45 652.71 209.70 540.63 216.35 497.01 280.30 603.97 837.07 1039.03 1043.92 262.30 154.03 186.95 968.18 806.99 334.09 1043.70 838.21 882.67 578.98 549.54 790.33 578.55 245.43 542.40 576.75 1189.44 917.85 768.91 94.39 612.63 797.95 366.23 487.59 799.49 868.50 1223.90 795.26 585.47 990.71 930.00 822.59 771.38 879.93 903.42 86.98 688.25 966.54 847.02 302.75 912.96 983.73 164.53 24.84 1054.44 199.03 136.59 904.37 1238.89 769.57 612.45 924.11 866.35 211.05 968.03 558.06 849.86 131.49 1096.66 277.59 830.87 675.21 547.43 1029.05 922.38 488.72 492.65 971.84 907.04 858.42 1027.96 678.13 707.97 796.48 814.54 632.47 1207.11
319.33 994.39 674.76 1164.40 230.48 1004.50 734.03 459.49 576.13 861.91 28.96 0.00 1120.81 1133.41 676.98 230.66 511.67 199.04 495.69 304.33 575.01 808.11 1067.99 1072.88 291.26 176.30 211.22 953.56 835.95 358.15 1066.59 867.17 853.71 607.94 578.50 802.76 607.51 259.70 571.36 605.71 1165.69 888.89 783.18 118.42 601.91 768.99 392.69 516.55 770.53 857.78 1194.94 784.54 611.93 996.82 954.27 842.70 742.42 850.97 932.38 76.26 717.21 960.29 866.03 326.78 884.00 973.01 193.49 49.11 1060.55 198.75 165.55 933.33 1211.98 798.53 641.41 934.46 837.39 232.46 939.07 568.92 820.90 140.16 1085.11 306.55 859.83 646.25 576.39 1058.01 933.08 512.99 516.68 942.88 902.13 829.46 1011.22 688.83 679.01 793.30 843.50 661.43 1199.70
833.34 644.49 466.07 117.71 983.47 545.50 610.93 701.51 774.77 393.16 1114.53 1120.81 0.00 169.03 999.66 954.41 729.71 1151.59 641.73 958.48 832.43 427.32 518.13 471.26 936.71 991.45 927.58 783.39 316.92 1013.89 70.83 951.45 289.39 853.20 831.12 358.20 802.11 939.56 850.93 669.40 454.93 287.68 483.54 1051.40 538.92 447.00 758.65 873.17 393.51 496.76 114.83 484.98 598.59 154.77 773.78 405.12 873.95 769.63 220.49 1059.48 625.78 371.18 891.57 980.93 313.33 576.99 993.36 1089.69 91.04 1127.39 1040.18 604.33 276.24 480.36 860.73 652.30 910.90 1185.34 181.74 566.82 785.67 1017.89 192.11 962.38 364.32 840.67 666.10 376.82 580.12 713.64 983.40 780.34 950.79 291.35 294.80 697.64 472.58 361.41 546.18 681.56 170.71
833.78 537.73 493.44 182.36 992.47 438.74 720.45 684.30 758.50 470.68 1104.45 1133.41 169.03 0.00 969.84 947.66 729.75 1144.84 669.10 1080.73 752.16 385.58 635.15 603.59 976.22 1039.67 941.89 676.63 299.71 1017.10 98.20 1031.65 392.02 885.72 784.61 397.71 755.60 948.56 795.11 672.61 538.73 365.18 555.25 1075.71 558.22 424.70 829.83 855.96 519.65 384.43 283.86 457.67 610.59 202.99 851.30 447.48 764.97 671.18 203.28 1082.23 703.63 445.52 969.09 1093.17 333.62 470.23 998.78 1104.00 188.11 1141.70 1045.60 681.85 403.65 558.39 814.22 622.10 997.73 1178.59 293.54 647.25 680.78 1018.33 302.10 994.29 499.52 773.42 772.10 441.18 461.34 701.93 975.71 645.00 1027.21 367.77 182.47 577.49 503.32 366.83 604.46 758.28 306.30
716.71 1235.76 731.62 1043.25 487.59 1166.14 419.44 551.81 286.36 657.91 652.71 676.98 999.66 969.84 0.00 695.90 799.76 820.85 626.84 380.58 994.71 1020.22 623.43 706.55 407.78 549.84 647.93 1278.39 798.55 367.99 977.88 390.24 732.56 285.81 934.35 859.62 959.41 448.13 915.83 399.91 865.80 767.74 573.53 566.49 748.11 999.62 803.90 242.30 667.62 1037.26 1073.79 1000.59 696.18 902.29 277.29 653.56 1124.78 1253.33 869.24 676.84 436.26 769.57 337.16 377.89 762.85 1189.06 505.55 627.87 950.82 798.64 547.57 563.10 1052.57 596.03 985.51 1143.32 365.80 811.75 817.92 754.72 1169.97 711.20 963.96 845.45 651.93 1065.95 478.24 828.94 1090.03 674.67 168.23 1290.47 397.18 708.31 1060.57 941.74 679.92 859.47 530.21 396.54 1078.55
175.45 857.61 511.69 1019.04 285.04 895.65 673.01 384.84 495.40 839.74 209.70 230.66 954.41 947.66 695.90 0.00 424.67 197.18 377.40 370.97 531.30 740.45 975.39 997.85 288.12 272.74 67.34 862.71 696.18 385.12 906.93 920.14 807.05 585.79 445.38 639.69 474.39 247.77 436.93 564.58 1120.37 842.23 714.73 229.06 438.84 717.41 233.61 484.41 696.40 764.56 1069.24 691.32 452.85 868.32 956.35 768.57 668.51 807.26 756.55 154.40 661.36 830.08 928.56 393.42 837.34 864.16 299.59 229.45 916.14 202.59 304.12 864.63 1128.08 697.60 425.54 818.64 921.24 230.93 892.41 425.44 777.19 96.90 1036.61 172.12 824.93 602.54 432.99 959.98 846.08 369.11 527.67 896.17 947.24 782.80 850.04 601.83 604.88 593.00 763.42 605.58 1058.03
249.22 571.29 292.23 791.95 410.24 528.97 641.31 328.61 513.40 686.28 540.63 511.67 729.71 729.75 799.76 424.67 0.00 536.40 240.96 572.95 215.24 422.41 828.64 821.65 490.05 497.37 357.33 532.60 513.95 587.05 679.84 924.92 538.63 639.00 134.59 420.23 163.23 454.15 150.79 531.60 896.29 622.31 610.68 541.84 219.38 461.53 246.08 667.18 518.30 442.73 818.80 450.15 212.90 575.05 924.65 590.47 357.72 491.20 574.32 497.67 624.49 693.71 879.70 595.40 617.42 508.47 486.95 519.44 638.78 461.30 475.17 817.01 896.98 614.37 185.75 422.79 884.37 570.15 665.60 162.89 420.11 433.77 789.59 373.08 663.83 286.48 430.84 779.55 421.41 268.16 729.60 548.37 921.55 562.88 625.52 177.16 461.60 410.77 678.45 568.71 791.45
326.64 1054.79 686.82 1194.17 381.72 1045.81 870.19 580.20 692.58 1036.92 216.35 199.04 1151.59 1144.84 820.85 197.18 536.40 0.00 574.58 477.00 696.43 808.56 1172.57 1195.03 434.18 271.01 264.52 993.17 893.36 452.86 1082.06 1041.33 1004.23 709.29 589.41 814.82 617.25 393.83 560.74 748.63 1307.70 1016.09 911.91 298.74 613.97 847.68 428.74 614.95 859.70 899.09 1266.42 825.85 554.30 1065.50 1098.14 931.87 732.93 960.37 953.73 203.86 858.54 1027.26 1009.58 454.55 1006.82 1014.32 367.65 218.87 1108.78 75.10 320.83 1061.81 1325.26 894.78 590.67 910.97 1036.43 33.75 1057.54 620.57 920.11 219.61 1203.58 302.58 1022.11 767.67 630.17 1157.16 957.81 530.51 652.62 1026.63 1069.60 979.98 1011.67 713.56 802.06 790.18 934.70 802.76 1255.21
269.34 681.91 263.33 683.01 398.75 662.92 433.22 87.65 340.48 537.55 497.01 495.69 641.73 669.10 626.84 377.40 240.96 574.58 0.00 482.89 456.20 477.73 669.69 738.99 411.84 477.39 310.06 766.77 474.13 445.98 570.90 707.93 568.16 467.70 375.55 389.07 404.19 430.02 391.75 307.07 841.83 580.51 432.27 489.27 190.48 438.61 205.51 485.56 361.37 516.20 756.56 442.96 134.15 645.62 716.56 433.54 579.04 664.18 541.46 471.38 442.75 602.57 638.74 460.44 547.40 631.43 439.01 472.17 660.81 509.87 427.57 638.60 906.03 401.96 405.81 663.75 667.38 608.33 635.25 225.96 661.07 407.48 705.71 407.31 529.29 527.44 214.41 732.47 576.46 71.91 548.05 745.35 680.59 543.91 634.95 374.14 361.32 377.91 467.78 386.97 806.95
421.59 1091.43 587.29 1076.19 162.71 1043.29 548.91 483.12 412.51 726.13 280.30 304.33 958.48 1080.73 380.58 370.97 572.95 477.00 482.89 0.00 788.19 875.89 891.39 860.25 158.93 232.60 380.41 1105.55 800.11 115.25 982.53 635.13 775.16 371.68 691.53 715.29 720.54 197.57 701.28 433.10 972.85 784.55 632.91 185.91 614.21 859.00 498.80 279.28 564.97 887.91 1073.31 866.69 554.54 909.56 657.87 637.14 880.70 1004.84 881.34 326.76 532.09 824.57 567.35 22.45 751.00 1052.56 193.54 265.78 973.29 443.20 182.78 748.21 1130.85 663.22 754.44 995.74 595.99 491.35 857.94 602.63 993.06 373.31 1003.98 543.09 754.97 859.43 444.06 922.23 945.70 489.32 212.35 1088.70 627.37 750.91 986.81 750.11 612.30 729.77 629.22 476.31 1121.15
452.28 486.36 443.76 817.13 625.48 506.93 856.55 543.85 708.35 826.29 603.97 575.01 832.43 752.16 994.71 531.30 215.24 696.43 456.20 788.19 0.00 493.17 961.94 1021.18 699.01 700.43 499.86 378.55 616.67 796.01 793.66 1094.91 753.87 835.57 132.61 553.71 103.60 658.66 154.95 639.61 1105.28 837.55 714.46 693.43 370.91 532.29 412.89 862.13 661.65 460.23 873.46 495.84 428.14 790.29 1068.02 733.82 167.41 275.96 707.85 651.27 839.73 905.80 1083.00 801.69 829.91 476.91 630.60 624.12 741.39 621.33 677.42 920.79 1017.57 684.15 105.76 379.26 1054.36 681.94 867.72 378.13 245.89 597.28 902.23 419.76 811.48 71.24 646.08 964.08 467.10 483.40 938.56 367.87 1119.10 778.12 569.69 222.85 613.13 544.30 749.97 783.95 922.03
608.94 363.33 288.60 413.41 815.04 264.34 628.25 538.78 751.10 509.18 837.07 808.11 427.32 385.58 1020.22 740.45 422.41 808.56 477.73 875.89 493.17 0.00 615.60 632.35 800.18 857.09 717.05 422.74 281.17 795.10 356.49 966.71 395.39 826.85 477.44 221.67 448.43 771.13 504.94 638.83 656.28 430.57 489.02 841.53 333.67 39.12 506.84 832.67 453.42 108.96 498.31 147.02 343.58 389.02 864.70 381.25 475.22 455.10 277.25 807.67 644.72 501.97 943.80 871.53 407.59 295.83 809.94 857.22 376.15 883.66 856.76 695.35 642.88 474.16 507.05 343.20 928.22 842.31 382.22 315.01 405.31 790.16 445.70 675.99 520.59 485.25 561.52 577.30 237.31 470.32 929.17 456.20 895.57 371.14 203.11 270.32 432.74 177.99 538.23 665.37 537.35
928.06 978.93 656.79 611.71 845.84 879.94 342.48 674.50 525.26 206.08 1039.03 1067.99 518.13 635.15 623.43 975.39 828.64 1172.57 669.69 891.39 961.94 615.60 0.00 83.12 827.53 959.74 908.05 1038.34 452.97 777.89 536.95 547.96 353.73 584.75 955.58 604.40 983.42 831.58 926.91 530.72 242.37 353.82 308.10 984.83 672.78 654.72 855.37 659.06 397.11 724.56 590.55 728.19 702.51 455.57 399.67 324.94 1046.20 996.56 462.55 1042.91 359.30 228.91 517.46 885.10 398.66 879.12 907.90 1053.26 510.68 1107.86 910.77 223.77 429.14 277.79 998.81 958.80 507.41 1157.92 386.38 754.17 1020.91 979.01 487.75 1064.64 234.92 1033.18 542.40 311.71 852.91 741.60 753.54 1071.80 572.15 344.12 653.88 841.30 458.80 556.15 263.92 415.08 534.67
874.35 943.74 605.53 541.43 874.11 844.75 416.51 710.31 502.45 241.89 1043.92 1072.88 471.26 603.59 706.55 997.85 821.65 1195.03 738.99 860.25 1021.18 632.35 83.12 0.00 806.26 965.88 954.11 1055.09 446.64 825.30 505.39 516.09 283.02 604.24 956.24 585.85 978.30 830.20 972.44 566.53 280.02 320.64 306.72 962.02 668.40 648.85 772.25 580.97 447.15 741.31 547.30 721.86 728.07 455.19 482.79 374.98 1060.13 980.11 430.97 1058.91 399.69 312.03 504.18 882.70 315.75 847.54 885.09 1041.89 501.28 1139.08 931.91 183.57 385.89 337.03 1007.40 940.31 475.54 1217.16 370.82 754.51 1037.66 1051.53 516.86 999.54 213.05 1068.32 601.64 369.19 869.66 743.04 700.72 1072.85 540.28 261.21 622.30 894.24 436.39 537.60 347.04 455.47 491.42
308.93 985.06 544.35 974.67 79.81 886.07 493.66 324.19 379.07 639.09 262.30 291.26 936.71 976.22 407.78 288.12 490.05 434.18 411.84 158.93 699.01 800.18 827.53 806.26 0.00 176.03 266.03 948.50 729.94 97.00 878.02 662.33 716.75 326.67 572.73 578.51 600.57 40.35 544.06 314.45 995.58 740.62 563.83 174.70 562.74 761.06 396.12 225.29 557.72 730.69 1051.54 802.51 503.07 871.72 685.07 629.89 723.48 845.91 783.78 269.06 510.48 772.68 669.44 143.58 743.75 917.56 97.77 254.57 933.99 411.84 139.79 726.60 1075.02 549.74 635.64 912.84 679.58 467.93 802.11 558.32 890.59 303.42 934.75 460.24 667.93 758.17 285.13 835.19 859.04 404.52 239.55 931.48 659.12 692.50 883.80 667.21 553.91 626.76 610.97 480.59 1062.74
248.15 995.67 615.42 1053.58 114.75 900.52 618.30 448.00 479.28 812.49 154.03 176.30 991.45 1039.67 549.84 272.74 497.37 271.01 477.39 232.60 700.43 857.09 959.74 965.88 176.03 0.00 205.40 1029.97 828.69 181.85 941.47 770.32 857.30 438.28 594.63 743.42 623.64 135.68 623.30 490.48 1144.11 883.23 659.16 59.95 621.08 834.05 350.25 399.83 727.72 826.02 1080.43 854.82 569.49 836.68 827.13 735.82 817.76 974.24 878.65 146.54 601.48 944.15 781.05 232.33 849.68 932.01 96.64 134.37 900.41 337.17 49.82 817.60 1158.61 682.80 645.24 920.16 791.19 304.76 927.23 542.08 917.48 210.44 1028.77 402.92 783.65 769.52 461.16 1000.33 910.42 452.02 381.61 1026.81 801.18 849.59 985.63 666.17 729.94 728.59 695.82 545.70 1053.08
108.11 790.27 475.38 968.86 217.70 886.30 712.68 361.67 557.53 772.40 186.95 211.22 927.58 941.89 647.93 67.34 357.33 264.52 310.06 380.41 499.86 717.05 908.05 954.11 266.03 205.40 0.00 878.41 703.99 363.03 856.75 902.48 739.71 518.45 439.53 603.38 468.54 225.68 462.33 497.24 1097.37 774.89 647.39 241.98 485.07 694.01 210.21 417.07 638.24 749.94 1042.41 725.79 429.45 850.38 918.87 710.41 662.66 775.82 738.61 161.32 695.86 832.43 861.22 366.96 770.00 865.80 249.32 162.11 897.34 199.81 255.22 853.72 1097.98 630.26 439.84 780.12 871.36 298.27 825.07 402.04 745.75 97.42 971.11 197.52 757.59 571.10 365.65 962.33 778.74 301.77 479.70 867.73 899.27 715.46 841.01 534.49 604.29 617.86 696.08 640.08 1066.78
781.82 171.60 592.19 701.82 942.84 237.89 1027.96 817.72 1046.00 893.07 968.18 953.56 783.39 676.63 1278.39 862.71 532.60 993.17 766.77 1105.55 378.55 422.74 1038.34 1055.09 948.50 1029.97 878.41 0.00 655.58 1045.50 742.97 1348.13 818.13 1171.60 493.92 614.77 464.91 924.59 495.96 999.76 1079.02 806.36 898.78 1016.88 616.63 461.86 774.20 1074.73 850.76 338.29 810.99 411.53 650.23 749.09 1239.00 803.99 313.92 102.59 651.73 963.47 1044.78 915.44 1337.01 1092.08 782.07 251.79 974.20 993.02 739.86 918.07 1007.77 1104.24 926.61 871.54 457.32 180.49 1327.93 1014.24 804.96 613.98 147.06 917.05 809.77 690.59 921.91 307.31 868.17 978.12 239.41 694.86 1155.70 33.46 1276.99 793.88 540.25 404.67 801.42 594.85 900.15 1088.11 825.76
606.09 571.66 245.66 370.59 740.23 472.67 500.92 471.86 612.87 323.47 806.99 835.95 316.92 299.71 798.55 696.18 513.95 893.36 474.13 800.11 616.67 281.17 452.97 446.64 729.94 828.69 703.99 655.58 0.00 776.29 299.17 791.98 190.36 627.15 572.89 151.43 543.88 696.32 600.39 563.48 548.02 224.92 350.31 812.06 294.57 283.37 553.45 556.25 235.14 317.29 431.75 275.22 346.94 208.20 704.09 273.66 642.90 645.57 96.43 820.22 517.74 316.26 722.79 822.56 213.24 463.69 735.13 831.83 256.02 891.73 781.95 534.64 431.90 320.00 602.50 541.01 751.43 927.11 256.30 361.66 613.64 790.64 376.49 757.22 315.56 633.90 501.82 422.82 431.43 402.22 676.00 664.57 782.81 185.43 287.76 507.73 233.04 103.18 385.82 502.69 404.91
405.93 1020.28 592.12 1057.48 176.81 983.07 498.70 378.73 322.85 669.13 334.09 358.15 1013.89 1017.10 367.99 385.12 587.05 452.86 445.98 115.25 796.01 795.10 777.89 825.30 97.00 181.85 363.03 1045.50 776.29 0.00 975.02 622.54 746.79 256.43 667.55 675.51 696.56 137.35 641.06 344.49 1020.26 770.66 581.74 241.80 557.37 805.27 445.34 319.51 645.94 827.69 1088.02 809.85 519.86 916.52 645.28 670.95 820.48 942.91 813.82 328.39 488.81 802.72 599.20 107.21 777.08 998.32 169.56 316.22 965.05 483.63 216.38 677.10 1041.13 579.79 730.46 1003.82 609.34 486.61 832.15 548.11 987.59 375.21 978.19 557.24 697.97 854.16 382.13 865.23 920.55 374.07 199.76 1028.48 619.33 722.54 980.80 676.30 650.54 723.76 513.97 433.03 1092.78
762.51 629.13 395.24 112.11 943.15 536.94 624.52 658.55 734.25 372.48 1043.70 1066.59 70.83 98.20 977.88 906.93 679.84 1082.06 570.90 982.53 793.66 356.49 536.95 505.39 878.02 941.47 856.75 742.97 299.17 975.02 0.00 933.45 293.82 799.23 808.61 299.51 779.60 899.24 780.10 647.62 453.80 266.98 482.41 1001.42 468.09 376.17 740.88 855.42 449.38 425.93 185.66 457.67 527.76 104.79 753.10 377.21 803.12 737.86 203.65 993.74 633.36 347.32 870.89 994.97 263.35 568.43 975.79 1018.86 89.91 1056.56 991.29 583.65 341.58 483.41 838.22 581.47 899.53 1115.81 195.34 549.05 714.84 947.06 250.75 923.02 401.32 781.98 673.90 342.98 532.82 642.81 959.54 709.51 929.01 269.57 223.97 626.81 405.12 347.76 534.19 688.09 236.05
939.89 1284.56 884.79 1024.83 742.14 1185.57 340.52 734.00 466.39 560.97 838.21 867.17 951.45 1031.65 390.24 920.14 924.92 1041.33 707.93 635.13 1094.91 966.71 547.96 516.09 662.33 770.32 902.48 1348.13 791.98 622.54 933.45 0.00 708.62 387.89 1059.51 845.02 1084.05 702.68 1064.51 533.74 789.72 758.44 536.10 750.61 828.30 974.61 903.16 489.27 616.59 1030.19 1037.47 1055.82 822.54 828.66 180.35 620.81 1226.14 1332.29 857.69 891.46 357.34 694.56 69.19 632.44 727.35 1217.06 673.68 830.48 892.39 987.75 720.50 437.61 876.06 521.44 1110.67 1243.39 40.55 1045.02 808.62 914.35 1326.54 879.33 935.35 1092.26 587.13 1166.15 604.60 757.07 1158.54 779.84 422.78 1359.52 71.14 699.01 1043.42 1054.14 622.46 868.06 468.33 356.21 981.59
709.95 706.78 436.02 354.34 756.72 607.79 371.81 549.82 515.85 147.65 882.67 853.71 289.39 392.02 732.56 807.05 538.63 1004.23 568.16 775.16 753.87 395.39 353.73 283.02 716.75 857.30 739.71 818.13 190.36 746.79 293.82 708.62 0.00 598.53 673.22 341.79 701.86 727.70 689.42 402.30 357.66 83.68 204.22 797.35 465.30 411.89 657.31 616.49 210.19 504.35 389.73 465.58 515.59 214.17 528.27 138.02 777.11 758.27 209.13 818.35 386.66 155.08 646.06 797.61 78.79 625.70 814.52 877.22 218.26 939.52 821.65 358.82 401.92 215.01 724.38 703.35 671.78 1037.98 129.01 552.02 800.70 837.13 275.05 769.55 125.20 824.26 471.50 240.92 597.90 506.08 732.51 851.01 683.69 24.25 400.46 665.71 265.36 293.54 271.99 442.44 375.20
600.72 1070.93 645.26 907.47 406.48 1055.39 242.27 422.42 127.22 504.16 578.98 607.94 853.20 885.72 285.81 585.79 639.00 709.29 467.70 371.68 835.57 826.85 584.75 604.24 326.67 438.28 518.45 1171.60 627.15 256.43 799.23 387.89 598.53 0.00 773.59 698.47 802.23 367.02 789.79 217.93 806.92 641.84 413.83 498.23 596.71 817.64 565.84 101.38 485.63 900.01 933.96 849.19 537.04 711.92 460.56 494.43 987.50 1110.75 687.26 584.82 239.10 610.43 342.77 363.64 608.29 1037.66 424.44 572.65 775.65 718.26 466.46 420.67 940.20 383.52 824.75 1015.04 352.91 743.04 682.14 628.85 1029.05 566.66 828.18 715.97 488.88 906.81 319.10 646.53 979.35 533.73 198.36 1153.81 402.79 595.98 822.69 782.60 394.11 650.22 370.08 237.40 907.96
383.81 591.27 413.37 863.61 544.83 549.39 775.90 463.20 647.99 819.93 549.54 578.50 831.12 784.61 934.35 445.38 134.59 589.41 375.55 691.53 132.61 477.44 955.58 956.24 572.73 594.63 439.53 493.92 572.89 667.55 808.61 1059.51 673.22 773.59 0.00 517.96 29.01 532.38 28.67 666.19 1030.88 756.90 708.10 574.92 340.52 516.56 321.46 752.98 652.89 439.35 919.94 480.11 347.49 709.64 1059.24 716.96 223.13 391.33 633.26 581.57 759.08 828.30 1014.29 669.08 752.01 558.23 497.99 574.38 773.37 520.96 544.81 914.43 1004.79 677.79 62.91 426.68 1018.96 555.66 793.13 297.48 378.50 519.94 913.32 293.48 798.42 186.61 565.43 903.23 451.37 402.75 812.28 483.24 1022.04 697.47 616.17 207.12 582.74 469.71 743.61 703.30 926.04
495.27 512.53 128.00 411.62 658.32 413.54 504.50 455.72 601.09 423.49 790.33 802.76 358.20 397.71 859.62 639.69 420.23 814.82 389.07 715.29 553.71 221.67 604.40 585.85 578.51 743.42 603.38 614.77 151.43 675.51 299.51 845.02 341.79 698.47 517.96 0.00 488.95 618.86 512.86 556.99 642.16 376.35 403.27 753.21 200.85 182.55 473.64 683.94 272.11 276.48 473.03 224.00 260.52 323.57 778.95 295.50 587.97 544.07 211.80 726.50 487.68 409.75 786.76 722.09 306.43 412.47 676.28 765.49 371.39 798.01 718.30 609.60 556.12 406.41 547.57 486.63 804.47 848.57 371.67 281.81 572.83 679.82 491.86 655.78 394.65 482.47 425.40 481.77 404.83 373.52 803.69 609.64 846.78 324.64 305.29 419.49 304.36 48.25 452.48 543.46 513.28
411.39 572.24 384.36 834.60 573.47 529.92 799.29 491.84 676.63 806.45 578.55 607.51 802.11 755.60 959.41 474.39 163.23 617.25 404.19 720.54 103.60 448.43 983.42 978.30 600.57 623.64 468.54 464.91 543.88 696.56 779.60 1084.05 701.86 802.23 29.01 488.95 0.00 560.22 56.51 686.59 1034.61 768.80 733.05 603.93 311.51 487.55 309.29 781.99 642.46 438.25 890.93 451.10 337.06 716.02 1082.63 687.95 252.14 362.32 604.25 609.41 783.62 802.20 1042.93 698.09 734.59 529.22 527.00 603.39 763.84 548.80 573.82 939.38 975.78 705.63 58.62 397.67 1043.50 583.50 764.12 320.83 349.49 547.78 884.31 321.32 813.48 157.60 555.00 874.22 422.36 431.39 840.12 454.23 1049.88 717.09 587.16 178.11 553.73 440.70 771.45 727.84 905.73
302.79 944.71 504.00 1011.35 43.91 845.72 534.01 342.37 419.42 676.81 245.43 259.70 939.56 948.56 448.13 247.77 454.15 393.83 430.02 197.57 658.66 771.13 831.58 830.20 40.35 135.68 225.68 924.59 696.32 137.35 899.24 702.68 727.70 367.02 532.38 618.86 560.22 0.00 503.71 354.80 1033.30 778.66 523.48 159.90 547.47 773.33 355.77 265.64 592.04 690.34 1054.39 763.58 509.96 868.46 725.42 631.25 683.13 886.26 756.69 228.71 530.64 808.47 709.79 175.12 745.11 877.21 114.48 239.77 915.98 388.71 108.84 729.81 1109.91 553.79 595.29 876.94 719.93 427.58 837.00 538.21 870.31 281.84 975.10 419.89 647.97 717.82 325.48 872.91 818.69 364.17 279.90 891.13 699.47 727.39 850.18 631.31 594.26 593.14 591.25 474.86 1058.17
400.01 562.60 384.86 860.08 547.62 566.06 792.10 479.40 664.19 791.26 542.40 571.36 850.93 795.11 915.83 436.93 150.79 560.74 391.75 701.28 154.95 504.94 926.91 972.44 544.06 623.30 462.33 495.96 600.39 641.06 780.10 1064.51 689.42 789.79 28.67 512.86 56.51 503.71 0.00 675.62 1047.08 773.10 679.43 603.59 314.46 544.06 313.87 769.35 648.20 410.68 916.41 475.14 359.34 725.84 1053.79 703.18 251.80 418.83 660.76 552.90 775.28 844.50 1030.49 678.83 768.21 585.73 526.66 567.24 789.57 492.29 573.48 885.76 1032.29 649.12 91.58 454.18 1035.16 526.99 816.39 313.68 400.84 491.27 940.38 264.81 776.45 214.11 577.28 907.63 478.87 418.95 783.61 510.74 993.37 713.67 612.64 234.62 556.68 497.21 714.94 719.50 942.24
472.98 948.75 482.05 712.99 394.26 881.64 218.46 219.42 113.55 324.64 576.75 605.71 669.40 672.61 399.91 564.58 531.60 748.63 307.07 433.10 639.61 638.83 530.72 566.53 314.45 490.48 497.24 999.76 563.48 344.49 647.62 533.74 402.30 217.93 666.19 556.99 686.59 354.80 675.62 0.00 681.13 426.17 261.61 489.15 409.20 599.71 473.28 267.33 378.23 734.92 743.53 661.68 349.53 572.03 428.41 369.38 792.39 915.57 469.33 583.51 233.31 458.23 521.83 451.60 432.59 850.15 412.22 569.02 620.56 697.05 454.24 449.43 760.57 291.92 712.88 892.20 493.19 782.38 487.66 441.34 885.50 594.66 633.70 633.49 353.48 710.85 131.59 520.74 791.84 342.28 387.08 966.30 557.93 378.05 660.66 595.09 392.18 593.29 308.50 177.53 748.29
1024.01 995.77 736.39 481.10 1029.36 905.57 584.85 770.45 702.97 356.49 1189.44 1165.69 454.93 538.73 865.80 1120.37 896.29 1307.70 841.83 972.85 1105.28 656.28 242.37 280.02 995.58 1144.11 1097.37 1079.02 548.02 1020.26 453.80 789.72 357.66 806.92 1030.88 642.16 1034.61 1033.30 1047.08 681.13 0.00 399.02 509.82 1100.77 753.56 653.39 972.18 856.75 480.46 758.85 413.04 685.61 785.86 398.58 642.04 408.29 1061.49 1035.92 486.78 1151.99 601.67 290.29 759.83 950.40 379.50 874.08 1085.61 1180.64 363.89 1249.62 1094.29 459.77 320.75 498.63 1082.04 951.40 749.78 1328.63 355.47 865.03 1055.20 1088.09 363.24 1127.21 385.33 1124.63 753.05 160.39 880.33 820.95 902.51 1099.39 718.58 381.91 662.96 926.60 571.98 593.91 506.29 657.45 357.16
745.13 656.11 470.58 342.13 768.48 568.47 421.00 492.86 539.72 197.47 917.85 888.89 287.68 365.18 767.74 842.23 622.31 1016.09 580.51 784.55 837.55 430.57 353.82 320.64 740.62 883.23 774.89 806.36 224.92 770.66 266.98 758.44 83.68 641.84 756.90 376.35 768.80 778.66 773.10 426.17 399.02 0.00 255.18 881.03 495.81 447.07 681.03 651.67 219.58 539.53 379.30 500.14 461.79 188.12 578.09 147.41 851.40 756.77 209.18 902.03 410.88 124.91 695.88 807.00 78.84 599.96 838.39 937.00 234.62 974.70 833.41 408.64 389.71 258.32 808.06 738.53 720.97 1049.84 116.80 553.60 731.82 866.05 262.84 853.23 208.64 858.82 492.17 238.63 656.35 541.26 737.13 825.27 718.87 59.43 400.51 690.79 253.59 328.10 293.19 466.66 372.70
661.12 852.35 348.69 554.26 567.39 753.36 195.58 481.03 366.15 153.33 768.91 783.18 483.54 555.25 573.53 714.73 610.68 911.91 432.27 632.91 714.46 489.02 308.10 306.72 563.83 659.16 647.39 898.78 350.31 581.74 482.41 536.10 204.22 413.83 708.10 403.27 733.05 523.48 679.43 261.61 509.82 255.18 0.00 683.38 421.54 528.14 608.48 422.61 177.13 597.98 572.52 601.78 481.21 380.19 406.62 107.77 845.08 796.19 351.97 752.19 212.40 284.99 511.48 655.36 221.63 768.54 637.96 763.25 392.50 847.20 632.32 206.33 601.84 30.31 751.33 760.39 495.55 910.44 328.93 447.79 879.55 744.81 474.97 821.63 124.49 785.70 294.92 349.43 707.10 457.25 542.36 868.39 524.16 221.54 543.30 640.18 218.06 355.02 67.77 268.18 573.14
292.62 1025.15 633.98 1113.53 153.64 960.47 642.35 428.29 459.57 813.79 94.39 118.42 1051.40 1075.71 566.49 229.06 541.84 298.74 489.27 185.91 693.43 841.53 984.83 962.02 174.70 59.95 241.98 1016.88 812.06 241.80 1001.42 750.61 797.35 498.23 574.92 753.21 603.93 159.90 603.59 489.15 1100.77 881.03 683.38 0.00 561.13 818.49 334.69 399.99 732.42 850.24 1140.38 813.61 553.93 896.63 843.78 774.71 798.05 914.29 872.43 140.85 625.53 942.78 753.26 208.36 876.14 991.96 76.93 79.87 960.36 277.22 89.12 828.80 1199.27 713.69 637.83 964.63 781.90 305.44 926.36 526.52 939.32 187.40 1009.06 371.98 807.87 709.57 459.83 940.38 890.71 477.41 398.26 1006.20 813.28 821.60 965.92 646.46 728.61 708.88 751.15 569.75 1113.03
381.01 562.64 72.85 580.20 537.46 472.44 487.78 254.87 469.49 494.94 612.63 601.91 538.92 558.22 748.11 438.84 219.38 613.97 190.48 614.21 370.91 333.67 672.78 668.40 562.74 621.08 485.07 616.63 294.57 557.37 468.09 828.30 465.30 596.71 340.52 200.85 311.51 547.47 314.46 409.20 753.56 495.81 421.54 561.13 0.00 294.55 278.91 548.76 333.74 325.72 653.75 252.48 59.67 466.71 771.12 388.72 430.74 514.04 354.94 525.65 504.60 539.80 803.68 591.76 485.28 440.95 577.07 618.85 494.81 597.16 602.39 627.87 726.47 394.99 370.13 483.00 787.75 647.72 514.81 111.47 597.40 535.74 635.00 506.20 501.97 440.77 277.61 593.17 431.26 183.30 645.26 583.52 852.49 467.78 448.43 225.84 242.22 191.39 460.81 554.59 656.42
585.90 383.85 272.55 452.53 782.25 303.46 667.37 499.66 713.26 525.68 797.95 768.99 447.00 424.70 999.62 717.41 461.53 847.68 438.61 859.00 532.29 39.12 654.72 648.85 761.06 834.05 694.01 461.86 283.37 805.27 376.17 974.61 411.89 817.64 516.56 182.55 487.55 773.33 544.06 599.71 653.39 447.07 528.14 818.49 294.55 0.00 483.80 793.55 454.66 148.08 537.43 107.90 304.46 380.99 903.82 420.37 514.34 463.59 316.37 816.18 670.23 518.47 969.31 836.55 442.18 296.37 812.14 818.10 415.27 858.65 847.18 734.47 613.75 513.28 501.65 304.08 967.34 881.43 343.10 354.13 437.45 767.12 406.58 711.09 537.09 524.37 522.40 538.18 226.94 431.20 890.05 495.32 934.69 387.64 242.23 309.44 436.30 180.19 577.35 704.49 540.09
102.10 792.33 345.64 852.99 336.09 695.11 638.73 274.09 533.57 736.57 366.23 392.69 758.65 829.83 803.90 233.61 246.08 428.74 205.51 498.80 412.89 506.84 855.37 772.25 396.12 350.25 210.21 774.20 553.45 445.34 740.88 903.16 657.31 565.84 321.46 473.64 309.29 355.77 313.87 473.28 972.18 681.03 608.48 334.69 278.91 483.80 0.00 608.97 524.64 539.73 873.48 531.39 219.24 730.71 901.69 596.81 544.59 671.61 626.55 347.22 648.26 681.89 844.25 517.87 679.02 670.64 392.48 355.21 767.60 410.02 388.55 814.81 985.35 606.30 367.91 668.87 872.89 462.49 742.67 191.83 658.78 283.32 833.67 227.29 732.97 466.89 341.69 811.79 645.39 151.23 635.67 763.52 886.10 633.06 709.95 401.14 499.77 463.00 672.12 592.48 928.03
525.18 1075.36 621.61 926.84 305.10 985.16 316.58 448.98 153.78 570.91 487.59 516.55 873.17 855.96 242.30 484.41 667.18 614.95 485.56 279.28 862.13 832.67 659.06 580.97 225.29 399.83 417.07 1074.73 556.25 319.51 855.42 489.27 616.49 101.38 752.98 683.94 781.99 265.64 769.35 267.33 856.75 651.67 422.61 399.99 548.76 793.55 608.97 0.00 535.04 838.44 957.72 765.20 489.09 764.45 501.80 530.38 939.55 1011.03 652.68 494.35 299.76 636.99 444.15 301.73 644.24 953.67 323.06 479.86 812.27 616.88 365.08 515.88 947.99 452.92 815.89 949.75 454.29 648.70 701.85 580.90 927.67 514.49 847.89 614.59 547.10 868.35 271.15 696.36 931.40 485.78 119.75 1105.86 485.65 592.24 844.01 734.65 495.49 659.43 438.65 255.30 927.89
583.23 749.39 378.44 511.22 635.95 659.19 276.07 444.67 381.26 211.93 799.49 770.53 393.51 519.65 667.62 696.40 518.30 859.70 361.37 564.97 661.65 453.42 397.11 447.15 557.72 727.72 638.24 850.76 235.14 645.94 449.38 616.59 210.19 485.63 652.89 272.11 642.46 592.04 648.20 378.23 480.46 219.58 177.13 732.42 333.74 454.66 524.64 535.04 0.00 512.47 508.34 439.23 305.40 344.59 535.35 72.17 713.85 804.89 316.37 799.56 292.89 312.96 591.97 587.42 186.03 627.70 655.49 800.35 408.32 838.05 697.51 383.46 565.88 146.82 684.49 698.29 576.04 893.45 292.97 397.21 808.82 735.66 439.01 694.66 240.77 652.23 272.59 372.39 640.82 379.36 654.79 853.01 640.78 185.94 507.70 508.95 91.52 303.10 196.50 348.67 556.18
641.83 254.37 355.39 449.40 734.25 155.38 689.67 580.59 795.21 618.14 868.50 857.78 496.76 384.43 1037.26 764.56 442.73 899.09 516.20 887.91 460.23 108.96 724.56 741.31 730.69 826.02 749.94 338.29 317.29 827.69 425.93 1030.19 504.35 900.01 439.35 276.48 438.25 690.34 410.68 734.92 758.85 539.53 597.98 850.24 325.72 148.08 539.73 838.44 512.47 0.00 505.73 73.24 385.39 426.12 900.71 490.21 397.46 361.06 386.21 781.52 706.49 610.93 1005.57 865.46 516.55 186.87 804.82 874.72 467.18 823.99 780.19 804.31 655.22 583.12 496.87 290.38 989.64 932.84 491.18 347.90 296.35 823.05 554.66 675.49 629.55 388.99 603.33 664.31 128.35 509.02 869.03 371.75 1004.53 480.10 201.96 312.96 541.70 286.95 561.86 762.27 561.61
948.17 708.93 580.90 109.17 1098.30 660.33 725.76 816.34 830.01 483.53 1223.90 1194.94 114.83 283.86 1073.79 1069.24 818.80 1266.42 756.56 1073.31 873.46 498.31 590.55 547.30 1051.54 1080.43 1042.41 810.99 431.75 1088.02 185.66 1037.47 389.73 933.96 919.94 473.03 890.93 1054.39 916.41 743.53 413.04 379.30 572.52 1140.38 653.75 537.43 873.48 957.72 508.34 505.73 0.00 573.96 713.42 243.75 864.15 479.25 875.21 810.88 335.32 1174.31 740.61 417.33 968.28 1095.76 402.31 678.44 1108.19 1204.52 180.02 1242.22 1130.25 683.18 161.41 579.32 949.55 733.61 996.92 1300.17 283.90 681.65 802.08 1132.72 179.11 1077.21 479.15 874.30 780.93 287.43 571.58 828.47 1029.55 802.28 980.99 365.48 303.77 768.63 561.56 476.24 636.23 794.13 55.88
617.68 310.16 325.33 522.64 789.94 219.96 715.30 507.35 721.97 598.69 795.26 784.54 484.98 457.67 1000.59 691.32 450.15 825.85 442.96 866.69 495.84 147.02 728.19 721.86 802.51 854.82 725.79 411.53 275.22 809.85 457.67 1055.82 465.58 849.19 480.11 224.00 451.10 763.58 475.14 661.68 685.61 500.14 601.78 813.61 252.48 107.90 531.39 765.20 439.23 73.24 573.96 0.00 312.15 352.88 973.95 511.40 441.35 389.42 371.65 708.28 711.68 591.48 998.01 844.24 462.50 188.47 786.93 801.48 393.94 750.75 833.75 808.11 670.12 586.05 509.72 265.79 1015.27 859.60 443.43 363.95 369.59 772.18 514.48 739.95 590.78 462.23 530.09 591.07 201.59 435.78 884.95 413.78 1042.59 460.65 275.20 272.99 494.70 272.25 635.10 767.46 569.28
321.34 599.22 132.52 639.87 477.79 532.11 547.45 195.20 409.82 517.33 585.47 611.93 598.59 610.59 696.18 452.85 212.90 554.30 134.15 554.54 428.14 343.58 702.51 728.07 503.07 569.49 429.45 650.23 346.94 519.86 527.76 822.54 515.59 537.04 347.49 260.52 337.06 509.96 359.34 349.53 785.86 461.79 481.21 553.93 59.67 304.46 219.24 489.09 305.40 385.39 713.42 312.15 0.00 511.47 777.94 377.57 450.46 573.71 407.31 566.46 550.70 586.70 753.35 532.09 491.43 500.62 529.60 574.45 554.48 629.26 542.72 687.54 778.84 452.22 379.09 542.67 781.99 588.05 567.18 91.81 633.01 502.56 687.37 446.53 546.17 460.49 217.94 652.84 442.31 145.79 585.59 616.77 813.37 491.34 500.80 245.56 301.89 243.76 501.90 494.92 708.79
742.27 650.03 417.80 216.90 893.49 559.83 519.73 592.79 629.46 267.69 990.71 996.82 154.77 202.99 902.29 868.32 575.05 1065.50 645.62 909.56 790.29 389.02 455.57 455.19 871.72 836.68 850.38 749.09 208.20 916.52 104.79 828.66 214.17 711.92 709.64 323.57 716.02 868.46 725.84 572.03 398.58 188.12 380.19 896.63 466.71 380.99 730.71 764.45 344.59 426.12 243.75 352.88 511.47 0.00 648.31 272.42 794.23 660.91 111.77 983.22 528.57 242.53 766.10 907.66 158.56 528.34 907.27 971.05 63.73 1036.35 886.50 478.86 321.93 383.33 760.80 618.67 794.74 1099.25 90.55 569.86 722.47 926.82 214.54 902.78 296.53 806.04 586.59 238.19 554.47 610.42 854.75 715.63 826.12 193.98 303.10 625.87 317.81 275.32 429.40 583.30 216.40
901.39 1155.08 755.31 853.60 764.88 1056.09 283.34 647.83 466.12 380.62 930.00 954.27 773.78 851.30 277.29 956.35 924.65 1098.14 716.56 657.87 1068.02 864.70 399.67 482.79 685.07 827.13 918.87 1239.00 704.09 645.28 753.10 180.35 528.27 460.56 1059.24 778.95 1082.63 725.42 1053.79 428.41 642.04 578.09 406.62 843.78 771.12 903.82 901.69 501.80 535.35 900.71 864.15 973.95 777.94 648.31 0.00 483.45 1168.96 1171.10 703.54 951.98 300.16 514.21 117.79 655.18 573.20 1087.58 782.84 905.16 712.04 1062.38 824.86 346.02 828.81 404.67 1110.40 1167.01 146.43 1089.04 628.27 854.41 1197.06 888.08 755.00 1009.49 409.46 1139.26 560.00 576.72 1029.06 770.69 445.52 1242.75 177.81 518.66 894.87 992.75 572.47 730.70 338.85 355.94 864.71
655.40 744.58 389.73 448.71 621.07 645.59 280.29 418.66 429.43 147.94 822.59 842.70 405.12 447.48 653.56 768.57 590.47 931.87 433.54 637.14 733.82 381.25 324.94 374.98 629.89 735.82 710.41 803.99 273.66 670.95 377.21 620.81 138.02 494.43 716.96 295.50 687.95 631.25 703.18 369.38 408.29 147.41 107.77 774.71 388.72 420.37 596.81 530.38 72.17 490.21 479.25 511.40 377.57 272.42 483.45 0.00 786.02 732.72 244.20 843.40 263.47 244.60 562.55 659.59 113.86 660.77 697.78 828.49 336.15 910.22 686.00 314.10 496.29 110.91 746.57 724.45 580.26 920.34 223.38 469.38 786.56 779.50 369.42 739.70 176.78 724.40 344.76 300.22 618.56 451.53 594.49 808.64 622.57 113.77 435.53 581.12 163.69 247.25 156.98 319.25 484.01
606.94 408.38 496.39 766.04 727.04 405.01 885.62 572.97 860.28 924.76 771.38 742.42 873.95 764.97 1124.78 668.51 357.72 732.93 579.04 880.70 167.41 475.22 1046.20 1060.13 723.48 817.76 662.66 313.92 642.90 820.48 803.12 1226.14 777.11 987.50 223.13 587.97 252.14 683.13 251.80 792.39 1061.49 851.40 845.08 798.05 430.74 514.34 544.59 939.55 713.85 397.46 875.21 441.35 450.46 794.23 1168.96 786.02 0.00 227.44 703.27 804.70 902.44 901.22 1201.52 858.25 833.61 373.52 721.12 748.65 791.07 744.09 767.94 1051.41 995.51 825.73 273.17 221.65 1185.59 766.68 857.44 414.21 187.18 743.07 920.92 516.61 902.31 114.93 668.40 973.24 303.63 507.13 963.03 311.01 1245.17 801.36 599.42 204.90 672.96 539.72 858.80 926.43 889.98
728.24 244.98 571.21 701.71 901.44 232.44 991.77 715.13 983.53 790.48 879.93 850.97 769.63 671.18 1253.33 807.26 491.20 960.37 664.18 1004.84 275.96 455.10 996.56 980.11 845.91 974.24 775.82 102.59 645.57 942.91 737.86 1332.29 758.27 1110.75 391.33 544.07 362.32 886.26 418.83 915.57 1035.92 756.77 796.19 914.29 514.04 463.59 671.61 1011.03 804.89 361.06 810.88 389.42 573.71 660.91 1171.10 732.72 227.44 0.00 549.14 860.88 996.19 846.90 1288.89 989.49 679.48 200.95 889.32 900.08 708.73 891.93 936.14 1001.65 931.18 826.50 381.72 159.51 1291.74 945.82 709.01 562.41 83.36 870.52 829.20 683.64 819.32 204.72 791.65 875.53 298.01 592.27 1085.46 132.13 1320.35 734.02 563.02 419.65 756.26 592.32 863.96 1051.15 825.65
630.50 538.26 306.03 274.16 800.60 448.06 517.17 481.02 582.88 322.92 903.42 932.38 220.49 203.28 869.24 756.55 574.32 953.73 541.46 881.34 707.85 277.25 462.55 430.97 783.78 878.65 738.61 651.73 96.43 813.82 203.65 857.69 209.13 687.26 633.26 211.80 604.25 756.69 660.76 469.33 486.78 209.18 351.97 872.43 354.94 316.37 626.55 652.68 316.37 386.21 335.32 371.65 407.31 111.77 703.54 244.20 703.27 549.14 0.00 878.95 500.35 297.76 799.43 903.79 130.34 416.57 795.50 900.72 159.59 938.42 842.32 534.09 432.78 355.11 662.87 568.44 817.14 987.48 159.87 458.09 632.50 815.05 280.06 791.01 319.59 694.27 576.98 326.39 450.56 498.65 772.43 641.88 844.32 184.88 191.33 547.57 324.87 163.55 401.18 555.00 328.17
248.45 951.59 598.50 1105.85 240.73 928.24 744.28 502.01 596.63 905.52 86.98 76.26 1059.48 1082.23 676.84 154.40 497.67 203.86 471.38 326.76 651.27 807.67 1042.91 1058.91 269.06 146.54 161.32 963.47 820.22 328.39 993.74 891.46 818.35 584.82 581.57 726.50 609.41 228.71 552.90 583.51 1151.99 902.03 752.19 140.85 525.65 816.18 347.22 494.35 799.56 781.52 1174.31 708.28 566.46 983.22 951.98 843.40 804.70 860.88 878.95 0.00 727.46 973.43 894.11 315.62 851.11 896.75 217.78 93.20 1020.46 238.20 192.92 943.58 1220.27 782.50 579.94 920.46 913.65 237.61 947.36 492.66 897.16 63.90 1093.40 288.09 876.68 691.76 526.97 1059.27 889.27 452.32 508.61 988.39 928.18 842.60 974.08 645.02 754.41 717.04 778.99 671.68 1182.07
639.46 960.86 561.09 701.13 486.73 861.87 16.82 427.46 165.96 290.30 688.25 717.21 625.78 703.63 436.26 661.36 624.49 858.54 442.75 532.09 839.73 644.72 359.30 399.69 510.48 601.48 695.86 1044.78 517.74 488.81 633.36 357.34 386.66 239.10 759.08 487.68 783.62 530.64 775.28 233.31 601.67 410.88 212.40 625.53 504.60 670.23 648.26 299.76 292.89 706.49 740.61 711.68 550.70 528.57 300.16 263.47 902.44 996.19 500.35 727.46 0.00 421.69 299.08 550.43 370.01 893.36 548.60 694.15 592.30 802.59 551.66 216.12 751.46 197.74 810.24 972.79 316.79 874.96 486.85 616.07 1002.84 749.80 632.89 753.57 261.46 910.97 332.76 458.10 834.84 514.66 419.51 1035.82 359.10 377.24 691.68 730.44 362.91 510.72 144.63 55.78 744.43
734.53 781.02 466.95 414.77 843.78 693.38 409.04 602.01 483.21 133.59 966.54 960.29 371.18 445.52 769.57 830.08 693.71 1027.26 602.57 824.57 905.80 501.97 228.91 312.03 772.68 944.15 832.43 915.44 316.26 802.72 347.32 694.56 155.08 610.43 828.30 409.75 802.20 808.47 844.50 458.23 290.29 124.91 284.99 942.78 539.80 518.47 681.89 636.99 312.96 610.93 417.33 591.48 586.70 242.53 514.21 244.60 901.22 846.90 297.76 973.43 421.69 0.00 632.00 821.88 185.37 663.65 865.85 985.29 306.26 1032.24 907.88 344.76 329.77 275.73 860.82 809.93 660.64 1061.01 189.44 620.76 856.73 919.08 258.84 895.04 162.43 892.22 540.34 129.90 739.28 530.66 612.22 888.96 692.02 130.83 489.09 758.44 378.50 361.50 312.17 449.20 394.92
908.08 1259.94 860.17 971.39 730.06 1160.95 315.90 725.11 454.48 498.41 847.02 866.03 891.57 969.09 337.16 928.56 879.70 1009.58 638.74 567.35 1083.00 943.80 517.46 504.18 669.44 781.05 861.22 1337.01 722.79 599.20 870.89 69.19 646.06 342.77 1014.29 786.76 1042.93 709.79 1030.49 521.83 759.83 695.88 511.48 753.26 803.68 969.31 844.25 444.15 591.97 1005.57 968.28 998.01 753.35 766.10 117.79 562.55 1201.52 1288.89 799.43 894.11 299.08 632.00 0.00 589.80 669.09 1186.48 742.87 833.13 829.83 1010.55 750.13 463.81 806.87 496.82 1044.55 1231.48 28.64 975.83 746.06 845.16 1299.81 909.43 872.79 1046.05 527.25 1132.61 535.41 694.51 1133.92 710.65 444.85 1334.90 60.02 636.45 990.76 998.91 610.55 809.80 443.71 344.30 912.40
415.77 1113.88 609.74 1098.64 185.16 1020.84 552.75 467.77 390.06 703.68 302.75 326.78 980.93 1093.17 377.89 393.42 595.40 454.55 460.44 22.45 801.69 871.53 885.10 882.70 143.58 232.33 366.96 1092.08 822.56 107.21 994.97 632.44 797.61 363.64 669.08 722.09 698.09 175.12 678.83 451.60 950.40 807.00 655.36 208.36 591.76 836.55 517.87 301.73 587.42 865.46 1095.76 844.24 532.09 907.66 655.18 659.59 858.25 989.49 903.79 315.62 550.43 821.88 589.80 0.00 773.45 1032.71 171.09 288.23 971.39 420.75 205.23 759.29 1148.34 685.67 731.99 1018.19 618.44 488.30 880.39 580.18 1015.51 376.74 1026.43 564.48 732.52 855.69 428.71 899.78 968.15 481.28 209.66 1066.25 629.23 773.36 1009.26 740.62 589.85 752.22 621.18 494.65 1124.06
740.24 668.60 434.43 375.46 734.93 578.40 386.83 532.52 535.97 192.58 912.96 884.00 313.33 333.62 762.85 837.34 617.42 1006.82 547.40 751.00 829.91 407.59 398.66 315.75 743.75 849.68 770.00 782.07 213.24 777.08 263.35 727.35 78.79 608.29 752.01 306.43 734.59 745.11 768.21 432.59 379.50 78.84 221.63 876.14 485.28 442.18 679.02 644.24 186.03 516.55 402.31 462.50 491.43 158.56 573.20 113.86 833.61 679.48 130.34 851.11 370.01 185.37 669.09 773.45 0.00 546.91 811.64 921.43 222.29 961.51 799.86 403.75 433.36 224.77 793.21 698.78 686.80 1032.63 164.15 537.53 762.84 787.21 310.19 848.34 189.25 788.90 458.62 315.27 580.90 536.37 708.35 772.22 713.98 54.54 321.67 677.91 277.55 293.89 270.84 425.79 374.42
757.69 121.69 465.27 569.27 918.71 31.49 876.54 695.82 910.44 739.49 983.73 973.01 576.99 470.23 1189.06 864.16 508.47 1014.32 631.43 1052.56 476.91 295.83 879.12 847.54 917.56 932.01 865.80 251.79 463.69 998.32 568.43 1217.06 625.70 1037.66 558.23 412.47 529.22 877.21 585.73 850.15 874.08 599.96 768.54 991.96 440.95 296.37 670.64 953.67 627.70 186.87 678.44 188.47 500.62 528.34 1087.58 660.77 373.52 200.95 416.57 896.75 893.36 663.65 1186.48 1032.71 546.91 0.00 920.64 989.95 576.16 939.22 967.06 950.66 798.74 769.99 576.50 151.87 1176.51 1048.07 576.44 478.81 284.31 942.24 651.25 798.39 719.77 405.67 718.56 742.96 106.86 624.25 1029.40 225.31 1191.40 601.45 388.83 351.11 683.17 460.72 748.73 949.14 693.21
290.38 963.66 618.48 1069.66 76.71 921.34 565.42 351.36 382.64 736.86 164.53 193.49 993.36 998.78 505.55 299.59 486.95 367.65 439.01 193.54 630.60 809.94 907.90 885.09 97.77 96.64 249.32 974.20 735.13 169.56 975.79 673.68 814.52 424.44 497.99 676.28 527.00 114.48 526.66 412.22 1085.61 838.39 637.96 76.93 577.07 812.14 392.48 323.06 655.49 804.82 1108.19 786.93 529.60 907.27 782.84 697.78 721.12 889.32 795.50 217.78 548.60 865.85 742.87 171.09 811.64 920.64 0.00 156.80 955.09 314.07 46.82 751.87 1139.30 644.76 560.90 900.07 714.23 375.58 898.96 574.52 876.49 205.65 932.13 432.11 762.45 684.60 382.90 925.22 813.78 400.48 337.32 940.74 744.82 790.27 888.99 569.53 651.68 631.95 683.53 492.82 1068.21
270.22 945.28 637.49 1130.97 207.42 1021.44 710.97 456.25 539.44 857.79 24.84 49.11 1089.69 1104.00 627.87 229.45 519.44 218.87 472.17 265.78 624.12 857.22 1053.26 1041.89 254.57 134.37 162.11 993.02 831.83 316.22 1018.86 830.48 877.22 572.65 574.38 765.49 603.39 239.77 567.24 569.02 1180.64 937.00 763.25 79.87 618.85 818.10 355.21 479.86 800.35 874.72 1204.52 801.48 574.45 971.05 905.16 828.49 748.65 900.08 900.72 93.20 694.15 985.29 833.13 288.23 921.43 989.95 156.80 0.00 1034.78 223.87 149.51 908.67 1260.09 775.47 601.95 934.91 861.77 235.89 987.18 547.04 870.01 134.22 1088.93 302.43 855.71 695.36 527.76 1020.25 940.85 463.88 478.13 991.99 893.15 877.57 1003.12 696.60 728.12 774.28 827.46 638.37 1187.45
789.23 697.85 421.96 165.76 931.24 607.65 583.46 640.61 693.19 331.42 1054.44 1060.55 91.04 188.11 950.82 916.14 638.78 1108.78 660.81 973.29 741.39 376.15 510.68 501.28 933.99 900.41 897.34 739.86 256.02 965.05 89.91 892.39 218.26 775.65 773.37 371.39 763.84 915.98 789.57 620.56 363.89 234.62 392.50 960.36 494.81 415.27 767.60 812.27 408.32 467.18 180.02 393.94 554.48 63.73 712.04 336.15 791.07 708.73 159.59 1020.46 592.30 306.26 829.83 971.39 222.29 576.16 955.09 1034.78 0.00 1091.97 950.23 542.59 276.18 422.81 822.46 606.77 858.47 1142.53 138.27 575.77 740.14 973.78 160.84 949.74 343.46 812.63 650.32 301.92 595.53 658.24 918.48 773.32 889.85 242.51 299.07 646.47 381.54 323.14 460.27 647.03 180.64
307.92 990.08 670.01 1161.94 390.78 970.71 819.41 561.48 636.63 972.21 199.03 198.75 1127.39 1141.70 798.64 202.59 461.30 75.10 509.87 443.20 621.33 883.66 1107.86 1139.08 411.84 337.17 199.81 918.07 891.73 483.63 1056.56 987.75 939.52 718.26 520.96 798.01 548.80 388.71 492.29 697.05 1249.62 974.70 847.20 277.22 597.16 858.65 410.02 616.88 838.05 823.99 1242.22 750.75 629.26 1036.35 1062.38 910.22 744.09 891.93 938.42 238.20 802.59 1032.24 1010.55 420.75 961.51 939.22 314.07 223.87 1091.97 0.00 335.62 1005.86 1297.79 830.07 515.57 874.00 1028.30 108.85 1024.88 601.85 867.22 174.30 1170.92 227.48 957.40 692.57 565.46 1162.14 882.71 501.58 630.41 951.53 1049.98 915.27 1025.95 638.46 804.10 788.55 889.39 746.81 1252.75
286.45 1010.48 612.84 1103.40 64.93 935.57 568.48 398.18 429.46 774.29 136.59 165.55 1040.18 1045.60 547.57 304.12 475.17 320.83 427.57 182.78 677.42 856.76 910.77 931.91 139.79 49.82 255.22 1007.77 781.95 216.38 991.29 720.50 821.65 466.46 544.81 718.30 573.82 108.84 573.48 454.24 1094.29 833.41 632.32 89.12 602.39 847.18 388.55 365.08 697.51 780.19 1130.25 833.75 542.72 886.50 824.86 686.00 767.94 936.14 842.32 192.92 551.66 907.88 750.13 205.23 799.86 967.06 46.82 149.51 950.23 335.62 0.00 767.78 1182.29 632.98 607.72 897.96 761.05 339.50 909.38 580.38 895.28 252.47 978.95 414.18 756.81 731.42 424.92 970.39 860.60 436.84 379.34 987.56 787.99 799.77 935.81 616.35 686.79 678.77 677.95 495.88 1102.90
842.73 1027.28 555.02 684.15 702.85 928.29 232.94 592.11 369.23 211.17 904.37 933.33 604.33 681.85 563.10 864.63 817.01 1061.81 638.60 748.21 920.79 695.35 223.77 183.57 726.60 817.60 853.72 1104.24 534.64 677.10 583.65 437.61 358.82 420.67 914.43 609.60 939.38 729.81 885.76 449.43 459.77 408.64 206.33 828.80 627.87 734.47 814.81 515.88 383.46 804.31 683.18 808.11 687.54 478.86 346.02 314.10 1051.41 1001.65 534.09 943.58 216.12 344.76 463.81 759.29 403.75 950.66 751.87 908.67 542.59 1005.86 767.78 0.00 569.46 236.64 957.66 966.72 465.86 1091.08 458.82 654.12 1085.01 951.14 585.55 969.69 240.01 992.03 501.25 407.27 913.43 663.58 597.44 1074.72 507.21 349.21 725.42 846.51 424.39 561.35 246.47 271.90 674.99
1037.99 755.01 677.56 229.47 1117.36 799.44 738.81 820.51 812.98 463.36 1238.89 1211.98 276.24 403.65 1052.57 1128.08 896.98 1325.26 906.03 1130.85 1017.57 642.88 429.14 385.89 1075.02 1158.61 1097.98 926.61 431.90 1041.13 341.58 876.06 401.92 940.20 1004.79 556.12 975.78 1109.91 1032.29 760.57 320.75 389.71 601.84 1199.27 726.47 613.75 985.35 947.99 565.88 655.22 161.41 670.12 778.84 321.93 828.81 496.29 995.51 931.18 432.78 1220.27 751.46 329.77 806.87 1148.34 433.36 798.74 1139.30 1260.09 276.18 1297.79 1182.29 569.46 0.00 571.53 1034.40 853.91 835.51 1296.70 272.91 793.56 951.57 1174.45 207.17 1171.47 492.20 1035.71 829.77 311.29 691.88 834.12 941.99 922.58 866.89 382.52 453.26 847.85 639.74 535.08 637.35 778.97 105.53
651.37 837.49 379.00 523.95 568.05 738.50 180.92 454.31 356.15 142.14 769.57 798.53 480.36 558.39 596.03 697.60 614.37 894.78 401.96 663.22 684.15 474.16 277.79 337.03 549.74 682.80 630.26 871.54 320.00 579.79 483.41 521.44 215.01 383.52 677.79 406.41 705.63 553.79 649.12 291.92 498.63 258.32 30.31 713.69 394.99 513.28 606.30 452.92 146.82 583.12 579.32 586.05 452.22 383.33 404.67 110.91 825.73 826.50 355.11 782.50 197.74 275.73 496.82 685.67 224.77 769.99 644.76 775.47 422.81 830.07 632.98 236.64 571.53 0.00 721.02 790.70 480.89 880.13 298.62 476.38 879.47 727.68 444.66 809.27 127.33 755.39 264.61 338.24 711.47 473.87 543.44 838.08 545.63 213.84 531.77 620.83 199.11 358.16 65.82 253.52 579.26
434.97 592.12 442.98 893.22 595.99 545.01 827.06 493.46 699.15 863.16 612.45 641.41 860.73 814.22 985.51 425.54 185.75 590.67 405.81 754.44 105.76 507.05 998.81 1007.40 635.64 645.24 439.84 457.32 602.50 730.46 838.22 1110.67 724.38 824.75 62.91 547.57 58.62 595.29 91.58 712.88 1082.04 808.06 751.33 637.83 370.13 501.65 367.91 815.89 684.49 496.87 949.55 509.72 379.09 760.80 1110.40 746.57 273.17 381.72 662.87 579.94 810.24 860.82 1044.55 731.99 793.21 576.50 560.90 601.95 822.46 515.57 607.72 957.66 1034.40 721.02 0.00 456.29 1070.12 618.57 822.74 348.64 351.65 522.44 908.23 356.39 848.35 177.00 597.03 932.84 480.98 453.91 839.53 473.63 1084.95 748.63 645.78 236.73 612.35 499.32 786.84 754.46 964.35
672.01 186.73 411.70 624.44 833.03 183.36 955.97 737.87 936.19 817.14 924.11 934.46 652.30 622.10 1143.32 818.64 422.79 910.97 663.75 995.74 379.26 343.20 958.80 940.31 912.84 920.16 780.12 180.49 541.01 1003.82 581.47 1243.39 703.35 1015.04 426.68 486.63 397.67 876.94 454.18 892.20 951.40 738.53 760.39 964.63 483.00 304.08 668.87 949.75 698.29 290.38 733.61 265.79 542.67 618.67 1167.01 724.45 221.65 159.51 568.44 920.46 972.79 809.93 1231.48 1018.19 698.78 151.87 900.07 934.91 606.77 874.00 897.96 966.72 853.91 790.70 456.29 0.00 1202.84 944.72 647.18 539.85 133.37 856.56 710.66 646.52 828.55 336.58 760.61 842.26 162.03 632.77 1069.50 213.95 1238.77 679.10 470.88 330.54 620.93 484.27 828.16 922.24 748.38
899.34 1244.01 844.24 984.28 746.61 1145.02 299.97 712.61 425.84 527.05 866.35 837.39 910.90 997.73 365.80 921.24 884.37 1036.43 667.38 595.99 1054.36 928.22 507.41 475.54 679.58 791.19 871.36 1327.93 751.43 609.34 899.53 40.55 671.78 352.91 1018.96 804.47 1043.50 719.93 1035.16 493.19 749.78 720.97 495.55 781.90 787.75 967.34 872.89 454.29 576.04 989.64 996.92 1015.27 781.99 794.74 146.43 580.26 1185.59 1291.74 817.14 913.65 316.79 660.64 28.64 618.44 686.80 1176.51 714.23 861.77 858.47 1028.30 761.05 465.86 835.51 480.89 1070.12 1202.84 0.00 1004.47 774.70 873.80 1285.99 919.57 901.43 1059.85 546.58 1125.60 564.05 723.15 1117.99 739.29 463.33 1318.97 64.74 665.09 1008.47 1013.59 581.91 827.51 427.78 315.66 941.04
360.39 1088.54 720.57 1227.92 388.23 1079.56 891.78 572.48 726.33 1022.27 211.05 232.46 1185.34 1178.59 811.75 230.93 570.15 33.75 608.33 491.35 681.94 842.31 1157.92 1217.16 467.93 304.76 298.27 1014.24 927.11 486.61 1115.81 1045.02 1037.98 743.04 555.66 848.57 583.50 427.58 526.99 782.38 1328.63 1049.84 910.44 305.44 647.72 881.43 462.49 648.70 893.45 932.84 1300.17 859.60 588.05 1099.25 1089.04 920.34 766.68 945.82 987.48 237.61 874.96 1061.01 975.83 488.30 1032.63 1048.07 375.58 235.89 1142.53 108.85 339.50 1091.08 1296.70 880.13 618.57 944.72 1004.47 0.00 1023.79 619.93 927.83 245.42 1169.83 323.65 1007.46 741.10 663.92 1190.91 991.56 557.54 686.37 1037.73 1035.85 1013.73 1045.42 747.31 835.81 823.93 945.95 819.18 1288.96
790.37 689.86 465.90 225.33 844.45 607.93 479.54 547.60 601.21 247.65 968.03 939.07 181.74 293.54 817.92 892.41 665.60 1057.54 635.25 857.94 867.72 382.22 386.38 370.82 802.11 927.23 825.07 804.96 256.30 832.15 195.34 808.62 129.01 682.14 793.13 371.67 764.12 837.00 816.39 487.66 355.47 116.80 328.93 926.36 514.81 343.10 742.67 701.85 292.97 491.18 283.90 443.43 567.18 90.55 628.27 223.38 857.44 709.01 159.87 947.36 486.85 189.44 746.06 880.39 164.15 576.44 898.96 987.18 138.27 1024.88 909.38 458.82 272.91 298.62 822.74 647.18 774.70 1023.79 0.00 617.96 780.55 901.54 146.04 898.56 239.18 854.14 556.86 195.08 570.04 591.44 801.66 801.75 769.05 109.61 351.20 652.54 370.39 323.42 364.44 510.23 280.64
293.93 600.50 153.81 661.16 527.92 503.28 599.25 287.01 501.63 601.12 558.06 568.92 566.82 647.25 754.72 425.44 162.89 620.57 225.96 602.63 378.13 315.01 754.17 754.51 558.32 542.08 402.04 613.98 361.66 548.11 549.05 914.35 552.02 628.85 297.48 281.81 320.83 538.21 313.68 441.34 865.03 553.60 447.79 526.52 111.47 354.13 191.83 580.90 397.21 347.90 681.65 363.95 91.81 569.86 854.41 469.38 414.21 562.41 458.09 492.66 616.07 620.76 845.16 580.18 537.53 478.81 574.52 547.04 575.77 601.85 580.38 654.12 793.56 476.38 348.64 539.85 873.80 619.93 617.96 0.00 583.00 475.15 641.84 395.56 572.28 424.24 309.75 704.64 453.56 174.04 677.40 580.52 876.74 547.09 518.12 209.31 353.69 296.29 515.56 586.73 737.53
669.33 240.47 545.07 745.75 830.35 261.04 986.02 748.72 933.51 873.84 849.86 820.90 785.67 680.78 1169.97 777.19 420.11 920.11 661.07 993.06 245.89 405.31 1020.91 1037.66 890.59 917.48 745.75 147.06 613.64 987.59 714.84 1326.54 800.70 1029.05 378.50 572.83 349.49 870.31 400.84 885.50 1055.20 731.82 879.55 939.32 597.40 437.45 658.78 927.67 808.82 296.35 802.08 369.59 633.01 722.47 1197.06 786.56 187.18 83.36 632.50 897.16 1002.84 856.73 1299.81 1015.51 762.84 284.31 876.49 870.01 740.14 867.22 895.28 1085.01 951.57 879.47 351.65 133.37 1285.99 927.83 780.55 583.00 0.00 843.17 844.03 665.65 902.68 270.52 812.46 958.89 295.40 675.63 1047.42 180.52 1300.88 776.45 498.31 392.08 754.30 583.30 858.21 988.82 857.96
184.55 887.69 551.82 1059.17 263.07 962.74 766.62 438.11 588.29 869.82 131.49 140.16 1017.89 1018.33 711.20 96.90 433.77 219.61 407.48 373.31 597.28 790.16 979.01 1051.53 303.42 210.44 97.42 917.05 790.64 375.21 947.06 879.33 837.13 566.66 519.94 679.82 547.78 281.84 491.27 594.66 1088.09 866.05 744.81 187.40 535.74 767.12 283.32 514.49 735.66 823.05 1132.72 772.18 502.56 926.82 888.08 779.50 743.07 870.52 815.05 63.90 749.80 919.08 909.43 376.74 787.21 942.24 205.65 134.22 973.78 174.30 252.47 951.14 1174.45 727.68 522.44 856.56 919.57 245.42 901.54 475.15 843.17 0.00 1047.58 226.46 855.01 668.52 463.07 1048.98 855.18 388.42 542.97 950.51 950.47 812.88 938.43 610.93 701.71 689.90 715.09 694.02 1143.22
910.56 718.75 582.80 260.02 990.49 619.76 616.70 693.64 742.05 374.38 1096.66 1085.11 192.11 302.10 963.96 1036.61 789.59 1203.58 705.71 1003.98 902.23 445.70 487.75 516.86 934.75 1028.77 971.11 809.77 376.49 978.19 250.75 935.35 275.05 828.18 913.32 491.86 884.31 975.10 940.38 633.70 363.24 262.84 474.97 1009.06 635.00 406.58 833.67 847.89 439.01 554.66 179.11 514.48 687.37 214.54 755.00 369.42 920.92 829.20 280.06 1093.40 632.89 258.84 872.79 1026.43 310.19 651.25 932.13 1088.93 160.84 1170.92 978.95 585.55 207.17 444.66 908.23 710.66 901.43 1169.83 146.04 641.84 844.03 1047.58 0.00 1037.40 385.22 930.95 702.90 202.85 633.52 737.48 871.06 843.23 896.41 255.65 459.91 716.02 516.43 443.61 510.48 656.27 136.08
160.51 827.41 527.78 1035.13 415.22 829.88 770.39 414.07 634.01 882.49 277.59 306.55 962.38 994.29 845.45 172.12 373.08 302.58 407.31 543.09 419.76 675.99 1064.64 999.54 460.24 402.92 197.52 690.59 757.22 557.24 923.02 1092.26 769.55 715.97 293.48 655.78 321.32 419.89 264.81 633.49 1127.21 853.23 821.63 371.98 506.20 711.09 227.29 614.59 694.66 675.49 1077.21 739.95 446.53 902.78 1009.49 739.70 516.61 683.64 791.01 288.09 753.57 895.04 1046.05 564.48 848.34 798.39 432.11 302.43 949.74 227.48 414.18 969.69 1171.47 809.27 356.39 646.52 1059.85 323.65 898.56 395.56 665.65 226.46 1037.40 0.00 894.75 478.92 547.27 1010.47 743.68 364.38 677.22 724.05 1087.90 793.80 877.45 499.43 717.31 670.26 875.09 744.19 1119.18
750.82 787.27 469.74 464.51 691.88 688.28 246.61 497.26 427.42 28.84 830.87 859.83 364.32 499.52 651.93 824.93 663.83 1022.11 529.29 754.97 811.48 520.59 234.92 213.05 667.93 783.65 757.59 921.91 315.56 697.97 401.32 587.13 125.20 488.88 798.42 394.65 813.48 647.97 776.45 353.48 385.33 208.64 124.49 807.87 501.97 537.09 732.97 547.10 240.77 629.55 479.15 590.78 546.17 296.53 409.46 176.78 902.31 819.32 319.59 876.68 261.46 162.43 527.25 732.52 189.25 719.77 762.45 855.71 343.46 957.40 756.81 240.01 492.20 127.33 848.35 828.55 546.58 1007.46 239.18 572.28 902.68 855.01 385.22 894.75 0.00 877.12 391.94 224.94 723.10 581.74 657.67 945.08 587.27 149.45 510.92 727.81 281.56 418.74 192.26 317.24 500.40
523.52 428.15 506.42 838.39 696.72 437.16 927.79 615.09 779.59 864.16 675.21 646.25 840.67 773.42 1065.95 602.54 286.48 767.67 527.44 859.43 71.24 485.25 1033.18 1068.32 758.17 769.52 571.10 307.31 633.90 854.16 781.98 1166.15 824.26 906.81 186.61 482.47 157.60 717.82 214.11 710.85 1124.63 858.82 785.70 709.57 440.77 524.37 466.89 868.35 652.23 388.99 874.30 462.23 460.49 806.04 1139.26 724.40 114.93 204.72 694.27 691.76 910.97 892.22 1132.61 855.69 788.90 405.67 684.60 695.36 812.63 692.57 731.42 992.03 1035.71 755.39 177.00 336.58 1125.60 741.10 854.14 424.24 270.52 668.52 930.95 478.92 877.12 0.00 597.20 964.24 418.56 517.16 988.10 296.63 1190.34 807.11 590.95 214.93 682.99 530.72 821.21 855.19 930.18
386.76 817.16 350.46 689.54 364.94 750.05 349.58 189.70 191.88 406.75 547.43 576.39 666.10 772.10 478.24 432.99 430.84 630.17 214.41 444.06 646.08 561.52 542.40 601.64 285.13 461.16 365.65 868.17 501.82 382.13 673.90 604.60 471.50 319.10 565.43 425.40 555.00 325.48 577.28 131.59 753.05 492.17 294.92 459.83 277.61 522.40 341.69 271.15 272.59 603.33 780.93 530.09 217.94 586.59 560.00 344.76 668.40 791.65 576.98 526.97 332.76 540.34 535.41 428.71 458.62 718.56 382.90 527.76 650.32 565.46 424.92 501.25 829.77 264.61 597.03 760.61 564.05 663.92 556.86 309.75 812.46 463.07 702.90 547.27 391.94 597.20 0.00 602.85 660.25 214.63 390.90 834.71 595.43 447.25 718.74 463.50 268.78 461.70 330.43 276.98 802.99
864.43 864.65 576.00 377.44 906.29 774.45 471.55 664.52 542.58 196.10 1029.05 1058.01 376.82 441.18 828.94 959.98 779.55 1157.16 732.47 922.23 964.08 577.30 311.71 369.19 835.19 1000.33 962.33 978.12 422.82 865.23 342.98 757.07 240.92 646.53 903.23 481.77 874.22 872.91 907.63 520.74 160.39 238.63 349.43 940.38 593.17 538.18 811.79 696.36 372.39 664.31 287.43 591.07 652.84 238.19 576.72 300.22 973.24 875.53 326.39 1059.27 458.10 129.90 694.51 899.78 315.27 742.96 925.22 1020.25 301.92 1162.14 970.39 407.27 311.29 338.24 932.84 842.26 723.15 1190.91 195.08 704.64 958.89 1048.98 202.85 1010.47 224.94 964.24 602.85 0.00 756.85 660.56 742.12 953.82 693.56 260.73 517.72 819.01 427.19 433.52 374.68 511.71 338.31
670.63 156.91 358.41 462.41 831.65 107.56 818.02 637.51 852.13 745.55 922.38 933.08 580.12 461.34 1090.03 846.08 421.41 957.81 576.46 945.70 467.10 237.31 852.91 869.66 859.04 910.42 778.74 239.41 431.43 920.55 532.82 1158.54 597.90 979.35 451.37 404.83 422.36 818.69 478.87 791.84 880.33 656.35 707.10 890.71 431.26 226.94 645.39 931.40 640.82 128.35 571.58 201.59 442.31 554.47 1029.06 618.56 303.63 298.01 450.56 889.27 834.84 739.28 1133.92 968.15 580.90 106.86 813.78 940.85 595.53 882.71 860.60 913.43 691.88 711.47 480.98 162.03 1117.99 991.56 570.04 453.56 295.40 855.18 633.52 743.68 723.10 418.56 660.25 756.85 0.00 546.48 997.38 272.87 1132.88 608.45 308.85 244.25 610.18 407.13 690.21 890.62 586.35
203.87 646.21 256.15 754.92 395.87 654.04 505.13 122.86 406.51 591.28 488.72 512.99 713.64 701.93 674.67 369.11 268.16 530.51 71.91 489.32 483.40 470.32 741.60 743.04 404.52 452.02 301.77 694.86 402.22 374.07 642.81 779.84 506.08 533.73 402.75 373.52 431.39 364.17 418.95 342.28 820.95 541.26 457.25 477.41 183.30 431.20 151.23 485.78 379.36 509.02 828.47 435.78 145.79 610.42 770.69 451.53 507.13 592.27 498.65 452.32 514.66 530.66 710.65 481.28 536.37 624.25 400.48 463.88 658.24 501.58 436.84 663.58 834.12 473.87 453.91 632.77 739.29 557.54 591.44 174.04 675.63 388.42 737.48 364.38 581.74 517.16 214.63 660.56 546.48 0.00 573.83 673.44 752.50 481.83 631.73 302.23 352.93 374.69 525.02 458.88 807.13
548.48 1096.90 718.11 1026.99 319.36 997.91 411.06 460.40 273.53 685.58 492.65 516.68 983.40 975.71 168.23 527.67 729.60 652.62 548.05 212.35 938.56 929.17 753.54 700.72 239.55 381.61 479.70 1155.70 676.00 199.76 959.54 422.78 732.51 198.36 812.28 803.69 840.12 279.90 783.61 387.08 902.51 737.13 542.36 398.26 645.26 890.05 635.67 119.75 654.79 869.03 1029.55 884.95 585.59 854.75 445.52 594.49 963.03 1085.46 772.43 508.61 419.51 612.22 444.85 209.66 708.35 1029.40 337.32 478.13 918.48 630.41 379.34 597.44 941.99 543.44 839.53 1069.50 463.33 686.37 801.66 677.40 1047.42 542.97 871.06 677.22 657.67 988.10 390.90 742.12 997.38 573.83 0.00 1122.24 419.57 708.26 963.76 808.40 592.47 779.18 538.87 375.05 1007.14
797.59 205.06 625.65 693.11 935.04 256.80 1019.00 796.30 1026.59 922.61 971.84 942.88 780.34 645.00 1290.47 896.17 548.37 1026.63 745.35 1088.70 367.87 456.20 1071.80 1072.85 931.48 1026.81 867.73 33.46 664.57 1028.48 709.51 1359.52 851.01 1153.81 483.24 609.64 454.23 891.13 510.74 966.30 1099.39 825.27 868.39 1006.20 583.52 495.32 763.52 1105.86 853.01 371.75 802.28 413.78 616.77 715.63 1242.75 808.64 311.01 132.13 641.88 988.39 1035.82 888.96 1334.90 1066.25 772.22 225.31 940.74 991.99 773.32 951.53 987.56 1074.72 922.58 838.08 473.63 213.95 1318.97 1037.73 801.75 580.52 180.52 950.51 843.23 724.05 945.08 296.63 834.71 953.82 272.87 673.44 1122.24 0.00 1310.45 826.76 573.71 371.21 817.50 561.39 903.90 1091.60 817.05
949.93 1258.90 872.85 994.38 723.06 1159.91 364.71 768.24 490.58 558.43 907.04 902.13 950.79 1027.21 397.18 947.24 921.55 1069.60 680.59 627.37 1119.10 895.57 572.15 540.28 659.12 801.18 899.27 1276.99 782.81 619.33 929.01 71.14 683.69 402.79 1022.04 846.78 1049.88 699.47 993.37 557.93 718.58 718.87 524.16 813.28 852.49 934.69 886.10 485.65 640.78 1004.53 980.99 1042.59 813.37 826.12 177.81 622.57 1245.17 1320.35 844.32 928.18 359.10 692.02 60.02 629.23 713.98 1191.40 744.82 893.15 889.85 1049.98 787.99 507.21 866.89 545.63 1084.95 1238.77 64.74 1035.85 769.05 876.74 1300.88 950.47 896.41 1087.90 587.27 1190.34 595.43 693.56 1132.88 752.50 419.57 1310.45 0.00 659.44 972.28 1054.73 646.65 869.82 483.01 380.40 972.42
685.70 682.53 418.87 334.94 734.84 583.54 394.06 532.43 491.60 138.04 858.42 829.46 291.35 367.77 708.31 782.80 562.88 979.98 543.91 750.91 778.12 371.14 344.12 261.21 692.50 849.59 715.46 793.88 185.43 722.54 269.57 699.01 24.25 595.98 697.47 324.64 717.09 727.39 713.67 378.05 381.91 59.43 221.54 821.60 467.78 387.64 633.06 592.24 185.94 480.10 365.48 460.65 491.34 193.98 518.66 113.77 801.36 734.02 184.88 842.60 377.24 130.83 636.45 773.36 54.54 601.45 790.27 877.57 242.51 915.27 799.77 349.21 382.52 213.84 748.63 679.10 665.09 1013.73 109.61 547.09 776.45 812.88 255.65 793.80 149.45 807.11 447.25 260.73 608.45 481.83 708.26 826.76 659.44 0.00 376.21 641.46 277.46 276.39 270.75 433.02 370.24
766.79 405.16 399.52 247.44 894.09 357.34 708.50 672.35 774.21 514.25 1027.96 1011.22 294.80 182.47 1060.57 850.04 625.52 1011.67 634.95 986.81 569.69 203.11 653.88 622.30 883.80 985.63 841.01 540.25 287.76 980.80 223.97 1043.42 400.46 822.69 616.17 305.29 587.16 850.18 612.64 660.66 662.96 400.51 543.30 965.92 448.43 242.23 709.95 844.01 507.70 201.96 303.77 275.20 500.80 303.10 894.87 435.53 599.42 563.02 191.33 974.08 691.68 489.09 990.76 1009.26 321.67 388.83 888.99 1003.12 299.07 1025.95 935.81 725.42 453.26 531.77 645.78 470.88 1008.47 1045.42 351.20 518.12 498.31 938.43 459.91 877.45 510.92 590.95 718.74 517.72 308.85 631.73 963.76 573.71 972.28 376.21 0.00 473.43 513.15 257.04 592.51 746.33 359.65
426.38 394.13 291.49 683.73 587.40 351.81 713.62 425.09 655.38 720.78 678.13 688.83 697.64 577.49 941.74 601.83 177.16 713.56 374.14 750.11 222.85 270.32 841.30 894.24 667.21 666.17 534.49 404.67 507.73 676.30 626.81 1054.14 665.71 782.60 207.12 419.49 178.11 631.31 234.62 595.09 926.60 690.79 640.18 646.46 225.84 309.44 401.14 734.65 508.95 312.96 768.63 272.99 245.56 625.87 992.75 581.12 204.90 419.65 547.57 645.02 730.44 758.44 998.91 740.62 677.91 351.11 569.53 696.60 646.47 638.46 616.35 846.51 847.85 620.83 236.73 330.54 1013.59 747.31 652.54 209.31 392.08 610.93 716.02 499.43 727.81 214.93 463.50 819.01 244.25 302.23 808.40 371.21 1054.73 641.46 473.43 0.00 468.06 404.55 653.90 740.48 742.32
556.80 767.09 315.07 517.23 633.72 697.08 361.43 353.15 411.56 252.72 707.97 679.01 472.58 503.32 679.92 604.88 461.60 802.06 361.32 612.30 613.13 432.74 458.80 436.39 553.91 729.94 604.29 801.42 233.04 650.54 405.12 622.46 265.36 394.11 582.74 304.36 553.73 594.26 556.68 392.18 571.98 253.59 218.06 728.61 242.22 436.30 499.77 495.49 91.52 541.70 561.56 494.70 301.89 317.81 572.47 163.69 672.96 756.26 324.87 754.41 362.91 378.50 610.55 589.85 277.55 683.17 651.68 728.12 381.54 804.10 686.79 424.39 639.74 199.11 612.35 620.93 581.91 835.81 370.39 353.69 754.30 701.71 516.43 717.31 281.56 682.99 268.78 427.19 610.18 352.93 592.47 817.50 646.65 277.46 513.15 468.06 0.00 256.11 233.62 398.38 534.21
509.75 541.32 142.48 437.71 637.05 442.33 527.54 438.96 573.11 395.19 796.48 793.30 361.41 366.83 859.47 593.00 410.77 790.18 377.91 729.77 544.30 177.99 556.15 537.60 626.76 728.59 617.86 594.85 103.18 723.76 347.76 868.06 293.54 650.22 469.71 48.25 440.70 593.14 497.21 593.29 593.91 328.10 355.02 708.88 191.39 180.19 463.00 659.43 303.10 286.95 476.24 272.25 243.76 275.32 730.70 247.25 539.72 592.32 163.55 717.04 510.72 361.50 809.80 752.22 293.89 460.72 631.95 774.28 323.14 788.55 678.77 561.35 535.08 358.16 499.32 484.27 827.51 823.93 323.42 296.29 583.30 689.90 443.61 670.26 418.74 530.72 461.70 433.52 407.13 374.69 779.18 561.39 869.82 276.39 257.04 404.55 256.11 0.00 404.23 566.50 465.03
717.19 816.23 416.46 589.77 631.36 717.24 127.81 520.13 310.59 178.58 814.54 843.50 546.18 604.46 530.21 763.42 678.45 934.70 467.78 629.22 749.97 538.23 263.92 347.04 610.97 695.82 696.08 900.15 385.82 513.97 534.19 468.33 271.99 370.08 743.61 452.48 771.45 591.25 714.94 308.50 506.29 293.19 67.77 751.15 460.81 577.35 672.12 438.65 196.50 561.86 636.23 635.10 501.90 429.40 338.85 156.98 858.80 863.96 401.18 778.99 144.63 312.17 443.71 621.18 270.84 748.73 683.53 827.46 460.27 889.39 677.95 246.47 637.35 65.82 786.84 828.16 427.78 945.95 364.44 515.56 858.21 715.09 510.48 875.09 192.26 821.21 330.43 374.68 690.21 525.02 538.87 903.90 483.01 270.75 592.51 653.90 233.62 404.23 0.00 200.41 612.15
583.68 1016.64 616.87 735.56 430.95 917.65 72.60 396.95 110.18 315.61 632.47 661.43 681.56 758.28 396.54 605.58 568.71 802.76 386.97 476.31 783.95 665.37 415.08 455.47 480.59 545.70 640.08 1088.11 502.69 433.03 688.09 356.21 442.44 237.40 703.30 543.46 727.84 474.86 719.50 177.53 657.45 466.66 268.18 569.75 554.59 704.49 592.48 255.30 348.67 762.27 794.13 767.46 494.92 583.30 355.94 319.25 926.43 1051.15 555.00 671.68 55.78 449.20 344.30 494.65 425.79 949.14 492.82 638.37 647.03 746.81 495.88 271.90 778.97 253.52 754.46 922.24 315.66 819.18 510.23 586.73 988.82 694.02 656.27 744.19 317.24 855.19 276.98 511.71 890.62 458.88 375.05 1091.60 380.40 433.02 746.33 740.48 398.38 566.50 200.41 0.00 790.87
958.67 743.26 602.60 123.94 1102.08 693.91 736.13 809.19 834.32 484.09 1207.11 1199.70 170.71 306.30 1078.55 1058.03 791.45 1255.21 806.95 1121.15 922.03 537.35 534.67 491.42 1062.74 1053.08 1066.78 825.76 404.91 1092.78 236.05 981.59 375.20 907.96 926.04 513.28 905.73 1058.17 942.24 748.29 357.16 372.70 573.14 1113.03 656.42 540.09 928.03 927.89 556.18 561.61 55.88 569.28 708.79 216.40 864.71 484.01 889.98 825.65 328.17 1182.07 744.43 394.92 912.40 1124.06 374.42 693.21 1068.21 1187.45 180.64 1252.75 1102.90 674.99 105.53 579.26 964.35 748.38 941.04 1288.96 280.64 737.53 857.96 1143.22 136.08 1119.18 500.40 930.18 802.99 338.31 586.35 807.13 1007.14 817.05 972.42 370.24 359.65 742.32 534.21 465.03 612.15 790.87 0.00
DEMAND_SECTION
1 0
2 10
3 10
4 8
5 10
6 8
7 10
8 9
9 6
10 6
11 10
12 5
13 9
14 8
15 5
16 8
17 6
18 9
19 6
20 10
21 6
22 9
23 6
24 9
25 5
26 9
27 7
28 7
29 9
30 6
31 7
32 9
33 7
34 10
35 5
36 6
37 9
38 8
39 7
40 8
41 8
42 9
43 5
44 9
45 9
46 6
47 10
48 7
49 9
50 8
51 6
52 7
53 7
54 9
55 10
56 6
57 7
58 10
59 10
60 10
61 5
62 8
63 9
64 6
65 7
66 9
67 5
68 6
69 7
70 6
71 6
72 8
73 9
74 8
75 10
76 10
77 5
78 8
79 9
80 10
81 10
82 5
83 6
84 5
85 9
86 7
87 8
88 9
89 10
90 5
91 8
92 10
93 8
94 8
95 8
96 6
97 8
98 5
99 8
100 6
101 5
DEPOT_SECTION
1
-1
EOF
