NAME: LDG100_3351_rain_100_0266
COMMENT: CVRP with travel times.  rootPos=3,custPos=3,demandType=5,avgRouteSizeIndex=1,weather=rain,lambda_cluster=1,lambda_random=4, T1=300,T2=700,beta=1, alpha(i,j) ~ U(0.8,1.2)
TYPE: CVRP
DIMENSION: 101
EDGE_WEIGHT_TYPE: EXPLICIT
EDGE_WEIGHT_FORMAT: FULL_MATRIX
CAPACITY: 278
NODE_COORD_SECTION
1 0 0
2 402 65
3 337 251
4 494 751
5 388 53
6 618 643
7 249 78
8 749 229
9 207 120
10 766 498
11 355 253
12 426 279
13 800 674
14 132 700
15 413 887
16 52 789
17 478 295
18 66 577
19 627 641
20 690 111
21 838 451
22 451 592
23 68 695
24 269 136
25 542 635
26 216 200
27 903 677
28 682 248
29 796 122
30 720 826
31 700 554
32 882 279
33 734 519
34 496 691
35 863 623
36 691 365
37 210 712
38 32 954
39 769 673
40 603 613
41 589 402
42 385 542
43 805 277
44 862 432
45 650 597
46 102 577
47 63 822
48 64 829
49 339 12
50 795 658
51 207 127
52 119 84
53 89 846
54 293 282
55 389 121
56 904 139
57 931 899
58 519 743
59 577 462
60 584 659
61 814 601
62 89 789
63 943 812
64 326 300
65 496 782
66 737 625
67 282 58
68 292 674
69 903 723
70 529 557
71 581 678
72 132 753
73 983 948
74 484 527
75 53 601
76 478 505
77 698 873
78 366 335
79 591 267
80 408 126
81 9 194
82 979 15
83 353 616
84 815 574
85 910 632
86 496 479
87 525 764
88 475 807
89 582 135
90 11 921
91 250 637
92 103 860
93 127 573
94 856 353
95 409 589
96 708 107
97 45 848
98 233 321
99 25 801
100 49 689
101 743 364
EDGE_WEIGHT_SECTION
0.00 503.60 514.85 999.80 480.78 964.34 336.56 922.79 312.86 978.32 534.28 617.32 1144.89 752.39 1074.02 832.18 597.15 706.12 990.59 825.78 1033.75 811.73 764.30 393.05 931.08 350.25 1218.80 832.14 919.68 1210.10 954.24 913.07 1008.54 986.87 1186.74 908.73 787.51 957.84 1116.63 960.74 812.37 789.70 835.51 1083.32 967.46 626.46 861.16 881.49 392.89 1114.40 327.32 176.70 918.50 453.49 515.56 1027.85 1334.63 961.04 747.57 1005.28 1104.33 861.56 1317.84 504.52 994.42 1037.40 432.93 811.48 1269.54 853.56 1010.78 792.81 1496.47 810.70 673.16 767.68 1211.60 571.82 805.22 545.25 217.16 1119.33 880.31 1136.73 1242.51 771.11 992.18 1056.26 738.05 964.63 804.29 917.10 581.70 1008.11 851.04 792.31 899.43 508.73 865.57 728.01 909.97
503.60 0.00 243.61 700.53 31.44 608.53 184.91 468.51 253.77 661.40 224.18 293.37 823.78 781.37 891.52 824.00 360.92 585.24 634.78 357.08 659.42 617.99 752.34 233.48 678.64 252.83 892.31 398.31 450.98 870.35 683.11 590.18 636.70 754.98 816.29 458.32 743.15 1031.31 805.66 657.43 548.20 541.40 540.32 660.00 686.88 655.44 851.58 871.91 110.71 815.83 239.31 344.77 894.17 303.26 121.84 559.15 1052.42 661.77 513.48 709.29 775.11 832.32 1044.00 311.96 731.00 738.83 195.38 638.12 877.60 618.73 671.03 830.27 1153.84 533.51 630.13 559.28 912.33 308.05 303.15 113.99 544.73 650.63 625.74 731.10 827.53 581.76 692.91 756.99 235.41 960.28 628.61 875.36 700.20 638.56 602.74 323.61 891.25 356.17 888.67 737.65 499.91
514.85 243.61 0.00 584.52 243.29 560.99 222.77 474.53 222.64 551.58 19.43 123.83 706.18 630.77 695.91 609.67 148.08 564.80 556.88 356.56 640.40 396.54 637.71 174.80 501.94 164.60 792.06 462.02 517.40 723.64 568.53 635.92 500.76 534.26 721.88 459.38 520.73 787.70 667.66 527.24 304.59 297.79 558.36 593.94 579.10 504.84 662.50 682.83 331.18 692.71 208.18 338.15 692.70 70.60 178.71 625.57 940.43 545.76 361.86 562.58 657.60 666.83 888.78 68.35 611.53 651.69 319.16 433.37 842.68 405.86 524.32 617.07 1027.59 377.20 573.89 358.76 796.32 112.91 324.84 201.19 499.88 717.05 382.13 674.98 791.35 372.62 576.90 640.98 354.31 716.67 430.15 724.16 499.34 549.46 359.13 390.03 676.92 272.76 689.29 645.65 477.52
999.80 700.53 584.52 0.00 731.97 216.75 807.29 673.57 778.64 422.32 603.95 557.73 361.20 416.50 217.10 498.83 535.28 552.77 223.01 715.44 512.60 269.93 510.96 709.57 172.46 683.23 469.52 618.04 757.05 318.03 359.37 649.30 396.97 64.75 456.35 550.99 461.16 648.90 354.59 227.43 421.36 303.59 626.30 576.41 265.82 542.43 446.00 466.33 811.24 391.69 772.60 823.10 450.30 567.20 706.46 795.90 640.65 38.76 354.55 155.31 415.68 507.23 528.30 516.17 56.58 350.79 819.58 351.83 497.70 248.56 163.15 460.04 622.17 257.25 589.80 283.94 289.32 538.22 595.59 676.77 941.52 952.42 233.41 453.22 464.54 324.50 46.56 122.14 738.62 598.88 309.80 485.62 507.95 601.87 242.25 748.91 507.12 612.95 498.64 547.25 525.51
480.78 31.44 243.29 731.97 0.00 639.97 216.35 499.95 282.23 692.84 233.92 267.38 853.24 749.93 881.84 831.65 334.93 592.89 666.22 388.52 633.43 613.91 759.99 202.04 652.65 221.39 889.34 380.82 482.42 901.79 689.42 558.74 668.14 738.97 813.32 489.76 739.00 1021.07 820.45 657.56 547.88 527.28 522.83 691.44 718.32 624.00 859.23 879.56 87.89 822.75 267.77 344.99 901.82 313.89 117.69 590.59 1056.90 693.21 509.33 732.70 758.52 839.97 1026.40 301.72 762.44 770.27 163.94 647.86 846.16 592.74 702.47 833.22 1143.34 507.52 637.78 544.80 943.77 303.97 334.59 88.00 530.39 682.07 617.89 762.54 835.41 560.40 724.35 788.43 266.85 950.04 602.62 896.63 668.76 643.74 588.62 355.05 898.90 379.87 896.32 745.30 531.35
964.34 608.53 560.99 216.75 639.97 0.00 751.87 527.91 715.84 256.55 577.58 480.46 235.65 531.23 331.83 633.41 412.91 651.19 26.25 602.20 367.93 214.90 592.21 635.65 95.55 659.39 324.30 485.09 619.27 261.82 214.92 491.20 200.21 163.17 264.80 382.01 469.94 765.94 197.13 48.90 282.42 315.41 438.83 409.85 78.35 579.82 621.05 600.72 719.24 227.60 701.38 822.25 644.06 558.82 608.41 607.04 443.89 186.89 216.77 100.76 218.92 624.73 475.36 507.79 171.31 150.60 718.93 360.61 348.22 187.28 62.50 574.77 545.31 198.94 648.87 241.96 344.79 465.72 476.79 618.46 858.89 735.67 331.83 253.03 334.27 267.01 170.19 236.87 619.14 792.64 458.92 662.19 562.59 447.41 267.51 624.20 666.60 518.37 673.69 628.50 308.76
336.56 184.91 222.77 807.29 216.35 751.87 0.00 653.42 123.27 717.98 203.34 319.57 840.93 762.21 879.82 827.30 370.28 692.04 748.43 541.99 754.12 619.31 701.61 116.22 704.84 225.12 958.46 583.22 601.12 946.41 770.38 775.09 723.53 757.03 900.98 623.83 664.85 984.46 802.41 702.97 527.36 520.56 725.23 777.85 765.79 636.28 861.14 870.74 199.38 861.15 122.31 159.86 914.08 258.59 179.00 709.29 1163.20 768.53 564.15 784.89 856.34 854.67 1080.64 291.12 799.52 853.98 111.41 617.28 977.43 628.63 747.09 789.19 1250.36 599.97 664.31 569.48 999.82 315.20 468.66 208.69 359.82 800.77 604.90 815.79 944.76 562.15 799.67 863.75 420.32 939.44 641.49 926.53 608.32 705.05 581.90 508.52 868.88 271.68 837.94 737.90 665.42
922.79 468.51 474.53 673.57 499.95 527.91 653.42 0.00 635.00 320.44 484.62 368.39 462.93 919.22 777.51 955.31 326.45 813.84 526.20 203.54 292.17 555.75 944.96 578.10 580.74 626.59 548.08 144.70 169.49 722.51 415.34 166.64 352.24 653.33 472.06 190.55 845.96 1064.72 501.45 490.65 347.37 564.48 89.08 293.61 449.56 793.29 902.48 882.15 579.22 484.21 620.54 746.09 925.49 532.22 478.01 265.79 787.30 676.62 405.61 560.07 459.70 924.20 726.86 532.44 616.99 499.80 656.41 736.63 599.43 511.60 588.54 923.79 896.61 512.63 858.73 500.00 715.77 540.76 188.35 495.49 883.36 369.14 612.26 417.48 526.86 466.96 667.41 682.55 233.10 1074.07 738.26 943.62 777.86 261.68 503.14 237.01 948.03 560.01 955.12 908.67 274.61
312.86 253.77 222.64 778.64 282.23 715.84 123.27 635.00 0.00 745.28 235.56 346.47 890.90 671.16 900.70 750.95 370.72 579.67 712.40 579.20 745.07 597.42 665.58 80.19 716.77 112.75 978.74 588.09 628.12 946.28 762.23 752.40 723.40 722.31 902.72 649.85 557.00 876.61 860.03 666.94 527.23 520.43 724.08 790.60 678.85 545.23 798.71 795.14 267.44 860.41 14.46 136.16 835.81 222.56 206.00 736.29 1124.81 751.00 555.56 751.55 820.31 762.87 1080.34 273.59 763.49 805.10 150.33 642.14 998.69 628.50 746.96 694.12 1249.09 573.20 577.42 530.18 992.91 306.61 494.68 235.69 408.54 827.77 604.77 828.30 947.76 526.12 782.14 829.05 425.19 883.40 649.35 840.86 500.47 732.05 544.81 563.62 818.20 258.61 801.91 646.78 597.11
978.32 661.40 551.58 422.32 692.84 256.55 717.98 320.44 745.28 0.00 550.53 538.63 238.34 746.16 546.76 860.84 503.31 798.70 230.30 453.32 139.63 410.14 804.68 699.37 309.73 673.03 240.48 379.81 489.93 416.52 109.35 295.32 56.34 357.57 212.48 203.08 661.31 980.87 199.82 275.76 252.51 431.56 271.17 203.44 244.79 723.50 842.51 822.18 772.11 225.77 730.82 833.79 861.49 557.00 622.39 441.92 479.70 435.86 230.75 333.07 163.75 812.66 453.93 505.97 386.24 225.12 761.12 603.71 301.53 291.42 319.05 788.01 598.71 351.30 770.20 394.32 395.33 438.67 358.25 643.27 852.76 601.27 479.34 158.41 281.95 336.43 404.72 451.80 534.70 929.66 605.34 857.21 678.74 271.85 370.22 445.27 811.29 634.30 873.94 775.75 174.36
534.28 224.18 19.43 603.95 233.92 577.58 203.34 484.62 235.56 550.53 0.00 116.23 708.62 650.20 676.48 629.10 166.94 581.00 576.31 375.99 629.62 415.97 636.66 155.37 501.50 184.03 791.01 442.59 536.83 743.07 567.48 636.90 520.19 553.69 734.32 441.54 523.27 807.13 670.10 546.67 324.02 317.22 573.70 574.51 571.50 524.27 681.93 702.26 321.81 711.57 221.10 357.58 712.13 90.03 159.28 645.00 959.86 565.19 360.81 581.55 677.03 686.26 908.21 87.78 630.96 650.64 299.73 413.94 843.35 425.29 543.75 636.50 1047.02 396.63 593.32 366.14 796.48 111.86 305.41 181.76 483.72 736.48 401.56 667.38 796.35 392.05 596.33 660.41 341.28 736.10 449.58 723.19 518.77 541.86 378.56 409.46 696.35 266.20 708.72 657.79 463.90
617.32 293.37 123.83 557.73 267.38 480.46 319.57 368.39 346.47 538.63 116.23 0.00 641.67 724.79 694.76 686.00 67.55 554.94 492.27 374.29 561.53 355.87 697.17 271.60 385.27 279.86 694.11 401.73 531.77 664.29 560.34 520.67 533.46 496.61 618.09 335.55 594.21 883.40 603.15 446.81 337.29 388.55 457.47 537.44 455.27 600.54 738.83 759.16 355.27 612.18 332.01 440.62 773.14 163.83 209.07 634.18 901.23 538.93 389.43 465.32 595.16 743.16 827.58 164.05 550.70 581.52 366.79 484.88 733.94 374.33 464.97 698.10 1007.36 320.44 599.83 277.42 680.25 172.37 269.77 179.38 514.97 731.42 479.16 551.15 680.12 293.02 564.14 591.15 273.78 812.37 467.50 761.51 592.57 425.63 392.57 407.76 753.25 282.69 765.62 707.35 428.59
1144.89 823.78 706.18 361.20 853.24 235.65 840.93 462.93 890.90 238.34 708.62 641.67 0.00 696.45 497.05 819.39 575.12 834.30 233.06 646.26 273.07 368.69 763.23 834.84 292.76 818.47 158.39 487.02 628.73 293.63 214.64 485.22 244.27 346.28 123.24 416.91 676.54 931.16 38.52 274.87 427.03 469.20 476.16 285.65 212.05 761.14 767.73 754.95 934.49 30.49 876.44 979.23 798.29 702.44 741.28 545.25 377.03 322.44 397.32 283.87 94.72 810.05 263.93 651.41 336.53 107.49 873.61 572.52 136.50 346.13 245.61 739.99 433.68 424.91 807.84 414.46 289.60 646.27 520.63 770.97 1009.51 750.78 514.94 129.92 166.29 425.91 353.58 402.09 649.92 946.87 612.71 816.42 716.38 390.18 421.30 638.81 820.83 725.18 808.68 799.52 323.87
752.39 781.37 630.77 416.50 749.93 531.23 762.21 919.22 671.16 746.16 650.20 724.79 696.45 0.00 419.62 154.34 691.55 204.16 557.48 910.70 864.99 460.75 94.46 679.85 502.97 617.78 823.91 801.80 959.22 660.40 662.71 939.61 731.44 481.25 796.03 793.79 174.76 301.32 657.93 580.13 599.13 384.57 911.38 917.20 609.58 125.93 174.83 181.87 837.82 716.67 656.70 778.15 186.54 560.96 755.10 1041.41 975.12 429.15 578.81 545.70 750.15 113.60 913.40 562.42 359.92 679.93 821.49 265.39 832.95 525.93 517.54 93.03 1003.47 527.20 185.54 495.70 679.71 611.96 730.87 725.41 699.80 1158.87 325.44 782.36 812.50 559.72 410.34 425.48 897.78 293.65 286.02 169.70 170.69 910.71 419.09 944.17 202.84 490.53 222.66 130.75 772.06
1074.02 891.52 695.91 217.10 881.84 331.83 879.82 777.51 900.70 546.76 676.48 694.76 497.05 419.62 0.00 501.51 667.86 561.14 358.08 832.51 686.39 340.25 494.14 831.85 325.95 817.48 624.51 721.98 930.52 355.23 453.36 823.03 532.04 281.85 548.68 678.15 343.70 614.49 458.53 380.73 591.30 440.76 770.66 741.68 410.18 481.75 499.22 500.14 969.73 517.27 886.24 978.24 491.08 701.45 823.53 925.14 608.94 229.75 528.02 346.30 550.75 460.47 617.30 676.41 160.52 482.43 958.94 262.54 603.72 422.03 318.14 475.30 698.30 374.32 550.80 417.34 438.20 609.11 715.22 793.84 973.80 1067.50 386.91 584.86 613.10 442.39 210.94 137.40 874.09 599.20 313.96 516.43 492.32 756.86 392.86 865.98 434.26 746.18 496.91 495.48 640.59
832.18 824.00 609.67 498.83 831.65 633.41 827.30 955.31 750.95 860.84 629.10 686.00 819.39 154.34 501.51 0.00 726.15 238.76 659.66 966.23 946.37 450.70 142.17 727.56 570.05 705.68 898.33 930.19 1077.91 681.07 769.19 1047.55 813.48 542.95 857.43 880.36 249.63 242.62 782.04 660.14 742.22 497.66 1034.26 975.76 694.63 280.27 52.83 73.16 919.54 840.78 736.49 812.75 87.14 658.98 788.38 1150.91 1025.86 537.59 675.41 584.12 816.34 57.16 943.14 678.02 511.71 784.01 864.10 358.96 912.47 569.42 611.38 112.51 1024.14 525.46 259.35 540.48 750.49 656.10 793.01 810.86 696.27 1277.56 434.94 772.33 901.30 593.53 545.39 446.15 932.38 201.59 343.11 122.46 250.48 1005.07 503.31 999.70 67.25 555.62 79.62 142.69 866.42
597.15 360.92 148.08 535.28 334.93 412.91 370.28 326.45 370.72 503.31 166.94 67.55 575.12 691.55 667.86 726.15 0.00 487.39 439.16 381.95 581.80 367.57 654.49 322.31 380.38 312.68 689.37 334.18 464.22 659.40 528.55 487.84 465.91 470.53 637.38 374.49 651.97 935.78 603.37 443.58 269.74 386.36 410.28 576.17 452.90 567.05 753.73 774.06 422.82 544.63 356.26 420.45 796.32 218.68 276.62 572.39 856.80 500.26 321.88 448.84 608.86 734.47 803.35 216.43 545.81 563.51 329.96 552.43 711.62 355.81 460.08 719.85 943.74 293.54 532.28 277.79 707.99 216.10 219.32 246.93 564.10 663.87 434.14 618.70 706.85 225.47 531.40 595.48 206.23 864.75 534.75 828.76 611.81 493.18 325.02 359.99 793.40 258.55 790.82 639.80 416.08
706.12 585.24 564.80 552.77 592.89 651.19 692.04 813.84 579.67 798.70 581.00 554.94 834.30 204.16 561.14 238.76 487.39 0.00 665.27 864.43 869.98 472.11 167.10 608.56 591.46 466.92 907.88 821.57 931.58 763.10 778.59 922.24 801.62 488.02 881.89 798.86 283.84 463.51 803.94 621.79 643.33 371.60 897.67 884.29 684.61 79.66 266.34 286.67 680.78 822.57 569.73 573.99 308.93 541.10 707.08 1035.33 1009.78 549.12 583.80 626.95 826.10 247.08 996.26 516.15 564.08 745.57 625.34 298.87 953.54 562.37 588.69 245.03 1084.24 506.66 44.89 482.73 799.68 469.14 684.60 680.89 606.42 1131.23 319.36 848.00 881.89 546.75 580.26 564.40 693.62 427.13 247.18 341.77 124.42 941.90 428.48 847.38 306.01 444.26 303.43 152.41 816.26
990.59 634.78 556.88 223.01 666.22 26.25 748.43 526.20 712.40 230.30 576.31 492.27 233.06 557.48 358.08 659.66 439.16 665.27 0.00 575.95 341.68 210.53 605.07 632.21 116.39 650.60 314.57 481.65 639.07 253.23 237.26 517.45 173.96 189.42 238.55 378.57 496.19 774.45 194.54 45.46 278.98 311.04 465.08 383.60 104.60 602.98 612.21 591.88 745.49 221.91 697.94 824.15 635.22 555.38 634.66 580.79 417.64 213.14 243.02 102.77 192.67 650.98 472.77 504.35 197.56 144.91 745.18 386.86 369.56 182.17 88.75 601.02 571.56 195.50 649.68 238.52 336.20 488.74 456.57 615.02 832.64 761.92 345.91 236.68 308.02 263.57 196.44 263.12 630.54 783.80 454.55 653.35 558.22 473.66 263.14 609.42 657.76 492.12 664.85 641.36 335.01
825.78 357.08 356.56 715.44 388.52 602.20 541.99 203.54 579.20 453.32 375.99 374.29 646.26 910.70 832.51 966.23 381.95 864.43 575.95 0.00 410.77 581.26 940.76 516.90 614.60 521.16 648.96 173.00 160.84 782.20 475.03 298.98 401.99 689.64 590.66 250.24 877.29 1144.26 621.50 583.35 351.57 568.53 221.42 469.23 581.90 784.77 976.91 983.95 432.89 619.26 564.74 689.99 968.38 427.16 391.09 269.01 888.18 676.68 418.38 667.96 558.83 915.68 835.92 424.91 734.46 582.20 511.98 782.07 714.12 524.37 635.58 973.63 1011.30 458.19 853.82 491.48 848.65 449.15 179.83 361.40 845.25 360.49 659.14 574.47 619.45 458.44 707.82 757.65 175.72 1073.23 786.71 1003.70 769.34 394.02 608.14 33.47 1004.92 551.49 1029.55 915.65 343.28
1033.75 659.42 640.40 512.60 633.43 367.93 754.12 292.17 745.07 139.63 629.62 561.53 273.07 864.99 686.39 946.37 581.80 869.98 341.68 410.77 0.00 495.67 890.21 700.93 439.80 761.85 255.91 345.10 414.17 459.55 248.98 270.66 167.72 497.20 179.89 258.14 724.19 968.34 291.93 376.39 338.65 539.91 203.09 63.81 313.57 790.32 953.89 933.56 721.32 242.58 730.61 881.23 962.90 645.82 575.12 398.87 495.13 473.84 286.18 424.08 178.35 904.57 464.48 594.79 525.87 258.88 754.24 699.50 325.62 392.17 430.43 859.05 622.80 454.50 859.37 455.88 473.64 527.49 362.48 545.43 992.39 592.63 587.69 189.40 249.36 391.86 499.43 569.06 508.00 1030.41 713.69 985.62 787.09 175.62 478.57 377.30 946.63 708.43 971.72 884.10 165.72
811.73 617.99 396.54 269.93 613.91 214.90 619.31 555.75 597.42 410.14 415.97 355.87 368.69 460.75 340.25 450.70 367.57 472.11 210.53 581.26 495.67 0.00 394.54 570.64 119.35 507.21 484.89 494.19 627.21 398.37 356.40 596.85 384.49 205.18 449.08 430.15 313.16 680.19 387.94 209.44 291.52 100.51 603.77 559.48 272.26 392.45 503.53 523.86 688.37 399.18 582.96 680.76 537.84 428.27 564.94 735.38 621.30 275.56 224.71 199.40 403.20 501.64 632.62 377.24 232.11 355.44 663.48 203.83 505.19 118.72 199.05 437.69 741.44 132.80 439.15 89.78 481.34 309.94 401.43 535.25 763.83 826.86 161.73 447.21 518.55 146.93 260.38 297.67 548.98 652.29 244.02 513.08 347.69 554.37 52.61 614.73 510.49 423.31 530.32 430.83 415.72
764.30 752.34 637.71 510.96 759.99 592.21 701.61 944.96 665.58 804.68 636.66 697.17 763.23 94.46 494.14 142.17 654.49 167.10 605.07 940.76 890.21 394.54 0.00 585.39 513.89 601.66 840.61 881.02 1010.13 660.40 734.42 991.39 779.03 518.02 836.76 819.36 182.46 310.60 752.39 603.98 678.35 429.78 967.09 954.02 666.80 155.99 159.53 179.86 812.42 771.77 651.12 688.56 216.87 611.34 711.20 1071.94 1005.19 518.15 619.25 593.94 797.74 153.06 922.47 592.10 454.38 742.81 729.75 231.60 891.80 513.26 593.59 87.58 1003.21 527.34 136.99 484.32 729.82 524.80 760.93 740.89 707.59 1209.78 355.97 810.32 905.58 541.47 504.80 425.48 860.72 286.91 318.18 234.96 182.60 948.91 441.82 974.23 167.27 520.59 136.33 36.29 810.26
393.05 233.48 174.80 709.57 202.04 635.65 116.22 578.10 80.19 699.37 155.37 271.60 834.84 679.85 831.85 727.56 322.31 608.56 632.21 516.90 700.93 570.64 585.39 0.00 656.87 156.75 898.55 507.90 547.93 885.44 716.32 727.47 675.56 709.06 822.53 570.64 592.50 895.99 806.29 586.75 479.39 472.59 649.91 729.88 649.57 596.50 744.92 765.25 227.03 804.35 65.73 216.35 802.26 142.37 125.81 656.10 1049.85 670.81 509.65 671.36 740.12 738.45 1060.11 193.40 683.30 775.82 144.36 569.31 918.50 580.66 697.43 672.97 1180.96 502.25 621.42 509.95 912.72 260.70 415.47 155.50 328.35 747.58 556.93 784.13 867.57 445.93 701.95 748.86 345.00 841.72 569.16 820.35 551.74 651.86 533.93 483.43 752.66 278.99 721.72 621.68 612.23
931.08 678.64 501.94 172.46 652.65 95.55 704.84 580.74 716.77 309.73 501.50 385.27 292.76 502.97 325.95 570.05 380.38 591.46 116.39 614.60 439.80 119.35 513.89 656.87 0.00 616.86 365.54 471.55 604.57 279.02 289.48 574.21 290.35 139.74 354.94 401.83 432.51 760.06 292.68 90.09 268.88 219.86 513.39 484.78 152.91 511.80 618.46 617.92 740.54 280.53 702.31 790.41 622.76 516.29 593.71 697.18 534.03 166.84 202.07 80.05 309.06 616.57 539.25 465.26 165.43 246.15 710.34 323.18 421.84 96.08 79.70 557.04 622.09 156.41 558.50 199.43 361.99 429.29 503.09 564.65 789.04 804.22 281.08 348.58 424.41 224.48 178.87 230.99 586.61 734.32 363.37 632.43 467.04 518.42 171.96 623.34 629.84 542.66 649.67 550.18 393.08
350.25 252.83 164.60 683.23 221.39 659.39 225.12 626.59 112.75 673.03 184.03 279.86 818.47 617.78 817.48 705.68 312.68 466.92 650.60 521.16 761.85 507.21 601.66 156.75 616.86 0.00 913.51 481.89 682.00 888.24 689.98 701.46 665.36 636.62 848.70 615.41 566.16 886.41 779.95 610.49 469.19 452.24 623.90 758.54 661.08 491.85 728.09 711.57 309.28 801.40 102.81 173.55 739.80 116.03 282.56 743.52 1068.24 644.47 483.31 667.82 766.29 666.86 967.59 167.06 656.96 773.14 217.50 580.93 934.87 522.40 688.92 662.50 1161.33 460.45 464.67 417.43 895.03 234.36 489.44 309.39 425.82 881.65 542.85 810.30 918.17 433.65 675.61 722.52 488.24 815.38 594.75 773.04 523.63 705.49 513.58 554.63 756.10 158.48 737.99 607.44 630.63
1218.80 892.31 792.06 469.52 889.34 324.30 958.46 548.08 978.74 240.48 791.01 694.11 158.39 823.91 624.51 898.33 689.37 907.88 314.57 648.96 255.91 484.89 840.61 898.55 365.54 913.51 0.00 519.56 577.94 323.23 308.52 434.43 296.82 453.14 76.02 434.18 718.34 996.39 165.98 360.03 492.99 585.40 459.00 312.35 326.30 828.22 895.19 890.69 977.23 144.74 964.28 1074.27 919.82 797.48 831.03 581.03 239.22 430.76 471.23 314.21 158.43 876.38 213.45 746.45 463.99 202.51 967.49 609.01 69.71 460.38 352.47 825.20 366.89 510.07 897.27 507.29 369.77 679.15 589.16 801.34 1093.24 688.50 621.80 161.21 64.97 540.16 461.90 487.30 682.46 1056.43 728.91 918.26 822.44 339.39 537.50 633.21 915.67 806.69 947.83 876.90 392.40
832.14 398.31 462.02 618.04 380.82 485.09 583.22 144.70 588.09 379.81 442.59 401.73 487.02 801.80 721.98 930.19 334.18 821.57 481.65 173.00 345.10 494.19 881.02 507.90 471.55 481.89 519.56 0.00 234.94 688.53 401.52 219.57 398.84 580.29 523.98 176.73 799.48 1084.74 448.50 436.19 202.67 523.21 142.01 389.82 489.37 742.12 934.26 941.30 468.71 507.24 573.63 655.44 929.84 514.19 406.72 337.79 758.78 629.58 269.48 520.80 482.80 873.03 671.06 463.16 561.46 446.52 544.76 690.15 589.27 375.47 530.22 882.52 880.32 419.65 811.17 418.87 762.16 481.77 137.18 377.03 836.25 434.59 570.99 438.79 454.59 354.85 611.88 627.02 162.90 1013.71 696.99 965.16 726.69 314.61 461.87 151.79 929.93 508.84 986.90 844.73 207.60
919.68 450.98 517.40 757.05 482.42 619.27 601.12 169.49 628.12 489.93 536.83 531.77 628.73 959.22 930.52 1077.91 464.22 931.58 639.07 160.84 414.17 627.21 1010.13 547.93 604.57 682.00 577.94 234.94 0.00 815.21 579.95 216.13 521.73 706.41 546.95 360.04 887.86 1194.50 647.59 593.61 360.09 656.23 258.57 350.36 582.61 906.64 1071.97 1051.64 526.79 598.24 613.66 751.90 1081.01 588.00 422.12 108.17 817.16 741.58 402.50 655.45 534.01 1043.92 729.44 585.75 770.00 578.99 495.67 778.53 647.65 508.49 617.19 1015.54 944.83 570.82 962.88 572.20 823.00 609.99 329.42 451.81 876.28 199.65 654.16 578.02 512.97 508.18 772.72 835.56 257.99 1146.73 799.89 1087.78 903.41 238.55 594.89 127.37 1062.95 669.27 1020.23 1000.42 359.96
1210.10 870.35 723.64 318.03 901.79 261.82 946.41 722.51 946.28 416.52 743.07 664.29 293.63 660.40 355.23 681.07 659.40 763.10 253.23 782.20 459.55 398.37 660.40 885.44 279.02 888.24 323.23 688.53 815.21 0.00 307.17 663.37 414.37 299.99 317.93 531.96 630.25 856.39 255.11 298.69 532.21 498.88 662.64 472.13 338.30 683.44 712.28 719.32 972.86 265.26 931.82 1061.79 717.98 789.37 866.45 778.95 344.79 323.71 474.81 237.58 281.20 651.05 262.07 744.28 300.48 242.01 855.75 588.48 272.95 368.82 199.32 572.82 343.07 435.43 734.36 473.79 82.97 699.68 677.69 843.67 1061.78 907.84 468.65 325.21 350.61 471.75 333.13 234.92 851.43 831.10 552.14 753.30 718.16 576.66 450.98 774.15 740.29 745.35 702.45 696.69 480.93
954.24 683.11 568.53 359.37 689.42 214.92 770.38 415.34 762.23 109.35 567.48 560.34 214.64 662.71 453.36 769.19 528.55 778.59 237.26 475.03 248.98 356.40 734.42 716.32 289.48 689.98 308.52 401.52 579.95 307.17 0.00 404.67 107.20 316.48 232.50 224.79 551.96 882.17 226.71 199.39 273.48 406.99 374.46 312.79 136.57 698.93 785.43 767.82 756.99 214.32 747.77 850.74 758.76 573.95 598.31 471.78 514.90 363.63 206.67 247.08 150.09 757.83 419.27 522.92 302.79 147.48 658.97 560.23 351.14 300.70 255.50 688.64 606.55 306.92 745.63 295.86 390.14 455.62 379.96 601.42 934.03 710.62 485.14 183.31 288.27 312.35 353.21 368.35 556.41 866.88 600.42 784.11 654.17 381.20 399.06 466.98 701.94 630.34 764.59 770.71 283.71
913.07 590.18 635.92 649.30 558.74 491.20 775.09 166.64 752.40 295.32 636.90 520.67 485.22 939.61 823.03 1047.55 487.84 922.24 517.45 298.98 270.66 596.85 991.39 727.47 574.21 701.46 434.43 219.57 216.13 663.37 404.67 0.00 351.66 634.43 403.44 275.48 862.19 1187.40 495.14 500.86 355.37 625.87 77.56 206.85 438.04 876.28 1069.12 1048.79 646.63 454.73 737.94 875.01 1050.65 684.50 621.09 146.60 673.65 658.15 372.14 548.55 390.50 1013.56 585.93 682.73 662.51 421.36 711.80 798.02 504.14 478.13 533.76 985.18 801.32 540.46 941.01 541.84 679.49 621.09 354.99 596.60 1035.64 391.18 673.65 413.63 369.46 477.82 661.39 728.07 382.47 1116.37 799.65 1071.58 873.05 95.04 564.53 332.45 1032.59 725.15 1095.24 970.06 182.44
1008.54 636.70 500.76 396.97 668.14 200.21 723.53 352.24 723.40 56.34 520.19 533.46 244.27 731.44 532.04 813.48 465.91 801.62 173.96 401.99 167.72 384.49 779.03 675.56 290.35 665.36 296.82 398.84 521.73 414.37 107.20 351.66 0.00 363.38 221.12 259.42 659.16 948.41 256.16 219.42 196.17 437.59 317.37 231.53 218.97 721.96 786.17 765.84 747.41 217.27 708.94 831.84 805.15 555.05 623.21 467.39 536.04 387.10 262.98 276.73 156.84 756.32 475.99 545.33 371.52 210.53 766.17 560.82 357.87 276.84 262.71 774.98 654.06 294.96 768.66 337.98 451.67 495.01 333.55 652.90 909.10 657.61 502.83 200.85 290.59 348.35 370.40 437.08 510.00 915.08 628.51 827.31 677.20 328.19 393.71 435.46 809.14 602.54 838.81 799.24 230.70
986.87 754.98 534.26 64.75 738.97 163.17 757.03 653.33 722.31 357.57 553.69 496.61 346.28 481.25 281.85 542.95 470.53 488.02 189.42 689.64 497.20 205.18 518.02 709.06 139.74 636.62 453.14 580.29 706.41 299.99 316.48 634.43 363.38 0.00 393.87 495.79 402.05 686.08 315.92 162.68 377.62 238.84 585.98 528.39 225.50 511.93 510.75 531.08 824.65 363.04 707.85 810.17 515.05 569.40 680.66 770.21 607.06 93.21 341.81 138.93 366.57 508.67 562.06 530.37 121.33 286.04 757.10 292.72 482.78 235.82 100.67 430.44 596.22 231.45 525.05 219.19 343.77 473.47 530.84 650.97 888.72 898.84 168.66 388.47 399.79 283.21 111.31 186.89 673.87 663.63 314.39 550.37 478.02 539.39 177.50 723.11 571.87 548.20 560.07 554.31 471.93
1186.74 816.29 721.88 456.35 813.32 264.80 900.98 472.06 902.72 212.48 734.32 618.09 123.24 796.03 548.68 857.43 637.38 881.89 238.55 590.66 179.89 449.08 836.76 822.53 354.94 848.70 76.02 523.98 546.95 317.93 232.50 403.44 221.12 393.87 0.00 409.42 713.05 1013.00 139.14 284.01 417.29 542.40 382.98 237.73 274.31 834.34 850.76 830.43 901.21 92.75 888.26 1022.25 873.30 769.48 755.01 550.04 315.24 417.59 439.17 331.46 82.41 800.36 284.59 718.45 436.11 162.94 891.47 625.41 145.73 403.30 293.20 749.18 442.91 434.05 881.04 431.27 293.75 651.15 513.14 725.32 1065.24 743.29 562.53 85.19 69.47 488.17 434.99 411.28 686.88 980.41 674.86 891.90 789.58 308.40 501.69 557.19 889.60 730.67 878.81 873.05 316.38
908.73 458.32 459.38 550.99 489.76 382.01 623.83 190.55 649.85 203.08 441.54 335.55 416.91 793.79 678.15 880.36 374.49 798.86 378.57 250.24 258.14 430.15 819.36 570.64 401.83 615.41 434.18 176.73 360.04 531.96 224.79 275.48 259.42 495.79 409.42 0.00 720.36 1027.51 402.90 333.11 194.66 438.88 201.03 286.53 361.36 719.20 887.80 894.84 569.03 408.96 636.37 776.17 865.09 499.38 444.83 396.81 673.40 512.23 215.06 417.72 364.80 826.57 585.68 499.60 527.58 331.96 626.15 611.03 463.88 321.05 443.79 793.56 761.06 354.90 777.52 350.85 598.41 439.37 155.17 451.41 850.52 490.28 486.66 324.23 369.21 286.83 536.02 593.14 331.62 959.29 612.66 884.59 686.06 231.69 377.54 242.19 875.51 526.83 923.19 783.07 93.04
787.51 743.15 520.73 461.16 739.00 469.94 664.85 845.96 557.00 661.31 523.27 594.21 676.54 174.76 343.70 249.63 651.97 283.84 496.19 877.29 724.19 313.16 182.46 592.50 432.51 566.16 718.34 799.48 887.86 630.25 551.96 862.19 659.16 402.05 713.05 720.36 0.00 420.69 649.49 518.84 596.81 322.87 784.63 788.00 548.29 250.57 241.71 238.14 806.89 697.54 542.54 693.16 278.81 450.13 621.31 949.67 867.43 462.89 535.21 469.19 671.87 205.87 892.32 501.16 404.58 620.54 707.33 109.33 788.05 431.88 430.93 137.12 973.32 445.96 238.95 402.94 713.22 455.90 711.57 651.00 820.79 1087.51 233.70 627.86 756.83 460.09 455.00 462.89 839.19 385.92 160.95 299.61 205.81 792.10 342.82 910.76 295.11 563.92 247.53 218.75 728.88
957.84 1031.31 787.70 648.90 1021.07 765.94 984.46 1064.72 876.61 980.87 807.13 883.40 931.16 301.32 614.49 242.62 935.78 463.51 774.45 1144.26 968.34 680.19 310.60 895.99 760.06 886.41 996.39 1084.74 1194.50 856.39 882.17 1187.40 948.41 686.08 1013.00 1027.51 420.69 0.00 892.64 766.79 882.07 623.32 1153.17 1032.15 792.69 420.90 202.90 182.57 1080.29 951.38 862.15 999.16 202.43 770.38 964.99 1256.82 1078.08 663.86 815.26 682.18 967.12 250.84 1078.91 719.35 594.63 916.54 963.18 476.36 1066.10 709.27 720.44 283.57 1157.53 712.62 429.47 734.45 886.30 786.65 965.65 975.74 822.68 1391.85 540.85 966.01 1047.21 780.69 645.05 621.47 1080.68 71.03 461.12 167.11 376.14 1143.96 649.97 1177.73 180.23 741.29 174.27 336.79 1006.27
1116.63 805.66 667.66 354.59 820.45 197.13 802.41 501.45 860.03 199.82 670.10 603.15 38.52 657.93 458.53 782.04 603.37 803.94 194.54 621.50 291.93 387.94 752.39 806.29 292.68 779.95 165.98 448.50 647.59 255.11 226.71 495.14 256.16 315.92 139.14 402.90 649.49 892.64 0.00 240.00 388.51 480.28 470.99 304.51 181.18 759.37 729.21 749.54 908.34 58.74 845.57 940.71 786.55 663.92 702.76 583.77 391.33 360.96 369.06 291.69 113.58 771.53 278.23 612.89 298.01 79.23 885.68 540.16 175.02 365.17 259.63 701.47 472.20 390.04 818.92 417.12 317.85 618.01 514.91 732.45 978.64 745.06 484.58 157.59 178.54 408.61 348.43 363.57 611.40 935.13 630.31 804.64 727.46 409.04 418.94 600.29 812.70 686.66 781.85 788.68 318.15
960.74 657.43 527.24 227.43 657.56 48.90 702.97 490.65 666.94 275.76 546.67 446.81 274.87 580.13 380.73 660.14 443.58 621.79 45.46 583.35 376.39 209.44 603.98 586.75 90.09 610.49 360.03 436.19 593.61 298.69 199.39 500.86 219.42 162.68 284.01 333.11 518.84 766.79 240.00 0.00 233.52 292.67 423.30 394.69 62.82 577.04 657.67 637.34 745.45 244.38 652.48 784.04 660.23 509.92 599.25 619.08 463.10 201.16 221.26 84.61 238.13 671.35 503.10 458.89 220.21 189.07 731.11 409.51 331.75 138.38 110.68 593.12 594.21 150.04 623.74 193.06 325.97 447.34 488.28 569.56 831.34 784.57 302.43 271.45 348.42 218.11 202.91 268.82 585.08 776.62 448.16 695.55 532.28 456.58 262.05 575.30 703.22 537.58 710.31 640.27 357.66
812.37 548.20 304.59 421.36 547.88 282.42 527.36 347.37 527.23 252.51 324.02 337.29 427.03 599.13 591.30 742.22 269.74 643.33 278.98 351.57 338.65 291.52 678.35 479.39 268.88 469.19 492.99 202.67 360.09 532.21 273.48 355.37 196.17 377.62 417.29 194.66 596.81 882.07 388.51 233.52 0.00 320.54 312.25 366.42 286.70 563.67 769.46 769.84 635.77 413.44 512.77 635.67 727.17 358.88 458.45 468.26 696.62 426.91 66.81 318.13 353.01 708.23 666.74 372.94 434.31 356.64 599.70 487.48 554.04 172.80 344.20 679.85 815.71 216.98 632.72 216.20 559.49 315.76 339.85 488.14 723.15 559.74 368.32 397.02 486.76 152.18 436.43 499.87 351.56 811.04 494.32 762.49 567.72 311.58 259.20 354.46 727.26 406.37 789.91 642.06 172.93
789.70 541.40 297.79 303.59 527.28 315.41 520.56 564.48 520.43 431.56 317.22 388.55 469.20 384.57 440.76 497.66 386.36 371.60 311.04 568.53 539.91 100.51 429.78 472.59 219.86 452.24 585.40 523.21 656.23 498.88 406.99 625.87 437.59 238.84 542.40 438.88 322.87 623.32 480.28 292.67 320.54 0.00 632.79 532.63 355.49 291.94 521.75 511.52 615.17 495.10 505.97 613.00 554.86 336.21 476.50 764.40 642.64 294.39 253.73 273.82 459.99 498.17 661.29 291.53 332.62 455.95 616.95 213.54 605.70 216.10 299.56 458.29 757.90 142.63 338.64 111.13 544.95 301.30 388.70 498.98 689.57 855.88 90.61 504.00 611.87 175.15 325.53 356.06 557.71 606.89 236.34 522.79 247.18 632.12 61.34 602.00 520.20 349.05 556.01 393.49 493.47
835.51 540.32 558.36 626.30 522.83 438.83 725.23 89.08 724.08 271.17 573.70 457.47 476.16 911.38 770.66 1034.26 410.28 897.67 465.08 221.42 203.09 603.77 967.09 649.91 513.39 623.90 459.00 142.01 258.57 662.64 374.46 77.56 317.37 585.98 382.98 201.03 784.63 1153.17 470.99 423.30 312.25 632.79 0.00 247.81 360.48 875.92 991.56 971.23 610.72 445.67 709.62 797.45 1014.57 621.30 548.73 195.78 698.22 587.54 379.06 470.99 381.44 990.50 654.25 605.17 610.14 451.35 686.77 799.44 528.71 485.05 499.46 921.75 825.89 529.23 863.45 528.45 666.50 591.25 277.43 519.04 972.44 440.36 680.57 392.49 437.78 464.43 609.02 675.70 304.91 1123.29 782.40 1032.70 842.59 172.60 571.45 254.89 1030.50 649.09 1032.16 954.31 212.43
1083.32 660.00 593.94 576.41 691.44 409.85 777.85 293.61 790.60 203.44 574.51 537.44 285.65 917.20 741.68 975.76 576.17 884.29 383.60 469.23 63.81 559.48 954.02 729.88 484.78 758.54 312.35 389.82 350.36 472.13 312.79 206.85 231.53 528.39 237.73 286.53 788.00 1032.15 304.51 394.69 366.42 532.63 247.81 0.00 331.87 824.57 922.93 943.26 770.71 255.16 794.42 926.76 980.27 664.54 637.86 353.45 551.57 537.65 349.99 442.38 190.93 946.25 513.88 658.60 581.16 271.46 818.05 746.17 382.06 455.98 470.85 922.86 679.24 518.31 871.27 519.69 472.64 591.30 356.85 609.24 1052.41 550.01 623.24 231.08 307.20 455.67 562.13 632.52 526.71 1094.22 768.97 998.36 779.81 111.81 542.38 441.11 1001.89 728.51 975.57 926.12 193.49
967.46 686.88 579.10 265.82 718.32 78.35 765.79 449.56 678.85 244.79 571.50 455.27 212.05 609.58 410.18 694.63 452.90 684.61 104.60 581.90 313.57 272.26 666.80 649.57 152.91 661.08 326.30 489.37 582.61 338.30 136.57 438.04 218.97 225.50 274.31 361.36 548.29 792.69 181.18 62.82 286.70 355.49 360.48 331.87 0.00 639.86 697.53 677.20 768.87 181.56 664.39 815.01 716.12 545.05 611.53 556.26 445.96 227.06 219.89 110.51 206.78 703.08 440.28 521.71 249.66 126.25 743.98 438.96 348.55 201.20 138.98 649.69 570.24 212.86 686.56 254.24 388.79 468.84 447.71 632.38 797.46 782.26 365.25 226.68 285.60 227.43 248.54 315.22 624.16 820.26 510.98 738.67 595.10 393.76 324.87 603.55 670.02 596.72 732.67 703.09 365.17
626.46 655.44 504.84 542.43 624.00 579.82 636.28 793.29 545.23 723.50 524.27 600.54 761.14 125.93 481.75 280.27 567.05 79.66 602.98 784.77 790.32 392.45 155.99 596.50 511.80 491.85 828.22 742.12 906.64 683.44 698.93 876.28 721.96 511.93 834.34 719.20 250.57 420.90 759.37 577.04 563.67 291.94 875.92 824.57 639.86 0.00 296.33 303.37 711.89 787.04 530.77 653.65 308.04 473.50 656.40 989.88 934.58 546.24 504.14 565.76 751.93 235.10 945.51 436.49 485.85 727.78 695.56 219.21 897.64 487.42 563.60 218.96 1026.51 427.00 69.05 403.07 766.41 503.79 604.94 686.09 573.87 1106.29 343.58 795.94 802.23 467.09 536.27 551.41 773.28 373.45 264.55 295.63 44.76 862.24 353.28 818.24 323.26 364.60 292.32 191.07 736.60
861.16 851.58 662.50 446.00 859.23 621.05 861.14 902.48 798.71 842.51 681.93 738.83 767.73 174.83 499.22 52.83 753.73 266.34 612.21 976.91 953.89 503.53 159.53 744.92 618.46 728.09 895.19 934.26 1071.97 712.28 785.43 1069.12 786.17 510.75 850.76 887.80 241.71 202.90 729.21 657.67 769.46 521.75 991.56 922.93 697.53 296.33 0.00 20.33 947.12 787.95 784.25 840.33 57.34 651.01 762.09 1148.55 1029.85 484.76 702.65 596.81 804.88 61.23 974.30 702.04 502.58 757.12 880.95 308.21 904.23 617.37 558.55 139.46 1012.44 567.53 263.42 593.31 735.32 654.78 797.08 791.78 674.72 1271.62 432.58 776.40 905.37 635.60 492.56 477.36 918.44 205.92 349.80 75.43 303.31 997.27 510.26 1010.38 83.49 608.45 52.64 169.77 914.37
881.49 871.91 682.83 466.33 879.56 600.72 870.74 882.15 795.14 822.18 702.26 759.16 754.95 181.87 500.14 73.16 774.06 286.67 591.88 983.95 933.56 523.86 179.86 765.25 617.92 711.57 890.69 941.30 1051.64 719.32 767.82 1048.79 765.84 531.08 830.43 894.84 238.14 182.57 749.54 637.34 769.84 511.52 971.23 943.26 677.20 303.37 20.33 0.00 967.45 785.44 780.68 860.66 43.34 671.34 782.42 1136.88 1009.52 505.09 703.03 576.48 784.55 68.27 973.27 709.00 522.91 736.79 901.28 328.54 891.45 597.04 538.22 146.50 998.44 553.53 246.90 596.55 755.65 641.70 804.12 812.11 695.05 1251.29 420.91 783.44 899.90 621.60 512.89 484.40 898.11 191.92 355.48 61.47 323.64 976.94 517.30 1017.42 65.88 599.06 72.97 190.10 894.04
392.89 110.71 331.18 811.24 87.89 719.24 199.38 579.22 267.44 772.11 321.81 355.27 934.49 837.82 969.73 919.54 422.82 680.78 745.49 432.89 721.32 688.37 812.42 227.03 740.54 309.28 977.23 468.71 526.79 972.86 756.99 646.63 747.41 824.65 901.21 569.03 806.89 1080.29 908.34 745.45 635.77 615.17 610.72 770.71 768.87 711.89 947.12 967.45 0.00 910.64 264.35 257.10 989.71 369.40 205.58 634.96 1144.79 772.48 597.22 775.61 846.41 927.86 1114.29 389.61 841.71 849.54 117.11 735.75 934.05 680.63 773.54 900.00 1231.23 595.41 725.67 605.46 1023.04 391.86 413.86 175.89 555.38 726.44 705.78 841.81 923.30 541.44 803.62 867.70 346.12 1009.26 690.51 974.55 750.36 731.63 676.51 399.42 979.69 451.00 945.42 833.19 610.62
1114.40 815.83 692.71 391.69 822.75 227.60 861.15 484.21 860.41 225.77 711.57 612.18 30.49 716.67 517.27 840.78 544.63 822.57 221.91 619.26 242.58 399.18 771.77 804.35 280.53 801.40 144.74 507.24 598.24 265.26 214.32 454.73 217.27 363.04 92.75 408.96 697.54 951.38 58.74 244.38 413.44 495.10 445.67 255.16 181.56 787.04 787.95 785.44 910.64 0.00 845.95 965.08 828.78 713.04 758.47 545.22 353.64 352.93 366.83 292.07 64.23 823.41 258.72 671.63 356.75 77.00 873.29 588.21 166.99 315.64 276.10 760.21 464.17 394.42 806.57 383.97 259.11 615.78 512.68 788.01 979.02 742.83 503.21 108.24 162.22 395.42 384.07 422.31 670.14 953.88 643.20 846.91 742.28 359.69 451.79 619.88 851.32 714.03 839.17 808.06 315.92
327.32 239.31 208.18 772.60 267.77 701.38 122.31 620.54 14.46 730.82 221.10 332.01 876.44 656.70 886.24 736.49 356.26 569.73 697.94 564.74 730.61 582.96 651.12 65.73 702.31 102.81 964.28 573.63 613.66 931.82 747.77 737.94 708.94 707.85 888.26 636.37 542.54 862.15 845.57 652.48 512.77 505.97 709.62 794.42 664.39 530.77 784.25 780.68 264.35 845.95 0.00 150.62 821.35 208.10 191.54 721.83 1110.35 736.54 541.10 737.09 805.85 748.41 1070.40 259.13 749.03 790.64 164.79 627.68 984.23 614.04 732.50 679.66 1234.63 563.26 567.48 520.24 978.45 292.15 481.20 221.23 394.08 813.31 590.31 842.76 933.30 511.66 767.68 814.59 410.73 868.94 634.89 826.40 486.01 717.59 530.35 549.16 803.74 261.29 787.45 632.32 611.57
176.70 344.77 338.15 823.10 344.99 822.25 159.86 746.09 136.16 833.79 357.58 440.62 979.23 778.15 978.24 812.75 420.45 573.99 824.15 689.99 881.23 680.76 688.56 216.35 790.41 173.55 1074.27 655.44 751.90 1061.79 850.74 875.01 831.84 810.17 1022.25 776.17 693.16 999.16 940.71 784.04 635.67 613.00 797.45 926.76 815.01 653.65 840.33 860.66 257.10 965.08 150.62 0.00 882.92 276.79 338.86 860.07 1241.79 784.34 644.07 828.58 939.84 817.12 1141.14 327.82 817.72 910.53 256.23 741.69 1095.63 695.95 862.47 776.14 1334.88 634.00 614.93 590.98 1034.90 395.12 628.52 368.55 347.74 951.55 703.61 964.46 1083.92 594.41 815.48 879.56 561.35 975.47 768.30 915.76 636.63 864.91 674.34 656.52 855.83 332.03 824.89 724.85 733.27
918.50 894.17 692.70 450.30 901.82 644.06 914.08 925.49 835.81 861.49 712.13 773.14 798.29 186.54 491.08 87.14 796.32 308.93 635.22 968.38 962.90 537.84 216.87 802.26 622.76 739.80 919.82 929.84 1081.01 717.98 758.76 1050.65 805.15 515.05 873.30 865.09 278.81 202.43 786.55 660.23 727.17 554.86 1014.57 980.27 716.12 308.04 57.34 43.34 989.71 828.78 821.35 882.92 0.00 691.63 819.43 1180.22 1052.86 489.06 678.51 605.61 827.89 72.94 947.12 684.50 506.88 780.13 934.27 344.57 934.79 595.41 581.56 145.16 955.10 510.19 275.13 553.21 739.62 685.04 808.79 843.95 732.06 1280.66 464.25 788.11 914.84 578.26 496.86 483.06 941.45 148.58 329.33 35.32 337.62 1020.28 521.97 1001.85 56.82 642.40 109.98 215.56 892.41
453.49 303.26 70.60 567.20 313.89 558.82 258.59 532.22 222.56 557.00 90.03 163.83 702.44 560.96 701.45 658.98 218.68 541.10 555.38 427.16 645.82 428.27 611.34 142.37 516.29 116.03 797.48 514.19 588.00 789.37 573.95 684.50 555.05 569.40 769.48 499.38 450.13 770.38 663.92 509.92 358.88 336.21 621.30 664.54 545.05 473.50 651.01 671.34 369.40 713.04 208.10 276.79 691.63 0.00 249.31 696.17 973.02 528.44 367.28 551.79 711.89 624.70 922.77 51.03 540.93 657.11 286.73 464.90 818.84 445.10 590.05 546.47 1067.27 359.88 520.20 372.61 779.00 118.33 395.44 271.79 470.72 787.65 426.82 714.98 830.65 317.62 559.58 606.49 410.15 699.35 500.75 726.44 428.74 589.46 397.55 460.63 713.94 202.16 676.10 575.05 531.81
515.56 121.84 178.71 706.46 117.69 608.41 179.00 478.01 206.00 622.39 159.28 209.07 741.28 755.10 823.53 788.38 276.62 707.08 634.66 391.09 575.12 564.94 711.20 125.81 593.71 282.56 831.03 406.72 422.12 866.45 598.31 621.09 623.21 680.66 755.01 444.83 621.31 964.99 702.76 599.25 458.45 476.50 548.73 637.86 611.53 656.40 762.09 782.42 205.58 758.47 191.54 338.86 819.43 249.31 0.00 530.29 1047.44 667.70 391.64 673.76 748.40 823.32 934.34 247.06 736.93 681.47 222.46 573.22 877.78 497.63 670.91 758.43 1140.54 449.21 725.45 486.49 889.32 256.39 289.66 29.69 454.16 621.77 560.84 717.61 800.47 497.32 698.84 762.92 292.08 895.38 544.31 837.52 677.55 526.05 537.84 357.62 845.58 404.80 814.73 747.49 486.42
1027.85 559.15 625.57 795.90 590.59 607.04 709.29 265.79 736.29 441.92 645.00 634.18 545.25 1041.41 925.14 1150.91 572.39 1035.33 580.79 269.01 398.87 735.38 1071.94 656.10 697.18 743.52 581.03 337.79 108.17 778.95 471.78 146.60 467.39 770.21 550.04 396.81 949.67 1256.82 583.77 619.08 468.26 764.40 195.78 353.45 556.26 989.88 1148.55 1136.88 634.96 545.22 721.83 860.07 1180.22 696.17 530.29 0.00 820.25 783.32 510.67 666.77 537.10 1152.09 732.53 693.92 774.57 567.96 603.84 840.34 650.74 616.66 669.54 1086.79 947.92 678.99 1036.58 680.37 804.33 718.16 437.59 559.98 984.45 244.58 715.97 560.23 516.06 616.35 777.23 840.13 366.16 1254.90 861.70 1149.59 945.12 241.64 703.06 235.54 1147.00 777.44 1128.40 1091.43 329.04
1334.63 1052.42 940.43 640.65 1056.90 443.89 1163.20 787.30 1124.81 479.70 959.86 901.23 377.03 975.12 608.94 1025.86 856.80 1009.78 417.64 888.18 495.13 621.30 1005.19 1049.85 534.03 1068.24 239.22 758.78 817.16 344.79 514.90 673.65 536.04 607.06 315.24 673.40 867.43 1078.08 391.33 463.10 696.62 642.64 698.22 551.57 445.96 934.58 1029.85 1009.52 1144.79 353.64 1110.35 1241.79 1052.86 973.02 1047.44 820.25 0.00 602.64 657.25 520.41 397.65 995.84 113.10 921.99 615.20 367.42 1162.82 804.50 293.00 599.81 506.39 917.61 175.04 613.14 981.28 656.16 352.08 906.20 803.10 1032.66 1243.42 927.72 690.42 400.43 304.19 673.39 614.08 579.71 921.68 1149.11 816.42 1024.90 889.82 578.61 581.30 872.43 1043.20 909.76 1047.24 986.83 606.34
961.04 661.77 545.76 38.76 693.21 186.89 768.53 676.62 751.00 435.86 565.19 538.93 322.44 429.15 229.75 537.59 500.26 549.12 213.14 676.68 473.84 275.56 518.15 670.81 166.84 644.47 430.76 629.58 741.58 323.71 363.63 658.15 387.10 93.21 417.59 512.23 462.89 663.86 360.96 201.16 426.91 294.39 587.54 537.65 227.06 546.24 484.76 505.09 772.48 352.93 736.54 784.34 489.06 528.44 667.70 783.32 602.64 0.00 360.10 116.55 402.34 496.80 489.54 477.41 69.23 337.49 780.82 364.48 458.94 254.11 124.39 433.12 583.41 218.49 583.26 261.51 250.56 515.79 565.17 638.01 947.07 922.56 261.87 422.83 487.06 286.56 31.14 95.22 706.49 637.64 301.94 524.38 524.53 563.11 270.71 710.15 532.73 636.27 537.40 554.44 495.65
747.57 513.48 361.86 354.55 509.33 216.77 564.15 405.61 555.56 230.75 360.81 389.43 397.32 578.81 528.02 675.41 321.88 583.80 243.02 418.38 286.18 224.71 619.25 509.65 202.07 483.31 471.23 269.48 402.50 474.81 206.67 372.14 262.98 341.81 439.17 215.06 535.21 815.26 369.06 221.26 66.81 253.73 379.06 349.99 219.89 504.14 702.65 703.03 597.22 366.83 541.10 644.07 678.51 367.28 391.64 510.67 657.25 360.10 0.00 282.12 356.76 641.42 625.55 316.25 367.50 289.83 614.10 425.88 521.97 105.99 279.27 613.04 748.90 168.32 573.19 169.70 547.23 248.95 370.23 421.33 730.00 602.15 301.51 389.16 494.94 105.68 380.94 433.06 418.37 744.23 427.51 699.44 500.91 378.39 192.39 421.27 660.45 423.67 723.10 597.92 239.74
1005.28 709.29 562.58 155.31 732.70 100.76 784.89 560.07 751.55 333.07 581.55 465.32 283.87 545.70 346.30 584.12 448.84 626.95 102.77 667.96 424.08 199.40 593.94 671.36 80.05 667.82 314.21 520.80 655.45 237.58 247.08 548.55 276.73 138.93 331.46 417.72 469.19 682.18 291.69 84.61 318.13 273.82 470.99 442.38 110.51 565.76 596.81 576.48 775.61 292.07 737.09 828.58 605.61 551.79 673.76 666.77 520.41 116.55 282.12 0.00 295.44 613.35 499.65 543.50 185.78 236.76 694.69 401.77 383.92 176.13 38.26 539.18 580.65 234.65 612.46 277.67 314.58 509.34 498.69 644.70 869.09 836.43 307.59 336.70 379.18 234.17 147.69 211.77 655.07 753.21 418.49 637.95 521.00 476.98 252.01 659.91 642.36 594.89 649.45 630.23 409.52
1104.33 775.11 657.60 415.68 758.52 218.92 856.34 459.70 820.31 163.75 677.03 595.16 94.72 750.15 550.75 816.34 608.86 826.10 192.67 558.83 178.35 403.20 797.74 740.12 309.06 766.29 158.43 482.80 534.01 281.20 150.09 390.50 156.84 366.57 82.41 364.80 671.87 967.12 113.58 238.13 353.01 459.99 381.44 190.93 206.78 751.93 804.88 784.55 846.41 64.23 805.85 939.84 827.89 711.89 748.40 537.10 397.65 402.34 356.76 295.44 0.00 759.18 322.95 669.72 390.23 80.53 809.06 579.53 201.86 374.84 281.42 793.69 499.04 388.17 798.63 348.86 323.34 602.42 471.96 723.78 1003.19 702.11 506.74 44.01 151.88 412.88 371.20 455.79 609.81 939.23 647.22 846.02 707.17 295.46 455.81 555.65 848.42 684.79 857.52 834.03 275.20
861.56 832.32 666.83 507.23 839.97 624.73 854.67 924.20 762.87 812.66 686.26 743.16 810.05 113.60 460.47 57.16 734.47 247.08 650.98 915.68 904.57 501.64 153.06 738.45 616.57 666.86 876.38 873.03 1043.92 651.05 757.83 1013.56 756.32 508.67 800.36 826.57 205.87 250.84 771.53 671.35 708.23 498.17 990.50 946.25 703.08 235.10 61.23 68.27 927.86 823.41 748.41 817.12 72.94 624.70 823.32 1152.09 995.84 496.80 641.42 613.35 759.18 0.00 913.12 671.59 473.52 775.33 872.42 315.20 882.45 620.36 606.49 78.23 994.12 582.62 202.19 591.42 720.47 621.82 735.85 823.45 735.95 1243.57 439.04 715.17 844.14 595.16 523.94 416.13 904.65 180.05 308.83 108.26 279.86 997.97 449.03 949.15 89.24 599.70 113.87 189.35 881.16
1317.84 1044.00 888.78 528.30 1026.40 475.36 1080.64 726.86 1080.34 453.93 908.21 827.58 263.93 913.40 617.30 943.14 803.35 996.26 472.77 835.92 464.48 632.62 922.47 1060.11 539.25 967.59 213.45 671.06 729.44 262.07 419.27 585.93 475.99 562.06 284.59 585.68 892.32 1078.91 278.23 503.10 666.74 661.29 654.25 513.88 440.28 945.51 974.30 973.27 1114.29 258.72 1070.40 1141.14 947.12 922.77 934.34 732.53 113.10 489.54 625.55 499.65 322.95 913.12 0.00 871.74 553.48 335.72 1078.24 818.39 180.24 574.36 461.39 834.89 288.14 593.18 996.43 550.16 238.98 804.44 740.85 964.03 1237.74 901.95 730.72 345.44 216.47 614.18 520.68 496.99 833.96 1052.97 791.48 911.80 908.47 490.89 685.23 822.85 993.97 964.89 964.52 958.76 574.64
504.52 311.96 68.35 516.17 301.72 507.79 291.12 532.44 273.59 505.97 87.78 164.05 651.41 562.42 676.41 678.02 216.43 516.15 504.35 424.91 594.79 377.24 592.10 193.40 465.26 167.06 746.45 463.16 585.75 744.28 522.92 682.73 545.33 530.37 718.45 499.60 501.16 719.35 612.89 458.89 372.94 291.53 605.17 658.60 521.71 436.49 702.04 709.00 389.61 671.63 259.13 327.82 684.50 51.03 247.06 693.92 921.99 477.41 316.25 543.50 669.72 671.59 871.74 0.00 546.64 606.08 337.76 413.87 779.29 394.07 544.96 597.50 1016.24 308.85 505.54 321.58 727.97 67.30 369.58 260.10 521.75 785.40 382.14 664.38 787.92 323.35 508.55 572.63 380.37 648.32 498.50 719.82 433.78 589.68 352.87 458.38 720.53 241.76 704.34 580.09 545.87
994.42 731.00 611.53 56.58 762.44 171.31 799.52 616.99 763.49 386.24 630.96 550.70 336.53 359.92 160.52 511.71 545.81 564.08 197.56 734.46 525.87 232.11 454.38 683.30 165.43 656.96 463.99 561.46 770.00 300.48 302.79 662.51 371.52 121.33 436.11 527.58 404.58 594.63 298.01 220.21 434.31 332.62 610.14 581.16 249.66 485.85 502.58 522.91 841.71 356.75 749.03 817.72 506.88 540.93 736.93 774.57 615.20 69.23 367.50 185.78 390.23 473.52 553.48 546.64 0.00 321.91 807.21 295.25 473.03 261.51 157.62 403.46 643.55 287.72 545.46 317.27 319.79 542.05 628.92 707.24 954.47 906.98 289.99 424.34 452.58 355.79 50.42 65.56 724.36 653.57 366.38 525.63 525.03 596.34 284.72 713.25 538.84 655.42 533.09 490.67 480.07
1037.40 738.83 651.69 350.79 770.27 150.60 853.98 499.80 805.10 225.12 650.64 581.52 107.49 679.93 482.43 784.01 563.51 745.57 144.91 582.20 258.88 355.44 742.81 775.82 246.15 773.14 202.51 446.52 578.99 242.01 147.48 421.36 210.53 286.04 162.94 331.96 620.54 916.54 79.23 189.07 356.64 455.95 451.35 271.46 126.25 727.78 757.12 736.79 849.54 77.00 790.64 910.53 780.13 657.11 681.47 567.96 367.42 337.49 289.83 236.76 80.53 775.33 335.72 606.08 321.91 0.00 806.45 511.21 232.14 327.08 213.10 716.48 459.07 339.11 790.46 380.49 324.98 538.78 435.68 711.16 922.66 665.83 426.21 102.43 231.40 353.68 320.79 387.47 609.42 928.71 571.94 798.26 703.13 340.44 408.05 553.70 796.27 637.03 809.76 779.10 238.92
432.93 195.38 319.16 819.58 163.94 718.93 111.41 656.41 150.33 761.12 299.73 366.79 873.61 821.49 958.94 864.10 329.96 625.34 745.18 511.98 754.24 663.48 729.75 144.36 710.34 217.50 967.49 544.76 495.67 855.75 658.97 711.80 766.17 757.10 891.47 626.15 707.33 963.18 885.68 731.11 599.70 616.95 686.77 818.05 743.98 695.56 880.95 901.28 117.11 873.29 164.79 256.23 934.27 286.73 222.46 603.84 1162.82 780.82 614.10 694.69 809.06 872.42 1078.24 337.76 807.21 806.45 0.00 713.67 1010.10 656.53 656.43 817.33 1198.82 584.62 670.23 580.57 938.72 405.06 470.98 208.81 471.23 695.32 642.92 842.28 947.24 516.55 811.96 872.77 430.79 892.15 669.44 956.38 650.80 734.22 654.98 516.53 890.96 333.89 828.31 766.04 667.74
811.48 638.12 433.37 351.83 647.86 360.61 617.28 736.63 642.14 603.71 413.94 484.88 572.52 265.39 262.54 358.96 552.43 298.87 386.86 782.07 699.50 203.83 231.60 569.31 323.18 580.93 609.01 690.15 778.53 588.48 560.23 798.02 560.82 292.72 625.41 611.03 109.33 476.36 540.16 409.51 487.48 213.54 799.44 746.17 438.96 219.21 308.21 328.54 735.75 588.21 627.68 741.69 344.57 464.90 573.22 840.34 804.50 364.48 425.88 401.77 579.53 315.20 818.39 413.87 295.25 511.21 713.67 0.00 678.72 322.55 393.39 246.45 888.94 336.63 288.26 293.61 615.04 346.57 602.24 595.70 787.81 978.18 124.37 613.64 673.98 350.76 345.67 353.56 729.86 450.42 127.97 309.25 229.78 758.20 233.49 815.54 306.66 483.64 356.86 267.89 619.55
1269.54 877.60 842.68 497.70 846.16 348.22 977.43 599.43 998.69 301.53 843.35 733.94 136.50 832.95 603.72 912.47 711.62 953.54 369.56 714.12 325.62 505.19 891.80 918.50 421.84 934.87 69.71 589.27 647.65 272.95 351.14 504.14 357.87 482.78 145.73 463.88 788.05 1066.10 175.02 331.75 554.04 605.70 528.71 382.06 348.55 897.64 904.23 891.45 934.05 166.99 984.23 1095.63 934.79 818.84 877.78 650.74 293.00 458.94 521.97 383.92 201.86 882.45 180.24 779.29 473.03 232.14 1010.10 678.72 0.00 470.13 382.11 804.22 297.18 481.79 944.34 524.81 355.92 731.49 619.05 871.05 1146.01 758.21 634.18 230.92 134.68 549.86 490.08 466.32 752.17 1062.50 749.21 952.92 852.88 409.10 557.80 702.92 957.33 861.68 933.85 928.09 460.37
853.56 618.73 405.86 248.56 592.74 187.28 628.63 511.60 628.50 291.42 425.29 374.33 346.13 525.93 422.03 569.42 355.81 562.37 182.17 524.37 392.17 118.72 513.26 580.66 96.08 522.40 460.38 375.47 508.49 368.82 300.70 478.13 276.84 235.82 403.30 321.05 431.88 709.27 365.17 138.38 172.80 216.10 485.05 455.98 201.20 487.42 617.37 597.04 680.63 315.64 614.04 695.95 595.41 445.10 497.63 616.66 599.81 254.11 105.99 176.13 374.84 620.36 574.36 394.07 261.51 327.08 656.53 322.55 470.13 0.00 175.78 556.41 711.89 85.22 554.74 104.97 451.79 354.94 416.62 504.74 692.96 708.14 243.01 409.83 472.77 139.98 274.95 327.07 524.36 638.24 362.74 630.73 463.28 435.65 171.33 527.26 629.21 529.66 649.04 549.55 297.00
1010.78 671.03 524.32 163.15 702.47 62.50 747.09 588.54 746.96 319.05 543.75 464.97 245.61 517.54 318.14 611.38 460.08 588.69 88.75 635.58 430.43 199.05 593.59 697.43 79.70 688.92 352.47 530.22 617.19 199.32 255.50 533.76 262.71 100.67 293.20 443.79 430.93 720.44 259.63 110.68 344.20 299.56 499.46 470.85 138.98 563.60 558.55 538.22 773.54 276.10 732.50 862.47 581.56 590.05 670.91 669.54 506.39 124.39 279.27 38.26 281.42 606.49 461.39 544.96 157.62 213.10 656.43 393.39 382.11 175.78 0.00 531.11 542.39 236.11 610.30 279.13 282.29 500.36 536.95 644.35 868.74 798.17 269.33 298.44 362.67 272.43 155.53 219.61 666.31 730.14 415.06 599.69 518.84 438.72 251.66 669.05 604.10 580.87 611.19 629.88 371.26
792.81 830.27 617.07 460.04 833.22 574.77 789.19 923.79 694.12 788.01 636.50 698.10 739.99 93.03 475.30 112.51 719.85 245.03 601.02 973.63 859.05 437.69 87.58 672.97 557.04 662.50 825.20 882.52 1015.54 572.82 688.64 985.18 774.98 430.44 749.18 793.56 137.12 283.57 701.47 593.12 679.85 458.29 921.75 922.86 649.69 218.96 139.46 146.50 900.00 760.21 679.66 776.14 145.16 546.47 758.43 1086.79 917.61 433.12 613.04 539.18 793.69 78.23 834.89 597.50 403.46 716.48 817.33 246.45 804.22 556.41 531.11 0.00 915.89 570.49 224.57 527.47 642.24 543.59 800.62 745.22 778.04 1215.19 370.82 764.98 818.65 584.62 453.88 337.90 917.02 258.28 230.60 180.48 211.11 929.22 420.65 1007.10 167.47 576.26 129.63 123.87 852.78
1496.47 1153.84 1027.59 622.17 1143.34 545.31 1250.36 896.61 1249.09 598.71 1047.02 1007.36 433.68 1003.47 698.30 1024.14 943.74 1084.24 571.56 1011.30 622.80 741.44 1003.21 1180.96 622.09 1161.33 366.89 880.32 944.83 343.07 606.55 801.32 654.06 596.22 442.91 761.06 973.32 1157.53 472.20 594.21 815.71 757.90 825.89 679.24 570.24 1026.51 1012.44 998.44 1231.23 464.17 1234.63 1334.88 955.10 1067.27 1140.54 947.92 175.04 583.41 748.90 580.65 499.04 994.12 288.14 1016.24 643.55 459.07 1198.82 888.94 297.18 711.89 542.39 915.89 0.00 744.25 1077.43 787.27 342.59 997.85 869.48 1163.77 1343.37 1055.39 764.88 528.10 431.86 797.67 614.55 577.99 1043.22 1103.68 885.35 990.42 1005.08 706.28 756.34 1000.10 1011.92 1002.85 1045.52 966.92 672.72
810.70 533.51 377.20 257.25 507.52 198.94 599.97 512.63 573.20 351.30 396.63 320.44 424.91 527.20 374.32 525.46 293.54 506.66 195.50 458.19 454.50 132.80 527.34 502.25 156.41 460.45 510.07 419.65 570.82 435.43 306.92 540.46 294.96 231.45 434.05 354.90 445.96 712.62 390.04 150.04 216.98 142.63 529.23 518.31 212.86 427.00 567.53 553.53 595.41 394.42 563.26 634.00 510.19 359.88 449.21 678.99 613.14 218.49 168.32 234.65 388.17 582.62 593.18 308.85 287.72 339.11 584.62 336.63 481.79 85.22 236.11 570.49 744.25 0.00 473.70 43.02 469.05 297.30 346.68 419.52 778.18 770.47 233.24 421.49 498.46 68.07 249.63 313.71 499.77 658.77 366.34 545.51 382.24 520.87 149.95 491.66 567.01 459.74 605.08 528.55 382.22
673.16 630.13 573.89 589.80 637.78 648.87 664.31 858.73 577.42 770.20 593.32 599.83 807.84 185.54 550.80 259.35 532.28 44.89 649.68 853.82 859.37 439.15 136.99 621.42 558.50 464.67 897.27 811.17 962.88 734.36 745.63 941.01 768.66 525.05 881.04 777.52 238.95 429.47 818.92 623.74 632.72 338.64 863.45 871.27 686.56 69.05 263.42 246.90 725.67 806.57 567.48 614.93 275.13 520.20 725.45 1036.58 981.28 583.26 573.19 612.46 798.63 202.19 996.43 505.54 545.46 790.46 670.23 288.26 944.34 554.74 610.30 224.57 1077.43 473.70 0.00 449.77 817.33 514.03 673.99 725.78 604.10 1162.53 364.25 842.64 848.93 513.79 595.88 521.26 738.51 382.24 281.32 308.37 91.46 908.94 399.98 887.29 291.43 433.65 273.32 142.77 805.65
767.68 559.28 358.76 283.94 544.80 241.96 569.48 500.00 530.18 394.32 366.14 277.42 414.46 495.70 417.34 540.48 277.79 482.73 238.52 491.48 455.88 89.78 484.32 509.95 199.43 417.43 507.29 418.87 572.20 473.79 295.86 541.84 337.98 219.19 431.27 350.85 402.94 734.45 417.12 193.06 216.20 111.13 528.45 519.69 254.24 403.07 593.31 596.55 605.46 383.97 520.24 590.98 553.21 372.61 486.49 680.37 656.16 261.51 169.70 277.67 348.86 591.42 550.16 321.58 317.27 380.49 580.57 293.61 524.81 104.97 279.13 527.47 787.27 43.02 449.77 0.00 512.07 254.28 311.65 456.80 735.33 771.85 201.74 392.87 500.74 64.02 292.65 356.73 484.02 701.79 323.32 588.53 358.31 527.78 142.39 524.95 600.27 449.91 620.10 504.62 389.13
1211.60 912.33 796.32 289.32 943.77 344.79 999.82 715.77 992.91 395.33 796.48 680.25 289.60 679.71 438.20 750.49 707.99 799.68 336.20 848.65 473.64 481.34 729.82 912.72 361.99 895.03 369.77 762.16 823.00 82.97 390.14 679.49 451.67 343.77 293.75 598.41 713.22 886.30 317.85 325.97 559.49 544.95 666.50 472.64 388.79 766.41 735.32 755.65 1023.04 259.11 978.45 1034.90 739.62 779.00 889.32 804.33 352.08 250.56 547.23 314.58 323.34 720.47 238.98 727.97 319.79 324.98 938.72 615.04 355.92 451.79 282.29 642.24 342.59 469.05 817.33 512.07 0.00 766.35 753.58 859.63 1144.75 990.81 512.43 367.35 363.22 484.22 281.70 304.34 911.05 854.00 552.50 719.19 775.09 584.45 521.27 840.60 783.29 828.32 771.87 766.11 563.90
571.82 308.05 112.91 538.22 303.97 465.72 315.20 540.76 306.61 438.67 111.86 172.37 646.27 611.96 609.11 656.10 216.10 469.14 488.74 449.15 527.49 309.94 524.80 260.70 429.29 234.36 679.15 481.77 609.99 699.68 455.62 621.09 495.01 473.47 651.15 439.37 455.90 786.65 618.01 447.34 315.76 301.30 591.25 591.30 468.84 503.79 654.78 641.70 391.86 615.78 292.15 395.12 685.04 118.33 256.39 718.16 906.20 515.79 248.95 509.34 602.42 621.82 804.44 67.30 542.05 538.78 405.06 346.57 731.49 354.94 500.36 543.59 997.85 297.30 514.03 254.28 766.35 0.00 417.27 283.20 481.05 809.64 391.91 597.08 720.62 300.91 546.93 607.61 422.33 715.62 474.54 655.82 501.08 598.00 325.76 482.62 653.23 195.63 661.13 545.93 488.69
805.22 303.15 324.84 595.59 334.59 476.79 468.66 188.35 494.68 358.25 305.41 269.77 520.63 730.87 715.22 793.01 219.32 684.60 456.57 179.83 362.48 401.43 760.93 415.47 503.09 489.44 589.16 137.18 329.42 677.69 379.96 354.99 333.55 530.84 513.14 155.17 711.57 965.65 514.91 488.28 339.85 388.70 277.43 356.85 447.71 604.94 797.08 804.12 413.86 512.68 481.20 628.52 808.79 395.44 289.66 437.59 803.10 565.17 370.23 498.69 471.96 735.85 740.85 369.58 628.92 435.68 470.98 602.24 619.05 416.62 536.95 800.62 869.48 346.68 673.99 311.65 753.58 417.27 0.00 319.35 712.18 525.48 479.31 427.95 524.38 278.61 596.31 577.82 176.45 915.90 625.04 844.11 589.51 335.41 450.04 213.30 825.09 371.66 849.72 735.82 196.76
545.25 113.99 201.19 676.77 88.00 618.46 208.69 495.49 235.69 643.27 181.76 179.38 770.97 725.41 793.84 810.86 246.93 680.89 615.02 361.40 545.43 535.25 740.89 155.50 564.65 309.39 801.34 377.03 451.81 843.67 601.42 596.60 652.90 650.97 725.32 451.41 651.00 975.74 732.45 569.56 488.14 498.98 519.04 609.24 632.38 686.09 791.78 812.11 175.89 788.01 221.23 368.55 843.95 271.79 29.69 559.98 1032.66 638.01 421.33 644.70 723.78 823.45 964.03 260.10 707.24 711.16 208.81 595.70 871.05 504.74 644.35 745.22 1163.77 419.52 725.78 456.80 859.63 283.20 319.35 0.00 483.85 651.46 583.32 730.53 794.79 472.40 669.15 733.23 262.39 908.42 514.62 808.63 693.88 555.74 560.32 327.93 875.27 434.49 844.42 777.18 516.11
217.16 544.73 499.88 941.52 530.39 858.89 359.82 883.36 408.54 852.76 483.72 514.97 1009.51 699.80 973.80 696.27 564.10 606.42 832.64 845.25 992.39 763.83 707.59 328.35 789.04 425.82 1093.24 836.25 876.28 1061.78 934.03 1035.64 909.10 888.72 1065.24 850.52 820.79 822.68 978.64 831.34 723.15 689.57 972.44 1052.41 797.46 573.87 674.72 695.05 555.38 979.02 394.08 347.74 732.06 470.72 454.16 984.45 1243.42 947.07 730.00 869.09 1003.19 735.95 1237.74 521.75 954.47 922.66 471.23 787.81 1146.01 692.96 868.74 778.04 1343.37 778.18 604.10 735.33 1144.75 481.05 712.18 483.85 0.00 1075.93 780.18 1011.17 1083.06 774.28 967.91 934.89 673.35 841.11 659.84 699.94 618.63 940.60 711.22 811.78 711.06 340.52 648.41 671.30 883.23
1119.33 650.63 717.05 952.42 682.07 735.67 800.77 369.14 827.77 601.27 736.48 731.42 750.78 1158.87 1067.50 1277.56 663.87 1131.23 761.92 360.49 592.63 826.86 1209.78 747.58 804.22 881.65 688.50 434.59 199.65 907.84 710.62 391.18 657.61 898.84 743.29 490.28 1087.51 1391.85 745.06 784.57 559.74 855.88 440.36 550.01 782.26 1106.29 1271.62 1251.29 726.44 742.83 813.31 951.55 1280.66 787.65 621.77 244.58 927.72 922.56 602.15 836.43 702.11 1243.57 901.95 785.40 906.98 665.83 695.32 978.18 758.21 708.14 798.17 1215.19 1055.39 770.47 1162.53 771.85 990.81 809.64 525.48 651.46 1075.93 0.00 853.81 658.10 712.62 707.83 905.86 972.54 457.64 1320.82 999.54 1287.43 1103.06 438.20 794.54 327.02 1262.60 868.92 1219.88 1200.07 426.91
880.31 625.74 382.13 233.41 617.89 331.83 604.90 612.26 604.77 479.34 401.56 479.16 514.94 325.44 386.91 434.94 434.14 319.36 345.91 659.14 587.69 161.73 355.97 556.93 281.08 542.85 621.80 570.99 654.16 468.65 485.14 673.65 502.83 168.66 562.53 486.66 233.70 540.85 484.58 302.43 368.32 90.61 680.57 623.24 365.25 343.58 432.58 420.91 705.78 503.21 590.31 703.61 464.25 426.82 560.84 715.97 690.42 261.87 301.51 307.59 506.74 439.04 730.72 382.14 289.99 426.21 642.92 124.37 634.18 243.01 269.33 370.82 764.88 233.24 364.25 201.74 512.43 391.91 479.31 583.32 780.18 853.81 0.00 528.64 568.45 257.01 279.97 283.17 605.49 574.79 145.73 433.62 309.36 678.66 109.12 692.61 431.03 439.66 481.23 392.26 540.01
1136.73 731.10 674.98 453.22 762.54 253.03 815.79 417.48 828.30 158.41 667.38 551.15 129.92 782.36 584.86 772.33 618.70 848.00 236.68 574.47 189.40 447.21 810.32 784.13 348.58 810.30 161.21 438.79 578.02 325.21 183.31 413.63 200.85 388.47 85.19 324.23 627.86 966.01 157.59 271.45 397.02 504.00 392.49 231.08 226.68 795.94 776.40 783.44 841.81 108.24 842.76 964.46 788.11 714.98 717.61 560.23 400.43 422.83 389.16 336.70 44.01 715.17 345.44 664.38 424.34 102.43 842.28 613.64 230.92 409.83 298.44 764.98 528.10 421.49 842.64 392.87 367.35 597.08 427.95 730.53 1011.17 658.10 528.64 0.00 128.97 454.11 415.21 489.90 601.69 895.22 633.89 823.43 751.18 339.47 499.82 566.42 804.41 728.80 829.04 846.61 231.19
1242.51 827.53 791.35 464.54 835.41 334.27 944.76 526.86 947.76 281.95 796.35 680.12 166.29 812.50 613.10 901.30 706.85 881.89 308.02 619.45 249.36 518.55 905.58 867.57 424.41 918.17 64.97 454.59 512.97 350.61 288.27 369.46 290.59 399.79 69.47 369.21 756.83 1047.21 178.54 348.42 486.76 611.87 437.78 307.20 285.60 802.23 905.37 899.90 923.30 162.22 933.30 1083.92 914.84 830.65 800.47 516.06 304.19 487.06 494.94 379.18 151.88 844.14 216.47 787.92 452.58 231.40 947.24 673.98 134.68 472.77 362.67 818.65 431.86 498.46 848.93 500.74 363.22 720.62 524.38 794.79 1083.06 712.62 568.45 128.97 0.00 513.03 503.00 480.75 617.49 1024.19 714.18 950.16 757.47 274.42 571.16 606.38 933.38 800.14 948.28 903.78 360.16
771.11 581.76 372.62 324.50 560.40 267.01 562.15 466.96 526.12 336.43 392.05 293.02 425.91 559.72 442.39 593.53 225.47 546.75 263.57 458.44 391.86 146.93 541.47 445.93 224.48 433.65 540.16 354.85 508.18 471.75 312.35 477.82 348.35 283.21 488.17 286.83 460.09 780.69 408.61 218.11 152.18 175.15 464.43 455.67 227.43 467.09 635.60 621.60 541.44 395.42 511.66 594.41 578.26 317.62 497.32 616.35 673.39 286.56 105.68 234.17 412.88 595.16 614.18 323.35 355.79 353.68 516.55 350.76 549.86 139.98 272.43 584.62 797.67 68.07 513.79 64.02 484.22 300.91 278.61 472.40 774.28 707.83 257.01 454.11 513.03 0.00 317.70 381.78 431.70 726.84 387.34 613.58 422.33 463.76 199.54 468.14 635.08 484.02 673.15 568.64 325.11
992.18 692.91 576.90 46.56 724.35 170.19 799.67 667.41 782.14 404.72 596.33 564.14 353.58 410.34 210.94 545.39 531.40 580.26 196.44 707.82 499.43 260.38 504.80 701.95 178.87 675.61 461.90 611.88 772.72 333.13 353.21 661.39 370.40 111.31 434.99 536.02 455.00 645.05 348.43 202.91 436.43 325.53 609.02 562.13 248.54 536.27 492.56 512.89 803.62 384.07 767.68 815.48 496.86 559.58 698.84 777.23 614.08 31.14 380.94 147.69 371.20 523.94 520.68 508.55 50.42 320.79 811.96 345.67 490.08 274.95 155.53 453.88 614.55 249.63 595.88 292.65 281.70 546.93 596.31 669.15 967.91 905.86 279.97 415.21 503.00 317.70 0.00 115.98 737.63 645.44 333.08 532.18 554.51 594.25 288.81 741.29 553.68 659.51 545.20 541.09 478.95
1056.26 756.99 640.98 122.14 788.43 236.87 863.75 682.55 829.05 451.80 660.41 591.15 402.09 425.48 137.40 446.15 595.48 564.40 263.12 757.65 569.06 297.67 425.48 748.86 230.99 722.52 487.30 627.02 835.56 234.92 368.35 728.07 437.08 186.89 411.28 593.14 462.89 621.47 363.57 268.82 499.87 356.06 675.70 632.52 315.22 551.41 477.36 484.40 867.70 422.31 814.59 879.56 483.06 606.49 762.92 840.13 579.71 95.22 433.06 211.77 455.79 416.13 496.99 572.63 65.56 387.47 872.77 353.56 466.32 327.07 219.61 337.90 577.99 313.71 521.26 356.73 304.34 607.61 577.82 733.23 934.89 972.54 283.17 489.90 480.75 381.78 115.98 0.00 754.27 596.18 317.22 518.38 539.81 658.33 350.28 778.81 505.37 705.11 467.53 461.77 545.63
738.05 235.41 354.31 738.62 266.85 619.14 420.32 233.10 425.19 534.70 341.28 273.78 649.92 897.78 874.09 932.38 206.23 693.62 630.54 175.72 508.00 548.98 860.72 345.00 586.61 488.24 682.46 162.90 257.99 851.43 556.41 382.47 510.00 673.87 686.88 331.62 839.19 1080.68 611.40 585.08 351.56 557.71 304.91 526.71 624.16 773.28 918.44 898.11 346.12 670.14 410.73 561.35 941.45 410.15 292.08 366.16 921.68 706.49 418.37 655.07 609.81 904.65 833.96 380.37 724.36 609.42 430.79 729.86 752.17 524.36 666.31 917.02 1043.22 499.77 738.51 484.02 911.05 422.33 176.45 262.39 673.35 457.64 605.49 601.69 617.49 431.70 737.63 754.27 0.00 1028.69 722.80 959.58 765.96 477.51 496.37 153.76 963.99 464.78 971.08 846.03 370.50
964.63 960.28 716.67 598.88 950.04 792.64 939.44 1074.07 883.40 929.66 736.10 812.37 946.87 293.65 599.20 201.59 864.75 427.13 783.80 1073.23 1030.41 652.29 286.91 841.72 734.32 815.38 1056.43 1013.71 1146.73 831.10 866.88 1116.37 915.08 663.63 980.41 959.29 385.92 71.03 935.13 776.62 811.04 606.89 1123.29 1094.22 820.26 373.45 205.92 191.92 1009.26 953.88 868.94 975.47 148.58 699.35 895.38 1254.90 1149.11 637.64 744.23 753.21 939.23 180.05 1052.97 648.32 653.57 928.71 892.15 450.42 1062.50 638.24 730.14 258.28 1103.68 658.77 382.24 701.79 854.00 715.62 915.90 908.42 841.11 1320.82 574.79 895.22 1024.19 726.84 645.44 596.18 1028.69 0.00 435.18 141.17 382.93 1073.89 629.08 1106.70 164.94 738.05 227.59 321.74 935.24
804.29 628.61 430.15 309.80 602.62 458.92 641.49 738.26 649.35 605.34 449.58 467.50 612.71 286.02 313.96 343.11 534.75 247.18 454.55 786.71 713.69 244.02 318.18 569.16 363.37 594.75 728.91 696.99 799.89 552.14 600.42 799.65 628.51 314.39 674.86 612.66 160.95 461.12 630.31 448.16 494.32 236.34 782.40 768.97 510.98 264.55 349.80 355.48 690.51 643.20 634.89 768.30 329.33 500.75 544.31 861.70 816.42 301.94 427.51 418.49 647.22 308.83 791.48 498.50 366.38 571.94 669.44 127.97 749.21 362.74 415.06 230.60 885.35 366.34 281.32 323.32 552.50 474.54 625.04 514.62 659.84 999.54 145.73 633.89 714.18 387.34 333.08 317.22 722.80 435.18 0.00 294.01 222.59 770.84 235.12 798.00 376.18 585.39 360.23 286.01 632.19
917.10 875.36 724.16 485.62 896.63 662.19 926.53 943.62 840.86 857.21 723.19 761.51 816.42 169.70 516.43 122.46 828.76 341.77 653.35 1003.70 985.62 513.08 234.96 820.35 632.43 773.04 918.26 965.16 1087.78 753.30 784.11 1071.58 827.31 550.37 891.90 884.59 299.61 167.11 804.64 695.55 762.49 522.79 1032.70 998.36 738.67 295.63 75.43 61.47 974.55 846.91 826.40 915.76 35.32 726.44 837.52 1149.59 1024.90 524.38 699.44 637.95 846.02 108.26 911.80 719.82 525.63 798.26 956.38 309.25 952.92 630.73 599.69 180.48 990.42 545.51 308.37 588.53 719.19 655.82 844.11 808.63 699.94 1287.43 433.62 823.43 950.16 613.58 532.18 518.38 959.58 141.17 294.01 0.00 340.39 1038.41 507.05 1037.17 82.17 660.23 128.07 245.20 926.20
581.70 700.20 499.34 507.95 668.76 562.59 608.32 777.86 500.47 678.74 518.77 592.57 716.38 170.69 492.32 250.48 611.81 124.42 558.22 769.34 787.09 347.69 182.60 551.74 467.04 523.63 822.44 726.69 903.41 718.16 654.17 873.05 677.20 478.02 789.58 686.06 205.81 376.14 727.46 532.28 567.72 247.18 842.59 779.81 595.10 44.76 303.31 323.64 750.36 742.28 486.01 636.63 337.62 428.74 677.55 945.12 889.82 524.53 500.91 521.00 707.17 279.86 908.47 433.78 525.03 703.13 650.80 229.78 852.88 463.28 518.84 211.11 1005.08 382.24 91.46 358.31 775.09 501.08 589.51 693.88 618.63 1103.06 309.36 751.18 757.47 422.33 554.51 539.81 765.96 382.93 222.59 340.39 0.00 817.48 308.52 802.81 317.73 365.15 308.83 146.31 740.65
1008.11 638.56 549.46 601.87 643.74 447.41 705.05 261.68 732.05 271.85 541.86 425.63 390.18 910.71 756.86 1005.07 493.18 941.90 473.66 394.02 175.62 554.37 948.91 651.86 518.42 705.49 339.39 314.61 238.55 576.66 381.20 95.04 328.19 539.39 308.40 231.69 792.10 1143.96 409.04 456.58 311.58 632.12 172.60 111.81 393.76 862.24 997.27 976.94 731.63 359.69 717.59 864.91 1020.28 589.46 526.05 241.64 578.61 563.11 378.39 476.98 295.46 997.97 490.89 589.68 596.34 340.44 734.22 758.20 409.10 435.65 438.72 929.22 706.28 520.87 908.94 527.78 584.45 598.00 335.41 555.74 940.60 438.20 678.66 339.47 274.42 463.76 594.25 658.33 477.51 1073.89 770.84 1038.41 817.48 0.00 570.78 365.92 1038.84 681.36 1039.63 914.01 138.65
851.04 602.74 359.13 242.25 588.62 267.51 581.90 503.14 544.81 370.22 378.56 392.57 421.30 419.09 392.86 503.31 325.02 428.48 263.14 608.14 478.57 52.61 441.82 533.93 171.96 513.58 537.50 461.87 594.89 450.98 399.06 564.53 393.71 177.50 501.69 377.54 342.82 649.97 418.94 262.05 259.20 61.34 571.45 542.38 324.87 353.28 510.26 517.30 676.51 451.79 530.35 674.34 521.97 397.55 537.84 703.06 581.30 270.71 192.39 252.01 455.81 449.03 685.23 352.87 284.72 408.05 654.98 233.49 557.80 171.33 251.66 420.65 756.34 149.95 399.98 142.39 521.27 325.76 450.04 560.32 711.22 794.54 109.12 499.82 571.16 199.54 288.81 350.28 496.37 629.08 235.12 507.05 308.52 570.78 0.00 613.66 538.27 370.70 550.28 405.53 432.13
792.31 323.61 390.03 748.91 355.05 624.20 508.52 237.01 563.62 445.27 409.46 407.76 638.81 944.17 865.98 999.70 359.99 847.38 609.42 33.47 377.30 614.73 974.23 483.43 623.34 554.63 633.21 151.79 127.37 774.15 466.98 332.45 435.46 723.11 557.19 242.19 910.76 1177.73 600.29 575.30 354.46 602.00 254.89 441.11 603.55 818.24 1010.38 1017.42 399.42 619.88 549.16 656.52 1001.85 460.63 357.62 235.54 872.43 710.15 421.27 659.91 555.65 949.15 822.85 458.38 713.25 553.70 516.53 815.54 702.92 527.26 669.05 1007.10 1000.10 491.66 887.29 524.95 840.60 482.62 213.30 327.93 811.78 327.02 692.61 566.42 606.38 468.14 741.29 778.81 153.76 1106.70 798.00 1037.17 802.81 365.92 613.66 0.00 1038.39 541.90 1063.02 949.12 335.23
899.43 891.25 676.92 507.12 898.90 666.60 868.88 948.03 818.20 811.29 696.35 753.25 820.83 202.84 434.26 67.25 793.40 306.01 657.76 1004.92 946.63 510.49 167.27 752.66 629.84 756.10 915.67 929.93 1062.95 740.29 701.94 1032.59 809.14 571.87 889.60 875.51 295.11 180.23 812.70 703.22 727.26 520.20 1030.50 1001.89 670.02 323.26 83.49 65.88 979.69 851.32 803.74 855.83 56.82 713.94 845.58 1147.00 1043.20 532.73 660.45 642.36 848.42 89.24 993.97 720.53 538.84 796.27 890.96 306.66 957.33 629.21 604.10 167.47 1011.92 567.01 291.43 600.27 783.29 653.23 825.09 875.27 711.06 1262.60 431.03 804.41 933.38 635.08 553.68 505.37 963.99 164.94 376.18 82.17 317.73 1038.84 538.27 1038.39 0.00 622.87 62.65 203.56 900.19
508.73 356.17 272.76 612.95 379.87 518.37 271.68 560.01 258.61 634.30 266.20 282.69 725.18 490.53 746.18 555.62 258.55 444.26 492.12 551.49 708.43 423.31 520.59 278.99 542.66 158.48 806.69 508.84 669.27 745.35 630.34 725.15 602.54 548.20 730.67 526.83 563.92 741.29 686.66 537.58 406.37 349.05 649.09 728.51 596.72 364.60 608.45 599.06 451.00 714.03 261.29 332.03 642.40 202.16 404.80 777.44 909.76 636.27 423.67 594.89 684.79 599.70 964.89 241.76 655.42 637.03 333.89 483.64 861.68 529.66 580.87 576.26 1002.85 459.74 433.65 449.91 828.32 195.63 371.66 434.49 340.52 868.92 439.66 728.80 800.14 484.02 659.51 705.11 464.78 738.05 585.39 660.23 365.15 681.36 370.70 541.90 622.87 0.00 635.24 511.46 542.71
865.57 888.67 689.29 498.64 896.32 673.69 837.94 955.12 801.91 873.94 708.72 765.62 808.68 222.66 496.91 79.62 790.82 303.43 664.85 1029.55 971.72 530.32 136.33 721.72 649.67 737.99 947.83 986.90 1020.23 702.45 764.59 1095.24 838.81 560.07 878.81 923.19 247.53 174.27 781.85 710.31 789.91 556.01 1032.16 975.57 732.67 292.32 52.64 72.97 945.42 839.17 787.45 824.89 109.98 676.10 814.73 1128.40 1047.24 537.40 723.10 649.45 857.52 113.87 964.52 704.34 533.09 809.76 828.31 356.86 933.85 649.04 611.19 129.63 1045.52 605.08 273.32 620.10 771.87 661.13 849.72 844.42 648.41 1219.88 481.23 829.04 948.28 673.15 545.20 467.53 971.08 227.59 360.23 128.07 308.83 1039.63 550.28 1063.02 62.65 635.24 0.00 162.52 946.04
728.01 737.65 645.65 547.25 745.30 628.50 737.90 908.67 646.78 775.75 657.79 707.35 799.52 130.75 495.48 142.69 639.80 152.41 641.36 915.65 884.10 430.83 36.29 621.68 550.18 607.44 876.90 844.73 1000.42 696.69 770.71 970.06 799.24 554.31 873.05 783.07 218.75 336.79 788.68 640.27 642.06 393.49 954.31 926.12 703.09 191.07 169.77 190.10 833.19 808.06 632.32 724.85 215.56 575.05 747.49 1091.43 986.83 554.44 597.92 630.23 834.03 189.35 958.76 580.09 490.67 779.10 766.04 267.89 928.09 549.55 629.88 123.87 966.92 528.55 142.77 504.62 766.11 545.93 735.82 777.18 671.30 1200.07 392.26 846.61 903.78 568.64 541.09 461.77 846.03 321.74 286.01 245.20 146.31 914.01 405.53 949.12 203.56 511.46 162.52 0.00 814.99
909.97 499.91 477.52 525.51 531.35 308.76 665.42 274.61 597.11 174.36 463.90 428.59 323.87 772.06 640.59 866.42 416.08 816.26 335.01 343.28 165.72 415.72 810.26 612.23 393.08 630.63 392.40 207.60 359.96 480.93 283.71 182.44 230.70 471.93 316.38 93.04 728.88 1006.27 318.15 357.66 172.93 493.47 212.43 193.49 365.17 736.60 914.37 894.04 610.62 315.92 611.57 733.27 892.41 531.81 486.42 329.04 606.34 495.65 239.74 409.52 275.20 881.16 574.64 545.87 480.07 238.92 667.74 619.55 460.37 297.00 371.26 852.78 672.72 382.22 805.65 389.13 563.90 488.69 196.76 516.11 883.23 426.91 540.01 231.19 360.16 325.11 478.95 545.63 370.50 935.24 632.19 926.20 740.65 138.65 432.13 335.23 900.19 542.71 946.04 814.99 0.00
DEMAND_SECTION
1 0
2 95
3 90
4 69
5 57
6 72
7 99
8 74
9 87
10 94
11 74
12 62
13 97
14 97
15 100
16 81
17 76
18 91
19 77
20 71
21 89
22 79
23 78
24 81
25 64
26 62
27 81
28 79
29 90
30 72
31 75
32 96
33 54
34 89
35 99
36 99
37 83
38 74
39 78
40 62
41 64
42 94
43 85
44 97
45 79
46 81
47 99
48 62
49 51
50 75
51 97
52 79
53 83
54 87
55 58
56 51
57 82
58 70
59 87
60 55
61 95
62 78
63 66
64 71
65 99
66 89
67 82
68 57
69 96
70 51
71 89
72 90
73 57
74 51
75 51
76 87
77 86
78 90
79 75
80 54
81 99
82 64
83 92
84 54
85 75
86 75
87 77
88 91
89 50
90 64
91 81
92 76
93 52
94 72
95 56
96 100
97 50
98 53
99 74
100 64
101 72
DEPOT_SECTION
1
-1
EOF
