NAME: LDG100_3146_fog_100_0125
COMMENT: CVRP with travel times.  rootPos=3,custPos=1,demandType=4,avgRouteSizeIndex=6,weather=fog,lambda_cluster=1,lambda_random=4, T1=300,T2=700,beta=1, alpha(i,j) ~ U(0.8,1.2)
TYPE: CVRP
DIMENSION: 101
EDGE_WEIGHT_TYPE: EXPLICIT
EDGE_WEIGHT_FORMAT: FULL_MATRIX
CAPACITY: 2127
NODE_COORD_SECTION
1 0 0
2 265 121
3 971 3
4 609 188
5 324 567
6 695 880
7 631 7
8 62 92
9 773 943
10 105 691
11 803 199
12 72 46
13 547 991
14 379 123
15 972 88
16 886 760
17 144 80
18 842 618
19 758 747
20 583 551
21 975 804
22 617 94
23 294 109
24 50 247
25 131 218
26 945 855
27 306 910
28 657 322
29 766 588
30 719 526
31 319 68
32 270 114
33 27 1
34 919 407
35 616 134
36 503 69
37 870 850
38 805 134
39 909 322
40 960 676
41 113 386
42 802 454
43 685 751
44 685 875
45 920 175
46 232 502
47 162 604
48 308 466
49 901 424
50 497 894
51 106 992
52 577 187
53 879 880
54 945 808
55 102 571
56 599 630
57 237 543
58 116 903
59 956 171
60 185 326
61 868 287
62 372 159
63 923 886
64 221 28
65 702 320
66 802 160
67 578 35
68 859 877
69 873 527
70 107 814
71 340 755
72 582 342
73 356 680
74 658 832
75 306 167
76 335 706
77 931 936
78 311 336
79 778 402
80 608 596
81 159 213
82 676 117
83 927 181
84 584 475
85 591 422
86 359 427
87 436 929
88 249 811
89 338 860
90 779 953
91 244 756
92 248 451
93 996 719
94 778 552
95 713 589
96 989 476
97 564 615
98 359 650
99 181 483
100 183 376
101 448 226
EDGE_WEIGHT_SECTION
0.00 356.39 1022.53 709.91 697.18 1144.86 691.27 131.17 1245.11 783.62 901.77 126.00 1095.33 474.44 1030.14 1222.81 192.74 1031.10 1133.90 801.90 1248.60 697.33 365.92 335.13 262.86 1290.08 1028.18 803.91 1027.63 972.47 391.34 338.36 32.71 1048.46 719.37 544.95 1310.49 861.50 1012.82 1191.14 462.62 920.89 1042.62 1120.51 981.82 602.30 655.36 615.99 1009.95 1065.98 1009.62 695.05 1286.92 1256.60 663.02 922.22 666.39 998.70 993.30 426.59 988.89 498.90 1308.57 291.73 859.08 881.12 636.78 1259.31 1068.74 890.70 869.77 732.46 828.95 1059.99 425.10 862.21 1353.00 519.39 841.06 873.85 310.46 712.15 993.03 806.87 886.26 611.99 1071.03 872.64 1012.26 1259.67 857.01 600.32 1263.78 1005.07 960.86 1122.74 891.54 776.49 578.94 439.03 613.77
356.39 0.00 781.17 397.74 560.79 943.62 421.01 230.80 1036.55 640.63 619.79 245.25 929.91 162.27 748.35 963.96 163.65 833.07 904.69 638.45 1054.85 415.35 43.55 282.31 201.19 1092.05 841.60 489.84 755.34 691.87 109.55 18.03 323.68 776.72 437.39 262.97 1068.58 569.19 745.68 909.24 324.58 609.42 834.06 942.99 716.38 461.41 552.41 467.16 748.25 844.38 911.30 382.62 1031.56 1026.95 524.98 649.05 479.81 797.95 761.69 226.03 668.56 156.18 1043.66 148.49 552.60 604.28 423.39 1050.75 796.06 689.95 718.19 408.77 640.10 895.45 82.64 671.11 1017.20 275.27 679.18 600.68 171.57 484.55 727.59 577.44 574.50 390.00 843.27 767.68 820.40 1051.11 745.19 395.50 981.88 739.66 688.57 811.27 662.01 587.64 429.18 282.58 271.05
1022.53 781.17 0.00 563.18 973.92 983.88 490.81 959.73 1016.14 1178.78 322.43 901.67 1066.06 781.84 97.35 841.29 829.79 724.23 819.62 779.64 920.10 482.60 793.03 1063.48 982.36 903.76 1175.83 521.01 640.54 627.66 704.21 799.20 989.82 476.41 537.55 518.20 950.56 359.26 379.49 767.01 1026.38 564.19 881.44 972.74 212.07 962.68 1124.89 875.95 438.85 1052.21 1400.76 571.69 963.77 884.94 1136.59 822.74 1026.77 1296.55 234.96 927.83 357.21 735.96 950.89 853.86 455.87 333.71 569.79 936.16 583.08 1310.76 1061.19 599.70 1000.20 937.91 820.84 989.20 1029.85 808.62 499.49 774.37 952.74 480.55 200.86 690.71 616.02 798.79 1122.72 1123.19 1116.12 1030.70 1133.65 937.26 831.80 653.67 707.31 558.43 816.37 1031.86 1020.10 984.38 683.53
709.91 397.74 563.18 0.00 589.75 733.23 224.19 583.83 839.90 764.42 240.75 616.27 908.35 235.47 487.34 749.99 527.37 603.98 660.54 427.26 751.57 137.46 354.19 619.91 538.79 835.05 779.99 171.64 541.37 453.36 335.34 389.81 677.20 462.22 87.06 222.49 791.24 257.93 437.08 678.33 643.85 380.33 645.88 762.07 379.37 545.89 646.55 461.59 482.72 844.53 1004.92 84.75 837.91 777.11 703.97 519.42 586.21 937.68 412.46 545.30 394.24 281.35 864.94 418.18 226.90 250.98 280.50 856.97 575.16 900.73 621.58 197.58 702.31 752.57 337.85 665.54 876.61 467.06 360.98 499.21 543.35 129.70 384.35 406.13 337.63 384.43 823.29 764.32 754.12 849.98 740.46 458.92 750.97 486.94 539.27 564.94 488.13 678.72 562.85 591.33 279.85
697.18 560.79 973.92 589.75 0.00 533.41 734.65 627.52 640.08 405.15 681.68 619.74 538.43 557.26 926.68 695.70 504.44 597.73 567.32 261.35 778.02 586.23 517.24 480.86 500.45 780.07 399.44 510.72 487.08 431.92 572.46 552.86 664.47 663.03 611.82 729.14 694.55 763.99 759.95 689.14 353.99 581.25 485.64 504.57 784.27 166.49 279.17 142.70 688.77 425.64 576.81 584.81 694.19 732.28 309.44 311.68 187.59 471.42 807.16 391.47 772.22 511.38 759.08 618.58 569.33 735.73 691.70 702.33 606.87 363.42 241.03 491.03 169.07 549.32 506.14 165.47 796.02 328.61 607.42 333.30 522.23 655.43 773.06 366.81 409.18 205.32 421.88 374.69 347.17 654.64 309.10 193.28 757.43 467.56 420.31 740.34 290.54 136.15 216.84 356.25 545.51
1144.86 943.62 983.88 733.23 533.41 0.00 914.84 1093.20 106.67 741.26 757.29 1131.09 270.06 829.52 886.53 238.44 1020.35 415.92 182.49 399.92 345.18 843.59 900.07 960.70 900.28 276.16 433.59 640.33 382.24 474.66 929.39 929.43 1113.58 617.06 793.71 858.74 218.82 769.41 622.09 371.35 841.26 543.28 159.20 28.84 790.04 653.76 623.80 608.38 583.93 241.57 658.52 717.64 240.28 299.44 709.50 294.57 589.67 626.49 792.73 784.44 644.90 815.49 275.66 989.57 641.86 782.25 908.19 245.10 400.80 686.58 451.91 535.65 465.12 84.87 861.78 506.61 262.82 705.05 577.12 342.94 866.97 808.02 800.72 492.43 492.40 616.98 250.20 519.09 399.13 121.23 566.60 725.46 398.79 391.60 388.75 554.48 341.56 422.83 711.71 760.29 744.19
691.27 421.01 490.81 224.19 734.65 914.84 0.00 613.29 976.94 923.62 292.61 663.90 1073.64 340.10 474.92 894.94 548.60 757.76 780.42 616.23 966.21 153.66 438.60 667.26 586.14 993.17 1004.18 395.83 695.04 594.47 432.44 402.98 658.56 551.20 137.13 265.48 902.74 284.93 488.94 789.83 694.85 543.89 815.53 886.00 352.92 707.52 825.33 620.79 580.36 974.20 1197.01 213.20 955.74 949.09 824.20 647.87 723.74 1083.66 375.81 596.30 427.89 321.03 976.44 522.81 338.40 238.56 78.98 968.47 685.70 1016.33 845.77 395.19 816.60 867.48 405.91 784.14 1023.62 477.73 504.16 687.37 556.52 143.06 341.71 578.81 482.33 543.63 1020.00 988.51 932.36 971.86 899.66 637.70 839.85 672.10 680.38 653.92 694.86 837.92 732.51 641.40 352.76
131.17 230.80 959.73 583.83 627.52 1093.20 613.29 0.00 1143.80 658.76 804.00 58.06 1086.45 348.36 967.73 1175.35 130.33 1043.68 1032.59 741.00 1117.43 622.16 274.35 203.96 232.30 1200.91 897.01 709.87 966.73 870.13 328.93 248.83 151.35 926.28 653.87 493.77 1203.46 735.30 905.68 1139.86 353.49 840.22 941.31 1064.36 878.34 532.03 524.19 484.82 944.67 964.57 980.88 613.42 1185.61 1163.17 538.16 803.23 573.03 867.53 911.43 396.03 899.36 386.98 1177.40 165.65 749.02 749.95 534.31 1158.00 992.48 759.53 738.60 605.19 727.54 1049.55 313.44 760.64 1248.00 485.74 810.97 812.95 262.07 580.98 889.55 675.70 755.09 480.82 940.31 840.20 881.09 1158.36 725.84 491.54 1209.83 932.25 899.96 1029.00 830.64 675.08 541.45 404.37 501.85
1245.11 1036.55 1016.14 839.90 640.08 106.67 976.94 1143.80 0.00 792.67 800.58 1184.92 333.10 922.45 957.46 274.32 1127.02 396.50 196.52 443.21 296.69 880.46 993.00 1041.59 1006.95 252.26 540.26 685.42 443.39 478.42 1022.32 1022.36 1220.25 664.13 849.29 948.50 165.85 783.44 728.76 407.23 864.81 589.60 202.49 135.51 804.07 749.57 721.40 715.05 645.08 344.13 708.09 798.40 166.36 266.13 807.10 387.50 696.34 715.41 849.38 891.11 658.93 922.16 227.60 1082.50 685.15 796.28 998.05 170.06 507.47 793.25 529.54 642.32 537.37 191.54 968.45 484.95 156.15 798.19 620.41 435.87 973.64 867.10 815.28 539.16 529.27 703.39 356.87 549.89 496.47 14.56 629.40 780.07 375.37 434.89 432.04 609.15 411.45 529.50 755.00 866.96 850.86
783.62 640.63 1178.78 764.42 405.15 741.26 923.62 658.76 792.67 0.00 856.35 716.82 640.57 687.12 1146.76 926.78 691.53 826.78 809.84 628.41 916.06 838.60 662.13 538.33 520.76 931.13 423.73 761.59 766.35 725.59 723.86 626.51 750.91 958.99 786.49 800.85 871.42 938.66 974.54 946.52 321.00 837.54 718.56 729.65 1011.16 334.12 206.30 345.40 920.48 516.92 380.55 739.82 898.52 870.32 120.60 585.76 300.19 267.20 1034.05 419.55 1013.92 702.90 872.66 737.01 810.93 910.40 892.18 926.13 846.36 283.45 318.33 667.10 324.59 704.84 659.70 319.11 948.82 467.07 802.78 562.26 552.93 860.89 999.95 636.32 668.43 379.99 511.67 242.78 342.13 807.23 174.66 370.77 979.56 782.37 699.58 1000.04 538.77 369.07 266.84 368.56 646.43
901.77 619.79 322.43 240.75 681.68 757.29 292.61 804.00 800.58 856.35 0.00 850.17 883.67 476.22 290.41 658.13 766.22 510.72 650.79 476.08 705.96 204.44 594.94 789.52 708.40 725.35 939.32 258.43 475.93 464.22 567.83 630.56 869.06 293.25 231.14 356.82 760.50 82.31 196.33 612.94 746.59 314.89 598.09 749.57 154.81 640.25 802.86 553.52 313.48 827.68 1113.60 249.26 773.65 660.22 814.16 500.31 704.34 1052.46 177.70 648.04 188.38 481.35 783.82 652.08 262.08 54.05 366.53 781.42 457.93 1016.42 808.94 321.78 705.86 706.33 549.24 757.47 842.99 494.44 275.28 451.94 686.88 223.02 143.60 368.28 369.78 476.36 898.19 879.10 886.21 815.14 832.39 615.23 550.98 460.80 542.70 375.27 547.30 720.73 697.67 704.59 427.47
126.00 245.25 901.67 616.27 619.74 1131.09 663.90 58.06 1184.92 716.82 850.17 0.00 1144.51 380.80 952.70 1198.30 115.30 1006.59 1090.65 799.06 1175.49 654.60 288.48 262.02 230.81 1258.97 946.37 726.47 994.89 928.19 313.90 260.92 93.29 984.34 660.18 508.22 1261.52 767.86 938.12 1149.21 405.13 854.35 999.37 1122.42 915.05 590.09 551.60 542.88 982.19 1022.63 1038.94 627.87 1228.13 1221.23 596.22 845.62 631.09 925.59 960.36 394.54 911.45 401.43 1235.46 198.09 791.61 808.01 592.37 1216.06 982.80 817.59 796.66 654.02 785.60 1095.16 327.89 784.77 1262.45 487.34 869.03 845.61 268.68 639.04 926.26 733.76 802.00 538.88 998.37 868.49 915.36 1199.48 753.25 537.95 1221.85 927.63 933.50 1056.20 874.08 733.14 574.07 451.09 516.30
1095.33 929.91 1066.06 908.35 538.43 270.06 1073.64 1086.45 333.10 640.57 883.67 1144.51 0.00 936.35 1018.82 408.22 1042.43 537.30 336.88 484.23 515.67 969.97 947.50 946.20 948.86 491.35 306.13 748.51 503.53 601.04 961.80 911.88 1062.62 743.73 963.98 993.51 384.83 923.80 828.62 541.13 827.26 664.57 285.58 241.22 876.41 643.26 609.41 666.27 705.22 173.88 505.73 887.91 437.83 485.11 695.11 465.74 605.52 499.03 899.30 785.13 799.29 962.24 458.53 1042.34 768.24 936.64 1064.57 433.07 563.58 607.03 393.97 713.91 371.06 206.16 878.27 372.96 489.25 743.09 703.50 514.11 944.33 930.58 865.20 540.98 618.78 654.07 192.26 461.15 298.44 325.34 465.91 703.72 568.57 517.98 515.13 717.26 420.22 423.52 652.30 760.98 922.23
474.44 162.27 781.84 235.47 557.26 829.52 340.10 348.36 922.45 687.12 476.22 380.80 936.35 0.00 722.81 892.62 291.90 746.61 790.59 555.40 946.66 366.44 118.72 394.17 313.05 1003.34 801.79 366.73 684.00 612.64 99.87 154.34 441.73 639.90 305.51 263.64 906.31 493.40 672.55 822.78 453.07 522.96 719.96 858.36 614.84 456.57 563.62 414.56 601.39 802.32 955.30 277.97 917.46 943.90 566.52 534.95 448.59 842.05 647.93 388.30 629.71 45.88 949.46 182.71 431.87 486.45 261.12 936.65 713.01 734.05 643.38 325.72 565.29 828.20 130.76 608.80 1026.33 289.35 556.07 583.32 307.88 365.17 619.82 450.29 503.33 434.72 813.77 743.85 785.87 937.01 693.43 443.62 895.42 651.98 654.65 724.81 581.94 512.83 523.85 444.42 160.75
1030.14 748.35 97.35 487.34 926.68 886.53 474.92 967.73 957.46 1146.76 290.41 952.70 1018.82 722.81 0.00 751.81 837.40 626.88 760.94 716.15 822.75 425.29 727.62 980.38 899.26 806.41 1128.59 463.03 543.19 578.23 638.80 736.15 997.43 380.01 473.23 577.67 861.08 282.73 332.25 669.66 929.03 500.47 784.09 899.82 164.83 930.66 1066.91 843.93 341.50 1004.97 1312.55 522.14 875.67 787.59 1087.82 729.66 994.75 1199.20 187.72 830.48 298.53 691.39 853.54 824.74 397.89 236.36 539.01 875.48 485.73 1252.78 1003.21 504.70 942.22 840.56 771.81 999.02 934.06 741.35 452.25 706.96 869.19 405.33 153.62 608.35 558.04 766.77 1075.48 1025.84 1066.69 972.02 1087.32 879.28 734.45 580.38 609.96 472.31 769.13 973.88 969.44 887.03 663.44
1222.81 963.96 841.29 749.99 695.70 238.44 894.94 1175.35 274.32 926.78 658.13 1198.30 408.22 892.62 751.81 0.00 1088.21 191.71 157.13 434.35 133.01 799.75 920.41 1048.76 997.14 174.86 654.70 588.17 208.62 306.45 992.49 956.03 1227.29 448.82 776.42 830.83 109.27 676.73 461.80 132.91 905.47 369.66 248.41 267.28 644.92 717.97 802.16 719.95 410.31 480.01 879.63 704.58 131.67 109.73 806.18 395.09 782.06 847.60 674.53 833.41 538.92 873.21 182.97 1073.34 575.15 705.64 903.05 123.67 316.84 908.23 660.66 609.74 638.85 258.60 932.90 693.87 217.36 823.02 438.19 412.71 992.61 751.88 640.43 500.88 534.20 694.53 488.64 710.12 637.57 259.76 788.78 804.94 160.35 275.88 275.39 371.47 436.28 597.90 785.25 889.96 758.34
192.74 163.65 829.79 527.37 504.44 1020.35 548.60 130.33 1127.02 691.53 766.22 115.30 1042.43 291.90 837.40 1088.21 0.00 962.70 1024.15 706.28 1184.48 561.99 173.18 269.66 188.54 1221.68 895.75 611.17 879.59 819.46 198.60 145.62 160.03 902.06 584.03 409.61 1197.48 683.91 854.17 1033.91 370.53 739.05 947.00 1009.01 831.10 491.17 556.31 523.26 893.29 930.08 1008.13 532.34 1151.02 1158.32 570.93 768.51 555.26 925.54 876.41 312.58 796.15 306.16 1188.48 114.14 676.31 730.28 497.07 1163.69 945.78 817.54 737.34 558.49 673.51 997.23 232.36 669.47 1180.85 377.05 800.51 730.31 153.38 595.85 842.31 727.42 702.09 446.10 925.88 811.57 851.61 1141.58 757.96 518.70 1106.55 812.33 818.20 940.90 763.79 640.59 458.77 369.13 421.03
1031.10 833.07 724.23 603.98 597.73 415.92 757.76 1043.68 396.50 826.78 510.72 1006.59 537.30 746.61 626.88 191.71 962.70 0.00 244.44 336.38 259.78 683.90 789.52 902.97 899.63 258.98 627.89 448.16 118.42 218.99 846.48 825.14 1063.81 323.89 630.41 720.75 300.98 571.81 408.35 160.04 841.76 223.65 316.22 387.08 557.43 738.44 744.12 621.98 285.38 562.69 852.82 570.65 323.38 296.58 810.33 288.21 716.41 820.79 548.15 743.21 412.29 759.77 317.45 929.32 429.14 525.44 765.87 315.38 142.74 829.86 583.23 514.09 549.38 331.14 796.00 507.67 386.63 705.02 258.82 283.04 879.60 614.70 557.45 410.22 444.00 596.56 633.20 684.97 674.11 411.06 652.12 735.43 232.68 153.67 177.42 238.42 335.20 529.96 766.13 799.76 670.88
1133.90 904.69 819.62 660.54 567.32 182.49 780.42 1032.59 196.52 809.84 650.79 1090.65 336.88 790.59 760.94 157.13 1024.15 244.44 0.00 332.00 290.14 739.78 861.14 909.29 922.42 212.75 581.25 488.90 250.95 318.83 890.46 890.50 1152.57 481.38 744.98 838.58 189.53 586.92 539.53 290.04 854.99 411.99 91.28 211.33 607.55 691.31 720.46 637.97 452.64 337.75 806.18 688.48 217.02 266.86 748.28 255.64 627.22 774.15 652.86 802.38 462.41 836.47 250.81 950.64 554.04 599.76 821.75 203.85 330.52 751.10 503.53 561.68 493.23 199.52 858.52 536.74 297.54 665.89 437.66 304.01 889.56 670.58 618.76 439.80 424.48 578.05 408.26 646.27 512.54 211.08 643.16 668.86 317.48 252.14 317.72 412.63 279.15 440.77 643.79 778.23 729.55
801.90 638.45 779.64 427.26 261.35 399.92 616.23 741.00 443.21 628.41 476.08 799.06 484.23 555.40 716.15 434.35 706.28 336.38 332.00 0.00 526.12 514.81 629.08 686.63 622.65 544.75 481.66 264.28 225.73 170.57 630.10 632.15 834.61 401.68 487.74 552.77 513.46 544.39 498.60 437.89 551.05 319.90 240.72 385.83 608.58 424.07 540.52 337.34 427.42 446.04 706.59 411.67 485.02 511.72 570.79 120.32 448.94 667.38 623.46 556.45 537.69 509.52 530.12 728.36 323.77 498.02 626.80 457.41 349.88 612.02 351.28 229.68 303.82 325.31 555.81 360.62 551.10 405.55 369.80 71.95 575.05 502.05 597.37 107.80 163.62 260.18 516.55 494.02 493.77 457.77 453.75 399.05 510.53 234.09 158.96 478.99 89.64 288.86 478.19 499.90 438.22
1248.60 1054.85 920.10 751.57 778.02 345.18 966.21 1117.43 296.69 916.06 705.96 1175.49 515.67 946.66 822.75 133.01 1184.48 259.78 290.14 526.12 0.00 843.22 1011.30 1056.03 1120.25 83.48 735.91 579.93 331.73 414.74 1040.33 1046.92 1268.78 517.66 829.08 929.61 130.84 778.63 570.46 176.38 969.93 451.86 377.32 320.82 740.70 850.98 883.37 826.95 491.83 505.06 945.74 779.51 155.91 45.74 939.19 466.34 904.24 900.84 782.65 956.52 595.56 935.45 141.95 1129.37 627.81 744.37 973.34 166.94 337.02 926.79 683.93 663.92 720.06 339.81 990.05 759.49 211.13 900.07 518.60 454.17 1101.17 866.15 749.09 518.18 592.56 786.30 575.57 727.48 679.85 311.25 827.60 768.45 154.98 384.59 398.50 414.94 513.33 722.96 872.38 949.51 820.58
697.33 415.35 482.60 137.46 586.23 843.59 153.66 622.16 880.46 838.60 204.44 654.60 969.97 366.44 425.29 799.75 561.99 683.90 739.78 514.81 843.22 0.00 452.21 665.87 607.99 883.69 917.45 309.10 621.18 520.61 363.39 433.38 664.62 477.34 63.58 152.38 829.19 193.26 400.77 666.84 643.75 470.34 684.39 835.87 317.32 633.97 759.20 547.24 515.85 820.54 1142.38 139.65 880.00 847.20 758.87 574.32 698.06 1057.65 350.41 568.01 378.26 370.14 867.39 456.51 264.85 188.93 162.09 894.92 636.07 949.65 759.04 321.64 755.30 792.63 427.44 751.19 950.07 495.14 436.52 556.23 586.92 69.20 328.53 447.67 351.19 470.08 891.05 901.78 891.58 895.02 826.11 571.57 739.48 598.55 606.52 579.71 604.45 722.38 675.50 567.85 417.31
365.92 43.55 793.03 354.19 517.24 900.07 438.60 274.35 993.00 662.13 594.94 288.48 947.50 118.72 727.62 920.41 173.18 789.52 861.14 629.08 1011.30 452.21 0.00 289.28 208.16 1048.50 885.15 485.45 711.79 708.10 88.82 35.62 333.21 733.17 424.23 299.83 1025.03 525.64 740.57 865.69 368.13 565.87 790.51 899.44 672.83 482.96 549.39 448.06 720.11 876.74 928.89 373.43 988.01 997.78 568.53 605.50 480.30 815.54 718.14 269.58 686.15 141.34 1015.30 152.93 550.59 572.01 379.84 1007.20 774.41 707.54 727.57 408.63 683.65 895.94 83.13 652.01 1060.75 275.76 645.70 557.13 189.16 483.89 684.04 562.60 537.32 370.90 886.82 768.17 810.00 1007.56 726.93 395.99 938.33 731.98 645.02 767.72 652.49 631.19 426.03 326.13 256.21
335.13 282.31 1063.48 619.91 480.86 960.70 667.26 203.96 1041.59 538.33 789.52 262.02 946.20 394.17 980.38 1048.76 269.66 902.97 909.29 686.63 1056.03 665.87 289.28 0.00 81.12 1108.69 796.74 703.83 863.60 835.09 361.63 264.28 311.27 918.81 629.73 545.28 1098.82 793.07 893.69 1037.28 217.33 784.67 843.68 973.49 882.04 330.79 461.53 413.96 890.82 827.36 784.61 553.66 1059.64 1043.56 417.73 677.13 394.88 671.26 915.13 244.85 903.41 366.94 1130.07 369.61 677.34 753.65 623.96 1060.37 918.94 729.39 668.42 608.19 575.14 912.97 282.06 603.54 1154.06 337.65 721.93 725.50 128.72 704.13 893.25 712.21 698.90 426.45 799.52 642.56 712.48 1056.15 617.85 287.58 1097.03 815.70 796.83 986.52 630.14 537.87 337.49 200.41 481.81
262.86 201.19 982.36 538.79 500.45 900.28 586.14 232.30 1006.95 520.76 708.40 230.81 948.86 313.05 899.26 997.14 188.54 899.63 922.42 622.65 1120.25 607.99 208.16 81.12 0.00 1135.17 789.97 631.75 788.52 793.22 280.51 183.16 230.15 837.69 548.61 464.16 1076.39 711.95 812.57 959.90 199.76 703.55 863.37 929.12 808.82 366.02 449.47 357.75 809.70 814.83 865.73 472.54 1072.77 1074.51 400.16 690.26 430.11 752.38 841.91 163.73 822.29 285.82 1132.79 297.61 596.22 680.43 563.80 1080.06 868.49 714.12 631.56 527.07 577.80 876.71 200.94 621.31 1163.10 256.53 640.81 694.60 47.60 623.01 820.03 631.09 634.47 401.90 833.27 705.79 774.05 1021.51 624.24 368.70 1032.54 826.33 781.61 905.40 643.27 525.34 352.99 220.28 400.69
1290.08 1092.05 903.76 835.05 780.07 276.16 993.17 1200.91 252.26 931.13 725.35 1258.97 491.35 1003.34 806.41 174.86 1221.68 258.98 212.75 544.75 83.48 883.69 1048.50 1108.69 1135.17 0.00 709.75 663.41 351.12 451.69 1061.39 1077.83 1289.02 471.40 869.55 973.33 106.52 783.25 568.32 216.85 1016.56 482.63 304.03 296.50 751.44 829.06 818.18 825.16 493.58 509.23 921.42 829.63 85.90 65.13 903.88 468.39 839.97 861.71 773.07 975.91 645.44 962.05 58.47 1163.39 668.28 775.66 1024.85 103.17 400.78 843.31 659.61 683.31 705.98 330.08 1009.44 735.17 127.65 878.64 517.80 516.64 1102.31 873.68 746.95 560.17 611.95 790.80 526.36 688.35 675.29 258.67 803.28 851.93 174.37 412.65 417.89 413.37 491.90 653.52 856.54 990.98 847.18
1028.18 841.60 1175.83 779.99 399.44 433.59 1004.18 897.01 540.26 423.73 939.32 946.37 306.13 801.79 1128.59 654.70 895.75 627.89 581.25 481.66 735.91 917.45 885.15 796.74 789.97 709.75 0.00 745.94 625.48 572.72 886.15 859.63 1020.12 808.38 867.05 940.01 641.08 989.48 880.66 787.61 644.48 722.05 489.97 451.10 986.18 506.72 394.77 530.60 827.17 243.50 224.93 849.03 650.62 702.82 480.47 439.01 466.48 192.90 998.23 650.57 937.08 847.67 709.25 911.89 763.73 943.11 937.64 623.01 752.03 300.90 158.41 711.34 290.77 396.10 816.99 233.97 683.91 660.45 708.90 487.38 742.37 909.69 974.97 580.41 603.58 515.08 183.39 258.26 84.26 554.82 251.73 509.16 770.22 622.51 558.71 866.31 392.02 288.96 518.81 626.42 786.96
803.91 489.84 521.01 171.64 510.72 640.33 395.83 709.87 685.42 761.59 258.43 726.47 748.51 366.73 463.03 588.17 611.17 448.16 488.90 264.28 579.93 309.10 485.45 703.83 631.75 663.41 745.94 0.00 382.29 281.72 466.60 507.87 771.20 306.61 258.70 349.68 629.48 299.28 350.50 516.57 617.73 231.82 505.00 650.11 354.76 503.22 603.88 428.05 334.83 710.32 907.38 199.58 682.48 605.47 682.88 384.60 535.85 794.03 359.18 531.77 291.21 355.52 703.18 549.44 65.14 252.91 393.41 692.75 417.02 858.06 615.56 104.68 563.31 589.59 430.81 606.82 704.97 378.17 189.34 336.23 601.84 301.13 365.97 259.84 181.91 381.60 769.81 620.67 707.16 699.98 706.92 416.25 589.21 374.86 367.63 409.33 353.92 510.85 520.18 588.32 240.65
1027.63 755.34 640.54 541.37 487.08 382.24 695.04 966.73 443.39 766.35 475.93 994.89 503.53 684.00 543.19 208.62 879.59 118.42 250.95 225.73 331.73 621.18 711.79 863.60 788.52 351.12 625.48 382.29 0.00 100.57 783.87 747.41 1018.67 240.20 567.80 622.21 317.89 540.02 325.09 212.16 723.34 161.04 240.90 356.63 499.30 627.79 667.91 511.33 201.69 475.25 850.41 495.96 340.29 285.99 735.86 186.47 632.53 739.91 518.90 624.79 354.16 667.33 391.59 864.72 366.53 497.02 696.03 332.29 161.75 756.46 495.10 401.12 447.64 297.37 724.28 501.17 425.98 620.20 229.57 204.09 783.99 551.98 503.72 295.00 325.58 485.91 545.76 566.55 572.37 457.95 597.57 624.78 284.80 67.26 66.77 315.43 233.46 472.88 655.48 681.34 552.46
972.47 691.87 627.66 453.36 431.92 474.66 594.47 870.13 478.42 725.59 464.22 928.19 601.04 612.64 578.23 306.45 819.46 218.99 318.83 170.57 414.74 520.61 708.10 835.09 793.22 451.69 572.72 281.72 100.57 0.00 687.34 673.84 979.49 235.66 525.81 631.40 415.72 515.01 332.58 312.73 721.62 149.33 315.46 457.20 438.01 583.00 646.99 503.20 274.17 457.35 797.65 481.30 438.12 386.56 635.29 196.33 531.96 765.62 460.90 708.69 367.12 566.76 489.42 795.35 346.86 468.64 602.58 430.12 179.31 729.69 466.59 386.40 419.13 397.94 648.36 475.93 523.81 576.12 201.19 163.33 745.62 451.41 426.80 194.43 251.81 430.75 527.86 609.33 488.46 492.98 569.06 569.62 383.96 103.41 85.91 332.99 204.95 417.89 559.95 670.47 451.89
391.34 109.55 704.21 335.34 572.46 929.39 432.44 328.93 1022.32 723.86 567.83 313.90 961.80 99.87 638.80 992.49 198.60 846.48 890.46 630.10 1040.33 363.39 88.82 361.63 280.51 1061.39 886.15 466.60 783.87 687.34 0.00 97.35 358.63 703.46 385.43 211.01 1006.18 556.65 751.35 863.95 434.13 622.83 819.83 958.23 655.87 471.01 595.73 429.76 701.26 787.92 990.62 352.67 1017.33 1018.60 610.18 634.82 523.29 877.27 701.18 335.58 709.72 120.58 1002.92 185.94 531.74 552.32 360.99 1036.52 787.71 769.27 727.74 400.42 649.65 916.53 133.01 659.78 1109.55 296.35 655.94 645.95 250.89 432.59 667.08 541.84 578.03 378.67 858.43 780.28 817.77 1036.88 708.63 408.10 936.59 726.68 733.84 806.18 681.81 597.19 475.96 392.13 235.45
338.36 18.03 799.20 389.81 552.86 929.43 402.98 248.83 1022.36 626.51 630.56 260.92 911.88 154.34 736.15 956.03 145.62 825.14 890.50 632.15 1046.92 433.38 35.62 264.28 183.16 1077.83 859.63 507.87 747.41 673.84 97.35 0.00 305.65 768.79 455.42 281.00 1060.65 561.26 727.65 901.31 342.61 601.49 819.87 935.06 708.45 479.44 556.47 449.13 752.35 862.41 893.27 386.72 1017.37 1012.70 543.01 634.86 483.91 779.92 753.76 244.06 650.53 160.54 1047.76 130.46 556.70 607.63 415.46 1036.56 800.16 671.92 728.64 412.87 658.13 899.55 86.74 653.08 1035.23 279.37 681.32 592.75 153.54 502.58 719.66 581.80 556.47 371.97 861.30 771.78 811.07 1036.92 727.16 399.60 973.95 743.76 680.64 803.34 666.11 605.67 447.21 300.61 275.41
32.71 323.68 989.82 677.20 664.47 1113.58 658.56 151.35 1220.25 750.91 869.06 93.29 1062.62 441.73 997.43 1227.29 160.03 1063.81 1152.57 834.61 1268.78 664.62 333.21 311.27 230.15 1289.02 1020.12 771.20 1018.67 979.49 358.63 305.65 0.00 1015.75 686.66 512.24 1306.54 828.79 980.11 1188.00 429.91 888.18 1075.33 1142.42 949.11 569.59 644.89 587.90 977.24 1033.27 1042.33 662.34 1302.92 1223.89 630.31 920.41 633.68 971.92 994.42 393.88 956.18 466.19 1328.75 259.02 826.37 853.55 604.07 1292.02 1036.03 863.92 861.71 699.75 796.24 1092.70 392.39 829.50 1340.88 486.68 808.35 890.34 277.75 732.33 960.32 827.05 862.12 606.13 1038.32 899.03 1004.20 1234.81 846.54 587.38 1237.19 972.36 978.23 1090.03 873.42 743.78 546.23 406.32 581.06
1048.46 776.72 476.41 462.22 663.03 617.06 551.20 926.28 664.13 958.99 293.25 984.34 743.73 639.90 380.01 448.82 902.06 323.89 481.38 401.68 517.66 477.34 733.17 918.81 837.69 471.40 808.38 306.61 240.20 235.66 703.46 768.79 1015.75 0.00 442.74 570.93 558.09 311.85 96.92 341.28 875.30 167.30 461.64 596.83 280.04 725.43 812.69 645.63 38.51 665.14 1033.31 436.48 557.30 484.60 852.58 426.67 767.62 969.72 301.67 838.38 174.04 657.83 529.87 822.61 241.47 347.30 559.31 550.47 216.26 957.04 702.25 377.99 654.79 537.57 704.12 711.59 599.05 684.78 207.40 398.99 790.09 408.14 275.55 336.86 401.62 661.86 735.65 796.36 724.12 678.69 784.33 722.86 413.92 229.24 306.97 102.72 440.61 653.55 789.78 859.18 547.26
719.37 437.39 537.55 87.06 611.82 793.71 137.13 653.87 849.29 786.49 231.14 660.18 963.98 305.51 473.23 776.42 584.03 630.41 744.98 487.74 829.08 63.58 424.23 629.73 548.61 869.55 867.05 258.70 567.80 525.81 385.43 455.42 686.66 442.74 0.00 174.42 765.61 228.72 401.41 652.70 580.17 406.76 678.40 785.84 365.26 570.39 695.62 483.66 472.86 868.59 1091.98 76.07 818.61 833.06 695.29 510.74 634.48 1017.44 398.35 560.82 324.29 308.16 839.31 488.22 201.27 236.87 193.44 831.34 591.91 949.80 708.64 258.06 724.72 786.64 376.05 687.61 886.49 461.06 372.94 550.24 544.23 74.40 374.74 441.68 345.20 406.50 905.94 851.38 840.84 834.73 762.53 507.99 725.34 534.97 586.54 545.46 557.73 700.79 611.92 504.27 355.47
544.95 262.97 518.20 222.49 729.14 858.74 265.48 493.77 948.50 800.85 356.82 508.22 993.51 263.64 577.67 830.83 409.61 720.75 838.58 552.77 929.61 152.38 299.83 545.28 464.16 973.33 940.01 349.68 622.21 631.40 211.01 281.00 512.24 570.93 174.42 0.00 935.34 345.64 548.78 819.22 514.18 541.76 752.43 859.87 469.70 655.84 718.74 586.44 548.07 942.62 1144.64 150.10 948.04 908.20 714.58 584.77 620.47 1031.29 502.79 415.63 498.71 217.76 954.23 335.66 371.00 341.31 186.50 954.50 689.61 952.92 844.07 323.09 782.31 860.09 302.64 839.11 1048.19 423.52 461.93 608.38 434.54 221.58 480.91 452.53 419.23 562.68 1013.13 915.73 914.87 963.06 865.31 582.02 890.77 642.40 555.44 673.65 631.76 776.47 618.78 472.18 300.37
1310.49 1068.58 950.56 791.24 694.55 218.82 902.74 1203.46 165.85 871.42 760.50 1261.52 384.83 906.31 861.08 109.27 1197.48 300.98 189.53 513.46 130.84 829.19 1025.03 1098.82 1076.39 106.52 641.08 629.48 317.89 415.72 1006.18 1060.65 1306.54 558.09 765.61 935.34 0.00 776.45 571.07 242.18 1014.74 477.49 272.74 189.98 754.19 827.24 794.06 718.64 519.58 402.71 814.90 813.24 53.00 100.28 879.76 435.51 808.49 833.98 783.80 942.68 648.19 952.19 73.70 1089.02 564.34 772.37 950.14 65.73 391.97 858.54 553.09 693.33 630.75 250.50 1019.46 628.65 120.88 855.42 547.46 483.88 1079.09 812.45 749.70 575.40 581.81 757.92 457.69 695.83 573.01 180.41 696.76 850.32 209.52 385.15 384.66 480.74 468.68 622.23 825.25 932.19 862.41
861.50 569.19 359.26 257.93 763.99 769.41 284.93 735.30 783.44 938.66 82.31 767.86 923.80 493.40 282.73 676.73 683.91 571.81 586.92 544.39 778.63 193.26 525.64 793.07 711.95 783.25 989.48 299.28 540.02 515.01 556.65 561.26 828.79 311.85 228.72 345.64 776.45 0.00 214.93 602.25 803.51 393.65 678.20 798.25 147.19 722.56 858.96 635.83 338.33 909.99 1195.91 239.41 803.94 742.53 858.63 582.62 756.95 1093.31 192.50 704.96 199.43 471.50 836.79 569.77 254.40 46.37 305.49 790.77 468.98 998.10 859.72 314.71 788.17 786.44 539.39 839.78 884.46 551.36 313.82 534.25 679.20 154.32 158.40 450.59 414.55 558.67 959.07 919.95 905.22 798.00 914.70 671.33 633.29 499.34 512.77 393.87 629.61 803.04 775.26 732.99 507.47
1012.82 745.68 379.49 437.08 759.95 622.09 488.94 905.68 728.76 974.54 196.33 938.12 828.62 672.55 332.25 461.80 854.17 408.35 539.53 498.60 570.46 400.77 740.57 893.69 812.57 568.32 880.66 350.50 325.09 332.58 751.35 727.65 980.11 96.92 401.41 548.78 571.07 214.93 0.00 416.61 841.41 184.70 558.56 593.25 183.12 793.30 909.61 676.84 123.40 735.20 1058.74 398.68 593.47 569.49 949.50 488.51 857.39 945.39 212.73 844.37 77.12 630.77 626.79 740.03 303.19 250.38 502.49 585.47 292.36 974.44 750.28 425.15 702.82 622.46 698.66 759.62 679.16 690.77 171.76 485.65 840.65 351.32 178.63 433.78 448.22 672.69 805.71 891.64 821.04 721.56 852.75 766.75 489.25 326.16 391.86 178.94 488.64 720.21 820.99 844.12 591.15
1191.14 909.24 767.01 678.33 689.14 371.35 789.83 1139.86 407.23 946.52 612.94 1149.21 541.13 822.78 669.66 132.91 1033.91 160.04 290.04 437.89 176.38 666.84 865.69 1037.28 959.90 216.85 787.61 516.57 212.16 312.73 863.95 901.31 1188.00 341.28 652.70 819.22 242.18 602.25 416.61 0.00 935.50 299.82 381.32 400.19 598.62 838.95 820.73 723.49 369.37 599.36 1012.54 691.48 264.58 180.36 889.56 398.63 825.08 952.07 629.34 836.95 453.48 827.68 275.32 974.21 451.43 631.07 828.93 250.20 183.93 968.62 707.26 571.22 659.80 391.51 878.60 667.71 298.17 820.43 379.65 416.25 955.77 727.10 595.24 478.13 537.74 675.06 621.55 778.71 759.83 392.67 809.73 813.93 72.64 221.58 278.93 238.56 445.62 685.04 867.64 893.50 757.22
462.62 324.58 1026.38 643.85 353.99 841.26 694.85 353.49 864.81 321.00 746.59 405.13 827.26 453.07 929.03 905.47 370.53 841.76 854.99 551.05 969.93 643.75 368.13 217.33 199.76 1016.56 644.48 617.73 723.34 721.62 434.13 342.61 429.91 875.30 580.17 514.18 1014.74 803.51 841.41 935.50 0.00 796.10 763.71 830.20 883.62 187.50 249.71 303.96 901.46 688.07 666.61 596.55 995.79 1009.33 200.40 613.28 251.59 588.20 918.62 98.55 859.90 447.79 1040.99 416.01 633.83 757.14 700.68 980.40 832.84 559.51 513.54 577.98 456.20 769.68 397.72 460.25 1020.96 252.15 805.50 623.00 231.93 654.57 890.19 576.07 600.51 290.87 656.23 546.85 613.47 850.25 451.36 201.48 1008.14 785.14 710.01 978.02 630.24 423.70 211.20 100.09 437.63
920.89 609.42 564.19 380.33 581.25 543.28 543.89 840.22 589.60 837.54 314.89 854.35 664.57 522.96 500.47 369.66 739.05 223.65 411.99 319.90 451.86 470.34 565.87 784.67 703.55 482.63 722.05 231.82 161.04 149.33 622.83 601.49 888.18 167.30 406.76 541.76 477.49 393.65 184.70 299.82 796.10 0.00 387.11 517.67 362.93 608.60 739.00 492.14 158.97 606.68 946.98 391.66 501.33 447.03 778.89 345.66 672.69 897.74 369.16 740.91 217.79 568.84 541.10 705.67 205.49 347.28 591.29 493.33 208.54 789.74 601.86 290.44 554.40 458.41 616.57 611.20 587.02 609.99 79.83 312.66 655.95 481.16 363.33 263.17 263.52 569.30 677.19 727.59 637.79 581.85 704.33 633.10 372.46 186.63 227.81 201.85 340.22 535.51 636.29 705.69 472.47
1042.62 834.06 881.44 645.88 485.64 159.20 815.53 941.31 202.49 718.56 598.09 999.37 285.58 719.96 784.09 248.41 947.00 316.22 91.28 240.72 377.32 684.39 790.51 843.68 863.37 304.03 489.97 505.00 240.90 315.46 819.83 819.87 1075.33 461.64 678.40 752.43 272.74 678.20 558.56 381.32 763.71 387.11 0.00 151.48 692.11 600.03 629.18 567.34 442.59 246.47 714.90 602.33 244.30 337.89 657.00 185.01 535.94 682.87 707.25 711.10 546.97 750.24 303.19 880.01 482.66 652.14 801.98 216.69 326.32 701.53 412.25 470.40 401.95 108.24 796.53 445.46 310.38 618.74 417.92 233.38 815.77 742.77 685.21 348.52 333.20 500.90 316.98 554.99 421.26 217.05 551.88 577.58 408.76 232.40 229.55 480.00 232.00 349.49 552.51 686.95 675.78
1120.51 942.99 972.74 762.07 504.57 28.84 886.00 1064.36 135.51 729.65 749.57 1122.42 241.22 858.36 899.82 267.28 1009.01 387.08 211.33 385.83 320.82 835.87 899.44 973.49 929.12 296.50 451.10 650.11 356.63 457.20 958.23 935.06 1142.42 596.83 785.84 859.87 189.98 798.25 593.25 400.19 830.20 517.67 151.48 0.00 776.37 642.70 604.08 579.54 558.32 212.73 676.03 709.77 211.44 290.26 689.78 323.41 618.51 644.00 768.38 813.28 670.37 844.33 263.68 1018.41 634.14 796.71 879.35 239.05 417.94 715.42 464.32 564.49 440.77 60.52 873.33 497.57 291.66 680.70 569.40 371.78 895.81 784.94 771.88 468.08 484.68 645.82 267.71 536.60 387.52 150.07 554.99 697.85 399.50 383.88 381.03 571.62 370.40 451.67 703.99 789.13 773.03
981.82 716.38 212.07 379.37 784.27 790.04 352.92 878.34 804.07 1011.16 154.81 915.05 876.41 614.84 164.83 644.92 831.10 557.43 607.55 608.58 740.70 317.32 672.83 882.04 808.82 751.44 986.18 354.76 499.30 438.01 655.87 708.45 949.11 280.04 365.26 469.70 754.19 147.19 183.12 598.62 883.62 362.93 692.11 776.37 0.00 795.06 957.48 708.33 297.61 862.56 1211.11 386.60 751.70 743.70 968.97 634.34 859.15 1128.51 45.31 785.07 145.14 583.42 782.50 716.96 336.42 128.39 431.90 724.09 414.69 1145.29 888.36 396.73 840.90 753.17 668.30 897.70 817.78 631.47 309.84 601.34 761.22 297.36 11.21 523.09 496.57 631.17 933.07 975.43 926.47 818.63 987.20 769.85 663.41 459.71 523.92 362.06 626.72 855.90 852.48 841.62 498.61
602.30 461.41 962.68 545.89 166.49 653.76 707.52 532.03 749.57 334.12 640.25 590.09 643.26 456.57 930.66 717.97 491.17 738.44 691.31 424.07 850.98 633.97 482.96 330.79 366.02 829.06 506.72 503.22 627.79 583.00 471.01 479.44 569.59 725.43 570.39 655.84 827.24 722.56 793.30 838.95 187.50 608.60 600.03 642.70 795.06 0.00 179.12 116.46 713.96 500.57 616.64 518.89 836.70 827.70 240.29 478.17 64.09 532.71 817.95 253.77 794.43 466.80 871.28 571.23 568.36 694.30 665.46 809.09 718.33 464.81 348.31 451.00 272.20 582.18 399.83 272.75 902.78 246.94 672.83 485.91 372.67 644.79 783.85 388.57 439.49 163.89 468.73 359.35 454.53 764.13 287.06 86.97 878.32 634.05 561.02 810.45 457.03 250.54 67.28 213.88 405.47
655.36 552.41 1124.89 646.55 279.17 623.80 825.33 524.19 721.40 206.30 802.86 551.60 609.41 563.62 1066.91 802.16 556.31 744.12 720.46 540.52 883.37 759.20 549.39 461.53 449.47 818.18 394.77 603.88 667.91 646.99 595.73 556.47 644.89 812.69 695.62 718.74 794.06 858.96 909.61 820.73 249.71 739.00 629.18 604.08 957.48 179.12 0.00 268.19 840.83 528.66 538.80 619.55 798.08 883.31 85.70 507.86 115.03 425.45 963.06 327.19 895.09 517.74 856.97 574.75 669.02 839.30 817.19 770.47 818.99 317.45 312.01 588.78 246.69 543.56 500.49 236.45 864.16 347.60 760.09 548.48 402.93 770.02 946.46 475.83 572.31 326.50 492.86 316.89 363.76 735.96 201.65 187.63 893.37 688.10 601.14 915.41 460.87 279.69 124.04 270.64 580.08
615.99 467.16 875.95 461.59 142.70 608.38 620.79 484.82 715.05 345.40 553.52 542.88 666.27 414.56 843.93 719.95 523.26 621.98 637.97 337.34 826.95 547.24 448.06 413.96 357.75 825.16 530.60 428.05 511.33 503.20 429.76 449.13 587.90 645.63 483.66 586.44 718.64 635.83 676.84 723.49 303.96 492.14 567.34 579.54 708.33 116.46 268.19 0.00 649.06 521.13 647.13 442.11 764.84 797.32 353.89 382.33 180.55 533.78 731.22 248.77 699.86 368.68 792.34 541.25 473.79 607.57 549.00 784.03 658.81 506.12 383.73 364.27 295.21 640.06 411.88 308.17 839.52 219.25 571.97 409.29 405.35 558.06 697.12 308.77 323.03 77.16 564.58 398.57 446.34 729.61 278.87 140.96 796.13 531.52 444.56 693.99 381.23 278.85 144.15 213.55 418.58
1009.95 748.25 438.85 482.72 688.77 583.93 580.36 944.67 645.08 920.48 313.48 982.19 705.22 601.39 341.50 410.31 893.29 285.38 452.64 427.42 491.83 515.85 720.11 890.82 809.70 493.58 827.17 334.83 201.69 274.17 701.26 752.35 977.24 38.51 472.86 548.07 519.58 338.33 123.40 369.37 901.46 158.97 442.59 558.32 297.61 713.96 840.83 649.06 0.00 676.94 1052.10 397.97 534.17 446.09 880.72 388.16 778.05 941.60 320.13 826.48 152.47 619.32 552.05 784.10 279.98 341.80 597.82 533.98 200.21 948.71 696.79 339.48 649.33 499.06 665.61 702.86 621.23 695.47 168.89 365.46 814.92 446.65 302.03 365.00 364.99 626.59 747.45 768.24 762.63 659.64 745.82 751.08 442.01 238.88 268.46 130.81 435.15 634.25 781.24 833.64 548.02
1065.98 844.38 1052.21 844.53 425.64 241.57 974.20 964.57 344.13 516.92 827.68 1022.63 173.88 802.32 1004.97 480.01 930.08 562.69 337.75 446.04 505.06 820.54 876.74 827.36 814.83 509.23 243.50 710.32 475.25 457.35 787.92 862.41 1033.27 665.14 868.59 942.62 402.71 909.99 735.20 599.36 688.07 606.68 246.47 212.73 862.56 500.57 528.66 521.13 676.94 0.00 468.43 792.52 424.17 459.32 581.62 357.85 436.48 436.40 885.45 651.10 733.22 839.19 476.41 968.56 729.13 881.73 982.63 451.78 572.79 544.40 251.59 675.72 341.95 266.67 833.65 292.21 500.28 675.10 658.54 375.74 810.30 889.74 851.35 531.42 579.67 529.73 70.51 339.40 174.79 358.69 342.26 572.27 526.72 478.87 408.48 697.00 356.40 289.49 566.78 626.95 788.20
1009.62 911.30 1400.76 1004.92 576.81 658.52 1197.01 980.88 708.09 380.55 1113.60 1038.94 505.73 955.30 1312.55 879.63 1008.13 852.82 806.18 706.59 945.74 1142.38 928.89 784.61 865.73 921.42 224.93 907.38 850.41 797.65 990.62 893.27 1042.33 1033.31 1091.98 1144.64 814.90 1195.91 1058.74 1012.54 666.61 946.98 714.90 676.03 1211.11 616.64 538.80 647.13 1052.10 468.43 0.00 1073.96 867.90 915.18 466.21 663.94 581.97 113.35 1199.58 752.51 1135.86 984.68 888.60 1023.73 952.07 1160.10 1145.36 847.94 976.96 221.35 383.34 936.27 407.74 621.03 913.75 458.90 864.24 721.12 933.83 711.26 854.75 1134.62 1199.90 745.32 828.51 724.29 408.32 286.71 309.19 722.65 368.26 653.29 995.15 847.44 783.64 1091.24 616.95 442.47 549.36 695.96 941.18
695.05 382.62 571.69 84.75 584.81 717.64 213.20 613.42 798.40 739.82 249.26 627.87 887.91 277.97 522.14 704.58 532.34 570.65 688.48 411.67 779.51 139.65 373.43 553.66 472.54 829.63 849.03 199.58 495.96 481.30 352.67 386.72 662.34 436.48 76.07 150.10 813.24 239.41 398.68 691.48 596.55 391.66 602.33 709.77 386.60 518.89 619.55 442.11 397.97 792.52 1073.96 0.00 797.94 781.95 619.22 434.67 567.71 975.89 426.96 498.00 393.48 232.09 867.31 460.68 248.90 285.78 215.13 819.02 539.51 873.73 706.33 181.99 676.95 710.57 299.98 733.75 904.55 384.99 311.83 474.17 468.16 150.47 392.86 365.61 269.13 462.56 863.03 804.10 764.77 812.96 720.98 431.92 740.67 497.35 529.53 528.78 481.66 700.53 535.85 554.55 279.40
1286.92 1031.56 963.77 837.91 694.19 240.28 955.74 1185.61 166.36 898.52 773.65 1228.13 437.83 917.46 875.67 131.67 1151.02 323.38 217.02 485.02 155.91 880.00 988.01 1059.64 1072.77 85.90 650.62 682.48 340.29 438.12 1017.33 1017.37 1302.92 557.30 818.61 948.04 53.00 803.94 593.47 264.58 995.79 501.33 244.30 211.44 751.70 836.70 798.08 764.84 534.17 424.17 867.90 797.94 0.00 113.43 883.78 382.51 780.24 843.52 797.01 955.40 670.59 920.17 70.43 1077.51 617.34 816.78 986.62 27.61 438.24 822.86 606.09 640.33 634.77 254.52 966.46 651.31 108.87 816.24 569.86 430.88 1039.91 865.45 762.91 572.13 528.81 704.92 479.15 700.31 598.96 180.92 749.76 821.88 222.67 407.55 407.06 475.36 429.50 593.79 796.81 931.25 848.87
1256.60 1026.95 884.94 777.11 732.28 299.44 949.09 1163.17 266.13 870.32 660.22 1221.23 485.11 943.90 787.59 109.73 1158.32 296.58 266.86 511.72 45.74 847.20 997.78 1043.56 1074.51 65.13 702.82 605.47 285.99 386.56 1018.60 1012.70 1223.89 484.60 833.06 908.20 100.28 742.53 569.49 180.36 1009.33 447.03 337.89 290.26 743.70 827.70 883.31 797.32 446.09 459.32 915.18 781.95 113.43 0.00 915.91 420.60 873.83 855.10 736.91 910.78 598.56 898.02 123.60 1115.60 631.79 710.53 982.02 121.20 357.96 902.87 639.65 618.18 681.77 348.11 944.31 715.21 182.77 854.33 515.56 468.97 1069.98 837.97 748.12 563.92 546.82 743.01 529.83 681.74 634.11 276.70 783.32 814.19 109.24 353.25 352.76 392.31 467.59 687.38 890.40 967.33 826.72
663.02 524.98 1136.59 703.97 309.44 709.50 824.20 538.16 807.10 120.60 814.16 596.22 695.11 566.52 1087.82 806.18 570.93 810.33 748.28 570.79 939.19 758.87 568.53 417.73 400.16 903.88 480.47 682.88 735.86 635.29 610.18 543.01 630.31 852.58 695.29 714.58 879.76 858.63 949.50 889.56 200.40 778.89 657.00 689.78 968.97 240.29 85.70 353.89 880.72 581.62 466.21 619.22 883.78 915.91 0.00 593.56 191.09 387.80 991.86 298.95 964.64 593.80 942.67 616.41 748.02 851.46 827.64 856.17 814.60 359.11 330.03 624.91 332.39 629.26 539.10 322.15 949.86 346.47 799.98 576.30 432.33 769.69 957.76 515.72 612.20 337.80 531.74 363.38 449.46 821.66 287.35 266.63 962.20 701.61 671.51 955.30 546.57 307.51 209.74 247.96 581.17
922.22 649.05 822.74 519.42 311.68 294.57 647.87 803.23 387.50 585.76 500.31 845.62 465.74 534.95 729.66 395.09 768.51 288.21 255.64 120.32 466.34 574.32 605.50 677.13 690.26 468.39 439.01 384.60 186.47 196.33 634.82 634.86 920.41 426.67 510.74 584.77 435.51 582.62 488.51 398.63 613.28 345.66 185.01 323.41 634.34 478.17 507.86 382.33 388.16 357.85 663.94 434.67 382.51 420.60 593.56 0.00 457.17 624.73 615.02 587.33 521.23 580.83 452.94 695.00 386.51 554.36 649.80 401.70 345.97 569.99 308.63 350.00 261.17 293.25 626.36 317.97 491.38 433.73 325.69 48.37 657.40 585.14 623.13 204.22 240.89 322.41 428.36 451.37 385.90 402.06 411.10 457.72 471.27 206.66 119.70 499.65 46.99 313.63 526.48 587.27 525.18
666.39 479.81 1026.77 586.21 187.59 589.67 723.74 573.03 696.34 300.19 704.34 631.09 605.52 448.59 994.75 782.06 555.26 716.41 627.22 448.94 904.24 698.06 480.30 394.88 430.11 839.97 466.48 535.85 632.53 531.96 523.29 483.91 633.68 767.62 634.48 620.47 808.49 756.95 857.39 825.08 251.59 672.69 535.94 618.51 859.15 64.09 115.03 180.55 778.05 436.48 581.97 567.71 780.24 873.83 191.09 457.17 0.00 468.62 882.04 285.34 820.00 402.71 807.19 602.80 600.99 758.39 709.71 752.63 711.27 400.72 317.00 515.09 234.46 614.71 397.17 282.42 846.32 295.76 690.78 455.24 435.69 708.88 847.94 452.66 503.58 227.98 506.99 295.26 433.70 710.90 316.68 135.79 897.72 635.37 576.87 864.95 448.64 186.45 130.30 276.90 469.56
998.70 797.95 1296.55 937.68 471.42 626.49 1083.66 867.53 715.41 267.20 1052.46 925.59 499.03 842.05 1199.20 847.60 925.54 820.79 774.15 667.38 900.84 1057.65 815.54 671.26 752.38 861.71 192.90 794.03 739.91 765.62 877.27 779.92 971.92 969.72 1017.44 1031.29 833.98 1093.31 945.39 952.07 588.20 897.74 682.87 644.00 1128.51 532.71 425.45 533.78 941.60 436.40 113.35 975.89 843.52 855.10 387.80 624.73 468.62 0.00 1153.21 686.75 1022.51 871.33 803.24 910.38 859.17 1046.94 1045.35 815.91 901.66 108.00 316.10 870.75 404.84 589.00 800.40 391.66 871.56 607.77 894.62 668.59 799.98 1067.38 1124.02 699.14 761.27 610.94 376.29 173.36 277.16 729.97 254.91 545.54 963.12 807.17 744.43 1003.20 577.74 411.90 526.16 635.76 842.47
993.30 761.69 234.96 412.46 807.16 792.73 375.81 911.43 849.38 1034.05 177.70 960.36 899.30 647.93 187.72 674.53 876.41 548.15 652.86 623.46 782.65 350.41 718.14 915.13 841.91 773.07 998.23 359.18 518.90 460.90 701.18 753.76 994.42 301.67 398.35 502.79 783.80 192.50 212.73 629.34 918.62 369.16 707.25 768.38 45.31 817.95 963.06 731.22 320.13 885.45 1199.58 426.96 797.01 736.91 991.86 615.02 882.04 1153.21 0.00 820.07 190.45 616.51 827.81 762.27 369.51 161.48 454.79 769.40 460.00 1130.95 867.85 429.82 820.39 707.86 701.39 877.19 863.09 666.47 289.33 624.23 794.31 330.45 34.10 545.98 529.66 654.06 955.96 979.85 949.36 863.94 970.32 775.43 627.67 474.85 546.81 391.67 606.21 845.55 875.37 876.62 506.49
426.59 226.03 927.83 545.30 391.47 784.44 596.30 396.03 891.11 419.55 648.04 394.54 785.13 388.30 830.48 833.41 312.58 743.21 802.38 556.45 956.52 568.01 269.58 244.85 163.73 975.91 650.57 531.77 624.79 708.69 335.58 244.06 393.88 838.38 560.82 415.63 942.68 704.96 844.37 836.95 98.55 740.91 711.10 813.28 785.07 253.77 327.19 248.77 826.48 651.10 752.51 498.00 955.40 910.78 298.95 587.33 285.34 686.75 820.07 0.00 772.39 349.24 997.45 317.46 596.91 658.59 602.13 927.79 786.54 622.82 492.16 509.59 414.07 773.78 299.17 457.58 1021.48 153.60 721.11 602.07 159.20 635.22 791.64 543.97 518.62 298.97 693.87 555.95 631.02 905.67 527.64 206.12 909.59 692.05 691.56 940.22 540.34 361.61 203.15 56.55 339.08
988.89 668.56 357.21 394.24 772.22 644.90 427.89 899.36 658.93 1013.92 188.38 911.45 799.29 629.71 298.53 538.92 796.15 412.29 462.41 537.69 595.56 378.26 686.15 903.41 822.29 645.44 937.08 291.21 354.16 367.12 709.72 650.53 956.18 174.04 324.29 498.71 648.19 199.43 77.12 453.48 859.90 217.79 546.97 670.37 145.14 794.43 895.09 699.86 152.47 733.22 1135.86 393.48 670.59 598.56 964.64 521.23 820.00 1022.51 190.45 772.39 0.00 597.13 637.36 769.20 226.07 189.33 500.67 662.59 269.55 1007.53 819.65 348.03 770.40 626.97 674.16 827.20 720.64 669.38 248.88 517.93 774.69 349.50 156.35 480.96 386.22 635.14 803.73 911.88 852.82 673.49 898.29 707.46 518.27 314.57 401.53 256.06 558.01 753.30 811.39 767.00 531.86
498.90 156.18 735.96 281.35 511.38 815.49 321.03 386.98 922.16 702.90 481.35 401.43 962.24 45.88 691.39 873.21 306.16 759.77 836.47 509.52 935.45 370.14 141.34 366.94 285.82 962.05 847.67 355.52 667.33 566.76 120.58 160.54 466.19 657.83 308.16 217.76 952.19 471.50 630.77 827.68 447.79 568.84 750.24 844.33 583.42 466.80 517.74 368.68 619.32 839.19 984.68 232.09 920.17 898.02 593.80 580.83 402.71 871.33 616.51 349.24 597.13 0.00 903.58 228.59 420.66 455.03 307.00 947.78 667.13 779.93 689.26 279.84 611.17 828.82 84.88 654.68 1010.21 276.87 543.92 577.11 314.08 382.56 594.63 421.26 457.45 422.24 859.65 697.97 815.02 936.72 647.55 397.74 900.32 606.10 652.67 750.13 599.16 558.71 498.11 398.54 114.87
1308.57 1043.66 950.89 864.94 759.08 275.66 976.44 1177.40 227.60 872.66 783.82 1235.46 458.53 949.46 853.54 182.97 1188.48 317.45 250.81 530.12 141.95 867.39 1015.30 1130.07 1132.79 58.47 709.25 703.18 391.59 489.42 1002.92 1047.76 1328.75 529.87 839.31 954.23 73.70 836.79 626.79 275.32 1040.99 541.10 303.19 263.68 782.50 871.28 856.97 792.34 552.05 476.41 888.60 867.31 70.43 123.60 942.67 452.94 807.19 803.24 827.81 997.45 637.36 903.58 0.00 1132.17 638.04 814.95 1023.84 86.50 367.81 784.84 626.79 710.76 693.66 313.41 961.02 702.35 106.63 886.67 576.27 458.17 1085.19 886.15 793.71 501.70 598.18 775.35 525.86 629.88 646.71 213.12 749.58 880.77 232.84 458.85 458.36 471.84 499.93 652.68 855.70 940.90 788.71
291.73 148.49 853.86 418.18 618.58 989.57 522.81 165.65 1082.50 737.01 652.08 198.09 1042.34 182.71 824.74 1073.34 114.14 929.32 950.64 728.36 1129.37 456.51 152.93 369.61 297.61 1163.39 911.89 549.44 864.72 795.35 185.94 130.46 259.02 822.61 488.22 335.66 1089.02 569.77 740.03 974.21 416.01 705.67 880.01 1018.41 716.96 571.23 574.75 541.25 784.10 968.56 1023.73 460.68 1077.51 1115.60 616.41 695.00 602.80 910.38 762.27 317.46 769.20 228.59 1132.17 0.00 614.58 616.14 443.83 1096.70 895.72 802.38 809.62 508.43 731.53 988.25 217.20 775.04 1165.69 409.83 738.78 710.06 267.52 525.71 728.17 630.91 686.04 502.43 937.82 873.41 938.51 1097.06 776.40 523.58 1046.85 834.69 797.95 907.52 741.99 679.07 520.61 374.01 343.46
859.08 552.60 455.87 226.90 569.33 641.86 338.40 749.02 685.15 810.93 262.08 791.61 768.24 431.87 397.89 575.15 676.31 429.14 554.04 323.77 627.81 264.85 550.59 677.34 596.22 668.28 763.73 65.14 366.53 346.86 531.74 556.70 826.37 241.47 201.27 371.00 564.34 254.40 303.19 451.43 633.83 205.49 482.66 634.14 336.42 568.36 669.02 473.79 279.98 729.13 952.07 248.90 617.34 631.79 748.02 386.51 600.99 859.17 369.51 596.91 226.07 420.66 638.04 614.58 0.00 208.03 385.80 630.07 390.64 854.89 605.32 143.83 544.33 590.90 469.96 601.13 685.22 443.31 171.67 365.19 548.62 275.67 347.63 256.63 160.15 430.94 704.67 685.81 747.81 699.71 694.26 481.39 524.07 357.19 385.27 344.19 413.41 575.99 585.32 637.99 305.79
881.12 604.28 333.71 250.98 735.73 782.25 238.56 749.95 796.28 910.40 54.05 808.01 936.64 486.45 236.36 705.64 730.28 525.44 599.76 498.02 744.37 188.93 572.01 753.65 680.43 775.66 943.11 252.91 497.02 468.64 552.32 607.63 853.55 347.30 236.87 341.31 772.37 46.37 250.38 631.07 757.14 347.28 652.14 796.71 128.39 694.30 839.30 607.57 341.80 881.73 1160.10 285.78 816.78 710.53 851.46 554.36 758.39 1046.94 161.48 658.59 189.33 455.03 814.95 616.14 208.03 0.00 317.54 803.41 447.14 1044.47 813.35 268.34 752.36 760.38 539.91 809.16 893.25 504.99 267.45 505.99 632.83 168.97 139.60 422.33 368.18 530.41 912.70 873.58 858.85 810.84 884.18 651.67 601.29 452.97 531.89 429.32 584.33 763.76 733.08 715.14 476.88
636.78 423.39 569.79 280.50 691.70 908.19 78.98 534.31 998.05 892.18 366.53 592.37 1064.57 261.12 539.01 903.05 497.07 765.87 821.75 626.80 973.34 162.09 379.84 623.96 563.80 1024.85 937.64 393.41 696.03 602.58 360.99 415.46 604.07 559.31 193.44 186.50 950.14 305.49 502.49 828.93 700.68 591.29 801.98 879.35 431.90 665.46 817.19 549.00 597.82 982.63 1145.36 215.13 986.62 982.02 827.64 649.80 709.71 1045.35 454.79 602.13 500.67 307.00 1023.84 443.83 385.80 317.54 0.00 959.01 751.62 937.35 868.86 397.12 737.62 875.59 362.86 793.30 1049.00 508.48 526.96 673.82 557.66 151.17 420.69 523.59 468.78 512.19 941.02 947.57 853.38 1012.61 827.87 647.05 901.57 705.99 629.26 662.03 696.79 772.49 693.15 658.68 273.78
1259.31 1050.75 936.16 856.97 702.33 245.10 968.47 1158.00 170.06 926.13 781.42 1216.06 433.07 936.65 875.48 123.67 1163.69 315.38 203.85 457.41 166.94 894.92 1007.20 1060.37 1080.06 103.17 623.01 692.75 332.29 430.12 1036.52 1036.56 1292.02 550.47 831.34 954.50 65.73 790.77 585.47 250.20 980.40 493.33 216.69 239.05 724.09 809.09 770.47 784.03 533.98 451.78 847.94 819.02 27.61 121.20 856.17 401.70 752.63 815.91 769.40 927.79 662.59 947.78 86.50 1096.70 630.07 803.41 959.01 0.00 434.13 850.47 618.82 667.94 607.16 226.91 994.07 655.01 93.69 835.43 561.86 450.07 1032.46 874.43 735.30 565.21 549.89 717.59 478.00 707.43 610.33 155.50 757.09 794.27 230.44 399.55 399.06 447.75 448.69 566.18 769.20 903.64 859.95
1068.74 796.06 583.08 575.16 606.87 400.80 685.70 992.48 507.47 846.36 457.93 982.80 563.58 713.01 485.73 316.84 945.78 142.74 330.52 349.88 337.02 636.07 774.41 918.94 868.49 400.78 752.03 417.02 161.75 179.31 787.71 800.16 1036.03 216.26 591.91 689.61 391.97 468.98 292.36 183.93 832.84 208.54 326.32 417.94 414.69 718.33 818.99 658.81 200.21 572.79 976.96 539.51 438.24 357.96 814.60 345.97 711.27 901.66 460.00 786.54 269.55 667.13 367.81 895.72 390.64 447.14 751.62 434.13 0.00 906.68 605.57 387.29 596.12 357.42 713.42 650.41 451.09 743.28 227.68 342.64 864.49 604.14 425.90 373.74 431.12 610.06 643.30 728.30 667.77 522.03 746.05 631.36 248.72 139.31 226.27 153.68 381.94 583.77 735.29 812.42 595.83
890.70 689.95 1310.76 900.73 363.42 686.58 1016.33 759.53 793.25 283.45 1016.42 817.59 607.03 734.05 1252.78 908.23 817.54 829.86 751.10 612.02 926.79 949.65 707.54 729.39 714.12 843.31 300.90 858.06 756.46 729.69 769.27 671.92 863.92 957.04 949.80 952.92 858.54 998.10 974.44 968.62 559.51 789.74 701.53 715.42 1145.29 464.81 317.45 506.12 948.71 544.40 221.35 873.73 822.86 902.87 359.11 569.99 400.72 108.00 1130.95 622.82 1007.53 779.93 784.84 802.38 854.89 1044.47 937.35 850.47 906.68 0.00 387.56 806.01 310.56 690.81 754.67 322.19 891.47 601.78 841.62 618.36 720.38 1018.85 1136.48 648.14 744.62 568.74 484.29 252.84 385.16 807.81 243.89 441.81 991.63 776.65 689.69 991.59 524.74 352.04 441.49 588.09 836.48
869.77 718.19 1061.19 621.58 241.03 451.91 845.77 738.60 529.54 318.33 808.94 796.66 393.97 643.38 1003.21 660.66 737.34 583.23 503.53 351.28 683.93 759.04 727.57 668.42 631.56 659.61 158.41 615.56 495.10 466.59 727.74 728.64 861.71 702.25 708.64 844.07 553.09 859.72 750.28 707.26 513.54 601.86 412.25 464.32 888.36 348.31 312.01 383.73 696.79 251.59 383.34 706.33 606.09 639.65 330.03 308.63 317.00 316.10 867.85 492.16 819.65 689.26 626.79 809.62 605.32 813.35 868.86 618.82 605.57 387.56 0.00 580.96 132.36 512.61 694.67 75.56 673.97 502.04 578.52 357.00 583.96 751.28 877.15 450.03 445.17 356.67 201.71 142.74 142.49 544.10 143.67 406.32 728.53 515.29 428.33 759.25 261.64 130.55 413.60 468.01 628.55
732.46 408.77 599.70 197.58 491.03 535.65 395.19 605.19 642.32 667.10 321.78 654.02 713.91 325.72 504.70 609.74 558.49 514.09 561.68 229.68 663.92 321.64 408.63 608.19 527.07 683.31 711.34 104.68 401.12 386.40 400.42 412.87 699.75 377.99 258.06 323.09 693.33 314.71 425.15 571.22 577.98 290.44 470.40 564.49 396.73 451.00 588.78 364.27 339.48 675.72 936.27 181.99 640.33 618.18 624.91 350.00 515.09 870.75 429.82 509.59 348.03 279.84 710.76 508.43 143.83 268.34 397.12 667.94 387.29 806.01 580.96 0.00 533.50 554.99 326.13 568.22 749.20 355.99 279.83 301.63 566.41 272.37 407.94 218.03 200.07 287.11 746.23 715.45 635.30 656.88 615.84 425.98 636.01 463.77 388.64 470.29 319.32 518.54 464.74 494.16 208.54
828.95 640.10 1000.20 702.31 169.07 465.12 816.60 727.54 537.37 324.59 705.86 785.60 371.06 565.29 942.22 638.85 673.51 549.38 493.23 303.82 720.06 755.30 683.65 575.14 577.80 705.98 290.77 563.31 447.64 419.13 649.65 658.13 796.24 654.79 724.72 782.31 630.75 788.17 702.82 659.80 456.20 554.40 401.95 440.77 840.90 272.20 246.69 295.21 649.33 341.95 407.74 676.95 634.77 681.77 332.39 261.17 234.46 404.84 820.39 414.07 770.40 611.17 693.66 731.53 544.33 752.36 737.62 607.16 596.12 310.56 132.36 533.50 0.00 380.25 631.63 56.80 693.52 463.59 531.06 309.54 573.27 799.12 829.69 337.58 434.06 318.22 313.21 269.63 232.11 551.93 149.93 342.70 681.07 467.83 380.87 749.80 214.18 52.46 281.24 389.92 551.17
1059.99 895.45 937.91 752.57 549.32 84.87 867.48 1049.55 191.54 704.84 706.33 1095.16 206.16 828.20 840.56 258.60 997.23 331.14 199.52 325.31 339.81 792.63 895.94 912.97 876.71 330.08 396.10 589.59 297.37 397.94 916.53 899.55 1092.70 537.57 786.64 860.09 250.50 786.44 622.46 391.51 769.68 458.41 108.24 60.52 753.17 582.18 543.56 640.06 499.06 266.67 621.03 710.57 254.52 348.11 629.26 293.25 614.71 589.00 707.86 773.78 626.97 828.82 313.41 988.25 590.90 760.38 875.59 226.91 357.42 690.81 512.61 554.99 380.25 0.00 812.81 437.05 320.60 620.18 526.16 341.62 843.85 724.42 741.96 407.56 441.44 585.49 328.23 480.52 383.42 206.10 530.18 669.15 418.95 340.64 337.79 511.10 340.24 432.71 649.46 770.17 763.53
425.10 82.64 820.84 337.85 506.14 861.78 405.91 313.44 968.45 659.70 549.24 327.89 878.27 130.76 771.81 932.90 232.36 796.00 858.52 555.81 990.05 427.44 83.13 282.06 200.94 1009.44 816.99 430.81 724.28 648.36 133.01 86.74 392.39 704.12 376.05 302.64 1019.46 539.39 698.66 878.60 397.72 616.57 796.53 873.33 668.30 399.83 500.49 411.88 665.61 833.65 913.75 299.98 966.46 944.31 539.10 626.36 397.17 800.40 701.39 299.17 674.16 84.88 961.02 217.20 469.96 539.91 362.86 994.07 713.42 754.67 694.67 326.13 631.63 812.81 0.00 619.11 1067.65 192.63 605.96 627.76 240.28 450.45 679.51 506.14 526.20 338.00 825.35 685.04 737.76 983.01 673.99 312.86 951.24 657.02 714.77 796.42 579.37 583.62 416.79 348.34 199.75
862.21 671.11 989.20 665.54 165.47 506.61 784.14 760.64 484.95 319.11 757.47 784.77 372.96 608.80 999.02 693.87 669.47 507.67 536.74 360.62 759.49 751.19 652.01 603.54 621.31 735.17 233.97 606.82 501.17 475.93 659.78 653.08 829.50 711.59 687.61 839.11 628.65 839.78 759.62 667.71 460.25 611.20 445.46 497.57 897.70 272.75 236.45 308.17 702.86 292.21 458.90 733.75 651.31 715.21 322.15 317.97 282.42 391.66 877.19 457.58 827.20 654.68 702.35 775.04 601.13 809.16 793.30 655.01 650.41 322.19 75.56 568.22 56.80 437.05 619.11 0.00 641.10 426.48 587.86 364.76 616.78 762.01 886.49 394.38 490.86 281.11 256.41 218.30 218.05 499.51 144.45 330.76 737.87 524.63 437.67 746.09 270.98 95.97 338.04 433.43 552.99
1353.00 1017.20 1029.85 876.61 796.02 262.82 1023.62 1248.00 156.15 948.82 842.99 1262.45 489.25 1026.33 934.06 217.36 1180.85 386.63 297.54 551.10 211.13 950.07 1060.75 1154.06 1163.10 127.65 683.91 704.97 425.98 523.81 1109.55 1035.23 1340.88 599.05 886.49 1048.19 120.88 884.46 679.16 298.17 1020.96 587.02 310.38 291.66 817.78 902.78 864.16 839.52 621.23 500.28 864.24 904.55 108.87 182.77 949.86 491.38 846.32 871.56 863.09 1021.48 720.64 1010.21 106.63 1165.69 685.22 893.25 1049.00 93.69 451.09 891.47 673.97 749.20 693.52 320.60 1067.65 641.10 0.00 925.11 645.45 539.75 1126.15 905.85 828.99 608.33 637.68 811.28 500.52 706.04 652.62 170.71 785.55 887.96 292.01 493.24 492.75 536.73 538.37 659.87 862.89 997.33 895.34
519.39 275.27 808.62 467.06 328.61 705.05 477.73 485.74 798.19 467.07 494.44 487.34 743.09 289.35 741.35 823.02 377.05 705.02 665.89 405.55 900.07 495.14 275.76 337.65 256.53 878.64 660.45 378.17 620.20 576.12 296.35 279.37 486.68 684.78 461.06 423.52 855.42 551.36 690.77 820.43 252.15 609.99 618.74 680.70 631.47 246.94 347.60 219.25 695.47 675.10 721.12 384.99 816.24 854.33 346.47 433.73 295.76 607.77 666.47 153.60 669.38 276.87 886.67 409.83 443.31 504.99 508.48 835.43 743.28 601.78 502.04 355.99 463.59 620.18 192.63 426.48 925.11 0.00 567.51 477.50 223.67 535.46 638.04 390.37 380.29 145.37 682.89 532.15 584.47 812.75 481.36 159.97 853.63 639.64 553.43 787.50 386.74 439.66 254.78 210.15 234.70
841.06 679.18 499.49 360.98 607.42 577.12 504.16 810.97 620.41 802.78 275.28 869.03 703.50 556.07 452.25 438.19 800.51 258.82 437.66 369.80 518.60 436.52 645.70 721.93 640.81 517.80 708.90 189.34 229.57 201.19 655.94 681.32 808.35 207.40 372.94 461.93 547.46 313.82 171.76 379.65 805.50 79.83 417.92 569.40 309.84 672.83 760.09 571.97 168.89 658.54 933.83 311.83 569.86 515.56 799.98 325.69 690.78 894.62 289.33 721.11 248.88 543.92 576.27 738.78 171.67 267.45 526.96 561.86 227.68 841.62 578.52 279.83 531.06 526.16 605.96 587.86 645.45 567.51 0.00 364.52 688.41 436.42 298.63 284.26 331.82 566.94 718.19 721.26 689.65 634.97 680.99 605.59 428.84 185.52 272.48 281.68 316.88 556.22 673.74 773.99 429.99
873.85 600.68 774.37 499.21 333.30 342.94 687.37 812.95 435.87 562.26 451.94 845.61 514.11 583.32 706.96 412.71 730.31 283.04 304.01 71.95 454.17 556.23 557.13 725.50 694.60 516.64 487.38 336.23 204.09 163.33 645.95 592.75 890.34 398.99 550.24 608.38 483.88 534.25 485.65 416.25 623.00 312.66 233.38 371.78 601.34 485.91 548.48 409.29 365.46 375.74 711.26 474.17 430.88 468.97 576.30 48.37 455.24 668.59 624.23 602.07 517.93 577.11 458.17 710.06 365.19 505.99 673.82 450.07 342.64 618.36 357.00 301.63 309.54 341.62 627.76 364.76 539.75 477.50 364.52 0.00 647.00 574.00 590.13 155.85 205.04 332.13 446.25 495.23 434.27 450.43 459.47 453.02 459.81 220.11 137.32 496.27 95.36 268.79 550.14 545.52 476.81
310.46 171.57 952.74 543.35 522.23 866.97 556.52 262.07 973.64 552.93 686.88 268.68 944.33 307.88 869.19 992.61 153.38 879.60 889.56 575.05 1101.17 586.92 189.16 128.72 47.60 1102.31 742.37 601.84 783.99 745.62 250.89 153.54 277.75 790.09 544.23 434.54 1079.09 679.20 840.65 955.77 231.93 655.95 815.77 895.81 761.22 372.67 402.93 405.35 814.92 810.30 854.75 468.16 1039.91 1069.98 432.33 657.40 435.69 799.98 794.31 159.20 774.69 314.08 1085.19 267.52 548.62 632.83 557.66 1032.46 864.49 720.38 583.96 566.41 573.27 843.85 240.28 616.78 1126.15 223.67 688.41 647.00 0.00 618.63 772.43 583.49 603.96 369.04 785.67 658.19 726.45 988.20 604.58 365.32 1028.41 809.14 734.01 857.80 610.41 520.81 305.39 215.75 428.95
712.15 484.55 480.55 129.70 655.43 808.02 143.06 580.98 867.10 860.89 223.02 639.04 930.58 365.17 405.33 751.88 595.85 614.70 670.58 502.05 866.15 69.20 483.89 704.13 623.01 873.68 909.69 301.13 551.98 451.41 432.59 502.58 732.33 408.14 74.40 221.58 812.45 154.32 351.32 727.10 654.57 481.16 742.77 784.94 297.36 644.79 770.02 558.06 446.65 889.74 1134.62 150.47 865.45 837.97 769.69 585.14 708.88 1067.38 330.45 635.22 349.50 382.56 886.15 525.71 275.67 168.97 151.17 874.43 604.14 1018.85 751.28 272.37 799.12 724.42 450.45 762.01 905.85 535.46 436.42 574.00 618.63 0.00 308.57 490.40 419.60 480.90 952.99 894.02 883.82 881.66 836.93 582.39 750.78 554.82 537.32 510.86 591.69 775.19 686.32 578.67 404.93
993.03 727.59 200.86 384.35 773.06 800.72 341.71 889.55 815.28 999.95 143.60 926.26 865.20 619.82 153.62 640.43 842.31 557.45 618.76 597.37 749.09 328.53 684.04 893.25 820.03 746.95 974.97 365.97 503.72 426.80 667.08 719.66 960.32 275.55 374.74 480.91 749.70 158.40 178.63 595.24 890.19 363.33 685.21 771.88 11.21 783.85 946.46 697.12 302.03 851.35 1199.90 392.86 762.91 748.12 957.76 623.13 847.94 1124.02 34.10 791.64 156.35 594.63 793.71 728.17 347.63 139.60 420.69 735.30 425.90 1136.48 877.15 407.94 829.69 741.96 679.51 886.49 828.99 638.04 298.63 590.13 772.43 308.57 0.00 511.88 507.78 619.96 921.86 986.64 915.26 829.84 975.99 758.83 661.77 452.81 512.71 357.57 615.51 844.69 841.27 848.19 509.82
806.87 577.44 690.71 406.13 366.81 492.43 578.81 675.70 539.16 636.32 368.28 733.76 540.98 450.29 608.35 500.88 727.42 410.22 439.80 107.80 518.18 447.67 562.60 712.21 631.09 560.17 580.41 259.84 295.00 194.43 541.84 581.80 827.05 336.86 441.68 452.53 575.40 450.59 433.78 478.13 576.07 263.17 348.52 468.08 523.09 388.57 475.83 308.77 365.00 531.42 745.32 365.61 572.13 563.92 515.72 204.22 452.66 699.14 545.98 543.97 480.96 421.26 501.70 630.91 256.63 422.33 523.59 565.21 373.74 648.14 450.03 218.03 337.58 407.56 506.14 394.38 608.33 390.37 284.26 155.85 583.49 490.40 511.88 0.00 96.48 367.98 601.93 525.78 569.69 553.72 487.51 443.13 534.90 256.55 238.49 439.58 188.39 390.04 452.92 522.32 422.24
886.26 574.50 616.02 337.63 409.18 492.40 482.33 755.09 529.27 668.43 369.78 802.00 618.78 503.33 558.04 534.20 702.09 444.00 424.48 163.62 592.56 351.19 537.32 698.90 634.47 611.95 603.58 181.91 325.58 251.81 578.03 556.47 862.12 401.62 345.20 419.23 581.81 414.55 448.22 537.74 600.51 263.52 333.20 484.68 496.57 439.49 572.31 323.03 364.99 579.67 828.51 269.13 528.81 546.82 612.20 240.89 503.58 761.27 529.66 518.62 386.22 457.45 598.18 686.04 160.15 368.18 468.78 549.89 431.12 744.62 445.17 200.07 434.06 441.44 526.20 490.86 637.68 380.29 331.82 205.04 603.96 419.60 507.78 96.48 0.00 309.64 646.88 587.91 587.66 543.83 583.99 411.32 610.38 320.75 322.58 465.37 253.26 452.48 467.18 536.58 342.58
611.99 390.00 798.79 384.43 205.32 616.98 543.63 480.82 703.39 379.99 476.36 538.88 654.07 434.72 766.77 694.53 446.10 596.56 578.05 260.18 786.30 470.08 370.90 426.45 401.90 790.80 515.08 381.60 485.91 430.75 378.67 371.97 606.13 661.86 406.50 562.68 757.92 558.67 672.69 675.06 290.87 569.30 500.90 645.82 631.17 163.89 326.50 77.16 626.59 529.73 724.29 462.56 704.92 743.01 337.80 322.41 227.98 610.94 654.06 298.97 635.14 422.24 775.35 502.43 430.94 530.41 512.19 717.59 610.06 568.74 356.67 287.11 318.22 585.49 338.00 281.11 811.28 145.37 566.94 332.13 369.04 480.90 619.96 367.98 309.64 0.00 537.52 475.73 439.10 717.95 356.03 138.87 729.01 494.27 419.14 739.17 349.82 294.29 221.31 290.71 380.07
1071.03 843.27 1122.72 823.29 421.88 250.20 1020.00 940.31 356.87 511.67 898.19 998.37 192.26 813.77 1075.48 488.64 925.88 633.20 408.26 516.55 575.57 891.05 886.82 799.52 833.27 526.36 183.39 769.81 545.76 527.86 858.43 861.30 1038.32 735.65 905.94 1013.13 457.69 959.07 805.71 621.55 656.23 677.19 316.98 267.71 933.07 468.73 492.86 564.58 747.45 70.51 408.32 863.03 479.15 529.83 531.74 428.36 506.99 376.29 955.96 693.87 803.73 859.65 525.86 937.82 704.67 912.70 941.02 478.00 643.30 484.29 201.71 746.23 313.21 328.23 825.35 256.41 500.52 682.89 718.19 446.25 785.67 952.99 921.86 601.93 646.88 537.52 0.00 268.89 245.30 371.43 345.38 555.70 597.23 549.38 478.99 767.51 426.91 332.26 536.01 664.05 809.40
872.64 767.68 1123.19 764.32 374.69 519.09 988.51 840.20 549.89 242.78 879.10 868.49 461.15 743.85 1025.84 710.12 811.57 684.97 646.27 494.02 727.48 901.78 768.17 642.56 705.79 688.35 258.26 620.67 566.55 609.33 780.28 771.78 899.03 796.36 851.38 915.73 695.83 919.95 891.64 778.71 546.85 727.59 554.99 536.60 975.43 359.35 316.89 398.57 768.24 339.40 286.71 804.10 700.31 681.74 363.38 451.37 295.26 173.36 979.85 555.95 911.88 697.97 629.88 873.41 685.81 873.58 947.57 707.43 728.30 252.84 142.74 715.45 269.63 480.52 685.04 218.30 706.04 532.15 721.26 495.23 658.19 894.02 986.64 525.78 587.91 475.73 268.89 0.00 174.00 564.45 119.70 372.18 790.98 633.81 571.07 829.84 404.38 238.54 352.80 499.40 737.25
1012.26 820.40 1116.12 754.12 347.17 399.13 932.36 881.09 496.47 342.13 886.21 915.36 298.44 785.87 1066.69 637.57 851.61 674.11 512.54 493.77 679.85 891.58 810.00 712.48 774.05 675.29 84.26 707.16 572.37 488.46 817.77 811.07 1004.20 724.12 840.84 914.87 573.01 905.22 821.04 759.83 613.47 637.79 421.26 387.52 926.47 454.53 363.76 446.34 762.63 174.79 309.19 764.77 598.96 634.11 449.46 385.90 433.70 277.16 949.36 631.02 852.82 815.02 646.71 938.51 747.81 858.85 853.38 610.33 667.77 385.16 142.49 635.30 232.11 383.42 737.76 218.05 652.62 584.47 689.65 434.27 726.45 883.82 915.26 569.69 587.66 439.10 245.30 174.00 0.00 511.03 167.47 424.90 701.51 538.25 505.60 821.45 404.13 273.04 487.80 605.96 771.04
1259.67 1051.11 1030.70 849.98 654.64 121.23 971.86 1158.36 14.56 807.23 815.14 1199.48 325.34 937.01 972.02 259.76 1141.58 411.06 211.08 457.77 311.25 895.02 1007.56 1056.15 1021.51 258.67 554.82 699.98 457.95 492.98 1036.88 1036.92 1234.81 678.69 834.73 963.06 180.41 798.00 721.56 392.67 850.25 581.85 217.05 150.07 818.63 764.13 735.96 729.61 659.64 358.69 722.65 812.96 180.92 276.70 821.66 402.06 710.90 729.97 863.94 905.67 673.49 936.72 213.12 1097.06 699.71 810.84 1012.61 155.50 522.03 807.81 544.10 656.88 551.93 206.10 983.01 499.51 170.71 812.75 634.97 450.43 988.20 881.66 829.84 553.72 543.83 717.95 371.43 564.45 511.03 0.00 643.96 794.63 385.94 449.45 446.60 603.25 426.01 544.06 769.56 881.52 865.42
857.01 745.19 1133.65 740.46 309.10 566.60 899.66 725.84 629.40 174.66 832.39 753.25 465.91 693.43 1087.32 788.78 757.96 652.12 643.16 453.75 827.60 826.11 726.93 617.85 624.24 803.28 251.73 706.92 597.57 569.06 708.63 727.16 846.54 784.33 762.53 865.31 696.76 914.70 852.75 809.73 451.36 704.33 551.88 554.99 987.20 287.06 201.65 278.87 745.82 342.26 368.26 720.98 749.76 783.32 287.35 411.10 316.68 254.91 970.32 527.64 898.29 647.55 749.58 776.40 694.26 884.18 827.87 757.09 746.05 243.89 143.67 615.84 149.93 530.18 673.99 144.45 785.55 481.36 680.99 459.47 604.58 836.93 975.99 487.51 583.99 356.03 345.38 119.70 167.47 643.96 0.00 374.03 831.00 617.76 530.80 876.63 364.11 202.39 325.69 472.29 620.45
600.32 395.50 937.26 458.92 193.28 725.46 637.70 491.54 780.07 370.77 615.23 537.95 703.72 443.62 879.28 804.94 518.70 735.43 668.86 399.05 768.45 571.57 395.99 287.58 368.70 851.93 509.16 416.25 624.78 569.62 408.10 399.60 587.38 722.86 507.99 582.02 850.32 671.33 766.75 813.93 201.48 633.10 577.58 697.85 769.85 86.97 187.63 140.96 751.08 572.27 653.29 431.92 821.88 814.19 266.63 457.72 135.79 545.54 775.43 206.12 707.46 397.74 880.77 523.58 481.39 651.67 647.05 794.27 631.36 441.81 406.32 425.98 342.70 669.15 312.86 330.76 887.96 159.97 605.59 453.02 365.32 582.39 758.83 443.13 411.32 138.87 555.70 372.18 424.90 794.63 374.03 0.00 867.88 633.14 558.01 785.04 428.76 322.24 103.93 181.06 394.67
1263.78 981.88 831.80 750.97 757.43 398.79 839.85 1209.83 375.37 979.56 550.98 1221.85 568.57 895.42 734.45 160.35 1106.55 232.68 317.48 510.53 154.98 739.48 938.33 1097.03 1032.54 174.37 770.22 589.21 284.80 383.96 936.59 973.95 1237.19 413.92 725.34 890.77 209.52 633.29 489.25 72.64 1008.14 372.46 408.76 399.50 663.41 878.32 893.37 796.13 442.01 526.72 995.15 740.67 222.67 109.24 962.20 471.27 897.72 963.12 627.67 909.59 518.27 900.32 232.84 1046.85 524.07 601.29 901.57 230.44 248.72 991.63 728.53 636.01 681.07 418.95 951.24 737.87 292.01 853.63 428.84 459.81 1028.41 750.78 661.77 534.90 610.38 729.01 597.23 790.98 701.51 385.94 831.00 867.88 0.00 294.22 351.57 311.20 466.89 728.60 940.28 966.14 829.86
1005.07 739.66 653.67 486.94 467.56 391.60 672.10 932.25 434.89 782.37 460.80 927.63 517.98 651.98 580.38 275.88 812.33 153.67 252.14 234.09 384.59 598.55 731.98 815.70 826.33 412.65 622.51 374.86 67.26 103.41 726.68 743.76 972.36 229.24 534.97 642.40 385.15 499.34 326.16 221.58 785.14 186.63 232.40 383.88 459.71 634.05 688.10 531.52 238.88 478.87 847.44 497.35 407.55 353.25 701.61 206.66 635.37 807.17 474.85 692.05 314.57 606.10 458.85 834.69 357.19 452.97 705.99 399.55 139.31 776.65 515.29 463.77 467.83 340.64 657.02 524.63 493.24 639.64 185.52 220.11 809.14 554.82 452.81 256.55 320.75 494.27 549.38 633.81 538.25 449.45 617.76 633.14 294.22 0.00 86.96 292.99 253.65 488.90 663.36 733.99 553.13
960.86 688.57 707.31 539.27 420.31 388.75 680.38 899.96 432.04 699.58 542.70 933.50 515.13 654.65 609.96 275.39 818.20 177.42 317.72 158.96 398.50 606.52 645.02 796.83 781.61 417.89 558.71 367.63 66.77 85.91 733.84 680.64 978.23 306.97 586.54 555.44 384.66 512.77 391.86 278.93 710.01 227.81 229.55 381.03 523.92 561.02 601.14 444.56 268.46 408.48 783.64 529.53 407.06 352.76 671.51 119.70 576.87 744.43 546.81 691.56 401.53 652.67 458.36 797.95 385.27 531.89 629.26 399.06 226.27 689.69 428.33 388.64 380.87 337.79 714.77 437.67 492.75 553.43 272.48 137.32 734.01 537.32 512.71 238.49 322.58 419.14 478.99 571.07 505.60 446.60 530.80 558.01 351.57 86.96 0.00 379.95 166.69 406.11 588.71 658.11 537.80
1122.74 811.27 558.43 564.94 740.34 554.48 653.92 1029.00 609.15 1000.04 375.27 1056.20 717.26 724.81 472.31 371.47 940.90 238.42 412.63 478.99 414.94 579.71 767.72 986.52 905.40 413.37 866.31 409.33 315.43 332.99 806.18 803.34 1090.03 102.72 545.46 673.65 480.74 393.87 178.94 238.56 978.02 201.85 480.00 571.62 362.06 810.45 915.41 693.99 130.81 697.00 1091.24 528.78 475.36 392.31 955.30 499.65 864.95 1003.20 391.67 940.22 256.06 750.13 471.84 907.52 344.19 429.32 662.03 447.75 153.68 991.59 759.25 470.29 749.80 511.10 796.42 746.09 536.73 787.50 281.68 496.27 857.80 510.86 357.57 439.58 465.37 739.17 767.51 829.84 821.45 603.25 876.63 785.04 311.20 292.99 379.95 0.00 535.62 701.03 838.14 907.54 649.98
891.54 662.01 816.37 488.13 290.54 341.56 694.86 830.64 411.45 538.77 547.30 874.08 420.22 581.94 769.13 436.28 763.79 335.20 279.15 89.64 513.33 604.45 652.49 630.14 643.27 491.90 392.02 353.92 233.46 204.95 681.81 666.11 873.42 440.61 557.73 631.76 468.68 629.61 488.64 445.62 630.24 340.22 232.00 370.40 626.72 457.03 460.87 381.23 435.15 356.40 616.95 481.66 429.50 467.59 546.57 46.99 448.64 577.74 606.21 540.34 558.01 599.16 499.93 741.99 413.41 584.33 696.79 448.69 381.94 524.74 261.64 319.32 214.18 340.24 579.37 270.98 538.37 386.74 316.88 95.36 610.41 591.69 615.51 188.39 253.26 349.82 426.91 404.38 404.13 426.01 364.11 428.76 466.89 253.65 166.69 535.62 0.00 266.64 495.42 589.54 527.86
776.49 587.64 1031.86 678.72 136.15 422.83 837.92 675.08 529.50 369.07 720.73 733.14 423.52 512.83 973.88 597.90 640.59 529.96 440.77 288.86 722.96 722.38 631.19 537.87 525.34 653.52 288.96 510.85 472.88 417.89 597.19 605.67 743.78 653.55 700.79 776.47 622.23 803.04 720.21 685.04 423.70 535.51 349.49 451.67 855.90 250.54 279.69 278.85 634.25 289.49 442.47 700.53 593.79 687.38 307.51 313.63 186.45 411.90 845.55 361.61 753.30 558.71 652.68 679.07 575.99 763.76 772.49 566.18 583.77 352.04 130.55 518.54 52.46 432.71 583.62 95.97 659.87 439.66 556.22 268.79 520.81 775.19 844.69 390.04 452.48 294.29 332.26 238.54 273.04 544.06 202.39 322.24 728.60 488.90 406.11 701.03 266.64 0.00 297.51 337.46 498.71
578.94 429.18 1020.10 562.85 216.84 711.71 732.51 541.45 755.00 266.84 697.67 574.07 652.30 523.85 969.44 785.25 458.77 766.13 643.79 478.19 872.38 675.50 426.03 337.49 352.99 856.54 518.81 520.18 655.48 559.95 475.96 447.21 546.23 789.78 611.92 618.78 825.25 775.26 820.99 867.64 211.20 636.29 552.51 703.99 852.48 67.28 124.04 144.15 781.24 566.78 549.36 535.85 796.81 890.40 209.74 526.48 130.30 526.16 875.37 203.15 811.39 498.11 855.70 520.61 585.32 733.08 693.15 769.20 735.29 441.49 413.60 464.74 281.24 649.46 416.79 338.04 862.89 254.78 673.74 550.14 305.39 686.32 841.27 452.92 467.18 221.31 536.01 352.80 487.80 769.56 325.69 103.93 940.28 663.36 588.71 838.14 495.42 297.51 0.00 146.60 456.04
439.03 282.58 984.38 591.33 356.25 760.29 641.40 404.37 866.96 368.56 704.59 451.09 760.98 444.42 887.03 889.96 369.13 799.76 778.23 499.90 949.51 567.85 326.13 200.41 220.28 990.98 626.42 588.32 681.34 670.47 392.13 300.61 406.32 859.18 504.27 472.18 932.19 732.99 844.12 893.50 100.09 705.69 686.95 789.13 841.62 213.88 270.64 213.55 833.64 626.95 695.96 554.55 931.25 967.33 247.96 587.27 276.90 635.76 876.62 56.55 767.00 398.54 940.90 374.01 637.99 715.14 658.68 903.64 812.42 588.09 468.01 494.16 389.92 770.17 348.34 433.43 997.33 210.15 773.99 545.52 215.75 578.67 848.19 522.32 536.58 290.71 664.05 499.40 605.96 881.52 472.29 181.06 966.14 733.99 658.11 907.54 589.54 337.46 146.60 0.00 391.53
613.77 271.05 683.53 279.85 545.51 744.19 352.76 501.85 850.86 646.43 427.47 516.30 922.23 160.75 663.44 758.34 421.03 670.88 729.55 438.22 820.58 417.31 256.21 481.81 400.69 847.18 786.96 240.65 552.46 451.89 235.45 275.41 581.06 547.26 355.47 300.37 862.41 507.47 591.15 757.22 437.63 472.47 675.78 773.03 498.61 405.47 580.08 418.58 548.02 788.20 941.18 279.40 848.87 826.72 581.17 525.18 469.56 842.47 506.49 339.08 531.86 114.87 788.71 343.46 305.79 476.88 273.78 859.95 595.83 836.48 628.55 208.54 551.17 763.53 199.75 552.99 895.34 234.70 429.99 476.81 428.95 404.93 509.82 422.24 342.58 380.07 809.40 737.25 771.04 865.42 620.45 394.67 829.86 553.13 537.80 649.98 527.86 498.71 456.04 391.53 0.00
DEMAND_SECTION
1 0
2 71
3 27
4 64
5 59
6 26
7 22
8 67
9 86
10 15
11 90
12 2
13 98
14 59
15 40
16 81
17 33
18 21
19 34
20 55
21 53
22 3
23 33
24 71
25 35
26 29
27 53
28 79
29 88
30 69
31 71
32 20
33 6
34 58
35 79
36 58
37 63
38 16
39 98
40 3
41 39
42 87
43 95
44 15
45 72
46 59
47 52
48 72
49 6
50 3
51 36
52 38
53 25
54 15
55 63
56 39
57 33
58 34
59 99
60 32
61 77
62 2
63 90
64 75
65 2
66 29
67 97
68 54
69 35
70 58
71 95
72 64
73 88
74 54
75 68
76 56
77 73
78 27
79 6
80 65
81 62
82 44
83 2
84 40
85 7
86 34
87 88
88 17
89 4
90 10
91 98
92 44
93 50
94 75
95 92
96 28
97 98
98 36
99 30
100 15
101 57
DEPOT_SECTION
1
-1
EOF
