NAME: LDG105_2136_fog_105_0049
COMMENT: CVRP with travel times.  rootPos=2,custPos=1,demandType=3,avgRouteSizeIndex=6,weather=fog,lambda_cluster=1,lambda_random=4, T1=300,T2=700,beta=1, alpha(i,j) ~ U(0.8,1.2)
TYPE: CVRP
DIMENSION: 106
EDGE_WEIGHT_TYPE: EXPLICIT
EDGE_WEIGHT_FORMAT: FULL_MATRIX
CAPACITY: 329
NODE_COORD_SECTION
1 500 500
2 461 181
3 590 680
4 325 42
5 461 553
6 207 121
7 936 229
8 194 485
9 810 515
10 805 810
11 542 462
12 731 33
13 370 884
14 846 423
15 364 245
16 626 364
17 12 428
18 590 875
19 676 890
20 164 683
21 359 531
22 304 120
23 262 962
24 426 908
25 438 597
26 688 915
27 823 895
28 872 901
29 235 965
30 492 553
31 533 96
32 285 783
33 712 696
34 658 374
35 793 33
36 580 56
37 935 588
38 140 184
39 540 801
40 687 603
41 382 816
42 203 798
43 949 782
44 539 1
45 941 415
46 757 447
47 698 303
48 996 890
49 305 212
50 96 660
51 858 246
52 508 940
53 951 123
54 866 728
55 846 376
56 724 314
57 747 341
58 496 684
59 596 60
60 674 817
61 452 907
62 368 252
63 109 89
64 102 986
65 856 734
66 732 524
67 631 163
68 460 186
69 347 2
70 463 224
71 531 634
72 38 959
73 684 588
74 548 221
75 317 103
76 300 247
77 657 74
78 571 502
79 483 315
80 896 172
81 189 754
82 404 494
83 117 512
84 116 582
85 571 828
86 287 300
87 370 768
88 260 931
89 466 1000
90 642 645
91 137 94
92 664 944
93 530 817
94 625 949
95 418 479
96 318 239
97 363 339
98 197 817
99 72 702
100 524 655
101 22 120
102 800 781
103 289 84
104 885 904
105 56 474
106 90 310
EDGE_WEIGHT_SECTION
0.00 404.50 226.70 563.63 103.25 534.18 573.95 329.70 418.38 497.53 91.18 629.32 539.49 426.24 310.14 249.32 566.84 425.31 509.69 496.68 209.10 483.59 574.96 517.78 169.99 524.78 605.19 624.29 624.94 63.67 482.63 459.33 351.38 280.64 600.96 513.25 558.92 544.11 360.56 267.19 443.37 473.45 560.06 511.26 532.00 322.64 354.45 686.98 389.36 519.48 489.66 485.56 634.12 437.48 414.21 322.57 358.01 203.04 540.55 434.00 476.93 290.15 628.01 738.60 459.48 295.58 479.21 396.71 569.86 352.43 162.28 755.81 286.52 392.29 520.17 380.67 579.57 100.85 260.79 606.19 521.52 143.08 428.71 509.34 366.67 393.30 408.86 567.21 533.17 250.22 632.85 525.28 327.70 487.39 117.52 367.71 299.47 506.29 560.51 174.04 659.17 494.56 547.37 608.40 528.83 527.04
404.50 0.00 583.68 273.07 458.17 336.16 591.90 465.81 598.74 745.71 314.04 348.52 829.71 546.73 147.15 312.58 587.01 774.46 807.38 614.19 442.50 223.77 869.62 759.21 453.27 812.83 849.16 867.85 899.88 468.17 143.67 742.61 639.25 335.24 448.99 175.86 673.22 389.40 733.26 540.94 739.71 723.77 818.84 268.87 622.47 503.56 330.93 911.05 227.00 657.40 501.00 890.06 538.72 705.55 482.83 371.84 365.86 573.81 203.16 782.67 716.06 140.86 411.04 985.94 683.55 518.44 301.41 8.51 295.64 52.07 550.46 956.71 530.28 148.99 211.47 197.11 244.04 374.60 147.58 534.56 709.76 375.95 532.50 625.80 699.52 222.42 677.25 890.27 861.55 582.68 367.52 872.27 700.40 858.70 350.92 187.60 195.06 756.61 720.79 565.16 507.74 702.95 201.25 880.49 570.18 426.54
226.70 583.68 0.00 781.53 243.66 760.88 674.52 503.07 331.77 310.62 269.64 756.95 369.66 396.76 536.84 336.61 740.21 225.14 308.21 507.17 316.74 710.29 480.37 327.35 203.33 331.37 418.28 432.76 496.61 197.02 694.94 377.60 173.96 378.57 779.42 691.71 397.73 693.98 217.24 206.31 254.58 500.05 432.34 737.96 537.42 293.16 461.88 555.22 586.68 551.14 588.87 337.16 733.33 343.66 433.38 450.20 431.88 130.15 687.75 285.37 343.43 516.85 787.39 609.88 363.25 283.07 597.25 575.17 796.56 566.24 98.41 691.94 187.28 561.18 687.08 540.05 666.86 267.70 455.66 705.40 438.13 303.60 602.08 621.12 150.20 582.71 285.39 438.49 378.62 133.81 793.37 360.47 184.38 309.38 267.39 574.63 484.49 475.61 632.11 87.96 809.04 267.86 719.45 448.65 705.28 669.30
563.63 273.07 781.53 0.00 636.67 200.67 727.11 527.61 796.14 1006.36 570.09 462.68 966.83 734.54 293.47 512.03 622.96 878.91 984.00 762.60 536.95 126.06 976.23 961.27 650.36 985.14 1105.21 1083.69 991.49 627.30 328.40 773.12 846.86 553.99 563.15 341.25 870.62 308.91 880.30 748.55 896.14 784.16 1076.91 374.43 801.52 701.98 509.28 1171.70 260.60 757.87 679.35 985.42 705.27 954.33 708.74 550.19 563.26 766.67 313.95 968.25 972.11 273.48 292.33 1056.41 944.20 711.11 438.74 264.56 62.88 312.72 683.12 1061.62 767.88 340.02 94.45 264.12 404.66 582.21 403.63 723.21 804.25 530.84 620.38 656.33 803.97 330.61 842.14 948.46 1032.39 799.94 248.81 983.08 870.97 963.15 536.78 265.52 349.95 817.00 785.73 723.75 389.03 963.60 110.46 1099.58 610.39 428.82
103.25 458.17 243.66 636.67 0.00 624.13 650.81 377.77 471.58 530.56 194.43 699.09 469.00 426.80 413.39 285.84 606.11 367.95 461.87 393.43 197.54 554.51 561.94 460.42 84.56 475.04 556.48 607.26 592.27 46.64 502.74 373.90 332.91 327.80 652.51 577.66 564.93 548.79 303.20 302.98 371.00 456.42 611.55 614.51 514.97 345.38 406.64 749.70 441.49 483.86 566.52 487.56 710.98 500.38 466.40 399.43 431.99 186.01 550.36 364.54 425.47 393.40 641.11 678.70 522.20 381.47 546.48 449.66 666.23 421.05 145.25 671.30 295.17 445.47 542.22 394.86 616.09 153.04 340.17 632.81 483.34 123.24 459.44 507.38 337.34 380.70 327.29 549.24 495.46 283.25 597.59 503.28 270.34 464.35 122.20 431.01 286.72 439.29 565.19 167.28 663.85 504.16 574.26 591.37 576.24 507.20
534.18 336.16 760.88 200.67 624.13 0.00 787.86 527.15 789.15 1031.71 566.62 569.50 777.84 807.35 224.04 550.92 518.88 941.34 999.34 643.90 543.85 159.41 970.50 863.18 647.43 1045.85 1119.20 1127.40 945.51 597.85 365.59 833.87 871.53 586.43 669.97 456.31 939.40 130.66 810.87 793.52 808.02 777.62 1094.24 416.86 881.51 770.42 631.90 1212.02 215.18 631.49 724.44 1002.99 809.96 971.66 741.87 623.00 651.65 703.76 459.60 967.62 900.15 244.03 152.92 879.82 984.52 750.47 532.52 344.67 231.05 353.04 696.46 885.66 775.13 457.75 155.20 229.27 525.13 627.18 380.60 808.88 734.14 538.14 490.23 529.95 867.39 268.05 812.69 931.12 995.17 784.40 119.43 1016.27 843.73 1019.15 501.93 254.58 359.77 790.51 585.06 708.22 248.41 1003.92 134.91 1111.51 471.47 338.58
573.95 591.90 674.52 727.11 650.81 787.86 0.00 852.69 385.95 638.13 482.77 377.79 984.64 308.10 650.34 364.97 1019.37 873.26 824.29 966.10 716.97 669.24 1070.24 914.99 679.66 812.58 745.79 714.15 1120.22 637.62 583.42 919.19 591.79 367.65 343.26 482.14 550.47 847.12 791.02 561.18 929.10 1038.54 636.61 579.54 313.09 381.36 292.29 728.82 730.73 1039.30 129.15 908.35 123.98 523.32 241.14 251.38 286.82 749.18 509.44 726.96 943.27 663.65 909.60 1237.35 501.32 475.79 462.77 588.16 738.69 539.83 662.74 1256.27 558.81 502.63 632.66 744.06 424.59 543.33 547.20 139.74 1026.48 648.04 918.75 982.77 824.72 753.26 888.00 1067.67 1046.98 608.05 893.96 834.60 823.88 887.81 626.59 707.91 693.08 1017.84 1065.72 703.37 968.25 625.73 679.14 698.26 936.15 929.73
329.70 465.81 503.07 527.61 377.77 527.15 852.69 0.00 747.37 752.06 420.88 801.71 588.21 750.43 344.94 538.33 237.14 641.98 688.17 304.38 186.33 446.51 515.50 613.89 299.74 736.56 859.72 874.20 531.74 386.30 590.27 394.50 641.53 580.29 833.92 625.68 888.62 500.38 511.51 596.89 517.52 363.69 826.73 701.55 845.27 652.34 560.40 996.39 311.97 293.85 730.47 646.93 874.93 767.18 743.91 601.31 634.30 420.28 652.98 678.68 617.24 324.95 587.59 577.02 789.18 625.28 624.84 474.32 540.26 448.77 466.15 534.01 616.22 586.59 481.55 340.25 709.85 430.55 461.52 847.00 276.64 314.12 99.01 192.31 583.91 311.66 499.42 473.62 604.04 540.40 544.51 742.52 544.37 732.09 277.91 351.37 420.91 363.77 294.05 425.52 554.31 709.30 469.98 890.09 202.21 281.39
418.38 598.74 331.77 796.14 471.58 789.15 385.95 747.37 0.00 376.35 327.20 575.07 689.65 147.88 565.11 295.27 939.79 487.31 438.34 768.48 565.11 738.56 791.52 624.27 492.44 483.66 474.04 392.22 756.42 451.42 586.87 693.42 313.86 278.82 565.32 566.75 176.49 821.20 489.25 215.55 586.35 801.79 383.86 603.96 284.45 126.20 306.78 476.07 644.33 783.95 328.74 544.51 459.13 270.57 144.81 268.32 232.88 448.21 539.45 341.01 641.36 545.12 882.98 934.77 248.57 122.80 414.66 590.23 753.18 561.99 404.25 947.25 229.35 516.19 712.85 635.64 505.44 336.24 477.50 445.27 769.90 493.12 792.80 806.36 440.84 700.04 547.91 770.26 669.26 288.05 908.58 514.81 507.84 551.88 529.33 622.68 607.43 781.33 762.41 390.60 967.00 333.59 742.85 408.11 856.57 844.50
497.53 745.71 310.62 1006.36 530.56 1031.71 638.13 752.06 376.35 0.00 515.95 900.20 533.09 459.55 807.67 592.25 979.84 294.81 189.72 761.92 601.38 924.83 633.11 465.64 487.97 229.61 107.66 183.40 662.66 483.92 880.99 548.49 215.55 566.59 826.10 891.12 320.03 989.75 326.83 295.57 525.96 670.94 207.24 946.42 573.55 419.29 630.23 244.60 847.07 852.35 678.19 414.42 762.11 158.81 521.16 593.45 558.01 440.77 915.80 182.38 477.48 787.68 1083.16 808.69 136.81 425.18 791.01 741.97 991.25 693.64 409.03 869.96 324.88 816.82 911.91 835.82 830.57 461.91 701.97 736.93 666.35 599.37 795.58 778.89 317.77 805.86 472.34 652.45 498.73 247.31 1050.61 261.19 359.69 303.26 563.16 864.60 733.10 700.21 860.33 398.58 1104.81 42.76 946.96 167.51 912.38 953.94
91.18 314.04 269.64 570.09 194.43 566.62 482.77 420.88 327.20 515.95 0.00 538.14 515.67 384.29 342.58 171.74 658.02 460.42 505.39 587.86 240.63 489.09 652.04 538.78 261.17 553.78 595.10 644.61 699.41 154.85 451.28 491.63 325.21 191.90 509.78 422.07 473.89 598.67 451.74 226.90 515.07 555.77 617.49 519.47 458.75 280.69 272.30 733.98 408.71 610.66 398.48 576.74 542.94 494.91 352.28 231.39 266.83 285.74 449.37 468.63 557.66 322.59 623.13 768.49 506.48 204.40 432.38 305.53 545.61 334.19 247.29 827.98 246.23 317.52 520.72 375.79 501.99 60.56 186.02 515.01 570.61 192.17 465.60 532.08 385.48 401.24 486.67 652.22 613.90 268.64 666.65 576.41 418.88 544.66 208.70 400.15 331.75 588.61 651.69 251.12 729.63 479.71 515.29 656.53 575.42 576.13
629.32 348.52 756.95 462.68 699.09 569.50 377.79 801.71 575.07 900.20 538.14 0.00 944.53 491.10 456.77 420.34 832.43 930.78 895.04 897.69 691.54 496.37 1060.82 970.36 747.66 943.43 984.75 917.05 1110.80 652.45 242.74 952.47 714.86 423.02 100.47 176.03 649.55 641.54 846.39 616.55 829.45 994.61 874.33 273.43 541.26 480.91 347.66 1001.88 521.04 988.12 343.26 1022.53 357.58 767.76 442.12 306.75 342.19 744.67 148.73 841.53 998.64 476.76 665.05 1227.81 782.30 575.34 208.42 357.03 407.96 400.59 718.11 1240.21 641.91 360.84 474.41 524.93 104.48 598.70 448.64 260.53 993.26 616.73 828.97 922.27 907.15 570.94 818.08 1056.42 1102.35 689.05 632.87 965.32 879.25 980.69 652.94 514.34 525.45 1027.45 1024.01 758.74 765.99 869.36 434.59 932.94 854.17 736.16
539.49 829.71 369.66 966.83 469.00 777.84 984.64 588.21 689.65 533.09 515.67 944.53 0.00 731.78 768.83 687.41 697.37 238.28 343.37 364.11 497.85 908.96 200.46 85.34 384.44 345.37 493.75 525.25 183.74 475.82 950.49 193.71 500.14 672.30 1025.45 937.74 675.09 888.56 246.82 474.10 115.08 269.28 667.66 1035.14 841.97 662.82 763.35 696.64 828.83 454.54 880.50 260.24 1024.96 545.08 798.74 733.26 697.82 393.46 965.04 368.60 122.31 767.20 880.82 329.97 567.08 587.62 929.71 821.20 1008.89 813.68 377.21 432.53 481.07 821.63 872.38 782.20 904.88 563.94 690.13 982.41 311.57 540.18 561.12 467.82 313.22 759.67 198.54 158.58 217.33 401.60 897.27 346.18 252.66 334.68 514.83 818.35 677.49 302.12 461.84 406.05 987.32 508.22 912.75 541.14 614.15 780.73
426.24 546.73 396.76 734.54 426.80 807.35 308.10 750.43 147.88 459.55 384.29 491.10 731.78 0.00 583.31 297.94 987.57 583.41 558.51 820.23 598.31 715.29 867.16 724.11 511.36 553.55 554.55 500.05 888.66 440.57 492.53 774.36 378.33 268.97 487.47 495.35 279.70 833.82 551.60 280.02 651.34 820.60 423.32 592.75 165.48 103.60 225.26 550.24 671.42 812.99 245.56 655.54 381.28 300.74 66.96 184.35 180.87 476.69 468.05 488.89 681.94 588.49 915.51 959.59 322.74 198.03 428.14 538.22 671.66 504.12 425.61 1019.14 250.71 418.12 678.71 668.17 453.43 325.39 451.92 362.09 774.14 470.52 849.44 881.59 546.96 682.26 682.15 830.54 775.38 352.52 910.92 612.99 581.14 649.98 506.73 632.02 573.01 843.66 898.10 466.24 995.54 416.88 725.19 515.94 921.04 854.48
310.14 147.15 536.84 293.47 413.39 224.04 650.34 344.94 565.11 807.67 342.58 456.77 768.83 583.31 0.00 326.88 466.79 717.30 775.30 554.65 377.81 173.45 804.02 754.08 462.25 821.81 915.33 915.22 812.39 373.81 260.89 699.07 647.49 362.39 528.96 280.74 715.36 259.37 586.83 569.48 653.75 576.62 870.20 378.14 657.47 546.38 407.86 987.98 96.97 536.53 566.05 778.95 681.89 747.62 517.83 398.96 427.61 479.72 308.04 743.58 762.38 19.99 334.99 848.87 760.48 546.98 319.88 155.66 259.72 129.00 472.42 872.33 588.81 288.06 210.03 93.72 384.59 403.14 156.56 584.84 621.58 316.62 385.35 478.65 643.35 134.93 588.65 762.14 843.31 560.36 343.47 792.23 619.69 795.11 300.18 57.57 135.73 609.46 575.24 484.18 441.49 779.88 245.13 918.54 482.69 279.39
249.32 312.58 336.61 512.03 285.84 550.92 364.97 538.33 295.27 592.25 171.74 420.34 687.41 297.94 326.88 0.00 769.16 561.75 615.79 601.13 352.00 454.16 754.45 663.96 370.40 662.47 662.89 641.61 772.59 301.77 358.33 554.22 393.00 41.96 461.96 378.44 397.94 582.97 553.85 337.30 591.19 676.67 564.88 449.94 332.92 219.50 125.27 682.94 406.10 691.56 280.68 673.77 425.14 442.30 272.14 113.59 146.15 411.65 351.14 536.42 651.70 306.89 644.75 900.95 455.44 258.42 260.64 304.07 531.90 325.13 337.05 893.60 308.03 224.57 417.58 397.41 330.25 221.75 182.23 397.21 672.08 297.83 637.34 703.82 486.81 437.36 601.77 729.56 715.23 348.22 670.35 685.68 520.99 645.99 261.62 384.45 328.11 705.94 704.61 353.53 701.06 558.44 447.58 652.38 740.54 605.30
566.84 587.01 740.21 622.96 606.11 518.88 1019.37 237.14 939.79 979.84 658.02 832.43 697.37 987.57 466.79 769.16 0.00 795.89 900.98 356.19 423.47 496.90 682.79 713.65 536.88 902.98 1005.16 1083.75 701.53 623.44 669.19 564.29 822.55 772.27 932.90 747.53 1060.43 389.81 731.14 724.24 598.28 493.20 1006.21 834.57 1063.90 889.48 797.54 1098.42 390.89 309.47 967.61 761.73 1108.71 892.92 924.26 838.45 857.98 657.42 763.20 813.22 756.80 486.78 442.97 652.77 870.92 860.10 778.01 578.50 619.18 581.79 703.29 645.27 753.55 625.59 533.48 420.94 831.05 667.69 586.93 1015.21 446.43 549.48 200.02 242.24 765.28 391.21 507.50 643.41 823.79 749.70 399.45 931.22 698.28 884.52 515.05 409.22 500.46 513.98 358.01 662.66 390.37 937.08 548.90 1067.86 83.22 194.14
425.31 774.46 225.14 878.91 367.95 941.34 873.26 641.98 487.31 294.81 460.42 930.78 238.28 583.41 717.30 561.75 795.89 0.00 105.09 549.01 472.52 865.12 353.89 224.26 359.11 107.09 255.47 311.20 382.89 361.64 834.14 396.01 289.72 579.65 913.39 882.49 436.81 899.38 130.47 383.58 272.99 507.56 450.40 892.95 690.33 518.30 647.98 460.11 730.58 639.44 752.36 119.61 896.82 387.71 632.12 670.11 657.02 238.57 865.36 146.30 227.95 715.46 964.24 529.03 398.80 473.36 774.82 765.95 941.79 771.64 317.24 590.74 366.81 721.71 887.62 745.45 878.76 399.86 646.44 868.89 458.25 463.81 688.91 595.61 74.94 738.49 305.04 357.64 203.92 358.27 953.58 135.33 97.61 96.40 472.79 769.98 644.70 489.82 641.73 276.61 1014.44 285.92 888.59 327.09 712.67 825.08
509.69 807.38 308.21 984.00 461.87 999.34 824.29 688.17 438.34 189.72 505.39 895.04 343.37 558.51 775.30 615.79 900.98 105.09 0.00 641.87 501.84 913.35 458.98 311.96 388.43 48.39 200.51 252.90 487.98 446.02 892.14 501.10 240.75 573.87 916.61 924.31 509.75 956.31 188.47 278.49 378.08 603.40 348.62 961.52 668.70 508.78 626.75 355.02 793.91 732.30 703.39 224.70 847.85 348.53 583.15 588.29 552.85 343.66 897.01 97.33 300.34 795.29 1038.00 634.12 326.53 414.35 772.22 798.87 1022.20 831.70 347.41 695.83 307.80 791.30 932.59 790.66 825.41 444.83 659.80 819.92 563.34 544.17 710.53 693.84 180.03 767.81 410.13 462.73 309.01 340.12 1033.94 76.47 202.70 113.54 575.60 754.51 716.02 594.91 671.49 351.91 1117.25 232.48 951.92 268.79 817.76 854.40
496.68 614.19 507.17 762.60 393.43 643.90 966.10 304.38 768.48 761.92 587.86 897.69 364.11 820.23 554.65 601.13 356.19 549.01 641.87 0.00 434.12 655.92 326.60 420.78 477.99 624.76 767.07 848.89 350.67 440.07 757.86 213.43 612.28 643.09 998.16 776.26 904.90 633.56 520.39 629.31 321.26 158.97 883.64 846.69 908.40 738.81 726.40 996.89 536.48 90.43 881.81 492.91 1026.27 781.98 859.83 714.72 747.28 471.02 748.96 687.56 436.17 541.04 655.88 371.75 801.57 722.25 801.05 605.68 764.77 593.91 530.88 342.52 658.62 648.63 674.63 533.23 839.67 546.47 565.01 993.29 95.57 440.13 207.25 113.95 543.45 528.38 318.35 292.55 552.77 556.81 699.40 581.54 553.25 528.33 450.81 497.08 419.13 175.55 171.84 529.14 638.39 719.16 694.49 835.51 292.75 496.54
209.10 442.50 316.74 536.95 197.54 543.85 716.97 186.33 565.11 601.38 240.63 691.54 497.85 598.31 377.81 352.00 423.47 472.52 501.84 434.12 0.00 493.97 595.11 559.76 113.41 550.23 690.00 718.85 611.35 199.97 572.32 402.75 455.20 393.96 672.46 618.36 714.47 518.17 409.41 413.36 399.85 380.86 640.40 643.21 658.94 494.71 477.27 810.06 392.56 480.18 632.68 562.84 777.14 598.73 592.91 465.59 498.15 233.95 595.79 498.06 516.61 371.77 611.58 624.86 617.39 445.03 553.49 438.76 599.83 390.43 279.82 651.48 440.98 438.56 489.75 364.24 587.06 298.86 307.06 735.34 394.11 127.79 285.34 378.64 397.58 275.80 356.14 553.23 601.67 354.07 599.39 556.19 376.55 549.34 91.58 353.16 293.34 413.70 480.38 239.19 633.23 584.60 536.23 725.94 388.54 440.40
483.59 223.77 710.29 126.06 554.51 159.41 669.24 446.51 738.56 924.83 489.09 496.37 908.96 715.29 173.45 454.16 496.90 865.12 913.35 655.92 493.97 0.00 918.36 910.43 607.38 916.46 1032.49 1025.82 913.66 547.26 270.53 715.25 788.99 496.12 596.84 337.69 852.10 251.04 760.28 690.68 827.20 720.86 997.96 371.11 787.08 673.66 510.05 1090.17 134.54 672.04 680.12 952.40 691.34 884.67 691.28 550.96 572.61 653.17 347.64 917.03 922.81 193.44 241.99 989.19 862.67 693.49 413.90 215.26 137.95 231.19 625.25 950.34 703.29 339.13 36.58 181.17 406.51 524.34 330.01 736.93 692.97 469.44 499.39 570.50 816.80 236.20 762.10 889.95 916.81 733.81 268.64 857.02 793.14 910.23 453.83 158.84 292.08 753.70 694.43 651.06 299.01 882.07 80.45 1030.87 506.55 302.76
574.96 869.62 480.37 976.23 561.94 970.50 1070.24 515.50 791.52 633.11 652.04 1060.82 200.46 867.16 804.02 754.45 682.79 353.89 458.98 326.60 595.11 918.36 0.00 254.02 492.45 460.98 609.36 665.09 49.98 533.80 1012.19 203.11 643.61 736.64 1133.14 1045.48 790.70 935.46 424.12 645.76 231.37 227.40 754.83 1086.22 938.72 767.52 827.69 739.59 797.29 417.03 941.09 389.44 1044.63 706.49 907.74 852.91 840.83 394.43 1024.20 500.19 297.17 796.47 967.36 213.27 714.76 719.84 930.68 861.11 1024.79 849.34 441.55 236.85 616.45 878.43 881.78 802.95 1034.62 619.61 798.14 1057.62 238.86 556.20 533.85 440.55 428.83 727.44 274.62 41.88 314.98 575.98 1005.78 480.55 391.26 450.29 592.41 804.80 674.56 226.93 395.21 400.92 964.99 590.35 928.26 680.98 619.35 742.66
517.78 759.21 327.35 961.27 460.42 863.18 914.99 613.89 624.27 465.64 538.78 970.36 85.34 724.11 754.08 663.96 713.65 224.26 311.96 420.78 559.76 910.43 254.02 0.00 446.35 310.34 475.20 439.91 259.76 454.11 878.86 264.75 414.80 652.89 1024.69 929.37 661.07 934.97 189.85 463.55 189.81 346.21 587.36 1026.31 835.28 620.51 702.07 611.30 798.01 511.21 818.26 174.90 962.72 537.60 760.73 663.61 628.17 325.81 902.07 283.26 43.15 740.26 966.16 343.05 515.60 580.93 862.06 750.70 1013.80 793.13 357.80 445.61 474.38 756.75 873.85 751.38 900.73 540.25 724.80 912.76 382.61 472.17 564.71 471.41 231.64 727.60 214.05 243.92 131.99 419.38 961.94 267.02 190.08 313.00 508.38 787.53 618.35 365.62 538.77 371.82 1050.03 422.88 850.81 455.80 681.51 855.46
169.99 453.27 203.33 650.36 84.56 647.43 679.66 299.74 492.44 487.97 261.17 747.66 384.44 511.36 462.25 370.40 536.88 359.11 388.43 477.99 113.41 607.38 492.45 446.35 0.00 436.82 576.59 628.42 507.71 110.35 570.95 289.34 341.79 332.36 737.07 571.63 601.06 614.69 296.00 313.16 286.44 387.57 526.99 669.03 578.68 429.94 423.41 696.65 496.14 486.05 550.51 449.43 694.97 485.32 538.89 448.63 436.55 120.54 598.93 384.65 403.20 442.26 689.03 594.14 503.98 425.72 552.12 444.76 713.24 477.59 166.41 628.72 341.31 437.19 592.13 460.76 656.06 225.53 305.69 667.04 407.20 155.74 398.75 468.87 284.17 379.38 242.73 464.68 488.26 240.66 645.51 442.78 263.14 435.93 188.10 456.74 336.63 354.73 560.18 125.78 729.75 471.19 626.54 612.53 501.95 465.97
524.78 812.83 331.37 985.14 475.04 1045.85 812.58 736.56 483.66 229.61 553.78 943.43 345.37 553.55 821.81 662.47 902.98 107.09 48.39 624.76 550.23 916.46 460.98 310.34 436.82 0.00 201.80 255.12 489.98 461.11 930.51 463.23 286.07 620.51 965.00 935.33 464.12 1004.70 236.86 326.88 380.08 585.68 347.48 986.78 658.40 498.48 643.57 403.41 837.67 715.19 748.71 193.50 893.17 302.99 620.51 636.68 601.24 344.80 922.27 142.65 283.31 801.82 1070.47 636.12 311.26 404.05 797.48 804.32 1023.31 837.15 362.50 697.83 356.19 796.75 951.17 839.05 873.80 493.22 665.25 865.24 565.34 548.90 755.85 702.70 181.17 816.20 412.13 464.73 311.01 388.51 1038.67 59.44 204.70 96.43 579.02 802.90 729.79 563.71 715.62 382.84 1120.67 186.85 995.68 271.01 819.76 902.79
605.19 849.16 418.28 1105.21 556.48 1119.20 745.79 859.72 474.04 107.66 595.10 984.75 493.75 554.55 915.33 662.89 1005.16 255.47 200.51 767.07 690.00 1032.49 609.36 475.20 576.59 201.80 0.00 81.82 638.36 591.58 988.65 568.83 269.89 620.93 933.76 977.03 427.69 1066.39 359.11 368.20 445.81 691.28 282.25 1054.08 604.37 526.95 711.98 253.21 913.40 857.50 732.53 344.43 869.77 266.47 618.85 678.00 642.56 456.05 1004.33 191.94 436.93 895.34 1146.00 784.50 244.47 504.06 888.70 840.65 1098.91 801.30 516.69 846.21 397.51 887.46 1019.57 910.15 915.12 534.54 781.12 844.59 686.69 612.71 805.14 788.45 330.41 851.15 536.59 613.11 459.39 354.97 1102.48 213.06 348.22 266.27 639.80 874.00 793.60 673.07 866.55 497.00 1181.45 150.42 1050.41 91.21 921.94 996.67
624.29 867.85 432.76 1083.69 607.26 1127.40 714.15 874.20 392.22 183.40 644.61 917.05 525.25 500.05 915.22 641.61 1083.75 311.20 252.90 848.89 718.85 1025.82 665.09 439.91 628.42 255.12 81.82 0.00 694.09 560.62 970.79 650.65 351.71 657.72 866.60 952.57 397.69 1126.74 386.15 417.71 527.63 709.70 200.43 996.18 529.05 518.42 650.06 171.39 912.22 939.32 720.96 426.25 838.13 199.31 537.03 610.30 576.16 537.87 931.67 273.76 483.06 895.23 1206.19 782.96 212.83 515.02 806.88 864.11 1096.46 815.78 462.01 885.52 415.07 859.47 989.24 958.85 848.72 584.05 758.66 809.78 755.83 677.13 886.96 870.27 386.14 932.97 594.48 668.84 515.12 430.71 1166.90 280.93 408.81 334.14 700.15 938.23 852.99 742.54 902.26 502.64 1228.76 164.90 1035.72 15.89 1003.76 1041.84
624.94 899.88 496.61 991.49 592.27 945.51 1120.22 531.74 756.42 662.66 699.41 1110.80 183.74 888.66 812.39 772.59 701.53 382.89 487.98 350.67 611.35 913.66 49.98 259.76 507.71 489.98 638.36 694.09 0.00 561.66 1028.43 218.37 670.57 758.14 1131.63 1067.74 819.70 922.83 430.56 643.73 281.35 243.64 804.81 1102.38 988.70 789.77 849.19 789.57 794.22 441.10 991.07 387.39 1094.61 728.82 901.23 874.41 862.33 444.41 1040.44 529.19 302.91 830.94 917.38 200.46 728.24 744.50 980.66 891.37 1022.51 849.60 463.05 286.83 637.95 894.67 897.04 777.99 1084.60 649.78 768.72 1081.38 255.10 572.44 552.59 459.29 457.83 677.46 324.60 58.12 313.42 571.23 960.90 492.96 407.50 479.29 550.75 754.82 724.54 276.48 411.45 450.90 989.06 640.33 943.52 709.98 643.42 758.90
63.67 468.17 197.02 627.30 46.64 597.85 637.62 386.30 451.42 483.92 154.85 652.45 475.82 440.57 373.81 301.77 623.44 361.64 446.02 440.07 199.97 547.26 533.80 454.11 110.35 461.11 591.58 560.62 561.66 0.00 541.84 399.69 355.17 294.97 628.71 531.02 537.76 579.31 296.89 281.52 396.79 409.78 623.73 574.93 468.33 336.97 368.78 707.31 453.03 530.50 538.85 468.26 683.31 501.15 428.54 386.24 399.16 139.37 503.72 403.48 413.26 353.82 649.80 674.93 499.93 343.97 542.88 460.38 633.53 416.10 98.61 692.14 258.33 438.74 547.87 425.38 594.43 115.18 324.46 654.96 494.95 116.51 485.31 485.37 303.00 401.62 345.19 503.54 489.15 236.61 606.28 461.61 264.03 452.59 152.72 431.38 292.37 442.62 595.71 139.24 694.37 464.88 587.31 544.73 588.51 500.47
482.63 143.67 694.94 328.40 502.74 365.59 583.42 590.27 586.87 880.99 451.28 242.74 950.49 492.53 260.89 358.33 669.19 834.14 892.14 757.86 572.32 270.53 1012.19 878.86 570.95 930.51 988.65 970.79 1028.43 541.84 0.00 860.29 751.33 400.29 343.21 101.28 701.99 398.80 703.67 668.99 857.39 837.51 915.85 168.28 581.58 461.70 359.06 1019.14 278.30 797.42 480.18 910.29 485.33 793.27 529.90 385.01 394.63 668.12 94.01 867.28 847.36 280.88 481.21 1109.76 813.77 549.54 172.21 152.18 353.24 191.30 640.45 1091.80 656.09 133.76 233.95 324.93 184.72 511.84 265.26 476.29 834.43 455.99 646.24 714.26 780.53 366.09 813.68 970.31 961.65 706.55 485.02 898.50 736.53 896.01 483.23 317.70 338.73 870.35 836.13 656.67 523.25 842.18 250.75 986.68 611.43 540.28
459.33 742.61 377.60 773.12 373.90 833.87 919.19 394.50 693.42 548.49 491.63 952.47 193.71 774.36 699.07 554.22 564.29 396.01 501.10 213.43 402.75 715.25 203.11 264.75 289.34 463.23 568.83 650.65 218.37 399.69 860.29 0.00 551.56 596.18 1001.41 860.97 775.33 829.41 322.15 511.76 123.02 122.45 670.21 958.37 868.02 670.76 679.49 793.09 676.29 303.86 834.90 279.48 979.36 621.87 769.74 667.81 673.64 301.57 879.72 489.32 222.74 714.17 863.98 346.73 630.14 626.98 814.86 734.10 821.68 746.78 388.01 339.38 541.07 726.53 678.67 684.57 884.47 514.87 595.03 951.43 117.86 411.72 415.35 322.05 368.43 584.04 145.51 175.34 368.23 511.41 884.78 446.61 355.01 417.58 447.93 661.40 592.61 151.72 311.84 359.69 812.25 505.73 725.15 660.04 506.18 621.66
351.38 639.25 173.96 846.86 332.91 871.53 591.79 641.53 313.86 215.55 325.21 714.86 500.14 378.33 647.49 393.00 822.55 289.72 240.75 612.28 455.20 788.99 643.61 414.80 341.79 286.07 269.89 351.71 670.57 355.17 751.33 551.56 0.00 351.04 736.43 707.14 368.08 857.42 287.86 98.31 428.54 631.83 292.28 794.01 439.22 312.75 442.09 416.79 695.02 702.71 462.64 409.33 607.10 169.70 445.29 408.11 372.67 304.11 734.44 143.42 457.94 641.53 916.21 757.85 189.29 234.17 627.60 630.74 870.82 634.21 272.37 777.66 127.62 617.57 752.41 668.87 645.23 264.65 511.23 579.17 612.09 411.08 740.54 726.23 307.70 645.09 459.35 612.45 493.64 118.56 900.85 292.68 297.36 345.89 434.41 655.62 535.84 598.99 784.12 248.84 976.06 258.31 798.89 361.10 739.33 795.04
280.64 335.24 378.57 553.99 327.80 586.43 367.65 580.29 278.82 566.59 191.90 423.02 672.30 268.97 362.39 41.96 772.27 579.65 573.87 643.09 393.96 496.12 736.64 652.89 332.36 620.51 620.93 657.72 758.14 294.97 400.29 596.18 351.04 0.00 427.74 356.10 397.38 564.85 524.86 295.38 618.80 675.00 579.07 453.50 366.07 242.91 91.05 705.84 402.45 733.52 261.12 699.26 405.58 484.26 254.21 116.27 104.19 381.53 383.40 494.46 609.74 342.40 646.54 871.41 478.34 216.46 296.28 331.50 537.45 283.17 295.09 888.62 266.07 266.53 459.54 399.20 331.38 179.79 205.83 359.99 714.04 339.79 598.09 691.39 504.71 440.41 559.81 700.02 717.12 366.09 676.41 643.72 492.00 649.07 303.58 363.05 351.71 687.09 746.57 335.72 743.02 548.19 489.54 673.61 714.89 628.90
600.96 448.99 779.42 563.15 652.51 669.97 343.26 833.92 565.32 826.10 509.78 100.47 1025.45 487.47 528.96 461.96 932.90 913.39 916.61 998.16 672.46 596.84 1133.14 1024.69 737.07 965.00 933.76 866.60 1131.63 628.71 343.21 1001.41 736.43 427.74 0.00 276.50 631.51 742.01 854.20 638.12 929.92 1008.74 789.87 276.79 546.10 492.37 336.69 901.41 608.18 1025.51 328.32 1033.00 366.03 667.29 420.51 377.60 410.59 738.71 249.20 879.85 981.54 508.97 736.32 1221.46 689.29 576.21 268.35 457.50 508.43 425.76 700.26 1252.90 608.81 420.77 574.88 599.49 204.95 513.53 514.78 268.98 995.53 617.09 914.31 1007.61 838.45 639.19 918.55 1105.19 1066.87 677.72 733.34 993.08 881.31 997.63 580.88 586.53 600.54 1041.58 1023.87 740.89 842.82 783.43 535.06 882.49 923.34 808.35
513.25 175.86 691.71 341.25 577.66 456.31 482.14 625.68 566.75 891.12 422.07 176.03 937.74 495.35 280.74 378.44 747.53 882.49 924.31 776.26 618.36 337.69 1045.48 929.37 571.63 935.33 977.03 952.57 1067.74 531.02 101.28 860.97 707.14 356.10 276.50 0.00 683.77 500.08 804.95 648.97 858.07 857.36 908.55 97.40 514.87 515.13 357.32 1042.82 377.71 817.27 378.90 998.81 404.46 796.09 428.62 390.30 376.41 670.39 27.30 850.56 891.92 300.73 501.54 1129.61 815.32 545.52 152.09 184.37 286.53 227.93 629.63 1118.78 622.17 212.21 301.11 372.97 103.85 482.63 323.44 436.56 871.83 495.30 666.09 759.39 807.55 398.28 814.36 1009.62 1020.17 643.81 458.02 989.40 795.05 966.73 526.78 338.31 370.92 890.20 855.98 670.26 598.24 878.81 347.59 968.46 712.71 560.13
558.92 673.22 397.73 870.62 564.93 939.40 550.47 888.62 176.49 320.03 473.89 649.55 675.09 279.70 715.36 397.94 1060.43 436.81 509.75 904.90 714.47 852.10 790.70 661.07 601.06 464.12 427.69 397.69 819.70 537.76 701.99 775.33 368.08 397.38 631.51 683.77 0.00 962.23 484.76 336.19 652.31 897.78 258.04 767.47 253.52 241.14 381.26 412.82 794.58 930.64 471.30 556.42 478.11 198.38 321.30 342.80 307.36 527.88 670.63 416.89 664.76 695.37 1033.23 965.84 220.38 269.49 586.49 664.71 827.66 660.12 481.78 1027.55 306.88 579.86 815.52 785.89 579.92 458.07 578.41 534.25 835.86 608.06 939.49 953.05 511.75 833.54 683.12 794.45 640.73 408.69 1037.41 490.84 517.62 533.21 644.27 760.43 724.29 873.34 938.90 485.69 1078.01 277.27 845.52 413.58 977.21 992.02
544.11 389.40 693.98 308.91 548.79 130.66 847.12 500.38 821.20 989.75 598.67 641.54 888.56 833.82 259.37 582.97 389.81 899.38 956.31 633.56 518.17 251.04 935.46 934.97 614.69 1004.70 1066.39 1126.74 922.83 579.31 398.80 829.41 857.42 564.85 742.01 500.08 962.23 0.00 836.27 770.83 826.34 763.89 1057.69 547.52 915.89 766.60 655.90 1213.14 232.31 565.80 804.71 989.70 869.22 981.59 777.20 658.33 669.04 660.81 492.81 913.33 943.47 276.08 151.29 866.09 1003.59 759.15 571.01 380.89 357.47 388.37 677.92 871.93 756.29 453.07 214.46 237.95 583.52 604.49 412.65 825.51 729.13 462.80 457.61 550.91 824.44 245.37 788.16 893.58 1028.53 742.44 111.56 983.05 803.41 976.20 426.59 201.80 354.62 776.78 571.33 696.05 193.00 961.84 260.94 1124.04 340.81 250.77
360.56 733.26 217.24 880.30 303.20 810.87 791.02 511.51 489.25 326.83 451.74 846.39 246.82 551.60 586.83 553.85 731.14 130.47 188.47 520.39 409.41 760.28 424.12 189.85 296.00 236.86 359.11 386.15 430.56 296.89 703.67 322.15 287.86 524.86 854.20 804.95 484.76 836.27 0.00 273.70 199.13 444.60 471.27 871.82 663.91 503.99 517.51 511.61 683.80 596.45 687.58 250.08 832.04 355.47 618.56 539.64 548.06 175.46 797.68 167.17 193.44 606.82 901.49 532.90 377.47 409.56 711.71 724.75 846.55 708.53 255.63 601.30 303.01 709.82 796.86 654.15 815.65 400.64 601.69 804.11 440.01 396.76 610.52 622.75 78.81 616.85 234.31 382.24 257.98 253.75 886.53 264.94 32.86 220.58 409.68 644.40 577.65 442.81 633.99 233.58 951.33 306.79 831.96 391.95 647.92 761.97
267.19 540.94 206.31 748.55 302.98 793.52 561.18 596.89 215.55 295.57 226.90 616.55 474.10 280.02 569.48 337.30 724.24 383.58 278.49 629.31 413.36 690.68 645.76 463.55 313.16 326.88 368.20 417.71 643.73 281.52 668.99 511.76 98.31 295.38 638.12 648.97 336.19 770.83 273.70 0.00 460.89 592.34 390.59 718.59 390.21 230.29 348.26 507.08 608.43 701.69 464.45 503.19 601.92 268.01 346.98 309.80 274.36 280.70 637.63 241.73 448.73 549.49 817.90 736.68 279.58 135.86 529.29 532.43 772.51 561.09 204.21 797.74 29.31 544.42 654.10 570.56 546.92 166.34 412.92 558.95 629.62 379.44 692.50 743.26 352.51 546.78 422.80 609.14 531.68 72.50 861.42 354.96 306.56 392.03 373.62 569.03 437.53 565.78 756.84 244.84 915.27 252.81 700.58 429.63 641.02 715.63
443.37 739.71 254.58 896.14 371.00 808.02 929.10 517.52 586.35 525.96 515.07 829.45 115.08 651.34 653.75 591.19 598.28 272.99 378.08 321.26 399.85 827.20 231.37 189.81 286.44 380.08 445.81 527.63 281.35 396.79 857.39 123.02 428.54 618.80 929.92 858.07 652.31 826.34 199.13 460.89 0.00 245.47 670.40 941.48 776.84 547.74 708.11 699.02 719.04 411.69 836.95 265.32 981.41 554.60 687.96 704.78 686.46 278.38 885.37 366.30 185.93 659.44 919.75 444.64 572.40 537.65 814.63 731.20 913.47 698.60 324.53 462.40 441.86 723.63 801.69 672.41 918.57 454.51 592.13 953.48 240.88 435.96 498.90 435.21 245.41 644.59 90.78 273.25 306.23 388.39 925.73 334.32 231.99 369.39 399.75 708.56 575.01 248.58 434.86 290.97 890.85 505.92 848.17 537.02 614.01 665.65
473.45 723.77 500.05 784.16 456.42 777.62 1038.54 363.69 801.79 670.94 555.77 994.61 269.28 820.60 576.62 676.67 493.20 507.56 603.40 158.97 380.86 720.86 227.40 346.21 387.57 585.68 691.28 709.70 243.64 409.78 837.51 122.45 631.83 675.00 1008.74 857.36 897.78 763.89 444.60 592.34 245.47 0.00 792.66 954.76 878.11 717.00 748.81 881.09 586.32 249.40 918.88 401.93 1063.34 736.33 808.57 787.16 779.19 424.02 845.88 549.25 303.06 596.61 814.85 272.25 714.33 724.00 814.36 732.28 814.61 705.62 474.75 308.39 621.65 718.81 745.22 575.55 918.30 495.21 687.92 1034.99 87.05 465.49 366.22 272.92 490.88 656.66 253.88 185.52 448.55 519.84 834.64 526.93 442.79 540.03 472.44 611.70 578.10 32.84 192.56 434.12 797.36 628.18 744.33 725.59 445.70 571.52
560.06 818.84 432.34 1076.91 611.55 1094.24 636.61 826.73 383.86 207.24 617.49 874.33 667.66 423.32 870.20 564.88 1006.21 450.40 348.62 883.64 640.40 997.96 754.83 587.36 526.99 347.48 282.25 200.43 804.81 623.73 915.85 670.21 292.28 579.07 789.87 908.55 258.04 1057.69 471.27 390.59 670.40 792.66 0.00 987.82 484.16 497.70 606.04 169.66 949.42 951.63 668.88 540.98 700.43 122.58 490.28 567.58 532.14 530.64 891.37 304.10 556.30 850.21 1151.10 930.41 135.29 489.83 798.52 815.10 1036.73 766.77 530.75 991.68 419.90 789.45 982.46 903.76 804.70 556.93 747.11 764.89 788.07 667.31 917.30 900.61 448.67 906.37 594.06 796.71 654.32 398.61 1157.08 406.92 504.13 443.91 631.10 927.77 828.12 821.93 982.05 520.30 1172.75 164.48 1012.46 216.32 1028.94 992.96
511.26 268.87 737.96 374.43 614.51 416.86 579.54 701.55 603.96 946.42 519.47 273.43 1035.14 592.75 378.14 449.94 834.57 892.95 961.52 846.69 643.21 371.11 1086.22 1026.31 669.03 986.78 1054.08 996.18 1102.38 574.93 168.28 958.37 794.01 453.50 276.79 97.40 767.47 547.52 871.82 718.59 941.48 954.76 987.82 0.00 612.27 598.83 394.53 1080.03 443.68 878.06 476.30 942.56 488.16 874.53 526.02 435.44 460.11 714.30 124.70 937.43 984.93 376.60 537.68 1218.44 852.53 582.73 189.30 277.38 324.33 252.78 673.54 1189.21 689.28 302.04 349.18 465.98 187.55 580.03 416.45 444.20 932.58 554.14 763.49 856.79 877.93 466.21 850.70 1068.46 1044.43 741.21 536.29 1028.28 838.96 989.35 551.63 435.71 427.56 987.60 953.29 685.30 644.18 903.66 307.22 1012.07 779.71 657.53
532.00 622.47 537.42 801.52 514.97 881.51 313.09 845.27 284.45 573.55 458.75 541.26 841.97 165.48 657.47 332.92 1063.90 690.33 668.70 908.40 658.94 787.08 938.72 835.28 578.68 658.40 604.37 529.05 988.70 468.33 581.58 868.02 439.22 366.07 546.10 514.87 253.52 915.89 663.91 390.21 776.84 878.11 484.16 612.27 0.00 269.08 314.75 562.72 739.02 915.50 217.78 809.94 351.71 450.31 139.64 273.84 261.88 579.76 487.57 582.64 792.13 639.81 966.62 1066.32 472.31 254.35 500.82 619.23 746.80 593.61 535.80 1129.33 360.90 525.09 750.50 730.33 517.87 453.00 515.15 280.73 939.62 584.84 924.35 937.91 671.90 716.54 781.00 940.73 779.55 442.65 923.10 717.84 696.77 754.83 594.54 715.04 645.69 910.95 1000.61 537.80 1033.98 530.79 780.50 513.16 1031.23 878.59
322.64 503.56 293.16 701.98 345.38 770.42 381.36 652.34 126.20 419.29 280.69 480.91 662.82 103.60 546.38 219.50 889.48 518.30 508.78 738.81 494.71 673.66 767.52 620.51 429.94 498.48 526.95 518.42 789.77 336.97 461.70 670.76 312.75 242.91 492.37 515.13 241.14 766.60 503.99 230.29 547.74 717.00 497.70 598.83 269.08 0.00 210.94 589.91 625.60 709.39 295.71 630.32 440.17 384.41 140.22 174.16 138.72 373.09 501.99 456.17 632.21 526.39 862.97 855.99 362.41 94.43 416.17 496.07 657.34 489.80 375.88 958.55 200.98 422.03 637.08 615.63 411.28 221.79 401.73 412.24 731.29 366.92 746.29 777.99 443.36 602.23 578.55 731.65 671.78 302.79 856.69 557.92 477.54 594.91 403.13 603.95 492.98 749.84 794.50 381.12 920.56 447.80 667.08 534.31 851.47 750.88
354.45 330.93 461.88 509.28 406.64 631.90 292.29 560.40 306.78 630.23 272.30 347.66 763.35 225.26 407.86 125.27 797.54 647.98 626.75 726.40 477.27 510.05 827.69 702.07 423.41 643.57 711.98 650.06 849.19 368.78 359.06 679.49 442.09 91.05 336.69 357.32 381.26 655.90 517.51 348.26 708.11 748.81 606.04 394.53 314.75 210.94 0.00 741.51 465.52 747.01 170.07 767.59 314.53 524.47 199.46 40.91 73.90 472.58 330.02 575.69 667.16 394.64 732.50 961.53 514.01 239.52 205.23 327.19 446.40 278.86 386.14 979.67 346.07 247.18 497.13 485.16 298.27 253.60 258.07 286.60 797.35 423.10 659.41 752.71 578.52 492.29 650.86 791.07 775.49 420.76 698.45 699.48 550.37 712.40 386.89 454.10 403.95 778.14 829.88 426.77 770.28 601.07 532.18 665.95 736.99 681.14
686.98 911.05 555.22 1171.70 749.70 1212.02 728.82 996.39 476.07 244.60 733.98 1001.88 696.64 550.24 987.98 682.94 1098.42 460.11 355.02 996.89 810.06 1090.17 739.59 611.30 696.65 403.41 253.21 171.39 789.57 707.31 1019.14 793.09 416.79 705.84 901.41 1042.82 412.82 1213.14 511.61 507.08 699.02 881.09 169.66 1080.03 562.72 589.91 741.51 0.00 1049.88 1043.84 780.50 579.72 852.80 249.50 617.20 703.05 667.61 622.85 1015.52 426.98 654.45 977.13 1306.55 952.86 227.50 598.87 890.73 907.31 1128.94 858.98 618.87 976.44 536.39 907.51 1077.25 1059.21 940.17 673.42 865.17 843.45 910.95 815.23 1040.18 1023.49 477.06 1029.25 716.94 781.47 664.03 470.70 1278.57 431.49 544.06 468.56 786.55 1045.55 944.61 913.93 1026.51 643.18 1306.50 287.36 1112.30 172.75 1148.10 1162.62
389.36 227.00 586.68 260.60 441.49 215.18 730.73 311.97 644.33 847.07 408.71 521.04 828.83 671.42 96.97 406.10 390.89 730.58 793.91 536.48 392.56 134.54 797.29 798.01 496.14 837.67 913.40 912.22 794.22 453.03 278.30 676.29 695.02 402.45 608.18 377.71 794.58 232.31 683.80 608.43 719.04 586.32 949.42 443.68 739.02 625.60 465.52 1049.88 0.00 537.50 635.59 850.19 748.70 826.84 614.80 495.93 506.64 553.51 372.31 800.17 830.27 99.21 293.97 858.57 822.38 567.83 399.10 218.49 228.29 190.90 515.62 815.80 592.49 297.48 169.58 46.63 463.02 442.09 235.78 664.06 558.43 355.50 403.42 435.96 717.14 116.76 630.29 755.41 915.07 599.76 315.31 865.91 696.11 826.98 319.29 39.40 179.66 619.16 598.46 544.53 400.47 841.78 158.01 896.33 439.28 290.73
519.48 657.40 551.14 757.87 483.86 631.49 1039.30 293.85 783.95 852.35 610.66 988.12 454.54 812.99 536.53 691.56 309.47 639.44 732.30 90.43 480.18 672.04 417.03 511.21 486.05 715.19 857.50 939.32 441.10 530.50 797.42 303.86 702.71 733.52 1025.51 817.27 930.64 565.80 596.45 701.69 411.69 249.40 951.63 878.06 915.50 709.39 747.01 1043.84 537.50 0.00 917.08 583.34 1061.54 838.34 849.61 787.92 820.91 420.99 839.39 685.10 526.60 516.54 643.47 379.87 816.34 661.15 801.17 665.91 765.79 625.28 507.43 335.80 682.33 686.24 663.42 551.63 901.44 620.33 554.74 983.02 186.00 478.94 194.84 101.54 584.62 586.49 407.02 382.98 643.20 632.65 677.36 671.97 563.59 618.76 513.12 576.90 509.56 255.70 85.11 479.11 547.96 809.59 695.51 925.94 311.64 503.61
489.66 501.00 588.87 679.35 566.52 724.44 129.15 730.47 328.74 678.19 398.48 343.26 880.50 245.56 566.05 280.68 967.61 752.36 703.39 881.81 632.68 680.12 941.09 818.26 550.51 748.71 732.53 720.96 991.07 538.85 480.18 834.90 462.64 261.12 328.32 378.90 471.30 804.71 687.58 464.45 836.95 918.88 668.88 476.30 217.78 295.71 170.07 780.50 635.59 917.08 0.00 871.97 144.46 546.30 183.93 167.09 190.09 642.65 390.80 606.06 837.23 564.71 877.36 1131.60 568.30 390.14 356.06 497.26 616.47 448.93 556.21 1149.74 493.76 417.25 667.20 655.23 300.09 423.67 428.14 116.53 897.33 518.89 829.48 922.78 739.07 662.36 758.85 961.14 944.46 478.90 836.92 755.32 720.44 808.53 542.30 623.62 574.02 905.24 981.43 596.84 940.35 662.33 650.18 730.94 907.06 845.44
485.56 890.06 337.16 985.42 487.56 1002.99 908.35 646.93 544.51 414.42 576.74 1022.53 260.24 655.54 778.95 673.77 761.73 119.61 224.70 492.91 562.84 952.40 389.44 174.90 449.43 193.50 344.43 426.25 387.39 468.26 910.29 279.48 409.33 699.26 1033.00 998.81 556.42 989.70 250.08 503.19 265.32 401.93 540.98 942.56 809.94 630.32 767.59 579.72 850.19 583.34 871.97 0.00 1003.64 429.03 689.32 787.36 769.04 328.89 971.98 265.91 210.39 758.96 1083.11 454.00 407.03 592.97 865.14 882.27 1038.67 837.99 413.03 556.56 486.42 841.32 958.15 835.77 918.05 519.47 746.35 988.50 397.34 583.42 691.10 601.53 194.55 828.81 254.23 347.56 152.69 470.97 1073.19 186.56 217.22 138.10 563.11 836.52 760.63 370.21 522.12 387.01 1002.83 380.35 1004.63 435.64 698.08 901.14
634.12 538.72 733.33 705.27 710.98 809.96 123.98 874.93 459.13 762.11 542.94 357.58 1024.96 381.28 681.89 425.14 1108.71 896.82 847.85 1026.27 777.14 691.34 1044.63 962.72 694.97 893.17 869.77 838.13 1094.61 683.31 485.33 979.36 607.10 405.58 366.03 404.46 478.11 869.22 832.04 601.92 981.41 1063.34 700.43 488.16 351.71 440.17 314.53 852.80 748.70 1061.54 144.46 1003.64 0.00 647.30 314.32 311.55 334.55 787.11 391.32 750.52 981.69 661.90 906.00 1257.90 625.30 534.60 404.55 530.21 650.55 578.54 700.67 1281.48 631.23 486.57 654.76 729.23 300.61 568.13 525.33 97.05 1041.79 663.35 973.94 1067.24 883.53 744.12 903.31 1086.51 1088.92 623.36 862.48 899.78 864.90 952.99 686.76 709.30 671.21 1049.70 1125.89 741.30 990.35 749.71 701.24 822.24 1051.52 948.40
437.48 705.55 343.66 954.33 500.38 971.66 523.32 767.18 270.57 158.81 494.91 767.76 545.08 300.74 747.62 442.30 892.92 387.71 348.53 781.98 598.73 884.67 706.49 537.60 485.32 302.99 266.47 199.31 728.82 501.15 793.27 621.87 169.70 484.26 667.29 796.09 198.38 981.59 355.47 268.01 554.60 736.33 122.58 874.53 450.31 384.41 524.47 249.50 826.84 838.34 546.30 429.03 647.30 0.00 367.70 485.09 462.11 417.35 768.79 255.76 531.98 727.63 1065.49 875.05 22.00 367.25 685.23 701.81 923.44 653.48 442.07 943.34 297.32 666.87 859.88 818.15 734.67 434.35 624.53 662.83 739.73 580.56 866.19 852.27 348.99 814.79 545.72 703.66 577.41 285.32 1070.33 355.28 388.33 399.42 555.00 805.19 705.54 768.69 923.45 418.54 1096.65 116.14 889.88 215.20 909.03 951.29
414.21 482.83 433.38 708.74 466.40 741.87 241.14 743.91 144.81 521.16 352.28 442.12 798.74 66.96 517.83 272.14 924.26 632.12 583.15 859.83 592.91 691.28 907.74 760.73 538.89 620.51 618.85 537.03 901.23 428.54 529.90 769.74 445.29 254.21 420.51 428.62 321.30 777.20 618.56 346.98 687.96 808.57 490.28 526.02 139.64 140.22 199.46 617.20 614.80 849.61 183.93 689.32 314.32 367.70 0.00 158.55 150.02 513.31 450.82 485.82 748.90 537.82 852.82 996.21 389.70 234.65 361.18 491.34 645.86 478.32 492.57 1052.25 317.67 409.80 689.72 611.55 422.58 313.36 421.07 300.46 841.10 507.14 817.88 884.36 583.58 615.30 692.72 871.87 812.00 409.80 850.35 659.62 617.76 696.69 520.64 575.40 506.05 776.70 907.22 521.34 959.32 478.40 684.08 551.68 927.70 797.22
322.57 371.84 450.20 550.19 399.43 623.00 251.38 601.31 268.32 593.45 231.39 306.75 733.26 184.35 398.96 113.59 838.45 670.11 588.29 714.72 465.59 550.96 852.91 663.61 448.63 636.68 678.00 610.30 874.41 386.24 385.01 667.81 408.11 116.27 377.60 390.30 342.80 658.33 539.64 309.80 704.78 787.16 567.58 435.44 273.84 174.16 40.91 703.05 495.93 787.92 167.09 787.36 311.55 485.09 158.55 0.00 35.44 497.80 370.93 534.78 691.89 418.95 733.95 987.68 475.55 268.59 246.14 368.10 487.31 319.77 411.36 1004.89 339.11 251.25 531.17 492.68 308.00 291.95 295.82 283.62 785.67 411.42 667.37 760.67 600.40 533.20 676.08 816.29 795.60 382.30 739.36 658.57 572.50 673.94 375.21 456.53 441.70 803.36 814.34 451.99 811.19 562.61 561.17 626.19 777.90 678.35
358.01 365.86 431.88 563.26 431.99 651.65 286.82 634.30 232.88 558.01 266.83 342.19 697.82 180.87 427.61 146.15 857.98 657.02 552.85 747.28 498.15 572.61 840.83 628.17 436.55 601.24 642.56 576.16 862.33 399.16 394.63 673.64 372.67 104.19 410.59 376.41 307.36 669.04 548.06 274.36 686.46 779.19 532.14 460.11 261.88 138.72 73.90 667.61 506.64 820.91 190.09 769.04 334.55 462.11 150.02 35.44 0.00 485.72 363.27 516.09 656.45 407.62 745.48 971.22 440.11 233.15 279.13 357.35 520.30 352.76 399.28 992.81 303.67 283.31 563.73 498.14 272.56 283.98 271.05 284.59 791.50 443.98 684.36 777.66 582.08 526.18 643.48 804.21 760.16 346.86 730.05 629.32 580.92 638.50 407.77 467.24 416.93 791.28 849.78 439.91 833.43 527.17 567.11 592.05 801.16 694.12
203.04 573.81 130.15 766.67 186.01 703.76 749.18 420.28 448.21 440.77 285.74 744.67 393.46 476.69 479.72 411.65 657.42 238.57 343.66 471.02 233.95 653.17 394.43 325.81 120.54 344.80 456.05 537.87 444.41 139.37 668.12 301.57 304.11 381.53 738.71 670.39 527.88 660.81 175.46 280.70 278.38 424.02 530.64 714.30 579.76 373.09 472.58 622.85 553.51 420.99 642.65 328.89 787.11 417.35 513.31 497.80 485.72 0.00 643.09 264.11 282.66 493.19 754.22 607.70 395.35 325.41 536.25 565.30 739.44 533.07 86.44 599.91 261.34 534.36 675.11 506.88 640.19 225.18 426.23 695.30 419.43 255.88 519.29 522.53 163.63 499.92 205.82 436.31 367.72 211.66 745.65 322.24 142.60 315.39 234.22 537.29 431.74 453.29 506.10 58.12 775.87 398.01 686.28 532.56 595.61 586.51
540.55 203.16 687.75 313.95 550.36 459.60 509.44 652.98 539.45 915.80 449.37 148.73 965.04 468.05 308.04 351.14 763.20 865.36 897.01 748.96 595.79 347.64 1024.20 902.07 598.93 922.27 1004.33 931.67 1040.44 503.72 94.01 879.72 734.44 383.40 249.20 27.30 670.63 492.81 797.68 637.63 885.37 845.88 891.37 124.70 487.57 501.99 330.02 1015.52 372.31 839.39 390.80 971.98 391.32 768.79 450.82 370.93 363.27 643.09 0.00 873.47 916.98 328.03 528.84 1118.13 788.02 518.22 124.79 211.67 259.23 255.23 602.33 1091.48 624.77 227.77 327.96 376.20 90.71 475.39 299.91 409.26 844.53 468.00 693.39 786.69 800.31 425.58 841.66 982.32 992.87 671.11 485.32 965.33 767.75 956.31 504.21 365.61 398.22 878.72 883.28 642.96 617.26 873.04 344.76 947.56 705.44 587.43
434.00 782.67 285.37 968.25 364.54 967.62 726.96 678.68 341.01 182.38 468.63 841.53 368.60 488.89 743.58 536.42 813.22 146.30 97.33 687.56 498.06 917.03 500.19 283.26 384.65 142.65 191.94 273.76 529.19 403.48 867.28 489.32 143.42 494.46 879.85 850.56 416.89 913.33 167.17 241.73 366.30 549.25 304.10 937.43 582.64 456.17 575.69 426.98 800.17 685.10 606.06 265.91 750.52 255.76 485.82 534.78 516.09 264.11 873.47 0.00 326.41 724.15 1005.65 626.31 252.50 377.59 755.67 774.16 951.91 777.63 345.69 728.87 271.04 760.99 895.83 759.40 788.65 408.07 654.65 722.59 604.55 487.78 613.20 596.51 164.28 745.24 401.48 503.94 350.22 261.98 962.13 173.80 200.03 210.87 486.74 760.77 651.26 563.38 741.81 305.06 1028.39 139.62 938.80 283.15 730.00 850.62
476.93 716.06 343.43 972.11 425.47 900.15 943.27 617.24 641.36 477.48 557.66 998.64 122.31 681.94 762.38 651.70 756.80 227.95 300.34 436.17 516.61 922.81 297.17 43.15 403.20 283.31 436.93 483.06 302.91 413.26 847.36 222.74 457.94 609.74 981.54 891.92 664.76 943.47 193.44 448.73 185.93 303.06 556.30 984.93 792.13 632.21 667.16 654.45 830.27 526.60 837.23 210.39 981.69 531.98 748.90 691.89 656.45 282.66 916.98 326.41 0.00 767.08 1003.13 386.20 527.51 537.78 818.91 707.55 994.68 755.88 314.65 488.76 431.23 713.60 901.41 789.40 922.85 497.10 708.89 941.04 340.60 515.32 607.86 514.56 200.52 770.75 257.20 263.38 145.49 376.23 1005.09 223.87 160.58 276.19 516.88 790.87 661.50 322.47 495.62 328.67 1034.99 438.50 893.96 498.95 724.66 844.40
290.15 140.86 516.85 273.48 393.40 244.03 663.65 324.95 545.12 787.68 322.59 476.76 767.20 588.49 19.99 306.89 486.78 715.46 795.29 541.04 371.77 193.44 796.47 740.26 442.26 801.82 895.34 895.23 830.94 353.82 280.88 714.17 641.53 342.40 508.97 300.73 695.37 276.08 606.82 549.49 659.44 596.61 850.21 376.60 639.81 526.39 394.64 977.13 99.21 516.54 564.71 758.96 661.90 727.63 537.82 418.95 407.62 493.19 328.03 724.15 767.08 0.00 337.86 868.86 749.63 526.99 299.89 149.37 279.71 123.82 452.43 852.34 568.82 268.07 230.02 90.52 384.90 383.15 136.57 564.85 601.59 302.80 405.34 498.64 656.82 154.92 568.66 782.13 823.32 540.37 363.46 812.22 617.85 777.54 280.19 77.56 121.91 629.45 595.23 464.19 425.81 774.70 257.22 898.55 502.68 299.38
628.01 411.04 787.39 292.33 641.11 152.92 909.60 587.59 882.98 1083.16 623.13 665.05 880.82 915.51 334.99 644.75 442.97 964.24 1038.00 655.88 611.58 241.99 967.36 966.16 689.03 1070.47 1146.00 1206.19 917.38 649.80 481.21 863.98 916.21 646.54 736.32 501.54 1033.23 151.29 901.49 817.90 919.75 814.85 1151.10 537.68 966.62 862.97 732.50 1306.55 293.97 643.47 877.36 1083.11 906.00 1065.49 852.82 733.95 745.48 754.22 528.84 1005.65 1003.13 337.86 0.00 1003.33 1087.49 768.54 637.75 416.22 296.09 461.68 748.41 979.27 793.20 498.19 276.94 247.34 605.39 651.56 474.43 902.71 746.12 533.29 513.53 541.93 889.30 347.87 831.00 943.10 1098.15 835.85 43.52 1076.46 896.82 1048.48 520.00 283.49 380.37 813.67 708.57 745.24 106.50 1055.25 230.46 1190.30 481.71 306.64
738.60 985.94 609.88 1056.41 678.70 879.82 1237.35 577.02 934.77 808.69 768.49 1227.81 329.97 959.59 848.87 900.95 652.77 529.03 634.12 371.75 624.86 989.19 213.27 343.05 594.14 636.12 784.50 782.96 200.46 674.93 1109.76 346.73 757.85 871.41 1221.46 1129.61 965.84 866.09 532.90 736.68 444.64 272.25 930.41 1218.44 1066.32 855.99 961.53 952.86 858.57 379.87 1131.60 454.00 1257.90 875.05 996.21 987.68 971.22 607.70 1118.13 626.31 386.20 868.86 1003.33 0.00 858.65 811.97 1086.61 977.43 1086.86 965.66 576.32 102.56 751.22 991.06 1016.26 846.59 1190.55 707.93 899.83 1231.40 300.38 678.82 489.80 477.42 553.17 871.18 447.46 171.39 444.49 664.18 977.65 609.78 520.77 556.57 715.03 868.18 790.88 239.41 294.76 582.28 927.83 765.93 999.72 798.85 601.24 804.18
459.48 683.55 363.25 944.20 522.20 984.52 501.32 789.18 248.57 136.81 506.48 782.30 567.08 322.74 760.48 455.44 870.92 398.80 326.53 801.57 617.39 862.67 714.76 515.60 503.98 311.26 244.47 212.83 728.24 499.93 813.77 630.14 189.29 478.34 689.29 815.32 220.38 1003.59 377.47 279.58 572.40 714.33 135.29 852.53 472.31 362.41 514.01 227.50 822.38 816.34 568.30 407.03 625.30 22.00 389.70 475.55 440.11 395.35 788.02 252.50 527.51 749.63 1087.49 858.65 0.00 371.37 663.23 679.81 901.44 631.48 427.75 951.61 308.89 680.01 849.75 840.15 712.67 445.92 637.67 641.06 748.00 587.73 865.70 849.01 326.99 821.87 553.99 725.66 555.41 263.32 1051.07 333.28 393.99 386.49 577.00 818.05 717.11 747.17 901.45 438.13 1079.00 124.41 884.80 196.94 920.60 969.95
295.58 518.44 283.07 711.11 381.47 750.47 475.79 625.28 122.80 425.18 204.40 575.34 587.62 198.03 546.98 258.42 860.10 473.36 414.35 722.25 445.03 693.49 719.84 580.93 425.72 404.05 504.06 515.02 744.50 343.97 549.54 626.98 234.17 216.46 576.21 545.52 269.49 759.15 409.56 135.86 537.65 724.00 489.83 582.73 254.35 94.43 239.52 598.87 567.83 661.15 390.14 592.97 534.60 367.25 234.65 268.59 233.15 325.41 518.22 377.59 537.78 526.99 768.54 811.97 371.37 0.00 393.43 509.93 648.23 499.63 281.45 874.98 106.55 415.78 676.00 521.20 479.82 228.79 390.42 506.67 721.20 396.57 670.00 683.56 417.55 605.64 526.65 686.38 645.97 208.36 812.06 463.49 442.42 500.48 413.10 557.35 499.98 701.64 746.26 322.08 844.20 382.42 700.60 530.91 776.88 765.30
479.21 301.41 597.25 438.74 546.48 532.52 462.77 624.84 414.66 791.01 432.38 208.42 929.71 428.14 319.88 260.64 778.01 774.82 772.22 801.05 553.49 413.90 930.68 862.06 552.12 797.48 888.70 806.88 980.66 542.88 172.21 814.86 627.60 296.28 268.35 152.09 586.49 571.01 711.71 529.29 814.63 814.36 798.52 189.30 500.82 416.17 205.23 890.73 399.10 801.17 356.06 865.14 404.55 685.23 361.18 246.14 279.13 536.25 124.79 755.67 818.91 299.89 637.75 1086.61 663.23 393.43 0.00 309.53 384.02 261.20 591.37 1110.46 499.98 152.42 377.32 390.41 103.94 458.83 246.43 323.03 853.09 474.65 685.76 779.06 699.88 454.81 742.07 972.56 903.97 601.79 610.11 848.69 678.85 851.64 464.40 377.45 381.92 847.20 880.80 594.37 695.46 748.25 414.80 822.77 722.44 599.27
396.71 8.51 575.17 264.56 449.66 344.67 588.16 474.32 590.23 741.97 305.53 357.03 821.20 538.22 155.66 304.07 578.50 765.95 798.87 605.68 438.76 215.26 861.11 750.70 444.76 804.32 840.65 864.11 891.37 460.38 152.18 734.10 630.74 331.50 457.50 184.37 664.71 380.89 724.75 532.43 731.20 732.28 815.10 277.38 619.23 496.07 327.19 907.31 218.49 665.91 497.26 882.27 530.21 701.81 491.34 368.10 357.35 565.30 211.67 774.16 707.55 149.37 416.22 977.43 679.81 509.93 309.53 0.00 287.13 48.33 552.82 948.20 521.77 157.50 219.98 199.02 252.55 366.09 139.07 531.86 701.25 367.44 541.01 634.31 691.01 213.91 673.51 881.76 853.04 574.17 372.70 863.76 691.89 850.19 347.18 179.09 186.55 765.12 712.28 556.65 512.92 699.21 209.76 876.75 561.67 435.05
569.86 295.64 796.56 62.88 666.23 231.05 738.69 540.26 753.18 991.25 545.61 407.96 1008.89 671.66 259.72 531.90 619.18 941.79 1022.20 764.77 599.83 137.95 1024.79 1013.80 713.24 1023.31 1098.91 1096.46 1022.51 633.53 353.24 821.68 870.82 537.45 508.43 286.53 827.66 357.47 846.55 772.51 913.47 814.61 1036.73 324.33 746.80 657.34 446.40 1128.94 228.29 765.79 616.47 1038.67 650.55 923.44 645.86 487.31 520.30 739.44 259.23 951.91 994.68 279.71 296.09 1086.86 901.44 648.23 384.02 287.13 0.00 297.61 731.68 1044.09 754.78 307.33 143.01 274.92 349.94 606.17 416.28 668.49 786.72 576.34 631.71 664.25 866.85 345.05 848.37 983.70 1054.76 814.25 311.69 994.97 879.41 1026.03 544.03 267.69 395.45 847.45 816.11 743.90 402.59 948.49 173.34 1098.38 644.50 440.71
352.43 52.07 566.24 312.72 421.05 353.04 539.83 448.77 561.99 693.64 334.19 400.59 813.68 504.12 129.00 325.13 581.79 771.64 831.70 593.91 390.43 231.19 849.34 793.13 477.59 837.15 801.30 815.78 849.60 416.10 191.30 746.78 634.21 283.17 425.76 227.93 660.12 388.37 708.53 561.09 698.60 705.62 766.77 252.78 593.61 489.80 278.86 858.98 190.90 625.28 448.93 837.99 578.54 653.48 478.32 319.77 352.76 533.07 255.23 777.63 755.88 123.82 461.68 965.66 631.48 499.63 261.20 48.33 297.61 0.00 514.71 936.43 549.24 201.06 218.27 214.34 296.11 394.75 171.90 565.46 689.48 335.06 514.35 607.65 696.70 213.43 625.18 849.38 885.60 536.78 419.59 855.31 675.67 839.82 298.85 186.57 174.78 738.46 700.51 526.47 530.20 650.88 253.32 828.42 561.19 408.39
162.28 550.46 98.41 683.12 145.25 696.46 662.74 466.15 404.25 409.03 247.29 718.11 377.21 425.61 472.42 337.05 703.29 317.24 347.41 530.88 279.82 625.25 441.55 357.80 166.41 362.50 516.69 462.01 463.05 98.61 640.45 388.01 272.37 295.09 700.26 629.63 481.78 677.92 255.63 204.21 324.53 474.75 530.75 673.54 535.80 375.88 386.14 618.87 515.62 507.43 556.21 413.03 700.67 442.07 492.57 411.36 399.28 86.44 602.33 345.69 314.65 452.43 748.41 576.32 427.75 281.45 591.37 552.82 731.68 514.71 0.00 593.53 174.90 537.35 588.67 512.37 626.47 186.73 423.07 655.08 487.50 215.12 506.70 550.22 242.30 498.50 264.72 404.93 454.16 164.43 704.89 407.19 229.04 353.98 251.33 476.22 390.98 481.01 592.54 40.63 792.98 366.27 635.15 446.12 623.50 599.08
755.81 956.71 691.94 1061.62 671.30 885.66 1256.27 534.01 947.25 869.96 827.98 1240.21 432.53 1019.14 872.33 893.60 645.27 590.74 695.83 342.52 651.48 950.34 236.85 445.61 628.72 697.83 846.21 885.52 286.83 692.14 1091.80 339.38 777.66 888.62 1252.90 1118.78 1027.55 871.93 601.30 797.74 462.40 308.39 991.68 1189.21 1129.33 958.55 979.67 976.44 815.80 335.80 1149.74 556.56 1281.48 943.34 1052.25 1004.89 992.81 599.91 1091.48 728.87 488.76 852.34 979.27 102.56 951.61 874.98 1110.46 948.20 1044.09 936.43 593.53 0.00 768.43 958.04 985.38 852.43 1182.19 780.26 889.99 1248.61 257.37 635.81 495.64 437.34 635.44 845.67 480.15 273.95 547.05 734.24 983.49 712.34 568.44 659.13 672.02 825.17 761.65 275.55 300.60 634.16 883.76 827.20 973.81 901.41 607.08 761.17
286.52 530.28 187.28 767.88 295.17 775.13 558.81 616.22 229.35 324.88 246.23 641.91 481.07 250.71 588.81 308.03 753.55 366.81 307.80 658.62 440.98 703.29 616.45 474.38 341.31 356.19 397.51 415.07 637.95 258.33 656.09 541.07 127.62 266.07 608.81 622.17 306.88 756.29 303.01 29.31 441.86 621.65 419.90 689.28 360.90 200.98 346.07 536.39 592.49 682.33 493.76 486.42 631.23 297.32 317.67 339.11 303.67 261.34 624.77 271.04 431.23 568.82 793.20 751.22 308.89 106.55 499.98 521.77 754.78 549.24 174.90 768.43 0.00 522.33 673.43 545.86 537.43 185.67 432.25 588.26 625.41 350.13 681.60 725.12 337.48 566.11 439.62 579.83 560.99 101.81 836.72 384.27 335.87 421.34 386.34 554.49 456.86 595.09 727.53 215.53 899.70 282.12 719.91 430.96 670.33 734.09
392.29 148.99 561.18 340.02 445.47 457.75 502.63 586.59 516.19 816.82 317.52 360.84 821.63 418.12 288.06 224.57 625.59 721.71 791.30 648.63 438.56 339.13 878.43 756.75 437.19 796.75 887.46 859.47 894.67 438.74 133.76 726.53 617.57 266.53 420.77 212.21 579.86 453.07 709.82 544.42 723.63 718.81 789.45 302.04 525.09 422.03 247.18 907.51 297.48 686.24 417.25 841.32 486.57 666.87 409.80 251.25 283.31 534.36 227.77 760.99 713.60 268.07 498.19 991.06 680.01 415.78 152.42 157.50 307.33 201.06 537.35 958.04 522.33 0.00 302.55 250.85 256.36 378.08 131.50 475.45 700.67 322.23 533.34 626.64 646.77 327.32 679.92 836.55 859.09 572.79 516.51 856.19 676.96 805.95 349.47 287.00 229.50 751.65 728.38 562.97 593.96 776.21 349.03 875.36 650.14 494.95
520.17 211.47 687.08 94.45 542.22 155.20 632.66 481.55 712.85 911.91 520.72 474.41 872.38 678.71 210.03 417.58 533.48 887.62 932.59 674.63 489.75 36.58 881.78 873.85 592.13 951.17 1019.57 989.24 897.04 547.87 233.95 678.67 752.41 459.54 574.88 301.11 815.52 214.46 796.86 654.10 801.69 745.22 982.46 349.18 750.50 637.08 497.13 1077.25 169.58 663.42 667.20 958.15 654.76 859.88 689.72 531.17 563.73 675.11 327.96 895.83 901.41 230.02 276.94 1016.26 849.75 676.00 377.32 219.98 143.01 218.27 588.67 985.38 673.43 302.55 0.00 169.67 369.93 487.76 334.70 700.35 728.01 436.39 526.46 561.88 812.68 262.10 753.33 854.01 953.39 705.49 261.30 893.60 802.59 942.65 442.33 187.65 255.50 778.06 721.50 629.30 335.59 869.15 46.48 1005.13 543.13 339.34
380.67 197.11 540.05 264.12 394.86 229.27 744.06 340.25 635.64 835.82 375.79 524.93 782.20 668.17 93.72 397.41 420.94 745.45 790.66 533.23 364.24 181.17 802.95 751.38 460.76 839.05 910.15 958.85 777.99 425.38 324.93 684.57 668.87 399.20 599.49 372.97 785.89 237.95 654.15 570.56 672.41 575.55 903.76 465.98 730.33 615.63 485.16 1059.21 46.63 551.63 655.23 835.77 729.23 818.15 611.55 492.68 498.14 506.88 376.20 759.40 789.40 90.52 247.34 846.59 840.15 521.20 390.41 199.02 274.92 214.34 512.37 852.43 545.86 250.85 169.67 0.00 441.15 404.22 227.09 655.37 603.95 308.87 356.79 450.09 670.51 100.53 583.66 761.07 868.44 588.51 290.86 829.12 649.48 811.25 272.66 36.15 133.03 608.39 551.83 497.90 353.84 807.91 179.40 942.96 447.89 244.10
579.57 244.04 666.86 404.66 616.09 525.13 424.59 709.85 505.44 830.57 501.99 104.48 904.88 453.43 384.59 330.25 831.05 878.76 825.41 839.67 587.06 406.51 1034.62 900.73 656.06 873.80 915.12 848.72 1084.60 594.43 184.72 884.47 645.23 331.38 204.95 103.85 579.92 583.52 815.65 546.92 918.57 918.30 804.70 187.55 517.87 411.28 298.27 940.17 463.02 901.44 300.09 918.05 300.61 734.67 422.58 308.00 272.56 640.19 90.71 788.65 922.85 384.90 605.39 1190.55 712.67 479.82 103.94 252.55 349.94 296.11 626.47 1182.19 537.43 256.36 369.93 441.15 0.00 511.17 350.37 365.01 935.24 558.71 724.49 817.79 803.82 466.46 846.01 1031.40 1007.91 619.42 561.87 901.88 782.79 911.06 567.90 431.64 420.97 951.14 919.53 667.10 702.09 799.73 416.41 864.61 796.15 663.98
100.85 374.60 267.70 582.21 153.04 627.18 543.33 430.55 336.24 461.91 60.56 598.70 563.94 325.39 403.14 221.75 667.69 399.86 444.83 546.47 298.86 524.34 619.61 540.25 225.53 493.22 534.54 584.05 649.78 115.18 511.84 514.87 264.65 179.79 513.53 482.63 458.07 604.49 400.64 166.34 454.51 495.21 556.93 580.03 453.00 221.79 253.60 673.42 442.09 620.33 423.67 519.47 568.13 434.35 313.36 291.95 283.98 225.18 475.39 408.07 497.10 383.15 651.56 707.93 445.92 228.79 458.83 366.09 606.17 394.75 186.73 780.26 185.67 378.08 487.76 404.22 511.17 0.00 246.58 539.78 582.26 231.69 526.16 592.64 324.92 380.44 431.00 591.66 553.34 217.73 695.08 515.85 367.78 484.10 207.28 402.69 271.19 528.05 650.27 227.36 748.93 419.15 534.24 595.97 629.68 549.29
260.79 147.58 455.66 403.63 340.17 380.60 547.20 461.52 477.50 701.97 186.02 448.64 690.13 451.92 156.56 182.23 586.93 646.44 659.80 565.01 307.06 330.01 798.14 724.80 305.69 665.25 781.12 758.66 768.72 324.46 265.26 595.03 511.23 205.83 514.78 323.44 578.41 412.65 601.69 412.92 592.13 687.92 747.11 416.45 515.15 401.73 258.07 865.17 235.78 554.74 428.14 746.35 525.33 624.53 421.07 295.82 271.05 426.23 299.91 654.65 708.89 136.57 474.43 899.83 637.67 390.42 246.43 139.07 416.28 171.90 423.07 889.99 432.25 131.50 334.70 227.09 350.37 246.58 0.00 428.28 632.62 254.18 541.91 635.21 571.50 255.13 548.42 768.50 793.95 454.66 500.03 724.69 568.83 730.68 217.97 214.13 145.88 660.42 639.85 431.47 562.38 665.73 348.83 774.55 602.89 423.07
606.19 534.56 705.40 723.21 632.81 808.88 139.74 847.00 445.27 736.93 515.01 260.53 982.41 362.09 584.84 397.21 1015.21 868.89 819.92 993.29 735.34 736.93 1057.62 912.76 667.04 865.24 844.59 809.78 1081.38 654.96 476.29 951.43 579.17 359.99 268.98 436.56 534.25 825.51 804.11 558.95 953.48 1034.99 764.89 444.20 280.73 412.24 286.60 843.45 664.06 983.02 116.53 988.50 97.05 662.83 300.46 283.62 284.59 695.30 409.26 722.59 941.04 564.85 902.71 1231.40 641.06 506.67 323.03 531.86 668.49 565.46 655.08 1248.61 588.26 475.45 700.35 655.37 365.01 539.78 428.28 0.00 1013.86 635.42 946.01 1039.31 855.60 683.41 875.38 1060.01 1044.75 595.43 893.40 871.85 836.97 923.09 646.25 642.41 574.16 1021.77 1068.13 695.71 990.66 765.47 695.12 793.89 1023.59 851.35
521.52 709.76 438.13 804.25 483.34 734.14 1026.48 276.64 769.90 666.35 570.61 993.26 311.57 774.14 621.58 672.08 446.43 458.25 563.34 95.57 394.11 692.97 238.86 382.61 407.20 565.34 686.69 755.83 255.10 494.95 834.43 117.86 612.09 714.04 995.53 871.83 835.86 729.13 440.01 629.62 240.88 87.05 788.07 932.58 939.62 731.29 797.35 910.95 558.43 186.00 897.33 397.34 1041.79 739.73 841.10 785.67 791.50 419.43 844.53 604.55 340.60 601.59 746.12 300.38 748.00 721.20 853.09 701.25 786.72 689.48 487.50 257.37 625.41 700.67 728.01 603.95 935.24 582.26 632.62 1013.86 0.00 378.44 297.49 204.19 447.88 588.30 222.78 196.98 470.08 571.94 766.92 546.02 472.87 535.44 414.65 567.80 514.70 87.13 193.98 477.55 733.96 623.59 716.44 739.94 388.32 503.80
143.08 375.95 303.60 530.84 123.24 538.14 648.04 314.12 493.12 599.37 192.17 616.73 540.18 470.52 316.62 297.83 549.48 463.81 544.17 440.13 127.79 469.44 556.20 472.17 155.74 548.90 612.71 677.13 572.44 116.51 455.99 411.72 411.08 339.79 617.09 495.30 608.06 462.80 396.76 379.44 435.96 465.49 667.31 554.14 584.84 366.92 423.10 815.23 355.50 478.94 518.89 583.42 663.35 580.56 507.14 411.42 443.98 255.88 468.00 487.78 515.32 302.80 533.29 678.82 587.73 396.57 474.65 367.44 576.34 335.06 215.12 635.81 350.13 322.23 436.39 308.87 558.71 231.69 254.18 635.42 378.44 0.00 413.13 506.43 419.51 290.14 397.78 514.32 575.47 352.06 489.77 578.12 366.20 560.21 36.21 345.02 180.89 446.53 479.20 255.75 577.86 571.46 470.80 661.24 516.33 383.96
428.71 532.50 602.08 620.38 459.44 490.23 918.75 99.01 792.80 795.58 465.60 828.97 561.12 849.44 385.35 637.34 200.02 688.91 710.53 207.25 285.34 499.39 533.85 564.71 398.75 755.85 805.14 886.96 552.59 485.31 646.24 415.35 740.54 598.09 914.31 666.09 939.49 457.61 610.52 692.50 498.90 366.22 917.30 763.49 924.35 746.29 659.41 1040.18 403.42 194.84 829.48 691.10 973.94 866.19 817.88 667.37 684.36 519.29 693.39 613.20 607.86 405.34 513.53 489.80 865.70 670.00 685.76 541.01 631.71 514.35 506.70 495.64 681.60 533.34 526.46 356.79 724.49 526.16 541.91 946.01 297.49 413.13 0.00 93.30 682.92 410.67 500.16 494.47 696.70 639.41 557.05 787.00 643.38 735.58 376.92 392.94 489.82 365.04 195.04 524.53 565.80 752.82 509.92 896.35 116.80 320.59
509.34 625.80 621.12 656.33 507.38 529.95 982.77 192.31 806.36 778.89 532.08 922.27 467.82 881.59 478.65 703.82 242.24 595.61 693.84 113.95 378.64 570.50 440.55 471.41 468.87 702.70 788.45 870.27 459.29 485.37 714.26 322.05 726.23 691.39 1007.61 759.39 953.05 550.91 622.75 743.26 435.21 272.92 900.61 856.79 937.91 777.99 752.71 1023.49 435.96 101.54 922.78 601.53 1067.24 852.27 884.36 760.67 777.66 522.53 786.69 596.51 514.56 498.64 541.93 477.42 849.01 683.56 779.06 634.31 664.25 607.65 550.22 437.34 725.12 626.64 561.88 450.09 817.79 592.64 635.21 1039.31 204.19 506.43 93.30 0.00 652.07 492.86 406.86 401.17 603.40 670.76 585.45 695.49 589.89 642.28 470.22 475.36 503.39 271.74 182.66 555.27 632.61 736.13 593.97 879.66 210.10 413.89
366.67 699.52 150.20 803.97 337.34 867.39 824.72 583.91 440.84 317.77 385.48 907.15 313.22 546.96 643.35 486.81 765.28 74.94 180.03 543.45 397.58 816.80 428.83 231.64 284.17 181.17 330.41 386.14 457.83 303.00 780.53 368.43 307.70 504.71 838.45 807.55 511.75 824.44 78.81 352.51 245.41 490.88 448.67 877.93 671.90 443.36 578.52 477.06 717.14 584.62 739.07 194.55 883.53 348.99 583.58 600.40 582.08 163.63 800.31 164.28 200.52 656.82 889.30 553.17 326.99 417.55 699.88 691.01 866.85 696.70 242.30 635.44 337.48 646.77 812.68 670.51 803.82 324.92 571.50 855.60 447.88 419.51 682.92 652.07 0.00 663.55 283.43 416.38 228.42 283.33 909.28 210.27 67.00 159.18 397.85 700.92 595.37 476.95 641.86 201.67 939.50 284.19 849.91 402.03 682.06 750.14
393.30 222.42 582.71 330.61 380.70 268.05 753.26 311.66 700.04 805.86 401.24 570.94 759.67 682.26 134.93 437.36 391.21 738.49 767.81 528.38 275.80 236.20 727.44 727.60 379.38 816.20 851.15 932.97 677.46 401.62 366.09 584.04 645.09 440.41 639.19 398.28 833.54 245.37 616.85 546.78 644.59 656.66 906.37 466.21 716.54 602.23 492.29 1029.25 116.76 586.49 662.36 828.81 744.12 814.79 615.30 533.20 526.18 499.92 425.58 745.24 770.75 154.92 347.87 871.18 821.87 605.64 454.81 213.91 345.05 213.43 498.50 845.67 566.11 327.32 262.10 100.53 466.46 380.44 255.13 683.41 588.30 290.14 410.67 492.86 663.55 0.00 622.11 735.58 859.59 558.55 356.93 790.66 642.52 815.31 326.01 77.36 109.25 675.43 576.42 505.16 438.37 799.59 274.77 942.36 347.76 322.32
408.86 677.25 285.39 842.14 327.29 812.69 888.00 499.42 547.91 472.34 486.67 818.08 198.54 682.15 588.65 601.77 507.50 305.04 410.13 318.35 356.14 762.10 274.62 214.05 242.73 412.13 536.59 594.48 324.60 345.19 813.68 145.51 459.35 559.81 918.55 814.36 683.12 788.16 234.31 422.80 90.78 253.88 594.06 850.70 781.00 578.55 650.86 716.94 630.29 407.02 758.85 254.23 903.31 545.72 692.72 676.08 643.48 205.82 841.66 401.48 257.20 568.66 831.00 447.46 553.99 526.65 742.07 673.51 848.37 625.18 264.72 480.15 439.62 679.92 753.33 583.66 846.01 431.00 548.42 875.38 222.78 397.78 500.16 406.86 283.43 622.11 0.00 295.49 316.29 417.48 874.52 425.10 267.17 392.33 361.57 619.81 578.67 286.72 416.76 263.94 897.87 429.58 763.06 610.37 569.80 701.64
567.21 890.27 438.49 948.46 549.24 931.12 1067.67 473.62 770.26 652.45 652.22 1056.42 158.58 830.54 762.14 729.56 643.41 357.64 462.73 292.55 553.23 889.95 41.88 243.92 464.68 464.73 613.11 668.84 58.12 503.54 970.31 175.34 612.45 700.02 1105.19 1009.62 794.45 893.58 382.24 609.14 273.25 185.52 796.71 1068.46 940.73 731.65 791.07 781.47 755.41 382.98 961.14 347.56 1086.51 703.66 871.87 816.29 804.21 436.31 982.32 503.94 263.38 782.13 943.10 171.39 725.66 686.38 972.56 881.76 983.70 849.38 404.93 273.95 579.83 836.55 854.01 761.07 1031.40 591.66 768.50 1060.01 196.98 514.32 494.47 401.17 416.38 735.58 295.49 0.00 273.10 560.18 963.90 487.25 349.38 454.04 550.53 764.78 695.21 218.36 353.33 442.80 930.94 632.23 900.49 684.73 585.30 700.78
533.17 861.55 378.62 1032.39 495.46 995.17 1046.98 604.04 669.26 498.73 613.90 1102.35 217.33 775.38 843.31 715.23 823.79 203.92 309.01 552.77 601.67 916.81 314.98 131.99 488.26 311.01 459.39 515.12 313.42 489.15 961.65 368.23 493.64 717.12 1066.87 1020.17 640.73 1028.53 257.98 531.68 306.23 448.55 654.32 1044.43 779.55 671.78 775.49 664.03 915.07 643.20 944.46 152.69 1088.92 577.41 812.00 795.60 760.16 367.72 992.87 350.22 145.49 823.32 1098.15 444.49 555.41 645.97 903.97 853.04 1054.76 885.60 454.16 547.05 560.99 859.09 953.39 868.44 1007.91 553.34 793.95 1044.75 470.08 575.47 696.70 603.40 228.42 859.59 316.29 273.10 0.00 511.73 1065.24 270.60 225.12 217.39 601.94 900.88 750.34 467.96 626.43 425.84 1143.59 489.84 982.80 531.01 777.84 885.43
250.22 582.68 133.81 799.94 283.25 784.40 608.05 540.40 288.05 247.31 268.64 689.05 401.60 352.52 560.36 348.22 749.70 358.27 340.12 556.81 354.07 733.81 575.98 419.38 240.66 388.51 354.97 430.71 571.23 236.61 706.55 511.41 118.56 366.09 677.72 643.81 408.69 742.44 253.75 72.50 388.39 519.84 398.61 741.21 442.65 302.79 420.76 470.70 599.76 632.65 478.90 470.97 623.36 285.32 409.80 382.30 346.86 211.66 671.11 261.98 376.23 540.37 835.85 664.18 263.32 208.36 601.79 574.17 814.25 536.78 164.43 734.24 101.81 572.79 705.49 588.51 619.42 217.73 454.66 595.43 571.94 352.06 639.41 670.76 283.33 558.55 417.48 560.18 511.73 0.00 841.83 345.59 286.61 386.59 315.85 617.93 488.92 493.28 698.73 175.06 857.50 290.07 751.97 414.82 713.52 706.63
632.85 367.52 793.37 248.81 597.59 119.43 893.96 544.51 908.58 1050.61 666.65 632.87 897.27 910.92 343.47 670.35 399.45 953.58 1033.94 699.40 599.39 268.64 1005.78 961.94 645.51 1038.67 1102.48 1166.90 960.90 606.28 485.02 884.78 900.85 676.41 733.34 458.02 1037.41 111.56 886.53 861.42 925.73 834.64 1157.08 536.29 923.10 856.69 698.45 1278.57 315.31 677.36 836.92 1073.19 862.48 1070.33 850.35 739.36 730.05 745.65 485.32 962.13 1005.09 363.46 43.52 977.65 1051.07 812.06 610.11 372.70 311.69 419.59 704.89 983.49 836.72 516.51 261.30 290.86 561.87 695.08 500.03 893.40 766.92 489.77 557.05 585.45 909.28 356.93 874.52 963.90 1065.24 841.83 0.00 1067.89 855.97 1049.98 525.98 313.36 423.89 854.05 682.89 745.52 140.22 1061.23 238.34 1151.01 452.37 263.12
525.28 872.27 360.47 983.08 503.28 1016.27 834.60 742.52 514.81 261.19 576.41 965.32 346.18 612.99 792.23 685.68 931.22 135.33 76.47 581.54 556.19 857.02 480.55 267.02 442.78 59.44 213.06 280.93 492.96 461.61 898.50 446.61 292.68 643.72 993.08 989.40 490.84 983.05 264.94 354.96 334.32 526.93 406.92 1028.28 717.84 557.92 699.48 431.49 865.91 671.97 755.32 186.56 899.78 355.28 659.62 658.57 629.32 322.24 965.33 173.80 223.87 812.22 1076.46 609.78 333.28 463.49 848.69 863.76 994.97 855.31 407.19 712.34 384.27 856.19 893.60 829.12 901.88 515.85 724.69 871.85 546.02 578.12 787.00 695.49 210.27 790.66 425.10 487.25 270.60 345.59 1067.89 0.00 232.94 53.21 556.46 830.98 753.98 546.34 708.68 366.56 1098.11 246.29 937.47 296.82 848.00 908.75
327.70 700.40 184.38 870.97 270.34 843.73 823.88 544.37 507.84 359.69 418.88 879.25 252.66 581.14 619.69 520.99 698.28 97.61 202.70 553.25 376.55 793.14 391.26 190.08 263.14 204.70 348.22 408.81 407.50 264.03 736.53 355.01 297.36 492.00 881.31 795.05 517.62 803.41 32.86 306.56 231.99 442.79 504.13 838.96 696.77 477.54 550.37 544.06 696.11 563.59 720.44 217.22 864.90 388.33 617.76 572.50 580.92 142.60 767.75 200.03 160.58 617.85 896.82 520.77 393.99 442.42 678.85 691.89 879.41 675.67 229.04 568.44 335.87 676.96 802.59 649.48 782.79 367.78 568.83 836.97 472.87 366.20 643.38 589.89 67.00 642.52 267.17 349.38 225.12 286.61 855.97 232.94 0.00 194.01 376.82 677.26 547.09 409.95 615.40 200.72 918.47 339.65 828.88 424.70 615.06 729.11
487.39 858.70 309.38 963.15 464.35 1019.15 887.81 732.09 551.88 303.26 544.66 980.69 334.68 649.98 795.11 645.99 884.52 96.40 113.54 528.33 549.34 910.23 450.29 313.00 435.93 96.43 266.27 334.14 479.29 452.59 896.01 417.58 345.89 649.07 997.63 966.73 533.21 976.20 220.58 392.03 369.39 540.03 443.91 989.35 754.83 594.91 712.40 468.56 826.98 618.76 808.53 138.10 952.99 399.42 696.69 673.94 638.50 315.39 956.31 210.87 276.19 777.54 1048.48 556.57 386.49 500.48 851.64 850.19 1026.03 839.82 353.98 659.13 421.34 805.95 942.65 811.25 911.06 484.10 730.68 923.09 535.44 560.21 735.58 642.28 159.18 815.31 392.33 454.04 217.39 386.59 1049.98 53.21 194.01 0.00 549.61 830.20 741.10 508.31 660.22 313.35 1091.26 283.28 984.99 350.03 809.07 901.90
117.52 350.92 267.39 536.78 122.20 501.93 626.59 277.91 529.33 563.16 208.70 652.94 514.83 506.73 300.18 261.62 515.05 472.79 575.60 450.81 91.58 453.83 592.41 508.38 188.10 579.02 639.80 700.15 550.75 152.72 483.23 447.93 434.41 303.58 580.88 526.78 644.27 426.59 409.68 373.62 399.75 472.44 631.10 551.63 594.54 403.13 386.89 786.55 319.29 513.12 542.30 563.11 686.76 555.00 520.64 375.21 407.77 234.22 504.21 486.74 516.88 280.19 520.00 715.03 577.00 413.10 464.40 347.18 544.03 298.85 251.33 672.02 386.34 349.47 442.33 272.66 567.90 207.28 217.97 646.25 414.65 36.21 376.92 470.22 397.85 326.01 361.57 550.53 601.94 315.85 525.98 556.46 376.82 549.61 0.00 308.81 217.10 482.74 442.99 269.46 541.65 535.25 452.06 697.45 480.12 420.17
367.71 187.60 574.63 265.52 431.01 254.58 707.91 351.37 622.68 864.60 400.15 514.34 818.35 632.02 57.57 384.45 409.22 769.98 754.51 497.08 353.16 158.84 804.80 787.53 456.74 802.90 874.00 938.23 754.82 431.38 317.70 661.40 655.62 363.05 586.53 338.31 760.43 201.80 644.40 569.03 708.56 611.70 927.77 435.71 715.04 603.95 454.10 1045.55 39.40 576.90 623.62 836.52 709.30 805.19 575.40 456.53 467.24 537.29 365.61 760.77 790.87 77.56 283.49 868.18 818.05 557.35 377.45 179.09 267.69 186.57 476.22 825.17 554.49 287.00 187.65 36.15 431.64 402.69 214.13 642.41 567.80 345.02 392.94 475.36 700.92 77.36 619.81 764.78 900.88 617.93 313.36 830.98 677.26 830.20 308.81 0.00 169.18 644.54 587.98 516.85 389.99 821.84 197.41 922.34 425.12 280.25
299.47 195.06 484.49 349.95 286.72 359.77 693.08 420.91 607.43 733.10 331.75 525.45 677.49 573.01 135.73 328.11 500.46 644.70 716.02 419.13 293.34 292.08 674.56 618.35 336.63 729.79 793.60 852.99 724.54 292.37 338.73 592.61 535.84 351.71 600.54 370.92 724.29 354.62 577.65 437.53 575.01 578.10 828.12 427.56 645.69 492.98 403.95 944.61 179.66 509.56 574.02 760.63 671.21 705.54 506.05 441.70 416.93 431.74 398.22 651.26 661.50 121.91 380.37 790.88 717.11 499.98 381.92 186.55 395.45 174.78 390.98 761.65 456.86 229.50 255.50 133.03 420.97 271.19 145.88 574.16 514.70 180.89 489.82 503.39 595.37 109.25 578.67 695.21 750.34 488.92 423.89 753.98 547.09 741.10 217.10 169.18 0.00 594.68 525.73 431.61 486.87 690.34 301.98 837.10 457.01 377.13
506.29 756.61 475.61 817.00 439.29 790.51 1017.84 363.77 781.33 700.21 588.61 1027.45 302.12 843.66 609.46 705.94 513.98 489.82 594.91 175.55 413.70 753.70 226.93 365.62 354.73 563.71 673.07 742.54 276.48 442.62 870.35 151.72 598.99 687.09 1041.58 890.20 873.34 776.78 442.81 565.78 248.58 32.84 821.93 987.60 910.95 749.84 778.14 913.93 619.16 255.70 905.24 370.21 1049.70 768.69 776.70 803.36 791.28 453.29 878.72 563.38 322.47 629.45 813.67 239.41 747.17 701.64 847.20 765.12 847.45 738.46 481.01 275.55 595.09 751.65 778.06 608.39 951.14 528.05 660.42 1021.77 87.13 446.53 365.04 271.74 476.95 675.43 286.72 218.36 467.96 493.28 854.05 546.34 409.95 508.31 482.74 644.54 594.68 0.00 205.45 466.96 803.66 657.45 777.17 758.43 468.30 590.93
560.51 720.79 632.11 785.73 565.19 585.06 1065.72 294.05 762.41 860.33 651.69 1024.01 461.84 898.10 575.24 704.61 358.01 641.73 671.49 171.84 480.38 694.43 395.21 538.77 560.18 715.62 866.55 902.26 411.45 595.71 836.13 311.84 784.12 746.57 1023.87 855.98 938.90 571.33 633.99 756.84 434.86 192.56 982.05 953.29 1000.61 794.50 829.88 1026.51 598.46 85.11 981.43 522.12 1125.89 923.45 907.22 814.34 849.78 506.10 883.28 741.81 495.62 595.23 708.57 294.76 901.45 746.26 880.80 712.28 816.11 700.51 592.54 300.60 727.53 728.38 721.50 551.83 919.53 650.27 639.85 1068.13 193.98 479.20 195.04 182.66 641.86 576.42 416.76 353.33 626.43 698.73 682.89 708.68 615.40 660.22 442.99 587.98 525.73 205.45 0.00 564.22 633.07 817.57 704.96 918.15 306.48 510.27
174.04 565.16 87.96 723.75 167.28 708.22 703.37 425.52 390.60 398.58 251.12 758.74 406.05 466.24 484.18 353.53 662.66 276.61 351.91 529.14 239.19 651.06 400.92 371.82 125.78 382.84 497.00 502.64 450.90 139.24 656.67 359.69 248.84 335.72 740.89 670.26 485.69 696.05 233.58 244.84 290.97 434.12 520.30 685.30 537.80 381.12 426.77 643.18 544.53 479.11 596.84 387.01 741.30 418.54 521.34 451.99 439.91 58.12 642.96 305.06 328.67 464.19 745.24 582.28 438.13 322.08 594.37 556.65 743.90 526.47 40.63 634.16 215.53 562.97 629.30 497.90 667.10 227.36 431.47 695.71 477.55 255.75 524.53 555.27 201.67 505.16 263.94 442.80 425.84 175.06 745.52 366.56 200.72 313.35 269.46 516.85 431.61 466.96 564.22 0.00 811.11 355.82 675.78 486.75 627.73 591.75
659.17 507.74 809.04 389.03 663.85 248.41 968.25 554.31 967.00 1104.81 729.63 765.99 987.32 995.54 441.49 701.06 390.37 1014.44 1117.25 638.39 633.23 299.01 964.99 1050.03 729.75 1120.67 1181.45 1228.76 989.06 694.37 523.25 812.25 976.06 743.02 842.82 598.24 1078.01 193.00 951.33 915.27 890.85 797.36 1172.75 644.18 1033.98 920.56 770.28 1306.50 400.47 547.96 940.35 1002.83 990.35 1096.65 959.32 811.19 833.43 775.87 617.26 1028.39 1034.99 425.81 106.50 927.83 1079.00 844.20 695.46 512.92 402.59 530.20 792.98 883.76 899.70 593.96 335.59 353.84 702.09 748.93 562.38 990.66 733.96 577.86 565.80 632.61 939.50 438.37 897.87 930.94 1143.59 857.50 140.22 1098.11 918.47 1091.26 541.65 389.99 486.87 803.66 633.07 811.11 0.00 1063.86 336.96 1239.10 473.59 272.92
494.56 702.95 267.86 963.60 504.16 1003.92 625.73 709.30 333.59 42.76 479.71 869.36 508.22 416.88 779.88 558.44 937.08 285.92 232.48 719.16 584.60 882.07 590.35 422.88 471.19 186.85 150.42 164.90 640.33 464.88 842.18 505.73 258.31 548.19 783.43 878.81 277.27 961.84 306.79 252.81 505.92 628.18 164.48 903.66 530.79 447.80 601.07 287.36 841.78 809.59 662.33 380.35 749.71 116.14 478.40 562.61 527.17 398.01 873.04 139.62 438.50 774.70 1055.25 765.93 124.41 382.42 748.25 699.21 948.49 650.88 366.27 827.20 282.12 776.21 869.15 807.91 799.73 419.15 665.73 765.47 623.59 571.46 752.82 736.13 284.19 799.59 429.58 632.23 489.84 290.07 1061.23 246.29 339.65 283.28 535.25 821.84 690.34 657.45 817.57 355.82 1063.86 0.00 904.20 180.79 869.62 937.16
547.37 201.25 719.45 110.46 574.26 134.91 679.14 469.98 742.85 946.96 515.29 434.59 912.75 725.19 245.13 447.58 548.90 888.59 951.92 694.49 536.23 80.45 928.26 850.81 626.54 995.68 1050.41 1035.72 943.52 587.31 250.75 725.15 798.89 489.54 535.06 347.59 845.52 260.94 831.96 700.58 848.17 744.33 1012.46 307.22 780.50 667.08 532.18 1112.30 158.01 695.51 650.18 1004.63 701.24 889.88 684.08 561.17 567.11 686.28 344.76 938.80 893.96 257.22 230.46 999.72 884.80 700.60 414.80 209.76 173.34 253.32 635.15 973.81 719.91 349.03 46.48 179.40 416.41 534.24 348.83 695.12 716.44 470.80 509.92 593.97 849.91 274.77 763.06 900.49 982.80 751.97 238.34 937.47 828.88 984.99 452.06 197.41 301.98 777.17 704.96 675.78 336.96 904.20 0.00 1051.61 587.00 383.21
608.40 880.49 448.65 1099.58 591.37 1111.51 698.26 890.09 408.11 167.51 656.53 932.94 541.14 515.94 918.54 652.38 1067.86 327.09 268.79 835.51 725.94 1030.87 680.98 455.80 612.53 271.01 91.21 15.89 709.98 544.73 986.68 660.04 361.10 673.61 882.49 968.46 413.58 1124.04 391.95 429.63 537.02 725.59 216.32 1012.07 513.16 534.31 665.95 172.75 896.33 925.94 730.94 435.64 822.24 215.20 551.68 626.19 592.05 532.56 947.56 283.15 498.95 898.55 1190.30 798.85 196.94 530.91 822.77 876.75 1098.38 828.42 446.12 901.41 430.96 875.36 1005.13 942.96 864.61 595.97 774.55 793.89 739.94 661.24 896.35 879.66 402.03 942.36 610.37 684.73 531.01 414.82 1151.01 296.82 424.70 350.03 697.45 922.34 837.10 758.43 918.15 486.75 1239.10 180.79 1051.61 0.00 1013.15 1045.20
528.83 570.18 705.28 610.39 576.24 471.47 936.15 202.21 856.57 912.38 575.42 854.17 614.15 921.04 482.69 740.54 83.22 712.67 817.76 292.75 388.54 506.55 619.35 681.51 501.95 819.76 921.94 1003.76 643.42 588.51 611.43 506.18 739.33 714.89 923.34 712.71 977.21 340.81 647.92 641.02 614.01 445.70 1028.94 779.71 1031.23 851.47 736.99 1148.10 439.28 311.64 907.06 698.08 1051.52 909.03 927.70 777.90 801.16 595.61 705.44 730.00 724.66 502.68 481.71 601.24 920.60 776.88 722.44 561.67 644.50 561.19 623.50 607.08 670.33 650.14 543.13 447.89 796.15 629.68 602.89 1023.59 388.32 516.33 116.80 210.10 682.06 347.76 569.80 585.30 777.84 713.52 452.37 848.00 615.06 809.07 480.12 425.12 457.01 468.30 306.48 627.73 473.59 869.62 587.00 1013.15 0.00 203.79
527.04 426.54 669.30 428.82 507.20 338.58 929.73 281.39 844.50 953.94 576.13 736.16 780.73 854.48 279.39 605.30 194.14 825.08 854.40 496.54 440.40 302.76 742.66 855.46 465.97 902.79 996.67 1041.84 758.90 500.47 540.28 621.66 795.04 628.90 808.35 560.13 992.02 250.77 761.97 715.63 665.65 571.52 992.96 657.53 878.59 750.88 681.14 1162.62 290.73 503.61 845.44 901.14 948.40 951.29 797.22 678.35 694.12 586.51 587.43 850.62 844.40 299.38 306.64 804.18 969.95 765.30 599.27 435.05 440.71 408.39 599.08 761.17 734.09 494.95 339.34 244.10 663.98 549.29 423.07 851.35 503.80 383.96 320.59 413.89 750.14 322.32 701.64 700.78 885.43 706.63 263.12 908.75 729.11 901.90 420.17 280.25 377.13 590.93 510.27 591.75 272.92 937.16 383.21 1045.20 203.79 0.00
DEMAND_SECTION
1 0
2 9
3 5
4 7
5 6
6 7
7 6
8 7
9 6
10 6
11 7
12 5
13 8
14 9
15 8
16 8
17 8
18 10
19 10
20 9
21 9
22 6
23 8
24 6
25 6
26 9
27 9
28 6
29 8
30 9
31 8
32 9
33 7
34 8
35 9
36 5
37 5
38 5
39 6
40 5
41 8
42 6
43 9
44 5
45 8
46 5
47 8
48 10
49 7
50 8
51 10
52 8
53 9
54 9
55 9
56 6
57 8
58 6
59 8
60 7
61 5
62 5
63 8
64 8
65 7
66 7
67 8
68 10
69 9
70 6
71 6
72 9
73 6
74 6
75 10
76 9
77 6
78 9
79 6
80 7
81 10
82 5
83 9
84 6
85 5
86 8
87 10
88 5
89 7
90 9
91 6
92 10
93 7
94 7
95 7
96 5
97 6
98 6
99 9
100 9
101 6
102 10
103 8
104 9
105 6
106 6
DEPOT_SECTION
1
-1
EOF
