NAME: LDG100_2322_snow_100_0275
COMMENT: CVRP with travel times.  rootPos=2,custPos=3,demandType=2,avgRouteSizeIndex=2,weather=snow,lambda_cluster=1,lambda_random=4, T1=300,T2=700,beta=1, alpha(i,j) ~ U(0.8,1.2)
TYPE: CVRP
DIMENSION: 101
EDGE_WEIGHT_TYPE: EXPLICIT
EDGE_WEIGHT_FORMAT: FULL_MATRIX
CAPACITY: 35
NODE_COORD_SECTION
1 500 500
2 485 836
3 311 278
4 855 43
5 522 849
6 141 68
7 386 544
8 328 769
9 898 25
10 176 89
11 903 243
12 471 469
13 467 852
14 396 313
15 538 784
16 362 571
17 91 60
18 525 573
19 519 592
20 374 800
21 314 835
22 402 844
23 492 829
24 958 54
25 600 421
26 515 960
27 339 815
28 240 327
29 289 676
30 369 697
31 401 794
32 305 878
33 655 858
34 162 618
35 481 757
36 221 993
37 633 866
38 252 832
39 232 542
40 323 753
41 303 544
42 377 536
43 312 565
44 363 990
45 492 794
46 343 771
47 322 758
48 140 959
49 253 394
50 560 658
51 456 664
52 646 748
53 712 102
54 568 613
55 437 536
56 276 596
57 255 959
58 461 584
59 641 425
60 361 651
61 418 866
62 340 971
63 856 218
64 12 456
65 353 515
66 543 763
67 270 657
68 217 953
69 538 970
70 520 794
71 383 571
72 247 665
73 71 577
74 468 757
75 536 424
76 802 770
77 868 415
78 514 88
79 10 548
80 556 494
81 477 758
82 414 508
83 213 373
84 376 695
85 682 962
86 791 487
87 637 864
88 857 604
89 253 744
90 204 660
91 705 426
92 973 48
93 364 430
94 219 816
95 628 454
96 445 499
97 132 705
98 321 952
99 142 686
100 100 243
101 928 925
EDGE_WEIGHT_SECTION
0.00 494.94 472.46 862.22 522.16 868.57 208.02 503.73 894.94 835.78 729.10 69.33 523.78 344.90 425.61 245.49 965.68 125.14 163.09 519.73 612.18 535.29 469.15 929.27 235.25 657.36 555.99 510.90 428.82 364.32 468.62 661.45 560.50 563.78 386.79 833.32 592.33 634.45 417.34 497.58 309.37 176.67 310.99 742.22 470.20 540.60 508.34 871.08 419.09 239.66 289.31 452.03 746.67 205.46 175.50 349.35 777.97 205.78 271.21 350.60 585.72 756.72 611.19 745.82 227.66 396.89 433.27 802.42 677.54 464.67 228.13 455.14 635.44 410.74 157.41 640.15 562.41 624.20 779.48 122.07 396.21 192.84 485.25 386.58 727.62 475.63 586.80 592.07 539.79 483.63 381.89 910.90 253.54 645.59 202.23 94.81 615.58 713.90 570.98 670.11 798.57
494.94 0.00 834.80 1286.14 67.46 1155.66 475.99 262.56 1257.66 1113.93 990.07 564.27 39.91 783.67 148.97 444.83 1186.49 369.80 346.03 212.24 247.43 137.29 25.79 1250.27 599.77 162.42 239.68 828.18 369.52 308.36 161.13 318.83 277.98 526.73 135.05 454.25 246.15 332.89 542.05 284.25 498.57 505.92 518.25 321.99 109.64 225.69 273.49 543.69 757.00 311.17 287.02 318.90 1049.44 341.93 467.13 507.18 365.13 353.00 635.61 348.48 123.28 303.74 1023.27 882.55 524.38 144.28 430.82 438.51 214.41 109.41 483.20 456.48 697.29 150.34 562.76 460.39 814.03 1062.84 762.22 484.79 125.63 497.98 779.37 286.10 406.28 668.83 236.83 666.16 326.69 474.99 638.95 1215.06 619.11 417.61 506.39 478.47 585.39 289.07 543.41 941.16 580.31
472.46 834.80 0.00 897.68 859.96 422.01 420.36 724.17 1008.16 465.02 954.51 476.58 794.89 164.78 837.84 444.74 519.12 529.68 567.63 777.04 832.00 873.12 848.98 1022.43 517.24 938.90 788.51 140.14 599.20 615.51 777.11 847.47 934.69 574.74 758.56 1024.89 902.86 847.43 437.35 704.00 427.51 389.01 453.24 1008.23 829.83 741.04 693.24 1041.55 206.41 653.19 638.55 862.34 651.85 610.00 435.90 523.07 984.28 522.03 528.69 562.94 878.26 995.69 836.60 523.27 338.02 801.43 601.02 972.69 979.22 821.20 440.47 626.69 657.08 739.23 367.34 1041.06 878.37 531.44 604.40 485.42 749.14 433.49 265.22 625.32 1087.78 773.01 912.18 928.54 710.17 574.08 639.37 1057.64 312.36 774.65 538.70 377.65 707.23 984.95 661.43 447.45 1271.03
862.22 1286.14 897.68 0.00 1279.76 1188.96 952.69 1276.58 110.48 1228.18 516.28 792.89 1302.79 900.49 1183.21 1040.70 1286.07 925.47 963.42 1287.15 1366.94 1274.28 1260.35 195.60 777.52 1422.32 1317.29 994.83 1236.19 1125.62 1268.95 1428.74 1193.02 1327.84 1187.12 1628.45 1161.19 1387.76 1166.41 1265.74 1116.74 984.04 1114.12 1524.60 1249.83 1249.14 1261.36 1635.05 1092.04 1024.77 1123.16 1196.20 245.83 1001.62 932.33 1136.70 1540.95 1036.20 687.06 1139.21 1327.60 1530.62 398.37 1420.95 1035.03 1141.86 1197.33 1563.92 1435.14 1209.64 992.19 1178.70 1404.50 1211.07 894.59 1181.88 737.10 639.19 1459.09 883.35 1196.54 989.85 1119.91 1147.88 1371.73 810.81 1170.51 804.15 1314.04 1247.69 673.35 230.81 977.10 1410.20 816.28 891.82 1379.64 1487.80 1335.04 1182.68 1383.93
522.16 67.46 859.96 1279.76 0.00 1173.25 493.58 301.45 1275.25 1155.09 983.69 589.72 81.05 806.29 96.55 462.42 1202.27 409.65 379.10 246.96 288.57 204.75 69.50 1317.73 622.42 224.66 280.82 836.57 436.98 324.14 208.15 359.97 210.52 594.19 152.64 495.39 178.69 400.35 585.76 343.14 539.73 470.95 535.84 363.13 118.30 293.15 332.38 590.73 774.59 282.50 304.61 266.48 1061.44 335.55 484.72 524.77 406.27 370.59 650.11 364.26 164.42 328.47 1037.77 923.69 521.94 137.90 464.45 485.55 172.67 112.74 493.47 483.24 759.36 167.93 580.35 435.49 807.65 1103.98 829.68 502.38 143.22 531.22 810.52 301.88 384.78 651.87 169.37 674.82 394.15 516.13 632.57 1282.52 635.96 454.58 573.85 514.97 630.35 330.21 584.55 982.30 606.31
868.57 1155.66 422.01 1188.96 1173.25 0.00 679.67 1037.63 1299.44 83.99 1353.32 833.18 1144.21 586.79 1107.11 769.94 97.11 890.70 928.65 1058.96 1093.92 1156.92 1129.87 1384.56 929.35 1318.08 1047.60 408.87 871.04 897.43 1071.48 1187.82 1308.71 843.47 1027.83 1293.62 1276.88 1128.84 780.13 995.94 699.35 711.02 737.65 1329.64 1111.45 1019.72 1006.70 1218.38 558.21 1034.69 875.86 1223.36 1073.86 971.02 782.39 784.67 1256.12 847.50 847.75 869.41 1177.18 1293.18 1235.41 573.67 760.03 1066.09 869.75 1175.69 1328.54 1088.99 722.39 898.53 830.20 1040.86 789.35 1377.80 1197.43 844.48 757.61 876.97 1030.03 739.07 433.33 919.69 1412.98 1092.07 1286.20 1225.81 982.01 842.81 958.43 1419.77 665.04 1043.38 835.97 773.76 882.36 1253.68 852.08 391.71 1667.14
208.02 475.99 420.36 952.69 493.58 679.67 0.00 357.96 1059.70 734.39 899.68 235.29 464.54 419.97 437.12 90.27 776.78 211.03 248.98 379.29 414.25 477.25 450.20 1077.44 338.28 638.41 404.21 409.51 283.50 217.76 391.81 514.63 629.04 378.37 359.78 710.97 597.21 481.22 213.72 316.27 164.05 31.35 163.69 649.97 431.78 374.83 327.03 689.77 318.58 376.78 244.00 543.69 706.86 291.35 102.72 187.23 629.27 167.83 406.44 189.74 508.91 617.20 794.10 562.41 82.34 395.77 247.86 611.23 648.87 409.32 42.72 310.57 451.81 361.19 337.05 698.13 674.94 675.00 613.86 286.83 350.36 88.66 399.47 240.02 733.31 577.57 606.53 691.43 393.93 298.22 435.94 1072.04 167.76 460.73 363.37 172.82 430.17 630.68 385.57 584.58 1004.72
503.73 262.56 724.17 1276.58 301.45 1037.63 357.96 0.00 1307.21 963.87 1077.35 499.40 248.31 686.55 325.10 354.84 1038.03 414.13 452.08 132.54 136.41 210.81 288.35 1335.91 685.34 395.48 80.22 638.99 178.72 159.90 119.33 220.44 501.30 346.41 248.34 423.26 474.01 185.12 385.77 41.69 350.41 366.70 345.46 365.25 258.48 36.87 30.93 415.19 571.28 397.61 297.60 495.03 1030.75 380.51 425.88 254.62 354.69 393.86 695.07 200.02 223.19 315.54 1082.73 718.16 386.15 347.93 178.11 333.39 396.80 313.79 315.24 228.98 505.10 242.50 609.57 692.99 852.61 978.81 581.90 539.74 257.76 446.62 605.96 137.64 635.55 780.95 470.82 815.00 151.45 310.36 793.90 1300.70 458.06 214.94 592.03 464.61 342.83 272.72 315.41 809.51 842.87
894.94 1257.66 1008.16 110.48 1275.25 1299.44 1059.70 1307.21 0.00 1281.21 431.00 903.37 1283.19 1010.97 1220.73 1140.43 1396.55 1020.08 1003.43 1227.66 1283.18 1325.62 1231.87 158.66 791.21 1420.08 1226.99 1105.31 1229.75 1209.54 1270.46 1367.21 1298.02 1408.94 1141.45 1570.03 1271.67 1430.09 1248.10 1291.93 1193.49 1071.61 1155.19 1504.36 1213.45 1323.33 1302.69 1585.34 1170.51 1117.63 1084.88 1110.92 356.31 1015.31 1004.47 1222.84 1580.43 971.29 700.75 1230.33 1366.56 1472.57 313.09 1531.43 1122.60 1186.41 1291.05 1480.16 1447.92 1239.10 1102.42 1289.18 1422.88 1154.46 890.95 1184.53 655.74 684.16 1569.57 772.87 1132.03 996.58 1230.39 1231.80 1317.79 725.53 1280.99 914.63 1340.72 1357.92 691.74 123.45 1087.58 1442.37 829.97 989.75 1476.63 1479.41 1445.27 1293.16 1298.65
835.78 1113.93 465.02 1228.18 1155.09 83.99 734.39 963.87 1281.21 0.00 1269.33 766.45 1123.27 629.80 1103.48 727.08 181.10 905.14 888.67 1031.40 1024.04 1093.20 1088.14 1423.78 845.36 1276.35 1012.02 324.88 787.05 879.42 1033.89 1121.83 1280.95 759.48 1045.52 1209.63 1249.15 1044.85 696.14 924.08 615.36 748.06 653.66 1267.11 1038.13 935.73 934.84 1134.39 488.36 950.70 920.89 1163.07 1116.87 905.74 781.27 721.20 1172.13 839.40 763.76 829.10 1113.71 1212.51 1151.42 591.98 708.71 1103.39 785.76 1091.70 1295.66 1060.63 777.11 814.54 848.51 1021.57 832.36 1356.36 1113.44 810.11 775.92 792.98 1046.28 655.08 449.96 891.48 1370.12 1008.08 1239.83 1141.82 898.02 758.82 874.44 1390.03 653.91 959.39 751.98 753.11 798.37 1169.69 768.09 307.72 1587.73
729.10 990.07 954.51 516.28 983.69 1353.32 899.68 1077.35 431.00 1269.33 0.00 794.01 1006.72 828.06 887.14 901.54 1450.43 777.16 782.29 1023.56 1141.99 1121.01 964.28 370.32 596.03 1126.25 1091.02 1069.74 1139.70 1033.85 1074.39 1165.28 1000.03 1213.76 954.06 1373.27 968.20 1259.46 1085.63 1119.04 1006.38 905.77 968.08 1265.36 953.76 1091.70 1108.28 1425.65 1134.20 752.58 899.90 778.56 495.45 696.84 809.29 1052.99 1326.23 863.50 505.57 1035.15 1084.38 1292.99 117.91 1379.61 956.76 845.79 1122.33 1320.47 1139.07 913.57 925.96 1121.84 1315.09 978.01 713.10 828.98 224.74 779.86 1342.19 665.08 954.36 847.52 1102.48 1011.59 1137.16 393.17 977.52 637.22 1212.61 1181.46 463.74 335.11 968.65 1220.73 634.79 823.91 1313.41 1250.17 1268.81 1291.92 982.78
69.33 564.27 476.58 792.89 589.72 833.18 235.29 499.40 903.37 766.45 794.01 0.00 593.11 312.45 493.17 247.81 930.29 194.47 232.42 535.87 616.09 604.62 538.48 988.49 234.80 724.70 560.79 441.57 465.74 374.34 508.88 635.85 629.83 534.95 456.12 835.56 624.14 594.87 442.90 472.85 346.57 239.36 321.23 801.38 539.53 516.27 468.47 846.35 349.76 308.99 330.27 521.36 800.72 254.17 139.44 343.81 785.85 243.31 325.26 346.32 625.98 737.73 680.52 709.76 253.22 451.82 404.44 791.04 672.71 519.60 199.30 385.81 661.93 480.07 220.20 704.79 583.70 679.11 770.44 143.36 465.54 196.96 415.92 396.60 796.95 496.92 633.46 584.03 521.15 454.80 430.72 976.39 184.21 617.31 267.72 98.93 586.75 694.91 542.15 675.43 867.90
523.78 39.91 794.89 1302.79 81.05 1144.21 464.54 248.31 1283.19 1123.27 1006.72 593.11 0.00 823.58 151.76 423.22 1215.00 398.64 379.14 205.27 207.52 136.69 54.63 1290.18 632.64 202.33 199.77 835.84 409.43 336.41 200.47 278.92 291.57 515.23 152.68 414.34 259.74 354.43 570.89 287.71 507.91 492.04 496.64 282.08 85.14 265.60 279.24 509.68 776.05 315.68 304.65 321.69 1078.28 358.58 494.94 475.88 325.22 380.81 673.14 383.84 83.37 291.98 1060.80 842.64 529.94 160.93 426.42 404.50 184.33 130.08 461.59 477.29 685.79 128.73 590.57 500.30 821.07 1022.93 750.72 512.60 153.44 526.82 771.32 321.46 435.12 697.67 250.42 641.66 346.40 435.08 655.60 1254.97 632.30 377.70 546.30 518.38 549.30 249.16 503.50 901.25 609.15
344.90 783.67 164.78 900.49 806.29 586.79 419.97 686.55 1010.97 629.80 828.06 312.45 823.58 0.00 709.74 451.62 683.90 470.04 507.99 716.02 774.51 736.56 779.46 1013.38 522.13 946.09 718.32 304.92 544.36 571.17 700.70 857.74 871.50 671.58 689.04 1018.56 880.25 796.78 571.39 667.80 460.58 435.78 422.28 932.81 754.33 723.42 678.56 1022.83 371.19 523.79 634.21 736.16 786.80 550.36 451.89 513.12 929.44 519.37 579.76 486.53 789.88 869.16 710.15 604.46 455.69 690.68 605.66 971.49 961.67 752.59 462.69 615.13 746.43 704.33 372.23 985.05 896.15 366.66 679.51 455.81 679.62 373.34 298.45 548.91 1072.52 744.27 870.93 896.48 655.33 657.90 675.02 1048.59 252.21 818.53 543.59 411.38 791.05 826.34 745.25 463.86 1143.47
425.61 148.97 837.84 1183.21 96.55 1107.11 437.12 325.10 1220.73 1103.48 887.14 493.17 151.76 709.74 0.00 397.72 1196.35 313.10 305.74 256.88 340.94 242.89 123.18 1228.91 567.90 303.92 304.34 778.60 417.73 275.87 205.77 384.21 263.10 562.27 79.28 528.21 257.66 400.32 582.56 316.94 489.39 466.54 471.14 378.22 66.62 305.65 311.16 643.10 720.07 185.95 231.25 169.93 964.89 239.00 430.20 451.41 439.09 316.07 553.56 358.34 197.24 405.85 941.22 850.59 504.44 41.35 391.09 537.92 251.93 42.85 423.58 409.88 686.00 103.23 525.83 378.08 711.10 1049.81 797.76 447.86 88.70 489.66 745.82 295.96 399.06 555.32 248.34 623.14 430.04 482.12 536.02 1193.70 604.67 485.78 485.03 460.45 597.65 363.03 569.47 972.27 677.70
245.49 444.83 444.74 1040.70 462.42 769.94 90.27 354.84 1140.43 727.08 901.54 247.81 423.22 451.62 397.72 0.00 867.05 301.30 310.89 411.23 399.96 503.79 419.04 1167.71 428.55 607.25 343.77 473.18 238.16 251.04 408.08 483.99 610.65 376.38 318.44 660.34 590.17 478.10 199.02 334.67 111.72 68.82 73.42 628.80 385.09 371.71 323.91 682.61 352.83 438.69 193.81 525.64 797.13 360.06 180.17 151.45 571.22 186.54 483.89 223.02 486.74 589.35 856.68 595.69 106.72 384.04 281.14 596.94 607.55 379.13 76.00 220.30 437.11 294.49 370.33 731.41 676.80 699.38 581.58 367.56 319.20 148.20 348.10 256.29 643.04 655.31 580.85 713.63 349.13 296.23 526.21 1156.39 252.39 475.15 447.72 187.54 429.38 622.20 383.58 574.55 973.56
965.68 1186.49 519.12 1286.07 1202.27 97.11 776.78 1038.03 1396.55 181.10 1450.43 930.29 1215.00 683.90 1196.35 867.05 0.00 987.81 1025.76 1067.50 1125.99 1150.46 1186.29 1481.67 1010.14 1330.44 1069.80 505.98 968.15 922.65 1052.18 1209.22 1400.28 932.58 1117.07 1351.99 1373.99 1148.26 794.54 1019.28 796.46 808.13 834.76 1354.83 1157.46 1074.90 1030.04 1315.49 655.32 1131.80 972.97 1301.38 1167.51 1068.13 879.50 881.78 1307.99 944.61 944.86 838.01 1169.28 1315.38 1332.52 670.78 787.14 1163.20 966.86 1272.80 1374.94 1177.76 819.50 982.56 927.31 1093.12 860.24 1468.28 1294.54 747.37 854.72 974.08 1117.83 836.18 530.44 900.39 1504.71 1189.18 1371.64 1322.92 1079.12 901.18 1055.54 1516.88 762.15 1101.75 933.08 870.87 979.47 1310.75 949.19 313.75 1740.81
125.14 369.80 529.68 925.47 409.65 890.70 211.03 414.13 1020.08 905.14 777.16 194.47 398.64 470.04 313.10 301.30 987.81 0.00 37.95 394.59 498.24 410.15 344.01 1038.62 271.21 532.22 442.05 580.26 465.47 311.95 343.48 536.31 435.36 575.29 261.65 708.18 467.19 537.39 424.75 372.44 315.51 240.44 353.81 617.08 351.41 431.00 383.20 745.94 527.21 165.75 204.08 332.66 679.64 80.32 170.82 374.30 652.83 127.31 360.22 356.36 460.58 669.19 736.33 741.14 291.43 271.75 458.89 677.28 565.03 339.53 253.75 490.91 662.84 285.60 282.55 530.94 552.42 749.34 804.43 247.21 271.07 250.06 551.08 296.86 632.83 491.55 475.15 644.42 485.54 509.25 470.90 1003.41 361.66 622.85 294.74 152.03 614.97 626.37 596.60 793.67 802.78
163.09 346.03 567.63 963.42 379.10 928.65 248.98 452.08 1003.43 888.67 782.29 232.42 379.14 507.99 305.74 310.89 1025.76 37.95 0.00 406.58 510.23 434.95 335.72 1063.14 309.16 508.45 454.04 563.79 439.33 300.87 355.47 531.39 397.41 599.42 226.46 677.37 429.24 547.50 431.93 410.39 277.56 277.27 315.86 589.37 316.22 455.35 421.15 783.89 520.27 127.80 211.20 294.71 717.59 85.45 208.77 375.90 690.78 124.35 398.17 363.48 462.51 649.77 774.28 779.09 279.56 283.10 474.92 686.58 551.77 335.05 269.78 476.74 670.02 250.41 320.50 536.07 557.55 787.29 806.03 230.56 235.88 233.59 586.43 323.13 637.96 496.68 438.56 606.47 520.67 520.68 508.85 1027.93 354.72 595.95 319.26 189.98 652.92 628.30 608.03 830.50 764.83
519.73 212.24 777.04 1287.15 246.96 1058.96 379.29 132.54 1227.66 1031.40 1023.56 535.87 205.27 716.02 256.88 411.23 1067.50 394.59 406.58 0.00 123.65 97.96 216.98 1323.03 612.88 262.94 67.46 747.21 249.75 161.53 51.11 141.72 389.28 389.09 180.12 349.71 405.79 254.77 492.42 112.72 416.04 388.03 404.93 293.94 190.26 95.67 101.96 402.09 652.78 376.18 288.53 426.81 1074.23 437.34 420.55 387.16 364.63 401.77 697.48 229.49 144.40 289.94 1080.52 755.76 439.02 279.71 303.25 296.91 314.93 245.57 336.57 300.01 559.65 174.28 572.87 622.67 895.13 1031.68 624.58 454.79 174.40 429.92 720.33 167.11 513.31 742.94 415.11 746.78 189.05 313.27 745.44 1287.82 519.34 282.84 579.15 491.67 413.86 258.08 400.62 847.66 771.50
612.18 247.43 832.00 1366.94 288.57 1093.92 414.25 136.41 1283.18 1024.04 1141.99 616.09 207.52 774.51 340.94 399.96 1125.99 498.24 510.23 123.65 0.00 221.61 262.15 1441.84 736.53 330.22 56.19 775.40 281.16 247.86 154.76 100.38 491.08 404.93 283.77 308.37 459.25 146.91 497.76 144.13 408.68 445.60 432.33 243.07 274.32 122.34 154.89 302.16 655.27 430.40 385.56 510.87 1121.11 483.92 476.65 366.61 297.25 479.33 780.37 287.98 199.16 202.95 1168.03 635.12 493.98 368.45 314.52 196.98 382.21 329.63 417.68 340.23 493.24 277.93 696.52 707.82 929.31 1086.64 640.42 578.44 291.62 502.91 717.95 225.60 636.96 772.60 457.94 830.84 204.89 383.33 850.19 1406.63 577.83 232.37 702.80 552.57 341.78 238.59 295.98 848.82 816.67
535.29 137.29 873.12 1274.28 204.75 1156.92 477.25 210.81 1325.62 1093.20 1121.01 604.62 136.69 736.56 242.89 503.79 1150.46 410.15 434.95 97.96 221.61 0.00 156.73 1376.21 678.27 292.74 165.42 808.86 306.15 259.49 99.85 183.64 380.75 482.26 208.49 355.79 348.92 303.88 444.89 169.12 477.84 485.99 487.89 250.32 176.27 193.63 179.88 406.40 675.83 400.85 312.22 412.82 1089.79 465.71 469.29 445.83 266.67 415.70 746.86 312.45 53.32 261.93 1134.52 848.93 535.10 275.22 367.45 301.22 303.40 231.58 434.53 377.93 634.21 217.06 636.20 559.65 912.20 1103.22 717.75 552.75 199.07 478.66 797.17 251.64 537.22 798.21 358.24 732.79 282.22 411.23 769.89 1341.00 599.79 362.56 632.33 549.98 483.54 219.11 498.58 925.68 711.25
469.15 25.79 848.98 1260.35 69.50 1129.87 450.20 288.35 1231.87 1088.14 964.28 538.48 54.63 779.46 123.18 419.04 1186.29 344.01 335.72 216.98 262.15 156.73 0.00 1276.06 579.04 188.21 254.40 802.39 395.31 308.16 186.92 333.55 280.02 552.52 109.26 468.97 248.19 358.68 516.26 310.04 472.78 480.13 492.46 336.71 97.88 251.48 299.28 563.13 731.21 285.38 261.23 293.11 1023.65 316.14 441.34 481.39 379.85 327.21 630.70 348.28 138.00 329.53 1018.36 897.27 525.76 118.49 421.07 457.95 238.96 96.72 457.41 439.86 715.98 124.55 536.97 486.18 788.24 1077.56 788.01 459.00 99.84 472.19 767.14 285.90 380.49 643.04 238.87 654.40 352.48 489.71 613.16 1240.85 593.32 432.33 532.18 471.59 603.93 293.11 558.13 955.88 554.52
929.27 1250.27 1022.43 195.60 1317.73 1384.56 1077.44 1335.91 158.66 1423.78 370.32 988.49 1290.18 1013.38 1228.91 1167.71 1481.67 1038.62 1063.14 1323.03 1441.84 1376.21 1276.06 0.00 796.20 1412.69 1385.65 1162.57 1333.60 1284.50 1315.57 1464.75 1209.78 1408.25 1186.56 1672.74 1241.61 1459.17 1285.80 1315.68 1161.91 1105.94 1168.25 1549.47 1258.56 1352.78 1304.98 1689.18 1094.72 1092.23 1180.25 1115.91 370.58 989.91 1009.46 1247.32 1615.40 1066.66 705.74 1219.02 1373.55 1554.01 318.08 1466.89 1132.65 1187.56 1325.30 1619.94 1464.68 1255.34 1120.16 1292.09 1472.47 1201.85 913.27 1025.87 595.06 790.72 1565.87 868.24 1177.14 1050.30 1160.88 1262.24 1423.81 730.52 1250.93 890.83 1425.50 1373.47 767.43 35.21 929.17 1538.17 743.88 1024.08 1471.78 1539.34 1425.98 1307.43 1303.64
235.25 599.77 517.24 777.52 622.42 929.35 338.28 685.34 791.21 845.36 596.03 234.80 632.64 522.13 567.90 428.55 1010.14 271.21 309.16 612.88 736.53 678.27 579.04 796.20 0.00 762.19 680.34 625.08 621.78 556.04 614.69 754.60 623.85 716.65 488.62 952.65 592.02 790.82 552.00 643.65 502.33 369.63 501.97 851.53 560.62 702.21 654.41 1014.97 584.56 436.96 470.10 603.87 565.92 339.41 347.69 525.51 924.04 356.51 90.46 528.02 716.01 902.82 478.12 900.69 415.96 537.06 586.14 909.79 795.09 588.55 381.00 620.61 790.09 503.91 149.90 761.50 440.14 753.31 906.99 158.09 479.20 381.80 650.72 568.07 798.11 334.78 582.70 483.22 689.90 636.50 201.14 802.05 419.01 799.01 93.38 326.12 768.45 864.63 723.85 787.37 817.33
657.36 162.42 938.90 1422.32 224.66 1318.08 638.41 395.48 1420.08 1276.35 1126.25 724.70 202.33 946.09 303.92 607.25 1330.44 532.22 508.45 262.94 330.22 292.74 188.21 1412.69 762.19 0.00 330.40 990.60 512.69 424.47 310.30 404.66 306.34 652.03 297.47 501.63 274.51 477.13 704.47 375.66 660.99 650.97 667.87 222.45 272.06 358.61 364.90 553.84 915.72 447.35 449.44 438.32 1211.86 478.11 629.55 631.93 429.57 515.42 792.67 492.43 239.42 264.17 1180.33 965.34 686.80 280.46 555.44 448.66 51.99 271.83 599.51 562.95 822.59 312.76 706.61 570.78 950.21 1225.26 842.99 647.21 288.05 660.40 941.79 430.05 324.90 823.71 269.95 814.65 451.99 576.21 775.13 1377.48 781.53 545.78 668.81 640.89 672.00 306.99 626.20 1103.58 742.73
555.99 239.68 788.51 1317.29 280.82 1047.60 404.21 80.22 1226.99 1012.02 1091.02 560.79 199.77 718.32 304.34 343.77 1069.80 442.05 454.04 67.46 56.19 165.42 254.40 1385.65 680.34 330.40 0.00 719.21 224.97 191.67 98.57 140.22 456.74 348.74 227.58 343.04 453.25 203.10 465.99 87.94 396.66 405.72 407.23 285.03 237.72 117.09 98.70 358.35 651.50 374.21 329.37 474.27 1110.97 460.73 457.65 334.84 353.44 444.17 745.58 231.79 142.97 245.58 1128.85 691.31 450.49 327.17 258.33 253.17 382.39 293.03 361.49 284.04 519.30 221.74 640.33 672.23 884.84 1043.15 584.23 522.25 236.54 458.90 686.18 169.41 580.77 716.41 450.19 794.24 148.70 338.54 807.58 1350.44 521.64 215.38 646.61 496.38 397.97 278.43 352.17 849.96 808.92
510.90 828.18 140.14 994.83 836.57 408.87 409.51 638.99 1105.31 324.88 1069.74 441.57 835.84 304.92 778.60 473.18 505.98 580.26 563.79 747.21 775.40 808.86 802.39 1162.57 625.08 990.60 719.21 0.00 522.18 615.21 709.01 804.54 961.20 434.60 751.31 884.75 953.44 719.97 371.26 659.21 470.61 440.75 440.48 951.28 750.70 668.46 669.92 901.41 163.48 625.82 618.72 838.19 791.99 580.86 456.39 476.42 907.26 514.52 668.83 597.01 813.86 887.63 951.83 431.09 466.78 778.51 460.88 906.78 1009.24 735.75 452.23 515.32 573.06 729.53 507.48 1031.48 908.44 671.58 464.26 468.10 741.89 330.20 125.08 637.47 1054.71 821.66 962.76 982.30 606.95 433.94 713.98 1197.78 329.03 634.51 592.46 428.23 567.09 844.81 521.29 307.31 1262.85
428.82 369.52 599.20 1236.19 436.98 871.04 283.50 178.72 1229.75 787.05 1139.70 465.74 409.43 544.36 417.73 238.16 968.15 465.47 439.33 249.75 281.16 306.15 395.31 1333.60 621.78 512.69 224.97 522.18 0.00 190.87 295.47 365.19 634.32 205.44 338.45 474.20 607.34 301.98 272.33 137.03 171.69 252.15 205.76 510.00 408.76 195.59 147.79 510.53 457.84 507.00 286.31 569.60 990.36 483.36 366.55 141.18 385.08 392.73 670.27 140.69 359.47 470.55 1040.01 619.61 265.04 423.57 61.30 478.14 555.52 402.80 266.44 86.96 363.08 318.16 531.10 785.90 914.96 857.70 440.93 550.89 329.03 362.70 492.52 168.61 632.25 830.62 603.70 912.23 110.97 168.34 719.44 1303.77 404.43 274.17 631.05 393.62 287.81 451.44 242.01 752.03 949.83
364.32 308.36 615.51 1125.62 324.14 897.43 217.76 159.90 1209.54 879.42 1033.85 374.34 336.41 571.17 275.87 251.04 922.65 311.95 300.87 161.53 247.86 259.49 308.16 1284.50 556.04 424.47 191.67 615.21 190.87 0.00 174.05 303.25 515.84 344.98 237.26 511.24 495.94 270.13 366.45 163.65 264.06 226.50 260.08 455.47 279.33 192.76 152.89 537.15 491.25 348.15 148.28 417.20 924.62 337.01 291.71 238.51 429.86 297.02 595.43 84.64 291.15 437.25 975.51 648.97 277.49 269.19 252.17 444.84 476.46 284.32 175.04 190.72 466.84 214.99 469.37 643.17 809.11 870.15 569.02 436.67 239.70 306.42 575.48 22.26 626.58 748.24 493.51 789.76 222.39 272.10 653.70 1269.70 374.49 327.07 561.03 349.23 401.03 419.61 355.23 702.81 862.68
468.62 161.13 777.11 1268.95 208.15 1071.48 391.81 119.33 1270.46 1033.89 1074.39 508.88 200.47 700.70 205.77 408.08 1052.18 343.48 355.47 51.11 154.76 99.85 186.92 1315.57 614.69 310.30 98.57 709.01 295.47 174.05 0.00 192.83 381.97 440.20 129.01 364.70 354.68 279.25 505.10 158.44 420.25 388.10 389.61 345.05 139.15 99.88 147.68 438.98 665.30 340.21 280.98 375.70 1023.12 386.23 369.44 373.95 358.95 365.80 647.01 214.17 117.10 325.71 1034.67 756.31 439.09 228.60 297.44 333.80 362.29 194.46 349.09 345.73 610.76 123.17 575.56 573.66 858.33 1031.75 675.69 497.59 138.43 378.81 705.01 151.79 564.42 761.09 364.00 695.67 240.16 364.38 709.47 1280.36 499.94 284.18 571.69 450.13 459.58 282.89 434.74 832.34 741.44
661.45 318.83 847.47 1428.74 359.97 1187.82 514.63 220.44 1367.21 1121.83 1165.28 635.85 278.92 857.74 384.21 483.99 1209.22 536.31 531.39 141.72 100.38 183.64 333.55 1464.75 754.60 404.66 140.22 804.54 365.19 303.25 192.83 0.00 480.51 486.42 304.93 207.99 448.68 120.24 537.47 228.16 506.47 529.75 496.09 211.87 331.98 186.10 221.70 260.37 641.06 507.47 430.25 554.14 1215.95 562.15 496.41 466.99 281.29 533.06 800.13 371.21 236.96 148.22 1187.79 735.50 576.92 421.43 393.68 155.19 431.25 365.62 478.29 398.92 556.43 280.98 714.59 743.29 1025.06 1169.58 721.91 596.51 305.69 571.64 765.94 308.83 639.34 856.63 458.00 869.01 288.92 406.27 876.73 1429.54 648.83 205.70 720.87 577.10 403.47 138.21 396.36 949.20 888.07
560.50 277.98 934.69 1193.02 210.52 1308.71 629.04 501.30 1298.02 1280.95 1000.03 629.83 291.57 871.50 263.10 610.65 1400.28 435.36 397.41 389.28 491.08 380.75 280.02 1209.78 623.85 306.34 456.74 961.20 634.32 515.84 381.97 480.51 0.00 777.68 310.90 665.30 31.83 600.75 732.52 502.00 665.59 637.78 684.07 528.79 242.82 481.85 491.24 700.78 917.68 388.29 437.54 221.47 1115.00 444.96 606.18 683.03 576.18 510.18 684.16 562.27 334.33 538.99 1019.30 1102.56 676.97 247.31 622.71 595.60 258.88 231.52 586.32 616.15 892.27 316.16 615.72 312.36 775.29 1184.70 1013.17 627.97 320.32 631.00 958.75 499.89 242.37 606.86 41.15 571.97 578.33 697.53 741.98 1174.57 752.13 665.10 582.19 557.04 790.94 500.12 780.66 1180.44 500.98
563.78 526.73 574.74 1327.84 594.19 843.47 378.37 346.41 1408.94 759.48 1213.76 534.95 515.23 671.58 562.27 376.38 932.58 575.29 599.42 389.09 404.93 482.26 552.52 1408.25 716.65 652.03 348.74 434.60 205.44 344.98 440.20 486.42 777.68 0.00 482.99 530.96 759.51 366.18 180.47 313.14 330.77 387.11 315.77 597.49 554.99 363.28 315.48 487.89 399.05 625.03 477.77 715.60 1085.23 655.61 404.47 224.93 559.57 476.48 708.19 346.13 491.71 533.84 1095.85 419.43 365.59 591.72 245.24 500.65 699.56 582.92 335.65 161.53 170.56 498.28 629.98 930.44 1053.18 886.02 235.49 643.32 473.57 431.99 523.93 355.58 837.69 952.51 750.19 1003.57 200.04 80.15 814.31 1373.04 511.71 280.72 741.74 485.16 167.11 491.02 160.13 661.26 1107.04
386.79 135.05 758.56 1187.12 152.64 1027.83 359.78 248.34 1141.45 1045.52 954.06 456.12 152.68 689.04 79.28 318.44 1117.07 261.65 226.46 180.12 283.77 208.49 109.26 1186.56 488.62 297.47 227.58 751.31 338.45 237.26 129.01 304.93 310.90 482.99 0.00 493.71 300.82 321.04 503.28 237.66 430.16 387.26 391.86 362.91 89.76 228.89 248.42 565.30 640.79 211.20 151.97 249.21 941.29 257.22 350.92 372.13 475.16 236.79 553.61 279.06 236.05 426.56 941.27 810.35 425.16 120.63 311.81 460.12 325.31 108.59 353.25 330.60 606.72 23.95 446.55 447.45 729.32 1010.99 718.48 368.58 9.42 421.11 666.54 216.68 478.34 634.60 291.50 646.28 350.76 402.84 580.46 1151.35 525.39 406.50 442.68 381.17 518.37 401.84 490.19 892.99 663.78
833.32 454.25 1024.89 1628.45 495.39 1293.62 710.97 423.26 1570.03 1209.63 1373.27 835.56 414.34 1018.56 528.21 660.34 1351.99 708.18 677.37 349.71 308.37 355.79 468.97 1672.74 952.65 501.63 343.04 884.75 474.20 511.24 364.70 207.99 665.30 530.96 493.71 0.00 656.67 304.63 629.96 402.12 645.89 719.71 653.52 296.24 499.48 394.09 412.88 126.24 849.05 704.91 638.24 698.14 1387.82 750.93 702.36 573.94 89.12 702.76 1006.08 559.10 330.97 237.46 1393.74 844.94 739.24 569.56 463.11 127.32 487.68 544.42 668.25 449.75 693.16 487.87 922.58 906.29 1223.03 1331.90 766.45 804.50 503.13 743.51 901.72 496.72 788.14 1059.45 664.76 1056.00 428.42 450.81 1022.37 1637.53 812.67 250.24 928.86 783.05 481.00 194.64 512.81 1110.75 1023.49
592.33 246.15 902.86 1161.19 178.69 1276.88 597.21 474.01 1271.67 1249.15 968.20 624.14 259.74 880.25 257.66 590.17 1373.99 467.19 429.24 405.79 459.25 348.92 248.19 1241.61 592.02 274.51 453.25 953.44 607.34 495.94 354.68 448.68 31.83 759.51 300.82 656.67 0.00 568.92 764.35 495.42 633.79 605.95 663.59 496.96 274.65 454.56 484.66 709.05 888.60 356.46 416.98 189.64 1135.40 424.40 605.90 672.95 584.96 537.61 679.58 542.95 343.11 507.16 987.47 1074.18 656.94 226.75 612.63 603.87 290.71 258.35 554.49 631.42 907.54 295.68 583.89 296.27 743.46 1216.53 995.00 653.53 310.24 623.24 938.27 480.57 210.54 575.03 9.32 540.14 572.84 694.82 716.66 1206.40 723.05 633.27 550.36 525.21 790.10 508.90 755.23 1159.18 532.81
634.45 332.89 847.43 1387.76 400.35 1128.84 481.22 185.12 1430.09 1044.85 1259.46 594.87 354.43 796.78 400.32 478.10 1148.26 537.39 547.50 254.77 146.91 303.88 358.68 1459.17 790.82 477.13 203.10 719.97 301.98 270.13 279.25 120.24 600.75 366.18 321.04 304.63 568.92 0.00 417.23 164.95 473.67 484.18 482.45 332.11 393.04 179.37 154.19 297.45 648.17 513.40 407.83 570.25 1188.08 562.62 536.11 393.48 215.51 522.63 839.83 310.25 346.07 268.46 1217.82 697.98 509.41 429.77 298.33 275.43 529.12 420.97 438.50 278.68 484.22 336.33 732.83 768.49 1034.72 1102.07 601.67 670.78 311.62 569.88 721.70 247.87 739.17 912.47 569.72 949.56 196.97 286.03 882.66 1423.96 581.32 85.46 715.29 574.84 332.76 258.45 286.96 898.02 913.20
417.34 542.05 437.35 1166.41 585.76 780.13 213.72 385.77 1248.10 696.14 1085.63 442.90 570.89 571.39 582.56 199.02 794.54 424.75 431.93 492.42 497.76 444.89 516.26 1285.80 552.00 704.47 465.99 371.26 272.33 366.45 505.10 537.47 732.52 180.47 503.28 629.96 764.35 417.23 0.00 390.01 175.80 240.67 149.11 695.21 577.91 422.64 400.77 646.62 230.94 444.56 392.83 656.93 920.58 502.18 316.44 131.15 632.74 307.58 580.06 324.55 498.21 632.84 967.72 407.97 189.68 583.06 267.34 651.99 748.29 578.15 256.44 216.85 238.09 493.51 455.74 911.85 874.30 705.55 415.96 475.23 512.70 251.52 355.82 386.93 794.68 776.93 755.13 834.67 352.19 179.15 635.30 1285.76 372.65 379.72 577.09 343.97 312.30 590.02 266.50 480.79 1070.78
497.58 284.25 704.00 1265.74 343.14 995.94 316.27 41.69 1291.93 924.08 1119.04 472.85 287.71 667.80 316.94 334.67 1019.28 372.44 410.39 112.72 144.13 169.12 310.04 1315.68 643.65 375.66 87.94 659.21 137.03 163.65 158.44 228.16 502.00 313.14 237.66 402.12 495.42 164.95 390.01 0.00 308.72 325.01 331.09 372.97 297.59 58.56 10.76 373.50 594.87 427.18 274.17 486.87 1023.13 422.20 390.22 278.21 313.00 415.55 693.94 181.27 222.44 333.52 1081.60 679.81 365.98 358.29 198.33 341.11 418.49 306.10 273.55 208.81 465.09 221.46 567.88 685.11 894.30 958.64 548.63 519.06 246.17 404.93 629.55 141.39 615.38 769.04 504.74 854.11 113.10 290.19 752.21 1280.53 437.89 250.41 571.86 466.48 314.42 314.41 340.50 767.82 864.56
309.37 498.57 427.51 1116.74 539.73 699.35 164.05 350.41 1193.49 615.36 1006.38 346.57 507.91 460.58 489.39 111.72 796.46 315.51 277.56 416.04 408.68 477.84 472.78 1161.91 502.33 660.99 396.66 470.61 171.69 264.06 420.25 506.47 665.59 330.77 430.16 645.89 633.79 473.67 175.80 308.72 0.00 132.70 38.30 651.75 422.77 320.37 319.48 614.42 317.71 405.36 305.53 572.27 870.91 363.01 246.36 105.84 556.77 285.62 550.08 213.74 498.35 611.63 888.47 554.67 93.35 495.76 232.99 545.18 680.30 478.08 178.75 199.18 407.90 406.21 359.41 813.63 788.52 686.01 535.97 420.62 430.92 196.91 345.53 276.12 754.76 722.32 624.47 769.34 282.66 250.62 580.69 1132.08 232.74 429.54 480.52 247.64 383.77 623.13 337.97 605.04 1027.30
176.67 505.92 389.01 984.04 470.95 711.02 31.35 366.70 1071.61 748.06 905.77 239.36 492.04 435.78 466.54 68.82 808.13 240.44 277.27 388.03 445.60 485.99 480.13 1105.94 369.63 650.97 405.72 440.75 252.15 226.50 388.10 529.75 637.78 387.11 387.26 719.71 605.95 484.18 240.67 325.01 132.70 0.00 134.32 658.71 453.91 383.57 335.77 698.51 349.12 405.07 252.74 571.98 738.21 320.76 134.07 172.68 637.23 152.92 437.79 173.93 505.20 648.55 787.86 571.15 50.99 427.12 256.60 642.58 643.62 432.19 51.46 289.12 478.76 363.31 317.05 706.87 706.29 643.65 602.81 298.74 380.29 110.55 415.28 236.31 711.86 608.92 615.27 660.08 363.12 306.96 467.29 1087.57 183.57 469.47 378.90 141.47 438.91 639.42 394.31 553.23 975.24
310.99 518.25 453.24 1114.12 535.84 737.65 163.69 345.46 1155.19 653.66 968.08 321.23 496.64 422.28 471.14 73.42 834.76 353.81 315.86 404.93 432.33 487.89 492.46 1168.25 501.97 667.87 407.23 440.48 205.76 260.08 389.61 496.09 684.07 315.77 391.86 653.52 663.59 482.45 149.11 331.09 38.30 134.32 0.00 675.40 458.51 309.99 341.85 622.00 279.41 443.66 267.23 599.06 870.55 401.31 253.59 90.84 590.84 259.96 557.31 175.44 483.35 635.28 850.17 557.08 115.22 457.46 227.03 565.68 669.92 452.55 149.42 203.77 377.02 367.91 381.28 804.83 750.22 707.88 520.97 382.32 392.62 158.61 315.40 237.82 716.46 684.02 654.27 787.05 316.73 235.62 542.39 1162.16 259.89 414.54 453.49 256.64 368.77 615.65 322.97 574.91 1046.98
742.22 321.99 1008.23 1524.60 363.13 1329.64 649.97 365.25 1504.36 1267.11 1265.36 801.38 282.08 932.81 378.22 628.80 1354.83 617.08 589.37 293.94 243.07 250.32 336.71 1549.47 851.53 222.45 285.03 951.28 510.00 455.47 345.05 211.87 528.79 597.49 362.91 296.24 496.96 332.11 695.21 372.97 651.75 658.71 675.40 0.00 311.60 365.41 383.73 353.32 833.57 542.14 514.88 548.15 1296.72 617.22 661.94 609.68 207.12 599.70 916.52 516.82 233.25 63.65 1304.18 878.19 709.70 419.57 543.36 248.14 274.44 366.91 607.25 563.96 736.31 386.86 809.46 672.69 1047.53 1293.09 832.98 731.49 372.33 723.86 927.58 454.44 547.35 933.54 492.40 868.12 428.62 517.34 914.24 1514.26 695.87 389.22 805.59 742.63 558.26 106.47 539.05 1091.89 891.23
470.20 109.64 829.83 1249.83 118.30 1111.45 431.78 258.48 1213.45 1038.13 953.76 539.53 85.14 754.33 66.62 385.09 1157.46 351.41 316.22 190.26 274.32 176.27 97.88 1258.56 560.62 272.06 237.72 750.70 408.76 279.33 139.15 331.98 242.82 554.99 89.76 499.48 274.65 393.04 577.91 297.59 422.77 453.91 458.51 311.60 0.00 239.03 286.83 576.48 712.79 230.54 241.73 236.55 1009.48 305.62 422.92 446.76 410.36 308.79 620.18 319.45 168.51 375.25 1007.84 877.00 491.81 107.97 401.57 471.30 269.47 55.31 423.46 420.36 696.48 90.60 518.55 434.51 735.93 1084.47 790.48 440.58 81.42 479.84 733.19 257.07 465.68 621.94 283.97 556.52 379.31 474.84 602.64 1223.35 597.39 423.33 514.68 453.17 548.12 334.30 562.19 937.62 652.40
540.60 225.69 741.04 1249.14 293.15 1019.72 374.83 36.87 1323.33 935.73 1091.70 516.27 265.60 723.42 305.65 371.71 1074.90 431.00 455.35 95.67 122.34 193.63 251.48 1352.78 702.21 358.61 117.09 668.46 195.59 192.76 99.88 186.10 481.85 363.28 228.89 394.09 454.56 179.37 422.64 58.56 320.37 383.57 309.99 365.41 239.03 0.00 47.80 385.91 589.40 434.48 288.03 475.58 1067.62 394.86 448.78 291.49 371.56 356.99 709.42 236.89 207.71 325.29 1097.08 735.03 403.02 328.48 207.58 319.32 359.93 294.34 332.11 245.85 521.97 223.05 626.44 673.54 866.96 995.68 598.77 550.46 238.31 463.49 625.39 174.51 608.98 744.08 462.52 795.55 168.32 327.23 767.60 1317.57 474.93 245.34 608.90 501.37 359.70 305.66 352.28 826.38 806.00
508.34 273.49 693.24 1261.36 332.38 1006.70 327.03 30.93 1302.69 934.84 1108.28 468.47 279.24 678.56 311.16 323.91 1030.04 383.20 421.15 101.96 154.89 179.88 299.28 1304.98 654.41 364.90 98.70 669.92 147.79 152.89 147.68 221.70 491.24 315.48 248.42 412.88 484.66 154.19 400.77 10.76 319.48 335.77 341.85 383.73 286.83 47.80 0.00 384.26 592.68 428.54 284.93 481.09 1033.89 411.44 400.98 285.55 323.76 404.79 690.32 192.03 233.20 344.28 1077.98 687.23 355.22 352.51 209.04 351.87 407.73 316.86 284.31 198.05 474.17 232.22 578.64 689.24 883.54 947.88 550.97 529.82 256.93 415.69 636.89 130.63 604.62 758.28 493.98 843.35 120.52 279.43 762.97 1269.77 427.13 239.65 561.10 457.60 311.90 303.65 346.34 778.58 853.80
871.08 543.69 1041.55 1635.05 590.73 1218.38 689.77 415.19 1585.34 1134.39 1425.65 846.35 509.68 1022.83 643.10 682.61 1315.49 745.94 783.89 402.09 302.16 406.40 563.13 1689.18 1014.97 553.84 358.35 901.41 510.53 537.15 438.98 260.37 700.78 487.89 565.30 126.24 709.05 297.45 646.62 373.50 614.42 698.51 622.00 353.32 576.48 385.91 384.26 0.00 847.82 732.56 647.67 813.03 1396.63 780.77 756.78 531.16 215.36 708.93 1060.50 536.30 446.22 289.67 1448.16 878.75 707.77 667.58 479.77 105.18 573.47 625.99 647.05 548.85 622.22 541.35 941.38 966.05 1231.47 1300.43 723.38 856.88 566.06 778.43 882.50 514.89 840.35 1074.76 701.96 1129.38 468.06 467.47 1108.16 1654.03 811.39 266.90 945.36 817.68 474.82 280.43 453.37 1127.41 1117.65
419.09 757.00 206.41 1092.04 774.59 558.21 318.58 571.28 1170.51 488.36 1134.20 349.76 776.05 371.19 720.07 352.83 655.32 527.21 520.27 652.78 655.27 675.83 731.21 1094.72 584.56 915.72 651.50 163.48 457.84 491.25 665.30 641.06 917.68 399.05 640.79 849.05 888.60 648.17 230.94 594.87 317.71 349.12 279.41 833.57 712.79 589.40 592.68 847.82 0.00 608.27 546.64 814.98 846.21 537.34 412.87 316.66 842.92 471.00 651.22 454.85 709.17 789.28 1030.28 429.93 369.03 714.35 432.90 796.25 947.26 727.90 361.30 447.79 450.67 647.32 474.09 987.96 909.46 679.20 522.11 493.12 631.37 286.68 124.88 513.51 995.87 800.45 879.28 933.79 525.63 410.09 670.46 1129.93 165.55 610.66 607.42 384.71 543.24 779.27 497.44 384.39 1217.66
239.66 311.17 653.19 1024.77 282.50 1034.69 376.78 397.61 1117.63 950.70 752.58 308.99 315.68 523.79 185.95 438.69 1131.80 165.75 127.80 376.18 430.40 400.85 285.38 1092.23 436.96 447.35 374.21 625.82 507.00 348.15 340.21 507.47 388.29 625.03 211.20 704.91 356.46 513.40 444.56 427.18 405.36 405.07 443.66 542.14 230.54 434.48 428.54 732.56 608.27 0.00 261.07 212.37 778.94 102.32 336.57 455.00 625.04 252.15 416.88 367.89 383.19 591.80 804.54 852.53 407.36 166.89 445.70 627.38 437.88 228.80 397.58 529.41 682.65 226.49 397.07 489.12 527.84 863.86 852.27 358.36 201.78 352.98 705.82 370.41 562.55 513.55 347.14 692.44 522.91 595.20 484.88 1057.02 474.11 468.15 348.35 275.54 713.94 548.98 668.14 909.77 637.03
289.31 287.02 638.55 1123.16 304.61 875.86 244.00 297.60 1084.88 920.89 899.90 330.27 304.65 634.21 231.25 193.81 972.97 204.08 211.20 288.53 385.56 312.22 261.23 1180.25 470.10 449.44 329.37 618.72 286.31 148.28 280.98 430.25 437.54 477.77 151.97 638.24 416.98 407.83 392.83 274.17 305.53 252.74 267.23 514.88 241.73 288.03 284.93 647.67 546.64 261.07 0.00 401.18 883.72 203.06 237.52 280.27 567.56 162.15 517.62 152.28 365.54 483.24 900.50 716.61 300.53 190.23 341.39 582.54 477.28 258.01 201.28 316.24 592.36 175.92 387.78 575.07 675.16 893.19 636.66 312.01 161.39 288.52 541.91 159.96 627.52 614.29 426.30 641.48 365.96 397.62 628.30 1145.04 409.65 475.35 436.37 274.84 526.55 526.06 480.75 768.36 815.75
452.03 318.90 862.34 1196.20 266.48 1223.36 543.69 495.03 1110.92 1163.07 778.56 521.36 321.69 736.16 169.93 525.64 1301.38 332.66 294.71 426.81 510.87 412.82 293.11 1115.91 603.87 438.32 474.27 838.19 569.60 417.20 375.70 554.14 221.47 715.60 249.21 698.14 189.64 570.25 656.93 486.87 572.27 571.98 599.06 548.15 236.55 475.58 481.09 813.03 814.98 212.37 401.18 0.00 991.31 288.94 503.48 621.34 609.02 419.06 551.54 463.37 367.17 575.78 797.83 1020.52 574.27 211.28 561.02 707.85 421.86 212.78 564.49 579.81 855.93 273.16 609.44 276.75 553.82 1076.23 947.75 525.27 258.63 528.30 873.74 400.99 358.60 385.39 198.96 480.07 599.97 652.05 527.02 1113.67 649.43 655.71 534.97 484.69 767.58 532.96 739.40 1081.54 673.09
746.67 1049.44 651.85 245.83 1061.44 1073.86 706.86 1030.75 356.31 1116.87 495.45 800.72 1078.28 786.80 964.89 797.13 1167.51 679.64 717.59 1074.23 1121.11 1089.79 1023.65 370.58 565.92 1211.86 1110.97 791.99 990.36 924.62 1023.12 1215.95 1115.00 1085.23 941.29 1387.82 1135.40 1188.08 920.58 1023.13 870.91 738.21 870.55 1296.72 1009.48 1067.62 1033.89 1396.63 846.21 778.94 883.72 991.31 0.00 759.96 779.18 894.09 1332.47 806.95 475.46 896.60 1140.22 1324.06 377.54 1175.12 789.20 945.83 954.72 1318.09 1216.82 1007.74 749.58 1017.43 1158.67 965.24 682.99 936.05 491.27 420.14 1256.25 718.15 950.71 795.52 917.07 946.88 1219.33 639.71 1126.08 880.89 1100.79 1005.08 498.08 405.79 874.62 1167.59 604.68 794.76 1137.03 1303.47 1092.43 936.85 1317.37
205.46 341.93 610.00 1001.62 335.55 971.02 291.35 380.51 1015.31 905.74 696.84 254.17 358.58 550.36 239.00 360.06 1068.13 80.32 85.45 437.34 483.92 465.71 316.14 989.91 339.41 478.11 460.73 580.86 483.36 337.01 386.23 562.15 444.96 655.61 257.22 750.93 424.40 562.62 502.18 422.20 363.01 320.76 401.31 617.22 305.62 394.86 411.44 780.77 537.34 102.32 203.06 288.94 759.96 0.00 251.14 454.62 666.49 205.25 314.56 355.34 436.24 644.85 702.22 821.46 354.46 197.65 425.49 680.90 490.93 265.43 334.07 508.80 740.27 281.17 362.87 450.62 472.10 829.66 839.72 293.33 266.64 250.66 603.50 314.75 552.51 411.23 433.72 635.87 520.75 588.71 425.24 954.70 371.79 570.47 246.03 232.35 667.69 602.03 647.93 863.01 739.35
175.50 467.13 435.90 932.33 484.72 782.39 102.72 425.88 1004.47 781.27 809.29 139.44 494.94 451.89 430.20 180.17 879.50 170.82 208.77 420.55 476.65 469.29 441.34 1009.46 347.69 629.55 457.65 456.39 366.55 291.71 369.44 496.41 606.18 404.47 350.92 702.36 605.90 536.11 316.44 390.22 246.36 134.07 253.59 661.94 422.92 448.78 400.98 756.78 412.87 336.57 237.52 503.48 779.18 251.14 0.00 261.18 695.84 114.13 303.72 225.86 486.54 598.29 691.38 570.32 153.01 427.75 321.81 651.60 657.39 450.85 116.67 399.50 554.53 366.21 267.05 701.76 653.40 745.67 639.96 238.85 341.50 126.19 380.26 288.24 803.65 548.04 615.22 641.22 467.88 372.17 414.40 1044.67 247.32 534.68 363.21 80.69 504.12 555.47 459.52 639.77 973.60
349.35 507.18 523.07 1136.70 524.77 784.67 187.23 254.62 1222.84 721.20 1052.99 343.81 475.88 513.12 451.41 151.45 881.78 374.30 375.90 387.16 366.61 445.83 481.39 1247.32 525.51 631.93 334.84 476.42 141.18 238.51 373.95 466.99 683.03 224.93 372.13 573.94 672.95 393.48 131.15 278.21 105.84 172.68 90.84 609.68 446.76 291.49 285.55 531.16 316.66 455.00 280.27 621.34 894.09 454.62 261.18 0.00 526.26 251.55 564.90 216.04 392.51 569.56 941.01 539.12 199.19 470.50 136.19 551.93 642.59 480.72 144.51 165.13 369.24 396.08 438.84 799.92 828.25 791.85 430.13 449.97 381.55 249.45 351.34 260.77 773.43 764.80 663.63 778.64 252.15 144.78 623.17 1237.92 318.15 323.70 544.33 314.15 277.93 527.34 232.13 610.85 1035.91
777.97 365.13 984.28 1540.95 406.27 1256.12 629.27 354.69 1580.43 1172.13 1326.23 785.85 325.22 929.44 439.09 571.22 1307.99 652.83 690.78 364.63 297.25 266.67 379.85 1615.40 924.04 429.57 353.44 907.26 385.08 429.86 358.95 281.29 576.18 559.57 475.16 89.12 584.96 215.51 632.74 313.00 556.77 637.23 590.84 207.12 410.36 371.56 323.76 215.36 842.92 625.04 567.56 609.02 1332.47 666.49 695.84 526.26 0.00 657.77 972.71 469.98 241.85 192.47 1308.93 755.82 650.12 480.44 446.38 149.53 442.69 455.30 586.55 472.04 699.73 453.95 880.88 817.17 1137.66 1242.78 756.94 819.42 465.74 717.93 875.50 407.60 743.15 994.41 575.64 966.88 403.37 501.54 975.11 1580.19 750.89 300.97 871.52 734.57 516.47 149.65 502.47 1080.82 934.37
205.78 353.00 522.03 1036.20 370.59 847.50 167.83 393.86 971.29 839.40 863.50 243.31 380.81 519.37 316.07 186.54 944.61 127.31 124.35 401.77 479.33 415.70 327.21 1066.66 356.51 515.42 444.17 514.52 392.73 297.02 365.80 533.06 510.18 476.48 236.79 702.76 537.61 522.63 307.58 415.55 285.62 152.92 259.96 599.70 308.79 356.99 404.79 708.93 471.00 252.15 162.15 419.06 806.95 205.25 114.13 251.55 657.77 0.00 417.85 292.45 464.18 550.94 805.51 665.12 203.91 329.40 350.57 603.75 543.26 336.72 145.43 406.84 545.67 252.08 316.50 631.73 638.76 796.57 681.68 198.42 227.37 184.32 494.39 274.76 707.70 551.98 528.29 527.09 396.32 396.33 519.08 1031.45 305.45 563.44 322.78 144.38 529.48 508.12 483.68 706.15 881.73
271.21 635.61 528.69 687.06 650.11 847.75 406.44 695.07 700.75 763.76 505.57 325.26 673.14 579.76 553.56 483.89 944.86 360.22 398.17 697.48 780.37 746.86 630.70 705.74 90.46 792.67 745.58 668.83 670.27 595.43 647.01 800.13 684.16 708.19 553.61 1006.08 679.58 839.83 580.06 693.94 550.08 437.79 557.31 916.52 620.18 709.42 690.32 1060.50 651.22 416.88 517.62 551.54 475.46 314.56 303.72 564.90 972.71 417.85 0.00 529.58 750.80 902.01 387.66 874.04 456.73 512.21 625.53 955.32 805.49 579.99 420.39 703.22 818.15 577.56 207.53 765.18 349.68 662.85 943.68 242.69 562.48 417.33 596.91 591.96 831.93 244.32 670.26 488.37 747.53 675.89 110.68 740.95 509.47 838.40 129.22 319.30 807.84 859.19 763.24 845.00 907.79
350.60 348.48 562.94 1139.21 364.26 869.41 189.74 200.02 1230.33 829.10 1035.15 346.32 383.84 486.53 358.34 223.02 838.01 356.36 363.48 229.49 287.98 312.45 348.28 1219.02 528.02 492.43 231.79 597.01 140.69 84.64 214.17 371.21 562.27 346.13 279.06 559.10 542.95 310.25 324.55 181.27 213.74 173.93 175.44 516.82 319.45 236.89 192.03 536.30 454.85 367.89 152.28 463.37 896.60 355.34 225.86 216.04 469.98 292.45 529.58 0.00 331.27 477.37 917.24 564.33 224.92 342.51 189.11 484.96 536.93 339.75 147.02 227.65 503.77 255.11 441.35 683.29 827.44 817.58 484.38 464.29 279.82 278.40 490.84 62.38 666.70 766.57 533.63 793.76 251.66 309.03 625.68 1254.23 289.85 373.50 552.83 306.55 423.16 472.74 377.36 660.32 902.80
585.72 123.28 878.26 1327.60 164.42 1177.18 508.91 223.19 1366.56 1113.71 1084.38 625.98 83.37 789.88 197.24 486.74 1169.28 460.58 462.51 144.40 199.16 53.32 138.00 1373.55 716.01 239.42 142.97 813.86 359.47 291.15 117.10 236.96 334.33 491.71 236.05 330.97 343.11 346.07 498.21 222.44 498.35 505.20 483.35 233.25 168.51 207.71 233.20 446.22 709.17 383.19 365.54 367.17 1140.22 436.24 486.54 392.51 241.85 464.18 750.80 331.27 0.00 208.61 1138.46 834.28 556.19 238.59 401.30 341.04 250.08 213.45 466.19 427.01 662.27 212.10 673.94 575.32 904.44 1106.30 727.20 595.97 236.81 495.91 743.85 268.89 518.49 752.56 333.79 725.03 291.67 457.67 733.26 1338.34 598.97 332.03 629.67 567.23 536.86 165.79 495.14 949.44 692.52
756.72 303.74 995.69 1530.62 328.47 1293.18 617.20 315.54 1472.57 1212.51 1292.99 737.73 291.98 869.16 405.85 589.35 1315.38 669.19 649.77 289.94 202.95 261.93 329.53 1554.01 902.82 264.17 245.58 887.63 470.55 437.25 325.71 148.22 538.99 533.84 426.56 237.46 507.16 268.46 632.84 333.52 611.63 648.55 635.28 63.65 375.25 325.29 344.28 289.67 789.28 591.80 483.24 575.78 1324.06 644.85 598.29 569.56 192.47 550.94 902.01 477.37 208.61 0.00 1289.67 838.07 696.07 447.20 493.65 184.49 316.16 413.15 607.07 500.31 696.19 420.71 862.81 736.34 1109.55 1235.82 769.33 744.73 429.37 704.48 881.80 414.99 550.68 961.17 497.84 931.77 364.97 453.69 870.55 1518.80 759.52 325.57 810.13 678.98 494.61 42.82 498.93 1051.77 884.05
611.19 1023.27 836.60 398.37 1037.77 1235.41 794.10 1082.73 313.09 1151.42 117.91 680.52 1060.80 710.15 941.22 856.68 1332.52 736.33 774.28 1080.52 1168.03 1134.52 1018.36 318.08 478.12 1180.33 1128.85 951.83 1040.01 975.51 1034.67 1187.79 1019.30 1095.85 941.27 1393.74 987.47 1217.82 967.72 1081.60 888.47 787.86 850.17 1304.18 1007.84 1097.08 1077.98 1448.16 1030.28 804.54 900.50 797.83 377.54 702.22 691.38 941.01 1308.93 805.51 387.66 917.24 1138.46 1289.67 0.00 1261.70 838.85 899.87 1013.19 1342.98 1193.15 967.65 808.05 1053.94 1205.81 961.80 595.19 946.89 342.65 753.33 1331.34 630.35 937.09 804.03 984.57 969.95 1156.43 412.44 984.46 656.49 1135.19 1063.55 449.35 353.29 864.73 1226.06 516.88 706.00 1195.50 1246.85 1150.90 1174.01 985.56
745.82 882.55 523.27 1420.95 923.69 573.67 562.41 718.16 1531.43 591.98 1379.61 709.76 842.64 604.46 850.59 595.69 670.78 741.14 779.09 755.76 635.12 848.93 897.27 1466.89 900.69 965.34 691.31 431.09 619.61 648.97 756.31 735.50 1102.56 419.43 810.35 844.94 1074.18 697.98 407.97 679.81 554.67 571.15 557.08 878.19 877.00 735.03 687.23 878.75 429.93 852.53 716.61 1020.52 1175.12 821.46 570.32 539.12 755.82 665.12 874.04 564.33 834.28 838.07 1261.70 0.00 597.65 891.94 586.63 832.10 1017.33 871.04 519.69 532.65 256.53 786.40 814.02 1175.10 1183.86 860.33 183.94 809.17 811.11 651.07 306.01 626.71 1202.65 1118.36 1072.76 1192.21 566.71 499.58 984.72 1502.10 537.72 612.52 925.78 651.01 499.59 873.71 453.79 406.82 1451.79
227.66 524.38 338.02 1035.03 521.94 760.03 82.34 386.15 1122.60 708.71 956.76 253.22 529.94 455.69 504.44 106.72 787.14 291.43 279.56 439.02 493.98 535.10 525.76 1132.65 415.96 686.80 450.49 466.78 265.04 277.49 439.09 576.92 676.97 365.59 425.16 739.24 656.94 509.41 189.68 365.98 93.35 50.99 115.22 709.70 491.81 403.02 355.22 707.77 369.03 407.36 300.53 574.27 789.20 354.46 153.01 199.19 650.12 203.91 456.73 224.92 556.19 696.07 838.85 597.65 0.00 478.11 302.45 638.53 694.61 483.18 102.45 292.53 427.77 401.21 266.06 757.86 757.28 592.66 601.08 349.73 425.92 136.58 430.62 287.30 749.76 659.91 666.26 711.07 376.01 343.97 518.28 1138.56 203.48 515.32 429.89 154.29 477.12 658.87 431.32 604.22 1026.23
396.89 144.28 801.43 1141.86 137.90 1066.09 395.77 347.93 1186.41 1103.39 845.79 451.82 160.93 690.68 41.35 384.04 1163.20 271.75 283.10 279.71 368.45 275.22 118.49 1187.56 537.06 280.46 327.17 778.51 423.57 269.19 228.60 421.43 247.31 591.72 120.63 569.56 226.75 429.77 583.06 358.29 495.76 427.12 457.46 419.57 107.97 328.48 352.51 667.58 714.35 166.89 190.23 211.28 945.83 197.65 427.75 470.50 480.44 329.40 512.21 342.51 238.59 447.20 899.87 891.94 478.11 0.00 432.44 562.40 293.28 67.78 391.51 435.39 711.51 142.86 554.30 419.43 669.75 1021.09 826.89 477.31 118.15 448.31 732.14 291.45 437.29 596.67 236.07 664.49 468.76 511.57 494.67 1152.35 563.53 512.78 443.68 423.78 637.28 404.38 598.92 958.59 673.01
433.27 430.82 601.02 1197.33 464.45 869.75 247.86 178.11 1291.05 785.76 1122.33 404.44 426.42 605.66 391.09 281.14 966.86 458.89 474.92 303.25 314.52 367.45 421.07 1325.30 586.14 555.44 258.33 460.88 61.30 252.17 297.44 393.68 622.71 245.24 311.81 463.11 612.63 298.33 267.34 198.33 232.99 256.60 227.03 543.36 401.57 207.58 209.04 479.77 432.90 445.70 341.39 561.02 954.72 425.49 321.81 136.19 446.38 350.57 625.53 189.11 401.30 493.65 1013.19 586.63 302.45 432.44 0.00 511.50 567.51 420.40 205.14 83.71 330.10 335.76 499.47 759.26 897.59 895.11 480.73 534.69 321.23 336.52 438.61 229.91 693.55 769.32 603.31 877.66 146.07 165.09 683.80 1319.90 415.62 212.87 611.23 398.07 268.24 450.83 222.44 698.12 975.59
802.42 438.51 972.69 1563.92 485.55 1175.69 611.23 333.39 1480.16 1091.70 1320.47 791.04 404.50 971.49 537.92 596.94 1272.80 677.28 686.58 296.91 196.98 301.22 457.95 1619.94 909.79 448.66 253.17 906.78 478.14 444.84 333.80 155.19 595.60 500.65 460.12 127.32 603.87 275.43 651.99 341.11 545.18 642.58 565.68 248.14 471.30 319.32 351.87 105.18 796.25 627.38 582.54 707.85 1318.09 680.90 651.60 551.93 149.53 603.75 955.32 484.96 341.04 184.49 1342.98 832.10 638.53 562.40 511.50 0.00 468.29 520.81 614.66 490.74 582.75 436.17 869.78 860.87 1126.29 1231.19 736.14 751.70 460.88 699.89 881.08 422.58 735.17 969.58 613.19 1024.20 401.87 472.84 1002.98 1584.73 774.81 324.15 876.06 732.29 369.64 175.25 385.49 1045.80 1012.47
677.54 214.41 979.22 1435.14 172.67 1328.54 648.87 396.80 1447.92 1295.66 1139.07 672.71 184.33 961.67 251.93 607.55 1374.94 565.03 551.77 314.93 382.21 303.40 238.96 1464.68 795.09 51.99 382.39 1009.24 555.52 476.46 362.29 431.25 258.88 699.56 325.31 487.68 290.71 529.12 748.29 418.49 680.30 643.62 669.92 274.44 269.47 359.93 407.73 573.47 947.26 437.88 477.28 421.86 1216.82 490.93 657.39 642.59 442.69 543.26 805.49 536.93 250.08 316.16 1193.15 1017.33 694.61 293.28 567.51 468.29 0.00 285.41 645.92 605.78 870.12 313.06 753.02 571.24 963.03 1207.26 894.98 675.05 315.89 703.89 955.65 474.55 349.24 807.25 300.03 825.99 503.98 619.41 787.95 1429.47 808.63 562.03 720.80 682.01 672.15 293.04 678.19 1085.58 759.86
464.67 109.41 821.20 1209.64 112.74 1088.99 409.32 313.79 1239.10 1060.63 913.57 519.60 130.08 752.59 42.85 379.13 1177.76 339.53 335.05 245.57 329.63 231.58 96.72 1255.34 588.55 271.83 293.03 735.75 402.80 284.32 194.46 365.62 231.52 582.92 108.59 544.42 258.35 420.97 578.15 306.10 478.08 432.19 452.55 366.91 55.31 294.34 316.86 625.99 727.90 228.80 258.01 212.78 1007.74 265.43 450.85 480.72 455.30 336.72 579.99 339.75 213.45 413.15 967.65 871.04 483.18 67.78 420.40 520.81 285.41 0.00 380.73 439.19 715.31 84.64 546.48 394.38 737.53 1075.84 818.41 468.51 109.35 497.98 727.23 277.37 441.91 579.01 267.67 611.83 419.20 502.77 562.45 1220.13 577.08 475.91 511.46 481.10 579.06 379.24 590.12 953.68 651.24
228.13 483.20 440.47 992.19 493.47 722.39 42.72 315.24 1102.42 777.11 925.96 199.30 461.59 462.69 423.58 76.00 819.50 253.75 269.78 336.57 417.68 434.53 457.41 1120.16 381.00 599.51 361.49 452.23 266.44 175.04 349.09 478.29 586.32 335.65 353.25 668.25 554.49 438.50 256.44 273.55 178.75 51.46 149.42 607.25 423.46 332.11 284.31 647.05 361.30 397.58 201.28 564.49 749.58 334.07 116.67 144.51 586.55 145.43 420.39 147.02 466.19 607.07 808.05 519.69 102.45 391.51 205.14 614.66 645.92 380.73 0.00 288.85 494.53 332.86 294.33 655.41 717.66 695.11 571.14 329.55 357.57 131.38 401.98 197.30 719.04 620.29 563.81 672.52 351.21 255.50 478.66 1114.76 210.48 418.01 406.09 192.93 387.45 587.96 342.85 604.69 1011.93
455.14 456.48 626.69 1178.70 483.24 898.53 310.57 228.98 1289.18 814.54 1121.84 385.81 477.29 615.13 409.88 220.30 982.56 490.91 476.74 300.01 340.23 377.93 439.86 1292.09 620.61 562.95 284.04 515.32 86.96 190.72 345.73 398.92 616.15 161.53 330.60 449.75 631.42 278.68 216.85 208.81 199.18 289.12 203.77 563.96 420.36 245.85 198.05 548.85 447.79 529.41 316.24 579.81 1017.43 508.80 399.50 165.13 472.04 406.84 703.22 227.65 427.01 500.31 1053.94 532.65 292.53 435.39 83.71 490.74 605.78 439.19 288.85 0.00 276.12 354.55 558.59 778.05 897.10 885.19 397.02 529.17 340.02 362.38 490.20 194.05 719.21 853.03 622.10 933.93 135.34 81.38 746.16 1327.30 362.92 281.95 653.53 407.84 210.31 492.25 164.51 697.64 994.38
635.44 697.29 657.08 1404.50 759.36 830.20 451.81 505.10 1422.88 848.51 1315.09 661.93 685.79 746.43 686.00 437.11 927.31 662.84 670.02 559.65 493.24 634.21 715.98 1472.47 790.09 822.59 519.30 573.06 363.08 466.84 610.76 556.43 892.27 170.56 606.72 693.16 907.54 484.22 238.09 465.09 407.90 478.76 377.02 736.31 696.48 521.97 474.17 622.22 450.67 682.65 592.36 855.93 1158.67 740.27 554.53 369.24 699.73 545.67 818.15 503.77 662.27 696.19 1205.81 256.53 427.77 711.51 330.10 582.75 870.12 715.31 494.53 276.12 0.00 630.67 693.83 1054.17 1090.35 943.64 236.29 650.01 616.14 489.61 447.98 470.17 995.33 1003.57 898.22 1008.85 370.60 250.71 873.39 1483.04 573.44 451.28 774.37 582.06 243.06 661.58 197.26 663.35 1249.65
410.74 150.34 739.23 1211.07 167.93 1040.86 361.19 242.50 1154.46 1021.57 978.01 480.07 128.73 704.33 103.23 294.49 1093.12 285.60 250.41 174.28 277.93 217.06 124.55 1201.85 503.91 312.76 221.74 729.53 318.16 214.99 123.17 280.98 316.16 498.28 23.95 487.87 295.68 336.33 493.51 221.46 406.21 363.31 367.91 386.86 90.60 223.05 232.22 541.35 647.32 226.49 175.92 273.16 965.24 281.17 366.21 396.08 453.95 252.08 577.56 255.11 212.10 420.71 961.80 786.40 401.21 142.86 335.76 436.17 313.06 84.64 332.86 354.55 630.67 0.00 461.84 471.40 753.27 993.87 733.77 383.87 24.71 436.40 642.59 192.73 501.77 658.55 286.36 647.12 334.56 418.13 595.75 1166.64 528.95 407.35 457.97 396.46 494.42 377.89 505.48 869.04 679.07
157.41 562.76 367.34 894.59 580.35 789.35 337.05 609.57 890.95 832.36 713.10 220.20 590.57 372.23 525.83 370.33 860.24 282.55 320.50 572.87 696.52 636.20 536.97 913.27 149.90 706.61 640.33 507.48 531.10 469.37 575.56 714.59 615.72 629.98 446.55 922.58 583.89 732.83 455.74 567.88 359.41 317.05 381.28 809.46 518.55 626.44 578.64 941.38 474.09 397.07 387.78 609.44 682.99 362.87 267.05 438.84 880.88 316.50 207.53 441.35 673.94 862.81 595.19 814.02 266.06 554.30 499.47 869.78 753.02 546.48 294.33 558.59 693.83 461.84 0.00 797.56 541.79 738.89 865.47 118.08 437.13 284.39 540.25 491.63 789.98 444.42 574.57 561.20 540.00 549.83 302.79 880.03 308.54 712.34 171.36 186.36 681.78 822.52 637.18 637.47 955.98
640.15 460.39 1041.06 1181.88 435.49 1377.80 698.13 692.99 1184.53 1356.36 828.98 704.79 500.30 985.05 378.08 731.41 1468.28 530.94 536.07 622.67 707.82 559.65 486.18 1025.87 761.50 570.78 672.23 1031.48 785.90 643.17 573.66 743.29 312.36 930.44 447.45 906.29 296.27 768.49 911.85 685.11 813.63 706.87 804.83 672.69 434.51 673.54 689.24 966.05 987.96 489.12 575.07 276.75 936.05 450.62 701.76 799.92 817.17 631.73 765.18 683.29 575.32 736.34 946.89 1175.10 757.86 419.43 759.26 860.87 571.24 394.38 655.41 778.05 1054.17 471.40 797.56 0.00 604.24 1228.33 1165.93 743.95 456.87 701.28 1054.12 620.91 397.94 534.53 305.59 487.84 787.08 850.29 676.16 1061.08 822.41 853.95 696.65 682.97 860.66 741.11 906.46 1228.32 396.34
562.41 814.03 878.37 737.10 807.65 1197.43 674.94 852.61 655.74 1113.44 224.74 583.70 821.07 896.15 711.10 676.80 1294.54 552.42 557.55 895.13 929.31 912.20 788.24 595.06 440.14 950.21 884.84 908.44 914.96 809.11 858.33 1025.06 775.29 1053.18 729.32 1223.03 743.46 1034.72 874.30 894.30 788.52 706.29 750.22 1047.53 735.93 866.96 883.54 1231.47 909.46 527.84 675.16 553.82 491.27 472.10 653.40 828.25 1137.66 638.76 349.68 827.44 904.44 1109.55 342.65 1183.86 757.28 669.75 897.59 1126.29 963.03 737.53 717.66 897.10 1090.35 753.27 541.79 604.24 0.00 791.17 1258.38 440.34 729.62 622.78 877.85 786.85 912.42 168.43 752.78 412.48 992.85 973.03 239.00 559.85 743.91 995.99 478.14 657.22 1105.11 1066.73 1060.38 1126.47 1000.58
624.20 1062.84 531.44 639.19 1103.98 844.48 675.00 978.81 684.16 810.11 779.86 679.11 1022.93 366.66 1049.81 699.38 747.37 749.34 787.29 1031.68 1086.64 1103.22 1077.56 790.72 753.31 1225.26 1043.15 671.58 857.70 870.15 1031.75 1169.58 1184.70 886.02 1010.99 1331.90 1216.53 1102.07 705.55 958.64 686.01 643.65 707.88 1293.09 1084.47 995.68 947.88 1300.43 679.20 863.86 893.19 1076.23 420.14 829.66 745.67 791.85 1242.78 796.57 662.85 817.58 1106.30 1235.82 753.33 860.33 592.66 1021.09 895.11 1231.19 1207.26 1075.84 695.11 885.19 943.64 993.87 738.89 1228.33 791.17 0.00 982.70 737.69 1018.58 718.35 554.32 879.96 1273.42 693.80 1211.00 934.98 968.33 884.70 552.17 807.61 597.22 1085.27 791.31 719.01 1017.85 1193.00 972.05 813.83 1422.77
779.48 762.22 604.40 1459.09 829.68 757.61 613.86 581.90 1569.57 775.92 1342.19 770.44 750.72 679.51 797.76 581.58 854.72 804.43 806.03 624.58 640.42 717.75 788.01 1565.87 906.99 842.99 584.23 464.26 440.93 569.02 675.69 721.91 1013.17 235.49 718.48 766.45 995.00 601.67 415.96 548.63 535.97 602.81 520.97 832.98 790.48 598.77 550.97 723.38 522.11 852.27 636.66 947.75 1256.25 839.72 639.96 430.13 756.94 681.68 943.68 484.38 727.20 769.33 1331.34 183.94 601.08 826.89 480.73 736.14 894.98 818.41 571.14 397.02 236.29 733.77 865.47 1165.93 1258.38 982.70 0.00 878.81 709.06 667.48 428.38 546.76 1073.18 1188.00 985.68 1208.77 435.53 315.64 1049.80 1530.66 660.09 516.21 947.95 720.65 402.33 726.51 357.07 550.44 1342.53
122.07 484.79 485.42 883.35 502.38 876.97 286.83 539.74 772.87 792.98 665.08 143.36 512.60 455.81 447.86 367.56 974.08 247.21 230.56 454.79 578.44 552.75 459.00 868.24 158.09 647.21 522.25 468.10 550.89 436.67 497.59 596.51 627.97 643.32 368.58 804.50 653.53 670.78 475.23 519.06 420.62 298.74 382.32 731.49 440.58 550.46 529.82 856.88 493.12 358.36 312.01 525.27 718.15 293.33 238.85 449.97 819.42 198.42 242.69 464.29 595.97 744.73 630.35 809.17 349.73 477.31 534.69 751.70 675.05 468.51 329.55 529.17 650.01 383.87 118.08 743.95 440.34 737.69 878.81 0.00 359.16 223.71 559.28 458.93 692.51 353.56 660.08 514.20 594.74 585.05 353.37 833.03 327.57 737.63 124.36 216.88 703.76 706.54 672.40 686.13 920.64
396.21 125.63 749.14 1196.54 143.22 1030.03 350.36 257.76 1132.03 1046.28 954.36 465.54 153.44 679.62 88.70 319.20 1117.83 271.07 235.88 174.40 291.62 199.07 99.84 1177.14 479.20 288.05 236.54 741.89 329.03 239.70 138.43 305.69 320.32 473.57 9.42 503.13 310.24 311.62 512.70 246.17 430.92 380.29 392.62 372.33 81.42 238.31 256.93 566.06 631.37 201.78 161.39 258.63 950.71 266.64 341.50 381.55 465.74 227.37 562.48 279.82 236.81 429.37 937.09 811.11 425.92 118.15 321.23 460.88 315.89 109.35 357.57 340.02 616.14 24.71 437.13 456.87 729.62 1018.58 709.06 359.16 0.00 411.69 667.30 217.44 480.33 644.02 300.92 637.94 359.27 393.42 571.04 1141.93 515.97 397.08 433.26 371.75 519.13 392.95 480.77 893.75 654.36
192.84 497.98 433.49 989.85 531.22 739.07 88.66 446.62 996.58 655.08 847.52 196.96 526.82 373.34 489.66 148.20 836.18 250.06 233.59 429.92 502.91 478.66 472.19 1050.30 381.80 660.40 458.90 330.20 362.70 306.42 378.81 571.64 631.00 431.99 421.11 743.51 623.24 569.88 251.52 404.93 196.91 110.55 158.61 723.86 479.84 463.49 415.69 778.43 286.68 352.98 288.52 528.30 795.52 250.66 126.19 249.45 717.93 184.32 417.33 278.40 495.91 704.48 804.03 651.07 136.58 448.31 336.52 699.89 703.89 497.98 131.38 362.38 489.61 436.40 284.39 701.28 622.78 718.35 667.48 223.71 411.69 0.00 352.84 328.68 724.51 525.41 632.56 711.41 406.58 386.88 383.78 1056.74 121.13 549.39 348.07 98.03 518.83 661.70 474.23 612.35 990.01
485.25 779.37 265.22 1119.91 810.52 433.33 399.47 605.96 1230.39 449.96 1102.48 415.92 771.32 298.45 745.82 348.10 530.44 551.08 586.43 720.33 717.95 797.17 767.14 1160.88 650.72 941.79 686.18 125.08 492.52 575.48 705.01 765.94 958.75 523.93 666.54 901.72 938.27 721.70 355.82 629.55 345.53 415.28 315.40 927.58 733.19 625.39 636.89 882.50 124.88 705.82 541.91 873.74 917.07 603.50 380.26 351.34 875.50 494.39 596.91 490.84 743.85 881.80 984.57 306.01 430.62 732.14 438.61 881.08 955.65 727.23 401.98 490.20 447.98 642.59 540.25 1054.12 877.85 554.32 428.38 559.28 667.30 352.84 0.00 553.22 991.14 834.30 928.95 999.95 584.68 496.12 705.44 1196.09 231.71 651.48 673.58 450.87 612.22 878.68 583.47 259.51 1283.82
386.58 286.10 625.32 1147.88 301.88 919.69 240.02 137.64 1231.80 891.48 1011.59 396.60 321.46 548.91 295.96 256.29 900.39 296.86 323.13 167.11 225.60 251.64 285.90 1262.24 568.07 430.05 169.41 637.47 168.61 22.26 151.79 308.83 499.89 355.58 216.68 496.72 480.57 247.87 386.93 141.39 276.12 236.31 237.82 454.44 257.07 174.51 130.63 514.89 513.51 370.41 159.96 400.99 946.88 314.75 288.24 260.77 407.60 274.76 591.96 62.38 268.89 414.99 969.95 626.71 287.30 291.45 229.91 422.58 474.55 277.37 197.30 194.05 470.17 192.73 491.63 620.91 786.85 879.96 546.76 458.93 217.44 328.68 553.22 0.00 604.32 725.98 471.25 801.44 206.00 275.43 675.96 1269.45 352.23 333.33 560.78 326.97 404.36 410.36 358.56 680.55 840.42
727.62 406.28 1087.78 1371.73 384.78 1412.98 733.31 635.55 1317.79 1370.12 1137.16 796.95 435.12 1072.52 399.06 643.04 1504.71 632.83 637.96 513.31 636.96 537.22 380.49 1423.81 798.11 324.90 580.77 1054.71 632.25 626.58 564.42 639.34 242.37 837.69 478.34 788.14 210.54 739.17 794.68 615.38 754.76 711.86 716.46 547.35 465.68 608.98 604.62 840.35 995.87 562.55 627.52 358.60 1219.33 552.51 803.65 773.43 743.15 707.70 831.93 666.70 518.49 550.68 1156.43 1202.65 749.76 437.29 693.55 735.17 349.24 441.91 719.04 719.21 995.33 501.77 789.98 397.94 912.42 1273.42 1073.18 692.51 480.33 724.51 991.14 604.32 0.00 743.99 215.41 750.68 702.36 800.59 721.25 1416.94 845.64 796.15 756.45 734.90 873.55 593.50 827.75 1217.59 619.24
475.63 668.83 773.01 810.81 651.87 1092.07 577.57 780.95 725.53 1008.08 393.17 496.92 697.67 744.27 555.32 655.31 1189.18 491.55 496.68 742.94 772.60 798.21 643.04 730.52 334.78 823.71 716.41 821.66 830.62 748.24 761.09 856.63 606.86 952.51 634.60 1059.45 575.03 912.47 776.93 769.04 722.32 608.92 684.02 933.54 621.94 744.08 758.28 1074.76 800.45 513.55 614.29 385.39 639.71 411.23 548.04 764.80 994.41 551.98 244.32 766.57 752.56 961.17 412.44 1118.36 659.91 596.67 769.32 969.58 807.25 579.01 620.29 853.03 1003.57 658.55 444.42 534.53 168.43 693.80 1188.00 353.56 644.02 525.41 834.30 725.98 743.99 0.00 584.35 244.05 865.11 875.79 141.63 728.28 634.90 931.79 373.54 563.62 1007.74 918.35 963.14 1039.69 848.65
586.80 236.83 912.18 1170.51 169.37 1286.20 606.53 470.82 1280.99 1239.83 977.52 633.46 250.42 870.93 248.34 580.85 1371.64 475.15 438.56 415.11 457.94 358.24 238.87 1250.93 582.70 269.95 450.19 962.76 603.70 493.51 364.00 458.00 41.15 750.19 291.50 664.76 9.32 569.72 755.13 504.74 624.47 615.27 654.27 492.40 283.97 462.52 493.98 701.96 879.28 347.14 426.30 198.96 1126.08 433.72 615.22 663.63 575.64 528.29 670.26 533.63 333.79 497.84 984.46 1072.76 666.26 236.07 603.31 613.19 300.03 267.67 563.81 622.10 898.22 286.36 574.57 305.59 752.78 1211.00 985.68 660.08 300.92 632.56 928.95 471.25 215.41 584.35 0.00 549.46 563.52 685.50 725.98 1215.72 713.73 623.95 541.04 534.53 780.78 499.58 753.92 1151.67 530.35
592.07 666.16 928.54 804.15 674.82 1225.81 691.43 815.00 914.63 1141.82 637.22 584.03 641.66 896.48 623.14 713.63 1322.92 644.42 606.47 746.78 830.84 732.79 654.40 890.83 483.22 814.65 794.24 982.30 912.23 789.76 695.67 869.01 571.97 1003.57 646.28 1056.00 540.14 949.56 834.67 854.11 769.34 660.08 787.05 868.12 556.52 795.55 843.35 1129.38 933.79 692.44 641.48 480.07 880.89 635.87 641.22 778.64 966.88 527.09 488.37 793.76 725.03 931.77 656.49 1192.21 711.07 664.49 877.66 1024.20 825.99 611.83 672.52 933.93 1008.85 647.12 561.20 487.84 412.48 934.98 1208.77 514.20 637.94 711.41 999.95 801.44 750.68 244.05 549.46 0.00 923.41 923.42 382.81 855.62 768.24 979.85 389.84 671.47 1056.57 890.82 1010.77 1198.67 707.56
539.79 326.69 710.17 1314.04 394.15 982.01 393.93 151.45 1340.72 898.02 1212.61 521.15 346.40 655.33 430.04 349.13 1079.12 485.54 520.67 189.05 204.89 282.22 352.48 1425.50 689.90 451.99 148.70 606.95 110.97 222.39 240.16 288.92 578.33 200.04 350.76 428.42 572.84 196.97 352.19 113.10 282.66 363.12 316.73 428.62 379.31 168.32 120.52 468.06 525.63 522.91 365.96 599.97 1100.79 520.75 467.88 252.15 403.37 396.32 747.53 251.66 291.67 364.97 1135.19 566.71 376.01 468.76 146.07 401.87 503.98 419.20 351.21 135.34 370.60 334.56 540.00 787.08 992.85 968.33 435.53 594.74 359.27 406.58 584.68 206.00 702.36 865.11 563.52 923.41 0.00 189.84 790.36 1390.29 498.26 201.16 681.62 486.85 312.86 401.64 277.19 832.98 907.00
483.63 474.99 574.08 1247.69 516.13 842.81 298.22 310.36 1357.92 758.82 1181.46 454.80 435.08 657.90 482.12 296.23 901.18 509.25 520.68 313.27 383.33 411.23 489.71 1373.47 636.50 576.21 338.54 433.94 168.34 272.10 364.38 406.27 697.53 80.15 402.84 450.81 694.82 286.03 179.15 290.19 250.62 306.96 235.62 517.34 474.84 327.23 279.43 467.47 410.09 595.20 397.62 652.05 1005.08 588.71 372.17 144.78 501.54 396.33 675.89 309.03 457.67 453.69 1063.55 499.58 343.97 511.57 165.09 472.84 619.41 502.77 255.50 81.38 250.71 418.13 549.83 850.29 973.03 884.70 315.64 585.05 393.42 386.88 496.12 275.43 800.59 875.79 685.50 923.42 189.84 0.00 734.16 1370.26 444.30 200.57 661.59 448.43 133.15 410.87 87.35 659.94 1044.23
381.89 638.95 639.37 673.35 632.57 958.43 435.94 793.90 691.74 874.44 463.74 430.72 655.60 675.02 536.02 526.21 1055.54 470.90 508.85 745.44 850.19 769.89 613.16 767.43 201.14 775.13 807.58 713.98 719.44 653.70 709.47 876.73 741.98 814.31 580.46 1022.37 716.66 882.66 635.30 752.21 580.69 467.29 542.39 914.24 602.64 767.60 762.97 1108.16 670.46 484.88 628.30 527.02 498.08 425.24 414.40 623.17 975.11 519.08 110.68 625.68 733.26 870.55 449.35 984.72 518.28 494.67 683.80 1002.98 787.95 562.45 478.66 746.16 873.39 595.75 302.79 676.16 239.00 552.17 1049.80 353.37 571.04 383.78 705.44 675.96 721.25 141.63 725.98 382.81 790.36 734.16 0.00 798.85 504.91 896.67 239.14 429.98 866.11 827.73 821.51 940.26 990.28
910.90 1215.06 1057.64 230.81 1282.52 1419.77 1072.04 1300.70 123.45 1390.03 335.11 976.39 1254.97 1048.59 1193.70 1156.39 1516.88 1003.41 1027.93 1287.82 1406.63 1341.00 1240.85 35.21 802.05 1377.48 1350.44 1197.78 1303.77 1269.70 1280.36 1429.54 1174.57 1373.04 1151.35 1637.53 1206.40 1423.96 1285.76 1280.53 1132.08 1087.57 1162.16 1514.26 1223.35 1317.57 1269.77 1654.03 1129.93 1057.02 1145.04 1113.67 405.79 954.70 1044.67 1237.92 1580.19 1031.45 740.95 1254.23 1338.34 1518.80 353.29 1502.10 1138.56 1152.35 1319.90 1584.73 1429.47 1220.13 1114.76 1327.30 1483.04 1166.64 880.03 1061.08 559.85 807.61 1530.66 833.03 1141.93 1056.74 1196.09 1269.45 1416.94 728.28 1215.72 855.62 1390.29 1370.26 798.85 0.00 964.38 1509.42 708.67 1005.71 1502.21 1504.13 1457.61 1342.64 1317.89
253.54 619.11 312.36 977.10 635.96 665.04 167.76 458.06 1087.58 653.91 968.65 184.21 632.30 252.21 604.67 252.39 762.15 361.66 354.72 519.34 577.83 599.79 593.32 929.17 419.01 781.53 521.64 329.03 404.43 374.49 499.94 648.83 752.13 511.71 525.39 812.67 723.05 581.32 372.65 437.89 232.74 183.57 259.89 695.87 597.39 474.93 427.13 811.39 165.55 474.11 409.65 649.43 874.62 371.79 247.32 318.15 750.89 305.45 509.47 289.85 598.97 759.52 864.73 537.72 203.48 563.53 415.62 774.81 808.63 577.08 210.48 362.92 573.44 528.95 308.54 822.41 743.91 597.22 660.09 327.57 515.97 121.13 231.71 352.23 845.64 634.90 713.73 768.24 498.26 444.30 504.91 964.38 0.00 628.49 441.87 219.16 542.61 730.78 496.81 491.22 1052.11
645.59 417.61 774.65 1410.20 454.58 1043.38 460.73 214.94 1442.37 959.39 1220.73 617.31 377.70 818.53 485.78 475.15 1101.75 622.85 595.95 282.84 232.37 362.56 432.33 1538.17 799.01 545.78 215.38 634.51 274.17 327.07 284.18 205.70 665.10 280.72 406.50 250.24 633.27 85.46 379.72 250.41 429.54 469.47 414.54 389.22 423.33 245.34 239.65 266.90 610.66 468.15 475.35 655.71 1167.59 570.47 534.68 323.70 300.97 563.44 838.40 373.50 332.03 325.57 1226.06 612.52 515.32 512.78 212.87 324.15 562.03 475.91 418.01 281.95 451.28 407.35 712.34 853.95 995.99 1085.27 516.21 737.63 397.08 549.39 651.48 333.33 796.15 931.79 623.95 979.85 201.16 200.57 896.67 1509.42 628.49 0.00 800.75 550.78 333.72 315.78 287.92 860.51 986.85
202.23 506.39 538.70 816.28 573.85 835.97 363.37 592.03 829.97 751.98 634.79 267.72 546.30 543.59 485.03 447.72 933.08 294.74 319.26 579.15 702.80 632.33 532.18 743.88 93.38 668.81 646.61 592.46 631.05 561.03 571.69 720.87 582.19 741.74 442.68 928.86 550.36 715.29 577.09 571.86 480.52 378.90 453.49 805.59 514.68 608.90 561.10 945.36 607.42 348.35 436.37 534.97 604.68 246.03 363.21 544.33 871.52 322.78 129.22 552.83 629.67 810.13 516.88 925.78 429.89 443.68 611.23 876.06 720.80 511.46 406.09 653.53 774.37 457.97 171.36 696.65 478.14 791.31 947.95 124.36 433.26 348.07 673.58 560.78 756.45 373.54 541.04 389.84 681.62 661.59 239.14 708.67 441.87 800.75 0.00 297.04 793.54 795.46 748.94 808.83 910.71
94.81 478.47 377.65 891.82 514.97 773.76 172.82 464.61 989.75 753.11 823.91 98.93 518.38 411.38 460.45 187.54 870.87 152.03 189.98 491.67 552.57 549.98 471.59 1024.08 326.12 640.89 496.38 428.23 393.62 349.23 450.13 577.10 557.04 485.16 381.17 783.05 525.21 574.84 343.97 466.48 247.64 141.47 256.64 742.63 453.17 501.37 457.60 817.68 384.71 275.54 274.84 484.69 794.76 232.35 80.69 314.15 734.57 144.38 319.30 306.55 567.23 678.98 706.00 651.01 154.29 423.78 398.07 732.29 682.01 481.10 192.93 407.84 582.06 396.46 186.36 682.97 657.22 719.01 720.65 216.88 371.75 98.03 450.87 326.97 734.90 563.62 534.53 671.47 486.85 448.43 429.98 1005.71 219.16 550.78 297.04 0.00 580.38 636.16 535.78 694.70 893.38
615.58 585.39 707.23 1379.64 630.35 882.36 430.17 342.83 1476.63 798.37 1313.41 586.75 549.30 791.05 597.65 429.38 979.47 614.97 652.92 413.86 341.78 483.54 603.93 1471.78 768.45 672.00 397.97 567.09 287.81 401.03 459.58 403.47 790.94 167.11 518.37 481.00 790.10 332.76 312.30 314.42 383.77 438.91 368.77 558.26 548.12 359.70 311.90 474.82 543.24 713.94 526.55 767.58 1137.03 667.69 504.12 277.93 516.47 529.48 807.84 423.16 536.86 494.61 1195.50 499.59 477.12 637.28 268.24 369.64 672.15 579.06 387.45 210.31 243.06 494.42 681.78 860.66 1105.11 1017.85 402.33 703.76 519.13 518.83 612.22 404.36 873.55 1007.74 780.78 1056.57 312.86 133.15 866.11 1502.21 542.61 333.72 793.54 580.38 0.00 537.43 45.80 793.09 1098.19
713.90 289.07 984.95 1487.80 330.21 1253.68 630.68 272.72 1479.41 1169.69 1250.17 694.91 249.16 826.34 363.03 622.20 1310.75 626.37 628.30 258.08 238.59 219.11 293.11 1539.34 864.63 306.99 278.43 844.81 451.44 419.61 282.89 138.21 500.12 491.02 401.84 194.64 508.90 258.45 590.02 314.41 623.13 639.42 615.65 106.47 334.30 305.66 303.65 280.43 779.27 548.98 526.06 532.96 1303.47 602.03 555.47 527.34 149.65 508.12 859.19 472.74 165.79 42.82 1246.85 873.71 658.87 404.38 450.83 175.25 293.04 379.24 587.96 492.25 661.58 377.89 822.52 741.11 1066.73 1193.00 726.51 706.54 392.95 661.70 878.68 410.36 593.50 918.35 499.58 890.82 401.64 410.87 827.73 1504.13 730.78 315.78 795.46 636.16 537.43 0.00 498.22 1070.81 847.63
570.98 543.41 661.43 1335.04 584.55 852.08 385.57 315.41 1445.27 768.09 1268.81 542.15 503.50 745.25 569.47 383.58 949.19 596.60 608.03 400.62 295.98 498.58 558.13 1425.98 723.85 626.20 352.17 521.29 242.01 355.23 434.74 396.36 780.66 160.13 490.19 512.81 755.23 286.96 266.50 340.50 337.97 394.31 322.97 539.05 562.19 352.28 346.34 453.37 497.44 668.14 480.75 739.40 1092.43 647.93 459.52 232.13 502.47 483.68 763.24 377.36 495.14 498.93 1150.90 453.79 431.32 598.92 222.44 385.49 678.19 590.12 342.85 164.51 197.26 505.48 637.18 906.46 1060.38 972.05 357.07 672.40 480.77 474.23 583.47 358.56 827.75 963.14 753.92 1010.77 277.19 87.35 821.51 1457.61 496.81 287.92 748.94 535.78 45.80 498.22 0.00 747.29 1052.39
670.11 941.16 447.45 1182.68 982.30 391.71 584.58 809.51 1293.16 307.72 1291.92 675.43 901.25 463.86 972.27 574.55 313.75 793.67 830.50 847.66 848.82 925.68 955.88 1307.43 787.37 1103.58 849.96 307.31 752.03 702.81 832.34 949.20 1180.44 661.26 892.99 1110.75 1159.18 898.02 480.79 767.82 605.04 553.23 574.91 1091.89 937.62 826.38 778.58 1127.41 384.39 909.77 768.36 1081.54 936.85 863.01 639.77 610.85 1080.82 706.15 845.00 660.32 949.44 1051.77 1174.01 406.82 604.22 958.59 698.12 1045.80 1085.58 953.68 604.69 697.64 663.35 869.04 637.47 1228.32 1126.47 813.83 550.44 686.13 893.75 612.35 259.51 680.55 1217.59 1039.69 1151.67 1198.67 832.98 659.94 940.26 1342.64 491.22 860.51 808.83 694.70 793.09 1070.81 747.29 0.00 1468.68
798.57 580.31 1271.03 1383.93 606.31 1667.14 1004.72 842.87 1298.65 1587.73 982.78 867.90 609.15 1143.47 677.70 973.56 1740.81 802.78 764.83 771.50 816.67 711.25 554.52 1303.64 817.33 742.73 808.92 1262.85 949.83 862.68 741.44 888.07 500.98 1107.04 663.78 1023.49 532.81 913.20 1070.78 864.56 1027.30 975.24 1046.98 891.23 652.40 806.00 853.80 1117.65 1217.66 637.03 815.75 673.09 1317.37 739.35 973.60 1035.91 934.37 881.73 907.79 902.80 692.52 884.05 985.56 1451.79 1026.23 673.01 975.59 1012.47 759.86 651.24 1011.93 994.38 1249.65 679.07 955.98 396.34 1000.58 1422.77 1342.53 920.64 654.36 990.01 1283.82 840.42 619.24 848.65 530.35 707.56 907.00 1044.23 990.28 1317.89 1052.11 986.85 910.71 893.38 1098.19 847.63 1052.39 1468.68 0.00
DEMAND_SECTION
1 0
2 8
3 8
4 5
5 6
6 5
7 9
8 2
9 1
10 3
11 4
12 6
13 6
14 10
15 1
16 7
17 6
18 8
19 5
20 3
21 10
22 9
23 10
24 7
25 1
26 5
27 1
28 9
29 2
30 2
31 4
32 8
33 6
34 8
35 3
36 8
37 3
38 5
39 9
40 1
41 6
42 10
43 9
44 7
45 2
46 1
47 4
48 3
49 3
50 4
51 2
52 10
53 9
54 6
55 7
56 1
57 9
58 4
59 1
60 5
61 3
62 1
63 8
64 5
65 9
66 4
67 5
68 2
69 6
70 1
71 10
72 8
73 2
74 9
75 3
76 8
77 3
78 9
79 1
80 10
81 4
82 6
83 6
84 6
85 7
86 10
87 10
88 6
89 4
90 10
91 1
92 6
93 1
94 6
95 10
96 1
97 3
98 8
99 3
100 4
101 2
DEPOT_SECTION
1
-1
EOF
