NAME: LDG125_2212_snow_125_0285
COMMENT: CVRP with travel times.  rootPos=2,custPos=2,demandType=1,avgRouteSizeIndex=2,weather=snow,lambda_cluster=1,lambda_random=4, T1=300,T2=700,beta=1, alpha(i,j) ~ U(0.8,1.2)
TYPE: CVRP
DIMENSION: 126
EDGE_WEIGHT_TYPE: EXPLICIT
EDGE_WEIGHT_FORMAT: FULL_MATRIX
CAPACITY: 6
NODE_COORD_SECTION
1 500 500
2 38 424
3 940 791
4 562 606
5 870 821
6 972 710
7 474 762
8 609 470
9 920 803
10 84 390
11 616 593
12 10 601
13 16 564
14 738 854
15 92 350
16 190 667
17 330 676
18 863 814
19 908 782
20 46 320
21 834 808
22 666 703
23 27 363
24 175 398
25 629 426
26 70 302
27 32 282
28 570 559
29 307 602
30 583 665
31 302 520
32 795 788
33 932 836
34 629 655
35 677 700
36 509 673
37 550 488
38 756 883
39 99 418
40 637 571
41 604 397
42 783 759
43 561 779
44 852 905
45 882 900
46 18 270
47 743 906
48 77 485
49 137 26
50 583 827
51 169 813
52 985 889
53 899 805
54 611 712
55 43 409
56 935 827
57 16 754
58 606 585
59 78 667
60 67 679
61 80 260
62 944 858
63 95 188
64 84 567
65 42 333
66 482 662
67 180 462
68 927 744
69 577 684
70 918 845
71 885 724
72 594 607
73 142 682
74 798 673
75 50 289
76 98 514
77 64 342
78 766 750
79 821 815
80 63 594
81 29 652
82 527 784
83 593 674
84 40 475
85 71 700
86 512 569
87 578 638
88 548 659
89 48 579
90 583 646
91 38 596
92 41 503
93 32 316
94 778 722
95 2 417
96 57 631
97 811 840
98 585 537
99 578 645
100 27 323
101 146 205
102 68 670
103 114 338
104 940 813
105 903 817
106 160 408
107 574 591
108 931 839
109 909 758
110 946 783
111 783 567
112 583 657
113 869 946
114 909 818
115 525 636
116 690 728
117 546 821
118 693 653
119 637 820
120 886 819
121 684 848
122 88 317
123 571 727
124 121 461
125 1 621
126 507 606
EDGE_WEIGHT_SECTION
0.00 777.58 784.09 216.69 712.25 729.42 441.36 186.49 773.59 716.17 209.81 769.53 670.87 580.70 787.34 691.54 504.54 688.36 742.30 781.34 660.17 418.73 811.70 616.95 256.02 810.87 858.53 140.63 461.92 291.27 425.98 602.08 739.97 293.53 440.89 263.61 169.33 655.68 722.74 273.27 322.77 536.79 467.52 800.43 754.77 823.00 647.70 767.18 942.93 468.35 819.13 852.11 719.61 382.30 792.36 752.39 856.90 220.39 697.78 707.68 885.83 768.92 990.57 812.57 804.69 238.57 638.16 734.48 352.61 708.59 689.46 255.89 595.34 540.39 858.25 773.75 787.69 530.60 649.60 790.93 783.90 429.44 324.34 830.88 705.62 148.38 301.53 298.75 730.07 278.86 764.51 830.33 831.02 467.74 884.69 776.16 670.51 184.13 284.99 826.05 904.93 723.34 800.02 786.19 744.96 580.64 192.60 727.52 722.02 812.06 503.92 306.13 828.15 757.39 219.63 451.07 499.50 372.36 550.70 683.23 605.88 738.85 360.48 750.32 778.13 205.44
777.58 0.00 1266.44 804.11 1258.68 1288.15 798.93 865.72 1301.33 95.11 827.45 363.03 268.27 1064.99 131.64 508.55 597.51 1234.79 1267.03 174.54 1201.98 940.26 102.65 237.56 830.04 247.15 264.91 732.85 496.25 775.56 351.60 1156.19 1318.02 841.27 962.42 815.06 832.19 1133.92 127.76 833.82 848.43 1083.22 927.87 1288.11 1301.20 257.74 1203.87 142.64 690.77 929.85 530.71 1437.95 1272.84 851.78 29.99 1300.39 533.56 791.44 402.16 419.18 292.79 1359.64 387.58 283.29 163.02 726.25 242.37 1299.01 842.13 1300.81 1216.28 827.80 463.25 1088.42 251.54 181.44 160.23 1079.50 1174.23 304.37 376.42 892.20 808.63 123.86 451.83 732.15 814.53 822.24 302.32 786.95 269.19 108.81 209.09 1059.96 107.11 343.78 1216.94 766.48 802.06 219.25 380.31 399.94 175.58 1304.53 1292.00 216.28 751.33 1319.20 1210.15 1231.77 1074.97 759.68 1306.97 1315.25 789.22 960.21 833.58 919.53 970.96 1241.46 1023.38 211.07 906.77 130.21 347.35 728.79
784.09 1266.44 0.00 614.97 157.87 167.01 662.50 758.86 53.22 1276.39 611.91 1287.55 1316.15 317.89 1313.24 1095.32 888.28 138.25 59.22 1366.30 176.45 433.13 1369.09 1179.96 784.79 1293.69 1306.57 643.46 895.80 561.26 914.84 221.23 78.39 527.66 410.97 668.59 792.29 304.13 1251.47 637.51 732.53 277.93 537.26 228.82 168.66 1342.10 380.47 1274.08 1654.33 529.29 1149.23 202.94 106.12 516.49 1296.43 60.76 1287.22 624.07 1225.41 1219.09 1399.38 120.01 1473.40 1185.97 1376.61 671.38 1115.47 133.54 551.50 75.50 150.03 577.45 1136.86 396.27 1341.07 1216.68 1350.70 289.43 188.10 1195.38 1205.48 616.15 528.19 1266.43 1223.72 700.35 563.21 596.45 1261.16 531.56 1223.81 1330.68 1404.30 316.35 1373.55 1251.14 215.28 691.64 546.67 1382.70 1408.25 1199.85 1321.33 50.83 105.48 1203.59 606.51 85.63 77.09 34.67 452.09 558.83 252.19 86.20 588.42 395.15 613.82 484.37 445.76 125.77 412.64 1344.57 533.65 1227.63 1301.97 637.73
216.69 804.11 614.97 0.00 555.14 589.60 322.36 206.87 626.44 782.53 102.24 795.31 859.18 401.51 759.51 607.69 396.04 531.25 606.98 853.68 503.06 222.63 868.17 691.91 276.40 856.44 923.53 104.75 451.19 112.08 486.00 452.65 614.48 162.87 225.45 176.35 216.49 475.33 697.74 126.69 361.39 379.68 280.68 657.88 597.66 927.86 496.40 766.61 1159.62 344.90 770.30 739.03 579.79 193.19 795.51 596.85 862.91 73.81 785.34 747.66 931.40 656.10 1012.28 741.40 830.33 201.36 561.74 607.79 150.37 626.61 526.80 100.55 682.90 400.57 886.33 792.22 841.96 388.57 492.49 780.20 713.24 283.71 143.53 831.17 793.18 186.72 84.84 108.62 799.98 83.41 815.38 816.10 881.26 385.76 865.83 739.49 513.40 137.83 68.30 871.15 920.42 766.90 803.45 630.65 595.53 655.60 52.78 621.72 559.33 606.15 333.88 110.68 697.85 618.78 96.18 296.73 353.77 241.70 376.47 577.98 416.77 784.42 234.74 673.90 832.37 156.61
712.25 1258.68 157.87 555.14 0.00 220.91 544.36 626.25 121.58 1257.67 519.25 1189.14 1224.76 231.71 1234.65 1008.99 823.91 23.89 122.14 1331.44 74.02 376.52 1336.95 1120.13 695.78 1279.89 1371.34 571.62 871.02 487.11 907.08 149.57 121.06 423.38 354.36 588.27 712.48 229.25 1172.88 572.67 719.63 175.46 450.93 150.52 163.55 1335.81 307.34 1171.65 1597.72 449.64 1062.90 233.20 83.18 497.23 1270.65 133.48 1200.89 519.79 1111.70 1156.50 1375.91 150.01 1399.25 1083.50 1316.78 614.77 1036.88 205.04 465.17 125.62 190.39 473.17 1110.90 301.76 1327.27 1150.75 1290.87 185.15 101.77 1142.41 1141.11 536.50 463.89 1205.77 1154.85 596.07 503.38 536.62 1166.00 471.73 1131.12 1233.72 1305.92 244.51 1329.05 1190.08 140.19 622.29 486.84 1329.12 1348.42 1137.26 1249.49 161.41 69.32 1130.74 549.64 108.61 117.45 174.41 523.59 499.00 267.79 73.30 524.05 302.46 511.39 381.94 343.33 51.79 292.67 1244.61 509.10 1149.04 1209.28 577.90
729.42 1288.15 167.01 589.60 220.91 0.00 726.19 750.62 169.97 1266.57 616.17 1346.90 1343.22 409.08 1243.55 1084.32 985.64 235.54 160.34 1337.72 240.14 459.50 1352.21 1175.95 811.16 1346.90 1407.57 588.79 976.15 620.35 962.01 247.60 182.36 589.64 437.34 686.02 737.62 395.37 1181.78 635.35 802.19 320.57 617.05 343.26 314.82 1418.32 406.84 1250.65 1672.35 615.76 1221.05 307.17 176.25 580.21 1279.55 199.99 1359.30 628.06 1290.47 1286.92 1421.86 223.98 1496.32 1228.61 1314.37 697.75 1045.78 147.18 594.77 225.00 147.87 581.44 1188.03 381.11 1370.37 1276.26 1326.00 370.26 267.89 1272.01 1302.84 702.62 630.47 1315.21 1298.31 670.76 622.91 656.15 1284.02 591.26 1300.62 1300.14 1365.30 341.47 1349.87 1274.27 316.34 635.54 606.37 1355.19 1467.95 1281.49 1287.49 203.98 203.53 1139.64 536.82 194.81 103.46 150.67 465.73 604.47 375.40 211.41 685.78 471.96 662.80 522.09 509.45 221.67 509.48 1274.88 605.54 1157.94 1346.21 660.86
441.36 798.93 662.50 322.36 544.36 726.19 0.00 430.31 656.46 834.05 383.45 644.78 743.44 518.38 930.57 613.29 483.70 568.25 642.68 913.49 486.05 343.43 841.60 811.95 499.84 986.10 1003.86 379.59 599.57 228.95 472.50 522.44 665.42 326.42 331.11 294.23 458.10 499.43 813.84 420.69 584.83 553.44 211.10 631.35 686.92 996.69 444.62 782.88 1300.20 215.26 823.07 756.64 602.48 222.54 768.94 677.84 692.24 377.42 600.66 645.46 990.11 673.45 1126.53 790.16 901.97 269.79 742.76 716.30 247.28 633.47 626.06 337.37 659.59 541.81 1001.80 691.76 951.12 500.32 513.80 744.92 709.45 128.40 262.02 847.44 652.94 292.98 273.97 213.74 707.66 267.18 738.62 830.99 948.04 496.14 871.19 679.04 529.27 392.21 272.73 958.20 1025.54 626.22 954.99 696.04 613.68 775.64 353.44 652.97 656.23 646.31 562.11 244.83 652.28 610.36 234.09 413.60 198.46 381.21 322.04 583.53 375.79 933.85 162.91 854.92 681.84 294.52
186.49 865.72 758.86 206.87 626.25 750.62 430.31 0.00 746.22 804.46 216.90 886.64 857.36 593.26 824.76 721.88 537.04 650.14 720.91 884.96 619.78 372.76 900.30 745.37 69.53 860.19 850.69 182.81 473.88 303.83 514.12 616.06 732.63 322.29 394.92 363.00 96.82 617.04 853.40 221.21 154.52 546.52 472.43 739.88 764.50 815.16 688.15 922.27 1107.66 502.61 857.63 836.69 709.43 334.90 867.51 722.80 983.94 168.33 884.27 883.81 935.15 753.50 895.17 793.23 896.85 359.19 717.40 729.19 334.56 689.99 638.95 205.38 781.83 500.09 889.76 861.89 854.33 493.40 592.03 802.89 830.76 475.46 304.58 963.70 832.66 261.94 276.59 315.49 854.43 275.16 792.80 950.89 908.22 481.29 957.63 857.35 543.58 115.08 260.05 897.41 736.09 864.57 780.82 756.60 693.96 767.13 213.80 725.90 711.89 775.62 451.86 302.43 728.03 699.55 303.05 437.31 534.78 365.27 548.94 678.04 504.90 788.17 398.33 829.56 870.96 243.94
773.59 1301.33 53.22 626.44 121.58 169.97 656.46 746.22 0.00 1308.05 610.67 1270.82 1262.93 288.90 1287.72 1085.49 897.91 99.02 78.19 1373.22 170.41 435.60 1396.38 1191.43 765.54 1345.37 1359.79 632.96 887.75 551.26 949.73 195.14 75.30 530.98 413.44 678.22 781.79 312.32 1225.95 624.23 680.55 246.76 534.00 197.75 182.86 1395.32 345.79 1268.04 1637.10 516.65 1138.89 185.82 53.98 463.27 1323.72 69.98 1283.96 627.39 1233.28 1249.53 1449.91 102.63 1463.40 1154.80 1358.54 673.85 1089.95 112.39 541.67 87.45 172.72 580.77 1182.20 376.89 1382.01 1215.60 1362.17 292.75 184.84 1142.16 1215.11 603.51 527.11 1288.84 1200.94 703.67 574.68 607.92 1207.94 543.03 1177.34 1327.04 1377.22 315.81 1394.04 1208.04 202.64 679.71 558.14 1399.36 1419.72 1253.07 1320.79 42.78 52.26 1172.52 580.99 62.85 126.77 82.14 429.20 567.14 243.44 55.13 598.05 366.61 607.78 459.42 439.72 91.04 359.49 1315.91 502.58 1184.84 1255.50 649.20
716.17 95.11 1276.39 782.53 1257.67 1266.57 834.05 804.46 1308.05 0.00 804.07 382.07 322.98 1074.94 118.26 533.98 622.94 1244.74 1276.98 139.81 1183.65 918.68 112.60 171.84 734.93 156.71 224.77 742.80 506.20 785.51 361.55 1166.14 1304.91 851.22 940.84 825.01 820.39 1149.92 84.79 812.24 819.92 1093.17 963.76 1298.06 1311.15 224.63 1202.57 163.92 608.78 957.48 625.82 1429.46 1256.76 868.65 125.10 1287.28 580.01 769.86 445.82 425.05 252.88 1346.53 349.54 325.76 116.46 736.20 220.79 1308.96 852.08 1310.76 1226.23 806.22 456.67 1077.54 169.55 206.87 158.56 1089.45 1184.18 324.35 433.16 870.62 818.58 167.52 488.98 710.57 824.48 811.63 319.19 796.90 359.53 203.92 183.89 1069.91 202.22 390.23 1226.89 776.43 812.01 184.52 353.14 444.29 144.28 1314.48 1270.79 135.53 729.75 1309.55 1220.10 1241.72 1053.39 769.63 1355.69 1252.92 774.50 970.16 928.69 930.05 992.24 1251.41 1040.25 133.40 916.72 147.08 417.17 714.07
209.81 827.45 611.91 102.24 519.25 616.17 383.45 216.90 610.67 804.07 0.00 889.43 845.06 443.93 786.08 602.12 496.11 523.85 552.69 880.25 492.19 208.92 886.30 705.06 286.43 889.43 950.10 94.60 475.54 154.50 475.85 445.25 581.13 132.25 231.08 228.55 234.84 458.87 724.31 86.80 350.95 372.28 323.10 650.48 590.26 953.18 534.23 793.18 1152.74 344.44 817.08 705.68 568.52 176.73 813.64 563.50 889.33 48.57 797.12 804.72 964.39 622.75 997.84 843.64 856.90 260.06 588.31 569.89 175.26 617.49 479.65 46.08 694.68 403.71 912.90 818.79 868.53 334.10 464.44 804.55 813.31 317.61 177.43 857.74 789.20 161.21 127.26 182.20 826.55 117.31 839.73 842.67 907.83 396.96 892.40 816.80 506.00 126.87 110.72 897.72 921.89 807.40 830.02 597.30 561.19 682.17 79.35 588.37 552.59 611.78 309.51 144.58 649.64 584.44 196.25 255.89 376.61 205.97 389.64 558.84 400.31 817.41 233.64 700.47 883.89 203.39
769.53 363.03 1287.55 795.31 1189.14 1346.90 644.78 886.64 1270.82 382.07 889.43 0.00 98.66 1096.98 389.16 356.80 536.19 1199.29 1228.33 458.56 1130.83 958.60 409.29 371.59 869.08 531.17 486.14 848.54 457.67 811.59 558.88 1126.39 1288.22 862.14 975.89 697.25 789.82 1116.72 302.98 922.00 908.84 1053.42 855.88 1276.13 1271.40 521.67 1089.40 242.35 873.00 860.04 453.46 1401.42 1235.13 861.80 358.79 1270.59 306.84 869.12 160.68 184.57 592.22 1318.23 561.10 145.38 469.66 786.05 347.15 1306.82 805.90 1262.07 1216.58 868.91 263.12 1124.45 505.30 211.11 468.07 1050.17 1158.58 128.66 117.87 773.18 844.66 291.62 212.96 772.00 793.69 778.25 62.88 819.38 93.84 254.22 442.07 1059.20 326.79 151.25 1115.66 816.47 804.27 418.87 637.83 172.45 433.10 1266.82 1254.29 399.64 810.08 1295.46 1270.53 1291.09 1056.07 795.71 1297.06 1255.14 699.13 922.50 802.31 940.97 966.82 1228.31 1020.57 468.59 807.69 234.99 37.06 759.56
670.87 268.27 1316.15 859.18 1224.76 1343.22 743.44 857.36 1262.93 322.98 845.06 98.66 0.00 1089.09 316.21 369.89 531.26 1201.31 1261.88 404.68 1173.12 964.76 332.79 367.91 865.40 467.66 387.48 811.50 449.78 864.58 568.92 1122.71 1284.54 912.45 972.49 767.45 789.62 1144.08 299.30 892.24 936.71 1049.74 892.92 1300.26 1267.72 423.01 1188.06 159.06 834.88 887.03 478.89 1409.09 1234.93 923.20 260.13 1266.91 360.29 891.26 203.95 245.79 503.76 1326.16 613.84 141.70 393.16 779.56 343.47 1318.05 798.01 1292.16 1248.06 882.87 281.11 1154.19 442.70 221.15 398.66 1049.97 1161.41 120.77 206.19 800.17 843.62 223.62 256.23 764.11 863.89 855.39 59.20 865.17 93.64 159.46 439.23 1051.31 343.42 170.51 1183.46 808.58 850.06 437.35 564.88 226.67 360.15 1266.62 1254.09 345.60 806.40 1291.78 1266.85 1331.64 1048.18 880.46 1334.10 1277.34 797.79 922.30 798.63 991.28 966.69 1255.81 1025.28 395.64 882.38 231.31 107.26 783.92
580.70 1064.99 317.89 401.51 231.71 409.08 518.38 593.26 288.90 1074.94 443.93 1096.98 1089.09 0.00 1112.66 899.82 701.75 253.12 329.11 1172.86 172.48 339.80 1167.64 976.06 662.79 1175.16 1242.93 440.07 639.31 289.43 713.39 161.48 346.25 360.61 317.64 449.51 586.15 74.98 1058.88 481.17 711.47 176.30 385.94 302.32 289.41 1226.64 153.07 1080.69 1469.41 387.12 992.38 372.96 288.91 357.12 1094.98 358.88 1152.40 439.72 1031.02 1038.80 1231.00 367.12 1201.57 1033.24 1172.71 490.85 922.88 305.88 356.00 303.61 312.49 397.85 942.15 364.93 1222.54 1010.99 1142.23 229.42 200.23 968.32 1018.95 446.01 322.50 1129.13 1018.23 504.12 334.45 367.87 1034.10 327.66 1003.50 1133.00 1196.12 245.35 1172.10 1034.20 188.96 478.18 333.21 1213.04 1179.67 1054.46 1068.72 331.68 301.03 1012.37 413.92 339.52 305.62 332.74 572.42 305.31 307.50 305.01 401.89 284.94 392.43 281.78 252.37 269.96 193.83 1151.98 437.92 1035.04 1081.66 433.83
787.34 131.64 1313.24 759.51 1234.65 1243.55 930.57 824.76 1287.72 118.26 786.08 389.16 316.21 1112.66 0.00 578.25 659.22 1240.83 1280.64 121.01 1160.63 895.66 135.58 191.12 853.19 151.45 164.02 712.81 543.82 823.23 468.03 1162.23 1301.32 837.28 917.82 855.93 727.94 1187.64 129.06 789.22 881.36 1089.26 945.60 1332.94 1307.24 199.55 1209.91 274.28 566.05 934.46 646.98 1416.99 1233.74 925.64 161.63 1300.62 584.11 746.84 409.15 453.95 203.06 1341.10 331.15 405.14 131.60 771.08 197.77 1306.66 882.54 1280.77 1216.77 783.20 500.94 1054.52 126.82 251.14 82.45 1071.22 1188.38 341.92 450.73 847.60 853.11 255.50 461.43 687.55 817.01 809.92 369.16 792.99 377.10 240.45 170.69 1039.92 235.35 407.80 1222.98 780.54 800.47 153.26 248.67 434.71 43.94 1327.30 1247.77 206.70 706.73 1299.70 1236.15 1298.52 1030.37 807.35 1362.57 1271.02 793.78 983.98 917.66 916.11 1041.24 1255.41 1097.24 79.43 901.05 204.07 423.47 733.35
691.54 508.55 1095.32 607.69 1008.99 1084.32 613.29 721.88 1085.49 533.98 602.12 356.80 369.89 899.82 578.25 0.00 242.52 1002.06 1036.10 574.56 934.97 710.57 540.38 516.29 791.41 647.17 650.94 606.88 268.39 610.39 265.56 894.22 1064.64 662.11 732.73 622.55 719.04 855.92 449.19 606.43 876.40 866.17 582.89 987.84 1048.06 680.74 919.84 418.23 1075.63 571.75 294.98 1113.13 1036.06 655.82 538.54 1077.06 365.27 553.55 206.15 202.60 752.86 1029.94 763.73 370.61 597.91 598.17 419.43 1063.86 543.82 1032.17 1033.74 600.17 103.71 902.70 661.24 327.11 632.15 859.98 907.22 313.37 255.05 484.89 589.43 482.79 213.99 582.72 642.43 621.50 350.90 641.00 311.79 466.34 598.01 797.12 584.16 261.44 885.76 627.19 625.89 574.81 724.39 205.28 558.64 1110.86 1033.23 513.29 554.91 1052.19 1038.36 1082.95 837.08 626.27 1024.07 1056.48 542.38 773.82 554.95 716.63 678.53 1001.62 760.84 648.53 628.19 499.46 329.77 588.46
504.54 597.51 888.28 396.04 823.91 985.64 483.70 537.04 897.91 622.94 496.11 536.19 531.26 701.75 659.22 242.52 0.00 800.02 829.06 663.52 759.17 559.33 700.16 591.62 606.57 736.13 753.89 489.69 140.76 412.32 285.41 755.66 886.02 478.03 581.49 380.03 476.52 693.22 538.15 522.73 691.56 682.69 382.26 889.71 900.67 775.91 727.93 507.19 1062.74 480.04 537.50 990.08 843.93 462.53 627.50 888.37 532.72 469.85 396.42 351.62 803.02 906.89 821.41 475.41 686.87 405.04 461.45 911.96 432.84 843.38 853.04 469.64 346.23 725.18 756.62 416.07 731.73 658.97 731.42 410.49 427.84 395.56 445.39 571.75 415.55 416.23 421.54 378.98 476.27 420.11 445.67 555.30 713.20 686.14 681.77 427.02 779.87 421.96 405.00 708.23 891.43 370.86 680.81 875.62 863.09 555.31 448.82 876.39 885.94 898.82 729.92 396.44 823.44 886.34 299.86 531.30 388.08 556.86 515.83 825.82 598.14 690.55 458.02 573.61 502.55 345.94
688.36 1234.79 138.25 531.25 23.89 235.54 568.25 650.14 99.02 1244.74 523.85 1199.29 1201.31 253.12 1240.83 1002.06 800.02 0.00 98.25 1316.24 97.91 391.28 1337.44 1096.24 719.67 1292.74 1363.11 547.73 892.17 486.07 883.19 125.68 117.29 439.23 373.90 580.33 696.56 234.71 1179.06 591.30 743.52 151.57 474.82 174.41 187.44 1344.56 312.80 1195.54 1599.15 430.31 1086.79 229.43 59.29 516.77 1264.78 129.71 1224.78 539.33 1135.59 1151.64 1352.02 146.24 1398.21 1059.61 1292.89 605.34 1043.06 181.15 473.92 140.75 192.78 492.71 1087.01 277.87 1340.12 1165.90 1266.98 204.69 125.66 1124.53 1117.22 517.17 483.43 1229.66 1130.96 615.61 479.49 512.73 1142.11 447.84 1131.62 1234.09 1282.03 220.62 1305.16 1167.42 116.30 607.92 462.95 1305.23 1324.53 1161.15 1225.60 137.52 86.57 1132.55 534.10 104.84 132.08 168.01 499.70 475.11 243.90 97.19 500.16 302.96 526.58 360.40 367.22 75.68 307.82 1220.72 485.21 1155.22 1209.78 554.01
742.30 1267.03 59.22 606.98 122.14 160.34 642.68 720.91 78.19 1276.98 552.69 1228.33 1261.88 329.11 1280.64 1036.10 829.06 98.25 0.00 1351.86 156.63 412.92 1367.54 1131.86 764.58 1315.88 1365.79 620.18 921.21 524.23 915.43 201.02 115.71 468.44 390.76 609.37 757.54 256.36 1218.87 582.01 738.84 227.30 478.04 235.13 194.26 1362.92 334.45 1235.32 1634.12 491.34 1090.01 240.26 46.90 533.63 1297.02 98.08 1228.00 564.85 1212.40 1180.68 1381.06 157.33 1436.37 1135.34 1328.51 634.38 1082.87 82.90 492.28 96.62 94.53 518.23 1139.81 346.38 1363.26 1182.97 1302.60 230.21 128.88 1169.52 1146.26 576.04 494.48 1232.88 1190.21 641.13 555.22 588.46 1217.84 523.57 1168.24 1271.46 1357.76 293.07 1374.14 1203.04 177.33 661.81 538.68 1373.41 1400.26 1199.92 1298.05 95.23 74.18 1168.17 573.91 122.95 56.88 69.76 401.45 540.11 281.27 92.51 529.20 339.58 572.33 457.97 425.94 92.32 406.07 1296.45 539.96 1195.03 1246.40 589.63
781.34 174.54 1366.30 853.68 1331.44 1337.72 913.49 884.96 1373.22 139.81 880.25 458.56 404.68 1172.86 121.01 574.56 663.52 1316.24 1351.86 0.00 1257.42 992.45 83.72 220.00 874.74 72.61 90.37 830.46 553.74 883.43 501.36 1237.64 1381.35 931.45 1014.61 885.25 788.14 1240.59 203.86 886.01 829.50 1164.67 1034.12 1371.39 1382.65 112.39 1250.73 258.19 524.94 1031.25 672.53 1493.49 1327.91 985.33 144.55 1381.84 620.52 843.63 489.73 489.88 178.30 1410.30 213.04 395.19 23.35 809.53 294.56 1305.59 943.49 1349.97 1310.94 877.37 515.81 1148.69 109.28 247.45 72.50 1165.39 1277.48 364.86 473.67 944.39 916.50 251.35 542.01 784.34 900.05 859.79 409.40 868.40 400.04 283.35 49.68 1109.12 183.03 430.74 1284.27 865.91 883.51 44.71 284.78 486.90 104.14 1398.42 1341.34 200.70 800.90 1368.90 1330.32 1381.53 1127.16 867.55 1403.85 1318.09 822.66 1054.10 1008.12 1010.28 1086.51 1349.33 1105.53 132.03 980.82 278.87 472.76 762.23
660.17 1201.98 176.45 503.06 74.02 240.14 486.05 619.78 170.41 1183.65 492.19 1130.83 1173.12 172.48 1160.63 934.97 759.17 97.91 156.63 1257.42 0.00 349.46 1266.41 1068.05 689.31 1263.98 1297.32 519.54 811.79 426.42 850.38 127.32 185.17 386.75 327.30 534.26 668.37 155.23 1098.86 545.61 770.23 123.38 376.91 211.84 200.87 1261.79 233.32 1097.63 1570.66 375.62 988.88 294.12 116.43 437.37 1196.63 197.59 1126.87 492.73 1086.71 1110.79 1338.94 210.93 1338.56 1031.42 1264.70 569.88 962.86 230.25 391.15 147.42 140.01 446.11 1038.68 256.39 1287.45 1081.84 1238.79 158.09 27.75 1068.39 1123.27 462.48 393.35 1131.75 1089.08 569.01 451.30 484.54 1113.92 419.65 1103.43 1197.11 1253.84 192.43 1266.95 1134.27 76.20 579.73 434.76 1272.27 1296.34 1112.27 1197.41 209.99 143.34 1056.72 505.91 172.72 170.18 160.26 462.93 442.30 201.94 147.32 506.21 274.77 437.37 307.92 269.31 97.48 351.62 1191.96 471.65 1075.02 1167.89 525.82
418.73 940.26 433.13 222.63 376.52 459.50 343.43 372.76 435.60 918.68 208.92 958.60 964.76 339.80 895.66 710.57 559.33 391.28 412.92 992.45 349.46 0.00 1004.32 815.84 395.98 999.01 1059.68 299.86 568.03 198.11 602.79 278.71 438.40 174.46 22.16 313.54 383.23 337.18 833.89 292.24 480.97 239.71 310.36 488.25 457.69 1037.39 339.07 902.76 1265.52 296.41 887.30 562.95 381.62 160.99 931.66 420.77 899.80 257.49 863.80 859.92 1073.97 480.02 1110.25 852.95 1012.49 238.25 697.89 444.90 166.75 465.20 420.55 218.97 761.36 211.85 1022.48 900.85 978.11 191.37 321.71 843.99 876.53 244.41 212.36 967.32 871.64 341.87 170.87 232.33 909.77 167.44 879.17 952.25 998.10 254.23 1001.98 887.02 370.16 275.26 154.33 1007.30 1044.13 851.85 939.60 432.64 408.90 791.75 253.70 445.64 356.04 402.86 481.58 194.71 506.91 431.97 259.47 88.32 275.52 135.41 288.38 416.11 274.63 926.99 180.52 810.05 927.50 273.61
811.70 102.65 1369.09 868.17 1336.95 1352.21 841.60 900.30 1396.38 112.60 886.30 409.29 332.79 1167.64 135.58 540.38 700.16 1337.44 1367.54 83.72 1266.41 1004.32 0.00 257.02 830.77 156.33 168.92 835.50 598.90 878.21 454.25 1258.84 1396.08 943.92 1026.48 917.71 860.40 1229.08 170.43 897.88 745.78 1185.87 1030.52 1390.76 1403.85 159.24 1286.22 223.37 601.14 1032.50 633.36 1508.22 1342.40 954.43 72.66 1381.20 626.71 855.50 469.87 496.07 262.02 1425.03 296.76 385.94 60.37 828.90 306.43 1389.31 918.67 1403.46 1318.93 891.86 436.67 1163.18 169.67 284.09 109.52 1151.80 1238.66 371.05 479.07 956.26 873.06 191.57 522.15 796.21 880.51 896.81 391.99 889.60 371.84 211.46 106.44 1162.61 99.77 436.93 1287.11 825.09 897.05 128.43 319.14 493.09 179.52 1370.39 1356.43 248.13 815.39 1383.63 1312.80 1334.42 1139.03 862.33 1409.62 1365.52 859.68 1062.86 936.23 1022.18 1051.69 1333.06 1126.03 169.05 988.48 232.86 389.50 799.25
616.95 237.56 1179.96 691.91 1120.13 1175.95 811.95 745.37 1191.43 171.84 705.06 371.59 367.91 976.06 191.12 516.29 591.62 1096.24 1131.86 220.00 1068.05 815.84 257.02 0.00 814.90 199.10 289.75 610.46 476.22 686.63 339.45 1017.64 1179.47 754.30 838.00 665.25 648.55 1047.47 178.41 721.62 899.89 944.67 825.55 1183.34 1162.65 290.83 1030.73 222.85 685.71 814.41 579.38 1304.02 1146.73 765.33 209.45 1161.84 603.87 679.24 431.46 422.77 304.79 1221.09 392.33 366.23 196.65 621.48 130.17 1182.03 723.49 1178.42 1091.79 715.60 533.90 986.92 246.48 189.18 170.74 961.77 1057.48 374.49 474.15 727.55 707.57 245.59 483.74 612.52 680.05 639.79 308.71 648.40 361.60 278.80 264.08 937.57 311.70 432.48 1064.27 678.19 663.51 241.55 428.86 442.01 235.06 1178.42 1160.52 36.31 639.13 1186.71 1161.78 1201.09 962.77 675.67 1183.85 1153.70 602.66 834.10 797.61 833.13 921.19 1151.88 988.91 194.52 760.82 136.60 408.65 542.23
256.02 830.04 784.79 276.40 695.78 811.16 499.84 69.53 765.54 734.93 286.43 869.08 865.40 662.79 853.19 791.41 606.57 719.67 764.58 874.74 689.31 395.98 830.77 814.90 0.00 845.57 920.22 252.34 543.41 373.36 583.65 630.37 759.51 391.82 373.82 415.76 166.35 686.57 819.72 280.37 84.99 596.15 541.96 809.41 814.13 884.69 735.05 898.85 1153.73 572.14 906.43 835.69 733.28 404.43 860.03 772.43 1044.28 237.86 914.59 908.27 951.26 780.38 964.70 723.70 851.39 428.72 786.93 792.20 404.09 716.87 708.48 274.91 851.36 515.62 892.95 847.60 893.49 543.03 661.56 788.62 896.36 544.99 374.11 902.45 902.19 331.47 346.12 385.02 806.20 344.69 823.80 898.18 869.35 550.82 930.54 854.50 613.11 184.61 329.58 846.15 805.62 889.03 850.35 806.23 754.57 836.66 283.33 752.78 707.70 754.52 473.65 371.96 797.56 731.32 353.17 483.38 564.37 434.80 618.47 747.57 574.43 857.70 467.86 857.46 901.96 292.74
810.87 247.15 1293.69 856.44 1279.89 1346.90 986.10 860.19 1345.37 156.71 889.43 531.17 467.66 1175.16 151.45 647.17 736.13 1292.74 1315.88 72.61 1263.98 999.01 156.33 199.10 845.57 0.00 102.60 809.56 626.35 885.73 518.26 1214.14 1372.08 940.63 1021.17 864.35 763.37 1182.80 241.50 892.57 760.58 1141.17 974.11 1382.44 1359.15 121.98 1229.83 320.63 486.61 1013.51 745.14 1496.63 1337.09 964.43 217.16 1354.45 656.37 850.19 544.97 541.99 105.69 1413.70 237.73 434.83 95.96 820.58 301.12 1232.98 922.59 1365.98 1290.89 886.55 588.42 1157.87 47.38 320.06 112.14 1160.87 1253.98 437.47 482.55 926.65 906.67 290.99 597.25 790.90 879.15 838.89 472.92 847.50 472.65 355.96 110.61 1125.13 231.82 466.59 1263.37 805.90 862.61 117.32 229.76 522.75 120.15 1344.52 1349.21 230.23 810.08 1379.32 1321.84 1328.36 1093.46 874.77 1382.95 1347.62 801.76 1033.20 996.71 1019.46 1096.15 1331.68 1178.14 72.02 959.92 300.81 521.55 741.33
858.53 264.91 1306.57 923.53 1371.34 1407.57 1003.86 850.69 1359.79 224.77 950.10 486.14 387.48 1242.93 164.02 650.94 753.89 1363.11 1365.79 90.37 1297.32 1059.68 168.92 289.75 920.22 102.60 0.00 876.83 644.11 953.50 586.32 1256.57 1384.96 1001.30 1081.84 911.02 753.87 1266.01 259.78 953.24 863.18 1211.54 1057.32 1421.04 1429.52 35.53 1320.48 343.39 494.45 1098.48 762.90 1509.51 1383.25 1031.36 234.92 1367.33 686.09 910.86 573.17 555.45 116.28 1426.58 266.20 431.24 108.55 859.18 361.79 1335.58 906.17 1382.07 1358.66 947.22 547.23 1218.54 55.22 337.82 144.22 1222.33 1269.57 430.43 539.24 1011.62 951.78 323.07 551.40 851.57 946.92 929.54 446.68 915.27 465.61 372.40 99.33 1159.47 249.59 496.31 1318.02 861.84 930.38 76.13 258.22 552.47 184.48 1357.40 1395.58 289.75 870.75 1392.20 1383.66 1341.24 1158.21 942.54 1473.60 1392.77 892.41 1123.85 1081.68 1080.13 1132.27 1363.97 1195.90 155.23 990.54 316.68 494.74 831.98
140.63 732.85 643.46 104.75 571.62 588.79 379.59 182.81 632.96 742.80 94.60 848.54 811.50 440.07 712.81 606.88 489.69 547.73 620.18 830.46 519.54 299.86 835.50 610.46 252.34 809.56 876.83 0.00 415.98 150.64 381.25 461.45 599.34 182.52 322.02 201.17 148.83 515.05 696.93 132.64 337.33 396.16 328.89 674.36 614.14 867.17 555.15 765.80 1083.56 424.12 785.63 711.48 578.98 271.33 762.84 611.76 861.64 79.76 702.52 712.42 898.86 628.29 1002.79 809.91 807.11 232.68 560.93 593.85 217.21 567.96 551.00 117.43 600.08 399.76 839.63 729.02 781.20 389.97 508.97 744.99 788.64 338.53 183.71 830.36 710.36 101.65 162.07 203.12 785.66 138.23 780.17 815.29 874.54 327.11 839.96 732.20 529.88 67.73 145.53 852.01 918.90 728.08 756.75 645.56 604.33 646.77 51.97 586.89 581.39 677.23 363.29 165.50 705.51 616.76 200.93 335.29 407.19 261.35 410.07 542.60 492.38 790.03 219.85 673.09 826.14 171.94
461.92 496.25 895.80 451.19 871.02 976.15 599.57 473.88 887.75 506.20 475.54 457.67 449.78 639.31 543.82 268.39 140.76 892.17 921.21 553.74 811.79 568.03 598.90 476.22 543.41 626.35 644.11 415.98 0.00 475.35 144.65 800.79 896.40 541.06 590.19 418.59 466.77 714.29 482.05 536.73 628.40 745.76 523.02 891.64 928.72 666.13 792.38 538.48 1078.68 620.80 563.37 1012.27 928.22 554.68 526.24 878.77 584.67 483.85 473.27 454.03 662.26 938.02 766.78 393.93 577.09 329.78 346.05 945.19 512.63 939.04 870.80 437.23 372.10 743.81 663.02 492.42 626.24 725.25 839.54 329.01 437.82 536.32 490.05 489.82 482.38 314.33 481.14 418.83 394.79 449.49 364.19 524.57 603.42 743.09 590.44 394.89 828.27 358.80 464.60 598.45 792.49 451.05 587.76 844.97 940.01 439.91 448.27 903.64 872.69 930.47 767.38 459.47 946.81 942.88 392.01 623.45 528.84 597.12 656.59 909.27 738.90 575.15 504.88 458.21 442.35 362.62
291.27 775.56 561.26 112.08 487.11 620.35 228.95 303.83 551.26 785.51 154.50 811.59 864.58 289.43 823.23 610.39 412.32 486.07 524.23 883.43 426.42 198.11 878.21 686.63 373.36 885.73 953.50 150.64 475.35 0.00 423.96 397.99 556.09 97.47 205.42 160.08 296.72 364.41 769.45 191.74 422.04 334.50 178.25 591.75 552.48 937.21 442.50 812.68 1179.98 274.50 758.09 662.39 497.28 160.23 805.55 541.21 862.97 150.29 755.16 749.37 941.57 585.04 912.14 808.73 883.28 201.42 633.45 562.72 66.57 560.72 472.48 108.42 652.72 312.86 933.11 721.56 852.80 311.81 398.67 743.81 729.52 188.91 33.07 866.33 728.80 214.69 45.02 78.44 809.59 38.23 778.99 843.57 906.69 319.87 882.67 757.81 447.12 188.75 43.78 923.61 890.24 765.03 779.29 528.97 516.44 722.94 124.49 543.64 539.30 526.59 377.44 15.88 596.93 539.69 112.46 184.65 256.55 152.26 288.72 465.90 371.03 862.55 148.49 745.61 801.65 144.40
425.98 351.60 914.84 486.00 907.08 962.01 472.50 514.12 949.73 361.55 475.85 558.88 568.92 713.39 468.03 265.56 285.41 883.19 915.43 501.36 850.38 602.79 454.25 339.45 583.65 518.26 586.32 381.25 144.65 423.96 0.00 804.59 966.42 489.67 624.95 463.46 522.85 788.37 406.26 513.89 668.64 731.62 602.21 936.51 949.60 586.18 852.27 438.89 956.65 666.70 560.54 1086.35 921.24 584.19 381.59 948.79 601.58 461.01 426.62 457.57 517.61 1008.04 667.53 528.37 478.01 374.65 270.26 947.41 490.53 949.21 864.68 498.68 345.23 736.82 531.10 347.77 510.19 727.90 822.63 473.66 511.87 581.11 457.03 475.46 455.51 447.48 462.93 470.64 509.72 435.35 508.84 460.41 545.44 708.36 458.71 499.06 865.34 414.88 450.46 546.07 693.11 452.18 482.49 952.93 940.40 303.14 433.22 967.60 858.55 880.17 744.54 408.08 1020.89 963.65 437.62 608.61 643.28 568.50 712.68 889.86 794.99 461.35 555.17 382.42 550.24 377.19
602.08 1156.19 221.23 452.65 149.57 247.60 522.44 616.06 195.14 1166.14 445.25 1126.39 1122.71 161.48 1162.23 894.22 755.66 125.68 201.02 1237.64 127.32 278.71 1258.84 1017.64 630.37 1214.14 1256.57 461.45 800.79 397.99 804.59 0.00 214.87 353.32 256.55 518.21 610.28 236.46 1100.46 465.62 686.62 72.97 379.14 296.21 290.95 1221.04 314.55 1159.53 1499.91 390.91 991.11 332.65 170.16 399.42 1186.18 210.77 1178.51 457.30 1100.37 1089.94 1289.10 256.49 1310.13 981.01 1214.29 516.96 964.46 233.00 350.40 199.18 217.08 410.68 997.93 254.28 1261.52 1084.50 1188.38 122.66 144.30 1027.64 1072.86 477.14 396.01 1220.85 1052.36 533.58 400.89 434.13 1063.51 369.24 1053.02 1155.49 1203.43 142.02 1226.56 1088.82 134.77 521.95 384.35 1226.63 1245.93 1096.04 1147.00 237.92 142.88 1053.95 455.50 222.76 144.14 255.90 469.09 396.51 319.22 166.13 455.80 224.36 470.78 274.49 396.63 201.36 350.12 1142.12 359.53 1076.62 1131.18 475.41
739.97 1318.02 78.39 614.48 121.06 182.36 665.42 732.63 75.30 1304.91 581.13 1288.22 1284.54 346.25 1301.32 1064.64 886.02 117.29 115.71 1381.35 185.17 438.40 1396.08 1179.47 759.51 1372.08 1384.96 599.34 896.40 556.09 966.42 214.87 0.00 485.26 416.24 650.15 748.17 271.27 1239.55 610.15 715.41 234.80 506.58 160.90 132.46 1391.46 349.36 1263.86 1651.05 503.06 1107.14 124.81 99.27 505.76 1337.32 17.63 1256.54 581.67 1202.82 1214.47 1450.93 41.62 1468.23 1142.84 1372.14 676.65 1103.55 187.69 520.82 42.64 208.55 535.05 1168.35 391.81 1419.46 1211.51 1350.21 247.03 157.42 1198.06 1223.20 586.67 523.02 1261.42 1150.54 657.95 562.72 595.96 1225.34 531.07 1203.36 1317.32 1365.26 272.23 1388.39 1250.65 189.05 667.07 546.18 1388.46 1407.76 1223.07 1277.21 51.43 71.99 1186.47 594.59 12.45 135.61 105.64 504.50 558.34 193.04 69.08 606.14 374.70 599.33 474.79 448.66 92.23 413.24 1303.95 516.53 1215.71 1281.52 637.24
293.53 841.27 527.66 162.87 423.38 589.64 326.42 322.29 530.98 851.22 132.25 862.14 912.45 360.61 837.28 662.11 478.03 439.23 468.44 931.45 386.75 174.46 943.92 754.30 391.82 940.63 1001.30 182.52 541.06 97.47 489.67 353.32 485.26 0.00 152.30 164.89 331.35 422.09 775.51 206.84 476.81 291.35 214.59 561.43 501.21 988.93 500.18 844.38 1230.77 306.09 825.76 609.81 498.52 139.95 871.26 467.63 915.25 153.96 820.87 800.16 1007.28 526.88 1009.61 770.75 908.10 253.70 639.51 539.43 118.29 513.54 467.41 156.53 718.43 276.57 952.73 766.79 918.51 238.23 368.57 795.53 795.23 254.62 78.30 908.94 774.03 264.49 100.69 144.15 853.25 105.90 830.71 893.87 959.03 272.69 943.60 825.48 417.02 229.27 94.57 948.92 955.95 819.40 845.00 501.43 478.72 733.37 130.55 492.50 486.18 533.00 308.37 81.59 553.77 496.68 178.17 211.62 308.88 78.83 261.40 462.97 342.67 868.61 178.20 751.67 825.08 212.07
440.89 962.42 410.97 225.45 354.36 437.34 331.11 394.92 413.44 940.84 231.08 975.89 972.49 317.64 917.82 732.73 581.49 373.90 390.76 1014.61 327.30 22.16 1026.48 838.00 373.82 1021.17 1081.84 322.02 590.19 205.42 624.95 256.55 416.24 152.30 0.00 317.19 405.39 358.42 856.05 307.51 458.81 222.33 288.51 499.14 440.31 1059.55 361.23 924.92 1243.36 305.52 900.48 540.79 359.46 142.87 953.82 398.61 921.96 277.04 885.96 882.08 1096.13 457.86 1117.56 830.79 1034.65 260.41 720.05 422.74 188.91 443.04 398.39 230.42 783.52 216.02 1044.64 881.62 1000.27 169.21 299.55 866.15 898.69 266.57 193.13 989.48 888.86 353.32 193.03 254.49 913.29 189.60 901.33 974.41 1020.26 232.07 1024.14 909.18 348.00 297.42 176.49 1029.46 1066.29 874.01 961.76 432.41 386.74 813.91 275.86 423.48 333.88 380.70 460.67 216.87 484.75 409.81 281.63 109.56 253.36 157.57 309.62 393.95 252.47 949.15 168.20 832.21 949.66 295.77
263.61 815.06 668.59 176.35 588.27 686.02 294.23 363.00 678.22 825.01 228.55 697.25 767.45 449.51 855.93 622.55 380.03 580.33 609.37 885.25 534.26 313.54 917.71 665.25 415.76 864.35 911.02 201.17 418.59 160.08 463.46 518.21 650.15 164.89 317.19 0.00 350.00 502.83 792.05 254.62 468.54 456.24 203.91 650.67 658.22 946.55 508.24 798.97 1206.54 252.69 736.71 774.70 624.24 220.69 845.05 632.52 750.36 201.74 714.10 721.65 932.03 691.77 1057.58 792.96 861.90 88.81 658.16 668.01 213.15 655.31 577.77 201.84 611.92 441.46 911.73 796.10 835.99 403.12 533.46 728.04 697.23 165.83 193.15 799.90 661.82 193.31 169.18 126.10 754.49 174.32 692.86 822.43 848.66 437.58 922.17 736.43 548.31 247.92 159.21 871.86 937.90 702.41 899.87 655.93 643.40 701.56 149.20 657.39 650.71 667.13 473.26 147.30 645.09 661.57 80.17 311.61 235.89 243.72 337.48 625.98 354.44 859.77 238.33 717.04 660.19 123.02
169.33 832.19 792.29 216.49 712.48 737.62 458.10 96.82 781.79 820.39 234.84 789.82 789.62 586.15 727.94 719.04 476.52 696.56 757.54 788.14 668.37 383.23 860.40 648.55 166.35 763.37 753.87 148.83 466.77 296.72 522.85 610.28 748.17 331.35 405.39 350.00 0.00 609.93 790.90 245.57 251.34 544.99 465.32 812.59 762.97 718.34 681.04 859.77 1010.84 495.50 849.10 860.31 727.81 327.79 858.00 756.73 887.12 192.69 788.12 799.77 838.33 777.12 943.07 796.08 800.03 352.08 654.90 742.68 335.01 716.79 672.88 239.31 721.82 492.98 792.94 837.73 757.51 527.33 657.67 731.16 733.94 468.35 297.47 894.14 735.84 165.12 269.48 275.26 757.61 268.05 695.98 854.07 811.40 475.94 860.81 772.85 640.40 107.97 252.94 800.59 832.91 813.68 684.00 774.52 753.16 684.86 200.80 735.72 730.22 786.09 476.22 295.32 751.99 765.59 291.75 430.20 527.67 360.65 553.12 691.43 551.37 691.35 368.68 767.06 774.14 235.41
655.68 1133.92 304.13 475.33 229.25 395.37 499.43 617.04 312.32 1149.92 458.87 1116.72 1144.08 74.98 1187.64 855.92 693.22 234.71 256.36 1240.59 155.23 337.18 1229.08 1047.47 686.57 1182.80 1266.01 515.05 714.29 364.41 788.37 236.46 271.27 422.09 358.42 502.83 609.93 0.00 1078.72 487.59 771.56 221.34 310.96 272.39 221.38 1254.22 78.09 1005.71 1544.39 312.14 917.40 375.33 258.34 282.14 1163.91 288.90 1101.96 491.45 956.04 1000.84 1257.76 292.14 1276.55 1108.22 1219.46 549.99 997.86 339.26 403.49 228.63 295.24 444.83 955.17 359.95 1230.18 1085.97 1205.30 224.33 127.48 1043.30 1061.87 371.03 397.48 1070.27 1008.32 555.70 409.43 442.85 1084.88 402.64 1077.52 1115.56 1243.22 240.37 1238.95 1034.42 118.41 501.96 408.19 1220.02 1254.65 981.60 1143.70 312.41 268.79 1083.78 488.90 264.54 313.24 315.49 562.66 380.29 302.86 288.84 444.81 248.86 345.45 350.68 177.39 221.88 231.39 1110.78 367.38 1003.71 1079.66 505.24
722.74 127.76 1251.47 697.74 1172.88 1181.78 813.84 853.40 1225.95 84.79 724.31 302.98 299.30 1058.88 129.06 449.19 538.15 1179.06 1218.87 203.86 1098.86 833.89 170.43 178.41 819.72 241.50 259.78 696.93 482.05 769.45 406.26 1100.46 1239.55 775.51 856.05 792.05 790.90 1078.72 0.00 727.45 884.69 1027.49 883.83 1265.10 1245.47 288.68 1148.14 167.72 626.44 872.69 585.21 1364.36 1171.97 796.58 97.77 1238.85 521.36 685.07 364.36 340.26 321.31 1281.17 314.54 302.68 180.51 703.24 136.00 1245.24 820.77 1242.30 1155.00 721.43 371.88 992.75 246.75 122.08 193.58 1009.45 1126.61 305.88 412.56 785.83 791.34 163.92 404.19 625.78 755.24 748.15 240.10 731.22 300.01 217.21 183.52 1024.04 200.02 363.87 1161.21 743.68 738.70 196.84 353.28 359.50 142.66 1265.53 1186.00 142.10 644.96 1252.00 1174.38 1236.75 968.60 758.49 1300.80 1209.25 752.41 922.21 855.89 854.34 979.47 1196.34 968.18 208.49 839.28 75.01 340.04 696.07
273.27 833.82 637.51 126.69 572.67 635.35 420.69 221.21 624.23 812.24 86.80 922.00 892.24 481.17 789.22 606.43 522.73 591.30 582.01 886.01 545.61 292.24 897.88 721.62 280.37 892.57 953.24 132.64 536.73 191.74 513.89 465.62 610.15 206.84 307.51 254.62 245.57 487.59 727.45 0.00 365.36 440.64 342.56 717.45 658.62 963.91 558.28 796.32 1216.20 373.16 864.59 714.21 628.91 205.45 825.22 616.92 893.64 52.88 812.58 809.03 967.53 631.02 1002.15 868.09 904.41 301.82 591.45 577.72 228.68 567.51 487.48 99.50 710.14 441.17 916.04 821.93 871.67 387.52 517.86 836.35 839.93 349.21 224.81 860.88 820.42 222.40 146.72 216.56 874.06 170.73 871.53 845.81 910.97 450.38 895.54 864.31 566.31 200.37 163.26 900.86 957.30 811.71 833.16 650.72 608.50 685.31 126.86 603.42 560.42 651.77 336.41 198.00 703.06 627.72 222.87 342.69 405.33 243.43 443.06 612.26 429.03 820.55 282.88 703.61 903.35 250.90
322.77 848.43 732.53 361.39 719.63 802.19 584.83 154.52 680.55 819.92 350.95 908.84 936.71 711.47 881.36 876.40 691.56 743.52 738.84 829.50 770.23 480.97 745.78 899.89 84.99 760.58 863.18 337.33 628.40 422.04 668.64 686.62 715.41 476.81 458.81 468.54 251.34 771.56 884.69 365.36 0.00 646.85 575.05 788.95 819.24 882.56 790.77 853.73 1123.66 650.10 991.42 827.55 696.68 489.42 818.44 727.83 1035.47 322.85 936.47 948.12 866.27 744.36 998.31 808.69 806.15 495.31 871.92 744.56 477.82 706.54 654.32 359.90 918.11 587.93 807.96 762.61 855.30 628.02 746.55 873.61 981.35 579.19 455.11 918.29 884.19 416.46 379.21 468.72 877.51 410.86 908.79 901.84 852.22 577.80 845.55 939.49 698.10 269.60 395.75 874.21 890.61 962.03 880.73 723.33 669.58 903.41 368.32 702.96 727.26 747.44 558.64 406.16 882.55 646.33 438.16 568.37 553.83 511.75 703.46 720.49 659.42 821.97 552.85 934.96 945.90 377.73
536.79 1083.22 277.93 379.68 175.46 320.57 553.44 546.52 246.76 1093.17 372.28 1053.42 1049.74 176.30 1089.26 866.17 682.69 151.57 227.30 1164.67 123.38 239.71 1185.87 944.67 596.15 1141.17 1211.54 396.16 745.76 334.50 731.62 72.97 234.80 291.35 222.33 456.24 544.99 221.34 1027.49 440.64 646.85 0.00 367.30 278.20 217.98 1192.99 299.43 1086.56 1447.58 370.32 979.27 359.35 210.86 365.20 1113.21 217.17 1122.42 387.76 1031.67 1016.97 1216.13 276.42 1246.64 908.04 1141.32 460.87 891.49 288.56 322.35 270.80 198.32 341.14 935.44 188.63 1188.55 1020.35 1115.41 53.12 112.81 972.96 999.89 457.18 331.86 1147.88 979.39 464.04 327.92 361.16 990.54 296.27 980.05 1082.52 1130.46 69.05 1153.59 1015.85 133.72 456.35 311.38 1153.66 1172.96 1023.07 1074.03 250.97 215.85 980.98 382.53 242.04 217.11 283.64 396.12 323.54 318.17 239.10 382.83 151.39 397.81 249.47 351.45 207.21 355.91 1069.15 390.53 1003.65 1058.21 402.44
467.52 927.87 537.26 280.68 450.93 617.05 211.10 472.43 534.00 963.76 323.10 855.88 892.92 385.94 945.60 582.89 382.26 474.82 478.04 1034.12 376.91 310.36 1030.52 825.55 541.96 974.11 1057.32 328.89 523.02 178.25 602.21 379.14 506.58 214.59 288.51 203.91 465.32 310.96 883.83 342.56 575.05 367.30 0.00 513.87 522.28 1045.53 374.88 880.54 1348.58 97.78 611.97 618.72 480.02 198.73 957.86 519.00 903.34 323.64 778.68 733.88 1049.07 535.53 1090.39 857.67 1010.77 278.41 747.83 560.94 214.21 524.33 516.92 277.02 682.14 491.11 1021.49 798.33 996.29 372.33 349.16 792.75 810.10 98.00 211.32 945.10 792.42 385.30 195.84 256.69 833.72 216.48 827.93 937.56 1034.53 435.19 1034.98 809.28 397.61 357.35 212.38 1011.33 1068.49 753.12 957.54 552.80 495.35 841.69 302.74 494.13 523.28 537.17 522.96 194.13 441.18 517.72 284.08 244.66 94.29 293.42 133.57 443.56 215.88 902.09 129.84 859.99 864.10 322.65
800.43 1288.11 228.82 657.88 150.52 343.26 631.35 739.88 197.75 1298.06 650.48 1276.13 1300.26 302.32 1332.94 987.84 889.71 174.41 235.13 1371.39 211.84 488.25 1390.76 1183.34 809.41 1382.44 1421.04 674.36 891.64 591.75 936.51 296.21 160.90 561.43 499.14 650.67 812.59 272.39 1265.10 717.45 788.95 278.20 513.87 0.00 60.22 1440.58 196.23 1234.21 1724.59 416.09 1035.54 225.61 192.80 554.53 1318.10 174.69 1171.41 664.57 1187.41 1190.44 1454.12 173.16 1503.89 1186.24 1379.99 561.86 1135.17 299.68 592.12 202.83 295.45 617.95 1084.97 424.34 1384.94 1208.73 1336.00 329.93 228.72 1220.65 1241.36 502.95 594.32 1298.77 1153.58 740.85 606.12 639.36 1241.06 574.47 1237.79 1332.29 1321.71 347.25 1395.22 1231.62 196.30 704.62 589.58 1344.91 1451.16 1175.46 1352.23 208.49 165.52 1219.65 660.73 173.35 250.57 243.73 618.23 601.74 132.08 142.62 624.30 409.13 501.63 482.60 405.89 154.00 350.65 1347.35 590.07 1190.09 1310.86 680.64
754.77 1301.20 168.66 597.66 163.55 314.82 686.92 764.50 182.86 1311.15 590.26 1271.40 1267.72 289.41 1307.24 1048.06 900.67 187.44 194.26 1382.65 200.87 457.69 1403.85 1162.65 814.13 1359.15 1429.52 614.14 928.72 552.48 949.60 290.95 132.46 501.21 440.31 658.22 762.97 221.38 1245.47 658.62 819.24 217.98 522.28 60.22 0.00 1407.16 250.67 1227.09 1665.56 476.31 1054.64 176.61 176.94 503.52 1331.19 144.88 1231.63 605.74 1177.42 1222.22 1434.11 161.41 1464.62 1126.02 1359.30 622.08 1109.47 270.89 536.52 155.92 288.79 559.12 1145.19 406.61 1406.53 1227.21 1333.39 271.10 173.12 1190.94 1217.87 563.17 538.72 1277.12 1197.37 682.02 545.90 579.14 1208.52 514.25 1198.03 1300.50 1348.44 287.03 1371.57 1233.83 221.57 674.33 529.36 1371.64 1390.94 1202.98 1292.01 178.68 149.66 1198.96 600.51 120.01 245.75 198.32 589.44 541.52 142.68 172.91 600.81 369.37 561.85 422.38 398.77 179.40 379.74 1287.13 588.76 1221.63 1276.19 620.42
823.00 257.74 1342.10 927.86 1335.81 1418.32 996.69 815.16 1395.32 224.63 953.18 521.67 423.01 1226.64 199.55 680.74 775.91 1344.56 1362.92 112.39 1261.79 1037.39 159.24 290.83 884.69 121.98 35.53 867.17 666.13 937.21 586.18 1221.04 1391.46 988.93 1059.55 946.55 718.34 1254.22 288.68 963.91 882.56 1192.99 1045.53 1440.58 1407.16 0.00 1309.31 343.01 513.83 1091.04 784.92 1503.60 1364.90 995.83 227.75 1402.86 705.34 911.03 586.60 574.70 151.81 1420.41 301.73 395.71 108.17 878.72 372.54 1354.96 870.64 1364.79 1382.62 957.65 577.03 1211.32 74.60 359.84 157.32 1186.80 1234.04 449.68 558.49 1018.38 916.25 336.17 586.93 862.32 969.25 930.62 478.21 939.23 484.86 336.87 118.87 1123.94 259.01 515.56 1282.49 826.31 952.71 105.93 284.93 561.04 216.53 1392.93 1360.05 301.65 881.50 1379.01 1365.18 1376.77 1122.68 953.09 1463.73 1383.30 893.49 1121.86 1088.44 1067.76 1096.74 1328.44 1179.05 143.44 955.01 346.48 530.27 833.06
647.70 1203.87 380.47 496.40 307.34 406.84 444.62 688.15 345.79 1202.57 534.23 1089.40 1188.06 153.07 1209.91 919.84 727.93 312.80 334.45 1250.73 233.32 339.07 1286.22 1030.73 735.05 1229.83 1320.48 555.15 792.38 442.50 852.27 314.55 349.36 500.18 361.23 508.24 681.04 78.09 1148.14 558.28 790.77 299.43 374.88 196.23 250.67 1309.31 0.00 1069.63 1564.30 376.06 839.31 421.84 336.43 360.23 1213.56 366.99 1023.87 534.77 1009.63 1021.28 1279.93 369.39 1354.64 1151.61 1227.38 533.25 1012.14 392.24 438.67 306.72 373.33 488.15 1019.09 306.60 1277.21 1090.55 1201.47 302.42 205.57 1115.91 1045.13 434.95 475.57 1134.19 957.35 554.70 411.56 481.81 1148.80 416.92 1139.99 1170.33 1268.41 295.62 1274.24 1067.79 196.50 573.07 428.10 1272.28 1293.61 1011.63 1207.60 388.57 314.11 1067.04 503.18 342.63 303.38 393.58 585.46 444.19 328.31 337.36 428.07 326.95 409.37 428.77 241.31 299.97 264.18 1188.87 443.65 1081.80 1126.46 488.50
767.18 142.64 1274.08 766.61 1171.65 1250.65 782.88 922.27 1268.04 163.92 793.18 242.35 159.06 1080.69 274.28 418.23 507.19 1195.54 1235.32 258.19 1097.63 902.76 223.37 222.85 898.85 320.63 343.39 765.80 538.48 812.68 438.89 1159.53 1263.86 844.38 924.92 798.97 859.77 1005.71 167.72 796.32 853.73 1086.56 880.54 1234.21 1227.09 343.01 1069.63 0.00 772.70 905.77 572.28 1376.00 1214.06 814.28 170.43 1276.28 478.30 753.94 324.22 306.46 385.34 1292.81 471.23 261.97 234.84 720.94 204.87 1314.11 825.22 1234.34 1223.87 790.30 320.61 1061.62 333.47 91.12 243.41 1058.35 1106.44 222.64 331.45 818.91 779.61 64.56 370.39 694.65 824.11 817.02 179.47 800.09 222.68 109.85 301.49 1078.52 233.24 288.52 1124.12 812.55 807.57 278.29 464.20 325.70 253.58 1272.44 1240.97 186.54 713.83 1251.41 1243.25 1257.89 1037.47 827.36 1222.63 1244.95 807.05 991.08 888.97 923.21 828.32 1195.11 910.63 297.32 876.25 92.71 253.25 764.94
942.93 690.77 1654.33 1159.62 1597.72 1672.35 1300.20 1107.66 1637.10 608.78 1152.74 873.00 834.88 1469.41 566.05 1075.63 1062.74 1599.15 1634.12 524.94 1570.66 1265.52 601.14 685.71 1153.73 486.61 494.45 1083.56 1078.68 1179.98 956.65 1499.91 1651.05 1230.77 1243.36 1206.54 1010.84 1544.39 626.44 1216.20 1123.66 1447.58 1348.58 1724.59 1665.56 513.83 1564.30 772.70 0.00 1411.28 1197.47 1763.19 1602.82 1287.89 669.49 1641.97 1100.17 1163.32 975.20 966.70 439.04 1680.00 311.90 849.90 548.29 1181.50 762.44 1599.18 1218.27 1642.18 1594.70 1198.82 989.00 1459.38 439.23 748.52 530.54 1412.57 1542.91 870.98 948.35 1351.61 1211.43 709.39 1018.44 1091.31 1152.74 1216.20 866.54 1151.31 835.80 675.42 494.70 1410.67 675.23 910.39 1581.30 1118.81 1136.20 517.90 470.98 966.55 604.05 1675.77 1605.22 716.84 1135.53 1638.60 1577.24 1624.06 1446.85 1178.58 1728.11 1581.97 1162.56 1352.92 1421.67 1309.60 1444.37 1626.16 1495.83 558.63 1302.64 701.45 910.06 1148.37
468.35 929.85 529.29 344.90 449.64 615.76 215.26 502.61 516.65 957.48 344.44 860.04 887.03 387.12 934.46 571.75 480.04 430.31 491.34 1031.25 375.62 296.41 1032.50 814.41 572.14 1013.51 1098.48 424.12 620.80 274.50 666.70 390.91 503.06 306.09 305.52 252.69 495.50 312.14 872.69 373.16 650.10 370.32 97.78 416.09 476.31 1091.04 376.06 905.77 1411.28 0.00 709.75 607.12 464.31 167.71 959.84 520.69 907.50 377.02 773.44 774.35 1094.58 523.93 1186.64 918.20 1011.06 341.50 736.69 574.24 240.85 460.42 515.63 330.40 671.00 468.42 1060.89 836.65 985.15 346.60 362.46 880.66 826.80 86.86 243.31 970.33 781.28 375.35 293.62 321.18 835.70 285.89 879.08 975.88 1056.21 409.46 1031.37 833.19 314.01 387.53 301.00 1046.10 1132.98 777.03 978.40 554.49 464.39 830.55 372.15 496.33 535.05 535.88 555.68 258.62 498.46 487.64 248.72 218.93 96.27 334.47 134.75 456.86 207.76 947.60 223.93 848.85 897.06 309.15
819.13 530.71 1149.23 770.30 1062.90 1221.05 823.07 857.63 1138.89 625.82 817.08 453.46 478.89 992.38 646.98 294.98 537.50 1086.79 1090.01 672.53 988.88 887.30 633.36 579.38 906.43 745.14 762.90 785.63 563.37 758.09 560.54 991.11 1107.14 825.76 900.48 736.71 849.10 917.40 585.21 864.59 991.42 979.27 611.97 1035.54 1054.64 784.92 839.31 572.28 1197.47 709.75 0.00 1230.69 1084.91 810.70 560.70 1124.77 344.38 837.71 308.62 268.89 823.50 1147.50 885.57 439.18 693.73 760.51 449.21 1073.87 794.95 1136.30 1128.89 791.09 251.67 1070.95 773.80 550.90 690.94 984.30 961.13 374.26 345.11 709.97 779.03 586.92 256.34 683.98 751.51 711.25 432.15 719.86 385.25 543.35 722.21 1022.21 637.82 308.38 1009.58 836.45 734.97 717.24 872.35 288.13 690.92 1135.76 1107.32 543.07 737.73 1106.10 1135.25 1149.14 1066.40 747.13 1053.15 1129.69 674.12 856.63 706.26 904.59 745.54 1055.53 827.85 678.31 741.81 561.37 419.82 613.69
852.11 1437.95 202.94 739.03 233.20 307.17 756.64 836.69 185.82 1429.46 705.68 1401.42 1409.09 372.96 1416.99 1113.13 990.08 229.43 240.26 1493.49 294.12 562.95 1508.22 1304.02 835.69 1496.63 1509.51 711.48 1012.27 662.39 1086.35 332.65 124.81 609.81 540.79 774.70 860.31 375.33 1364.36 714.21 827.55 359.35 618.72 225.61 176.61 1503.60 421.84 1376.00 1763.19 607.12 1230.69 0.00 224.08 609.82 1462.13 142.18 1368.68 706.22 1314.82 1315.73 1575.48 83.19 1574.53 1267.39 1496.95 787.47 1228.36 272.44 632.96 146.70 333.10 659.60 1212.38 479.33 1543.81 1323.65 1462.86 371.58 269.56 1310.20 1346.65 628.24 635.16 1373.56 1262.68 782.50 687.27 718.61 1349.89 655.62 1327.91 1438.92 1489.81 384.37 1512.94 1374.57 293.11 779.21 670.73 1513.01 1530.41 1318.41 1389.35 175.98 196.80 1298.61 719.40 124.59 260.16 217.78 590.99 678.27 305.18 181.22 729.59 499.25 698.30 589.83 552.72 207.38 525.87 1428.50 628.67 1331.39 1406.07 761.79
719.61 1272.84 106.12 579.79 83.18 176.25 602.48 709.43 53.98 1256.76 568.52 1235.13 1234.93 288.91 1233.74 1036.06 843.93 59.29 46.90 1327.91 116.43 381.62 1342.40 1146.73 733.28 1337.09 1383.25 578.98 928.22 497.28 921.24 170.16 99.27 498.52 359.46 624.24 727.81 258.34 1171.97 628.91 696.68 210.86 480.02 192.80 176.94 1364.90 336.43 1214.06 1602.82 464.31 1084.91 224.08 0.00 502.33 1269.74 95.17 1229.98 595.84 1194.88 1195.55 1395.93 140.89 1409.42 1118.90 1304.56 619.87 1035.97 129.80 494.26 83.58 141.43 549.22 1135.31 337.16 1328.03 1161.62 1316.19 261.20 130.86 1171.50 1161.13 551.17 473.13 1234.86 1168.86 660.95 538.78 572.02 1201.40 507.13 1141.29 1286.33 1341.32 279.91 1340.06 1217.91 175.59 625.73 522.24 1345.38 1383.82 1214.79 1276.57 93.56 27.28 1129.83 527.01 106.98 72.79 116.66 448.35 513.16 271.05 50.35 544.07 312.63 553.80 419.69 385.74 45.42 367.11 1265.07 497.80 1148.13 1219.45 604.50
382.30 851.78 516.49 193.19 497.23 580.21 222.54 334.90 463.27 868.65 176.73 861.80 923.20 357.12 925.64 655.82 462.53 516.77 533.63 985.33 437.37 160.99 954.43 765.33 404.43 964.43 1031.36 271.33 554.68 160.23 584.19 399.42 505.76 139.95 142.87 220.69 327.79 282.14 796.58 205.45 489.42 365.20 198.73 554.53 503.52 995.83 360.23 814.28 1287.89 167.71 810.70 609.82 502.33 0.00 881.77 523.39 914.78 209.31 823.20 814.15 1014.53 526.63 1072.37 867.35 961.98 267.85 748.12 520.43 125.19 463.12 541.26 162.69 751.23 358.89 1011.81 815.65 936.07 312.08 409.62 802.43 779.73 170.93 127.16 878.84 822.89 273.56 167.80 176.95 868.21 177.12 837.61 863.77 980.10 374.94 958.89 836.51 400.55 219.82 162.01 962.12 988.75 833.39 939.24 506.05 515.53 801.64 239.16 499.03 476.75 523.57 440.02 176.11 585.00 514.18 162.67 249.31 199.88 166.76 287.58 504.02 223.58 953.70 85.24 721.57 880.88 223.10
792.36 29.99 1296.43 795.51 1270.65 1279.55 768.94 867.51 1323.72 125.10 813.64 358.79 260.13 1094.98 161.63 538.54 627.50 1264.78 1297.02 144.55 1196.63 931.66 72.66 209.45 860.03 217.16 234.92 762.84 526.24 805.55 381.59 1186.18 1337.32 871.26 953.82 845.05 858.00 1163.91 97.77 825.22 818.44 1113.21 957.86 1318.10 1331.19 227.75 1213.56 170.43 669.49 959.84 560.70 1462.13 1269.74 881.77 0.00 1330.38 563.55 782.84 397.21 438.03 322.78 1378.94 357.59 313.28 133.03 756.24 233.77 1329.00 872.12 1330.80 1246.27 819.20 469.65 1090.52 232.86 211.43 182.18 1107.22 1204.22 332.18 406.41 883.60 838.62 118.91 449.49 723.55 844.52 845.92 319.33 816.94 299.18 138.80 179.10 1089.95 102.25 373.77 1246.93 752.43 832.05 189.26 391.80 422.77 205.57 1297.73 1283.77 211.72 742.73 1349.19 1240.14 1261.76 1066.37 789.67 1336.96 1307.02 812.11 990.20 863.57 949.52 998.75 1271.45 1053.37 241.06 931.85 160.20 367.39 751.68
752.39 1300.39 60.76 596.85 133.48 199.99 677.84 722.80 69.98 1287.28 563.50 1270.59 1266.91 358.88 1300.62 1077.06 888.37 129.71 98.08 1381.84 197.59 420.77 1381.20 1161.84 772.43 1354.45 1367.33 611.76 878.77 541.21 948.79 210.77 17.63 467.63 398.61 632.52 756.73 288.90 1238.85 616.92 727.83 217.17 519.00 174.69 144.88 1402.86 366.99 1276.28 1641.97 520.69 1124.77 142.18 95.17 523.39 1330.38 0.00 1268.96 564.04 1215.24 1224.68 1433.30 59.25 1453.35 1125.21 1358.49 659.02 1102.85 173.70 533.24 60.27 190.92 517.42 1152.61 385.40 1401.83 1196.63 1332.58 229.40 169.84 1190.13 1205.57 604.30 508.14 1273.84 1162.96 640.32 545.09 578.33 1207.71 513.44 1185.73 1299.69 1347.63 284.65 1370.76 1233.02 206.68 666.54 528.55 1370.83 1390.13 1205.44 1289.63 33.80 67.89 1196.71 593.89 24.87 117.98 95.43 492.25 540.71 205.46 81.50 588.51 357.07 613.29 457.16 466.29 104.63 395.61 1286.32 528.95 1215.01 1263.89 619.61
856.90 533.56 1287.22 862.91 1200.89 1359.30 692.24 983.94 1283.96 580.01 889.33 306.84 360.29 1152.40 584.11 365.27 532.72 1224.78 1228.00 620.52 1126.87 899.80 626.71 603.87 1044.28 656.37 686.09 861.64 584.67 862.97 601.58 1178.51 1256.54 915.25 921.96 750.36 887.12 1101.96 521.36 893.64 1035.47 1122.42 903.34 1171.41 1231.63 705.34 1023.87 478.30 1100.17 907.50 344.38 1368.68 1229.98 914.78 563.55 1268.96 0.00 840.76 174.96 181.10 762.06 1285.49 823.80 320.58 597.17 661.55 500.56 1310.90 854.03 1274.29 1266.88 887.38 261.56 1111.65 703.75 417.24 632.11 1091.17 1099.12 255.66 245.09 820.64 838.08 453.26 151.28 852.78 835.09 835.84 313.55 866.74 266.65 424.75 643.99 1107.33 526.94 189.78 1147.57 905.66 851.63 665.23 832.78 161.86 628.05 1302.76 1245.31 571.08 842.26 1244.09 1255.84 1287.13 1076.47 863.31 1303.49 1267.68 766.73 988.12 839.63 994.08 1007.69 1193.52 1068.03 663.54 855.15 485.66 269.78 782.49
220.39 791.44 624.07 73.81 519.79 628.06 377.42 168.33 627.39 769.86 48.57 869.12 891.26 439.72 746.84 553.55 469.85 539.33 564.85 843.63 492.73 257.49 855.50 679.24 237.86 850.19 910.86 79.76 483.85 150.29 461.01 457.30 581.67 153.96 277.04 201.74 192.69 491.45 685.07 52.88 322.85 387.76 323.64 664.57 605.74 911.03 534.77 753.94 1163.32 377.02 837.71 706.22 595.84 209.31 782.84 564.04 840.76 0.00 759.70 756.15 925.15 623.29 949.27 815.21 865.58 248.94 549.07 570.43 175.80 620.39 480.19 46.62 657.26 404.25 873.66 779.55 829.29 334.64 464.98 793.97 787.05 318.15 177.97 818.50 767.54 169.52 127.80 163.68 833.34 117.85 829.15 803.43 868.59 397.50 853.16 811.96 513.43 147.49 111.26 858.48 904.42 758.83 790.78 597.84 575.13 642.93 123.09 588.91 553.13 634.61 283.53 145.12 650.18 593.09 169.99 304.46 388.21 206.51 390.18 559.38 425.46 778.17 230.00 661.23 861.93 224.02
697.78 402.16 1225.41 785.34 1111.70 1290.47 600.66 884.27 1233.28 445.82 797.12 160.68 203.95 1031.02 409.15 206.15 396.42 1135.59 1212.40 489.73 1086.71 863.80 469.87 431.46 914.59 544.97 573.17 702.52 473.27 755.16 426.62 1100.37 1202.82 820.87 885.96 714.10 788.12 956.04 364.36 812.58 936.47 1031.67 778.68 1187.41 1177.42 586.60 1009.63 324.22 975.20 773.44 308.62 1314.82 1194.88 823.20 397.21 1215.24 174.96 759.70 0.00 44.80 599.08 1231.63 678.90 190.89 485.77 625.55 389.16 1235.90 749.97 1184.67 1185.00 795.40 102.44 1061.75 535.97 242.28 457.15 1001.60 1083.52 144.26 108.79 686.58 748.01 278.30 52.28 716.48 766.93 676.72 144.75 741.61 155.25 313.35 532.59 1003.27 413.35 78.38 1074.45 770.25 750.39 527.96 657.82 25.56 453.09 1249.04 1181.02 396.12 754.49 1190.37 1219.84 1241.53 917.35 739.28 1219.86 1185.00 696.28 927.72 756.64 899.70 880.22 1163.49 962.53 488.58 763.57 316.86 123.62 646.19
707.68 419.18 1219.09 747.66 1156.50 1286.92 645.46 883.81 1249.53 425.05 804.72 184.57 245.79 1038.80 453.95 202.60 351.62 1151.64 1180.68 489.88 1110.79 859.92 496.07 422.77 908.27 541.99 555.45 712.42 454.03 749.37 457.57 1089.94 1214.47 800.16 882.08 721.65 799.77 1000.84 340.26 809.03 948.12 1016.97 733.88 1190.44 1222.22 574.70 1021.28 306.46 966.70 774.35 268.89 1315.73 1195.55 814.15 438.03 1224.68 181.10 756.15 44.80 0.00 643.88 1232.54 654.80 184.57 466.53 632.84 369.92 1245.80 746.42 1195.00 1164.09 770.23 112.34 1062.23 576.58 287.08 501.95 995.28 1083.04 125.02 76.22 687.49 759.66 323.10 63.93 710.16 722.13 686.62 189.55 720.70 152.27 310.37 513.35 999.72 396.30 75.40 1088.36 773.58 705.59 534.59 693.54 19.24 482.92 1227.24 1214.71 440.92 757.51 1202.02 1215.96 1250.44 927.25 747.97 1175.06 1229.80 651.48 882.92 739.70 878.99 867.45 1177.44 949.76 533.38 808.37 361.66 150.93 639.87
885.83 292.79 1399.38 931.40 1375.91 1421.86 990.11 935.15 1449.91 252.88 964.39 592.22 503.76 1231.00 203.06 752.86 803.02 1352.02 1381.06 178.30 1338.94 1073.97 262.02 304.79 951.26 105.69 116.28 898.86 662.26 941.57 517.61 1289.10 1450.93 1007.28 1096.13 932.03 838.33 1257.76 321.31 967.53 866.27 1216.13 1049.07 1454.12 1434.11 151.81 1279.93 385.34 439.04 1094.58 823.50 1575.48 1395.93 1014.53 322.78 1433.30 762.06 925.15 599.08 643.88 0.00 1492.55 149.92 482.96 201.65 892.26 376.08 1338.67 984.84 1466.82 1382.29 961.51 662.70 1232.83 105.17 425.75 160.27 1210.97 1328.94 543.16 588.24 1025.91 974.64 320.78 651.36 865.86 973.54 930.98 558.37 952.96 546.52 386.14 168.40 1225.97 337.51 572.28 1349.85 880.86 957.00 191.60 289.43 624.64 225.84 1427.62 1415.09 305.19 885.04 1456.86 1376.16 1397.78 1199.15 925.69 1442.55 1422.58 851.86 1083.30 1095.97 1086.11 1182.64 1407.47 1238.11 146.98 1010.02 396.32 611.02 847.02
768.92 1359.64 120.01 656.10 150.01 223.98 673.45 753.50 102.63 1346.53 622.75 1318.23 1326.16 367.12 1341.10 1029.94 906.89 146.24 157.33 1410.30 210.93 480.02 1425.03 1221.09 780.38 1413.70 1426.58 628.29 938.02 585.04 1008.04 256.49 41.62 526.88 457.86 691.77 777.12 292.14 1281.17 631.02 744.36 276.42 535.53 173.16 161.41 1420.41 369.39 1292.81 1680.00 523.93 1147.50 83.19 140.89 526.63 1378.94 59.25 1285.49 623.29 1231.63 1232.54 1492.55 0.00 1497.18 1184.46 1413.76 707.33 1145.17 198.56 549.77 63.51 250.17 576.67 1129.19 420.76 1461.08 1240.46 1379.67 288.65 186.37 1227.01 1263.46 545.05 551.97 1290.37 1179.49 699.57 604.34 635.42 1266.96 572.69 1244.98 1355.73 1406.88 301.18 1430.01 1291.38 209.92 696.02 587.80 1430.08 1447.22 1235.22 1306.16 93.05 113.61 1215.42 636.21 41.40 177.23 134.59 517.11 599.96 221.99 98.03 646.40 416.32 615.11 506.64 469.53 124.19 442.68 1345.57 545.48 1248.20 1323.14 678.86
990.57 387.58 1473.40 1012.28 1399.25 1496.32 1126.53 895.17 1463.40 349.54 997.84 561.10 613.84 1201.57 331.15 763.73 821.41 1398.21 1436.37 213.04 1338.56 1110.25 296.76 392.33 964.70 237.73 266.20 1002.79 766.78 912.14 667.53 1310.13 1468.23 1009.61 1117.56 1057.58 943.07 1276.55 314.54 1002.15 998.31 1246.64 1090.39 1503.89 1464.62 301.73 1354.64 471.23 311.90 1186.64 885.57 1574.53 1409.42 1072.37 357.59 1453.35 823.80 949.27 678.90 654.80 149.92 1497.18 0.00 608.23 236.39 1013.81 450.54 1470.71 978.71 1472.86 1384.62 995.89 686.42 1225.00 255.09 436.62 285.54 1223.95 1310.81 577.90 678.97 1100.37 945.21 464.39 718.73 940.32 957.16 970.88 554.64 950.37 613.08 496.39 262.72 1232.01 396.07 634.02 1349.71 985.60 955.92 257.75 159.08 674.04 317.18 1441.11 1428.58 409.93 959.50 1455.78 1451.44 1438.73 1232.80 928.02 1509.07 1451.83 994.99 1096.79 1168.69 1064.40 1146.36 1378.04 1228.67 251.72 1060.63 389.55 598.16 934.56
812.57 283.29 1185.97 741.40 1083.50 1228.61 790.16 793.23 1154.80 325.76 843.64 145.38 141.70 1033.24 405.14 370.61 475.41 1059.61 1135.34 395.19 1031.42 852.95 385.94 366.23 723.70 434.83 431.24 809.91 393.93 808.73 528.37 981.01 1142.84 770.75 830.79 792.96 796.08 1108.22 302.68 868.09 808.69 908.04 857.67 1186.24 1126.02 395.71 1151.61 261.97 849.90 918.20 439.18 1267.39 1118.90 867.35 313.28 1125.21 320.58 815.21 190.89 184.57 482.96 1184.46 608.23 0.00 371.84 723.71 309.82 1196.60 742.16 1178.84 1106.36 831.16 274.58 1046.81 414.00 180.60 322.69 961.16 1020.85 64.92 172.66 855.50 787.77 239.84 243.17 708.26 795.57 812.76 82.50 794.14 100.10 174.48 416.70 977.09 336.20 130.80 1041.76 752.73 779.03 393.50 606.82 165.33 396.20 1149.98 1123.89 394.94 794.18 1150.08 1125.15 1191.68 992.33 821.41 1226.21 1147.14 775.27 928.76 821.93 849.58 968.26 1115.25 1031.74 417.21 826.53 229.63 178.26 744.21
804.69 163.02 1376.61 830.33 1316.78 1314.37 901.97 896.85 1358.54 116.46 856.90 469.66 393.16 1172.71 131.60 597.91 686.87 1292.89 1328.51 23.35 1264.70 1012.49 60.37 196.65 851.39 95.96 108.55 807.11 577.09 883.28 478.01 1214.29 1372.14 908.10 1034.65 861.90 800.03 1219.46 180.51 904.41 806.15 1141.32 1010.77 1379.99 1359.30 108.17 1227.38 234.84 548.29 1011.06 693.73 1496.95 1304.56 961.98 133.03 1358.49 597.17 865.58 485.77 466.53 201.65 1413.76 236.39 371.84 0.00 818.13 316.51 1328.94 920.14 1368.49 1287.59 854.02 497.04 1125.34 130.66 270.80 49.15 1142.04 1254.13 341.51 450.32 924.20 904.22 228.00 530.46 806.29 876.70 836.44 407.29 845.05 376.69 271.83 67.43 1127.64 160.14 407.39 1260.92 842.56 860.16 68.06 308.13 463.55 122.66 1375.07 1331.84 224.05 777.55 1383.36 1306.97 1358.18 1149.11 872.32 1380.50 1341.44 799.31 1030.75 994.26 986.93 1063.16 1348.53 1128.88 108.68 957.47 255.52 449.87 738.88
238.57 726.25 671.38 201.36 614.77 697.75 269.79 359.19 673.85 736.20 260.06 786.05 779.56 490.85 771.08 598.17 405.04 605.34 634.38 809.53 569.88 238.25 828.90 621.48 428.72 820.58 859.18 232.68 329.78 201.42 374.65 516.96 676.65 253.70 260.41 88.81 352.08 549.99 703.24 301.82 495.31 460.87 278.41 561.86 622.08 878.72 533.25 720.94 1181.50 341.50 760.51 787.47 619.87 267.85 756.24 659.02 661.55 248.94 625.55 632.84 892.26 707.33 1013.81 723.71 818.13 0.00 573.31 683.15 192.48 686.63 648.58 254.72 523.11 450.10 823.08 722.42 774.14 429.62 542.13 658.79 696.83 254.64 176.53 785.50 633.39 217.11 173.54 184.30 724.57 205.19 693.97 770.43 759.85 445.78 833.36 669.76 590.58 244.11 190.08 783.05 996.10 613.60 815.02 670.89 647.15 657.79 180.71 683.89 594.29 641.11 507.31 201.76 693.94 670.22 105.18 326.57 268.63 332.53 411.98 636.53 443.25 802.41 242.54 628.23 749.00 146.82
638.16 242.37 1115.47 561.74 1036.88 1045.78 742.76 717.40 1089.95 220.79 588.31 347.15 343.47 922.88 197.77 419.43 461.45 1043.06 1082.87 294.56 962.86 697.89 306.43 130.17 786.93 301.12 361.79 560.93 346.05 633.45 270.26 964.46 1103.55 639.51 720.05 658.16 654.90 997.86 136.00 591.45 871.92 891.49 747.83 1135.17 1109.47 372.54 1012.14 204.87 762.44 736.69 449.21 1228.36 1035.97 748.12 233.77 1102.85 500.56 549.07 389.16 369.92 376.08 1145.17 450.54 309.82 316.51 573.31 0.00 1109.24 684.77 1106.30 1019.00 585.43 454.56 856.75 324.59 230.48 280.22 873.45 990.61 244.90 353.71 649.83 655.34 269.43 433.85 489.78 619.24 612.15 284.27 595.22 280.08 254.36 319.52 888.04 304.09 310.78 1025.21 607.68 602.70 309.41 446.44 366.94 241.71 1129.53 1050.00 93.86 508.96 1116.00 1038.38 1100.75 832.60 622.49 1164.80 1073.25 616.41 786.21 719.89 718.34 843.47 1060.34 925.78 229.10 703.28 112.16 358.24 560.07
734.48 1299.01 133.54 607.79 205.04 147.18 716.30 729.19 112.39 1308.96 569.89 1306.82 1318.05 305.88 1306.66 1063.86 911.96 181.15 82.90 1305.59 230.25 444.90 1389.31 1182.03 792.20 1232.98 1335.58 593.85 945.19 562.72 947.41 233.00 187.69 539.43 422.74 668.01 742.68 339.26 1245.24 577.72 744.56 288.56 560.94 299.68 270.89 1354.96 392.24 1314.11 1599.18 574.24 1073.87 272.44 129.80 520.43 1329.00 173.70 1310.90 570.43 1235.90 1245.80 1338.67 198.56 1470.71 1196.60 1328.94 683.15 1109.24 0.00 520.04 166.29 90.24 523.81 1133.46 357.52 1280.36 1254.14 1345.12 313.11 211.78 1197.28 1229.16 590.22 565.65 1315.78 1241.27 646.71 565.28 598.52 1263.06 533.63 1232.46 1353.64 1343.59 266.74 1390.95 1253.21 260.23 661.58 548.74 1350.30 1410.32 1260.43 1271.72 155.17 140.08 1203.10 600.28 175.24 88.86 102.68 318.55 546.84 353.76 157.06 612.10 422.48 648.20 482.69 499.56 175.22 471.88 1305.00 590.94 1221.40 1310.62 639.80
352.61 842.13 551.50 150.37 465.17 594.77 247.28 334.56 541.67 852.08 175.26 805.90 798.01 356.00 882.54 543.82 432.84 473.92 492.28 943.49 391.15 166.75 918.67 723.49 404.09 922.59 906.17 217.21 512.63 66.57 490.53 350.40 520.82 118.29 188.91 213.15 335.01 403.49 820.77 228.68 477.82 322.35 214.21 592.12 536.52 870.64 438.67 825.22 1218.27 240.85 794.95 632.96 494.26 125.19 872.12 533.24 854.03 175.80 749.97 746.42 984.84 549.77 978.71 742.16 920.14 192.48 684.77 520.04 0.00 494.15 520.67 129.18 647.53 359.35 945.24 734.10 894.23 316.16 363.40 677.24 750.04 153.99 45.61 889.78 721.23 251.55 98.61 111.61 743.02 97.18 712.42 872.80 907.91 253.30 948.52 743.12 411.85 227.04 82.07 931.11 923.41 749.10 845.86 567.04 489.41 759.80 183.44 508.37 494.54 539.13 314.83 82.45 593.09 512.66 132.98 251.22 224.05 197.12 226.10 457.80 308.41 913.87 84.37 796.93 790.58 181.26
708.59 1300.81 75.50 626.61 125.62 225.00 633.47 689.99 87.45 1310.76 617.49 1262.07 1292.16 303.61 1280.77 1032.17 843.38 140.75 96.62 1349.97 147.42 465.20 1403.46 1178.42 716.87 1365.98 1382.07 567.96 939.04 560.72 949.21 199.18 42.64 513.54 443.04 655.31 716.79 228.63 1242.30 567.51 706.54 270.80 524.33 202.83 155.92 1364.79 306.72 1234.34 1642.18 460.42 1136.30 146.70 83.58 463.12 1330.80 60.27 1274.29 620.39 1184.67 1195.00 1466.82 63.51 1472.86 1178.84 1368.49 686.63 1106.30 166.29 494.15 0.00 191.15 577.69 1131.42 360.43 1407.59 1228.25 1319.34 289.67 175.17 1171.39 1236.59 547.28 539.76 1279.17 1174.00 669.61 552.65 575.09 1237.17 543.20 1206.57 1326.89 1373.23 240.85 1400.52 1237.27 146.41 635.69 558.31 1390.15 1386.89 1210.23 1245.83 94.07 56.30 1177.60 610.59 35.91 152.59 110.17 484.84 570.47 187.47 60.21 619.53 388.09 556.69 455.34 406.02 118.70 418.29 1335.40 507.66 1184.69 1284.73 649.37
689.46 1216.28 150.03 526.80 190.39 147.87 626.06 638.95 172.72 1226.23 479.65 1216.58 1248.06 312.49 1216.77 1033.74 853.04 192.78 94.53 1310.94 140.01 420.55 1318.93 1091.79 708.48 1290.89 1358.66 551.00 870.80 472.48 864.68 217.08 208.55 467.41 398.39 577.77 672.88 295.24 1155.00 487.48 654.32 198.32 516.92 295.45 288.79 1382.62 373.33 1223.87 1594.70 515.63 1128.89 333.10 141.43 541.26 1246.27 190.92 1266.88 480.19 1185.00 1164.09 1382.29 250.17 1384.62 1106.36 1287.59 648.58 1019.00 90.24 520.67 191.15 0.00 433.57 1082.56 267.28 1338.27 1192.00 1262.53 229.18 167.76 1171.28 1170.24 602.49 503.51 1271.76 1176.69 556.47 475.04 508.28 1188.86 443.39 1178.37 1263.40 1328.78 267.37 1300.71 1162.97 216.21 597.54 458.50 1328.41 1320.08 1170.19 1220.01 189.76 168.71 1112.86 510.04 215.79 72.94 164.29 408.79 456.60 341.95 180.89 553.18 349.71 577.38 447.79 409.32 186.85 483.06 1248.10 566.59 1131.16 1231.67 549.56
255.89 827.80 577.45 100.55 473.17 581.44 337.37 205.38 580.77 806.22 46.08 868.91 882.87 397.85 783.20 600.17 469.64 492.71 518.23 877.37 446.11 218.97 891.86 715.60 274.91 886.55 947.22 117.43 437.23 108.42 498.68 410.68 535.05 156.53 230.42 201.84 239.31 444.83 721.43 99.50 359.90 341.14 277.02 617.95 559.12 957.65 488.15 790.30 1198.82 330.40 791.09 659.60 549.22 162.69 819.20 517.42 887.38 46.62 795.40 770.23 961.51 576.67 995.89 831.16 854.02 254.72 585.43 523.81 129.18 577.69 433.57 0.00 703.88 357.63 910.02 815.91 865.65 288.02 418.36 766.24 786.84 271.53 131.35 854.86 743.12 122.90 81.18 136.12 823.67 71.23 801.42 839.79 904.95 350.88 889.52 790.81 466.81 163.97 64.64 894.84 941.47 789.47 827.14 551.22 528.51 679.29 76.47 542.29 506.51 587.99 330.15 98.50 603.56 546.47 169.78 292.68 341.59 159.89 343.56 512.76 378.84 814.53 213.55 697.59 837.81 177.40
595.34 463.25 1136.86 682.90 1110.90 1188.03 659.59 781.83 1182.20 456.67 694.68 263.12 281.11 942.15 500.94 103.71 346.23 1087.01 1139.81 515.81 1038.68 761.36 436.67 533.90 851.36 588.42 547.23 600.08 372.10 652.72 345.23 997.93 1168.35 718.43 783.52 611.92 721.82 955.17 371.88 710.14 918.11 935.44 682.14 1084.97 1145.19 577.03 1019.09 320.61 989.00 671.00 251.67 1212.38 1135.31 751.23 469.65 1152.61 261.56 657.26 102.44 112.34 662.70 1129.19 686.42 274.58 497.04 523.11 454.56 1133.46 647.53 1131.42 1082.56 703.88 0.00 965.58 557.53 344.72 541.91 952.73 1010.93 209.66 188.56 584.14 685.79 380.74 110.28 686.43 670.82 574.28 247.19 639.17 208.08 368.46 494.30 900.83 480.45 180.82 985.01 667.81 654.28 471.10 620.68 128.00 514.54 1181.69 1135.39 498.56 652.05 1155.90 1117.40 1164.22 814.91 636.84 1123.32 1158.64 628.29 837.37 654.20 797.26 777.78 1105.33 860.09 580.34 731.90 413.32 226.06 669.93
540.39 1088.42 396.27 400.57 301.76 381.11 541.81 500.09 376.89 1077.54 403.71 1124.45 1154.19 364.93 1054.52 902.70 725.18 277.87 346.38 1148.69 256.39 211.85 1163.18 986.92 515.62 1157.87 1218.54 399.76 743.81 312.86 736.82 254.28 391.81 276.57 216.02 441.46 492.98 359.95 992.75 441.17 587.93 188.63 491.11 424.34 406.61 1211.32 306.60 1061.62 1459.38 468.42 1070.95 479.33 337.16 358.89 1090.52 385.40 1111.65 404.25 1061.75 1062.23 1232.83 420.76 1225.00 1046.81 1125.34 450.10 856.75 357.52 359.35 360.43 267.28 357.63 965.58 0.00 1181.34 1002.23 1136.97 182.44 284.14 1036.59 1042.38 456.26 313.74 1126.18 1009.47 480.53 357.88 391.30 1094.99 351.09 1071.77 1111.11 1176.27 119.58 1160.84 1070.67 322.35 385.01 356.64 1160.63 1203.10 1063.70 1092.15 351.60 364.44 950.61 347.79 379.36 319.18 416.14 318.38 328.74 458.33 375.06 425.32 249.49 469.38 197.74 449.55 353.55 391.03 1085.85 384.22 968.91 1101.65 457.26
858.25 251.54 1341.07 886.33 1327.27 1370.37 1001.80 889.76 1382.01 169.55 912.90 505.30 442.70 1222.54 126.82 661.24 756.62 1340.12 1363.26 109.28 1287.45 1022.48 169.67 246.48 892.95 47.38 55.22 839.63 663.02 933.11 531.10 1261.52 1419.46 952.73 1044.64 911.73 792.94 1230.18 246.75 916.04 807.96 1188.55 1021.49 1384.94 1406.53 74.60 1277.21 333.47 439.23 1060.89 773.80 1543.81 1328.03 1011.81 232.86 1401.83 703.75 873.66 535.97 576.58 105.17 1461.08 255.09 414.00 130.66 823.08 324.59 1280.36 945.24 1407.59 1338.27 910.02 557.53 1181.34 0.00 340.55 91.31 1190.96 1301.36 451.56 529.93 974.03 954.05 270.16 588.25 814.37 910.21 886.27 465.16 894.88 486.74 335.52 63.23 1166.74 236.00 513.97 1310.75 853.28 893.67 86.43 277.14 561.53 164.82 1391.90 1355.31 277.61 833.55 1426.52 1362.97 1375.74 1140.84 922.15 1430.33 1378.38 849.14 1080.58 1044.09 1031.56 1143.53 1373.45 1198.63 119.40 1007.30 316.63 525.73 788.71
773.75 181.44 1216.68 792.22 1150.75 1276.26 691.76 861.89 1215.60 206.87 818.79 211.11 221.15 1010.99 251.14 327.11 416.07 1165.90 1182.97 247.45 1081.84 900.85 284.09 189.18 847.60 320.06 337.82 729.02 492.42 721.56 347.77 1084.50 1211.51 766.79 881.62 796.10 837.73 1085.97 122.08 821.93 762.61 1020.35 798.33 1208.73 1227.21 359.84 1090.55 91.12 748.52 836.65 550.90 1323.65 1161.62 815.65 211.43 1196.63 417.24 779.55 242.28 287.08 425.75 1240.46 436.62 180.60 270.80 722.42 230.48 1254.14 734.10 1228.25 1192.00 815.91 344.72 1002.23 340.55 0.00 315.66 967.23 1054.09 227.73 328.98 811.63 688.49 155.68 294.56 720.26 766.58 795.05 161.95 748.61 223.58 139.23 297.13 987.40 288.55 285.72 1102.54 762.65 763.72 292.16 475.36 267.84 264.74 1219.89 1188.90 214.34 739.44 1199.06 1206.32 1182.01 1048.93 737.44 1239.51 1211.97 715.93 906.21 804.15 845.62 919.44 1148.49 858.08 330.57 803.91 172.35 241.47 724.96
787.69 160.23 1350.70 841.96 1290.87 1326.00 951.12 854.33 1362.17 158.56 868.53 468.07 398.66 1142.23 82.45 632.15 731.73 1266.98 1302.60 72.50 1238.79 978.11 109.52 170.74 893.49 112.14 144.22 781.20 626.24 852.80 510.19 1188.38 1350.21 918.51 1000.27 835.99 757.51 1205.30 193.58 871.67 855.30 1115.41 996.29 1336.00 1333.39 157.32 1201.47 243.41 530.54 985.15 690.94 1462.86 1316.19 936.07 182.18 1332.58 632.11 829.29 457.15 501.95 160.27 1379.67 285.54 322.69 49.15 774.14 280.22 1345.12 894.23 1319.34 1262.53 865.65 541.91 1136.97 91.31 315.66 0.00 1132.51 1228.22 387.61 495.35 898.29 878.31 178.85 509.43 770.00 850.79 810.53 405.19 819.14 404.59 244.21 94.01 1078.49 208.46 453.49 1235.01 828.40 834.25 70.81 284.13 482.71 73.51 1349.16 1330.22 207.05 789.18 1338.27 1318.60 1371.83 1112.82 836.92 1354.59 1324.44 773.40 1004.84 968.35 997.34 1071.73 1318.70 1147.23 94.52 931.56 268.59 482.75 712.97
530.60 1079.50 289.43 388.57 185.15 370.26 500.32 493.40 292.75 1089.45 334.10 1050.17 1049.97 229.42 1071.22 859.98 658.97 204.69 230.21 1165.39 158.09 191.37 1151.80 961.77 543.03 1160.87 1222.33 389.97 725.25 311.81 727.90 122.66 247.03 238.23 169.21 403.12 527.33 224.33 1009.45 387.52 628.02 53.12 372.33 329.93 271.10 1186.80 302.42 1058.35 1412.57 346.60 984.30 371.58 261.20 312.08 1107.22 229.40 1091.17 334.64 1001.60 995.28 1210.97 288.65 1223.95 961.16 1142.04 429.62 873.45 313.11 316.16 289.67 229.18 288.02 952.73 182.44 1190.96 967.23 1132.51 0.00 130.34 991.51 976.17 428.13 278.74 1122.91 974.47 410.92 338.92 382.38 1017.96 338.86 956.33 1101.37 1183.58 62.86 1177.54 1032.20 178.79 437.14 332.80 1182.86 1194.18 976.04 1067.84 263.20 240.49 967.31 364.49 254.27 266.80 299.97 389.93 319.82 315.54 258.45 359.11 127.67 422.57 227.76 327.73 224.74 343.12 1102.55 337.41 985.61 1034.49 419.54
649.60 1174.23 188.10 492.49 101.77 267.89 513.80 592.03 184.84 1184.18 464.44 1158.58 1161.41 200.23 1188.38 907.22 731.42 125.66 128.88 1277.48 27.75 321.71 1238.66 1057.48 661.56 1253.98 1269.57 508.97 839.54 398.67 822.63 144.30 157.42 368.57 299.55 533.46 657.67 127.48 1126.61 517.86 746.55 112.81 349.16 228.72 173.12 1234.04 205.57 1106.44 1542.91 362.46 961.13 269.56 130.86 409.62 1204.22 169.84 1099.12 464.98 1083.52 1083.04 1328.94 186.37 1310.81 1020.85 1254.13 542.13 990.61 211.78 363.40 175.17 167.76 418.36 1010.93 284.14 1301.36 1054.09 1228.22 130.34 0.00 1040.64 1106.51 447.16 365.60 1104.00 1061.33 541.26 440.73 473.97 1103.35 409.08 1075.82 1169.36 1243.27 181.86 1266.40 1106.52 48.45 555.10 424.19 1266.47 1285.77 1102.28 1177.96 203.64 146.19 1084.47 494.83 144.97 185.76 188.01 435.18 414.55 229.69 168.56 489.45 258.01 443.45 335.25 297.06 94.40 357.13 1181.96 447.77 1102.77 1153.98 515.25
790.93 304.37 1195.38 780.20 1142.41 1272.01 744.92 802.89 1142.16 324.35 804.55 128.66 120.77 968.32 341.92 313.37 410.49 1124.53 1169.52 364.86 1068.39 843.99 371.05 374.49 788.62 437.47 430.43 744.99 329.01 743.81 473.66 1027.64 1198.06 795.53 866.15 728.04 731.16 1043.30 305.88 836.35 873.61 972.96 792.75 1220.65 1190.94 449.68 1115.91 222.64 870.98 880.66 374.26 1310.20 1171.50 802.43 332.18 1190.13 255.66 793.97 144.26 125.02 543.16 1227.01 577.90 64.92 341.51 658.79 244.90 1197.28 677.24 1171.39 1171.28 766.24 209.66 1036.59 451.56 227.73 387.61 991.51 1040.64 0.00 108.81 793.80 722.85 260.92 188.95 643.34 775.85 747.84 65.78 774.42 35.18 195.56 388.33 930.54 271.28 65.88 1089.09 687.81 759.31 409.57 590.59 122.04 385.86 1173.98 1166.65 338.76 753.86 1185.61 1171.78 1216.37 927.41 759.69 1233.93 1189.90 710.35 863.84 798.57 874.36 903.34 1135.04 966.82 421.35 761.61 237.89 113.34 679.29
783.90 376.42 1205.48 713.24 1141.11 1302.84 709.45 830.76 1215.11 433.16 813.31 117.87 206.19 1018.95 450.73 255.05 427.84 1117.22 1146.26 473.67 1123.27 876.53 479.07 474.15 896.36 482.55 539.24 788.64 437.82 729.52 511.87 1072.86 1223.20 795.23 898.69 697.23 733.94 1061.87 412.56 839.93 981.35 999.89 810.10 1241.36 1217.87 558.49 1045.13 331.45 948.35 826.80 345.11 1346.65 1161.13 779.73 406.41 1205.57 245.09 787.05 108.79 76.22 588.24 1263.46 678.97 172.66 450.32 696.83 353.71 1229.16 750.04 1236.59 1170.24 786.84 188.56 1042.38 529.93 328.98 495.35 976.17 1106.51 108.81 0.00 739.94 762.59 318.82 119.78 743.69 738.74 696.18 174.18 737.31 112.55 272.93 497.14 1003.34 380.09 80.24 1133.61 796.62 722.20 518.38 699.40 83.23 494.67 1192.82 1180.29 447.57 766.02 1222.06 1203.14 1216.02 1003.47 713.64 1251.28 1203.54 617.06 848.50 810.00 874.06 933.58 1192.90 1003.31 530.16 775.22 337.55 139.05 677.49
429.44 892.20 616.15 283.71 536.50 702.62 128.40 475.46 603.51 870.62 317.61 773.18 800.17 446.01 847.60 484.89 395.56 517.17 576.04 944.39 462.48 244.41 956.26 727.55 544.99 926.65 1011.62 338.53 536.32 188.91 581.11 477.14 586.67 254.62 266.57 165.83 468.35 371.03 785.83 349.21 579.19 457.18 98.00 502.95 563.17 1018.38 434.95 818.91 1351.61 86.86 709.97 628.24 551.17 170.93 883.60 604.30 820.64 318.15 686.58 687.49 1025.91 545.05 1100.37 855.50 924.20 254.64 649.83 590.22 153.99 547.28 602.49 271.53 584.14 456.26 974.03 811.63 898.29 428.13 447.16 793.80 739.94 0.00 199.60 883.47 694.42 359.14 227.88 235.59 809.49 200.30 792.22 904.19 969.35 407.29 953.92 746.33 400.87 360.38 215.41 959.24 1047.39 690.17 891.54 637.76 551.25 743.69 286.56 583.19 600.45 622.74 468.82 173.03 539.18 574.50 246.00 305.79 70.06 333.45 193.64 541.56 275.95 878.93 227.84 761.99 810.20 288.85
324.34 808.63 528.19 143.53 463.89 630.47 262.02 304.58 527.11 818.58 177.43 844.66 843.62 322.50 853.11 589.43 445.39 483.43 494.48 916.50 393.35 212.36 873.06 707.57 374.11 906.67 951.78 183.71 490.05 33.07 457.03 396.01 523.02 78.30 193.13 193.15 297.47 397.48 791.34 224.81 455.11 331.86 211.32 594.32 538.72 916.25 475.57 779.61 1211.43 243.31 779.03 635.16 473.13 127.16 838.62 508.14 838.08 177.97 748.01 759.66 974.64 551.97 945.21 787.77 904.22 176.53 655.34 565.65 45.61 539.76 503.51 131.35 685.79 313.74 954.05 688.49 878.31 278.74 365.60 722.85 762.59 199.60 0.00 844.17 695.73 235.63 78.09 111.51 788.63 60.12 758.03 827.72 936.38 298.91 915.74 778.75 414.05 189.50 75.23 949.12 923.31 773.57 812.36 541.94 500.41 743.88 146.38 510.57 527.01 493.52 360.44 48.95 594.28 523.48 145.53 217.72 269.66 157.13 255.65 460.00 337.96 884.44 115.42 767.50 834.72 165.34
830.88 123.86 1266.43 831.17 1205.77 1315.21 847.44 963.70 1288.84 167.52 857.74 291.62 223.62 1129.13 255.50 482.79 571.75 1229.66 1232.88 251.35 1131.75 967.32 191.57 245.59 902.45 290.99 323.07 830.36 489.82 866.33 475.46 1220.85 1261.42 908.94 989.48 799.90 894.14 1070.27 163.92 860.88 918.29 1147.88 945.10 1298.77 1277.12 336.17 1134.19 64.56 709.39 970.33 586.92 1373.56 1234.86 878.84 118.91 1273.84 453.26 818.50 278.30 323.10 320.78 1290.37 464.39 239.84 228.00 785.50 269.43 1315.78 889.78 1279.17 1271.76 854.86 380.74 1126.18 270.16 155.68 178.85 1122.91 1104.00 260.92 318.82 883.47 844.17 0.00 330.58 759.21 821.31 881.58 237.59 852.96 225.74 65.36 272.86 1133.11 191.01 300.33 1152.45 848.62 837.85 249.66 462.98 303.86 252.36 1307.64 1250.19 250.24 778.39 1248.97 1289.76 1292.01 1102.03 876.16 1287.19 1272.56 807.62 1039.06 953.53 987.77 892.88 1198.40 975.19 273.37 940.81 157.27 303.90 787.82
705.62 451.83 1223.72 793.18 1154.85 1298.31 652.94 832.66 1200.94 488.98 789.20 212.96 256.23 1018.23 461.43 213.99 415.55 1130.96 1190.21 542.01 1089.08 871.64 522.15 483.74 902.19 597.25 551.40 710.36 482.38 728.80 455.51 1052.36 1150.54 774.03 888.86 661.82 735.84 1008.32 404.19 820.42 884.19 979.39 792.42 1153.58 1197.37 586.93 957.35 370.39 1018.44 781.28 256.34 1262.68 1168.86 822.89 449.49 1162.96 151.28 767.54 52.28 63.93 651.36 1179.49 718.73 243.17 530.46 633.39 433.85 1241.27 721.23 1174.00 1176.69 743.12 110.28 1009.47 588.25 294.56 509.43 974.47 1061.33 188.95 119.78 694.42 695.73 330.58 0.00 721.19 773.82 684.56 197.03 749.45 182.64 343.02 570.98 974.53 460.23 130.66 1095.29 778.09 764.56 580.24 710.10 77.84 505.37 1196.76 1195.24 448.40 762.33 1138.09 1196.50 1189.25 925.19 744.68 1233.60 1194.72 711.33 913.45 764.48 852.86 888.06 1155.73 970.37 540.86 805.60 369.14 175.90 650.90
148.38 732.15 700.35 186.72 596.07 670.76 292.98 261.94 703.67 710.57 161.21 772.00 764.11 504.12 687.55 582.72 416.23 615.61 641.13 784.34 569.01 341.87 796.21 612.52 331.47 790.90 851.57 101.65 314.33 214.69 447.48 533.58 657.95 264.49 353.32 193.31 165.12 555.70 625.78 222.40 416.46 464.04 385.30 740.85 682.02 862.32 554.70 694.65 1091.31 375.35 683.98 782.50 660.95 273.56 723.55 640.32 852.78 169.52 716.48 710.16 865.86 699.57 940.32 708.26 806.29 217.11 489.78 646.71 251.55 669.61 556.47 122.90 686.43 480.53 814.37 720.26 770.00 410.92 541.26 643.34 743.69 359.14 235.63 759.21 721.19 0.00 189.46 167.85 709.12 176.46 678.52 744.14 809.30 428.76 793.87 683.70 589.71 169.38 187.54 799.19 936.22 690.92 731.49 674.12 651.41 583.64 133.94 665.19 623.45 710.89 453.05 203.73 726.46 669.37 126.63 358.07 429.20 282.79 466.46 635.66 497.14 718.88 284.79 601.94 756.68 70.29
301.53 814.53 563.21 84.84 503.38 622.91 273.97 276.59 574.68 824.48 127.26 793.69 863.89 334.45 817.01 642.43 421.54 479.49 555.22 900.05 451.30 170.87 880.51 680.05 346.12 879.15 946.92 162.07 481.14 45.02 462.93 400.89 562.72 100.69 193.03 169.18 269.48 409.43 755.24 146.72 379.21 327.92 195.84 606.12 545.90 969.25 411.56 824.11 1152.74 293.62 751.51 687.27 538.78 167.80 844.52 545.09 835.09 127.80 766.93 722.13 973.54 604.34 957.16 795.57 876.70 173.54 619.24 565.28 98.61 552.65 475.04 81.18 670.82 357.88 910.21 766.58 850.79 338.92 440.73 775.85 738.74 227.88 78.09 821.31 773.82 189.46 0.00 96.54 807.40 31.65 811.03 798.55 917.73 311.80 888.97 751.23 461.64 161.51 16.54 921.60 908.34 741.37 818.26 573.99 543.77 713.10 117.91 569.96 526.91 571.61 368.81 54.85 637.02 567.02 121.68 229.67 290.13 178.69 324.71 510.92 391.38 848.34 182.98 731.40 756.63 137.82
298.75 822.24 596.45 108.62 536.62 656.15 213.74 315.49 607.92 811.63 182.20 778.25 855.39 367.87 809.92 621.50 378.98 512.73 588.46 859.79 484.54 232.33 896.81 639.79 385.02 838.89 929.54 203.12 418.83 78.44 470.64 434.13 595.96 144.15 254.49 126.10 275.26 442.85 748.15 216.56 468.72 361.16 256.69 639.36 579.14 930.62 481.81 817.02 1216.20 321.18 711.25 718.61 572.02 176.95 845.92 578.33 835.84 163.68 676.72 686.62 930.98 635.42 970.88 812.76 836.44 184.30 612.15 598.52 111.61 575.09 508.28 136.12 574.28 391.30 886.27 795.05 810.53 382.38 473.97 747.84 696.18 235.59 111.51 881.58 684.56 167.85 96.54 0.00 813.62 64.89 782.36 821.38 877.47 334.24 916.24 710.97 494.88 204.56 80.00 881.34 811.80 702.28 825.97 607.41 577.01 676.10 151.15 594.02 578.27 605.03 424.12 62.56 675.37 600.26 79.12 263.09 305.65 222.98 337.71 544.34 400.53 834.31 195.98 724.31 786.29 97.56
730.07 302.32 1261.16 799.98 1166.00 1284.02 707.66 854.43 1207.94 319.19 826.55 62.88 59.20 1034.10 369.16 350.90 476.27 1142.11 1217.84 409.40 1113.92 909.77 391.99 308.71 806.20 472.92 446.68 785.66 394.79 809.59 509.72 1063.51 1225.34 853.25 913.29 754.49 757.61 1084.88 240.10 874.06 877.51 990.54 833.72 1241.06 1208.52 478.21 1148.80 179.47 866.54 835.70 432.15 1349.89 1201.40 868.21 319.33 1207.71 313.55 833.34 144.75 189.55 558.37 1266.96 554.64 82.50 407.29 724.57 284.27 1263.06 743.02 1237.17 1188.86 823.67 247.19 1094.99 465.16 161.95 405.19 1017.96 1103.35 65.78 174.18 809.49 788.63 237.59 197.03 709.12 807.40 813.62 0.00 805.97 61.63 218.66 401.93 996.32 310.56 123.77 1124.26 753.59 790.86 412.66 593.38 170.31 382.76 1232.48 1206.39 344.16 747.20 1232.58 1207.65 1274.18 993.19 825.47 1274.90 1229.64 762.01 890.29 739.43 932.08 907.49 1197.75 989.80 448.59 827.39 172.11 99.94 737.18
278.86 786.95 531.56 83.41 471.73 591.26 267.18 275.16 543.03 796.90 117.31 819.38 865.17 327.66 792.99 641.00 420.11 447.84 523.57 868.40 419.65 167.44 889.60 648.40 344.69 847.50 915.27 138.23 449.49 38.23 435.35 369.24 531.07 105.90 189.60 174.32 268.05 402.64 731.22 170.73 410.86 296.27 216.48 574.47 514.25 939.23 416.92 800.09 1151.31 285.89 719.86 655.62 507.13 177.12 816.94 513.44 866.74 117.85 741.61 720.70 952.96 572.69 950.37 794.14 845.05 205.19 595.22 533.63 97.18 543.20 443.39 71.23 639.17 351.09 894.88 748.61 819.14 338.86 409.08 774.42 737.31 200.30 60.12 852.96 749.45 176.46 31.65 64.89 805.97 0.00 796.45 820.01 886.08 302.35 857.32 719.58 429.99 160.08 15.11 889.95 876.69 726.80 790.68 547.24 512.12 684.71 86.26 538.31 513.38 553.64 367.38 27.27 614.44 535.37 120.25 222.88 270.36 184.73 315.77 503.48 398.08 824.32 172.81 707.38 788.28 106.17
764.51 269.19 1223.81 815.38 1131.12 1300.62 738.62 792.80 1177.34 359.53 839.73 93.84 93.64 1003.50 377.10 311.79 445.67 1131.62 1168.24 400.04 1103.43 879.17 371.84 361.60 823.80 472.65 465.61 780.17 364.19 778.99 508.84 1053.02 1203.36 830.71 901.33 692.86 695.98 1077.52 300.01 871.53 908.79 980.05 827.93 1237.79 1198.03 484.86 1139.99 222.68 835.80 879.08 385.25 1327.91 1141.29 837.61 299.18 1185.73 266.65 829.15 155.25 152.27 546.52 1244.98 613.08 100.10 376.69 693.97 280.08 1232.46 712.42 1206.57 1178.37 801.42 208.08 1071.77 486.74 223.58 404.59 956.33 1075.82 35.18 112.55 792.22 758.03 225.74 182.64 678.52 811.03 782.36 61.63 796.45 0.00 160.38 423.51 965.72 306.46 76.87 1113.77 722.99 794.49 444.75 625.77 133.03 421.04 1172.98 1160.45 373.94 789.04 1210.60 1197.16 1238.00 962.59 794.87 1269.11 1183.70 729.61 828.66 801.06 909.54 938.52 1170.22 931.64 456.53 796.79 225.00 78.16 690.28
830.33 108.81 1330.68 816.10 1233.72 1300.14 830.99 950.89 1327.04 203.92 842.67 254.22 159.46 1133.00 240.45 466.34 555.30 1234.09 1271.46 283.35 1197.11 952.25 211.46 278.80 898.18 355.96 372.40 815.29 524.57 843.57 460.41 1155.49 1317.32 893.87 974.41 822.43 854.07 1115.56 217.21 845.81 901.84 1082.52 937.56 1332.29 1300.50 336.87 1170.33 109.85 675.42 975.88 543.35 1438.92 1286.33 863.77 138.80 1299.69 424.75 803.43 313.35 310.37 386.14 1355.73 496.39 174.48 271.83 770.43 254.36 1353.64 872.80 1326.89 1263.40 839.79 368.46 1111.11 335.52 139.23 244.21 1101.37 1169.36 195.56 272.93 904.19 827.72 65.36 343.02 744.14 798.55 821.38 218.66 820.01 160.38 0.00 317.90 1110.35 183.96 234.97 1216.24 862.04 804.90 296.76 489.12 291.13 284.39 1318.02 1298.37 296.39 763.32 1314.33 1292.74 1321.24 1086.96 838.84 1332.48 1307.02 742.26 973.70 942.39 972.70 938.17 1263.76 997.31 319.88 900.42 142.20 238.54 802.69
831.02 209.09 1404.30 881.26 1305.92 1365.30 948.04 908.22 1377.22 183.89 907.83 442.07 439.23 1196.12 170.69 598.01 713.20 1282.03 1357.76 49.68 1253.84 998.10 106.44 264.08 869.35 110.61 99.33 874.54 603.42 906.69 545.44 1203.43 1365.26 959.03 1020.26 848.66 811.40 1243.22 183.52 910.97 852.22 1130.46 1034.53 1321.71 1348.44 118.87 1268.41 301.49 494.70 1056.21 722.21 1489.81 1341.32 980.10 179.10 1347.63 643.99 868.59 532.59 513.35 168.40 1406.88 262.72 416.70 67.43 759.85 319.52 1343.59 907.91 1373.23 1328.78 904.95 494.30 1176.27 63.23 297.13 94.01 1183.58 1243.27 388.33 497.14 969.35 936.38 272.86 570.98 809.30 917.73 877.47 401.93 886.08 423.51 317.90 0.00 1132.38 196.66 454.21 1264.18 866.32 901.19 23.20 334.46 510.37 127.40 1381.43 1346.31 250.38 828.48 1372.50 1347.57 1400.96 1152.12 890.81 1447.93 1367.77 840.34 1071.78 1028.48 1037.86 1129.81 1337.67 1151.70 132.44 992.28 258.53 479.13 779.91
467.74 1059.96 316.35 385.76 244.51 341.47 496.14 481.29 315.81 1069.91 396.96 1059.20 1051.31 245.35 1039.92 797.12 686.14 220.62 293.07 1109.12 192.43 254.23 1162.61 937.57 550.82 1125.13 1159.47 327.11 743.09 319.87 708.36 142.02 272.23 272.69 232.07 437.58 475.94 240.37 1024.04 450.38 577.80 69.05 435.19 347.25 287.03 1123.94 295.62 1078.52 1410.67 409.46 1022.21 384.37 279.91 374.94 1089.95 284.65 1107.33 397.50 1003.27 999.72 1225.97 301.18 1232.01 977.09 1127.64 445.78 888.04 266.74 253.30 240.85 267.37 350.88 900.83 119.58 1166.74 987.40 1078.49 62.86 181.86 930.54 1003.34 407.29 298.91 1133.11 974.53 428.76 311.80 334.24 996.32 302.35 965.72 1110.35 1132.38 0.00 1159.67 996.42 202.77 394.84 317.46 1149.30 1146.04 1002.40 1004.98 318.45 284.90 973.88 379.08 259.78 283.43 351.02 327.07 329.62 378.40 301.06 386.28 190.53 466.86 215.95 383.62 276.26 337.42 1102.56 333.23 1000.20 1043.88 408.52
884.69 107.11 1373.55 865.83 1329.05 1349.87 871.19 957.63 1394.04 202.22 892.40 326.79 343.42 1172.10 235.35 584.16 681.77 1305.16 1374.14 183.03 1266.95 1001.98 99.77 311.70 930.54 231.82 249.59 839.96 590.44 882.67 458.71 1226.56 1388.39 943.60 1024.14 922.17 860.81 1238.95 200.02 895.54 845.55 1153.59 1034.98 1395.22 1371.57 259.01 1274.24 233.24 675.23 1031.37 637.82 1512.94 1340.06 958.89 102.25 1370.76 526.94 853.16 413.35 396.30 337.51 1430.01 396.07 336.20 160.14 833.36 304.09 1390.95 948.52 1400.52 1300.71 889.52 480.45 1160.84 236.00 288.55 208.46 1177.54 1266.40 271.28 380.09 953.92 915.74 191.01 460.23 793.87 888.97 916.24 310.56 857.32 306.46 183.96 196.66 1159.67 0.00 337.16 1287.31 847.99 872.43 173.46 418.91 393.32 255.13 1399.98 1354.09 313.97 813.05 1395.63 1317.26 1338.88 1078.12 866.79 1414.08 1377.34 896.33 1067.32 940.69 1022.43 1061.56 1348.57 1130.49 268.82 1007.37 237.32 289.73 835.90
776.16 343.78 1251.14 739.49 1190.08 1274.27 679.04 857.35 1208.04 390.23 816.80 151.25 170.51 1034.20 407.80 261.44 427.02 1167.42 1203.04 430.74 1134.27 887.02 436.93 432.48 854.50 466.59 496.31 732.20 394.89 757.81 499.06 1088.82 1250.65 825.48 909.18 736.43 772.85 1034.42 363.87 864.31 939.49 1015.85 809.28 1231.62 1233.83 515.56 1067.79 288.52 910.39 833.19 308.38 1374.57 1217.91 836.51 373.77 1233.02 189.78 811.96 78.38 75.40 572.28 1291.38 634.02 130.80 407.39 669.76 310.78 1253.21 743.12 1237.27 1162.97 790.81 180.82 1070.67 513.97 285.72 453.49 1032.20 1106.52 65.88 80.24 746.33 778.75 300.33 130.66 683.70 751.23 710.97 123.77 719.58 76.87 234.97 454.21 996.42 337.16 0.00 1135.45 753.69 734.69 475.45 656.47 56.16 451.74 1239.86 1224.45 404.64 737.45 1251.49 1232.96 1272.27 993.29 746.85 1250.46 1247.70 673.84 905.28 815.10 904.31 939.97 1200.92 1008.51 487.23 827.49 295.88 143.57 613.41
670.51 1216.94 215.28 513.40 140.19 316.34 529.27 543.58 202.64 1226.89 506.00 1115.66 1183.46 188.96 1222.98 885.76 779.87 116.30 177.33 1284.27 76.20 370.16 1287.11 1064.27 613.11 1263.37 1318.02 529.88 828.27 447.12 865.34 134.77 189.05 417.02 348.00 548.31 640.40 118.41 1161.21 566.31 698.10 133.72 397.61 196.30 221.57 1282.49 196.50 1124.12 1581.30 314.01 1009.58 293.11 175.59 400.55 1246.93 206.68 1147.57 513.43 1074.45 1088.36 1349.85 209.92 1349.71 1041.76 1260.92 590.58 1025.21 260.23 411.85 146.41 216.21 466.81 985.01 322.35 1310.75 1102.54 1235.01 178.79 48.45 1089.09 1133.61 400.87 414.05 1152.45 1095.29 589.71 461.64 494.88 1124.26 429.99 1113.77 1216.24 1264.18 202.77 1287.31 1135.45 0.00 590.07 445.10 1287.38 1279.67 1091.04 1207.75 240.48 150.38 1100.58 516.25 182.32 234.21 236.46 483.63 457.26 184.45 173.63 516.55 285.11 410.28 383.19 295.80 142.85 308.68 1202.87 485.79 1122.12 1152.72 522.04
184.13 766.48 691.64 137.83 622.29 635.54 392.21 115.08 679.71 776.43 126.87 816.47 808.58 478.18 780.54 627.19 421.96 607.92 661.81 865.91 579.73 275.26 825.09 678.19 184.61 805.90 861.84 67.73 358.80 188.75 414.88 521.95 667.07 229.27 297.42 247.92 107.97 501.96 743.68 200.37 269.60 456.35 357.35 704.62 674.33 826.31 573.07 812.55 1118.81 387.53 836.45 779.21 625.73 219.82 752.43 666.54 905.66 147.49 770.25 773.58 880.86 696.02 985.60 752.73 842.56 244.11 607.68 661.58 227.04 635.69 597.54 163.97 667.81 385.01 853.28 762.65 828.40 437.14 555.10 687.81 796.62 360.38 189.50 848.62 778.09 169.38 161.51 204.56 753.59 160.08 722.99 862.04 866.32 394.84 847.99 753.69 590.07 0.00 144.97 843.12 851.17 792.82 791.97 666.55 653.01 701.54 98.72 654.62 628.14 678.12 431.02 187.35 644.02 676.08 204.99 322.23 419.70 308.10 445.15 610.33 443.40 733.88 287.58 719.84 801.15 222.76
284.99 802.06 546.67 68.30 486.84 606.37 272.73 260.05 558.14 812.01 110.72 804.27 850.06 333.21 800.47 625.89 405.00 462.95 538.68 883.51 434.76 154.33 897.05 663.51 329.58 862.61 930.38 145.53 464.60 43.78 450.46 384.35 546.18 94.57 176.49 159.21 252.94 408.19 738.70 163.26 395.75 311.38 212.38 589.58 529.36 952.71 428.10 807.57 1136.20 301.00 734.97 670.73 522.24 162.01 832.05 528.55 851.63 111.26 750.39 705.59 957.00 587.80 955.92 779.03 860.16 190.08 602.70 548.74 82.07 558.31 458.50 64.64 654.28 356.64 893.67 763.72 834.25 332.80 424.19 759.31 722.20 215.41 75.23 837.85 764.56 187.54 16.54 80.00 790.86 15.11 794.49 804.90 901.19 317.46 872.43 734.69 445.10 144.97 0.00 905.06 891.80 724.83 805.79 562.35 527.23 696.56 101.37 553.42 510.37 557.19 352.27 42.38 629.55 550.48 105.14 228.43 285.47 173.40 308.17 509.68 385.59 831.80 166.44 714.86 773.17 121.28
826.05 219.25 1382.70 871.15 1329.12 1355.19 958.20 897.41 1399.36 184.52 897.72 418.87 437.35 1213.04 153.26 574.81 708.23 1305.23 1373.41 44.71 1272.27 1007.30 128.43 241.55 846.15 117.32 76.13 852.01 598.45 923.61 546.07 1226.63 1388.46 948.92 1029.46 871.86 800.59 1220.02 196.84 900.86 874.21 1153.66 1011.33 1344.91 1371.64 105.93 1272.28 278.29 517.90 1046.10 717.24 1513.01 1345.38 962.12 189.26 1370.83 665.23 858.48 527.96 534.59 191.60 1430.08 257.75 393.50 68.06 783.05 309.41 1350.30 931.11 1390.15 1328.41 894.84 471.10 1160.63 86.43 292.16 70.81 1182.86 1266.47 409.57 518.38 959.24 949.12 249.66 580.24 799.19 921.60 881.34 412.66 889.95 444.75 296.76 23.20 1149.30 173.46 475.45 1287.38 843.12 905.06 0.00 329.49 531.61 144.32 1404.63 1359.41 245.41 818.37 1395.70 1347.79 1410.16 1142.01 907.73 1425.40 1362.80 844.21 1075.65 1029.30 1027.75 1106.61 1360.87 1133.72 109.24 1002.37 240.55 455.93 783.78
904.93 380.31 1408.25 920.42 1348.42 1467.95 1025.54 736.09 1419.72 353.14 921.89 637.83 564.88 1179.67 248.67 724.39 891.43 1324.53 1400.26 284.78 1296.34 1044.13 319.14 428.86 805.62 229.76 258.22 918.90 792.49 890.24 693.11 1245.93 1407.76 955.95 1066.29 937.90 832.91 1254.65 353.28 957.30 890.61 1172.96 1068.49 1451.16 1390.94 284.93 1293.61 464.20 470.98 1132.98 872.35 1530.41 1383.82 988.75 391.80 1390.13 832.78 904.42 657.82 693.54 289.43 1447.22 159.08 606.82 308.13 996.10 446.44 1410.32 923.41 1386.89 1320.08 941.47 620.68 1203.10 277.14 475.36 284.13 1194.18 1285.77 590.59 699.40 1047.39 923.31 462.98 710.10 936.22 908.34 811.80 593.38 876.69 625.77 489.12 334.46 1146.04 418.91 656.47 1279.67 851.17 891.80 329.49 0.00 683.38 210.62 1419.21 1388.81 412.42 949.89 1405.82 1390.07 1416.83 1187.95 874.36 1464.12 1412.06 890.92 1074.89 1117.45 1034.78 1149.51 1356.14 1212.33 254.21 1007.78 428.29 672.14 909.36
723.34 399.94 1199.85 766.90 1137.26 1281.49 626.22 864.57 1253.07 444.29 807.40 172.45 226.67 1054.46 434.71 205.28 370.86 1161.15 1199.92 486.90 1112.27 851.85 493.09 442.01 889.03 522.75 552.47 728.08 451.05 765.03 452.18 1096.04 1223.07 819.40 874.01 702.41 813.68 981.60 359.50 811.71 962.03 1023.07 753.12 1175.46 1202.98 561.04 1011.63 325.70 966.55 777.03 288.13 1318.41 1214.79 833.39 422.77 1205.44 161.86 758.83 25.56 19.24 624.64 1235.22 674.04 165.33 463.55 613.60 366.94 1260.43 749.10 1210.23 1170.19 789.47 128.00 1063.70 561.53 267.84 482.71 976.04 1102.28 122.04 83.23 690.17 773.57 303.86 77.84 690.92 741.37 702.28 170.31 726.80 133.03 291.13 510.37 1002.40 393.32 56.16 1091.04 792.82 724.83 531.61 683.38 0.00 478.65 1239.24 1206.58 421.68 744.67 1215.93 1207.89 1234.52 942.91 754.07 1194.30 1210.56 670.72 902.16 758.94 898.23 883.81 1189.05 966.12 514.14 789.13 342.42 148.19 620.63
800.02 175.58 1321.33 803.45 1249.49 1287.49 954.99 780.82 1320.79 144.28 830.02 433.10 360.15 1068.72 43.94 558.64 680.81 1225.60 1298.05 104.14 1197.41 939.60 179.52 235.06 850.35 120.15 184.48 756.75 587.76 779.29 482.49 1147.00 1277.21 845.00 961.76 899.87 684.00 1143.70 142.66 833.16 880.73 1074.03 957.54 1352.23 1292.01 216.53 1207.60 253.58 604.05 978.40 690.92 1389.35 1276.57 939.24 205.57 1289.63 628.05 790.78 453.09 482.92 225.84 1306.16 317.18 396.20 122.66 815.02 241.71 1271.72 845.86 1245.83 1220.01 827.14 514.54 1092.15 164.82 264.74 73.51 1067.84 1177.96 385.86 494.67 891.54 812.36 252.36 505.37 731.49 818.26 825.97 382.76 790.68 421.04 284.39 127.40 1004.98 255.13 451.74 1207.75 791.97 805.79 144.32 210.62 478.65 0.00 1308.26 1289.88 219.38 750.67 1264.76 1280.09 1305.88 1074.31 763.41 1376.22 1306.04 837.72 963.94 961.60 923.83 1068.01 1245.19 1073.72 97.58 910.50 217.67 467.41 777.29
786.19 1304.53 50.83 630.65 161.41 203.98 696.04 756.60 42.78 1314.48 597.30 1266.82 1266.62 331.68 1327.30 1110.86 875.62 137.52 95.23 1398.42 209.99 432.64 1370.39 1178.42 806.23 1344.52 1357.40 645.56 844.97 528.97 952.93 237.92 51.43 501.43 432.41 655.93 774.52 312.41 1265.53 650.72 723.33 250.97 552.80 208.49 178.68 1392.93 388.57 1272.44 1675.77 554.49 1135.76 175.98 93.56 506.05 1297.73 33.80 1302.76 597.84 1249.04 1227.24 1427.62 93.05 1441.11 1149.98 1375.07 670.89 1129.53 155.17 567.04 94.07 189.76 551.22 1181.69 351.60 1391.90 1219.89 1349.16 263.20 203.64 1173.98 1192.82 637.76 541.94 1307.64 1196.76 674.12 573.99 607.41 1232.48 547.24 1172.98 1318.02 1381.43 318.45 1399.98 1239.86 240.48 666.55 562.35 1404.63 1419.21 1239.24 1308.26 0.00 95.04 1214.73 620.57 58.67 127.92 85.50 471.98 544.85 239.26 97.91 575.76 344.32 612.18 477.11 444.12 133.82 361.81 1320.12 545.36 1227.62 1251.14 636.19
744.96 1292.00 105.48 595.53 69.32 203.53 613.68 693.96 52.26 1270.79 561.19 1254.29 1254.09 301.03 1247.77 1033.23 863.09 86.57 74.18 1341.34 143.34 408.90 1356.43 1160.52 754.57 1349.21 1395.58 604.33 940.01 516.44 940.40 142.88 71.99 478.72 386.74 643.40 753.16 268.79 1186.00 608.50 669.58 215.85 495.35 165.52 149.66 1360.05 314.11 1240.97 1605.22 464.39 1107.32 196.80 27.28 515.53 1283.77 67.89 1245.31 575.13 1181.02 1214.71 1415.09 113.61 1428.58 1123.89 1331.84 647.15 1050.00 140.08 489.41 56.30 168.71 528.51 1135.39 364.44 1355.31 1188.90 1330.22 240.49 146.19 1166.65 1180.29 551.25 500.41 1250.19 1195.24 651.41 543.77 577.01 1206.39 512.12 1160.45 1298.37 1346.31 284.90 1354.09 1224.45 150.38 653.01 527.23 1359.41 1388.81 1206.58 1289.88 95.04 0.00 1140.64 554.29 79.88 100.07 124.36 458.63 532.32 243.77 23.25 563.23 331.79 558.75 417.37 412.65 63.62 361.99 1279.10 470.70 1162.16 1238.61 618.29
580.64 216.28 1203.59 655.60 1130.74 1139.64 775.64 767.13 1172.52 135.53 682.17 399.64 345.60 1012.37 206.70 513.29 555.31 1132.55 1168.17 200.70 1056.72 791.75 248.13 36.31 836.66 230.23 289.75 646.77 439.91 722.94 303.14 1053.95 1186.47 733.37 813.91 701.56 684.86 1083.78 142.10 685.31 903.41 980.98 841.69 1219.65 1198.96 301.65 1067.04 186.54 716.84 830.55 543.07 1298.61 1129.83 801.64 211.72 1196.71 571.08 642.93 396.12 440.92 305.19 1215.42 409.93 394.94 224.05 657.79 93.86 1203.10 759.80 1177.60 1112.86 679.29 498.56 950.61 277.61 214.34 207.05 967.31 1084.47 338.76 447.57 743.69 743.88 250.24 448.40 583.64 713.10 676.10 344.16 684.71 373.94 296.39 250.38 973.88 313.97 404.64 1100.58 701.54 696.56 245.41 412.42 421.68 219.38 1214.73 1140.64 0.00 602.82 1174.02 1132.24 1183.31 926.46 711.22 1220.16 1117.39 638.97 870.41 813.75 812.20 937.33 1154.20 1019.64 158.21 797.13 172.05 436.70 578.54
192.60 751.33 606.51 52.78 549.64 536.82 353.44 213.80 580.99 729.75 79.35 810.08 806.40 413.92 706.73 554.91 448.82 534.10 573.91 800.90 505.91 253.70 815.39 639.13 283.33 810.08 870.75 51.97 448.27 124.49 433.22 455.50 594.59 130.55 275.86 149.20 200.80 488.90 644.96 126.86 368.32 382.53 302.74 660.73 600.51 881.50 503.18 713.83 1135.53 372.15 737.73 719.40 527.01 239.16 742.73 593.89 842.26 123.09 754.49 757.51 885.04 636.21 959.50 794.18 777.55 180.71 508.96 600.28 183.44 610.59 510.04 76.47 652.05 347.79 833.55 739.44 789.18 364.49 494.83 753.86 766.02 286.56 146.38 778.39 762.33 133.94 117.91 151.15 747.20 86.26 789.04 763.32 828.48 379.08 813.05 737.45 516.25 98.72 101.37 818.37 949.89 744.67 750.67 620.57 554.29 602.82 0.00 607.04 529.42 639.90 386.66 113.53 680.03 577.36 148.96 309.14 356.62 209.38 391.95 572.43 455.31 738.06 194.32 621.12 809.39 124.04
727.52 1319.20 85.63 621.72 108.61 194.81 652.97 725.90 62.85 1309.55 588.37 1295.46 1291.78 339.52 1299.70 1052.19 876.39 104.84 122.95 1368.90 172.72 445.64 1383.63 1186.71 752.78 1379.32 1392.20 586.89 903.64 543.64 967.60 222.76 12.45 492.50 423.48 657.39 735.72 264.54 1252.00 603.42 702.96 242.04 494.13 173.35 120.01 1379.01 342.63 1251.41 1638.60 496.33 1106.10 124.59 106.98 499.03 1349.19 24.87 1244.09 588.91 1190.37 1202.02 1456.86 41.40 1455.78 1150.08 1383.36 683.89 1116.00 175.24 508.37 35.91 215.79 542.29 1155.90 379.36 1426.52 1199.06 1338.27 254.27 144.97 1185.61 1222.06 583.19 510.57 1248.97 1138.09 665.19 569.96 594.02 1232.58 538.31 1210.60 1314.33 1372.50 259.78 1395.63 1251.49 182.32 654.62 553.42 1395.70 1405.82 1215.93 1264.76 58.67 79.88 1174.02 607.04 0.00 142.85 93.19 492.05 559.52 180.59 56.63 605.00 381.94 588.42 465.24 441.93 82.79 401.28 1311.19 504.08 1220.60 1288.76 644.48
722.02 1210.15 77.09 559.33 117.45 103.46 656.23 711.89 126.77 1220.10 552.59 1270.53 1266.85 305.62 1236.15 1038.36 885.94 132.08 56.88 1330.32 170.18 356.04 1312.80 1161.78 707.70 1321.84 1383.66 581.39 872.69 539.30 858.55 144.14 135.61 486.18 333.88 650.71 730.22 313.24 1174.38 560.42 727.26 217.11 523.28 250.57 245.75 1365.18 303.38 1243.25 1577.24 535.05 1135.25 260.16 72.79 476.75 1240.14 117.98 1255.84 553.13 1219.84 1215.96 1376.16 177.23 1451.44 1125.15 1306.97 594.29 1038.38 88.86 494.54 152.59 72.94 506.51 1117.40 319.18 1362.97 1206.32 1318.60 266.80 185.76 1171.78 1203.14 600.45 527.01 1289.76 1196.50 623.45 526.91 578.27 1207.65 513.38 1197.16 1292.74 1347.57 283.43 1317.26 1232.96 234.21 628.14 510.37 1347.79 1390.07 1207.89 1280.09 127.92 100.07 1132.24 529.42 142.85 0.00 111.76 407.41 529.54 323.44 107.95 586.08 368.50 559.34 418.63 439.49 118.21 410.12 1267.48 502.08 1150.54 1275.32 619.55
812.06 1231.77 34.67 606.15 174.41 150.67 646.31 775.62 82.14 1241.72 611.78 1291.09 1331.64 332.74 1298.52 1082.95 898.82 168.01 69.76 1381.53 160.26 402.86 1334.42 1201.09 754.52 1328.36 1341.24 677.23 930.47 526.59 880.17 255.90 105.64 533.00 380.70 667.13 786.09 315.49 1236.75 651.77 747.44 283.64 537.17 243.73 198.32 1376.77 393.58 1257.89 1624.06 535.88 1149.14 217.78 116.66 523.57 1261.76 95.43 1287.13 634.61 1241.53 1250.44 1397.78 134.59 1438.73 1191.68 1358.18 641.11 1100.75 102.68 539.13 110.17 164.29 587.99 1164.22 416.14 1375.74 1182.01 1371.83 299.97 188.01 1216.37 1216.02 622.74 493.52 1292.01 1189.25 710.89 571.61 605.03 1274.18 553.64 1238.00 1321.24 1400.96 351.02 1338.88 1272.27 236.46 678.12 557.19 1410.16 1416.83 1234.52 1305.88 85.50 124.36 1183.31 639.90 93.19 111.76 0.00 421.23 542.47 273.78 101.11 598.96 409.34 597.63 468.18 429.57 140.54 441.63 1329.85 548.56 1212.91 1316.16 658.86
503.92 1074.97 452.09 333.88 523.59 465.73 562.11 451.86 429.20 1053.39 309.51 1056.07 1048.18 572.42 1030.37 837.08 729.92 499.70 401.45 1127.16 462.93 481.58 1139.03 962.77 473.65 1093.46 1158.21 363.29 767.38 377.44 744.54 469.09 504.50 308.37 460.67 473.26 476.22 562.66 968.60 336.41 558.64 396.12 522.96 618.23 589.44 1122.68 585.46 1037.47 1446.85 555.68 1066.40 590.99 448.35 440.02 1066.37 492.25 1076.47 283.53 917.35 927.25 1199.15 517.11 1232.80 992.33 1149.11 507.31 832.60 318.55 314.83 484.84 408.79 330.15 814.91 318.38 1140.84 1048.93 1112.82 389.93 435.18 927.41 1003.47 468.82 360.44 1102.03 925.19 453.05 368.81 424.12 993.19 367.38 962.59 1086.96 1152.12 327.07 1078.12 993.29 483.63 431.02 352.27 1142.01 1187.95 942.91 1074.31 471.98 458.63 926.46 386.66 492.05 407.41 421.23 0.00 361.56 664.87 475.61 430.06 400.19 538.88 387.20 540.93 493.77 579.31 1061.70 399.20 944.76 1040.75 452.71
306.13 759.68 558.83 110.68 499.00 604.47 244.83 302.43 567.14 769.63 144.58 795.71 880.46 305.31 807.35 626.27 396.44 475.11 540.11 867.55 442.30 194.71 862.33 675.67 371.96 874.77 942.54 165.50 459.47 15.88 408.08 396.51 558.34 81.59 216.87 147.30 295.32 380.29 758.49 198.00 406.16 323.54 194.13 601.74 541.52 953.09 444.19 827.36 1178.58 258.62 747.13 678.27 513.16 176.11 789.67 540.71 863.31 145.12 739.28 747.97 925.69 599.96 928.02 821.41 872.32 201.76 622.49 546.84 82.45 570.47 456.60 98.50 636.84 328.74 922.15 737.44 836.92 319.82 414.55 759.69 713.64 173.03 48.95 876.16 744.68 203.73 54.85 62.56 825.47 27.27 794.87 838.84 890.81 329.62 866.79 746.85 457.26 187.35 42.38 907.73 874.36 754.07 763.41 544.85 532.32 711.22 113.53 559.52 529.54 542.47 361.56 0.00 612.81 555.57 96.58 200.53 243.09 160.42 304.60 481.78 386.91 851.59 147.09 734.65 807.49 133.44
828.15 1306.97 252.19 697.85 267.79 375.40 652.28 728.03 243.44 1355.69 649.64 1297.06 1334.10 307.50 1362.57 1024.07 823.44 243.90 281.27 1403.85 201.94 506.91 1409.62 1183.85 797.56 1382.95 1473.60 705.51 946.81 596.93 1020.89 319.22 193.04 553.77 484.75 645.09 751.99 302.86 1300.80 703.06 882.55 318.17 441.18 132.08 142.68 1463.73 328.31 1222.63 1728.11 498.46 1053.15 305.18 271.05 585.00 1336.96 205.46 1303.49 650.18 1219.86 1175.06 1442.55 221.99 1509.07 1226.21 1380.50 693.94 1164.80 353.76 593.09 187.47 341.95 603.56 1123.32 458.33 1430.33 1239.51 1354.59 315.54 229.69 1233.93 1251.28 539.18 594.28 1287.19 1233.60 726.46 637.02 675.37 1274.90 614.44 1269.11 1332.48 1447.93 378.40 1414.08 1250.46 184.45 644.02 629.55 1425.40 1464.12 1194.30 1376.22 239.26 243.77 1220.16 680.03 180.59 323.44 273.78 664.87 612.81 0.00 237.22 674.65 443.21 535.47 509.86 471.25 255.61 416.52 1343.27 571.02 1276.96 1305.28 706.49
757.39 1315.25 86.20 618.78 73.30 211.41 610.36 699.55 55.13 1252.92 584.44 1255.14 1277.34 305.01 1271.02 1056.48 886.34 97.19 92.51 1318.09 147.32 431.97 1365.52 1153.70 731.32 1347.62 1392.77 616.76 942.88 539.69 963.65 166.13 69.08 496.68 409.81 661.57 765.59 288.84 1209.25 627.72 646.33 239.10 517.72 142.62 172.91 1383.30 337.36 1244.95 1581.97 487.64 1129.69 181.22 50.35 514.18 1307.02 81.50 1267.68 593.09 1185.00 1229.80 1422.58 98.03 1451.83 1147.14 1341.44 670.22 1073.25 157.06 512.66 60.21 180.89 546.47 1158.64 375.06 1378.38 1211.97 1324.44 258.45 168.56 1189.90 1203.54 574.50 523.48 1272.56 1194.72 669.37 567.02 600.26 1229.64 535.37 1183.70 1307.02 1367.77 301.06 1377.34 1247.70 173.63 676.08 550.48 1362.80 1412.06 1210.56 1306.04 97.91 23.25 1117.39 577.36 56.63 107.95 101.11 475.61 555.57 237.22 0.00 586.48 355.04 582.00 440.62 416.63 74.16 365.97 1275.60 447.45 1185.41 1261.86 641.54
219.63 789.22 588.42 96.18 524.05 685.78 234.09 303.05 598.05 774.50 196.25 699.13 797.79 401.89 793.78 542.38 299.86 500.16 529.20 822.66 506.21 259.47 859.68 602.66 353.17 801.76 892.41 200.93 392.01 112.46 437.62 455.80 606.14 178.17 281.63 80.17 291.75 444.81 752.41 222.87 438.16 382.83 284.08 624.30 600.81 893.49 428.07 807.05 1162.56 248.72 674.12 729.59 544.07 162.67 812.11 588.51 766.73 169.99 696.28 651.48 851.86 646.40 994.99 775.27 799.31 105.18 616.41 612.10 132.98 619.53 553.18 169.78 628.29 425.32 849.14 715.93 773.40 359.11 489.45 710.35 617.06 246.00 145.53 807.62 711.33 126.63 121.68 79.12 762.01 120.25 729.61 742.26 840.34 386.28 896.33 673.84 516.55 204.99 105.14 844.21 890.92 670.72 837.72 575.76 563.23 638.97 148.96 605.00 586.08 598.96 430.06 96.58 674.65 586.48 0.00 231.44 316.06 257.00 359.08 575.84 386.25 797.18 158.16 728.57 736.19 60.43
451.07 960.21 395.15 296.73 302.46 471.96 413.60 437.31 366.61 970.16 255.89 922.50 922.30 284.94 983.98 773.82 531.30 302.96 339.58 1054.10 274.77 88.32 1062.86 834.10 483.38 1033.20 1123.85 335.29 623.45 184.65 608.61 224.36 374.70 211.62 109.56 311.61 430.20 248.86 922.21 342.69 568.37 151.39 244.66 409.13 369.37 1121.86 326.95 991.08 1352.92 218.93 856.63 499.25 312.63 249.31 990.20 357.07 988.12 304.46 927.72 882.92 1083.30 416.32 1096.79 928.76 1030.75 326.57 786.21 422.48 251.22 388.09 349.71 292.68 837.37 249.49 1080.58 906.21 1004.84 127.67 258.01 863.84 848.50 305.79 217.72 1039.06 913.45 358.07 229.67 263.09 890.29 222.88 828.66 973.70 1071.78 190.53 1067.32 905.28 285.11 322.23 228.43 1075.65 1074.89 902.16 963.94 344.32 331.79 870.41 309.14 381.94 368.50 409.34 400.19 200.53 443.21 355.04 231.44 0.00 315.20 132.79 200.06 352.41 282.37 1015.31 268.84 898.37 906.82 291.87
499.50 833.58 613.82 353.77 511.39 662.80 198.46 534.78 607.78 928.69 376.61 802.31 798.63 392.43 917.66 554.95 388.08 526.58 572.33 1008.12 437.37 275.52 936.23 797.61 564.37 996.71 1081.68 407.19 528.84 256.55 643.28 470.78 599.33 308.88 253.36 235.89 527.67 345.45 855.89 405.33 553.83 397.81 94.29 501.63 561.85 1088.44 409.37 888.97 1421.67 96.27 706.26 698.30 553.80 199.88 863.57 613.29 839.63 388.21 756.64 739.70 1095.97 615.11 1168.69 821.93 994.26 268.63 719.89 648.20 224.05 556.69 577.38 341.59 654.20 469.38 1044.09 804.15 968.35 422.57 443.45 798.57 810.00 70.06 269.66 953.53 764.48 429.20 290.13 305.65 739.43 270.36 801.06 942.39 1028.48 466.86 940.69 815.10 410.28 419.70 285.47 1029.30 1117.45 758.94 961.60 612.18 558.75 813.75 356.62 588.42 559.34 597.63 538.88 243.09 535.47 582.00 316.06 315.20 0.00 366.64 168.06 534.85 250.37 948.99 224.13 832.05 839.37 358.91
372.36 919.53 484.37 241.70 381.94 522.09 381.21 365.27 459.42 930.05 205.97 940.97 991.28 281.78 916.11 716.63 556.86 360.40 457.97 1010.28 307.92 135.41 1022.18 833.13 434.80 1019.46 1080.13 261.35 597.12 152.26 568.50 274.49 474.79 78.83 157.57 243.72 360.65 350.68 854.34 243.43 511.75 249.47 293.42 482.60 422.38 1067.76 428.77 923.21 1309.60 334.47 904.59 589.83 419.69 166.76 949.52 457.16 994.08 206.51 899.70 878.99 1086.11 506.64 1064.40 849.58 986.93 332.53 718.34 482.69 197.12 455.34 447.79 159.89 797.26 197.74 1031.56 845.62 997.34 227.76 335.25 874.36 874.06 333.45 157.13 987.77 852.86 282.79 178.69 222.98 932.08 184.73 909.54 972.70 1037.86 215.95 1022.43 904.31 383.19 308.10 173.40 1027.75 1034.78 898.23 923.83 477.11 417.37 812.20 209.38 465.24 418.63 468.18 387.20 160.42 509.86 440.62 257.00 132.79 366.64 0.00 332.85 405.40 276.82 947.44 219.53 830.50 903.91 290.90
550.70 970.96 445.76 376.47 343.33 509.45 322.04 548.94 439.72 992.24 389.64 966.82 966.69 252.37 1041.24 678.53 515.83 367.22 425.94 1086.51 269.31 288.38 1051.69 921.19 618.47 1096.15 1132.27 410.07 656.59 288.72 712.68 396.63 448.66 261.40 309.62 337.48 553.12 177.39 979.47 443.06 703.46 351.45 133.57 405.89 398.77 1096.74 241.31 828.32 1444.37 134.75 745.54 552.72 385.74 287.58 998.75 466.29 1007.69 390.18 880.22 867.45 1182.64 469.53 1146.36 968.26 1063.16 411.98 843.47 499.56 226.10 406.02 409.32 343.56 777.78 449.55 1143.53 919.44 1071.73 327.73 297.06 903.34 933.58 193.64 255.65 892.88 888.06 466.46 324.71 337.71 907.49 315.77 938.52 938.17 1129.81 383.62 1061.56 939.97 295.80 445.15 308.17 1106.61 1149.51 883.81 1068.01 444.12 412.65 937.33 391.95 441.93 439.49 429.57 540.93 304.60 471.25 416.63 359.08 200.06 168.06 332.85 0.00 366.79 82.31 1035.66 202.34 921.03 997.67 407.36
683.23 1241.46 125.77 577.98 51.79 221.67 583.53 678.04 91.04 1251.41 558.84 1228.31 1255.81 269.96 1255.41 1001.62 825.82 75.68 92.32 1349.33 97.48 416.11 1333.06 1151.88 747.57 1331.68 1363.97 542.60 909.27 465.90 889.86 201.36 92.23 462.97 393.95 625.98 691.43 221.88 1196.34 612.26 720.49 207.21 443.56 154.00 179.40 1328.44 299.97 1195.11 1626.16 456.86 1055.53 207.38 45.42 504.02 1271.45 104.63 1193.52 559.38 1163.49 1177.44 1407.47 124.19 1378.04 1115.25 1348.53 636.53 1060.34 175.22 457.80 118.70 186.85 512.76 1105.33 353.55 1373.45 1148.49 1318.70 224.74 94.40 1135.04 1192.90 541.56 460.00 1198.40 1155.73 635.66 510.92 544.34 1197.75 503.48 1170.22 1263.76 1337.67 276.26 1348.57 1200.92 142.85 610.33 509.68 1360.87 1356.14 1189.05 1245.19 133.82 63.62 1154.20 572.43 82.79 118.21 140.54 493.77 481.78 255.61 74.16 575.84 352.41 534.85 405.40 366.79 0.00 344.46 1276.36 521.61 1172.50 1248.38 609.65
605.88 1023.38 412.64 416.77 292.67 509.48 375.79 504.90 359.49 1040.25 400.31 1020.57 1025.28 193.83 1097.24 760.84 598.14 307.82 406.07 1105.53 351.62 274.63 1126.03 988.91 574.43 1178.14 1195.90 492.38 738.90 371.03 794.99 350.12 413.24 342.67 252.47 354.44 551.37 231.39 968.18 429.03 659.42 355.91 215.88 350.65 379.74 1179.05 264.18 910.63 1495.83 207.76 827.85 525.87 367.11 223.58 1053.37 395.61 1068.03 425.46 962.53 949.76 1238.11 442.68 1228.67 1031.74 1128.88 443.25 925.78 471.88 308.41 418.29 483.06 378.84 860.09 391.03 1198.63 858.08 1147.23 343.12 357.13 966.82 1003.31 275.95 337.96 975.19 970.37 497.14 391.38 400.53 989.80 398.08 931.64 997.31 1151.70 337.42 1130.49 1008.51 308.68 443.40 385.59 1133.72 1212.33 966.12 1073.72 361.81 361.99 1019.64 455.31 401.28 410.12 441.63 579.31 386.91 416.52 365.97 386.25 282.37 250.37 276.82 82.31 344.46 0.00 1117.97 284.65 893.17 1009.80 446.68
738.85 211.07 1344.57 784.42 1244.61 1274.88 933.85 788.17 1315.91 133.40 817.41 468.59 395.64 1151.98 79.43 648.53 690.55 1220.72 1296.45 132.03 1191.96 926.99 169.05 194.52 857.70 72.02 155.23 790.03 575.15 862.55 461.35 1142.12 1303.95 868.61 949.15 859.77 691.35 1110.78 208.49 820.55 821.97 1069.15 902.09 1347.35 1287.13 143.44 1188.87 297.32 558.63 947.60 678.31 1428.50 1265.07 953.70 241.06 1286.32 663.54 778.17 488.58 533.38 146.98 1345.57 251.72 417.21 108.68 802.41 229.10 1305.00 913.87 1335.40 1248.10 814.53 580.34 1085.85 119.40 330.57 94.52 1102.55 1181.96 421.35 530.16 878.93 884.44 273.37 540.86 718.88 848.34 834.31 448.59 824.32 456.53 319.88 132.44 1102.56 268.82 487.23 1202.87 733.88 831.80 109.24 254.21 514.14 97.58 1320.12 1279.10 158.21 738.06 1311.19 1267.48 1329.85 1061.70 851.59 1343.27 1275.60 797.18 1015.31 948.99 947.44 1035.66 1276.36 1117.97 0.00 932.38 280.48 502.90 736.75
360.48 906.77 533.65 234.74 509.10 605.54 162.91 398.33 502.58 916.72 233.64 807.69 882.38 437.92 901.05 628.19 458.02 485.21 539.96 980.82 471.65 180.52 988.48 760.82 467.86 959.92 990.54 219.85 504.88 148.49 555.17 359.53 516.53 178.20 168.20 238.33 368.68 367.38 839.28 282.88 552.85 390.53 129.84 590.07 588.76 955.01 443.65 876.25 1302.64 223.93 741.81 628.67 497.80 85.24 931.85 528.95 855.15 230.00 763.57 808.37 1010.02 545.48 1060.63 826.53 957.47 242.54 703.28 590.94 84.37 507.66 566.59 213.55 731.90 384.22 1007.30 803.91 931.56 337.41 447.77 761.61 775.22 227.84 115.42 940.81 805.60 284.79 182.98 195.98 827.39 172.81 796.79 900.42 992.28 333.23 1007.37 827.49 485.79 287.58 166.44 1002.37 1007.78 789.13 910.50 545.36 470.70 797.13 194.32 504.08 502.08 548.56 399.20 147.09 571.02 447.45 158.16 268.84 224.13 219.53 202.34 521.61 284.65 932.38 0.00 806.81 844.75 218.59
750.32 130.21 1227.63 673.90 1149.04 1157.94 854.92 829.56 1184.84 147.08 700.47 234.99 231.31 1035.04 204.07 499.46 573.61 1155.22 1195.03 278.87 1075.02 810.05 232.86 136.60 857.46 300.81 316.68 673.09 458.21 745.61 382.42 1076.62 1215.71 751.67 832.21 717.04 767.06 1003.71 75.01 703.61 934.96 1003.65 859.99 1190.09 1221.63 346.48 1081.80 92.71 701.45 848.85 561.37 1331.39 1148.13 721.57 160.20 1215.01 485.66 661.23 316.86 361.66 396.32 1248.20 389.55 229.63 255.52 628.23 112.16 1221.40 796.93 1184.69 1131.16 697.59 413.32 968.91 316.63 172.35 268.59 985.61 1102.77 237.89 337.55 761.99 767.50 157.27 369.14 601.94 731.40 724.31 172.11 707.38 225.00 142.20 258.53 1000.20 237.32 295.88 1122.12 719.84 714.86 240.55 428.29 342.42 217.67 1227.62 1162.16 172.05 621.12 1220.60 1150.54 1212.91 944.76 734.65 1276.96 1185.41 728.57 898.37 832.05 830.50 921.03 1172.50 893.17 280.48 806.81 0.00 272.05 672.23
778.13 347.35 1301.97 832.37 1209.28 1346.21 681.84 870.96 1255.50 417.17 883.89 37.06 107.26 1081.66 423.47 329.77 502.55 1209.78 1246.40 472.76 1167.89 927.50 389.50 408.65 901.96 521.55 494.74 826.14 442.35 801.65 550.24 1131.18 1281.52 825.08 949.66 660.19 774.14 1079.66 340.04 903.35 945.90 1058.21 864.10 1310.86 1276.19 530.27 1126.46 253.25 910.06 897.06 419.82 1406.07 1219.45 880.88 367.39 1263.89 269.78 861.93 123.62 150.93 611.02 1323.14 598.16 178.26 449.87 749.00 358.24 1310.62 790.58 1284.73 1231.67 837.81 226.06 1101.65 525.73 241.47 482.75 1034.49 1153.98 113.34 139.05 810.20 834.72 303.90 175.90 756.68 756.63 786.29 99.94 788.28 78.16 238.54 479.13 1043.88 289.73 143.57 1152.72 801.15 773.17 455.93 672.14 148.19 467.41 1251.14 1238.61 436.70 809.39 1288.76 1275.32 1316.16 1040.75 807.49 1305.28 1261.86 736.19 906.82 839.37 903.91 997.67 1248.38 1009.80 502.90 844.75 272.05 0.00 756.98
205.44 728.79 637.73 156.61 577.90 660.86 294.52 243.94 649.20 714.07 203.39 759.56 783.92 433.83 733.35 588.46 345.94 554.01 589.63 762.23 525.82 273.61 799.25 542.23 292.74 741.33 831.98 171.94 362.62 144.40 377.19 475.41 637.24 212.07 295.77 123.02 235.41 505.24 696.07 250.90 377.73 402.44 322.65 680.64 620.42 833.06 488.50 764.94 1148.37 309.15 613.69 761.79 604.50 223.10 751.68 619.61 782.49 224.02 646.19 639.87 847.02 678.86 934.56 744.21 738.88 146.82 560.07 639.80 181.26 649.37 549.56 177.40 669.93 457.26 788.71 724.96 712.97 419.54 515.25 679.29 677.49 288.85 165.34 787.82 650.90 70.29 137.82 97.56 737.18 106.17 690.28 802.69 779.91 408.52 835.90 613.41 522.04 222.76 121.28 783.78 909.36 620.63 777.29 636.19 618.29 578.54 124.04 644.48 619.55 658.86 452.71 133.44 706.49 641.54 60.43 291.87 358.91 290.90 407.36 609.65 446.68 736.75 218.59 672.23 756.98 0.00
DEMAND_SECTION
1 0
2 1
3 1
4 1
5 1
6 1
7 1
8 1
9 1
10 1
11 1
12 1
13 1
14 1
15 1
16 1
17 1
18 1
19 1
20 1
21 1
22 1
23 1
24 1
25 1
26 1
27 1
28 1
29 1
30 1
31 1
32 1
33 1
34 1
35 1
36 1
37 1
38 1
39 1
40 1
41 1
42 1
43 1
44 1
45 1
46 1
47 1
48 1
49 1
50 1
51 1
52 1
53 1
54 1
55 1
56 1
57 1
58 1
59 1
60 1
61 1
62 1
63 1
64 1
65 1
66 1
67 1
68 1
69 1
70 1
71 1
72 1
73 1
74 1
75 1
76 1
77 1
78 1
79 1
80 1
81 1
82 1
83 1
84 1
85 1
86 1
87 1
88 1
89 1
90 1
91 1
92 1
93 1
94 1
95 1
96 1
97 1
98 1
99 1
100 1
101 1
102 1
103 1
104 1
105 1
106 1
107 1
108 1
109 1
110 1
111 1
112 1
113 1
114 1
115 1
116 1
117 1
118 1
119 1
120 1
121 1
122 1
123 1
124 1
125 1
126 1
DEPOT_SECTION
1
-1
EOF
