NAME: LDG100_1124_snow_100_0077
COMMENT: CVRP with travel times.  rootPos=1,custPos=1,demandType=2,avgRouteSizeIndex=4,weather=snow,lambda_cluster=1,lambda_random=4, T1=300,T2=700,beta=1, alpha(i,j) ~ U(0.8,1.2)
TYPE: CVRP
DIMENSION: 101
EDGE_WEIGHT_TYPE: EXPLICIT
EDGE_WEIGHT_FORMAT: FULL_MATRIX
CAPACITY: 74
NODE_COORD_SECTION
1 609 210
2 627 116
3 172 853
4 292 269
5 122 258
6 124 708
7 672 619
8 522 325
9 982 628
10 432 473
11 305 837
12 70 573
13 226 809
14 516 581
15 711 869
16 18 288
17 274 349
18 962 193
19 148 850
20 179 993
21 851 304
22 316 642
23 890 502
24 95 687
25 714 622
26 742 756
27 62 181
28 490 700
29 433 764
30 119 533
31 509 331
32 692 145
33 1000 379
34 558 688
35 232 83
36 557 44
37 316 658
38 790 584
39 255 741
40 524 962
41 2 264
42 209 701
43 703 29
44 166 72
45 142 617
46 152 610
47 963 657
48 469 870
49 625 234
50 649 61
51 598 306
52 322 712
53 822 786
54 694 354
55 260 141
56 549 59
57 801 485
58 794 456
59 18 54
60 531 536
61 661 455
62 956 230
63 256 412
64 339 513
65 622 504
66 391 301
67 357 300
68 490 778
69 958 928
70 952 484
71 609 826
72 425 570
73 603 902
74 28 292
75 439 127
76 264 556
77 267 981
78 551 90
79 875 207
80 169 200
81 69 289
82 481 392
83 599 741
84 925 127
85 69 883
86 869 330
87 632 342
88 829 112
89 547 213
90 487 460
91 499 306
92 158 608
93 48 335
94 137 191
95 595 464
96 230 675
97 408 414
98 293 474
99 1000 778
100 230 938
101 213 104
EDGE_WEIGHT_SECTION
0.00 171.19 865.51 422.55 582.27 803.08 491.87 259.86 657.79 378.11 765.40 759.50 804.92 421.95 725.79 677.42 422.10 419.43 901.32 989.14 389.50 620.47 499.17 795.98 437.61 618.76 621.81 556.78 658.17 663.55 225.82 144.20 606.45 540.38 509.30 253.19 647.03 533.17 756.64 839.97 672.03 765.45 245.50 530.13 703.82 686.75 703.95 772.12 48.62 204.50 140.76 665.88 771.05 206.50 411.30 205.44 399.60 376.42 688.53 349.60 322.68 427.40 489.59 507.14 331.97 293.42 294.89 635.23 938.93 582.07 665.28 481.29 754.33 655.92 218.88 593.78 923.35 169.44 312.95 526.26 586.53 299.82 631.46 422.01 978.26 379.54 138.46 291.68 109.17 356.43 232.13 674.01 644.86 499.01 275.94 720.96 351.58 535.13 697.00 914.39 461.48
171.19 0.00 938.63 453.66 658.00 837.94 590.80 294.03 769.18 457.36 865.87 813.77 902.25 570.81 896.98 797.59 528.44 413.91 954.27 1076.02 345.33 710.40 604.06 822.85 608.80 718.47 697.84 666.29 767.97 749.34 288.25 73.18 483.65 689.24 527.73 144.58 735.15 662.39 792.54 988.83 797.88 845.13 197.64 574.53 730.69 713.62 716.84 911.13 177.94 119.22 270.08 751.61 837.76 301.07 462.37 150.20 524.89 481.31 735.98 498.46 432.02 465.50 575.38 570.07 430.90 379.21 420.74 784.09 926.92 579.85 811.92 571.22 897.11 776.09 284.68 646.73 1023.82 111.23 351.05 613.26 712.38 334.68 732.07 392.93 973.50 399.04 309.65 209.16 187.79 402.61 248.02 700.88 770.71 628.34 447.13 798.18 404.53 597.08 868.19 1001.74 508.93
865.51 938.63 0.00 703.81 698.71 210.97 631.04 721.55 946.35 487.40 183.50 349.14 102.76 471.66 677.94 646.45 575.55 1089.52 38.34 165.22 954.05 306.99 904.43 233.03 684.21 658.90 724.21 469.88 318.66 380.07 691.09 988.71 981.43 529.61 859.58 997.81 280.43 779.77 194.17 464.39 693.73 251.46 1108.58 889.30 280.08 263.01 907.96 453.62 855.15 1025.78 766.92 227.73 772.10 812.38 758.55 961.23 838.35 881.93 888.82 544.01 698.18 1115.99 515.03 454.08 650.17 711.20 690.17 447.17 961.80 994.41 535.80 446.17 577.22 643.02 929.71 340.09 192.52 910.03 1075.40 786.00 630.71 603.95 514.21 1160.13 132.07 932.66 818.79 1082.22 839.69 603.69 716.73 275.75 572.38 741.19 656.66 236.64 560.22 473.89 860.72 116.39 820.65
422.55 453.66 703.81 0.00 293.85 507.63 592.05 292.86 836.92 285.77 643.59 494.59 601.05 433.73 819.09 358.70 133.92 782.62 699.49 799.39 676.35 490.21 646.94 546.77 614.46 731.02 313.25 526.45 667.34 486.46 287.08 454.49 827.99 552.16 308.04 430.21 509.63 670.03 620.54 829.92 365.19 555.64 571.71 314.10 463.53 446.46 851.72 758.20 456.07 504.01 377.52 548.48 836.59 499.12 305.17 393.63 546.44 590.02 487.27 447.05 472.70 790.59 195.64 324.49 438.54 153.97 127.66 625.87 963.43 732.62 718.58 393.49 788.13 337.20 274.03 370.58 801.54 342.43 676.14 206.56 279.69 315.01 650.97 763.65 706.87 707.17 422.53 601.97 345.39 262.77 246.85 459.20 338.02 263.35 390.25 502.21 212.95 229.92 924.91 743.15 260.22
582.27 658.00 698.71 293.85 0.00 573.98 737.15 454.63 1033.96 448.80 682.20 399.94 662.91 623.20 896.29 139.59 310.79 921.42 695.06 863.93 862.09 499.52 838.01 534.84 745.43 869.73 119.14 603.65 712.41 359.85 475.66 684.15 988.33 701.50 290.40 569.90 526.08 781.07 640.62 902.29 153.50 616.94 699.08 234.04 459.84 452.02 1019.44 864.29 564.93 683.59 558.65 605.17 1012.68 680.25 205.52 522.15 777.83 750.36 240.19 589.21 633.03 934.80 268.01 386.35 577.25 288.85 312.37 740.50 1180.15 944.44 843.21 519.43 931.71 118.09 397.94 442.95 840.15 546.77 837.91 87.29 68.00 498.37 764.16 938.32 635.50 842.72 622.77 831.63 480.27 480.40 485.09 461.76 126.33 96.93 521.22 571.89 446.95 291.78 1084.60 805.01 252.69
803.08 837.94 210.97 507.63 573.98 0.00 590.89 642.84 998.94 492.49 336.03 174.04 208.23 480.32 711.47 521.72 451.21 1056.82 203.52 291.76 905.29 230.96 864.28 39.14 656.43 731.59 666.50 418.83 389.91 231.29 617.48 892.74 1024.13 516.68 719.69 883.29 240.28 751.99 212.41 609.74 569.00 125.34 1008.44 740.52 131.30 138.67 1036.21 479.61 754.46 950.75 699.05 236.39 852.49 737.03 649.44 847.25 829.59 815.68 748.67 462.93 658.03 1038.97 425.15 385.02 581.62 567.91 578.42 492.07 995.33 966.63 607.05 370.14 578.38 518.29 781.66 296.26 396.95 847.05 979.58 624.50 505.98 503.26 579.34 1084.10 302.16 851.58 770.35 1006.19 743.72 510.85 620.76 151.41 447.65 614.00 580.63 178.77 535.07 348.15 987.37 307.56 671.87
491.87 590.80 631.04 592.05 737.15 590.89 0.00 439.46 438.12 306.28 575.10 672.95 576.59 171.32 353.72 811.08 567.05 616.21 665.97 745.50 438.30 377.17 273.39 630.03 65.54 246.69 856.29 296.20 385.38 633.23 429.93 587.77 465.25 198.35 794.76 688.47 350.61 161.10 482.56 417.96 806.68 521.38 693.79 834.71 612.21 595.14 445.32 393.76 468.94 593.81 412.35 415.25 329.22 325.83 685.77 640.72 258.98 255.60 952.17 243.67 194.88 583.03 545.36 446.53 159.90 460.61 510.73 256.87 470.29 375.74 375.43 344.58 401.71 816.88 654.94 528.40 631.88 620.19 576.03 759.11 802.37 348.03 270.29 671.61 737.43 429.65 383.70 678.43 464.09 342.28 420.73 587.59 796.03 741.50 215.93 477.66 379.10 463.30 450.86 686.04 769.66
259.86 294.03 721.55 292.86 454.63 642.84 439.46 0.00 641.51 239.22 665.61 589.56 681.51 291.22 657.67 558.24 315.01 489.76 716.14 857.88 423.31 467.68 522.78 618.10 373.92 555.07 573.77 465.81 565.96 529.52 34.04 317.99 601.07 409.65 434.45 342.58 441.12 469.48 573.07 735.51 579.88 611.89 436.38 534.17 525.94 508.87 611.94 653.19 216.62 374.52 124.48 497.40 635.75 246.08 387.35 312.94 422.28 406.10 686.52 303.36 271.86 497.73 345.23 348.49 304.07 165.78 215.90 568.35 909.75 563.35 549.89 330.19 617.20 536.74 241.48 408.60 823.56 261.74 383.28 466.56 494.38 139.58 444.75 509.56 810.89 454.13 168.14 462.93 167.49 223.43 46.01 496.13 543.13 477.95 248.04 560.05 166.40 322.22 726.68 776.55 465.52
657.79 769.18 946.35 836.92 1033.96 998.94 438.12 641.51 0.00 719.86 824.96 984.01 843.59 585.13 410.61 1131.67 880.17 507.52 942.03 988.44 444.24 804.29 256.23 988.36 372.58 360.70 1146.97 580.11 627.69 940.85 607.47 702.15 285.53 482.26 984.87 789.41 788.73 277.02 889.63 660.24 1164.79 924.07 841.84 1093.10 966.26 958.17 58.49 664.66 609.17 779.22 517.03 781.21 237.83 514.30 960.78 798.20 290.48 334.06 1185.42 579.88 479.91 509.23 891.07 763.23 471.75 786.83 820.42 555.74 361.30 209.72 505.19 687.39 561.70 1110.17 812.57 791.83 880.80 794.13 577.78 990.60 1101.96 644.84 432.14 601.13 1023.69 412.25 544.34 682.33 649.15 640.22 647.70 965.44 1125.73 1024.17 512.74 883.22 697.34 857.80 158.47 903.61 1032.69
378.11 457.36 487.40 285.77 448.80 492.49 306.28 239.22 719.86 0.00 459.46 437.48 478.09 202.41 588.07 504.80 295.87 710.58 525.74 618.66 539.94 261.53 541.32 468.29 371.82 502.25 567.94 295.43 415.97 429.85 205.18 501.31 681.51 275.99 525.67 572.46 288.09 467.38 406.98 622.11 548.32 393.02 621.18 578.01 376.13 366.91 661.37 519.53 373.88 559.32 295.62 340.21 563.88 382.34 441.46 527.08 440.82 443.54 645.89 162.12 251.39 660.84 239.08 164.02 272.03 257.08 207.40 432.28 776.57 627.00 475.29 122.35 556.81 510.60 451.47 222.56 617.41 500.96 604.10 492.33 499.04 122.68 375.32 730.38 619.47 550.77 331.39 597.70 352.29 116.29 229.33 379.65 489.75 540.42 243.77 362.02 72.82 157.02 639.14 603.79 509.36
765.40 865.87 183.50 643.59 682.20 336.03 575.10 665.61 824.96 459.46 0.00 406.74 127.80 431.48 556.55 629.94 585.18 906.02 205.62 223.74 858.16 197.93 817.46 324.45 597.57 538.95 774.72 360.59 197.27 423.65 633.26 884.28 977.00 408.22 865.62 912.74 224.49 676.40 141.68 400.25 677.22 228.75 949.29 867.18 323.66 306.59 883.45 270.12 782.39 887.43 692.26 187.55 665.97 701.08 756.63 936.65 716.96 760.54 872.31 415.80 632.04 968.28 495.73 363.65 534.49 652.80 666.86 325.78 840.41 903.14 414.41 337.11 406.03 626.51 839.28 338.17 157.95 885.45 928.16 687.45 614.20 531.19 392.82 999.63 264.56 804.45 738.62 973.16 680.40 505.72 673.46 319.33 555.87 744.24 540.55 186.72 532.28 413.67 884.09 148.99 840.52
759.50 813.77 349.14 494.59 399.94 174.04 672.95 589.56 984.01 437.48 406.74 0.00 321.33 581.67 803.03 347.68 412.69 1060.92 310.80 465.80 944.79 320.51 907.35 134.90 725.97 701.85 492.46 543.15 520.76 95.95 555.52 764.06 1050.07 564.78 590.23 781.46 322.34 821.53 281.22 736.85 394.96 255.78 916.53 608.85 117.22 100.15 999.83 610.05 726.12 864.53 645.96 367.24 863.26 699.71 601.35 796.42 848.13 812.10 590.05 509.32 688.87 1061.36 386.63 328.91 600.16 466.08 516.20 543.01 1067.64 1013.78 695.25 429.19 745.20 344.25 692.61 214.92 506.09 745.22 954.44 450.46 331.94 525.22 590.11 1080.72 362.05 897.97 708.40 911.54 657.50 516.81 579.67 112.89 273.61 496.87 602.88 220.02 423.16 326.15 1046.99 434.10 615.86
804.92 902.25 102.76 601.05 662.91 208.23 576.59 681.51 843.59 478.09 127.80 321.33 0.00 428.04 575.18 625.78 544.92 1033.82 98.44 218.51 910.43 233.13 836.09 247.37 616.20 557.58 770.56 378.79 215.90 318.19 647.47 904.20 992.25 426.85 806.59 946.57 241.66 697.58 109.71 497.91 673.06 156.09 1010.28 827.42 218.20 235.27 902.08 367.78 756.30 970.55 664.16 184.11 684.60 739.20 736.34 907.22 735.59 779.17 853.79 476.30 659.41 1046.37 453.19 398.85 594.99 649.18 626.65 344.41 859.04 921.77 433.04 372.31 503.56 622.35 830.26 344.14 285.75 858.79 972.64 722.65 610.04 567.57 411.45 1086.27 180.10 864.95 757.82 1008.36 796.28 502.85 687.70 248.01 551.71 713.45 582.80 192.69 550.91 371.13 884.67 170.22 758.77
421.95 570.81 471.66 433.73 623.20 480.32 171.32 291.22 585.13 202.41 431.48 581.67 428.04 0.00 430.68 682.64 395.73 660.30 494.65 628.72 482.39 303.13 435.38 519.46 212.55 391.40 742.34 207.89 276.37 541.04 325.26 566.15 627.24 118.43 679.76 633.80 276.57 308.11 334.69 492.10 635.36 421.76 667.45 670.70 498.59 481.52 592.33 361.97 435.17 626.45 343.03 243.93 490.91 385.73 598.28 604.16 405.99 425.10 827.06 72.35 257.58 644.33 413.48 275.21 191.04 413.90 364.22 328.37 641.61 522.75 317.73 180.13 354.40 667.42 532.70 389.20 589.43 552.96 628.19 619.23 643.97 236.13 217.76 695.20 580.95 461.00 430.46 708.85 458.71 170.96 337.23 468.78 638.39 676.02 191.73 393.00 229.64 331.42 622.18 543.89 665.61
725.79 896.98 677.94 819.09 896.29 711.47 353.72 657.67 410.61 588.07 556.55 803.03 575.18 430.68 0.00 964.16 726.80 851.50 673.62 677.16 699.97 516.82 445.35 700.89 288.18 184.67 1015.43 292.64 359.28 808.17 671.89 829.96 637.21 312.25 1010.83 978.98 543.38 377.71 610.04 327.76 958.77 641.27 968.71 1031.45 754.25 737.18 469.10 287.00 745.86 927.01 695.10 512.80 172.78 604.31 989.05 931.23 481.62 522.80 1131.38 503.03 514.54 805.67 686.57 635.46 477.15 806.19 794.90 319.28 283.86 497.73 142.14 502.38 151.09 942.66 899.15 696.17 575.60 895.23 806.50 892.37 873.27 644.49 212.92 924.77 755.28 646.26 601.44 916.34 784.31 556.32 703.68 749.92 931.60 949.16 512.39 617.31 660.32 604.51 338.78 601.25 1022.34
677.42 797.59 646.45 358.70 139.59 521.72 811.08 558.24 1131.67 504.80 629.94 347.68 625.78 682.64 964.16 0.00 402.91 1029.60 658.48 811.67 913.47 492.43 977.60 482.58 861.25 977.35 179.19 671.52 667.93 307.59 524.20 813.19 1091.23 769.37 341.55 709.49 518.99 916.36 628.90 949.94 47.28 564.68 838.67 344.09 407.58 399.76 1142.05 819.81 684.94 823.18 614.64 564.92 1068.68 736.24 345.11 661.74 905.14 884.90 317.19 637.02 731.19 1037.57 325.18 437.31 684.87 428.44 382.53 796.44 1218.26 1072.59 885.07 570.39 921.72 21.50 537.53 500.12 787.89 686.36 923.12 207.30 90.89 561.34 832.03 1049.40 686.06 944.29 665.53 941.12 619.86 585.78 555.25 409.50 74.07 205.53 660.81 519.63 459.28 406.42 1143.94 762.84 293.73
422.10 528.44 575.55 133.92 310.79 451.21 567.05 315.01 880.17 295.87 585.18 412.69 544.92 395.73 726.80 402.91 0.00 773.99 578.67 740.77 722.47 387.25 684.22 421.77 547.61 650.94 403.09 485.66 564.38 419.97 336.04 544.53 808.43 514.16 284.03 457.82 406.67 643.17 529.69 753.27 378.58 485.84 609.54 338.99 329.61 312.54 879.82 716.26 413.63 547.68 419.03 485.76 766.78 540.11 273.84 410.07 598.59 601.31 535.76 323.38 409.16 799.20 118.99 221.53 423.46 149.23 127.21 609.01 1010.66 784.77 584.66 354.61 673.71 381.41 371.28 293.93 743.13 428.37 698.29 223.50 378.79 235.33 600.85 787.02 614.56 703.10 472.44 692.01 340.65 341.06 299.93 325.28 373.86 280.29 367.43 432.41 223.05 173.79 910.83 678.84 331.85
419.43 413.91 1089.52 782.62 921.42 1056.82 616.21 489.76 507.52 710.58 906.02 1060.92 1033.82 660.30 851.50 1029.60 773.99 0.00 1111.64 1129.76 177.91 833.45 413.85 1078.56 569.35 690.58 1040.56 802.57 892.77 1000.88 505.40 384.46 221.99 744.52 850.16 553.67 860.01 473.79 991.96 987.98 1059.83 987.37 400.89 931.28 998.23 981.16 566.01 926.68 395.31 447.33 414.96 904.23 713.36 381.60 822.96 506.95 386.35 374.55 1078.24 593.89 482.85 62.30 816.59 762.02 537.12 632.57 682.69 820.82 868.82 387.99 802.36 712.10 891.41 1008.10 630.54 876.01 1063.97 525.14 106.48 872.95 974.33 610.75 697.22 93.61 1170.58 205.24 468.06 236.98 441.15 606.85 535.77 985.89 1023.66 918.44 545.76 933.94 637.76 811.98 665.99 1055.01 880.91
901.32 954.27 38.34 699.49 695.06 203.52 665.97 716.14 942.03 525.74 205.62 310.80 98.44 494.65 673.62 658.48 578.67 1111.64 0.00 203.56 977.04 331.57 930.03 194.69 698.61 656.02 762.55 434.20 314.34 383.19 682.10 978.23 1019.77 525.29 862.70 1017.33 318.77 794.17 208.15 426.05 704.80 241.46 1078.69 892.42 283.20 266.13 946.30 466.22 852.70 1016.83 762.60 266.07 763.88 837.64 796.89 974.71 834.03 877.61 885.17 567.00 736.52 1138.98 551.63 492.42 685.69 701.95 651.83 442.85 957.48 1008.81 531.48 470.75 602.00 655.05 895.90 378.43 195.29 948.37 1071.08 761.26 627.06 642.29 509.89 1184.71 98.64 955.65 856.26 1106.80 809.80 601.29 706.25 278.87 584.41 744.31 681.24 259.19 549.74 469.57 899.06 145.83 823.77
989.14 1076.02 165.22 799.39 863.93 291.76 745.50 857.88 988.44 618.66 223.74 465.80 218.51 628.72 677.16 811.67 740.77 1129.76 203.56 0.00 1081.90 421.67 980.94 330.90 761.05 741.54 889.43 580.22 421.01 523.05 823.84 1100.84 1146.65 631.96 997.19 1116.05 420.26 856.61 294.03 504.07 858.95 325.82 1173.03 1032.28 423.06 428.23 1046.93 417.97 974.81 1111.17 882.67 392.95 829.45 924.82 888.20 1090.88 880.44 924.02 1040.43 639.54 828.14 1191.22 644.68 583.73 758.23 818.91 784.02 504.38 961.02 1047.39 589.24 560.85 545.66 808.24 1028.09 469.74 129.37 1039.68 1151.90 911.19 795.93 741.34 556.30 1223.37 295.88 1028.19 950.05 1196.90 904.14 721.36 847.99 440.97 737.60 905.76 764.29 379.25 691.48 589.64 935.86 84.83 963.63
389.50 345.33 954.05 676.35 862.09 905.29 438.30 423.31 444.24 539.94 858.16 944.79 910.43 482.39 699.97 913.47 722.47 177.91 977.04 1081.90 0.00 699.75 285.09 944.43 414.68 539.05 957.33 679.09 740.93 884.75 389.27 272.15 318.40 592.99 696.66 489.91 726.31 322.26 817.08 836.14 946.59 853.67 424.62 813.13 868.60 851.53 447.00 748.77 384.63 429.44 383.36 726.32 590.86 261.76 742.58 495.53 221.24 233.62 965.93 442.36 392.71 161.94 700.46 645.22 359.21 573.24 602.22 668.98 792.18 234.52 650.52 560.57 739.57 891.97 572.67 756.21 994.04 454.29 145.80 821.79 893.86 529.06 545.38 233.31 1050.49 53.71 370.04 287.69 381.82 479.35 429.50 838.79 952.19 861.44 415.24 800.24 521.63 696.96 593.63 1007.15 744.48
620.47 710.40 306.99 490.21 499.52 230.96 377.17 467.68 804.29 261.53 197.93 320.51 233.13 303.13 516.82 492.43 387.25 833.45 331.57 421.67 699.75 0.00 650.56 270.10 442.71 554.57 595.87 224.18 212.89 309.18 435.33 746.79 832.07 322.03 671.28 770.25 26.56 538.27 158.51 492.14 539.71 153.92 802.09 669.25 237.43 220.36 822.49 364.77 617.91 737.42 525.77 105.65 657.84 506.07 597.81 773.28 601.94 613.91 739.71 270.87 444.31 824.98 312.78 165.72 389.56 454.87 468.93 341.40 800.68 752.91 430.03 139.18 485.58 513.93 641.35 179.35 355.88 729.42 781.19 489.52 567.52 384.21 384.69 853.14 413.23 646.04 540.69 775.23 563.69 307.79 475.53 233.10 537.04 546.31 349.67 100.49 334.35 260.29 828.03 346.92 654.92
499.17 604.06 904.43 646.94 838.01 864.28 273.39 522.78 256.23 541.32 817.46 907.35 836.09 435.38 445.35 977.60 684.22 413.85 930.03 980.94 285.09 650.56 0.00 903.42 253.99 374.46 957.15 518.40 620.19 838.90 488.74 557.24 191.86 429.16 829.03 665.39 624.00 158.43 755.95 691.35 991.51 794.77 632.51 944.01 849.40 835.05 204.78 657.16 451.48 522.99 421.89 679.31 356.80 302.99 842.05 642.92 100.50 122.75 1078.20 425.88 289.93 415.56 664.74 628.74 307.19 638.19 625.12 530.26 507.09 106.43 522.34 557.57 540.34 956.10 710.79 742.73 873.30 629.15 361.15 800.62 906.01 448.89 424.64 479.42 998.47 231.38 360.71 501.46 542.50 444.27 515.78 822.31 952.17 842.36 316.79 751.05 532.78 698.34 378.89 896.11 876.85
795.98 822.85 233.03 546.77 534.84 39.14 630.03 618.10 988.36 468.29 324.45 134.90 247.37 519.46 700.89 482.58 421.77 1078.56 194.69 330.90 944.43 270.10 903.42 0.00 672.66 710.87 627.36 408.25 429.05 192.15 631.55 863.30 1063.27 506.10 680.55 844.15 279.42 768.22 251.55 620.74 529.86 164.48 983.17 701.38 92.16 109.23 1008.91 518.75 759.60 917.58 704.19 275.53 827.46 708.79 610.30 817.81 841.06 828.56 709.53 502.07 697.17 1016.26 395.71 345.88 620.76 528.77 548.98 452.93 984.75 982.86 630.07 409.28 617.52 479.15 788.81 264.93 389.98 807.91 983.91 585.36 466.84 508.40 568.76 1100.54 265.19 890.72 731.21 1010.78 714.28 471.71 591.32 121.97 408.51 587.41 599.19 217.91 505.63 375.23 1026.51 299.20 632.73
437.61 608.80 684.21 614.46 745.43 656.43 65.54 373.92 372.58 371.82 597.57 725.97 616.20 212.55 288.18 861.25 547.61 569.35 698.61 761.05 414.68 442.71 253.99 672.66 0.00 181.15 864.57 264.41 400.30 630.02 407.96 578.07 445.85 263.89 806.11 690.80 416.15 95.56 547.24 483.50 847.91 586.92 683.11 851.43 650.47 633.40 379.78 437.27 457.68 642.11 424.01 456.48 393.09 316.13 751.31 643.05 193.44 237.02 985.62 224.23 226.36 517.49 603.72 427.09 219.07 526.15 569.02 322.41 535.83 310.20 309.89 353.49 398.94 840.84 615.40 541.08 653.41 607.05 557.45 767.39 813.43 356.31 204.75 639.41 793.50 364.11 413.52 634.19 517.84 351.69 419.93 620.66 790.27 749.78 224.21 543.20 434.44 521.66 446.76 676.22 835.20
618.76 718.47 658.90 731.02 869.73 731.59 246.69 555.07 360.70 502.25 538.95 701.85 557.58 391.40 184.67 977.35 650.94 690.58 656.02 741.54 539.05 554.57 374.46 710.87 181.15 0.00 988.87 394.79 341.68 718.76 562.51 645.29 566.32 297.73 930.41 840.55 565.90 216.79 544.47 389.88 1001.70 631.54 797.76 975.73 618.77 601.70 364.90 394.83 608.83 788.32 544.93 495.20 211.94 497.28 886.71 803.97 374.59 338.13 1109.92 405.38 390.03 672.73 692.46 608.24 292.48 702.33 652.65 257.94 365.79 478.91 252.52 534.64 279.03 955.85 796.55 656.39 632.95 752.77 658.56 874.44 937.73 480.61 284.60 772.36 737.68 485.34 527.18 755.42 642.14 475.99 601.08 614.44 927.39 874.08 348.51 644.27 518.07 610.40 345.14 687.94 944.82
621.81 697.84 724.21 313.25 119.14 666.50 856.29 573.77 1146.97 567.94 774.72 492.46 770.56 742.34 1015.43 179.19 403.09 1040.56 762.55 889.43 957.33 595.87 957.15 627.36 864.57 988.87 0.00 722.79 706.05 452.37 594.80 735.78 1107.47 820.64 260.67 553.26 622.43 900.21 732.50 953.30 131.91 667.60 706.04 182.50 552.36 544.54 1138.58 857.93 657.23 695.66 677.79 701.52 1131.82 752.39 324.66 601.01 859.69 869.50 183.15 708.35 729.48 1027.10 351.65 505.49 696.39 407.99 431.51 834.56 1276.68 1045.87 923.19 607.23 993.71 182.89 509.53 518.46 916.73 633.77 934.76 179.59 160.52 590.67 859.04 1030.62 754.64 960.44 644.11 883.26 599.41 576.02 554.74 554.28 218.85 122.80 640.36 614.17 519.22 410.92 1123.95 840.60 251.15
556.78 666.29 469.88 526.45 603.65 418.83 296.20 465.81 580.11 295.43 360.59 543.15 378.79 207.89 292.64 671.52 485.66 802.57 434.20 580.22 679.09 224.18 518.40 408.25 264.41 394.79 722.79 0.00 167.89 533.36 453.07 677.96 710.26 97.85 769.69 768.55 250.74 359.97 317.40 341.59 666.13 378.10 758.70 763.42 461.61 444.54 620.75 273.74 572.78 756.47 480.64 242.15 433.66 450.67 696.41 736.30 457.85 501.43 838.74 238.00 319.72 745.93 393.93 342.82 336.87 552.51 502.83 136.85 576.50 574.61 253.85 209.74 328.06 650.02 707.29 403.53 450.85 685.10 720.12 674.05 580.63 396.36 160.51 784.31 532.84 626.65 523.18 825.44 574.47 263.68 474.37 457.28 638.96 700.58 280.84 324.67 368.25 311.87 631.42 509.58 758.33
658.17 767.97 318.66 667.34 712.41 389.91 385.38 565.96 627.69 415.97 197.27 520.76 215.90 276.37 359.28 667.93 564.38 892.77 314.34 421.01 740.93 212.89 620.19 429.05 400.30 341.68 706.05 167.89 0.00 458.37 556.58 727.15 800.36 210.95 768.66 865.45 232.61 481.68 261.94 282.01 701.05 296.38 863.53 808.61 434.10 420.61 686.18 151.88 609.55 849.94 585.73 153.52 468.70 618.56 659.67 817.70 519.69 563.27 889.20 309.27 487.61 830.47 519.48 342.85 427.96 605.73 590.56 128.51 643.14 705.87 217.14 293.62 287.66 646.43 733.79 392.24 355.22 794.51 838.49 702.41 693.74 473.05 195.55 937.49 396.00 697.92 670.50 874.63 642.91 431.57 519.95 407.87 637.80 759.20 434.02 302.59 488.79 437.42 686.82 346.26 743.56
663.55 749.34 380.07 486.46 359.85 231.29 633.23 529.52 940.85 429.85 423.65 95.95 318.19 541.04 808.17 307.59 419.97 1000.88 383.19 523.05 884.75 309.18 838.90 192.15 630.02 718.76 452.37 533.36 458.37 0.00 495.48 765.43 954.12 583.99 550.14 685.51 282.62 725.58 327.62 740.38 354.87 290.36 830.44 568.76 99.99 117.06 970.57 610.25 666.08 768.58 585.92 304.85 912.09 707.52 565.37 700.47 759.73 716.15 549.96 468.69 635.03 976.81 300.98 265.83 587.38 370.13 420.25 586.88 1084.55 940.22 675.51 398.91 705.99 304.16 596.66 269.53 566.03 649.27 894.40 423.15 291.85 465.18 653.92 1020.68 391.11 857.34 612.45 912.91 561.55 453.73 519.63 119.35 233.52 453.79 581.21 236.93 363.12 293.21 1056.14 480.95 588.55
225.82 288.25 691.09 287.08 475.66 617.48 429.93 34.04 607.47 205.18 633.26 555.52 647.47 325.26 671.89 524.20 336.04 505.40 682.10 823.84 389.27 435.33 488.74 631.55 407.96 562.51 594.80 453.07 556.58 495.48 0.00 312.21 567.03 437.79 428.67 376.62 461.89 501.52 579.13 727.06 557.32 579.44 432.08 500.13 539.39 522.32 645.98 681.33 182.58 370.22 90.44 463.36 629.97 212.04 353.31 337.98 388.24 392.28 658.53 303.57 266.08 513.37 311.19 348.18 270.03 186.81 212.95 582.57 890.05 557.57 564.11 296.15 651.24 502.70 275.52 374.56 791.21 295.78 398.92 432.52 504.59 139.79 458.97 525.20 780.74 420.09 174.28 428.89 163.19 189.39 40.23 525.34 562.92 472.17 214.00 526.01 132.36 338.67 732.82 744.94 431.48
144.20 73.18 988.71 454.49 684.15 892.74 587.77 317.99 702.15 501.31 884.28 764.06 904.20 566.15 829.96 813.19 544.53 384.46 978.23 1100.84 272.15 746.79 557.24 863.30 578.07 645.29 735.78 677.96 727.15 765.43 312.21 0.00 519.90 654.67 600.91 217.76 759.11 594.41 865.72 984.17 816.23 866.01 152.47 624.12 771.14 754.07 643.66 879.03 185.43 157.29 240.04 766.75 857.23 261.94 533.28 223.38 485.76 442.18 693.78 493.80 392.89 403.82 591.47 601.85 453.15 395.30 439.09 779.43 1000.10 506.67 801.74 608.33 823.93 791.69 357.86 670.69 1042.23 182.14 289.37 661.05 730.73 407.86 705.27 331.25 1046.68 325.86 248.82 147.48 203.88 475.79 271.98 757.09 789.06 643.21 397.12 822.14 428.49 634.80 807.36 1016.01 555.47
606.45 483.65 981.43 827.99 988.33 1024.13 465.25 601.07 285.53 681.51 977.00 1050.07 992.25 627.24 637.21 1091.23 808.43 221.99 1019.77 1146.65 318.40 832.07 191.86 1063.27 445.85 566.32 1107.47 710.26 800.36 954.12 567.03 519.90 0.00 621.02 934.46 628.23 815.86 350.29 947.81 813.52 1117.48 954.32 622.88 1050.93 974.37 970.37 344.02 838.21 601.37 582.59 509.23 871.17 523.36 418.21 920.34 633.85 281.55 237.97 1156.75 561.20 430.12 223.70 856.60 764.06 495.81 753.84 740.34 710.22 646.83 250.98 710.83 692.89 732.20 1069.73 768.33 878.05 1054.35 594.88 293.59 981.67 1031.98 640.75 605.69 315.60 1113.50 305.05 467.99 435.48 641.35 636.13 607.26 957.63 1059.45 1034.22 508.65 932.56 699.39 810.02 444.00 1077.16 982.28
540.38 689.24 529.61 552.16 701.50 516.68 198.35 409.65 482.26 275.99 408.22 564.78 426.85 118.43 312.25 769.37 514.16 744.52 525.29 631.96 592.99 322.03 429.16 506.10 263.89 297.73 820.64 97.85 210.95 583.99 437.79 654.67 621.02 0.00 798.19 752.23 322.37 270.73 415.25 373.67 753.79 454.39 785.88 789.13 484.00 501.07 522.90 243.54 553.60 682.82 461.46 340.00 372.48 499.29 716.71 722.59 423.47 415.93 921.88 190.78 376.01 726.67 491.78 374.34 309.47 493.94 482.65 209.94 596.11 532.85 199.30 241.26 288.35 747.87 651.13 419.86 532.14 671.39 724.92 685.50 678.48 354.56 99.33 813.63 606.95 539.28 461.30 801.80 577.14 289.39 455.66 513.81 736.81 742.29 310.16 400.96 348.07 409.72 595.80 557.21 784.04
509.30 527.73 859.58 308.04 290.40 719.69 794.76 434.45 984.87 525.67 865.62 590.23 806.59 679.76 1010.83 341.55 284.03 850.16 862.70 997.19 696.66 671.28 829.03 680.55 806.11 930.41 260.67 769.69 768.66 550.14 428.67 600.91 934.46 798.19 0.00 473.37 690.70 851.04 797.23 1021.22 326.34 732.33 602.55 116.47 588.39 596.57 1033.81 920.54 546.48 587.06 467.84 702.29 978.18 589.44 108.99 425.62 789.83 769.68 274.87 607.41 614.29 858.60 403.02 505.56 637.93 334.15 318.27 816.48 1201.07 905.78 868.69 638.64 957.74 327.68 301.41 527.45 1022.19 460.13 776.32 203.11 258.29 477.78 879.20 902.60 862.18 750.37 561.50 736.89 409.01 542.47 388.44 609.31 316.62 200.30 581.90 678.90 452.85 457.82 1120.04 912.36 47.82
253.19 144.58 997.81 430.21 569.90 883.29 688.47 342.58 789.41 572.46 912.74 781.46 946.57 633.80 978.98 709.49 457.82 553.67 1017.33 1116.05 489.91 770.25 665.39 844.15 690.80 840.55 553.26 768.55 865.45 685.51 376.62 217.76 628.23 752.23 473.37 0.00 783.70 760.33 836.86 1044.30 685.17 808.47 152.78 467.46 751.99 756.33 847.90 914.17 272.74 142.40 328.92 839.98 932.26 397.46 364.38 47.75 611.50 567.92 674.60 563.17 528.41 493.47 511.55 615.10 548.07 315.38 365.50 848.80 1071.50 679.54 892.47 663.94 959.78 687.99 206.07 657.72 1070.69 87.78 448.22 515.27 637.90 479.26 787.33 537.51 1022.30 511.09 391.65 353.74 232.34 504.87 345.50 743.59 696.23 572.06 492.04 809.17 499.64 583.84 947.88 1031.22 448.27
647.03 735.15 280.43 509.63 526.08 240.28 350.61 441.12 788.73 288.09 224.49 322.34 241.66 276.57 543.38 518.99 406.67 860.01 318.77 420.26 726.31 26.56 624.00 279.42 416.15 565.90 622.43 250.74 232.61 282.62 461.89 759.11 815.86 322.37 690.70 783.70 0.00 511.71 131.95 465.58 566.27 170.77 828.65 695.81 261.60 244.53 795.93 384.49 644.47 756.84 552.33 79.09 679.83 532.63 596.25 754.06 607.18 606.21 766.27 297.43 417.75 843.96 339.34 185.14 398.68 481.43 495.49 361.12 820.90 726.35 449.75 165.74 512.14 529.68 660.77 177.79 382.44 702.86 807.75 516.08 574.47 410.77 411.25 879.70 386.82 672.60 567.25 801.79 583.11 334.35 487.13 236.98 516.14 572.87 376.23 127.05 360.91 279.71 801.47 335.43 680.14
533.17 662.39 779.77 670.03 781.07 751.99 161.10 469.48 277.02 467.38 676.40 821.53 697.58 308.11 377.71 916.36 643.17 473.79 794.17 856.61 322.26 538.27 158.43 768.22 95.56 216.79 900.21 359.97 481.68 725.58 501.52 594.41 350.29 270.73 851.04 760.33 511.71 0.00 642.80 549.53 934.57 682.48 721.74 896.89 746.03 728.96 284.22 514.27 510.81 658.78 483.94 552.04 344.59 367.70 825.72 731.89 184.67 215.64 1021.26 319.79 236.75 455.94 650.81 522.65 231.49 621.71 591.66 417.97 530.35 262.12 363.91 410.37 452.96 894.86 710.96 629.08 748.97 691.78 465.56 830.70 849.07 419.62 300.31 555.57 877.68 268.55 451.28 538.63 527.99 415.00 462.60 716.22 885.83 785.52 287.52 638.76 457.08 617.22 351.20 771.78 883.83
756.64 792.54 194.17 620.54 640.62 212.41 482.56 573.07 889.63 406.98 141.68 281.22 109.71 334.69 610.04 628.90 529.69 991.96 208.15 294.03 817.08 158.51 755.95 251.55 547.24 544.47 732.50 317.40 261.94 327.62 579.13 865.72 947.81 415.25 797.23 836.86 131.95 642.80 0.00 521.76 658.12 87.07 960.60 827.76 227.63 238.20 909.37 411.80 709.06 888.79 653.65 115.77 730.64 664.58 688.24 800.28 739.13 738.16 830.73 407.04 549.70 975.91 444.72 317.09 525.73 580.16 557.63 339.85 860.48 857.44 479.08 297.69 508.04 620.86 792.72 269.78 293.06 749.08 939.70 648.03 572.62 457.86 457.49 1011.65 289.81 795.69 699.20 933.74 715.06 466.30 619.08 250.94 554.83 667.45 508.18 118.33 479.80 411.66 774.96 209.20 768.20
839.97 988.83 464.39 829.92 902.29 609.74 417.96 735.51 660.24 622.11 400.25 736.85 497.91 492.10 327.76 949.94 753.27 987.98 426.05 504.07 836.14 492.14 691.35 620.74 483.50 389.88 953.30 341.59 282.01 740.38 727.06 984.17 813.52 373.67 1021.22 1044.30 465.58 549.53 521.76 0.00 983.06 484.40 1012.19 1023.06 661.16 644.09 683.25 130.13 846.76 978.05 754.62 435.53 422.41 725.42 941.68 1035.79 614.90 658.48 1097.16 490.37 612.84 925.68 634.28 619.56 577.86 753.07 702.95 204.74 611.62 747.83 185.62 499.76 176.83 928.44 947.02 603.19 409.45 997.25 933.70 959.57 922.22 654.15 290.76 1040.50 485.28 806.47 801.66 1068.67 862.15 605.27 767.29 656.83 919.81 902.78 615.12 524.22 694.93 653.46 592.08 419.24 1025.57
672.03 797.88 693.73 365.19 153.50 569.00 806.68 579.88 1164.79 548.32 677.22 394.96 673.06 635.36 958.77 47.28 378.58 1059.83 704.80 858.95 946.59 539.71 991.51 529.86 847.91 1001.70 131.91 666.13 701.05 354.87 557.32 816.23 1117.48 753.79 326.34 685.17 566.27 934.57 658.12 983.06 0.00 610.58 837.95 296.81 454.86 445.83 1157.85 852.93 713.14 825.71 647.76 612.20 1099.79 766.65 359.02 675.65 911.63 879.51 269.91 671.23 764.31 1070.69 372.46 484.59 717.99 427.26 377.14 802.98 1242.63 1057.17 864.33 617.67 953.38 54.62 551.44 512.32 835.17 700.27 956.24 235.50 85.50 594.46 826.64 1066.66 733.34 974.70 712.81 935.73 618.68 584.73 549.86 456.78 121.35 238.65 674.72 557.15 492.40 391.30 1187.46 810.12 341.01
765.45 845.13 251.46 555.64 616.94 125.34 521.38 611.89 924.07 393.02 228.75 255.78 156.09 421.76 641.27 564.68 485.84 987.37 241.46 325.82 853.67 153.92 794.77 164.48 586.92 631.54 667.60 378.10 296.38 290.36 579.44 866.01 954.32 454.39 732.33 808.47 170.77 682.48 87.07 484.40 610.58 0.00 953.40 772.28 190.37 173.30 935.28 354.27 718.11 890.57 625.97 182.13 732.01 659.99 623.34 766.75 755.86 716.35 807.05 424.79 588.52 978.90 379.82 318.87 543.48 493.09 470.56 424.89 925.13 897.12 513.52 293.10 490.18 555.96 714.63 204.88 380.13 772.23 934.45 643.44 548.94 510.45 491.93 1007.06 336.19 799.96 694.61 929.15 684.51 461.71 603.59 186.04 490.61 629.77 503.59 53.43 447.08 370.26 862.03 296.27 707.23
245.50 197.64 1108.58 571.71 699.08 1008.44 693.79 436.38 841.84 621.18 949.29 916.53 1010.28 667.45 968.71 838.67 609.54 400.89 1078.69 1173.03 424.62 802.09 632.51 983.17 683.11 797.76 706.04 758.70 863.53 830.44 432.08 152.47 622.88 785.88 602.55 152.78 828.65 721.74 960.60 1012.19 837.95 953.40 0.00 620.24 891.01 873.94 796.13 1015.41 253.98 109.52 346.12 895.44 968.81 396.16 493.56 200.53 604.96 576.40 804.50 595.10 527.11 463.19 647.96 666.86 533.89 460.31 510.43 880.73 1124.56 632.12 826.57 662.91 915.62 817.17 301.14 780.85 1107.24 229.28 361.46 644.45 767.08 505.18 833.38 403.34 1171.14 453.19 375.89 219.57 268.89 588.50 391.85 876.96 825.41 687.87 477.86 902.58 548.36 730.02 934.43 1098.28 577.45
530.13 574.53 889.30 314.10 234.04 740.52 834.71 534.17 1093.10 578.01 867.18 608.85 827.42 670.70 1031.45 344.09 338.99 931.28 892.42 1032.28 813.13 669.25 944.01 701.38 851.43 975.73 182.50 763.42 808.61 568.76 500.13 624.12 1050.93 789.13 116.47 467.46 695.81 896.89 827.76 1023.06 296.81 772.28 620.24 0.00 609.22 626.29 1065.28 960.49 549.40 585.77 576.07 723.12 1094.65 688.16 148.94 424.33 849.57 852.29 238.61 662.37 660.14 939.25 457.98 560.52 683.25 374.10 395.78 893.99 1200.40 1022.25 923.65 668.35 1012.70 351.43 341.36 567.40 1025.13 475.53 824.80 179.73 302.04 574.32 859.18 922.79 869.54 866.84 631.91 771.60 525.48 499.74 504.91 639.03 335.24 236.52 627.22 718.85 505.19 469.84 1095.24 952.31 68.65
703.82 730.69 280.08 463.53 459.84 131.30 612.21 525.94 966.26 376.13 323.66 117.22 218.20 498.59 754.25 407.58 329.61 998.23 283.20 423.06 868.60 237.43 849.40 92.16 650.47 618.77 552.36 461.61 434.10 99.99 539.39 771.14 974.37 484.00 588.39 751.99 261.60 746.03 227.63 661.16 454.86 190.37 891.01 609.22 0.00 17.07 916.75 544.64 667.44 829.15 612.03 284.16 815.52 616.63 518.14 725.65 748.90 736.40 649.95 426.24 627.52 945.19 303.55 266.41 544.93 436.61 456.82 534.20 984.56 935.08 648.41 346.11 680.55 404.15 696.65 194.81 472.60 715.75 891.75 523.14 391.84 416.24 570.11 1008.38 319.09 814.89 680.52 918.62 622.12 454.31 499.16 29.81 333.51 495.25 548.34 136.94 413.47 283.07 961.89 380.96 540.57
686.75 713.62 263.01 446.46 452.02 138.67 595.14 508.87 958.17 366.91 306.59 100.15 235.27 481.52 737.18 399.76 312.54 981.16 266.13 428.23 851.53 220.36 835.05 109.23 633.40 601.70 544.54 444.54 420.61 117.06 522.32 754.07 970.37 501.07 596.57 756.33 244.53 728.96 238.20 644.09 445.83 173.30 873.94 626.29 17.07 0.00 899.68 527.57 681.25 812.08 612.76 267.09 798.45 599.56 533.59 708.58 765.97 753.47 642.13 409.17 618.30 962.26 286.48 249.34 527.86 453.68 439.75 517.13 967.49 927.07 631.34 329.04 663.48 391.21 683.82 177.74 455.53 732.82 874.68 534.97 384.02 430.05 572.52 991.31 302.02 797.82 663.45 901.55 605.05 437.24 482.09 12.74 325.69 478.18 533.92 119.87 396.40 272.85 946.84 376.71 557.64
703.95 716.84 907.96 851.72 1019.44 1036.21 445.32 611.94 58.49 661.37 883.45 999.83 902.08 592.33 469.10 1142.05 879.82 566.01 946.30 1046.93 447.00 822.49 204.78 1008.91 379.78 364.90 1138.58 620.75 686.18 970.57 645.98 643.66 344.02 522.90 1033.81 847.90 795.93 284.22 909.37 683.25 1157.85 935.28 796.13 1065.28 916.75 899.68 0.00 669.97 656.26 727.77 575.52 836.26 296.32 507.77 955.75 847.70 305.28 327.53 1243.91 582.62 470.97 567.72 869.52 704.74 463.93 730.59 780.71 614.23 402.67 212.48 563.68 690.43 560.39 1127.30 853.42 818.73 939.29 804.24 565.93 1005.40 1072.35 652.06 490.63 659.62 1040.03 415.01 565.49 685.09 707.64 647.44 657.95 912.42 1130.68 1045.53 519.96 881.85 689.52 799.31 174.11 962.10 1039.64
772.12 911.13 453.62 758.20 864.29 479.61 393.76 653.19 664.66 519.53 270.12 610.05 367.78 361.97 287.00 819.81 716.26 926.68 466.22 417.97 748.77 364.77 657.16 518.75 437.27 394.83 857.93 273.74 151.88 610.25 681.33 879.03 838.21 243.54 920.54 914.17 384.49 514.27 411.80 130.13 852.93 354.27 1015.41 960.49 544.64 527.57 669.97 0.00 761.43 910.20 698.98 305.40 452.75 675.85 811.55 961.92 556.66 600.24 1041.08 422.52 588.64 867.44 667.67 494.73 533.69 680.66 630.54 136.89 570.86 706.91 224.34 445.50 135.91 798.31 874.61 535.34 288.60 914.93 875.46 854.29 802.74 576.45 232.52 982.08 534.68 748.23 704.84 1010.43 794.79 532.93 671.83 540.31 789.68 911.08 547.27 407.70 585.67 585.61 625.78 408.75 895.44
48.62 177.94 855.15 456.07 564.93 754.46 468.94 216.62 609.17 373.88 782.39 726.12 756.30 435.17 745.86 684.94 413.63 395.31 852.70 974.81 384.63 617.91 451.48 759.60 457.68 608.83 657.23 572.78 609.55 666.08 182.58 185.43 601.37 553.60 546.48 272.74 644.47 510.81 709.06 846.76 713.14 718.11 253.98 549.40 667.44 681.25 656.26 761.43 0.00 249.44 92.14 645.94 755.43 196.01 459.92 233.38 350.98 376.25 737.15 368.60 274.06 441.72 493.77 486.59 316.35 304.19 343.51 654.23 938.76 533.45 712.08 478.73 747.66 683.02 267.50 545.16 940.34 184.96 334.79 477.64 632.93 251.20 617.52 373.39 929.64 330.92 164.11 332.91 137.47 371.97 209.22 668.51 691.26 534.43 291.94 696.61 302.96 509.27 722.65 915.54 510.10
204.50 119.22 1025.78 504.01 683.59 950.75 593.81 374.52 779.22 559.32 887.43 864.53 970.55 626.45 927.01 823.18 547.68 447.33 1016.83 1111.17 429.44 737.42 522.99 917.58 642.11 788.32 695.66 756.47 849.94 768.58 370.22 157.29 582.59 682.82 587.06 142.40 756.84 658.78 888.79 978.05 825.71 890.57 109.52 585.77 829.15 812.08 727.77 910.20 249.44 0.00 339.15 833.58 879.79 411.00 478.07 161.44 516.21 559.79 789.01 554.10 523.50 509.63 552.39 571.70 495.84 398.45 448.57 773.31 1030.08 573.27 869.78 661.40 958.83 801.68 319.76 685.69 1045.38 161.58 402.54 628.96 740.21 453.90 778.42 442.96 1092.72 390.23 342.96 260.65 207.03 492.79 329.99 808.30 798.54 685.75 480.44 837.14 486.50 634.45 901.50 1036.42 561.96
140.76 270.08 766.92 377.52 558.65 699.05 412.35 124.48 517.03 295.62 692.26 645.96 664.16 343.03 695.10 614.64 419.03 414.96 762.60 882.67 383.36 525.77 421.89 704.19 424.01 544.93 677.79 480.64 585.73 585.92 90.44 240.04 509.23 461.46 467.84 328.92 552.33 483.94 653.65 754.62 647.76 625.97 346.12 576.07 612.03 612.76 575.52 698.98 92.14 339.15 0.00 553.80 681.12 121.60 443.75 281.17 321.99 301.84 742.71 276.46 252.55 422.93 401.63 399.03 252.45 269.80 303.39 562.09 864.35 508.17 654.55 386.59 697.43 593.14 322.97 465.00 850.21 277.10 308.48 522.96 595.03 195.79 549.41 434.76 844.26 329.65 93.66 365.82 132.12 279.83 130.67 613.10 608.70 562.61 199.80 616.45 222.80 429.11 652.20 834.38 515.66
665.88 751.61 227.73 548.48 605.17 236.39 415.25 497.40 781.21 340.21 187.55 367.24 184.11 243.93 512.80 564.92 485.76 904.23 266.07 392.95 726.32 105.65 679.31 275.53 456.48 495.20 701.52 242.15 153.52 304.85 463.36 766.75 871.17 340.00 702.29 839.98 79.09 552.04 115.77 435.53 612.20 182.13 895.44 723.12 284.16 267.09 836.26 305.40 645.94 833.58 553.80 0.00 622.22 584.65 675.34 801.34 638.77 669.03 807.29 316.28 496.84 888.26 396.05 264.23 434.97 546.06 526.30 282.03 796.66 766.68 370.66 236.23 441.18 561.49 738.88 256.88 345.50 759.14 859.77 595.17 549.18 462.89 349.07 939.13 359.80 704.93 637.64 880.88 626.55 404.84 503.59 254.35 490.85 651.96 435.66 149.07 413.03 356.87 840.34 310.56 654.47
771.05 837.76 772.10 836.59 1012.68 852.49 329.22 635.75 237.83 563.88 665.97 863.26 684.60 490.91 172.78 1068.68 766.78 713.36 763.88 829.45 590.86 657.84 356.80 827.46 393.09 211.94 1131.82 433.66 468.70 912.09 629.97 857.23 523.36 372.48 978.18 932.26 679.83 344.59 730.64 422.41 1099.79 732.01 968.81 1094.65 815.52 798.45 296.32 452.75 755.43 879.79 681.12 622.22 0.00 637.73 983.28 887.49 457.30 457.49 1209.77 443.40 524.10 651.06 802.96 646.26 439.08 789.83 762.46 396.75 353.92 413.51 314.92 575.09 323.87 1060.01 877.23 760.25 721.81 897.49 657.29 952.60 1014.29 607.18 273.15 783.57 862.52 588.18 681.62 799.18 699.92 622.59 589.74 811.19 1009.44 1009.39 495.11 678.58 636.70 720.90 275.42 744.62 1026.00
206.50 301.07 812.38 499.12 680.25 737.03 325.83 246.08 514.30 382.34 701.08 699.71 739.20 385.73 604.31 736.24 540.11 381.60 837.64 924.82 261.76 506.07 302.99 708.79 316.13 497.28 752.39 450.67 618.56 707.52 212.04 261.94 418.21 499.29 589.44 397.46 532.63 367.70 664.58 725.42 766.65 659.99 396.16 688.16 616.63 599.56 507.77 675.85 196.01 411.00 121.60 584.65 637.73 0.00 560.64 402.77 223.82 180.24 846.56 318.75 130.95 389.57 523.23 495.85 228.50 391.40 424.99 566.93 742.75 401.50 539.80 366.89 604.55 714.74 425.38 494.45 859.03 375.94 275.12 611.49 681.15 317.39 443.33 391.75 901.58 208.05 108.28 409.42 239.51 321.48 252.27 612.30 699.74 668.28 194.00 606.56 344.40 539.36 621.36 850.07 619.51
411.30 462.37 758.55 305.17 205.52 649.44 685.77 387.35 960.78 441.46 756.63 601.35 736.34 598.28 989.05 345.11 273.84 822.96 796.89 888.20 742.58 597.81 842.05 610.30 751.31 886.71 324.66 696.41 659.67 565.37 353.31 533.28 920.34 716.71 108.99 364.38 596.25 825.72 688.24 941.68 359.02 623.34 493.56 148.94 518.14 533.59 955.75 811.55 459.92 478.07 443.75 675.34 983.28 560.64 0.00 316.63 741.55 740.88 310.94 597.22 619.39 830.93 392.83 495.37 594.23 225.16 275.28 773.49 1156.06 910.88 858.50 563.81 947.33 323.61 192.42 418.46 913.20 351.14 716.48 150.89 273.52 460.32 812.28 820.02 835.61 765.13 527.59 671.16 383.27 495.14 393.54 546.33 331.85 207.68 567.31 569.91 368.64 447.63 1080.60 803.37 83.89
205.44 150.20 961.23 393.63 522.15 847.25 640.72 312.94 798.20 527.08 936.65 796.42 907.22 604.16 931.23 661.74 410.07 506.95 974.71 1090.88 495.53 773.28 642.92 817.81 643.05 803.97 601.01 736.30 817.70 700.47 337.98 223.38 633.85 722.59 425.62 47.75 754.06 731.89 800.28 1035.79 675.65 766.75 200.53 424.33 725.65 708.58 847.70 961.92 233.38 161.44 281.17 801.34 887.49 402.77 316.63 0.00 563.75 520.17 627.57 555.04 507.44 514.92 526.51 625.03 511.49 330.34 380.46 840.67 1077.12 642.96 862.83 634.10 930.14 640.24 158.32 621.14 1093.34 51.20 400.47 467.52 590.15 452.52 757.69 507.40 1010.60 463.34 343.90 359.36 256.25 508.44 297.75 695.84 648.48 524.31 455.46 772.59 454.26 536.09 902.44 1006.05 400.52
399.60 524.89 838.35 546.44 777.83 829.59 258.98 422.28 290.48 440.82 716.96 848.13 735.59 405.99 481.62 905.14 598.59 386.35 834.03 880.44 221.24 601.94 100.50 841.06 193.44 374.59 859.69 457.85 519.69 759.73 388.24 485.76 281.55 423.47 789.83 611.50 607.18 184.67 739.13 614.90 911.63 755.86 604.96 849.57 748.90 765.97 305.28 556.66 350.98 516.21 321.99 638.77 457.30 223.82 741.55 563.75 0.00 43.58 1012.38 366.66 189.43 324.05 651.53 569.52 247.97 537.69 545.95 447.74 606.09 186.18 429.28 498.35 518.33 883.64 618.48 663.38 772.80 535.94 364.01 700.12 826.13 388.71 324.14 445.97 915.69 191.57 281.54 461.65 454.11 384.09 415.28 763.09 873.00 756.91 256.61 702.43 461.34 597.84 448.95 795.61 806.66
376.42 481.31 881.93 590.02 750.36 815.68 255.60 406.10 334.06 443.54 760.54 812.10 779.17 425.10 522.80 884.90 601.31 374.55 877.61 924.02 233.62 613.91 122.75 828.56 237.02 338.13 869.50 501.43 563.27 716.15 392.28 442.18 237.97 415.93 769.68 567.92 606.21 215.64 738.16 658.48 879.51 716.35 576.40 852.29 736.40 753.47 327.53 600.24 376.25 559.79 301.84 669.03 457.49 180.24 740.88 520.17 43.58 0.00 990.55 352.75 192.15 367.30 657.79 555.61 257.84 552.49 502.37 472.25 562.51 229.18 472.86 474.73 561.91 863.40 595.30 666.10 816.38 506.40 320.43 743.70 794.01 405.55 367.72 446.71 949.12 179.91 237.96 449.99 419.75 427.37 410.91 749.18 829.42 800.49 299.89 703.15 464.06 600.56 441.12 839.19 799.75
688.53 735.98 888.82 487.27 240.19 748.67 952.17 686.52 1185.42 645.89 872.31 590.05 853.79 827.06 1131.38 317.19 535.76 1078.24 885.17 1040.43 965.93 739.71 1078.20 709.53 985.62 1109.92 183.15 838.74 889.20 549.96 658.53 693.78 1156.75 921.88 274.87 674.60 766.27 1021.26 830.73 1097.16 269.91 807.05 804.50 238.61 649.95 642.13 1243.91 1041.08 737.15 789.01 742.71 807.29 1209.77 846.56 310.94 627.57 1012.38 990.55 0.00 808.01 869.33 1097.60 508.20 626.54 817.44 529.04 549.75 975.59 1415.07 1180.65 1083.40 759.62 1166.80 324.53 503.36 683.14 1030.26 648.09 983.15 312.26 258.11 699.48 991.71 997.65 875.69 1019.64 790.31 841.26 683.88 720.59 663.31 651.87 316.44 255.47 761.41 762.00 597.42 531.97 1285.03 1005.21 227.05
349.60 498.46 544.01 447.05 589.21 462.93 243.67 303.36 579.88 162.12 415.80 509.32 476.30 72.35 503.03 637.02 323.38 593.89 567.00 639.54 442.36 270.87 425.88 502.07 224.23 405.38 708.35 238.00 309.27 468.69 303.57 493.80 561.20 190.78 607.41 563.17 297.43 319.79 407.04 490.37 671.23 424.79 595.10 662.37 426.24 409.17 582.62 422.52 368.60 554.10 276.46 316.28 443.40 318.75 597.22 555.04 366.66 352.75 808.01 0.00 216.24 576.04 379.49 202.86 118.69 404.24 368.68 285.63 713.96 517.90 390.08 131.69 426.75 616.61 544.84 316.85 573.75 519.04 564.03 546.88 624.37 163.78 290.11 628.22 653.30 388.65 361.23 637.22 403.84 190.26 343.80 396.43 566.04 603.67 124.75 371.36 234.10 297.43 587.45 564.79 655.23
322.68 432.02 698.18 472.70 633.03 658.03 194.88 271.86 479.91 251.39 632.04 688.87 659.41 257.58 514.54 731.19 409.16 482.85 736.52 828.14 392.71 444.31 289.93 697.17 226.36 390.03 729.48 319.72 487.61 635.03 266.08 392.89 430.12 376.01 614.29 528.41 417.75 236.75 549.70 612.84 764.31 588.52 527.11 660.14 627.52 618.30 470.97 588.64 274.06 523.50 252.55 496.84 524.10 130.95 619.39 507.44 189.43 192.15 869.33 216.24 0.00 426.21 465.64 415.41 97.55 437.64 398.57 451.75 665.17 375.61 503.86 347.93 473.60 709.69 513.34 473.95 770.57 459.02 405.50 632.66 690.21 243.91 398.72 522.70 788.83 339.00 225.09 540.37 322.74 239.29 225.85 612.67 741.14 637.38 111.81 544.80 271.91 408.41 587.95 743.31 662.11
427.40 465.50 1115.99 790.59 934.80 1038.97 583.03 497.73 509.23 660.84 968.28 1061.36 1046.37 644.33 805.67 1037.57 799.20 62.30 1138.98 1191.22 161.94 824.98 415.56 1016.26 517.49 672.73 1027.10 745.93 830.47 976.81 513.37 403.82 223.70 726.67 858.60 493.47 843.96 455.94 975.91 925.68 1070.69 978.90 463.19 939.25 945.19 962.26 567.72 867.44 441.72 509.63 422.93 888.26 651.06 389.57 830.93 514.92 324.05 367.30 1097.60 576.04 426.21 0.00 824.56 732.45 521.15 663.51 713.63 758.52 870.53 389.92 740.06 694.25 829.11 1016.07 638.51 846.44 1083.58 566.12 114.45 847.51 992.11 563.87 634.92 155.91 1212.43 187.39 405.76 256.34 491.78 544.55 543.74 969.05 997.22 904.30 538.02 925.47 645.73 817.86 658.96 1106.39 888.88
489.59 575.38 515.03 195.64 268.01 425.15 545.36 345.23 891.07 239.08 495.73 386.63 453.19 413.48 686.57 325.18 118.99 816.59 551.63 644.68 700.46 312.78 664.74 395.71 603.72 692.46 351.65 393.93 519.48 300.98 311.19 591.47 856.60 491.78 403.02 511.55 339.34 650.81 444.72 634.28 372.46 379.82 647.96 457.98 303.55 286.48 869.52 667.67 493.77 552.39 401.63 396.05 802.96 523.23 392.83 526.51 651.53 657.79 508.20 379.49 465.64 824.56 0.00 176.63 419.32 196.17 226.48 530.78 970.43 771.17 575.20 255.58 664.25 338.96 469.67 174.94 653.68 475.31 710.11 326.69 336.01 262.82 554.44 836.39 588.50 688.46 485.47 738.95 387.59 320.23 350.24 299.22 394.34 320.83 394.92 326.39 193.73 82.06 878.22 559.85 450.84
507.14 570.07 454.08 324.49 386.35 385.02 446.53 348.49 763.23 164.02 363.65 328.91 398.85 275.21 635.46 437.31 221.53 762.02 492.42 583.73 645.22 165.72 628.74 345.88 427.09 608.24 505.49 342.82 342.85 265.83 348.18 601.85 764.06 374.34 505.56 615.10 185.14 522.65 317.09 619.56 484.59 318.87 666.86 560.52 266.41 249.34 704.74 494.73 486.59 571.70 399.03 264.23 646.26 495.85 495.37 625.03 569.52 555.61 626.54 202.86 415.41 732.45 176.63 0.00 321.55 305.74 348.74 414.82 888.56 720.76 549.88 133.08 617.01 458.81 475.63 113.99 521.60 584.88 707.51 445.03 440.62 235.39 473.67 818.85 551.36 591.51 447.40 749.33 397.97 187.90 337.97 236.60 498.95 483.28 315.38 265.44 215.82 94.57 790.31 498.90 553.38
331.97 430.90 650.17 438.54 577.25 581.62 159.90 304.07 471.75 272.03 534.49 600.16 594.99 191.04 477.15 684.87 423.46 537.12 685.69 758.23 359.21 389.56 307.19 620.76 219.07 292.48 696.39 336.87 427.96 587.38 270.03 453.15 495.81 309.47 637.93 548.07 398.68 231.49 525.73 577.86 717.99 543.48 533.89 683.25 544.93 527.86 463.93 533.69 316.35 495.84 252.45 434.97 439.08 228.50 594.23 511.49 247.97 257.84 817.44 118.69 97.55 521.15 419.32 321.55 0.00 409.85 360.17 404.32 630.19 413.62 406.31 250.38 495.36 663.37 540.51 435.54 680.73 460.29 495.31 599.21 645.25 188.13 301.17 559.50 691.28 412.92 242.54 518.53 349.66 183.51 310.26 515.12 684.73 581.60 56.03 490.05 225.59 416.12 582.69 683.48 652.34
293.42 379.21 711.20 153.97 288.85 567.91 460.61 165.78 786.83 257.08 652.80 466.08 649.18 413.90 806.19 428.44 149.23 632.57 701.95 818.91 573.24 454.87 638.19 528.77 526.15 702.33 407.99 552.51 605.73 370.13 186.81 395.30 753.84 493.94 334.15 315.38 481.43 621.71 580.16 753.07 427.26 493.09 460.31 374.10 436.61 453.68 730.59 680.66 304.19 398.45 269.80 546.06 789.83 391.40 225.16 330.34 537.69 552.49 529.04 404.24 437.64 663.51 196.17 305.74 409.85 0.00 50.12 548.33 930.90 723.87 693.24 348.56 750.52 406.94 285.42 371.11 810.75 279.14 549.06 331.10 341.76 257.32 593.27 675.34 748.54 553.87 333.92 542.78 191.42 310.76 211.79 466.42 400.09 383.14 389.42 522.56 184.26 278.23 892.46 749.31 309.05
294.89 420.74 690.17 127.66 312.37 578.42 510.73 215.90 820.42 207.40 666.86 516.20 626.65 364.22 794.90 382.53 127.21 682.69 651.83 784.02 602.22 468.93 625.12 548.98 569.02 652.65 431.51 502.83 590.56 420.25 212.95 439.09 740.34 482.65 318.27 365.50 495.49 591.66 557.63 702.95 377.14 470.56 510.43 395.78 456.82 439.75 780.71 630.54 343.51 448.57 303.39 526.30 762.46 424.99 275.28 380.46 545.95 502.37 549.75 368.68 398.57 713.63 226.48 348.74 360.17 50.12 0.00 498.21 952.23 690.06 675.35 329.75 700.40 361.03 244.07 355.94 819.34 329.26 599.18 298.79 291.64 236.19 581.98 689.52 698.42 603.99 354.08 586.57 241.54 261.08 172.72 452.49 349.97 333.02 354.13 507.39 134.58 301.00 846.54 699.19 327.13
635.23 784.09 447.17 625.87 740.50 492.07 256.87 568.35 555.74 432.28 325.78 543.01 344.41 328.37 319.28 796.44 609.01 820.82 442.85 504.38 668.98 341.40 530.26 452.93 322.41 257.94 834.56 136.85 128.51 586.88 582.57 779.43 710.22 209.94 816.48 848.80 361.12 417.97 339.85 204.74 802.98 424.89 880.73 893.99 534.20 517.13 614.23 136.89 654.23 773.31 562.09 282.03 396.75 566.93 773.49 840.67 447.74 472.25 975.59 285.63 451.75 758.52 530.78 414.82 404.32 548.33 498.21 0.00 603.14 632.61 177.14 346.59 202.19 774.94 742.28 398.45 375.01 804.67 766.54 797.00 717.48 449.41 123.60 892.82 524.51 639.31 640.57 901.51 689.47 400.53 611.22 529.87 752.37 831.23 410.38 397.26 505.10 448.72 603.08 474.77 825.34
938.93 926.92 961.80 963.43 1180.15 995.33 470.29 909.75 361.30 776.57 840.41 1067.64 859.04 641.61 283.86 1218.26 1010.66 868.82 957.48 961.02 792.18 800.68 507.09 984.75 535.83 365.79 1276.68 576.50 643.14 1084.55 890.05 1000.10 646.83 596.11 1201.07 1071.50 820.90 530.35 860.48 611.62 1242.63 925.13 1124.56 1200.40 984.56 967.49 402.67 570.86 938.76 1030.08 864.35 796.66 353.92 742.75 1156.06 1077.12 606.09 562.51 1415.07 713.96 665.17 870.53 970.43 888.56 630.19 930.90 952.23 603.14 0.00 571.02 426.00 786.24 434.95 1196.76 1125.23 980.03 859.46 1038.15 860.38 1169.99 1157.13 818.32 496.78 962.43 1039.14 738.47 800.47 1002.27 934.38 700.66 891.02 980.23 1215.46 1211.79 686.22 901.17 817.65 888.37 501.79 885.11 1195.31
582.07 579.85 994.41 732.62 944.44 966.63 375.74 563.35 209.72 627.00 903.14 1013.78 921.77 522.75 497.73 1072.59 784.77 387.99 1008.81 1047.39 234.52 752.91 106.43 982.86 310.20 478.91 1045.87 574.61 705.87 940.22 557.57 506.67 250.98 532.85 905.78 679.54 726.35 262.12 857.44 747.83 1057.17 897.12 632.12 1022.25 935.08 927.07 212.48 706.91 533.45 573.27 508.17 766.68 413.51 401.50 910.88 642.96 186.18 229.18 1180.65 517.90 375.61 389.92 771.17 720.76 413.62 723.87 690.06 632.61 571.02 0.00 615.46 621.79 571.00 1051.09 775.24 834.75 958.98 591.76 380.32 886.30 981.70 555.32 510.32 467.83 1101.87 202.53 467.14 472.61 616.34 550.70 517.34 914.33 1040.03 943.09 423.22 853.40 639.21 784.02 368.19 962.56 953.60
665.28 811.92 535.80 718.58 843.21 607.05 375.43 549.89 505.19 475.29 414.41 695.25 433.04 317.73 142.14 885.07 584.66 802.36 531.48 589.24 650.52 430.03 522.34 630.07 309.89 252.52 923.19 253.85 217.14 675.51 564.11 801.74 710.83 199.30 868.69 892.47 449.75 363.91 479.08 185.62 864.33 513.52 826.57 923.65 648.41 631.34 563.68 224.34 712.08 869.78 654.55 370.66 314.92 539.80 858.50 862.83 429.28 472.86 1083.40 390.08 503.86 740.06 575.20 549.88 406.31 693.24 675.35 177.14 426.00 615.46 0.00 440.56 89.05 863.57 791.37 575.59 512.94 811.63 748.08 784.59 834.48 553.86 105.14 854.88 613.14 620.85 648.08 883.05 676.53 488.69 595.90 625.01 854.94 841.38 460.66 519.73 547.37 565.72 480.92 504.41 880.20
481.29 571.22 446.17 393.49 519.43 370.14 344.58 330.19 687.39 122.35 337.11 429.19 372.31 180.13 502.38 570.39 354.61 712.10 470.75 560.85 560.57 139.18 557.57 409.28 353.49 534.64 607.23 209.74 293.62 398.91 296.15 608.33 692.89 241.26 638.64 663.94 165.74 410.37 297.69 499.76 617.67 293.10 662.91 668.35 346.11 329.04 690.43 445.50 478.73 661.40 386.59 236.23 575.09 366.89 563.81 634.10 498.35 474.73 759.62 131.69 347.93 694.25 255.58 133.08 250.38 348.56 329.75 346.59 786.24 621.79 440.56 0.00 529.61 591.89 571.67 218.71 495.06 591.93 642.01 578.11 573.70 245.03 340.59 758.64 552.41 506.86 401.51 654.39 459.31 168.61 336.35 316.30 612.10 576.41 256.44 239.67 195.17 227.65 719.14 486.10 631.71
754.33 897.11 577.22 788.13 931.71 578.38 401.71 617.20 561.70 556.81 406.03 745.20 503.56 354.40 151.09 921.72 673.71 891.41 602.00 545.66 739.57 485.58 540.34 617.52 398.94 279.03 993.71 328.06 287.66 705.99 651.24 823.93 732.20 288.35 957.74 959.78 512.14 452.96 508.04 176.83 953.38 490.18 915.62 1012.70 680.55 663.48 560.39 135.91 747.66 958.83 697.43 441.18 323.87 604.55 947.33 930.14 518.33 561.91 1166.80 426.75 473.60 829.11 664.25 617.01 495.36 750.52 700.40 202.19 434.95 571.00 89.05 529.61 0.00 934.09 858.68 598.22 424.51 878.94 837.13 873.64 908.69 590.53 194.19 943.93 662.11 709.90 641.98 971.41 765.58 525.36 663.21 676.22 925.46 930.43 546.13 543.61 584.04 639.93 489.87 460.83 969.25
655.92 776.09 643.02 337.20 118.09 518.29 816.88 536.74 1110.17 510.60 626.51 344.25 622.35 667.42 942.66 21.50 381.41 1008.10 655.05 808.24 891.97 513.93 956.10 479.15 840.84 955.85 182.89 650.02 646.43 304.16 502.70 791.69 1069.73 747.87 327.68 687.99 529.68 894.86 620.86 928.44 54.62 555.96 817.17 351.43 404.15 391.21 1127.30 798.31 683.02 801.68 593.14 561.49 1060.01 714.74 323.61 640.24 883.64 863.40 324.53 616.61 709.69 1016.07 338.96 458.81 663.37 406.94 361.03 774.94 1196.76 1051.09 863.57 591.89 934.09 0.00 516.03 496.21 784.46 664.86 901.62 205.38 69.39 539.84 810.53 1027.90 682.63 922.79 662.10 919.62 598.36 564.28 533.75 403.95 70.64 184.03 639.31 502.53 437.78 384.92 1149.74 759.41 315.23
218.88 284.68 929.71 274.03 397.94 781.66 654.94 241.48 812.57 451.47 839.28 692.61 830.26 532.70 899.15 537.53 371.28 630.54 895.90 1028.09 572.67 641.35 710.79 788.81 615.40 796.55 509.53 707.29 733.79 596.66 275.52 357.86 768.33 651.13 301.41 206.07 660.77 710.96 792.72 947.02 551.44 714.63 301.14 341.36 696.65 683.82 853.42 874.61 267.50 319.76 322.97 738.88 877.23 425.38 192.42 158.32 618.48 595.30 503.36 544.84 513.34 638.51 469.67 475.63 540.51 285.42 244.07 742.28 1125.23 775.24 791.37 571.67 858.68 516.03 0.00 589.62 997.23 209.52 524.06 343.31 465.94 381.06 686.23 627.60 942.49 572.71 357.34 493.84 190.85 464.91 287.49 696.56 524.27 386.73 484.48 741.07 378.65 503.95 915.88 943.26 276.31
593.78 646.73 340.09 370.58 442.95 296.26 528.40 408.60 791.83 222.56 338.17 214.92 344.14 389.20 696.17 500.12 293.93 876.01 378.43 469.74 756.21 179.35 742.73 264.93 541.08 656.39 518.46 403.53 392.24 269.53 374.56 670.69 878.05 419.86 527.45 657.72 177.79 629.08 269.78 603.19 512.32 204.88 780.85 567.40 194.81 177.74 818.73 535.34 545.16 685.69 465.00 256.88 760.25 494.45 418.46 621.14 663.38 666.10 683.14 316.85 473.95 846.44 174.94 113.99 435.54 371.11 355.94 398.45 980.03 834.75 575.59 218.71 598.22 496.21 589.62 0.00 494.74 569.94 769.57 469.08 426.82 344.26 519.19 886.20 472.16 702.50 548.84 803.45 511.96 301.89 398.71 173.61 485.15 495.77 429.37 151.45 242.20 165.38 861.70 384.91 502.35
923.35 1023.82 192.52 801.54 840.15 396.95 631.88 823.56 880.80 617.41 157.95 506.09 285.75 589.43 575.60 787.89 743.13 1063.97 195.29 129.37 994.04 355.88 873.30 389.98 653.41 632.95 916.73 450.85 355.22 566.03 791.21 1042.23 1054.35 532.14 1022.19 1070.69 382.44 748.97 293.06 409.45 835.17 380.13 1107.24 1025.13 472.60 455.53 939.29 288.60 940.34 1045.38 850.21 345.50 721.81 859.03 913.20 1093.34 772.80 816.38 1030.26 573.75 770.57 1083.58 653.68 521.60 680.73 810.75 819.34 375.01 859.46 958.98 512.94 495.06 424.51 784.46 997.23 494.74 0.00 1042.14 1086.11 845.40 772.15 689.14 448.66 1157.58 293.93 962.40 888.98 1131.11 838.35 663.67 831.41 468.27 713.82 902.19 698.50 343.29 690.23 571.62 914.38 120.15 997.09
169.44 111.23 910.03 342.43 546.77 847.05 620.19 261.74 794.13 500.96 885.45 745.22 858.79 552.96 895.23 686.36 428.37 525.14 948.37 1039.68 454.29 729.42 629.15 807.91 607.05 752.77 633.77 685.10 794.51 649.27 295.78 182.14 594.88 671.39 460.13 87.78 702.86 691.78 749.08 997.25 700.27 772.23 229.28 475.53 715.75 732.82 804.24 914.93 184.96 161.58 277.10 759.14 897.49 375.94 351.14 51.20 535.94 506.40 648.09 519.04 459.02 566.12 475.31 584.88 460.29 279.14 329.26 804.67 1038.15 591.76 811.63 591.93 878.94 664.86 209.52 569.94 1042.14 0.00 451.67 502.03 614.77 401.32 706.49 503.79 1027.68 508.00 307.90 320.02 205.05 485.17 307.75 743.55 667.93 558.82 404.26 721.39 428.14 557.37 866.44 954.85 421.04
312.95 351.05 1075.40 676.14 837.91 979.58 576.03 383.28 577.78 604.10 928.16 954.44 972.64 628.19 806.50 923.12 698.29 106.48 1071.08 1151.90 145.80 781.19 361.15 983.91 557.45 658.56 934.76 720.12 838.49 894.40 398.92 289.37 293.59 724.92 776.32 448.22 807.75 465.56 939.70 933.70 956.24 934.45 361.46 824.80 891.75 874.68 565.93 875.46 334.79 402.54 308.48 859.77 657.29 275.12 716.48 400.47 364.01 320.43 983.15 564.03 405.50 114.45 710.11 707.51 495.31 549.06 599.18 766.54 860.38 380.32 748.08 642.01 837.13 901.62 524.06 769.57 1086.11 451.67 0.00 812.43 877.66 504.27 642.94 126.28 1152.74 199.51 365.80 141.89 422.12 566.76 429.29 879.41 917.18 811.96 439.28 881.68 531.28 705.50 736.25 1077.15 774.43
526.26 613.26 786.00 206.56 87.29 624.50 759.11 466.56 990.60 492.33 687.45 450.46 722.65 619.23 892.37 207.30 223.50 872.95 761.26 911.19 821.79 489.52 800.62 585.36 767.39 874.44 179.59 674.05 702.41 423.15 432.52 661.05 981.67 685.50 203.11 515.27 516.08 830.70 648.03 959.57 235.50 643.44 644.45 179.73 523.14 534.97 1005.40 854.29 477.64 628.96 522.96 595.17 952.60 611.49 150.89 467.52 700.12 743.70 312.26 546.88 632.66 847.51 326.69 445.03 599.21 331.10 298.79 797.00 1169.99 886.30 784.59 578.11 873.64 205.38 343.31 469.08 845.40 502.03 812.43 0.00 155.29 411.08 679.45 851.03 722.79 808.56 606.80 764.87 522.52 469.33 453.41 542.50 213.62 56.79 543.18 590.01 419.51 362.18 1106.56 836.44 165.40
586.53 712.38 630.71 279.69 68.00 505.98 802.37 494.38 1101.96 499.04 614.20 331.94 610.04 643.97 873.27 90.89 378.79 974.33 627.06 795.93 893.86 567.52 906.01 466.84 813.43 937.73 160.52 580.63 693.74 291.85 504.59 730.73 1031.98 678.48 258.29 637.90 574.47 849.07 572.62 922.22 85.50 548.94 767.08 302.04 391.84 384.02 1072.35 802.74 632.93 740.21 595.03 549.18 1014.29 681.15 273.52 590.15 826.13 794.01 258.11 624.37 690.21 992.11 336.01 440.62 645.25 341.76 291.64 717.48 1157.13 981.70 834.48 573.70 908.69 69.39 465.94 426.82 772.15 614.77 877.66 155.29 0.00 527.83 741.14 981.16 670.32 889.20 645.72 850.23 533.18 542.46 464.36 393.76 58.33 164.93 589.22 503.89 426.22 346.05 1138.18 747.10 306.11
299.82 334.68 603.95 315.01 498.37 503.26 348.03 139.58 644.84 122.68 531.19 525.22 567.57 236.13 644.49 561.34 235.33 610.75 642.29 741.34 529.06 384.21 448.89 508.40 356.31 480.61 590.67 396.36 473.05 465.18 139.79 407.86 640.75 354.56 477.78 479.26 410.77 419.62 457.86 654.15 594.46 510.45 505.18 574.32 416.24 430.05 652.06 576.45 251.20 453.90 195.79 462.89 607.18 317.39 460.32 452.52 388.71 405.55 699.48 163.78 243.91 563.87 262.82 235.39 188.13 257.32 236.19 449.41 818.32 555.32 553.86 245.03 590.53 539.84 381.06 344.26 689.14 401.32 504.27 411.08 527.83 0.00 453.89 624.59 678.44 525.44 289.45 543.84 302.98 132.68 180.02 417.31 586.16 467.87 132.10 484.70 102.06 262.40 695.48 667.06 525.60
631.46 732.07 514.21 650.97 764.16 579.34 270.29 444.75 432.14 375.32 392.82 590.11 411.45 217.76 212.92 832.03 600.85 697.22 509.89 556.30 545.38 384.69 424.64 568.76 204.75 284.60 859.04 160.51 195.55 653.92 458.97 705.27 605.69 99.33 879.20 787.33 411.25 300.31 457.49 290.76 826.64 491.93 833.38 859.18 570.11 572.52 490.63 232.52 617.52 778.42 549.41 349.07 273.15 443.33 812.28 757.69 324.14 367.72 991.71 290.11 398.72 634.92 554.44 473.67 301.17 593.27 581.98 123.60 496.78 510.32 105.14 340.59 194.19 810.53 686.23 519.19 448.66 706.49 642.94 679.45 741.14 453.89 0.00 769.22 591.55 515.71 543.71 777.91 571.39 388.20 490.76 559.78 799.47 736.24 355.52 474.23 447.40 472.38 548.57 471.47 844.85
422.01 392.93 1160.13 763.65 938.32 1084.10 671.61 509.56 601.13 730.38 999.63 1080.72 1086.27 695.20 924.77 1049.40 787.02 93.61 1184.71 1223.37 233.31 853.14 479.42 1100.54 639.41 772.36 1030.62 784.31 937.49 1020.68 525.20 331.25 315.60 813.63 902.60 537.51 879.70 555.57 1011.65 1040.50 1066.66 1007.06 403.34 922.79 1008.38 991.31 659.62 982.08 373.39 442.96 434.76 939.13 783.57 391.75 820.02 507.40 445.97 446.71 997.65 628.22 522.70 155.91 836.39 818.85 559.50 675.34 689.52 892.82 962.43 467.83 854.88 758.64 943.93 1027.90 627.60 886.20 1157.58 503.79 126.28 851.03 981.16 624.59 769.22 0.00 1250.78 287.02 492.08 183.77 510.86 630.95 516.80 1001.91 1039.49 907.82 503.47 953.63 657.56 786.41 668.28 1148.62 883.49
978.26 973.50 132.07 706.87 635.50 302.16 737.43 810.89 1023.69 619.47 264.56 362.05 180.10 580.95 755.28 686.06 614.56 1170.58 98.64 295.88 1050.49 413.23 998.47 265.19 793.50 737.68 754.64 532.84 396.00 391.11 780.74 1046.68 1113.50 606.95 862.18 1022.30 386.82 877.68 289.81 485.28 733.34 336.19 1171.14 869.54 319.09 302.02 1040.03 534.68 929.64 1092.72 844.26 359.80 862.52 901.58 835.61 1010.60 915.69 949.12 875.69 653.30 788.83 1212.43 588.50 551.36 691.28 748.54 698.42 524.51 1039.14 1101.87 613.14 552.41 662.11 682.63 942.49 472.16 293.93 1027.68 1152.74 722.79 670.32 678.44 591.55 1250.78 0.00 1041.95 933.82 1182.66 907.07 682.95 784.11 314.76 611.99 727.89 747.31 357.83 648.38 551.23 992.79 244.47 859.66
379.54 399.04 932.66 707.17 842.72 851.58 429.65 454.13 412.25 550.77 804.45 897.97 864.95 461.00 646.26 944.29 703.10 205.24 955.65 1028.19 53.71 646.04 231.38 890.72 364.11 485.34 960.44 626.65 697.92 857.34 420.09 325.86 305.05 539.28 750.37 511.09 672.60 268.55 795.69 806.47 974.70 799.96 453.19 866.84 814.89 797.82 415.01 748.23 330.92 390.23 329.65 704.93 588.18 208.05 765.13 463.34 191.57 179.91 1019.64 388.65 339.00 187.39 688.46 591.51 412.92 553.87 603.99 639.31 738.47 202.53 620.85 506.86 709.90 922.79 572.71 702.50 962.40 508.00 199.51 808.56 889.20 525.44 515.71 287.02 1041.95 0.00 316.33 270.08 435.53 529.53 460.32 785.08 907.79 865.35 402.05 746.53 552.45 686.08 539.92 953.44 798.19
138.46 309.65 818.79 422.53 622.77 770.35 383.70 168.14 544.34 331.39 738.62 708.40 757.82 430.46 601.44 665.53 472.44 468.06 856.26 950.05 370.04 540.69 360.71 731.21 413.52 527.18 644.11 523.18 670.50 612.45 174.28 248.82 467.99 461.30 561.50 391.65 567.25 451.28 699.20 801.66 712.81 694.61 375.89 631.91 680.52 663.45 565.49 704.84 164.11 342.96 93.66 637.64 681.62 108.28 527.59 343.90 281.54 237.96 790.31 361.23 225.09 405.76 485.47 447.40 242.54 333.92 354.08 640.57 800.47 467.14 648.08 401.51 641.98 662.10 357.34 548.84 888.98 307.90 365.80 606.80 645.72 289.45 543.71 492.08 933.82 316.33 0.00 387.93 209.05 259.50 181.36 664.27 591.46 613.30 293.46 641.18 306.64 488.41 558.54 887.61 563.26
291.68 209.16 1082.22 601.97 831.63 1006.19 678.43 462.93 682.33 597.70 973.16 911.54 1008.36 708.85 916.34 941.12 692.01 236.98 1106.80 1196.90 287.69 775.23 501.46 1010.78 634.19 755.42 883.26 825.44 874.63 912.91 428.89 147.48 435.48 801.80 736.89 353.74 801.79 538.63 933.74 1068.67 935.73 929.15 219.57 771.60 918.62 901.55 685.09 1010.43 332.91 260.65 365.82 880.88 799.18 409.42 671.16 359.36 461.65 449.99 841.26 637.22 540.37 256.34 738.95 749.33 518.53 542.78 586.57 901.51 1002.27 472.61 883.05 654.39 971.41 919.62 493.84 803.45 1131.11 320.02 141.89 764.87 850.23 543.84 777.91 183.77 1182.66 270.08 387.93 0.00 351.36 611.77 419.46 904.57 908.56 790.69 544.60 875.72 561.25 737.17 810.00 1122.15 702.95
109.17 187.79 839.69 345.39 480.27 743.72 464.09 167.49 649.15 352.29 680.40 657.50 796.28 458.71 784.31 619.86 340.65 441.15 809.80 904.14 381.82 563.69 542.50 714.28 517.84 642.14 599.41 574.47 642.91 561.55 163.19 203.88 641.35 577.14 409.01 232.34 583.11 527.99 715.06 862.15 618.68 684.51 268.89 525.48 622.12 605.05 707.64 794.79 137.47 207.03 132.12 626.55 699.92 239.51 383.27 256.25 454.11 419.75 683.88 403.84 322.74 491.78 387.59 397.97 349.66 191.42 241.54 689.47 934.38 616.34 676.53 459.31 765.58 598.36 190.85 511.96 838.35 205.05 422.12 522.52 533.18 302.98 571.39 510.86 907.07 435.53 209.05 351.36 0.00 319.61 122.96 608.07 591.51 554.90 293.63 663.41 279.47 469.65 767.59 829.39 456.83
356.43 402.61 603.69 262.77 480.40 510.85 342.28 223.43 640.22 116.29 505.72 516.81 502.85 170.96 556.32 585.78 341.06 606.85 601.29 721.36 479.35 307.79 444.27 471.71 351.69 475.99 576.02 263.68 431.57 453.73 189.39 475.79 636.13 289.39 542.47 504.87 334.35 415.00 466.30 605.27 584.73 461.71 588.50 499.74 454.31 437.24 647.44 532.93 371.97 492.79 279.83 404.84 622.59 321.48 495.14 508.44 384.09 427.37 720.59 190.26 239.29 544.55 320.23 187.90 183.51 310.76 261.08 400.53 700.66 550.70 488.69 168.61 525.36 564.28 464.91 301.89 663.67 485.17 566.76 469.33 542.46 132.68 388.20 630.95 682.95 529.53 259.50 611.77 319.61 0.00 210.69 424.50 570.87 526.12 127.48 408.28 126.50 273.31 690.86 654.71 494.65
232.13 248.02 716.73 246.85 485.09 620.76 420.73 46.01 647.70 229.33 673.46 579.67 687.70 337.23 703.68 555.25 299.93 535.77 706.25 847.99 429.50 475.53 515.78 591.32 419.93 601.08 554.74 474.37 519.95 519.63 40.23 271.98 607.26 455.66 388.44 345.50 487.13 462.60 619.08 767.29 549.86 603.59 391.85 504.91 499.16 482.09 657.95 671.83 209.22 329.99 130.67 503.59 589.74 252.27 393.54 297.75 415.28 410.91 663.31 343.80 225.85 543.74 350.24 337.97 310.26 211.79 172.72 611.22 891.02 517.34 595.90 336.35 663.21 533.75 287.49 398.71 831.41 307.75 429.29 453.41 464.36 180.02 490.76 516.80 784.11 460.32 181.36 419.46 122.96 210.69 0.00 485.11 522.69 431.94 254.23 550.16 156.51 362.82 739.90 769.09 436.26
674.01 700.88 275.75 459.20 461.76 151.41 587.59 496.13 965.44 379.65 319.33 112.89 248.01 468.78 749.92 409.50 325.28 985.89 278.87 440.97 838.79 233.10 822.31 121.97 620.66 614.44 554.28 457.28 407.87 119.35 525.34 757.09 957.63 513.81 609.31 743.59 236.98 716.22 250.94 656.83 456.78 186.04 876.96 639.03 29.81 12.74 912.42 540.31 668.51 808.30 613.10 254.35 811.19 612.30 546.33 695.84 763.09 749.18 651.87 396.43 612.67 969.05 299.22 236.60 515.12 466.42 452.49 529.87 980.23 914.33 625.01 316.30 676.22 403.95 696.56 173.61 468.27 743.55 879.41 542.50 393.76 417.31 559.78 1001.91 314.76 785.08 664.27 904.57 608.07 424.50 485.11 0.00 335.43 490.92 521.18 132.61 409.14 260.11 959.58 389.45 570.38
644.86 770.71 572.38 338.02 126.33 447.65 796.03 543.13 1125.73 489.75 555.87 273.61 551.71 638.39 931.60 74.07 373.86 1023.66 584.41 737.60 952.19 537.04 952.17 408.51 790.27 927.39 218.85 638.96 637.80 233.52 562.92 789.06 1059.45 736.81 316.62 696.23 516.14 885.83 554.83 919.81 121.35 490.61 825.41 335.24 333.51 325.69 1130.68 789.68 691.26 798.54 608.70 490.85 1009.44 699.74 331.85 648.48 873.00 829.42 316.44 566.04 741.14 997.22 394.34 498.95 684.73 400.09 349.97 752.37 1215.46 1040.03 854.94 612.10 925.46 70.64 524.27 485.15 713.82 667.93 917.18 213.62 58.33 586.16 799.47 1039.49 611.99 907.79 591.46 908.56 591.51 570.87 522.69 335.43 0.00 223.26 647.55 445.56 484.55 404.38 1128.89 688.77 360.55
499.01 628.34 741.19 263.35 96.93 614.00 741.50 477.95 1024.17 540.42 744.24 496.87 713.45 676.02 949.16 205.53 280.29 918.44 744.31 905.76 861.44 546.31 842.36 587.41 749.78 874.08 122.80 700.58 759.20 453.79 472.17 643.21 1034.22 742.29 200.30 572.06 572.87 785.52 667.45 902.78 238.65 629.77 687.87 236.52 495.25 478.18 1045.53 911.08 534.43 685.75 562.61 651.96 1009.39 668.28 207.68 524.31 756.91 800.49 255.47 603.67 637.38 904.30 320.83 483.28 581.60 383.14 333.02 831.23 1211.79 943.09 841.38 576.41 930.43 184.03 386.73 495.77 902.19 558.82 811.96 56.79 164.93 467.87 736.24 907.82 727.89 865.35 613.30 790.69 554.90 526.12 431.94 490.92 223.26 0.00 525.57 598.05 467.60 388.71 1088.95 854.89 184.19
275.94 447.13 656.66 390.25 521.22 580.63 215.93 248.04 512.74 243.77 540.55 602.88 582.80 191.73 512.39 660.81 367.43 545.76 681.24 764.29 415.24 349.67 316.79 599.19 224.21 348.51 640.36 280.84 434.02 581.21 214.00 397.12 508.65 310.16 581.90 492.04 376.23 287.52 508.18 615.12 674.72 503.59 477.86 627.22 548.34 533.92 519.96 547.27 291.94 480.44 199.80 435.66 495.11 194.00 567.31 455.46 256.61 299.89 761.41 124.75 111.81 538.02 394.92 315.38 56.03 389.42 354.13 410.38 686.22 423.22 460.66 256.44 546.13 639.31 484.48 429.37 698.50 404.26 439.28 543.18 589.22 132.10 355.52 503.47 747.31 402.05 293.46 544.60 293.63 127.48 254.23 521.18 647.55 525.57 0.00 450.16 219.55 394.50 563.38 689.54 622.13
720.96 798.18 236.64 502.21 571.89 178.77 477.66 560.05 883.22 362.02 186.72 220.02 192.69 393.00 617.31 519.63 432.41 933.94 259.19 379.25 800.24 100.49 751.05 217.91 543.20 644.27 614.17 324.67 302.59 236.93 526.01 822.14 932.56 400.96 678.90 809.17 127.05 638.76 118.33 524.22 557.15 53.43 902.58 718.85 136.94 119.87 881.85 407.70 696.61 837.14 616.45 149.07 678.58 606.56 569.91 772.59 702.43 703.15 762.00 371.36 544.80 925.47 326.39 265.44 490.05 522.56 507.39 397.26 901.17 853.40 519.73 239.67 543.61 502.53 741.07 151.45 343.29 721.39 881.68 590.01 503.89 484.70 474.23 953.63 357.83 746.53 641.18 875.72 663.41 408.28 550.16 132.61 445.56 598.05 450.16 0.00 393.65 316.83 891.06 327.53 653.80
351.58 404.53 560.22 212.95 446.95 535.07 379.10 166.40 697.34 72.82 532.28 423.16 550.91 229.64 660.32 459.28 223.05 637.76 549.74 691.48 521.63 334.35 532.78 505.63 434.44 518.07 519.22 368.25 488.79 363.12 132.36 428.49 699.39 348.07 452.85 499.64 360.91 457.08 479.80 694.93 492.40 447.08 548.36 505.19 413.47 396.40 689.52 585.67 302.96 486.50 222.80 413.03 636.70 344.40 368.64 454.26 461.34 464.06 597.42 234.10 271.91 645.73 193.73 215.82 225.59 184.26 134.58 505.10 817.65 639.21 547.37 195.17 584.04 437.78 378.65 242.20 690.23 428.14 531.28 419.51 426.22 102.06 447.40 657.56 648.38 552.45 306.64 561.25 279.47 126.50 156.51 409.14 484.55 467.60 219.55 393.65 0.00 206.31 711.96 612.58 436.54
535.13 597.08 473.89 229.92 291.78 348.15 463.30 322.22 857.80 157.02 413.67 326.15 371.13 331.42 604.51 406.42 173.79 811.98 469.57 589.64 696.96 260.29 698.34 375.23 521.66 610.40 410.92 311.87 437.42 293.21 338.67 634.80 810.02 409.72 457.82 583.84 279.71 617.22 411.66 653.46 391.30 370.26 730.02 469.84 283.07 272.85 799.31 585.61 509.27 634.45 429.11 356.87 720.90 539.36 447.63 536.09 597.84 600.56 531.97 297.43 408.41 817.86 82.06 94.57 416.12 278.23 301.00 448.72 888.37 784.02 565.72 227.65 639.93 384.92 503.95 165.38 571.62 557.37 705.50 362.18 346.05 262.40 472.38 786.41 551.23 686.08 488.41 737.17 469.65 273.31 362.82 260.11 404.38 388.71 394.50 316.83 206.31 0.00 796.16 513.23 490.14
697.00 868.19 860.72 924.91 1084.60 987.37 450.86 726.68 158.47 639.14 884.09 1046.99 884.67 622.18 338.78 1143.94 910.83 665.99 899.06 935.86 593.63 828.03 378.89 1026.51 446.76 345.14 1123.95 631.42 686.82 1056.14 732.82 807.36 444.00 595.80 1120.04 947.88 801.47 351.20 774.96 592.08 1187.46 862.03 934.43 1095.24 961.89 946.84 174.11 625.78 722.65 901.50 652.20 840.34 275.42 621.36 1080.60 902.44 448.95 441.12 1285.03 587.45 587.95 658.96 878.22 790.31 582.69 892.46 846.54 603.08 501.79 368.19 480.92 719.14 489.87 1149.74 915.88 861.70 914.38 866.44 736.25 1106.56 1138.18 695.48 548.57 668.28 992.79 539.92 558.54 810.00 767.59 690.86 739.90 959.58 1128.89 1088.95 563.38 891.06 711.96 796.16 0.00 851.03 1121.80
914.39 1001.74 116.39 743.15 805.01 307.56 686.04 776.55 903.61 603.79 148.99 434.10 170.22 543.89 601.25 762.84 678.84 1055.01 145.83 84.83 1007.15 346.92 896.11 299.20 676.22 687.94 840.60 509.58 346.26 480.95 744.94 1016.01 1077.16 557.21 912.36 1031.22 335.43 771.78 209.20 419.24 810.12 296.27 1098.28 952.31 380.96 376.71 962.10 408.75 915.54 1036.42 834.38 310.56 744.62 850.07 803.37 1006.05 795.61 839.19 1005.21 564.79 743.31 1106.39 559.85 498.90 683.48 749.31 699.19 474.77 885.11 962.56 504.41 486.10 460.83 759.41 943.26 384.91 120.15 954.85 1077.15 836.44 747.10 667.06 471.47 1148.62 244.47 953.44 887.61 1122.15 829.39 654.71 769.09 389.45 688.77 854.89 689.54 327.53 612.58 513.23 851.03 0.00 887.26
461.48 508.93 820.65 260.22 252.69 671.87 769.66 465.52 1032.69 509.36 840.52 615.86 758.77 665.61 1022.34 293.73 331.85 880.91 823.77 963.63 744.48 654.92 876.85 632.73 835.20 944.82 251.15 758.33 743.56 588.55 431.48 555.47 982.28 784.04 47.82 448.27 680.14 883.83 768.20 1025.57 341.01 707.23 577.45 68.65 540.57 557.64 1039.64 895.44 510.10 561.96 515.66 654.47 1026.00 619.51 83.89 400.52 806.66 799.75 227.05 655.23 662.11 888.88 450.84 553.38 652.34 309.05 327.13 825.34 1195.31 953.60 880.20 631.71 969.25 315.23 276.31 502.35 997.09 421.04 774.43 165.40 306.11 525.60 844.85 883.49 859.66 798.19 563.26 702.95 456.83 494.65 436.26 570.38 360.55 184.19 622.13 653.80 436.54 490.14 1121.80 887.26 0.00
DEMAND_SECTION
1 0
2 1
3 4
4 9
5 9
6 6
7 7
8 4
9 7
10 8
11 1
12 6
13 10
14 4
15 3
16 9
17 8
18 4
19 5
20 7
21 8
22 7
23 7
24 10
25 6
26 3
27 6
28 8
29 10
30 7
31 1
32 6
33 9
34 7
35 8
36 5
37 4
38 8
39 7
40 1
41 3
42 7
43 1
44 1
45 5
46 3
47 1
48 2
49 3
50 5
51 10
52 5
53 9
54 4
55 10
56 8
57 3
58 4
59 9
60 10
61 9
62 10
63 3
64 9
65 6
66 7
67 4
68 2
69 3
70 9
71 1
72 1
73 8
74 10
75 8
76 10
77 8
78 7
79 2
80 1
81 5
82 5
83 9
84 6
85 10
86 5
87 6
88 8
89 5
90 4
91 8
92 2
93 5
94 1
95 10
96 9
97 1
98 4
99 9
100 5
101 6
DEPOT_SECTION
1
-1
EOF
