NAME: LDG105_3231_fog_105_0119
COMMENT: CVRP with travel times.  rootPos=3,custPos=2,demandType=3,avgRouteSizeIndex=1,weather=fog,lambda_cluster=1,lambda_random=4, T1=300,T2=700,beta=1, alpha(i,j) ~ U(0.8,1.2)
TYPE: CVRP
DIMENSION: 106
EDGE_WEIGHT_TYPE: EXPLICIT
EDGE_WEIGHT_FORMAT: FULL_MATRIX
CAPACITY: 28
NODE_COORD_SECTION
1 0 0
2 425 379
3 819 304
4 690 241
5 519 295
6 553 473
7 449 357
8 192 708
9 65 822
10 125 806
11 755 301
12 714 242
13 162 542
14 763 235
15 303 399
16 480 428
17 562 389
18 70 789
19 457 401
20 724 214
21 746 134
22 459 336
23 741 306
24 404 471
25 887 426
26 615 242
27 404 456
28 443 580
29 669 336
30 482 425
31 725 213
32 872 275
33 149 734
34 746 329
35 490 264
36 775 244
37 736 311
38 901 457
39 439 416
40 396 184
41 913 293
42 176 819
43 828 200
44 677 229
45 55 798
46 166 631
47 752 243
48 702 258
49 138 743
50 417 483
51 378 303
52 56 806
53 708 321
54 129 658
55 439 407
56 78 779
57 780 259
58 363 225
59 331 794
60 811 285
61 432 517
62 115 728
63 430 424
64 803 244
65 231 316
66 726 284
67 321 443
68 689 225
69 842 356
70 118 768
71 76 811
72 792 202
73 475 448
74 570 420
75 165 910
76 474 364
77 6 817
78 790 220
79 365 392
80 145 900
81 801 254
82 409 503
83 472 494
84 503 546
85 96 847
86 667 249
87 861 313
88 722 249
89 721 263
90 417 396
91 388 353
92 127 740
93 743 243
94 755 240
95 16 638
96 187 789
97 468 494
98 778 328
99 128 757
100 107 807
101 427 420
102 274 474
103 863 111
104 723 248
105 435 415
106 766 198
EDGE_WEIGHT_SECTION
0.00 766.79 1031.19 886.10 729.05 900.83 727.00 923.56 966.56 993.94 920.95 933.79 924.95 956.99 645.46 793.01 851.95 985.44 775.56 907.18 947.74 744.70 950.91 805.70 1116.20 780.40 803.14 894.88 918.19 802.85 893.07 1099.59 956.71 986.54 705.96 978.04 958.59 1066.43 737.53 483.67 1142.04 1045.67 1043.11 889.56 950.79 976.33 940.27 899.22 942.61 809.66 690.52 931.73 932.15 948.87 756.21 992.27 972.78 575.22 1123.87 1004.66 811.98 974.15 752.04 1004.39 822.61 948.37 710.06 885.89 1089.30 998.05 974.92 993.16 804.59 898.47 1114.53 783.20 1027.82 974.29 717.39 1122.31 997.38 760.16 838.14 925.24 1029.76 851.31 1071.62 923.32 896.75 787.41 731.06 956.29 922.12 940.55 706.36 1052.52 830.15 1016.48 981.31 1022.61 743.05 768.87 1148.34 925.74 729.70 965.45
766.79 0.00 469.18 402.78 207.98 217.64 48.85 517.19 700.20 636.27 429.03 391.60 372.07 448.84 190.25 111.65 211.61 628.65 57.52 414.87 526.20 83.85 399.07 122.97 563.51 355.21 121.65 257.61 314.64 121.49 423.66 570.22 550.74 380.40 202.83 455.55 416.25 613.28 86.19 283.12 583.11 630.44 520.59 366.99 677.41 440.03 427.77 426.75 564.94 145.68 124.99 671.27 360.57 500.29 74.35 652.49 454.09 240.29 471.92 473.78 207.73 573.14 80.31 492.46 270.69 426.28 184.38 394.34 531.97 593.02 660.03 516.85 138.32 238.38 698.55 82.43 742.93 479.34 118.32 682.00 480.71 185.65 189.43 253.51 697.31 379.34 554.05 392.44 365.87 25.86 77.32 551.26 413.99 428.62 593.82 562.65 181.44 429.93 576.28 671.73 85.95 215.99 642.56 384.67 78.36 476.92
1031.19 469.18 0.00 178.98 405.79 411.28 420.33 866.50 1083.87 1008.66 110.24 151.95 806.26 125.95 604.68 428.08 319.70 1012.32 445.72 172.49 245.79 406.49 122.51 553.81 272.43 261.24 523.19 591.90 194.61 437.92 174.72 118.84 942.95 109.94 413.62 103.31 115.06 322.20 483.56 547.52 167.24 986.28 151.96 191.10 1061.06 871.48 119.01 146.35 972.98 559.38 552.32 1066.03 145.56 931.74 488.34 1040.16 68.86 586.29 861.82 43.19 542.60 957.09 499.46 84.34 697.86 123.35 596.71 186.37 150.23 1005.35 1060.73 139.48 482.81 366.22 1071.94 426.82 1142.84 136.31 552.20 1053.48 68.33 550.40 488.40 553.10 1093.99 194.26 84.87 130.51 151.10 495.04 504.49 963.59 119.52 109.45 1020.99 898.53 480.41 83.67 985.56 1041.08 495.63 685.17 303.00 143.91 491.39 167.66
886.10 402.78 178.98 0.00 263.29 390.59 353.93 782.66 975.05 908.84 117.49 69.91 740.41 114.09 498.10 383.01 274.63 945.64 387.09 88.35 191.06 318.93 139.61 443.44 335.41 105.70 414.14 537.86 180.04 384.10 102.46 241.90 859.11 143.71 258.08 124.75 128.74 378.52 366.44 402.43 321.85 904.77 224.28 35.79 928.41 762.43 97.46 73.10 881.93 423.33 402.26 947.47 130.99 822.69 344.47 969.48 110.12 430.98 802.61 151.14 487.51 873.25 363.74 165.09 571.83 107.99 529.80 55.33 227.09 910.01 961.17 171.86 425.61 321.15 1017.06 351.97 1043.40 134.35 426.17 987.08 144.10 472.83 473.83 516.34 1010.20 44.20 235.18 48.47 75.04 396.47 378.46 868.25 97.90 105.57 894.96 840.30 465.84 174.14 893.27 957.29 345.26 586.60 308.40 61.62 358.61 150.40
729.05 207.98 405.79 263.29 0.00 229.55 159.13 656.26 806.00 761.04 344.99 294.21 562.87 351.07 301.95 163.27 165.88 773.03 217.40 302.58 365.95 133.87 338.76 294.35 534.41 273.04 270.59 390.17 223.02 173.11 316.69 469.58 662.22 342.71 120.66 358.51 328.81 584.18 218.75 245.38 520.52 731.59 438.51 257.34 806.09 618.88 332.92 259.44 692.25 315.11 196.20 808.21 272.07 679.14 224.51 781.04 364.95 198.17 597.01 395.02 329.53 729.93 233.83 387.18 375.68 335.46 366.55 293.80 429.66 738.80 765.02 396.12 218.00 191.50 822.26 144.83 871.48 375.08 230.02 792.28 365.16 297.28 278.16 371.37 825.86 219.09 479.06 308.51 287.11 233.34 182.31 697.04 314.77 324.36 698.81 732.08 280.12 338.31 704.83 799.74 237.04 423.47 549.13 295.11 226.58 337.22
900.83 217.64 411.28 390.59 229.55 0.00 249.06 535.29 757.60 677.45 359.94 352.64 513.28 375.33 341.43 126.53 119.17 720.75 180.66 398.97 495.17 247.46 329.98 181.19 525.68 329.71 211.81 260.69 262.55 116.69 395.25 483.89 609.94 365.29 347.45 392.03 323.81 481.78 163.30 417.16 509.82 638.19 452.64 387.50 729.85 560.10 354.26 317.49 639.97 219.21 342.63 740.95 311.60 620.36 177.28 728.76 404.41 395.90 560.27 431.30 195.95 625.88 179.20 418.26 444.79 298.36 306.05 378.21 352.40 686.52 754.51 452.05 96.24 72.65 660.66 215.99 813.50 414.54 279.60 690.64 416.60 193.40 157.19 141.82 773.58 349.60 417.76 358.13 364.21 228.84 259.03 644.76 372.41 363.82 700.48 592.83 149.20 327.61 652.55 725.90 176.59 357.20 588.59 344.73 171.13 420.73
727.00 48.85 420.33 353.93 159.13 249.06 0.00 553.25 696.59 660.99 397.14 360.24 420.92 399.99 203.80 136.21 163.29 674.78 93.45 366.02 477.35 35.00 388.26 135.22 523.25 306.36 160.85 275.84 282.68 146.05 380.13 538.24 563.97 331.55 153.98 416.69 367.93 573.02 104.42 331.55 570.53 642.69 494.36 318.14 649.95 488.88 378.92 378.40 594.00 170.04 173.84 669.01 331.73 549.14 74.97 682.79 410.87 289.14 520.77 447.55 243.87 621.99 108.82 443.61 277.53 382.19 233.23 345.49 503.13 640.55 666.87 468.00 155.02 209.81 663.13 56.20 764.94 430.49 131.87 633.15 444.85 197.90 175.15 282.02 725.70 330.49 505.20 349.22 339.64 74.71 84.16 598.79 372.10 379.77 600.66 587.01 183.14 388.32 606.58 709.44 91.97 264.84 604.54 335.82 101.48 428.07
923.56 517.19 866.50 782.66 656.26 535.29 553.25 0.00 222.31 142.16 798.66 807.50 239.55 828.41 424.61 495.73 588.52 187.26 530.53 859.63 948.25 583.15 799.85 447.29 983.28 800.13 446.18 497.58 731.90 505.57 873.74 933.41 76.45 791.58 655.35 863.48 779.52 1017.07 510.25 718.60 962.68 122.11 940.93 816.19 194.56 97.89 842.55 815.94 106.48 449.34 552.92 205.66 720.94 158.15 507.51 195.27 862.76 627.05 200.31 902.13 480.03 90.59 516.00 891.12 479.32 786.65 419.46 830.71 887.69 153.03 219.22 889.04 479.28 607.94 256.81 579.84 278.21 892.76 496.54 226.83 882.33 456.08 378.10 487.49 240.09 818.95 934.43 820.79 794.22 491.33 544.25 111.27 842.34 849.33 217.20 152.68 386.09 847.19 119.06 190.61 515.06 301.20 1033.28 815.36 502.42 873.81
966.56 700.20 1083.87 975.05 806.00 757.60 696.59 222.31 0.00 80.15 1006.45 1015.16 348.94 1039.11 580.42 706.14 764.17 71.55 697.13 1010.07 1101.06 731.59 989.14 607.72 1135.25 883.29 631.30 592.32 907.55 696.30 995.96 1086.83 178.97 1013.89 850.57 1074.18 968.81 1142.81 670.35 845.39 1147.80 148.20 1146.00 963.19 46.64 283.01 1038.97 991.59 162.30 614.31 686.59 34.83 943.25 273.69 654.51 88.12 1070.55 801.89 329.38 1121.10 644.81 149.90 655.27 1101.82 683.14 1008.96 515.82 988.78 1107.63 115.86 40.98 1096.05 701.59 781.29 185.73 741.38 81.30 1077.18 652.35 155.75 1081.28 592.99 600.41 671.02 63.20 954.20 1042.27 1023.52 1016.53 695.15 623.69 148.94 1025.01 1043.44 260.20 203.18 608.40 1022.84 151.60 88.67 649.17 505.02 1185.41 1024.18 662.52 1062.82
993.94 636.27 1008.66 908.84 761.04 677.45 660.99 142.16 80.15 0.00 940.82 949.66 277.83 970.57 516.49 637.89 713.43 111.92 628.23 929.92 1020.91 695.99 926.09 527.57 1125.44 803.14 558.19 523.74 856.81 634.61 915.81 1039.31 98.82 933.74 778.78 1000.78 918.07 1078.88 590.20 828.40 1078.61 100.65 1065.85 912.30 96.38 213.82 963.01 921.96 91.88 551.57 622.66 77.32 863.10 208.10 608.88 113.98 995.52 737.96 307.16 1044.29 597.26 114.72 587.50 1027.13 612.03 928.81 451.89 908.63 1027.48 43.25 96.14 1015.90 621.44 708.68 161.22 661.23 161.45 997.03 588.42 191.20 1020.12 545.44 520.26 629.65 101.36 874.05 962.12 957.31 936.38 623.70 629.49 85.01 944.86 963.29 287.58 134.60 528.25 972.10 78.99 48.45 569.02 433.91 1171.08 950.07 582.37 988.19
920.95 429.03 110.24 117.49 344.99 359.94 397.14 798.66 1006.45 940.82 0.00 118.86 776.65 96.36 527.26 350.66 242.28 934.90 396.37 128.77 216.20 362.14 29.96 476.39 257.29 218.27 445.77 524.06 126.77 360.50 142.88 224.39 875.11 65.59 370.65 98.55 37.64 307.06 406.14 437.28 221.09 908.86 167.30 150.72 983.66 794.06 75.29 136.20 884.72 491.54 505.42 988.61 77.72 854.32 411.90 962.74 64.10 519.01 784.40 114.65 473.64 889.25 422.04 100.99 660.50 61.58 504.16 163.27 184.88 912.80 983.31 134.72 405.39 288.80 1011.03 358.98 1062.71 133.05 497.16 1013.58 83.67 482.56 420.56 501.76 1016.57 147.36 192.55 105.37 99.71 447.49 479.35 871.04 93.44 82.33 963.85 821.11 412.57 95.53 896.06 963.66 418.21 620.57 307.10 94.44 413.97 141.76
933.79 391.60 151.95 69.91 294.21 352.64 360.24 807.50 1015.16 949.66 118.86 0.00 738.52 79.67 547.53 370.93 262.55 955.17 403.27 57.43 167.28 335.11 92.46 470.96 329.06 153.97 455.71 548.07 119.17 380.77 71.54 218.24 883.95 137.36 306.35 96.69 110.74 341.32 390.10 450.12 274.59 929.13 190.15 51.97 974.85 798.42 58.92 35.15 913.98 478.58 441.12 993.91 110.32 858.68 360.65 933.37 83.09 447.16 804.67 144.95 467.16 898.09 394.50 120.13 635.99 70.79 541.53 65.60 200.06 950.17 1003.58 144.52 425.66 309.07 1013.30 320.48 1069.68 107.01 487.84 993.39 117.07 499.02 453.16 494.46 1047.59 83.06 216.36 21.44 37.04 408.99 444.40 908.41 42.73 56.29 938.06 841.38 445.17 155.93 926.56 998.11 400.51 599.12 281.06 24.42 387.16 116.30
924.95 372.07 806.26 740.41 562.87 513.28 420.92 239.55 348.94 277.83 776.65 738.52 0.00 788.82 279.49 459.45 564.47 277.39 429.59 759.45 871.79 455.92 771.14 361.35 935.58 701.88 391.97 443.23 650.25 465.18 773.56 908.52 300.57 752.47 549.50 791.16 757.51 928.04 404.43 573.48 909.88 361.66 856.20 706.89 326.15 228.61 767.75 772.84 328.34 323.33 407.80 331.10 698.93 235.85 398.21 305.23 789.70 481.93 439.86 809.39 412.12 330.14 400.66 831.87 334.20 764.64 299.46 747.13 844.66 321.08 329.98 856.26 457.27 582.07 439.05 418.04 407.91 818.75 351.42 466.38 816.32 372.83 372.07 434.80 379.19 724.93 891.13 728.05 701.48 346.21 399.13 314.66 749.60 768.03 261.14 392.23 364.08 765.54 296.36 326.28 401.40 156.08 992.80 730.47 396.60 821.50
956.99 448.84 125.95 114.09 351.07 375.33 399.99 828.41 1039.11 970.57 96.36 79.67 788.82 0.00 595.24 419.82 311.44 1004.06 430.06 74.55 119.84 405.57 86.47 507.08 274.71 176.59 476.46 582.27 191.73 423.81 63.92 180.39 904.86 143.90 313.69 35.07 106.80 289.35 410.85 473.32 245.01 911.84 135.68 127.11 1022.97 824.75 21.07 91.63 934.89 510.10 497.02 1034.07 142.68 881.93 435.79 1013.04 66.43 522.30 818.52 147.68 518.87 919.00 426.75 62.71 643.33 76.97 560.67 102.97 182.73 969.31 1041.04 101.86 468.70 322.84 1035.99 370.78 1106.62 64.35 523.31 1016.56 84.73 467.05 485.52 517.15 975.91 138.96 191.97 65.62 87.34 459.29 475.60 927.55 39.22 26.71 947.13 890.27 477.53 126.35 947.47 1019.02 432.03 649.42 216.09 64.17 418.68 45.40
645.46 190.25 604.68 498.10 301.95 341.43 203.80 424.61 580.42 516.49 527.26 547.53 279.49 595.24 0.00 237.23 284.98 508.87 196.53 545.43 628.31 238.80 509.95 160.24 698.32 469.01 190.86 303.60 428.36 227.39 531.32 709.23 466.30 535.35 316.63 594.86 489.62 648.55 188.23 317.21 722.12 546.72 680.33 507.80 557.63 386.17 578.01 512.40 445.16 198.26 128.31 551.49 477.41 416.21 199.12 532.71 591.36 243.61 556.31 633.52 220.70 464.37 202.74 624.11 189.84 536.60 64.60 533.48 636.86 473.24 548.12 622.60 255.29 322.78 654.64 242.17 623.15 624.69 71.93 648.35 602.09 168.88 246.86 352.33 555.80 486.37 644.53 546.57 525.61 164.39 119.64 431.48 567.73 577.32 518.56 542.43 238.87 543.65 456.50 551.95 193.75 123.41 798.74 539.62 180.40 557.86
793.01 111.65 428.08 383.01 163.27 126.53 136.21 495.73 706.14 637.89 350.66 370.93 459.45 419.82 237.23 0.00 108.38 667.45 54.13 415.99 485.67 144.65 333.35 137.94 562.92 304.40 107.32 226.90 251.76 9.84 401.88 542.21 566.69 371.22 240.58 420.86 313.02 535.86 55.48 309.34 549.26 568.32 492.57 369.92 690.29 455.61 409.28 335.80 596.72 154.73 236.64 683.79 300.81 515.87 61.24 685.51 414.76 351.94 433.74 465.31 166.26 585.70 71.38 447.51 318.26 356.68 245.36 338.61 460.26 601.20 676.08 425.11 54.73 126.73 660.37 109.12 757.78 448.09 171.78 673.04 425.49 156.62 117.63 227.02 729.45 338.81 467.93 389.72 374.09 113.24 151.21 599.65 391.13 400.72 658.04 571.70 116.85 367.05 609.30 679.91 76.66 303.37 622.14 395.35 63.31 456.26
851.95 211.61 319.70 274.63 165.88 119.17 163.29 588.52 764.17 713.43 242.28 262.55 564.47 311.44 284.98 108.38 0.00 692.62 154.09 308.90 377.29 128.29 224.97 234.11 454.54 281.17 203.49 285.52 143.38 118.22 305.18 436.00 662.86 262.84 260.09 312.48 204.64 431.94 163.86 368.28 440.88 666.58 400.74 268.68 741.38 551.78 300.90 227.42 659.54 263.11 324.94 746.33 192.43 612.04 169.62 720.46 306.38 276.73 542.12 356.93 231.36 678.75 179.76 339.13 418.22 251.62 278.98 288.14 351.88 687.62 741.03 360.53 163.11 46.52 768.75 182.48 823.14 339.71 278.69 771.30 317.11 265.00 210.42 260.99 791.91 230.43 359.55 281.34 265.71 221.62 247.45 645.86 282.75 292.34 753.71 578.83 202.43 258.67 670.88 744.36 185.04 408.39 513.76 286.97 171.69 347.88
985.44 628.65 1012.32 945.64 773.03 720.75 674.78 187.26 71.55 111.92 934.90 955.17 277.39 1004.06 508.87 667.45 692.62 0.00 635.50 967.45 1069.91 667.03 917.59 539.56 1121.03 915.06 570.18 549.48 836.00 660.03 981.56 1047.21 110.81 955.46 800.27 1005.10 897.26 1071.26 621.56 785.11 1097.55 155.16 1093.36 914.89 48.76 243.39 993.52 920.04 91.07 577.31 615.04 53.71 885.05 202.14 606.21 27.84 999.00 730.34 315.59 1049.55 639.93 110.28 618.86 1031.75 611.59 944.24 444.27 955.13 1039.47 68.67 52.59 1053.15 652.43 732.10 236.51 692.59 130.52 1032.33 580.80 223.61 1009.73 599.95 565.36 631.40 134.75 923.05 974.11 973.96 958.33 623.60 628.51 77.39 975.37 984.96 279.08 160.34 573.35 951.29 102.41 100.28 600.38 433.47 1157.95 979.59 613.73 1002.54
775.56 57.52 445.72 387.09 217.40 180.66 93.45 530.53 697.13 628.23 396.37 403.27 429.59 430.06 196.53 54.13 154.09 635.50 0.00 380.25 508.97 90.52 379.06 126.34 578.77 345.60 95.72 209.45 288.86 63.97 366.14 512.70 555.09 387.07 223.76 434.85 358.73 586.03 38.03 291.89 525.59 575.82 516.18 351.30 684.26 444.01 414.14 381.51 571.79 137.28 182.51 678.12 337.91 504.27 42.62 659.34 400.40 297.81 487.87 488.91 182.85 568.25 53.93 456.40 264.13 403.62 191.23 391.54 505.97 599.87 668.22 466.23 101.26 180.86 710.52 103.61 747.30 465.14 124.60 680.54 434.38 131.03 152.43 227.13 704.16 369.34 513.64 413.62 387.05 83.38 133.76 558.11 395.99 414.42 640.59 554.25 145.33 404.15 583.13 676.68 59.21 273.51 639.19 416.04 45.86 438.52
907.18 414.87 172.49 88.35 302.58 398.97 366.02 859.63 1010.07 929.92 128.77 57.43 759.45 74.55 545.43 415.99 308.90 967.45 380.25 0.00 128.72 331.02 103.69 471.55 312.55 126.78 456.30 562.11 176.60 406.15 14.11 212.80 900.30 165.73 279.16 72.91 124.02 362.32 390.69 423.51 281.34 944.25 135.93 52.56 1015.97 804.59 53.48 81.48 930.33 479.17 441.55 1007.24 138.69 864.85 361.24 990.80 103.63 447.75 819.38 173.32 508.59 909.41 395.09 122.13 608.80 109.38 571.48 77.38 248.63 934.69 1008.41 114.20 451.04 355.42 1029.15 348.85 1081.83 113.76 473.50 999.17 129.74 499.46 481.53 540.79 1031.28 83.49 192.66 78.56 65.41 413.24 425.79 924.09 71.63 63.04 938.49 883.44 473.54 162.68 942.91 978.37 401.10 603.37 286.97 76.97 387.75 62.05
947.74 526.20 245.79 191.06 365.95 495.17 477.35 948.25 1101.06 1020.91 216.20 167.28 871.79 119.84 628.31 485.67 377.29 1069.91 508.97 128.72 0.00 454.07 206.31 583.89 394.55 217.77 568.64 662.81 286.45 495.51 142.83 221.50 1012.64 263.74 370.15 154.91 226.64 409.19 503.03 464.07 301.45 986.43 201.59 170.93 1112.85 916.87 140.91 194.77 1036.83 591.14 504.92 1098.23 247.86 977.13 473.58 1097.75 183.62 555.62 919.41 263.51 593.46 1021.75 507.43 172.65 699.79 196.81 656.27 184.05 302.57 1063.41 1071.78 134.13 540.40 423.81 1121.13 458.02 1172.82 171.64 556.38 1091.15 194.67 541.64 587.71 619.00 1095.75 146.86 298.69 185.46 174.58 525.58 548.26 1023.15 159.06 143.03 1001.86 956.12 579.72 242.67 1048.17 1069.36 513.44 715.71 335.93 184.01 500.09 124.90
744.70 83.85 406.49 318.93 133.87 247.46 35.00 583.15 731.59 695.99 362.14 335.11 455.92 405.57 238.80 144.65 128.29 667.03 90.52 331.02 454.07 0.00 353.26 170.22 488.25 285.62 186.24 299.97 271.67 153.49 345.13 508.83 598.97 296.55 133.24 403.93 332.93 538.02 128.55 324.26 535.53 666.34 466.95 283.14 684.95 523.88 384.50 355.71 629.00 205.04 196.65 704.01 320.72 584.14 102.97 694.87 418.20 311.95 555.77 445.54 271.87 651.14 136.82 440.12 312.53 363.48 268.23 323.38 470.58 675.55 701.87 445.22 177.04 174.81 698.13 54.19 797.55 442.12 166.87 668.15 418.10 221.55 205.05 289.69 760.70 321.39 487.84 356.55 337.63 109.71 119.16 633.79 377.84 391.40 635.66 622.01 197.06 353.32 641.58 744.44 126.97 299.84 616.17 359.53 129.48 393.07
950.91 399.07 122.51 139.61 338.76 329.98 388.26 799.85 989.14 926.09 29.96 92.46 771.14 86.47 509.95 333.35 224.97 917.59 379.06 103.69 206.31 353.26 0.00 459.08 256.76 199.59 428.46 510.49 124.59 343.19 117.80 217.15 875.90 65.06 351.97 121.54 20.33 306.53 388.83 467.24 247.69 891.55 185.90 120.76 966.35 776.75 87.52 118.89 854.76 478.97 488.11 961.09 78.91 837.01 394.59 942.31 90.22 501.70 767.09 140.76 456.33 873.97 404.73 116.42 643.19 31.62 474.20 158.06 167.57 882.84 957.72 160.84 388.08 271.49 990.64 356.80 1032.75 133.90 467.20 996.27 113.63 483.75 421.75 471.80 987.13 130.05 175.24 91.39 84.59 424.93 472.42 841.08 101.61 83.18 965.04 803.80 413.76 82.62 866.10 946.35 400.90 615.06 302.56 77.99 396.66 131.87
805.70 122.97 553.81 443.44 294.35 181.19 135.22 447.29 607.72 527.57 476.39 470.96 361.35 507.08 160.24 137.94 234.11 539.56 126.34 471.55 583.89 170.22 459.08 0.00 658.47 428.30 30.62 191.38 377.49 147.78 485.66 628.39 428.75 466.77 284.81 523.78 438.75 662.97 96.23 350.09 651.93 507.47 607.48 418.99 588.32 378.91 486.01 461.53 458.78 38.02 247.96 583.58 426.54 439.17 110.31 547.57 526.74 363.26 396.07 580.14 114.50 496.46 97.41 559.41 347.24 479.55 124.86 457.14 533.59 505.33 580.21 563.05 112.87 253.84 622.70 188.79 638.01 546.29 153.95 612.19 551.22 62.68 101.85 211.24 592.39 437.03 593.66 484.44 472.23 127.44 179.35 463.57 490.81 495.57 597.02 454.99 93.86 483.80 471.36 576.02 98.18 205.27 720.34 471.04 104.06 533.60
1116.20 563.51 272.43 335.41 534.41 525.68 523.25 983.28 1135.25 1125.44 257.29 329.06 935.58 274.71 698.32 562.92 454.54 1121.03 578.77 312.55 394.55 488.25 256.76 658.47 0.00 341.19 658.03 688.99 311.39 566.06 326.66 209.01 1050.86 191.70 493.57 239.64 249.90 49.77 616.80 637.92 173.14 1105.39 310.52 347.77 1169.79 963.96 277.41 300.98 1057.32 676.16 684.90 1163.65 262.34 1024.22 591.22 1144.87 274.09 706.81 946.38 234.61 659.38 1063.62 625.07 288.86 800.78 258.63 730.96 350.54 173.28 1085.40 1160.28 324.56 610.95 458.90 1173.01 542.44 1216.55 287.05 626.39 1156.40 292.17 667.18 605.18 667.50 1189.69 348.89 187.56 318.40 292.02 589.37 607.41 1043.64 295.56 285.88 1123.91 1033.37 597.19 248.47 1068.66 1164.11 615.22 779.50 370.89 305.00 617.73 320.11
780.40 355.21 261.24 105.70 273.04 329.71 306.36 800.13 883.29 803.14 218.27 153.97 701.88 176.59 469.01 304.40 281.17 915.06 345.60 126.78 217.77 285.62 199.59 428.30 341.19 0.00 397.68 503.49 137.79 294.56 112.67 319.19 857.05 222.39 152.38 197.64 180.63 390.96 332.07 296.73 378.45 853.04 262.71 109.16 899.52 745.97 159.87 118.82 887.08 431.32 343.95 880.46 151.75 806.23 361.52 917.12 192.38 365.62 738.14 246.84 381.81 862.29 347.97 223.99 482.02 167.97 514.72 105.49 323.15 846.39 899.28 212.76 339.45 327.69 964.36 283.84 955.05 193.89 397.08 939.51 216.98 433.63 422.03 471.53 904.50 70.91 291.22 154.17 138.93 372.35 390.52 876.24 141.72 160.15 907.02 848.29 421.25 253.08 882.13 851.59 353.25 562.48 367.94 146.93 339.90 185.05
803.14 121.65 523.19 414.14 270.59 211.81 160.85 446.18 631.30 558.19 445.77 455.71 391.97 476.46 190.86 107.32 203.49 570.18 95.72 456.30 568.64 186.24 428.46 30.62 658.03 397.68 0.00 198.36 346.87 117.16 459.16 608.42 459.37 466.33 254.19 493.16 408.13 635.43 65.61 319.47 621.31 531.23 592.23 403.74 615.53 348.29 455.39 430.91 489.40 68.64 246.64 596.47 395.92 408.55 95.06 578.19 496.12 333.52 426.69 549.52 138.26 481.40 75.41 528.79 331.33 455.11 145.38 426.52 555.37 535.95 610.03 532.43 132.67 234.05 653.32 158.17 651.58 515.67 123.33 635.95 520.60 86.44 94.86 204.25 623.01 421.78 563.04 462.61 441.61 128.97 159.82 494.19 460.19 464.95 566.40 485.61 86.87 462.16 501.98 606.64 68.88 235.89 689.72 462.92 73.44 518.35
894.88 257.61 591.90 537.86 390.17 260.69 275.84 497.58 592.32 523.74 524.06 548.07 443.23 582.27 303.60 226.90 285.52 549.48 209.45 562.11 662.81 299.97 510.49 191.38 688.99 503.49 198.36 0.00 428.90 226.38 575.59 674.79 484.95 516.98 360.00 598.00 490.16 639.22 171.42 425.28 726.40 476.89 666.33 509.55 588.53 546.65 561.20 512.94 500.97 184.22 359.22 569.47 446.34 547.58 200.87 577.32 588.16 462.01 356.05 627.53 141.02 454.40 187.32 616.57 460.52 512.05 316.24 532.33 613.09 525.87 551.34 614.44 181.49 332.04 582.68 263.98 642.02 594.59 287.72 581.61 602.63 134.72 119.48 140.97 534.81 515.95 645.07 546.19 519.62 236.96 267.15 487.29 566.00 570.76 662.77 389.14 111.49 544.19 510.16 554.67 192.60 287.15 758.68 540.76 179.25 555.81
918.19 314.64 194.61 180.04 223.02 262.55 282.68 731.90 907.55 856.81 126.77 119.17 650.25 191.73 428.36 251.76 143.38 836.00 288.86 176.60 286.45 271.67 124.59 377.49 311.39 137.79 346.87 428.90 0.00 261.60 190.71 292.62 806.24 119.69 290.17 170.87 107.63 361.16 307.24 434.52 297.50 809.96 269.04 171.14 884.76 695.16 170.66 154.32 802.92 402.49 408.26 889.71 49.05 755.42 313.00 863.84 190.87 420.11 685.50 218.98 347.99 822.13 323.14 219.28 545.95 114.76 422.36 184.77 220.45 831.00 884.41 217.15 306.49 189.90 912.13 232.21 966.52 218.28 400.29 914.68 210.44 399.81 353.80 404.37 935.29 190.35 262.54 140.61 122.33 320.72 352.58 789.24 161.90 170.70 869.08 722.21 345.81 115.29 814.26 887.74 324.42 510.85 381.45 143.59 315.07 235.47
802.85 121.49 437.92 384.10 173.11 116.69 146.05 505.57 696.30 634.61 360.50 380.77 465.18 423.81 227.39 9.84 118.22 660.03 63.97 406.15 495.51 153.49 343.19 147.78 566.06 294.56 117.16 226.38 261.60 0.00 392.04 532.37 576.53 374.36 230.76 430.70 322.86 526.02 65.32 319.18 559.10 558.48 501.12 369.01 693.01 465.45 402.74 345.64 606.56 164.57 246.48 673.95 303.72 525.71 71.08 687.87 424.60 361.78 443.58 475.15 156.42 595.54 81.22 457.35 328.10 346.84 255.20 328.77 462.20 591.36 666.24 434.95 44.89 116.89 670.21 99.30 747.94 457.93 181.62 663.20 435.33 151.29 127.47 236.86 719.61 348.65 477.77 399.56 377.00 118.97 161.05 609.49 400.97 410.56 667.88 581.54 126.69 376.89 619.14 670.07 86.50 309.10 631.98 393.21 73.15 464.42
893.07 423.66 174.72 102.46 316.69 395.25 380.13 873.74 995.96 915.81 142.88 71.54 773.56 63.92 531.32 401.88 305.18 981.56 366.14 14.11 142.83 345.13 117.80 485.66 326.66 112.67 459.16 575.59 190.71 392.04 0.00 226.91 914.41 167.15 265.05 87.02 137.17 353.27 404.17 409.40 277.42 941.96 150.04 66.67 1012.19 796.09 67.59 77.76 937.93 493.28 455.66 993.13 152.80 856.35 375.35 1004.91 105.86 461.86 833.49 187.43 494.48 923.52 409.20 126.63 594.69 100.22 557.37 63.27 243.07 920.58 994.39 100.09 436.93 351.70 1043.26 362.96 1067.72 115.99 459.39 1013.28 135.56 497.17 495.64 537.07 1017.17 97.60 178.55 64.45 79.52 427.35 411.68 924.25 58.58 65.27 928.18 884.01 487.65 164.91 949.27 964.26 415.21 617.48 280.01 70.27 401.86 72.38
1099.59 570.22 118.84 241.90 469.58 483.89 538.24 933.41 1086.83 1039.31 224.39 218.24 908.52 180.39 709.23 542.21 436.00 1047.21 512.70 212.80 221.50 508.83 217.15 628.39 209.01 319.19 608.42 674.79 292.62 532.37 226.91 0.00 940.49 212.28 471.57 161.01 232.10 258.78 549.10 615.92 79.95 1050.09 166.15 265.36 1071.06 944.74 159.32 210.14 970.52 626.55 616.11 1052.00 251.24 1005.00 555.32 1059.31 180.45 660.55 960.69 109.74 627.05 936.93 565.00 124.45 776.83 185.53 691.35 247.30 132.77 1008.40 1065.56 197.83 515.52 465.01 1144.55 490.48 1124.55 208.42 637.30 1124.59 146.47 605.30 555.31 625.71 1093.15 258.05 77.19 208.31 207.04 578.99 620.36 969.82 177.47 168.88 1085.38 1014.83 563.30 202.51 983.10 1087.11 570.28 769.12 277.70 202.42 556.93 225.79
956.71 550.74 942.95 859.11 662.22 609.94 563.97 76.45 178.97 98.82 875.11 883.95 300.57 904.86 466.30 566.69 662.86 110.81 555.09 900.30 1012.64 598.97 875.90 428.75 1050.86 857.05 459.37 484.95 806.24 576.53 914.41 940.49 0.00 868.03 713.56 939.93 855.97 1028.69 524.98 778.84 986.74 165.32 1017.38 847.74 159.57 170.36 914.76 890.28 30.03 466.77 572.47 154.83 797.39 110.10 539.06 118.82 939.21 687.77 276.76 947.34 543.25 67.71 526.16 967.57 555.77 863.10 401.70 885.89 928.66 76.58 151.46 965.49 541.62 672.30 257.98 613.39 209.26 969.21 538.23 233.34 958.78 491.43 454.55 563.94 163.64 865.78 863.30 897.24 870.67 524.88 572.65 34.82 918.79 924.32 250.35 95.81 462.54 912.55 42.61 147.27 526.93 377.65 1109.73 891.81 532.81 950.26
986.54 380.40 109.94 143.71 342.71 365.29 331.55 791.58 1013.89 933.74 65.59 137.36 752.47 143.90 535.35 371.22 262.84 955.46 387.07 165.73 263.74 296.55 65.06 466.77 191.70 222.39 466.33 516.98 119.69 374.36 167.15 212.28 868.03 0.00 337.64 128.04 58.20 241.47 425.10 502.87 238.98 913.69 205.18 156.07 981.50 814.62 122.83 109.28 898.06 484.46 493.20 986.99 70.64 874.88 399.52 983.30 121.80 516.09 754.68 153.13 467.68 871.92 433.37 143.57 609.08 66.93 539.26 158.90 174.03 943.39 998.42 192.42 419.25 309.36 981.31 350.74 1059.54 175.45 463.42 964.70 121.55 475.48 413.48 507.11 1028.14 157.19 194.81 126.70 100.32 406.26 415.71 902.85 123.25 132.39 932.21 841.67 405.49 56.77 907.81 982.19 423.52 596.39 349.50 113.30 426.03 152.64
705.96 202.83 413.62 258.08 120.66 347.45 153.98 655.35 850.57 778.78 370.65 306.35 549.50 313.69 316.63 240.58 260.09 800.27 223.76 279.16 370.15 133.24 351.97 284.81 493.57 152.38 254.19 360.00 290.17 230.76 265.05 471.57 713.56 337.64 0.00 348.76 333.01 543.34 188.58 222.29 530.83 771.02 415.09 261.54 803.93 602.48 312.25 271.20 742.90 287.83 191.57 822.99 304.13 662.74 218.03 828.11 344.76 213.24 666.03 399.22 363.20 718.80 204.48 376.37 329.64 320.35 362.34 257.87 475.53 770.98 818.77 365.14 255.64 306.61 817.11 131.46 900.88 346.27 244.70 787.13 369.36 326.23 277.25 366.96 872.43 223.29 443.60 306.55 291.31 219.97 238.14 729.22 294.10 312.53 754.64 704.80 269.26 394.41 754.24 827.23 209.76 410.10 520.32 296.07 196.41 337.43
978.04 455.55 103.31 124.75 358.51 392.03 416.69 863.48 1074.18 1000.78 98.55 96.69 791.16 35.07 594.86 420.86 312.48 1005.10 434.85 72.91 154.91 403.93 121.54 523.78 239.64 197.64 493.16 598.00 170.87 430.70 87.02 161.01 939.93 128.04 348.76 0.00 107.84 289.41 427.55 494.37 240.96 928.54 122.19 125.47 1053.16 841.45 37.77 111.16 969.96 526.80 466.55 1058.81 159.38 901.46 434.15 1030.06 34.45 520.66 838.05 116.78 518.86 954.07 443.45 49.22 676.93 93.67 591.46 110.90 187.32 1000.10 1053.51 84.92 475.59 342.37 1052.69 373.12 1135.62 47.41 543.36 1033.26 68.43 483.75 502.22 501.03 1010.98 156.40 178.48 86.76 89.68 461.63 498.70 958.34 55.92 46.24 963.83 891.31 494.23 141.90 972.06 1033.86 448.73 651.76 221.46 80.87 435.38 80.47
958.59 416.25 115.06 128.74 328.81 323.81 367.93 779.52 968.81 918.07 37.64 110.74 757.51 106.80 489.62 313.02 204.64 897.26 358.73 124.02 226.64 332.93 20.33 438.75 249.90 180.63 408.13 490.16 107.63 322.86 137.17 232.10 855.97 58.20 333.01 107.84 0.00 299.67 368.50 474.92 258.73 871.22 204.94 136.81 946.02 756.42 107.85 98.56 864.18 458.64 467.78 950.97 58.58 816.68 374.26 925.10 101.74 481.37 746.76 152.29 436.00 870.11 384.40 136.75 622.86 51.95 483.62 159.28 147.24 892.26 945.67 172.36 367.75 251.16 973.39 339.84 1027.78 135.07 483.33 975.94 121.31 463.42 401.42 465.63 978.93 109.72 154.91 111.72 90.59 426.26 452.09 850.50 121.94 103.51 944.71 783.47 393.43 78.28 875.52 926.02 380.57 601.43 309.12 98.32 376.33 152.20
1066.43 613.28 322.20 378.52 584.18 481.78 573.02 1017.07 1142.81 1078.88 307.06 341.32 928.04 289.35 648.55 535.86 431.94 1071.26 586.03 362.32 409.19 538.02 306.53 662.97 49.77 390.96 635.43 639.22 361.16 526.02 353.27 258.78 1028.69 241.47 543.34 289.41 299.67 0.00 587.61 687.69 222.91 1084.50 360.29 393.29 1120.02 983.72 310.42 350.75 1007.55 666.24 733.43 1113.88 312.11 1043.98 597.10 1095.10 323.86 708.67 904.81 284.38 663.30 1026.76 603.51 323.36 817.70 308.40 710.92 392.32 182.45 1035.63 1110.51 374.33 570.91 409.13 1131.44 592.21 1185.54 336.82 576.62 1161.42 301.34 675.18 638.97 623.60 1139.92 392.92 237.33 330.30 341.79 639.14 624.33 993.87 328.57 316.06 1140.83 1010.77 630.98 249.42 1018.89 1114.34 608.79 771.96 420.66 316.90 595.44 334.75
737.53 86.19 483.56 366.44 218.75 163.30 104.42 510.25 670.35 590.20 406.14 390.10 404.43 410.85 188.23 55.48 163.86 621.56 38.03 390.69 503.03 128.55 388.83 96.23 616.80 332.07 65.61 171.42 307.24 65.32 404.17 549.10 524.98 425.10 188.58 427.55 368.50 587.61 0.00 253.86 563.62 582.44 526.62 338.13 664.35 413.90 389.78 391.28 555.01 99.25 187.80 645.29 356.29 474.16 29.45 643.80 438.43 303.10 489.22 483.91 175.99 530.22 15.90 463.18 289.10 412.16 191.75 360.91 515.70 585.93 630.19 480.59 67.06 178.48 715.85 92.56 717.19 450.06 116.30 687.16 472.41 137.65 132.15 189.10 686.44 356.17 523.41 402.57 376.00 65.54 95.73 544.17 394.58 399.34 602.56 516.22 140.14 422.53 567.59 638.65 21.18 248.35 624.11 404.99 7.83 452.74
483.67 283.12 547.52 402.43 245.38 417.16 331.55 718.60 845.39 828.40 437.28 450.12 573.48 473.32 317.21 309.34 368.28 785.11 291.89 423.51 464.07 324.26 467.24 350.09 637.92 296.73 319.47 425.28 434.52 319.18 409.40 615.92 778.84 502.87 222.29 494.37 474.92 687.69 253.86 0.00 658.37 831.74 559.44 405.89 798.75 667.76 456.60 415.55 758.18 337.45 206.85 817.81 448.48 710.20 272.54 757.27 489.11 91.55 743.08 520.99 414.19 777.39 268.37 520.72 338.94 464.70 377.62 402.22 605.63 786.26 830.10 509.49 320.92 414.80 892.86 346.42 893.58 490.62 245.28 922.84 513.71 386.95 370.35 441.57 873.01 367.64 587.95 439.65 413.08 303.74 247.39 744.50 438.45 456.88 763.89 754.42 378.34 532.81 769.52 864.97 259.38 417.40 664.67 442.07 246.03 481.78
1142.04 583.11 167.24 321.85 520.52 509.82 570.53 962.68 1147.80 1078.61 221.09 274.59 909.88 245.01 722.12 549.26 440.88 1097.55 525.59 281.34 301.45 535.53 247.69 651.93 173.14 378.45 621.31 726.40 297.50 559.10 277.42 79.95 986.74 238.98 530.83 240.96 258.73 222.91 563.62 658.37 0.00 1084.79 246.10 326.56 1132.03 864.79 227.86 283.22 1016.77 651.50 650.77 1112.97 298.81 925.05 568.21 1105.56 236.10 717.61 983.00 189.69 645.49 997.90 579.52 204.40 789.72 265.48 716.82 315.84 188.80 1063.32 1126.53 261.61 595.47 487.40 1170.48 529.71 1185.52 224.10 650.19 1189.51 226.42 656.62 635.26 651.64 1150.38 330.55 123.44 275.65 284.85 608.97 650.08 1021.56 236.73 218.30 1134.76 1019.71 633.66 182.21 1029.35 1127.06 584.80 799.10 197.75 262.25 571.45 285.75
1045.67 630.44 986.28 904.77 731.59 638.19 642.69 122.11 148.20 100.65 908.86 929.13 361.66 911.84 546.72 568.32 666.58 155.16 575.82 944.25 986.43 666.34 891.55 507.47 1105.39 853.04 531.23 476.89 809.96 558.48 941.96 1050.09 165.32 913.69 771.02 928.54 871.22 1084.50 582.44 831.74 1084.79 0.00 1037.14 891.84 194.84 220.00 890.77 894.00 174.77 494.29 675.03 177.97 843.05 275.42 583.16 168.03 936.63 749.16 302.61 1017.38 496.61 193.98 590.84 964.17 601.43 905.32 527.97 887.25 990.59 143.90 166.17 988.56 586.12 675.37 134.70 650.42 229.50 951.05 618.65 104.72 970.61 444.79 500.21 609.60 161.13 897.01 1026.13 931.98 916.33 613.44 663.30 161.09 908.92 900.33 339.31 87.75 508.20 925.25 150.79 118.48 572.36 423.31 1125.10 918.58 585.71 957.24
1043.11 520.59 151.96 224.28 438.51 452.64 494.36 940.93 1146.00 1065.85 167.30 190.15 856.20 135.68 680.33 492.57 400.74 1093.36 516.18 135.93 201.59 466.95 185.90 607.48 310.52 262.71 592.23 666.33 269.04 501.12 150.04 166.15 1017.38 205.18 415.09 122.19 204.94 360.29 526.62 559.44 246.10 1037.14 0.00 188.49 1135.49 940.52 146.37 200.95 1040.66 608.44 577.48 1143.17 219.99 992.03 497.17 1106.90 117.61 583.68 926.31 136.27 586.89 1031.52 531.02 72.97 659.47 154.28 660.10 213.31 202.52 1068.74 1141.77 67.46 546.01 432.94 1113.30 438.16 1217.76 95.30 608.40 1127.51 83.63 592.35 562.83 548.92 1110.27 219.42 164.90 179.26 195.54 526.67 561.72 1026.98 147.42 136.81 1055.33 979.57 554.84 201.94 1052.00 1114.30 530.37 716.80 151.04 180.76 523.68 132.20
889.56 366.99 191.10 35.79 257.34 387.50 318.14 816.19 963.19 912.30 150.72 51.97 706.89 127.11 507.80 369.92 268.68 914.89 351.30 52.56 170.93 283.14 120.76 418.99 347.77 109.16 403.74 509.55 171.14 369.01 66.67 265.36 847.74 156.07 261.54 125.47 136.81 393.29 338.13 405.89 326.56 891.84 188.49 0.00 963.65 752.03 106.04 86.16 877.77 426.61 396.31 968.60 151.07 812.29 308.68 942.73 135.06 395.19 766.82 171.07 477.58 856.85 342.53 172.10 591.18 89.14 529.88 40.24 252.03 913.29 956.82 166.76 405.19 315.20 981.27 337.33 1044.47 158.98 435.87 951.29 169.04 447.05 438.09 510.39 1011.38 38.25 245.22 73.41 77.79 360.68 402.30 871.53 94.70 108.26 893.25 830.88 430.10 186.99 890.35 960.75 348.54 550.81 333.03 76.39 335.19 114.61
950.79 677.41 1061.06 928.41 806.09 729.85 649.95 194.56 46.64 96.38 983.66 974.85 326.15 1022.97 557.63 690.29 741.38 48.76 684.26 1015.97 1112.85 684.95 966.35 588.32 1169.79 899.52 615.53 588.53 884.76 693.01 1012.19 1071.06 159.57 981.50 803.93 1053.16 946.02 1120.02 664.35 798.75 1132.03 194.84 1135.49 963.65 0.00 267.24 1025.87 968.80 133.00 620.24 663.80 19.06 915.50 249.22 654.97 41.48 1038.53 779.10 329.47 1079.55 646.75 134.13 648.45 1080.51 640.09 981.21 493.03 983.74 1082.25 101.65 41.07 1080.92 673.84 747.38 201.86 706.15 114.99 1062.76 629.56 192.43 1058.49 594.93 572.66 655.25 99.88 965.99 1022.87 976.88 988.78 657.91 623.78 126.15 1017.58 1018.17 244.43 203.27 580.65 1000.05 117.69 79.64 649.14 467.78 1185.50 985.77 662.49 1016.18
976.33 440.03 871.48 762.43 618.88 560.10 488.88 97.89 283.01 213.82 794.06 798.42 228.61 824.75 386.17 455.61 551.78 243.39 444.01 804.59 916.87 523.88 776.75 378.91 963.96 745.97 348.29 546.65 695.16 465.45 796.09 944.74 170.36 814.62 602.48 841.45 756.42 983.72 413.90 667.76 864.79 220.00 940.52 752.03 267.24 0.00 803.68 779.20 175.77 416.93 492.34 248.18 744.21 60.26 443.35 250.77 844.41 607.64 298.20 894.03 486.55 133.11 423.70 877.08 531.18 803.40 321.57 732.82 903.66 204.58 261.74 880.72 480.96 582.34 354.70 502.68 320.73 863.96 458.10 324.72 868.89 434.73 443.15 552.54 289.33 770.07 911.33 810.90 786.12 414.17 499.40 166.00 808.48 813.24 269.97 250.57 435.16 810.45 174.56 262.27 417.17 353.06 1038.01 811.21 421.73 866.64
940.27 427.77 119.01 97.46 332.92 354.26 378.92 842.55 1038.97 963.01 75.29 58.92 767.75 21.07 578.01 409.28 300.90 993.52 414.14 53.48 140.91 384.50 87.52 486.01 277.41 159.87 455.39 561.20 170.66 402.74 67.59 159.32 914.76 122.83 312.25 37.77 107.85 310.42 389.78 456.60 227.86 890.77 146.37 106.04 1025.87 803.68 0.00 73.48 942.28 489.03 477.18 1021.85 121.61 863.94 414.72 992.29 50.15 501.23 801.37 126.61 497.80 917.38 405.68 73.40 641.89 55.90 561.72 87.98 201.74 970.36 1019.97 97.79 447.63 305.69 1014.92 349.71 1102.03 60.28 506.08 995.49 82.85 445.98 464.45 496.08 996.98 119.12 179.28 48.99 66.27 438.22 463.08 928.60 18.15 9.56 926.06 879.73 456.46 109.20 935.38 1009.25 410.96 628.35 234.33 43.10 397.61 66.47
899.22 426.75 146.35 73.10 259.44 317.49 378.40 815.94 991.59 921.96 136.20 35.15 772.84 91.63 512.40 335.80 227.42 920.04 381.51 81.48 194.77 355.71 118.89 461.53 300.98 118.82 430.91 512.94 154.32 345.64 77.76 210.14 890.28 109.28 271.20 111.16 98.56 350.75 391.28 415.55 283.22 894.00 200.95 86.16 968.80 779.20 73.48 0.00 886.96 457.91 405.97 973.75 145.47 839.46 374.63 947.88 105.51 457.61 769.54 180.10 458.78 906.17 407.18 128.76 600.84 89.36 506.40 60.72 232.54 915.04 968.45 136.68 390.53 273.94 978.15 355.63 1050.56 115.64 489.46 998.72 138.21 492.42 437.84 459.31 1019.33 47.91 231.22 53.92 72.19 426.63 441.75 873.28 55.33 64.92 902.91 806.25 429.85 164.56 898.30 970.41 412.46 616.76 289.69 59.57 399.11 128.90
942.61 564.94 972.98 881.93 692.25 639.97 594.00 106.48 162.30 91.88 884.72 913.98 328.34 934.89 445.16 596.72 659.54 91.07 571.79 930.33 1036.83 629.00 854.76 458.78 1057.32 887.08 489.40 500.97 802.92 606.56 937.93 970.52 30.03 898.06 742.90 969.96 864.18 1007.55 555.01 758.18 1016.77 174.77 1040.66 877.77 133.00 175.77 942.28 886.96 0.00 496.80 551.33 133.69 827.42 116.22 569.09 91.52 944.98 666.63 306.79 977.37 573.28 46.57 555.15 971.18 585.80 886.38 380.56 903.10 958.69 55.44 130.32 995.52 571.65 668.39 236.84 628.88 205.35 988.66 517.09 252.28 968.39 521.46 484.58 567.69 159.73 889.97 893.33 927.27 900.70 554.91 564.80 13.68 942.29 937.94 236.25 123.00 492.57 918.21 38.70 134.15 536.67 407.68 1139.76 920.85 550.02 980.29
809.66 145.68 559.38 423.33 315.11 219.21 170.04 449.34 614.31 551.57 491.54 478.58 323.33 510.10 198.26 154.73 263.11 577.31 137.28 479.17 591.14 205.04 478.97 38.02 676.16 431.32 68.64 184.22 402.49 164.57 493.28 626.55 466.77 484.46 287.83 526.80 458.64 666.24 99.25 337.45 651.50 494.29 608.44 426.61 620.24 416.93 489.03 457.91 496.80 0.00 268.45 621.60 413.82 459.43 117.93 585.59 533.45 383.75 434.09 561.63 88.79 534.48 96.55 562.43 345.37 479.53 162.88 444.50 571.61 543.35 579.17 579.84 150.89 277.73 628.99 170.28 676.03 549.31 187.58 599.01 567.43 49.50 71.24 180.63 630.41 444.65 613.55 471.80 453.72 119.82 169.01 501.59 493.83 498.59 562.40 416.97 78.97 517.78 509.38 582.50 78.07 167.25 723.36 472.11 91.42 541.22
690.52 124.99 552.32 402.26 196.20 342.63 173.84 552.92 686.59 622.66 505.42 441.12 407.80 497.02 128.31 236.64 324.94 615.04 182.51 441.55 504.92 196.65 488.11 247.96 684.90 343.95 246.64 359.22 408.26 246.48 455.66 616.11 572.47 493.20 191.57 466.55 467.78 733.43 187.80 206.85 650.77 675.03 577.48 396.31 663.80 492.34 477.18 405.97 551.33 268.45 0.00 657.66 457.31 544.52 199.34 638.88 501.00 115.30 596.91 533.99 332.72 570.54 171.90 515.77 318.15 474.43 170.77 432.77 594.80 579.41 654.29 542.65 254.86 358.13 760.81 176.05 729.32 513.96 156.81 776.25 504.13 297.19 309.80 345.10 683.70 358.06 618.03 447.48 426.08 150.85 129.34 537.65 461.30 470.31 645.84 668.28 301.81 523.55 562.67 658.12 190.38 251.72 688.01 434.08 194.24 503.60
931.73 671.27 1066.03 947.47 808.21 740.95 669.01 205.66 34.83 77.32 988.61 993.91 331.10 1034.07 551.49 683.79 746.33 53.71 678.12 1007.24 1098.23 704.01 961.09 583.58 1163.65 880.46 596.47 569.47 889.71 673.95 993.13 1052.00 154.83 986.99 822.99 1058.81 950.97 1113.88 645.29 817.81 1112.97 177.97 1143.17 968.60 19.06 248.18 1021.85 973.75 133.69 621.60 657.66 0.00 926.60 239.12 659.92 60.54 1051.31 772.96 331.59 1098.61 627.69 115.07 629.39 1077.51 659.15 992.31 486.89 981.00 1083.49 82.59 43.19 1093.22 684.94 748.02 182.80 725.21 96.09 1074.35 623.42 190.58 1063.44 575.87 583.76 636.19 98.03 951.37 1018.13 995.94 999.88 662.35 625.90 120.01 1022.18 1031.41 225.37 205.39 591.75 1005.00 118.33 90.88 643.00 486.84 1187.62 989.35 651.73 1035.24
932.15 360.57 145.56 130.99 272.07 311.60 331.73 720.94 943.25 863.10 77.72 110.32 698.93 142.68 477.41 300.81 192.43 885.05 337.91 138.69 247.86 320.72 78.91 426.54 262.34 151.75 395.92 446.34 49.05 303.72 152.80 251.24 797.39 70.64 304.13 159.38 58.58 312.11 356.29 448.48 298.81 843.05 219.99 151.07 915.50 744.21 121.61 145.47 827.42 413.82 457.31 926.60 0.00 804.47 362.05 912.89 141.82 445.45 734.55 181.19 397.04 811.53 372.19 170.23 595.00 65.71 471.41 160.10 171.40 873.97 933.46 168.10 348.61 238.95 961.18 281.26 999.15 179.11 449.34 947.77 161.39 404.84 342.84 451.28 961.03 141.30 213.49 99.85 73.28 369.77 401.63 832.21 121.40 128.39 886.13 771.26 334.85 127.41 840.00 911.55 373.47 542.85 353.16 102.27 364.12 188.08
948.87 500.29 931.74 822.69 679.14 620.36 549.14 158.15 273.69 208.10 854.32 858.68 235.85 881.93 416.21 515.87 612.04 202.14 504.27 864.85 977.13 584.14 837.01 439.17 1024.22 806.23 408.55 547.58 755.42 525.71 856.35 1005.00 110.10 874.88 662.74 901.46 816.68 1043.98 474.16 710.20 925.05 275.42 992.03 812.29 249.22 60.26 863.94 839.46 116.22 459.43 544.52 239.12 804.47 0.00 503.61 207.74 895.81 618.65 358.46 954.29 546.81 124.05 483.96 919.06 470.92 863.66 381.83 793.08 963.92 166.51 241.39 940.98 541.22 642.60 347.91 562.94 311.67 905.94 488.14 343.44 928.51 494.99 503.41 612.80 270.80 830.33 971.59 871.16 846.38 474.43 535.85 124.75 868.74 855.22 242.51 205.91 495.42 870.71 149.77 245.22 477.43 292.80 1079.99 871.47 481.99 922.67
756.21 74.35 488.34 344.47 224.51 177.28 74.97 507.51 654.51 608.88 411.90 360.65 398.21 435.79 199.12 61.24 169.62 606.21 42.62 361.24 473.58 102.97 394.59 110.31 591.22 361.52 95.06 200.87 313.00 71.08 375.35 555.32 539.06 399.52 218.03 434.15 374.26 597.10 29.45 272.54 568.21 583.16 497.17 308.68 654.97 443.35 414.72 374.63 569.09 117.93 199.34 659.92 362.05 503.61 0.00 634.05 443.02 314.64 476.02 479.75 168.90 548.17 33.85 480.78 286.09 397.82 221.20 348.92 521.50 604.61 648.14 475.44 96.51 187.97 702.65 89.41 735.79 467.66 127.19 687.88 472.79 138.37 129.41 207.05 702.70 326.72 529.17 382.09 372.85 52.00 125.18 562.85 403.38 416.94 620.51 522.20 121.42 428.29 581.67 657.33 39.86 242.13 641.71 385.07 26.51 423.29
992.27 652.49 1040.16 969.48 781.04 728.76 682.79 195.27 88.12 113.98 962.74 933.37 305.23 1013.04 532.71 685.51 720.46 27.84 659.34 990.80 1097.75 694.87 942.31 547.57 1144.87 917.12 578.19 577.32 863.84 687.87 1004.91 1059.31 118.82 983.30 828.11 1030.06 925.10 1095.10 643.80 757.27 1105.56 168.03 1106.90 942.73 41.48 250.77 992.29 947.88 91.52 585.59 638.88 60.54 912.89 207.74 634.05 0.00 1016.46 754.18 343.43 1066.16 662.07 131.04 642.70 1053.50 598.61 972.08 468.11 982.97 1047.48 96.51 80.43 1039.44 660.44 705.90 225.75 716.43 136.31 1040.38 604.64 195.77 1037.57 610.25 573.37 652.16 141.36 950.89 982.12 954.81 970.41 643.70 652.35 101.23 976.10 989.66 285.91 188.18 581.36 979.13 76.21 119.19 624.22 461.31 1185.79 957.79 637.57 974.70
972.78 454.09 68.86 110.12 364.95 404.41 410.87 862.76 1070.55 995.52 64.10 83.09 789.70 66.43 591.36 414.76 306.38 999.00 400.40 103.63 183.62 418.20 90.22 526.74 274.09 192.38 496.12 588.16 190.87 424.60 105.86 180.45 939.21 121.80 344.76 34.45 101.74 323.86 438.43 489.11 236.10 936.63 117.61 135.06 1038.53 844.41 50.15 105.51 944.98 533.45 501.00 1051.31 141.82 895.81 443.02 1016.46 0.00 530.25 832.40 102.82 537.24 949.33 454.33 56.00 662.63 106.05 564.42 117.51 152.87 973.06 1047.41 70.62 469.49 336.72 1059.03 371.66 1107.01 81.86 525.00 1041.35 33.98 491.84 484.66 535.48 1042.34 151.07 153.73 61.65 88.22 460.17 488.58 931.30 50.66 40.59 958.57 885.21 476.67 107.45 956.32 1027.76 455.38 650.30 255.91 75.05 446.26 98.80
575.22 240.29 586.29 430.98 198.17 395.90 289.14 627.05 801.89 737.96 519.01 447.16 481.93 522.30 243.61 351.94 276.73 730.34 297.81 447.75 555.62 311.95 501.70 363.26 706.81 365.62 333.52 462.01 420.11 361.78 461.86 660.55 687.77 516.09 213.24 520.66 481.37 708.67 303.10 91.55 717.61 749.16 583.68 395.19 779.10 607.64 501.23 457.61 666.63 383.75 115.30 772.96 445.45 618.65 314.64 754.18 530.25 0.00 712.21 566.26 444.46 685.84 287.20 567.29 247.39 484.33 286.07 435.43 616.85 694.71 769.59 561.95 370.16 323.25 801.31 264.84 844.62 554.17 210.19 831.29 563.33 412.49 358.51 460.40 799.00 417.26 636.28 468.60 472.98 266.15 244.64 652.95 489.89 503.45 721.00 744.87 350.52 535.40 677.97 773.42 305.68 325.85 728.22 471.58 309.54 509.80
1123.87 471.92 861.82 802.61 597.01 560.27 520.77 200.31 329.38 307.16 784.40 804.67 439.86 818.52 556.31 433.74 542.12 315.59 487.87 819.38 919.41 555.77 767.09 396.07 946.38 738.14 426.69 356.05 685.50 443.58 833.49 960.69 276.76 754.68 666.03 838.05 746.76 904.81 489.22 743.08 983.00 302.61 926.31 766.82 329.47 298.20 801.37 769.54 306.79 434.09 596.91 331.59 734.55 358.46 476.02 343.43 832.40 712.21 0.00 899.05 497.07 290.90 483.82 855.65 565.78 790.42 520.93 772.35 840.99 263.91 288.40 858.85 488.47 495.68 226.63 534.57 410.68 842.53 538.52 256.61 859.23 458.75 475.53 497.02 335.68 772.55 901.67 818.78 807.83 446.06 531.29 305.67 810.24 791.81 417.51 352.99 467.54 800.79 299.65 336.09 494.25 501.51 1016.58 805.38 497.05 859.26
1004.66 473.78 43.19 151.14 395.02 431.30 447.55 902.13 1121.10 1044.29 114.65 144.95 809.39 147.68 633.52 465.31 356.93 1049.55 488.91 173.32 263.51 445.54 140.76 580.14 234.61 246.84 549.52 627.53 218.98 475.15 187.43 109.74 947.34 153.13 399.22 116.78 152.29 284.38 483.91 520.99 189.69 1017.38 136.27 171.07 1079.55 894.03 126.61 180.10 977.37 561.63 533.99 1098.61 181.19 954.29 479.75 1066.16 102.82 566.26 899.05 0.00 566.97 992.72 499.81 90.86 722.97 139.28 614.96 194.73 119.20 1023.60 1097.96 148.04 518.16 403.45 1044.83 391.35 1156.60 126.69 561.59 1014.85 68.84 572.59 524.03 573.12 1095.48 175.93 84.04 134.48 107.91 479.86 529.60 981.84 144.76 136.17 1030.93 935.76 516.04 103.69 989.95 1078.31 483.56 669.99 287.31 136.90 491.74 176.34
811.98 207.73 542.60 487.51 329.53 195.95 243.87 480.03 644.81 597.26 473.64 467.16 412.12 518.87 220.70 166.26 231.36 639.93 182.85 508.59 593.46 271.87 456.33 114.50 659.38 381.81 138.26 141.02 347.99 156.42 494.48 627.05 543.25 467.68 363.20 518.86 436.00 663.30 175.99 414.19 645.49 496.61 586.89 477.58 646.75 486.55 497.80 458.78 573.28 88.79 332.72 627.69 397.04 546.81 168.90 662.07 537.24 444.46 497.07 566.97 0.00 570.62 185.34 525.28 410.54 462.75 195.66 485.19 504.63 604.30 662.78 565.14 111.53 268.60 631.31 255.72 723.78 558.08 261.59 601.33 503.26 51.82 101.93 131.63 655.45 452.72 569.99 488.60 470.32 181.87 244.23 562.54 509.89 507.36 645.22 505.76 93.94 463.28 585.86 615.09 166.86 256.04 729.44 491.58 168.16 564.27
974.15 573.14 957.09 873.25 729.93 625.88 621.99 90.59 149.90 114.72 889.25 898.09 330.14 919.00 464.37 585.70 678.75 110.28 568.25 909.41 1021.75 651.14 873.97 496.46 1063.62 862.29 481.40 454.40 822.13 595.54 923.52 936.93 67.71 871.92 718.80 954.07 870.11 1026.76 530.22 777.39 997.90 193.98 1031.52 856.85 134.13 133.11 917.38 906.17 46.57 534.48 570.54 115.07 811.53 124.05 548.17 131.04 949.33 685.84 290.90 992.72 570.62 0.00 514.32 981.71 569.91 877.24 399.77 865.93 978.28 71.47 128.63 979.63 569.87 687.31 256.05 622.78 187.62 968.95 536.30 233.86 972.92 546.67 468.69 521.12 156.22 874.89 931.01 887.68 884.81 547.28 584.01 32.89 910.56 918.23 267.79 163.52 476.68 928.69 57.62 150.18 532.80 391.79 1123.87 874.28 536.66 964.40
752.04 80.31 499.46 363.74 233.83 179.20 108.82 516.00 655.27 587.50 422.04 394.50 400.66 426.75 202.74 71.38 179.76 618.86 53.93 395.09 507.43 136.82 404.73 97.41 625.07 347.97 75.41 187.32 323.14 81.22 409.20 565.00 526.16 433.37 204.48 443.45 384.40 603.51 15.90 268.37 579.52 590.84 531.02 342.53 648.45 423.70 405.68 407.18 555.15 96.55 171.90 629.39 372.19 483.96 33.85 642.70 454.33 287.20 483.82 499.81 185.34 514.32 0.00 479.08 301.58 428.06 189.59 375.42 531.60 583.23 614.29 496.49 82.96 194.38 710.45 108.46 701.94 465.96 130.81 695.56 488.31 146.05 137.90 173.20 670.54 360.57 539.31 412.21 391.90 54.45 108.21 541.47 410.48 415.24 586.66 513.52 129.91 423.90 566.49 635.95 18.48 244.58 640.01 412.52 22.34 457.14
1004.39 492.46 84.34 165.09 387.18 418.26 443.61 891.12 1101.82 1027.13 100.99 120.13 831.87 62.71 624.11 447.51 339.13 1031.75 456.40 122.13 172.65 440.12 116.42 559.41 288.86 223.99 528.79 616.57 219.28 457.35 126.63 124.45 967.57 143.57 376.37 49.22 136.75 323.36 463.18 520.72 204.40 964.17 72.97 172.10 1080.51 877.08 73.40 128.76 971.18 562.43 515.77 1077.51 170.23 919.06 480.78 1053.50 56.00 567.29 855.65 90.86 525.28 981.71 479.08 0.00 665.39 129.30 590.62 160.12 140.91 999.26 1074.14 73.38 502.24 359.97 1078.92 413.83 1149.17 84.96 575.48 1068.89 22.02 519.38 513.07 538.58 1038.62 168.09 129.26 116.62 130.39 502.34 527.77 957.50 82.27 63.84 990.18 917.96 505.08 128.97 982.52 1062.77 484.36 692.47 224.01 107.79 471.01 108.11
822.61 270.69 697.86 571.83 375.68 444.79 277.53 479.32 683.14 612.03 660.50 635.99 334.20 643.33 189.84 318.26 418.22 611.59 264.13 608.80 699.79 312.53 643.19 347.24 800.78 482.02 331.33 460.52 545.95 328.10 594.69 776.83 555.77 609.08 329.64 676.93 622.86 817.70 289.10 338.94 789.72 601.43 659.47 591.18 640.09 531.18 641.89 600.84 585.80 345.37 318.15 659.15 595.00 470.92 286.09 598.61 662.63 247.39 565.78 722.97 410.54 569.91 301.58 665.39 0.00 619.78 222.38 587.51 766.40 631.02 664.18 592.01 356.16 422.16 730.74 333.73 734.92 629.52 241.08 700.76 687.41 358.72 394.11 474.78 700.83 552.93 773.24 620.30 617.17 269.26 193.37 589.26 623.74 642.17 573.27 597.14 386.12 661.24 598.38 647.92 284.31 178.12 794.84 613.35 296.93 656.75
948.37 426.28 123.35 107.99 335.46 298.36 382.19 786.65 1008.96 928.81 61.58 70.79 764.64 76.97 536.60 356.68 251.62 944.24 403.62 109.38 196.81 363.48 31.62 479.55 258.63 167.97 455.11 512.05 114.76 346.84 100.22 185.53 863.10 66.93 320.35 93.67 51.95 308.40 412.16 464.70 265.48 905.32 154.28 89.14 981.21 803.40 55.90 89.36 886.38 479.53 474.43 992.31 65.71 863.66 397.82 972.08 106.05 484.33 790.42 139.28 462.75 877.24 428.06 129.30 619.78 0.00 505.82 129.38 173.93 914.46 989.34 153.69 391.73 298.14 959.02 346.97 1064.37 116.18 498.82 989.00 138.75 470.55 408.55 440.18 1018.75 116.37 206.86 59.77 65.85 435.48 465.22 872.70 74.05 65.46 951.84 830.45 400.56 97.85 897.72 977.26 432.52 608.56 290.23 46.37 419.99 122.37
710.06 184.38 596.71 529.80 366.55 306.05 233.23 419.46 515.82 451.89 504.16 541.53 299.46 560.67 64.60 245.36 278.98 444.27 191.23 571.48 656.27 268.23 474.20 124.86 730.96 514.72 145.38 316.24 422.36 255.20 557.37 691.35 401.70 539.26 362.34 591.46 483.62 710.92 191.75 377.62 716.82 527.97 660.10 529.88 493.03 321.57 561.72 506.40 380.56 162.88 170.77 486.89 471.41 381.83 221.20 468.11 564.42 286.07 520.93 614.96 195.66 399.77 189.59 590.62 222.38 505.82 0.00 552.66 630.86 408.64 483.52 635.04 237.73 325.50 590.04 266.81 558.55 608.10 136.53 605.48 587.83 187.54 226.71 327.29 512.93 509.41 638.53 560.32 544.69 188.89 184.24 366.88 561.73 557.38 538.53 497.51 218.72 537.65 391.90 487.35 208.07 143.38 776.76 552.19 199.58 606.07
885.89 394.34 186.37 55.33 293.80 378.21 345.49 830.71 988.78 908.63 163.27 65.60 747.13 102.97 533.48 338.61 288.14 955.13 391.54 77.38 184.05 323.38 158.06 457.14 350.54 105.49 426.52 532.33 184.77 328.77 63.27 247.30 885.89 158.90 257.87 110.90 159.28 392.32 360.91 402.22 315.84 887.25 213.31 40.24 983.74 732.82 87.98 60.72 903.10 444.50 432.77 981.00 160.10 793.08 348.92 982.97 117.51 435.43 772.35 194.73 485.19 865.93 375.42 160.12 587.51 129.38 552.66 0.00 249.49 920.13 989.71 163.36 373.66 334.66 998.98 370.26 1053.55 148.26 461.55 978.64 151.49 480.06 456.24 520.03 1009.99 74.71 241.82 87.04 86.82 400.92 429.65 889.42 88.73 97.54 929.71 861.47 455.46 194.56 907.38 957.08 366.43 591.05 319.06 87.17 353.08 135.65
1089.30 531.97 150.23 227.09 429.66 352.40 503.13 887.69 1107.63 1027.48 184.88 200.06 844.66 182.73 636.86 460.26 351.88 1039.47 505.97 248.63 302.57 470.58 167.57 533.59 173.28 323.15 555.37 613.09 220.45 462.20 243.07 132.77 928.66 174.03 475.53 187.32 147.24 182.45 515.70 605.63 188.80 990.59 202.52 252.03 1082.25 903.66 201.74 232.54 958.69 571.61 594.80 1083.49 171.40 963.92 521.50 1047.48 152.87 616.85 840.99 119.20 504.63 978.28 531.60 140.91 766.40 173.93 630.86 249.49 0.00 1005.24 1080.12 214.29 448.64 345.31 1013.06 452.66 1137.92 223.62 596.16 1043.04 118.89 545.80 509.59 494.22 1092.30 256.96 65.36 178.62 205.19 541.17 573.03 963.48 203.53 192.18 1052.88 930.71 501.60 117.62 971.27 1073.26 527.81 709.60 353.56 192.02 523.53 228.13
998.05 593.02 1005.35 910.01 738.80 686.52 640.55 153.03 115.86 43.25 912.80 950.17 321.08 969.31 473.24 601.20 687.62 68.67 599.87 934.69 1063.41 675.55 882.84 505.33 1085.40 846.39 535.95 525.87 831.00 591.36 920.58 1008.40 76.58 943.39 770.98 1000.10 892.26 1035.63 585.93 786.26 1063.32 143.90 1068.74 913.29 101.65 204.58 970.36 915.04 55.44 543.35 579.41 82.59 873.97 166.51 604.61 96.51 973.06 694.71 263.91 1023.60 604.30 71.47 583.23 999.26 631.02 914.46 408.64 920.13 1005.24 0.00 74.88 1020.67 618.20 665.43 204.47 656.96 156.58 1012.28 545.17 224.17 996.47 568.01 531.13 592.59 131.62 917.30 939.88 958.48 940.40 597.53 586.24 41.76 970.37 961.56 291.69 138.31 539.12 946.29 35.74 78.71 564.75 454.23 1142.85 945.75 578.10 992.96
974.92 660.03 1060.73 961.17 765.02 754.51 666.87 219.22 40.98 96.14 983.31 1003.58 329.98 1041.04 548.12 676.08 741.03 52.59 668.22 1008.41 1071.78 701.87 957.72 580.21 1160.28 899.28 610.03 551.34 884.41 666.24 994.39 1065.56 151.46 998.42 818.77 1053.51 945.67 1110.51 630.19 830.10 1126.53 166.17 1141.77 956.82 41.07 261.74 1019.97 968.45 130.32 579.17 654.29 43.19 933.46 241.39 648.14 80.43 1047.41 769.59 288.40 1097.96 662.78 128.63 614.29 1074.14 664.18 989.34 483.52 989.71 1080.12 74.88 0.00 1094.48 693.08 740.31 200.66 722.75 122.28 1080.25 620.05 180.67 1058.14 610.96 597.32 649.75 88.12 924.92 1014.76 1009.64 992.94 667.94 582.71 116.64 1023.78 1029.53 268.56 162.20 605.31 999.70 110.62 47.69 632.77 486.06 1144.43 1000.94 636.63 1055.13
993.16 516.85 139.48 171.86 396.12 452.05 468.00 889.04 1096.05 1015.90 134.72 144.52 856.26 101.86 622.60 425.11 360.53 1053.15 466.23 114.20 134.13 445.22 160.84 563.05 324.56 212.76 532.43 614.44 217.15 434.95 100.09 197.83 965.49 192.42 365.14 84.92 172.36 374.33 480.59 509.49 261.61 988.56 67.46 166.76 1080.92 880.72 97.79 136.68 995.52 579.84 542.65 1093.22 168.10 940.98 475.44 1039.44 70.62 561.95 858.85 148.04 565.14 979.63 496.49 73.38 592.01 153.69 635.04 163.36 214.29 1020.67 1094.48 0.00 479.84 384.36 1085.48 438.22 1167.25 37.51 559.48 1093.28 95.40 543.77 510.94 491.13 1077.77 184.59 185.51 132.27 154.78 526.73 511.77 1000.31 106.66 88.23 1014.57 939.36 502.95 178.07 1008.10 1064.35 501.77 710.95 202.83 132.18 488.42 64.74
804.59 138.32 482.81 425.61 218.00 96.24 155.02 479.28 701.59 621.44 405.39 425.66 457.27 468.70 255.29 54.73 163.11 652.43 101.26 451.04 540.40 177.04 388.08 112.87 610.95 339.45 132.67 181.49 306.49 44.89 436.93 515.52 541.62 419.25 255.64 475.59 367.75 570.91 67.06 320.92 595.47 586.12 546.01 405.19 673.84 480.96 447.63 390.53 571.65 150.89 254.86 684.94 348.61 541.22 96.51 660.44 469.49 370.16 488.47 518.16 111.53 569.87 82.96 502.24 356.16 391.73 237.73 373.66 448.64 618.20 693.08 479.84 0.00 161.78 715.10 144.19 750.88 502.82 183.36 690.84 480.22 141.33 101.18 210.57 705.26 393.54 514.00 444.45 421.89 132.60 162.79 576.44 445.86 455.45 644.47 567.86 93.19 421.78 584.23 669.89 80.35 301.19 676.87 438.10 74.89 509.31
898.47 238.38 366.22 321.15 191.50 72.65 209.81 607.94 781.29 708.68 288.80 309.07 582.07 322.84 322.78 126.73 46.52 732.10 180.86 355.42 423.81 174.81 271.49 253.84 458.90 327.69 234.05 332.04 189.90 116.89 351.70 465.01 672.30 309.36 306.61 342.37 251.16 409.13 178.48 414.80 487.40 675.37 432.94 315.20 747.38 582.34 305.69 273.94 668.39 277.73 358.13 748.02 238.95 642.60 187.97 705.90 336.72 323.25 495.68 403.45 268.60 687.31 194.38 359.97 422.16 298.14 325.50 334.66 345.31 665.43 740.31 384.36 161.78 0.00 722.31 216.19 796.34 346.85 250.85 752.29 363.63 266.05 229.84 214.47 750.72 276.95 406.07 323.10 312.23 235.86 228.79 654.71 314.56 296.13 745.29 625.35 221.85 305.19 629.69 744.14 199.66 425.99 520.90 309.70 186.31 363.58
1114.53 698.55 1071.94 1017.06 822.26 660.66 663.13 256.81 185.73 161.22 1011.03 1013.30 439.05 1035.99 654.64 660.37 768.75 236.51 710.52 1029.15 1121.13 698.13 990.64 622.70 1173.01 964.36 653.32 582.68 912.13 670.21 1043.26 1144.55 257.98 981.31 817.11 1052.69 973.39 1131.44 715.85 892.86 1170.48 134.70 1113.30 981.27 201.86 354.70 1014.92 978.15 236.84 628.99 760.81 182.80 961.18 347.91 702.65 225.75 1059.03 801.31 226.63 1044.83 631.31 256.05 710.45 1078.92 730.74 959.02 590.04 998.98 1013.06 204.47 200.66 1085.48 715.10 722.31 0.00 719.33 267.03 1069.16 726.57 29.98 1077.26 579.49 634.91 723.65 122.53 993.62 1078.42 1003.96 1002.77 672.69 747.29 223.16 1026.84 1018.44 408.17 222.45 642.90 988.27 230.91 152.97 707.06 558.01 1243.21 990.56 720.41 1081.39
783.20 82.43 426.82 351.97 144.83 215.99 56.20 579.84 741.38 661.23 358.98 320.48 418.04 370.78 242.17 109.12 182.48 692.59 103.61 348.85 458.02 54.19 356.80 188.79 542.44 283.84 158.17 263.98 232.21 99.30 362.96 490.48 613.39 350.74 131.46 373.12 339.84 592.21 92.56 346.42 529.71 650.42 438.16 337.33 706.15 502.68 349.71 355.63 628.88 170.28 176.05 725.21 281.26 562.94 89.41 716.43 371.66 264.84 534.57 391.35 255.72 622.78 108.46 413.83 333.73 346.97 266.81 370.26 452.66 656.96 722.75 438.22 144.19 216.19 719.33 0.00 806.87 400.71 170.24 689.35 398.28 205.63 209.34 235.50 761.25 351.46 475.39 310.01 283.44 88.51 140.36 615.20 331.56 349.99 656.86 587.25 210.83 347.50 640.22 709.68 92.21 278.64 574.76 312.43 100.39 405.13
1027.82 742.93 1142.84 1043.40 871.48 813.50 764.94 278.21 81.30 161.45 1062.71 1069.68 407.91 1106.62 623.15 757.78 823.14 130.52 747.30 1081.83 1172.82 797.55 1032.75 638.01 1216.55 955.05 651.58 642.02 966.52 747.94 1067.72 1124.55 209.26 1059.54 900.88 1135.62 1027.78 1185.54 717.19 893.58 1185.52 229.50 1217.76 1044.47 114.99 320.73 1102.03 1050.56 205.35 676.03 729.32 96.09 999.15 311.67 735.79 136.31 1107.01 844.62 410.68 1156.60 723.78 187.62 701.94 1149.17 734.92 1064.37 558.55 1053.55 1137.92 156.58 122.28 1167.25 750.88 796.34 267.03 806.87 0.00 1143.19 656.18 237.05 1140.25 671.96 656.31 708.74 144.50 1025.96 1072.56 1075.30 1072.43 734.14 703.89 191.67 1096.77 1092.47 321.46 280.33 664.30 1081.81 166.65 114.80 714.66 563.99 1266.71 1061.90 724.28 1111.01
974.29 479.34 136.31 134.35 375.08 414.54 430.49 892.76 1077.18 997.03 133.05 107.01 818.75 64.35 624.69 448.09 339.71 1032.33 465.14 113.76 171.64 442.12 133.90 546.29 287.05 193.89 515.67 594.59 218.28 457.93 115.99 208.42 969.21 175.45 346.27 47.41 135.07 336.82 450.06 490.62 224.10 951.05 95.30 158.98 1062.76 863.96 60.28 115.64 988.66 549.31 513.96 1074.35 179.11 905.94 467.66 1040.38 81.86 554.17 842.53 126.69 558.08 968.95 465.96 84.96 629.52 116.18 608.10 148.26 223.62 1012.28 1080.25 37.51 502.82 346.85 1069.16 400.71 1143.19 0.00 560.52 1055.77 106.98 506.26 521.95 453.62 1040.26 162.97 210.73 108.07 117.27 489.22 512.81 974.98 69.15 50.72 977.06 918.54 513.96 150.36 976.54 1045.48 471.24 679.35 174.05 94.67 457.89 67.28
717.39 118.32 552.20 426.17 230.02 279.60 131.87 496.54 652.35 588.42 497.16 487.84 351.42 523.31 71.93 171.78 278.69 580.80 124.60 473.50 556.38 166.87 467.20 153.95 626.39 397.08 123.33 287.72 400.29 181.62 459.39 637.30 538.23 463.42 244.70 543.36 483.33 576.62 116.30 245.28 650.19 618.65 608.40 435.87 629.56 458.10 506.08 489.46 517.09 187.58 156.81 623.42 449.34 488.14 127.19 604.64 525.00 210.19 538.52 561.59 261.59 536.30 130.81 575.48 241.08 498.82 136.53 461.55 596.16 545.17 620.05 559.48 183.36 250.85 726.57 170.24 656.18 560.52 0.00 720.28 558.98 209.77 197.76 304.01 627.73 449.11 637.07 474.64 453.68 92.46 47.71 503.41 501.80 511.64 564.21 604.55 189.77 515.58 528.43 623.88 121.82 195.34 734.57 467.69 108.47 531.77
1122.31 682.00 1053.48 987.08 792.28 690.64 633.15 226.83 155.75 191.20 1013.58 993.39 466.38 1016.56 648.35 673.04 771.30 223.61 680.54 999.17 1091.15 668.15 996.27 612.19 1156.40 939.51 635.95 581.61 914.68 663.20 1013.28 1124.59 233.34 964.70 787.13 1033.26 975.94 1161.42 687.16 922.84 1189.51 104.72 1127.51 951.29 192.43 324.72 995.49 998.72 252.28 599.01 776.25 190.58 947.77 343.44 687.88 195.77 1041.35 831.29 256.61 1014.85 601.33 233.86 695.56 1068.89 700.76 989.00 605.48 978.64 1043.04 224.17 180.67 1093.28 690.84 752.29 29.98 689.35 237.05 1055.77 720.28 0.00 1075.33 549.51 604.93 714.32 92.55 963.64 1096.64 982.37 972.79 702.67 717.31 238.60 1005.25 1005.05 415.95 192.47 612.92 1018.25 213.58 145.46 677.08 528.03 1229.82 968.97 690.43 1061.22
997.38 480.71 68.33 144.10 365.16 416.60 444.85 882.33 1081.28 1020.12 83.67 117.07 816.32 84.73 602.09 425.49 317.11 1009.73 434.38 129.74 194.67 418.10 113.63 551.22 292.17 216.98 520.60 602.63 210.44 435.33 135.56 146.47 958.78 121.55 369.36 68.43 121.31 301.34 472.41 513.71 226.42 970.61 83.63 169.04 1058.49 868.89 82.85 138.21 968.39 567.43 504.13 1063.44 161.39 928.51 472.79 1037.57 33.98 563.33 859.23 68.84 503.26 972.92 488.31 22.02 687.41 138.75 587.83 151.49 118.89 996.47 1058.14 95.40 480.22 363.63 1077.26 398.28 1140.25 106.98 558.98 1075.33 0.00 525.82 504.23 558.42 1026.64 146.07 151.28 95.63 114.84 486.79 522.56 954.71 84.64 73.29 992.55 895.94 496.24 139.93 979.73 1047.33 489.36 676.92 234.67 109.03 480.24 130.13
760.16 185.65 550.40 472.83 297.28 193.40 197.90 456.08 592.99 545.44 482.56 499.02 372.83 467.05 168.88 156.62 265.00 599.95 131.03 499.46 541.64 221.55 483.75 62.68 667.18 433.63 86.44 134.72 399.81 151.29 497.17 605.30 491.43 475.48 326.23 483.75 463.42 675.18 137.65 386.95 656.62 444.79 592.35 447.05 594.93 434.73 445.98 492.42 521.46 49.50 297.19 575.87 404.84 494.99 138.37 610.25 491.84 412.49 458.75 572.59 51.82 546.67 146.05 519.38 358.72 470.55 187.54 480.06 545.80 568.01 610.96 543.77 141.33 266.05 579.49 205.63 671.96 506.26 209.77 549.51 525.82 0.00 77.98 183.45 605.92 465.09 611.16 494.97 478.12 169.32 218.51 526.25 464.13 455.54 611.90 466.47 69.99 515.10 534.04 563.27 127.57 216.75 680.31 489.08 140.92 512.45
838.14 189.43 488.40 473.83 278.16 157.19 175.15 378.10 600.41 520.26 420.56 453.16 372.07 485.52 246.86 117.63 210.42 565.36 152.43 481.53 587.71 205.05 421.75 101.85 605.18 422.03 94.86 119.48 353.80 127.47 495.64 555.31 454.55 413.48 277.25 502.22 401.42 638.97 132.15 370.35 635.26 500.21 562.83 438.09 572.66 443.15 464.45 437.84 484.58 71.24 309.80 583.76 342.84 503.41 129.41 573.37 484.66 358.51 475.53 524.03 101.93 468.69 137.90 513.07 394.11 408.55 226.71 456.24 509.59 531.13 597.32 510.94 101.18 229.84 634.91 209.34 656.31 521.95 197.76 604.93 504.23 77.98 0.00 109.39 618.19 440.85 556.33 442.69 416.12 181.41 227.88 489.37 464.24 471.23 543.29 488.21 7.99 469.09 497.16 568.71 137.67 215.99 655.18 437.26 124.32 530.92
925.24 253.51 553.10 516.34 371.37 141.82 282.02 487.49 671.02 629.65 501.76 494.46 434.80 517.15 352.33 227.02 260.99 631.40 227.13 540.79 619.00 289.69 471.80 211.24 667.50 471.53 204.25 140.97 404.37 236.86 537.07 625.71 563.94 507.11 366.96 501.03 465.63 623.60 189.10 441.57 651.64 609.60 548.92 510.39 655.25 552.54 496.08 459.31 567.69 180.63 345.10 636.19 451.28 612.80 207.05 652.16 535.48 460.40 497.02 573.12 131.63 521.12 173.20 538.58 474.78 440.18 327.29 520.03 494.22 592.59 649.75 491.13 210.57 214.47 723.65 235.50 708.74 453.62 304.01 714.32 558.42 183.45 109.39 0.00 675.78 472.14 559.58 499.95 506.03 227.65 281.41 554.01 514.23 504.34 652.68 530.11 117.38 469.43 578.74 671.30 191.68 323.96 627.67 486.55 195.54 520.90
1029.76 697.31 1093.99 1010.20 825.86 773.58 725.70 240.09 63.20 101.36 1016.57 1047.59 379.19 975.91 555.80 729.45 791.91 134.75 704.16 1031.28 1095.75 760.70 987.13 592.39 1189.69 904.50 623.01 534.81 935.29 719.61 1017.17 1093.15 163.64 1028.14 872.43 1010.98 978.93 1139.92 686.44 873.01 1150.38 161.13 1110.27 1011.38 99.88 289.33 996.98 1019.33 159.73 630.41 683.70 98.03 961.03 270.80 702.70 141.36 1042.34 799.00 335.68 1095.48 655.45 156.22 670.54 1038.62 700.83 1018.75 512.93 1009.99 1092.30 131.62 88.12 1077.77 705.26 750.72 122.53 761.25 144.50 1040.26 627.73 92.55 1026.64 605.92 618.19 675.78 0.00 975.41 1026.94 1041.53 1034.31 688.52 670.83 146.05 1015.13 1002.62 323.40 218.44 626.18 1050.58 121.03 52.91 669.04 535.27 1192.00 1030.50 682.39 1021.31
851.31 379.34 194.26 44.20 219.09 349.60 330.49 818.95 954.20 874.05 147.36 83.06 724.93 138.96 486.37 338.81 230.43 923.05 369.34 83.49 146.86 321.39 130.05 437.03 348.89 70.91 421.78 515.95 190.35 348.65 97.60 258.05 865.78 157.19 223.29 156.40 109.72 392.92 356.17 367.64 330.55 897.01 219.42 38.25 965.99 770.07 119.12 47.91 889.97 444.65 358.06 951.37 141.30 830.33 326.72 950.89 151.07 417.26 772.55 175.93 452.72 874.89 360.57 168.09 552.93 116.37 509.41 74.71 256.96 917.30 924.92 184.59 393.54 276.95 993.62 351.46 1025.96 162.97 449.11 963.64 146.07 465.09 440.85 472.14 975.41 0.00 259.97 89.42 68.02 378.72 401.40 876.29 103.24 112.25 855.00 809.26 432.86 188.00 901.31 922.50 366.58 568.85 337.02 76.02 353.23 145.54
1071.62 554.05 84.87 235.18 479.06 417.76 505.20 934.43 1042.27 962.12 192.55 216.36 891.13 191.97 644.53 467.93 359.55 974.11 513.64 192.66 298.69 487.84 175.24 593.66 187.56 291.22 563.04 645.07 262.54 477.77 178.55 77.19 863.30 194.81 443.60 178.48 154.91 237.33 523.41 587.95 123.44 1026.13 164.90 245.22 1022.87 911.33 179.28 231.22 893.33 613.55 618.03 1018.13 213.49 971.59 529.17 982.12 153.73 636.28 901.67 84.04 569.99 931.01 539.31 129.26 773.24 206.86 638.53 241.82 65.36 939.88 1014.76 185.51 514.00 406.07 1078.42 475.39 1072.56 210.73 637.07 1096.64 151.28 611.16 556.33 559.58 1026.94 259.97 0.00 194.92 191.95 563.90 589.36 898.12 188.15 169.72 1096.06 938.38 548.34 168.54 905.91 1010.57 535.48 754.03 315.94 208.32 531.24 202.71
923.32 392.44 130.51 48.47 308.51 358.13 349.22 820.79 1023.52 957.31 105.37 21.44 728.05 65.62 546.57 389.72 281.34 973.96 413.62 78.56 185.46 356.55 91.39 484.44 318.40 154.17 462.61 546.19 140.61 399.56 64.45 208.31 897.24 126.70 306.55 86.76 111.72 330.30 402.57 439.65 275.65 931.98 179.26 73.41 976.88 810.90 48.99 53.92 927.27 471.80 447.48 995.94 99.85 871.16 382.09 954.81 61.65 468.60 818.78 134.48 488.60 887.68 412.21 116.62 620.30 59.77 560.32 87.04 178.62 958.48 1009.64 132.27 444.45 323.10 1003.96 310.01 1075.30 108.07 474.64 982.37 95.63 494.97 442.69 499.95 1041.53 89.42 194.92 0.00 26.57 398.52 426.93 916.72 49.68 57.35 943.43 860.17 434.70 148.79 939.85 1005.76 393.73 588.65 281.71 13.40 407.08 111.02
896.75 365.87 151.10 75.04 287.11 364.21 339.64 794.22 1016.53 936.38 99.71 37.04 701.48 87.34 525.61 374.09 265.71 958.33 387.05 65.41 174.58 337.63 84.59 472.23 292.02 138.93 441.61 519.62 122.33 377.00 79.52 207.04 870.67 100.32 291.31 89.68 90.59 341.79 376.00 413.08 284.85 916.33 195.54 77.79 988.78 786.12 66.27 72.19 900.70 453.72 426.08 999.88 73.28 846.38 372.85 970.41 88.22 472.98 807.83 107.91 470.32 884.81 391.90 130.39 617.17 65.85 544.69 86.82 205.19 940.40 992.94 154.78 421.89 312.23 1002.77 283.44 1072.43 117.27 453.68 972.79 114.84 478.12 416.12 506.03 1034.31 68.02 191.95 26.57 0.00 371.95 423.80 898.64 48.12 66.55 923.02 844.54 408.13 157.09 913.28 984.83 375.65 562.08 291.32 28.99 383.83 121.69
787.41 25.86 495.04 396.47 233.34 228.84 74.71 491.33 695.15 623.70 447.49 408.99 346.21 459.29 164.39 113.24 221.62 623.60 83.38 413.24 525.58 109.71 424.93 127.44 589.37 372.35 128.97 236.96 320.72 118.97 427.35 578.99 524.88 406.26 219.97 461.63 426.26 639.14 65.54 303.74 608.97 613.44 526.67 360.68 657.91 414.17 438.22 426.63 554.91 119.82 150.85 662.35 369.77 474.43 52.00 643.70 460.17 266.15 446.06 479.86 181.87 547.28 54.45 502.34 269.26 435.48 188.89 400.92 541.17 597.53 667.94 526.73 132.60 235.86 672.69 88.51 734.14 489.22 92.46 702.67 486.79 169.32 181.41 227.65 688.52 378.72 563.90 398.52 371.95 0.00 85.23 555.77 420.07 438.50 585.28 536.79 173.42 436.01 567.49 672.15 60.09 190.13 663.27 400.94 57.71 475.29
731.06 77.32 504.49 378.46 182.31 259.03 84.16 544.25 623.69 629.49 479.35 444.40 399.13 475.60 119.64 151.21 247.45 628.51 133.76 425.79 548.26 119.16 472.42 179.35 607.41 390.52 159.82 267.15 352.58 161.05 411.68 620.36 572.65 415.71 238.14 498.70 452.09 624.33 95.73 247.39 650.08 663.30 561.72 402.30 623.78 499.40 463.08 441.75 564.80 169.01 129.34 625.90 401.63 535.85 125.18 652.35 488.58 244.64 531.29 529.60 244.23 584.01 108.21 527.77 193.37 465.22 184.24 429.65 573.03 586.24 582.71 511.77 162.79 228.79 747.29 140.36 703.89 512.81 47.71 717.31 522.56 218.51 227.88 281.41 670.83 401.40 589.36 426.93 423.80 85.23 0.00 551.12 456.26 463.93 516.50 585.98 235.87 467.87 576.14 630.40 90.94 243.05 686.86 419.98 103.56 484.06
956.29 551.26 963.59 868.25 697.04 644.76 598.79 111.27 148.94 85.01 871.04 908.41 314.66 927.55 431.48 599.65 645.86 77.39 558.11 924.09 1023.15 633.79 841.08 463.57 1043.64 876.24 494.19 487.29 789.24 609.49 924.25 969.82 34.82 902.85 729.22 958.34 850.50 993.87 544.17 744.50 1021.56 161.09 1026.98 871.53 126.15 166.00 928.60 873.28 13.68 501.59 537.65 120.01 832.21 124.75 562.85 101.23 931.30 652.95 305.67 981.84 562.54 32.89 541.47 957.50 589.26 872.70 366.88 889.42 963.48 41.76 116.64 1000.31 576.44 654.71 223.16 615.20 191.67 974.98 503.41 238.60 954.71 526.25 489.37 554.01 146.05 876.29 898.12 916.72 898.64 555.77 551.12 0.00 928.61 924.26 249.93 130.63 497.36 904.53 25.02 120.47 522.99 412.47 1142.91 907.17 536.34 972.95
922.12 413.99 119.52 97.90 314.77 372.41 372.10 842.34 1025.01 944.86 93.44 42.73 749.60 39.22 567.73 391.13 282.75 975.37 395.99 71.63 159.06 377.84 101.61 490.81 295.56 141.72 460.19 566.00 161.90 400.97 58.58 177.47 918.79 123.25 294.10 55.92 121.94 328.57 394.58 438.45 236.73 908.92 147.42 94.70 1017.58 808.48 18.15 55.33 942.29 493.83 461.30 1022.18 121.40 868.74 403.38 976.10 50.66 489.89 810.24 144.76 509.89 910.56 410.48 82.27 623.74 74.05 561.73 88.73 203.53 970.37 1023.78 106.66 445.86 314.56 1026.84 331.56 1096.77 69.15 501.80 1005.25 84.64 464.13 464.24 514.23 1015.13 103.24 188.15 49.68 48.12 420.07 456.26 928.61 0.00 18.43 907.91 861.58 456.25 118.07 944.25 993.31 415.76 610.20 243.20 36.28 402.41 73.57
940.55 428.62 109.45 105.57 324.36 363.82 379.77 849.33 1043.44 963.29 82.33 56.29 768.03 26.71 577.32 400.72 292.34 984.96 414.42 63.04 143.03 391.40 83.18 495.57 285.88 160.15 464.95 570.76 170.70 410.56 65.27 168.88 924.32 132.39 312.53 46.24 103.51 316.06 399.34 456.88 218.30 900.33 136.81 108.26 1018.17 813.24 9.56 64.92 937.94 498.59 470.31 1031.41 128.39 855.22 416.94 989.66 40.59 503.45 791.81 136.17 507.36 918.23 415.24 63.84 642.17 65.46 557.38 97.54 192.18 961.56 1029.53 88.23 455.45 296.13 1018.44 349.99 1092.47 50.72 511.64 1005.05 73.29 455.54 471.23 504.34 1002.62 112.25 169.72 57.35 66.55 438.50 463.93 924.26 18.43 0.00 926.34 871.17 463.24 99.64 925.82 1011.74 420.52 628.63 224.77 43.95 407.17 67.45
706.36 593.82 1020.99 894.96 698.81 700.48 600.66 217.20 260.20 287.58 963.85 938.06 261.14 947.13 518.56 658.04 753.71 279.08 640.59 938.49 1001.86 635.66 965.04 597.02 1123.91 907.02 566.40 662.77 869.08 667.88 928.18 1085.38 250.35 932.21 754.64 963.83 944.71 1140.83 602.56 763.89 1134.76 339.31 1055.33 893.25 244.43 269.97 926.06 902.91 236.25 562.40 645.84 225.37 886.13 242.51 620.51 285.91 958.57 721.00 417.51 1030.93 645.22 267.79 586.66 990.18 573.27 951.84 538.53 929.71 1052.88 291.69 268.56 1014.57 644.47 745.29 408.17 656.86 321.46 977.06 564.21 415.95 992.55 611.90 543.29 652.68 323.40 855.00 1096.06 943.43 923.02 585.28 516.50 249.93 907.91 926.34 0.00 346.16 551.28 984.37 274.95 316.25 605.14 395.15 1151.11 931.02 609.00 981.48
1052.52 562.65 898.53 840.30 732.08 592.83 587.01 152.68 203.18 134.60 821.11 841.38 392.23 890.27 542.43 571.70 578.83 160.34 554.25 883.44 956.12 622.01 803.80 454.99 1033.37 848.29 485.61 389.14 722.21 581.54 884.01 1014.83 95.81 841.67 704.80 891.31 783.47 1010.77 516.22 754.42 1019.71 87.75 979.57 830.88 203.27 250.57 879.73 806.25 123.00 416.97 668.28 205.39 771.26 205.91 522.20 188.18 885.21 744.87 352.99 935.76 505.76 163.52 513.52 917.96 597.14 830.45 497.51 861.47 930.71 138.31 162.20 939.36 567.86 625.35 222.45 587.25 280.33 918.54 604.55 192.47 895.94 466.47 488.21 530.11 218.44 809.26 938.38 860.17 844.54 536.79 585.98 130.63 861.58 871.17 346.16 0.00 495.94 837.50 121.02 165.53 495.04 419.02 1092.59 865.80 508.39 926.71
830.15 181.44 480.41 465.84 280.12 149.20 183.14 386.09 608.40 528.25 412.57 445.17 364.08 477.53 238.87 116.85 202.43 573.35 145.33 473.54 579.72 197.06 413.76 93.86 597.19 421.25 86.87 111.49 345.81 126.69 487.65 563.30 462.54 405.49 269.26 494.23 393.43 630.98 140.14 378.34 633.66 508.20 554.84 430.10 580.65 435.16 456.46 429.85 492.57 78.97 301.81 591.75 334.85 495.42 121.42 581.36 476.67 350.52 467.54 516.04 93.94 476.68 129.91 505.08 386.12 400.56 218.72 455.46 501.60 539.12 605.31 502.95 93.19 221.85 642.90 210.83 664.30 513.96 189.77 612.92 496.24 69.99 7.99 117.38 626.18 432.86 548.34 434.70 408.13 173.42 235.87 497.36 456.25 463.24 551.28 495.94 0.00 461.10 505.15 576.70 145.66 208.00 647.19 429.27 132.31 522.93
1016.48 429.93 83.67 174.14 338.31 327.61 388.32 847.19 1022.84 972.10 95.53 155.93 765.54 126.35 543.65 367.05 258.67 951.29 404.15 162.68 242.67 353.32 82.62 483.80 248.47 253.08 462.16 544.19 115.29 376.89 164.91 202.51 912.55 56.77 394.41 141.90 78.28 249.42 422.53 532.81 182.21 925.25 201.94 186.99 1000.05 810.45 109.20 164.56 918.21 517.78 523.55 1005.00 127.41 870.71 428.29 979.13 107.45 535.40 800.79 103.69 463.28 928.69 423.90 128.97 661.24 97.85 537.65 194.56 117.62 946.29 999.70 178.07 421.78 305.19 988.27 347.50 1081.81 150.36 515.58 1018.25 139.93 515.10 469.09 469.43 1050.58 188.00 168.54 148.79 157.09 436.01 467.87 904.53 118.07 99.64 984.37 837.50 461.10 0.00 929.55 1003.03 439.71 626.14 324.41 135.39 430.36 167.09
981.31 576.28 985.56 893.27 704.83 652.55 606.58 119.06 151.60 78.99 896.06 926.56 296.36 947.47 456.50 609.30 670.88 102.41 583.13 942.91 1048.17 641.58 866.10 471.36 1068.66 882.13 501.98 510.16 814.26 619.14 949.27 983.10 42.61 907.81 754.24 972.06 875.52 1018.89 567.59 769.52 1029.35 150.79 1052.00 890.35 117.69 174.56 935.38 898.30 38.70 509.38 562.67 118.33 840.00 149.77 581.67 76.21 956.32 677.97 299.65 989.95 585.86 57.62 566.49 982.52 598.38 897.72 391.90 907.38 971.27 35.74 110.62 1008.10 584.23 629.69 230.91 640.22 166.65 976.54 528.43 213.58 979.73 534.04 497.16 578.74 121.03 901.31 905.91 939.85 913.28 567.49 576.14 25.02 944.25 925.82 274.95 121.02 505.15 929.55 0.00 114.45 548.01 420.26 1150.59 931.90 561.36 992.87
1022.61 671.73 1041.08 957.29 799.74 725.90 709.44 190.61 88.67 48.45 963.66 998.11 326.28 1019.02 551.95 679.91 744.36 100.28 676.68 978.37 1069.36 744.44 946.35 576.02 1164.11 851.59 606.64 554.67 887.74 670.07 964.26 1087.11 147.27 982.19 827.23 1033.86 926.02 1114.34 638.65 864.97 1127.06 118.48 1114.30 960.75 79.64 262.27 1009.25 970.41 134.15 582.50 658.12 90.88 911.55 245.22 657.33 119.19 1027.76 773.42 336.09 1078.31 615.09 150.18 635.95 1062.77 647.92 977.26 487.35 957.08 1073.26 78.71 47.69 1064.35 669.89 744.14 152.97 709.68 114.80 1045.48 623.88 145.46 1047.33 563.27 568.71 671.30 52.91 922.50 1010.57 1005.76 984.83 672.15 630.40 120.47 993.31 1011.74 316.25 165.53 576.70 1003.03 114.45 0.00 617.47 482.36 1192.12 998.52 630.82 1036.64
743.05 85.95 495.63 345.26 237.04 176.59 91.97 515.06 649.17 569.02 418.21 400.51 401.40 432.03 193.75 76.66 185.04 600.38 59.21 401.10 513.44 126.97 400.90 98.18 615.22 353.25 68.88 192.60 324.42 86.50 415.21 570.28 526.93 423.52 209.76 448.73 380.57 608.79 21.18 259.38 584.80 572.36 530.37 348.54 649.14 417.17 410.96 412.46 536.67 78.07 190.38 643.00 373.47 477.43 39.86 624.22 455.38 305.68 494.25 483.56 166.86 532.80 18.48 484.36 284.31 432.52 208.07 366.43 527.81 564.75 632.77 501.77 80.35 199.66 707.06 92.21 714.66 471.24 121.82 677.08 489.36 127.57 137.67 191.68 669.04 366.58 535.48 393.73 375.65 60.09 90.94 522.99 415.76 420.52 605.14 495.04 145.66 439.71 548.01 617.47 0.00 245.32 645.29 394.04 13.35 463.15
768.87 215.99 685.17 586.60 423.47 357.20 264.84 301.20 505.02 433.91 620.57 599.12 156.08 649.42 123.41 303.37 408.39 433.47 273.51 603.37 715.71 299.84 615.06 205.27 779.50 562.48 235.89 287.15 510.85 309.10 617.48 769.12 377.65 596.39 410.10 651.76 601.43 771.96 248.35 417.40 799.10 423.31 716.80 550.81 467.78 353.06 628.35 616.76 407.68 167.25 251.72 486.84 542.85 292.80 242.13 461.31 650.30 325.85 501.51 669.99 256.04 391.79 244.58 692.47 178.12 608.56 143.38 591.05 709.60 454.23 486.06 710.95 301.19 425.99 558.01 278.64 563.99 679.35 195.34 528.03 676.92 216.75 215.99 323.96 535.27 568.85 754.03 588.65 562.08 190.13 243.05 412.47 610.20 628.63 395.15 419.02 208.00 626.14 420.26 482.36 245.32 0.00 853.40 591.07 240.52 665.42
1148.34 642.56 303.00 308.40 549.13 588.59 604.54 1033.28 1185.41 1171.08 307.10 281.06 992.80 216.09 798.74 622.14 513.76 1157.95 639.19 286.97 335.93 616.17 302.56 720.34 370.89 367.94 689.72 758.68 381.45 631.98 280.01 277.70 1109.73 349.50 520.32 221.46 309.12 420.66 624.11 664.67 197.75 1125.10 151.04 333.03 1185.50 1038.01 234.33 289.69 1139.76 723.36 688.01 1187.62 353.16 1079.99 641.71 1185.79 255.91 728.22 1016.58 287.31 729.44 1123.87 640.01 224.01 794.84 290.23 776.76 319.06 353.56 1142.85 1144.43 202.83 676.87 520.90 1243.21 574.76 1266.71 174.05 734.57 1229.82 234.67 680.31 655.18 627.67 1192.00 337.02 315.94 281.71 291.32 663.27 686.86 1142.91 243.20 224.77 1151.11 1092.59 647.19 324.41 1150.59 1192.12 645.29 853.40 0.00 268.72 631.94 241.33
925.74 384.67 143.91 61.62 295.11 344.73 335.82 815.36 1024.18 950.07 94.44 24.42 730.47 64.17 539.62 395.35 286.97 979.59 416.04 76.97 184.01 359.53 77.99 471.04 305.00 146.93 462.92 540.76 143.59 393.21 70.27 202.42 891.81 113.30 296.07 80.87 98.32 316.90 404.99 442.07 262.25 918.58 180.76 76.39 985.77 811.21 43.10 59.57 920.85 472.11 434.08 989.35 102.27 871.47 385.07 957.79 75.05 471.58 805.38 136.90 491.58 874.28 412.52 107.79 613.35 46.37 552.19 87.17 192.02 945.75 1000.94 132.18 438.10 309.70 990.56 312.43 1061.90 94.67 467.69 968.97 109.03 489.08 437.26 486.55 1030.50 76.02 208.32 13.40 28.99 400.94 419.98 907.17 36.28 43.95 931.02 865.80 429.27 135.39 931.90 998.52 394.04 591.07 268.72 0.00 407.39 99.90
729.70 78.36 491.39 358.61 226.58 171.13 101.48 502.42 662.52 582.37 413.97 387.16 396.60 418.68 180.40 63.31 171.69 613.73 45.86 387.75 500.09 129.48 396.66 104.06 617.73 339.90 73.44 179.25 315.07 73.15 401.86 556.93 532.81 426.03 196.41 435.38 376.33 595.44 7.83 246.03 571.45 585.71 523.68 335.19 662.49 421.73 397.61 399.11 550.02 91.42 194.24 651.73 364.12 481.99 26.51 637.57 446.26 309.54 497.05 491.74 168.16 536.66 22.34 471.01 296.93 419.99 199.58 353.08 523.53 578.10 636.63 488.42 74.89 186.31 720.41 100.39 724.28 457.89 108.47 690.43 480.24 140.92 124.32 195.54 682.39 353.23 531.24 407.08 383.83 57.71 103.56 536.34 402.41 407.17 609.00 508.39 132.31 430.36 561.36 630.82 13.35 240.52 631.94 407.39 0.00 449.80
965.45 476.92 167.66 150.40 337.22 420.73 428.07 873.81 1062.82 988.19 141.76 116.30 821.50 45.40 557.86 456.26 347.88 1002.54 438.52 62.05 124.90 393.07 131.87 533.60 320.11 185.05 518.35 555.81 235.47 464.42 72.38 225.79 950.26 152.64 337.43 80.47 152.20 334.75 452.74 481.78 285.75 957.24 132.20 114.61 1016.18 866.64 66.47 128.90 980.29 541.22 503.60 1035.24 188.08 922.67 423.29 974.70 98.80 509.80 859.26 176.34 564.27 964.40 457.14 108.11 656.75 122.37 606.07 135.65 228.13 992.96 1055.13 64.74 509.31 363.58 1081.39 405.13 1111.01 67.28 531.77 1061.22 130.13 512.45 530.92 520.90 1021.31 145.54 202.71 111.02 121.69 475.29 484.06 972.95 73.57 67.45 981.48 926.71 522.93 167.09 992.87 1036.64 463.15 665.42 241.33 99.90 449.80 0.00
DEMAND_SECTION
1 0
2 5
3 8
4 10
5 10
6 8
7 8
8 5
9 10
10 10
11 10
12 5
13 10
14 10
15 8
16 6
17 9
18 10
19 10
20 9
21 6
22 5
23 8
24 7
25 6
26 10
27 9
28 7
29 5
30 8
31 9
32 9
33 9
34 7
35 6
36 10
37 9
38 10
39 5
40 7
41 8
42 7
43 9
44 5
45 5
46 7
47 9
48 8
49 10
50 9
51 9
52 5
53 5
54 5
55 9
56 6
57 8
58 8
59 9
60 9
61 6
62 10
63 9
64 10
65 5
66 6
67 7
68 7
69 7
70 8
71 6
72 9
73 5
74 9
75 8
76 10
77 10
78 8
79 7
80 6
81 7
82 10
83 8
84 9
85 8
86 5
87 8
88 6
89 5
90 9
91 8
92 6
93 5
94 5
95 10
96 10
97 7
98 10
99 8
100 10
101 7
102 5
103 7
104 8
105 8
106 8
DEPOT_SECTION
1
-1
EOF
