NAME: LDG115_3264_snow_115_0206
COMMENT: CVRP with travel times.  rootPos=3,custPos=2,demandType=6,avgRouteSizeIndex=4,weather=snow,lambda_cluster=1,lambda_random=4, T1=300,T2=700,beta=1, alpha(i,j) ~ U(0.8,1.2)
TYPE: CVRP
DIMENSION: 116
EDGE_WEIGHT_TYPE: EXPLICIT
EDGE_WEIGHT_FORMAT: FULL_MATRIX
CAPACITY: 906
NODE_COORD_SECTION
1 0 0
2 250 950
3 377 635
4 779 727
5 572 759
6 643 581
7 392 943
8 434 999
9 507 891
10 758 726
11 413 961
12 580 937
13 843 732
14 715 746
15 843 831
16 540 715
17 698 713
18 331 753
19 326 989
20 768 919
21 346 761
22 390 973
23 629 599
24 698 744
25 768 757
26 529 751
27 538 828
28 382 937
29 640 870
30 802 711
31 381 629
32 592 742
33 668 772
34 762 754
35 657 819
36 629 976
37 462 684
38 503 753
39 435 900
40 659 741
41 430 968
42 330 783
43 560 741
44 727 763
45 749 732
46 905 635
47 592 787
48 555 759
49 388 781
50 709 732
51 530 990
52 551 819
53 389 984
54 842 718
55 555 764
56 564 970
57 680 872
58 408 641
59 412 966
60 470 918
61 646 667
62 659 912
63 827 801
64 470 399
65 725 772
66 546 749
67 561 770
68 408 741
69 528 697
70 769 791
71 504 847
72 634 769
73 661 886
74 726 704
75 620 766
76 754 751
77 774 725
78 373 717
79 604 743
80 478 695
81 684 880
82 375 904
83 928 803
84 447 951
85 661 492
86 542 710
87 556 796
88 839 799
89 719 646
90 453 570
91 543 756
92 539 877
93 412 980
94 458 905
95 856 719
96 386 854
97 765 718
98 508 728
99 596 621
100 513 734
101 466 919
102 946 825
103 533 734
104 806 329
105 861 814
106 544 801
107 519 628
108 464 930
109 464 929
110 577 742
111 375 972
112 589 739
113 852 834
114 511 803
115 534 734
116 399 971
EDGE_WEIGHT_SECTION
0.00 1442.35 1125.44 1375.36 1127.81 1251.64 1245.59 1285.11 1291.03 1337.79 1256.85 1303.33 1430.39 1276.94 1471.83 1066.05 1306.57 1040.89 1302.56 1449.40 1019.49 1259.60 1254.54 1249.27 1342.82 1076.72 1182.26 1232.72 1306.85 1409.45 1110.97 1147.68 1249.26 1328.81 1260.92 1344.48 944.86 1091.64 1227.56 1217.42 1225.07 962.02 1092.20 1282.97 1337.99 1550.89 1170.64 1121.54 1107.92 1258.85 1342.78 1179.84 1283.21 1449.87 1115.95 1365.89 1307.05 1061.46 1260.41 1208.84 1188.12 1348.37 1423.98 1383.32 1306.08 1093.94 1132.20 1101.67 1031.33 1370.43 1227.02 1204.12 1304.96 1292.48 1177.69 1334.97 1362.68 1087.85 1167.01 992.33 1329.57 1176.06 1569.86 1270.81 1207.96 1081.58 1129.50 1444.19 1285.27 1151.29 1103.97 1246.57 1261.93 1211.07 1441.14 1094.70 1361.29 1027.60 1187.69 1050.34 1221.39 1570.23 1073.29 1537.35 1467.12 1157.62 1098.03 1233.32 1242.52 1123.82 1293.73 1154.30 1479.23 1173.88 1076.44 1276.98
1442.35 0.00 622.62 757.49 548.13 748.78 238.42 272.53 346.95 750.08 236.64 464.29 815.86 659.07 767.62 549.21 687.56 485.77 225.59 704.03 495.65 234.78 725.93 631.40 714.28 484.09 455.72 209.63 546.88 743.04 602.42 579.93 606.52 699.05 561.58 478.43 561.03 458.57 312.73 569.87 256.19 480.33 545.70 673.70 739.08 937.14 500.69 528.67 459.96 659.94 388.59 486.95 243.60 810.09 530.45 417.56 563.45 599.86 220.85 344.44 692.26 582.32 825.07 926.12 676.71 513.02 529.93 404.22 553.21 725.58 377.99 565.94 533.78 692.20 548.32 707.80 750.39 478.98 598.48 557.89 585.97 282.51 902.84 279.34 845.35 558.95 508.48 815.65 778.32 722.25 514.50 400.59 246.68 311.45 839.27 347.65 752.04 522.61 659.08 499.87 339.97 909.04 516.70 1114.48 827.80 475.96 605.98 337.55 338.50 571.04 270.64 563.18 791.43 458.30 513.55 213.36
1125.44 622.62 0.00 539.48 300.60 345.84 451.32 521.03 427.48 507.96 461.97 485.30 621.10 472.68 588.57 265.25 457.91 183.82 507.68 618.19 189.85 460.71 322.99 484.99 518.90 252.96 364.14 437.84 461.71 570.96 20.20 329.31 423.46 533.00 450.71 555.39 180.58 296.88 432.68 428.33 484.08 247.32 288.90 473.35 483.67 707.49 348.28 276.40 252.91 484.40 527.82 333.13 437.10 623.15 270.56 527.40 503.75 69.71 448.74 449.18 389.09 535.38 647.39 343.59 474.87 261.64 288.31 218.40 230.53 553.95 332.60 382.73 486.84 491.68 346.48 522.74 530.33 143.64 351.71 203.90 526.27 381.18 723.79 487.48 493.59 280.78 311.38 617.69 452.35 146.63 246.76 431.03 470.30 416.19 652.33 299.82 531.17 238.51 256.14 261.25 444.71 730.09 285.57 749.11 656.38 316.29 166.48 439.70 428.32 323.18 475.45 334.97 612.38 333.12 282.42 467.34
1375.36 757.49 539.48 0.00 287.91 281.62 572.24 578.58 410.54 43.60 557.37 431.81 125.38 98.42 210.85 332.59 134.40 607.98 676.75 293.95 582.36 585.16 313.57 126.09 78.61 354.75 368.22 590.75 280.47 69.81 559.68 279.56 191.40 63.38 245.36 440.46 430.50 391.76 515.19 203.74 566.63 556.88 307.54 120.86 55.81 208.87 260.87 324.60 537.94 129.51 540.43 346.00 601.37 144.86 323.52 465.41 275.76 522.60 541.58 466.61 263.06 331.37 139.69 632.06 104.20 327.00 313.71 520.59 350.06 98.54 415.69 195.62 282.83 107.02 231.87 85.88 18.71 527.63 249.29 443.59 275.06 574.14 274.31 536.08 404.64 317.06 334.24 179.98 150.88 546.61 324.34 415.80 573.89 487.49 145.59 580.29 31.79 358.91 347.09 377.97 479.16 295.79 339.68 619.74 190.41 328.56 373.00 489.24 500.29 295.80 597.15 263.14 214.37 351.04 336.65 577.15
1127.81 548.13 300.60 287.91 0.00 271.57 362.53 396.68 201.18 244.31 328.13 289.69 371.21 222.83 361.41 92.16 218.57 344.14 436.57 385.21 314.21 373.17 240.85 197.06 269.01 84.25 117.21 358.71 227.31 324.11 306.81 41.69 132.70 262.25 199.31 334.45 182.95 120.99 253.34 148.06 321.82 341.25 44.34 232.43 268.60 468.15 69.75 50.89 289.60 223.89 349.31 91.16 373.43 359.50 47.56 282.38 259.19 283.20 343.92 264.17 207.43 296.17 375.33 521.37 241.89 58.85 34.84 232.68 96.48 313.09 200.12 135.00 251.55 220.89 113.50 238.22 269.20 271.01 71.96 179.55 272.06 327.72 496.63 313.07 392.80 76.63 76.09 370.38 276.81 363.84 53.84 147.54 356.16 277.21 388.68 329.04 267.81 130.21 181.87 107.47 251.62 531.81 81.81 705.84 420.12 88.81 201.23 265.29 253.91 39.18 378.63 58.90 385.22 141.33 84.96 351.75
1251.64 748.78 345.84 281.62 271.57 0.00 551.32 616.97 472.75 238.02 576.28 534.13 371.73 267.09 427.85 222.00 180.91 492.58 644.86 443.72 491.24 537.40 59.16 257.17 292.89 267.38 368.63 541.84 396.73 329.94 366.04 274.19 266.78 304.33 350.96 526.56 306.78 294.89 524.91 299.84 561.99 467.36 282.29 303.84 262.31 430.49 323.76 302.97 442.56 228.63 589.11 362.73 561.01 353.21 308.86 548.08 407.86 415.55 580.98 507.71 162.94 479.73 393.76 377.65 312.98 287.62 293.68 381.12 256.72 312.64 397.99 280.23 431.19 237.50 294.08 280.30 262.91 455.52 243.92 311.24 430.38 533.39 458.35 516.25 211.41 237.53 330.96 394.26 196.79 386.10 287.24 419.11 592.14 510.09 329.63 501.62 261.52 293.41 89.70 273.88 495.16 507.52 234.77 474.79 436.35 336.96 179.36 508.25 496.87 263.59 576.13 280.92 447.25 377.13 237.92 558.82
1245.59 238.42 451.32 572.24 362.53 551.32 0.00 105.85 193.61 568.24 69.67 284.84 660.27 505.73 600.65 361.72 507.63 342.37 140.72 526.65 299.04 47.86 521.47 478.06 558.07 307.78 302.38 33.32 341.97 611.28 431.12 387.72 421.76 551.31 385.27 311.75 431.92 303.44 140.33 460.48 98.59 283.57 348.50 520.68 543.95 757.21 361.79 337.87 290.86 506.60 217.48 298.66 71.47 643.41 321.56 227.68 396.48 470.75 82.25 133.15 498.41 415.35 634.43 775.96 489.83 336.71 327.69 275.11 387.61 549.27 230.16 376.62 366.81 538.86 408.39 527.28 590.61 349.87 400.16 402.76 419.00 85.90 735.87 89.46 670.66 359.19 328.59 614.57 576.08 595.47 329.91 247.25 80.00 106.54 672.59 151.50 580.76 357.61 494.02 344.74 120.60 719.16 316.55 938.17 664.31 283.75 476.87 140.05 148.62 380.78 69.58 385.97 624.46 221.20 319.70 46.68
1285.11 272.53 521.03 578.58 396.68 616.97 105.85 0.00 224.87 575.90 82.79 258.22 631.77 536.99 613.77 427.37 513.97 344.39 179.36 494.67 380.56 79.57 603.58 509.32 564.41 374.01 309.47 139.17 370.17 639.48 500.83 426.08 428.10 557.65 453.69 306.49 448.67 359.80 143.34 466.82 101.51 323.09 376.70 548.88 565.71 763.55 383.55 387.75 306.11 537.86 157.94 326.86 86.29 612.29 375.77 195.70 409.60 550.34 79.47 154.91 530.54 400.44 602.19 717.31 518.03 372.99 376.08 366.26 420.75 597.11 258.36 382.96 379.93 570.12 419.21 533.62 597.29 405.64 448.55 445.01 421.47 191.75 711.83 107.64 706.94 424.84 361.42 636.33 604.90 655.10 358.11 271.88 78.98 134.74 583.11 244.47 588.72 423.84 559.67 401.10 163.26 737.34 382.20 982.49 652.91 322.11 530.14 169.85 165.27 407.01 92.27 439.67 637.58 307.49 385.35 59.17
1291.03 346.95 427.48 410.54 201.18 472.75 193.61 224.87 0.00 412.43 195.06 158.02 468.91 312.12 524.61 268.51 340.61 286.05 276.18 428.88 329.38 229.22 442.03 284.45 378.00 252.33 108.77 180.21 238.45 462.76 407.28 242.87 278.04 363.99 311.90 299.27 355.20 208.41 142.96 322.67 204.14 337.96 236.06 380.47 392.13 590.19 250.63 223.72 290.20 312.99 225.08 144.78 231.27 488.39 208.89 188.48 313.65 439.50 210.85 91.14 396.29 283.09 478.12 711.49 349.62 238.29 191.14 316.07 297.66 428.70 127.88 296.02 290.77 345.25 268.24 370.15 415.33 390.83 256.50 307.73 291.13 212.11 623.91 158.40 572.24 277.81 161.53 479.37 431.54 519.92 226.15 53.64 188.91 90.13 517.57 206.50 405.09 263.43 383.05 249.71 78.59 586.23 241.19 781.79 528.84 166.97 391.35 98.04 109.42 229.30 229.90 247.76 533.37 165.22 238.04 213.95
1337.79 750.08 507.96 43.60 244.31 238.02 568.24 575.90 412.43 0.00 544.73 424.38 133.71 104.89 204.77 288.99 90.80 581.14 645.23 285.66 540.99 585.61 297.18 127.98 54.87 322.51 338.41 592.64 286.65 91.92 516.79 257.00 147.80 66.31 243.54 425.81 392.93 356.20 486.34 195.73 550.30 556.56 288.65 94.02 24.29 252.47 258.19 288.62 503.87 103.43 508.13 302.40 584.20 115.19 291.87 429.10 281.94 479.00 544.51 435.09 227.22 307.63 179.39 615.67 99.37 303.16 279.15 476.99 306.46 104.72 372.09 192.94 259.09 88.96 225.09 42.28 24.89 495.01 226.73 399.99 266.77 571.46 273.09 504.56 398.35 273.46 320.40 156.24 142.59 515.09 298.15 372.20 550.44 468.08 144.37 537.55 23.50 349.39 306.90 334.99 447.64 287.50 296.08 611.45 205.98 323.73 341.48 459.57 468.77 283.15 573.85 254.85 222.15 348.36 293.05 568.35
1256.85 236.64 461.97 557.37 328.13 576.28 69.67 82.79 195.06 544.73 0.00 267.67 592.06 507.18 530.98 370.66 499.02 280.71 143.81 467.39 319.91 45.04 554.88 479.51 489.86 339.48 286.06 82.05 349.46 585.13 441.77 343.29 425.36 493.99 384.25 288.69 434.17 350.77 107.67 449.66 49.35 294.83 338.21 494.53 539.82 748.60 348.45 311.07 223.32 508.05 151.95 276.44 45.30 611.54 311.04 210.51 326.81 491.28 15.79 129.02 493.74 345.68 602.14 773.75 463.68 338.67 293.29 333.06 385.40 515.21 249.33 411.38 297.14 524.44 375.13 518.02 545.33 354.26 365.76 409.66 349.33 155.41 666.20 72.29 672.62 384.15 284.76 584.97 541.68 606.12 334.84 244.09 56.68 125.71 640.72 162.15 559.59 372.02 502.96 367.07 116.47 701.99 341.51 959.08 598.79 239.32 469.97 123.91 119.64 336.35 71.36 360.50 554.79 271.82 338.36 23.62
1303.33 464.29 485.30 431.81 289.69 534.13 284.84 258.22 158.02 424.38 267.67 0.00 502.37 363.92 423.51 328.69 408.99 400.27 374.43 356.94 356.94 266.97 495.15 355.76 400.17 277.30 253.14 254.66 186.92 501.62 465.10 326.04 323.12 415.40 302.13 202.07 358.47 321.22 205.50 371.05 227.58 414.41 289.03 394.92 446.26 640.68 301.86 276.53 405.95 384.30 177.50 261.66 243.36 521.85 270.69 91.28 225.62 475.07 262.92 174.65 448.64 216.22 479.38 739.06 382.62 261.77 270.25 439.16 324.38 414.02 152.70 290.48 195.95 398.41 254.23 428.64 448.68 437.65 303.55 311.00 204.88 286.80 558.73 195.38 572.26 342.00 229.00 455.83 489.05 523.19 246.89 211.66 255.22 207.64 529.00 324.01 447.88 323.26 457.77 300.52 183.80 575.95 299.36 895.44 491.32 266.49 418.92 164.35 152.97 323.31 281.71 334.46 447.32 269.63 296.21 261.36
1430.39 815.86 621.10 125.38 371.21 371.73 660.27 631.77 468.91 133.71 592.06 502.37 0.00 189.74 167.20 422.70 219.26 662.50 735.87 311.32 632.85 637.10 335.19 195.75 102.20 404.75 437.88 649.12 358.74 98.70 637.51 352.47 238.51 117.43 299.41 473.14 485.53 436.95 598.46 258.68 624.80 648.20 375.86 175.38 155.48 221.81 346.95 366.85 598.93 171.54 570.78 414.52 637.36 19.48 350.54 503.84 334.65 602.13 595.63 560.05 332.72 354.96 97.74 632.59 170.93 389.22 368.29 566.51 440.17 157.88 462.80 283.65 306.42 197.13 299.32 132.99 108.82 573.41 340.61 505.42 344.41 648.22 177.38 607.90 480.75 407.17 400.78 113.21 248.44 614.89 374.34 462.91 640.05 554.22 48.66 580.05 129.35 430.75 402.04 427.97 547.50 226.55 409.93 582.03 148.46 395.29 472.67 566.95 578.33 341.58 651.20 341.01 172.42 439.07 413.08 615.68
1276.94 659.07 472.68 98.42 222.83 267.09 505.73 536.99 312.12 104.89 507.18 363.92 189.74 0.00 242.90 272.06 94.81 536.87 588.30 246.52 496.16 524.23 272.85 27.67 87.54 256.33 269.80 492.33 189.38 150.64 489.09 181.14 150.54 72.31 150.30 366.89 332.08 296.28 455.08 113.91 513.32 458.46 225.68 78.14 121.64 307.29 180.45 226.18 469.41 47.09 460.01 305.39 517.83 209.22 241.00 431.84 197.57 448.68 519.89 403.26 164.64 275.78 212.22 547.79 53.54 240.80 223.34 425.41 299.69 132.62 328.63 195.68 227.24 75.45 181.93 92.17 117.13 439.12 150.87 359.55 220.09 499.80 333.45 470.52 384.84 270.60 264.59 188.91 179.71 466.60 225.92 345.57 475.47 402.25 238.40 481.87 128.39 302.29 297.59 279.55 390.71 367.77 272.37 567.35 238.65 277.31 365.01 410.16 421.54 207.29 542.02 190.89 254.82 329.83 269.22 508.79
1471.83 767.62 588.57 210.85 361.41 427.85 600.65 613.77 524.61 204.77 530.98 423.51 167.20 242.90 0.00 439.15 246.94 689.79 674.79 178.68 664.10 576.02 381.96 248.91 155.36 424.27 453.61 613.03 286.16 193.19 568.37 365.95 291.67 170.59 279.21 400.56 526.97 468.19 574.42 311.84 561.47 665.51 379.63 202.67 213.13 347.60 341.77 408.56 634.94 236.29 498.20 417.60 576.28 178.10 393.73 477.65 263.51 617.88 546.77 535.41 363.58 282.38 71.16 700.45 194.29 408.74 375.98 593.35 457.89 115.21 494.39 330.39 233.84 212.72 294.14 186.15 195.04 603.95 344.30 527.49 286.03 658.80 135.22 515.73 522.11 438.04 409.30 53.99 319.84 604.36 393.86 478.96 587.66 521.59 148.92 637.96 227.58 456.64 448.81 447.49 547.96 184.39 427.15 727.38 67.81 418.65 523.58 541.36 552.74 372.12 602.34 369.40 23.81 468.19 430.30 554.60
1066.05 549.21 265.25 332.59 92.16 222.00 361.72 427.37 268.51 288.99 370.66 328.69 422.70 272.06 439.15 0.00 252.94 326.39 455.26 430.92 283.06 347.80 199.15 258.46 327.06 65.12 159.74 339.58 276.54 360.82 245.05 105.46 195.77 311.83 221.36 382.44 121.19 104.32 338.68 211.83 369.38 340.53 76.38 278.83 291.10 502.52 150.74 101.93 252.96 287.00 403.29 157.37 371.41 404.18 95.12 362.70 291.23 237.79 386.45 311.81 220.73 339.84 400.90 477.47 280.16 85.89 77.37 231.78 34.72 342.44 175.99 150.63 291.30 226.43 159.21 301.29 313.88 259.62 121.19 111.00 313.75 331.13 562.08 326.65 339.34 15.53 118.62 428.43 306.16 302.74 86.61 239.70 402.29 299.61 433.36 279.62 312.49 72.32 132.30 63.02 299.26 569.29 45.17 644.08 439.00 131.34 157.33 312.94 307.27 106.09 386.53 88.25 462.96 176.85 42.02 369.22
1306.57 687.56 457.91 134.40 218.57 180.91 507.63 513.97 340.61 90.80 499.02 408.99 219.26 94.81 246.94 252.94 0.00 534.33 616.79 262.81 500.40 540.04 240.07 76.26 145.67 273.97 295.76 520.82 245.10 182.72 437.71 181.90 85.87 136.91 201.74 377.34 361.71 293.31 445.82 118.93 502.02 481.46 231.31 122.93 115.09 249.58 196.26 232.71 468.73 47.72 417.33 261.88 528.49 205.99 229.10 367.17 226.95 388.20 514.81 424.90 175.79 298.82 212.85 558.56 132.07 245.04 229.87 422.87 287.66 131.73 314.40 131.01 250.28 56.59 167.26 117.57 115.69 404.21 157.40 339.98 249.47 509.53 338.48 493.88 365.98 266.11 269.63 222.41 90.93 498.99 252.90 310.27 529.52 430.74 234.00 507.83 114.30 282.72 216.10 259.98 419.20 378.30 260.94 559.79 255.44 259.70 305.76 438.65 434.72 197.35 552.92 164.69 266.34 286.43 257.79 522.64
1040.89 485.77 183.82 607.98 344.14 492.58 342.37 344.39 286.05 581.14 280.71 400.27 662.50 536.87 689.79 326.39 534.33 0.00 408.95 628.59 43.33 308.50 469.73 521.62 560.30 284.94 340.66 329.83 496.43 621.99 204.02 366.36 475.21 575.53 487.43 510.79 268.27 241.02 333.95 461.66 300.26 78.87 331.37 487.12 556.85 777.40 385.43 311.12 144.06 550.16 432.66 376.67 324.71 681.98 325.64 474.53 542.69 253.53 264.92 325.69 418.40 561.56 685.72 527.41 517.97 298.69 343.39 111.46 308.52 574.58 340.03 430.07 513.02 552.82 410.67 553.76 589.27 158.68 386.43 293.10 565.21 256.47 797.68 336.99 627.80 310.86 337.56 654.74 543.45 330.45 310.95 339.69 309.34 317.46 705.43 201.09 585.93 281.64 402.88 282.32 320.90 806.23 299.80 915.33 693.63 373.10 313.22 340.35 351.73 365.65 320.49 369.64 686.27 310.55 302.95 300.49
1302.56 225.59 507.68 676.75 436.57 644.86 140.72 179.36 276.18 645.23 143.81 374.43 735.87 588.30 674.79 455.26 616.79 408.95 0.00 611.20 365.62 107.46 652.98 560.63 633.67 400.98 384.95 126.52 436.65 704.11 487.48 465.28 542.56 629.24 478.47 385.26 449.67 426.28 242.92 544.53 172.10 340.54 424.87 615.36 620.94 862.30 438.78 412.37 281.94 589.17 277.62 393.34 131.07 716.92 406.53 324.39 470.62 536.99 151.04 210.14 584.48 489.49 729.11 832.93 584.51 397.61 424.28 409.34 460.22 642.47 324.84 497.42 440.95 621.43 482.45 641.60 667.60 440.09 487.68 402.20 493.14 199.88 810.01 186.17 731.56 452.73 416.65 691.56 672.67 614.39 382.73 329.82 153.51 201.22 746.10 207.86 668.44 422.01 587.56 436.36 197.59 815.87 410.09 1031.37 741.30 383.13 534.08 217.04 227.26 459.15 135.90 470.94 698.60 361.92 413.24 120.19
1449.40 704.03 618.19 293.95 385.21 443.72 526.65 494.67 428.88 285.66 467.39 356.94 311.32 246.52 178.68 430.92 262.81 628.59 611.20 0.00 585.26 512.43 491.61 267.79 244.74 401.84 427.76 549.44 252.16 277.92 634.60 343.52 287.07 255.83 268.67 230.94 504.54 445.76 452.23 335.00 482.93 642.73 357.20 254.40 281.48 502.82 319.34 386.13 612.51 239.25 385.19 391.75 512.69 330.80 371.30 298.97 174.58 601.91 483.18 456.02 404.76 198.41 245.62 782.28 244.36 386.31 353.55 570.92 448.92 288.79 449.72 284.75 204.25 319.40 271.71 275.53 302.90 581.52 321.87 505.06 152.06 559.46 313.90 437.19 589.74 419.85 379.71 198.11 353.74 702.57 371.43 389.55 524.07 477.69 302.84 585.09 262.16 434.21 476.09 425.06 468.57 349.32 404.72 787.58 229.82 407.52 511.74 453.91 442.53 349.69 523.82 351.94 202.49 438.60 407.87 491.01
1019.49 495.65 189.85 582.36 314.21 491.24 299.04 380.56 329.38 540.99 319.91 356.94 632.85 496.16 664.10 283.06 500.40 43.33 365.62 585.26 0.00 322.66 465.67 479.75 530.65 276.52 332.24 286.50 468.27 605.45 169.65 323.03 431.88 545.88 444.10 522.20 267.52 232.60 290.62 429.40 320.52 57.47 288.04 529.20 545.93 734.07 357.27 282.96 103.50 508.29 438.23 345.19 332.94 652.33 282.31 448.22 499.36 219.16 308.25 304.29 421.76 518.23 651.40 533.44 498.35 255.36 300.06 114.82 311.88 560.04 323.76 386.74 469.69 509.49 369.96 529.30 565.88 115.35 353.30 264.78 521.88 213.14 755.95 366.26 589.31 267.53 294.23 611.41 546.49 334.00 270.24 340.06 351.71 274.13 681.51 157.76 564.49 279.37 406.24 256.63 302.65 778.07 256.47 906.91 650.30 339.67 316.58 321.99 310.61 322.32 318.90 335.71 677.32 306.61 259.62 343.53
1259.60 234.78 460.71 585.16 373.17 537.40 47.86 79.57 229.22 585.61 45.04 266.97 637.10 524.23 576.02 347.80 540.04 308.50 107.46 512.43 322.66 0.00 545.52 513.67 534.90 294.44 294.82 62.09 389.70 610.21 440.51 388.33 454.17 521.78 384.77 286.49 426.30 338.36 135.46 449.53 73.33 297.58 350.15 538.04 561.32 780.23 343.78 347.01 268.36 504.38 196.99 319.40 23.61 618.15 347.59 219.27 371.85 490.02 43.58 150.52 484.49 390.72 647.18 775.00 508.72 323.37 338.33 322.97 373.69 548.77 268.99 409.03 342.18 548.42 391.41 545.81 573.12 381.40 410.80 418.42 394.37 133.76 711.24 81.05 657.32 345.27 329.80 630.01 586.72 604.86 324.85 244.25 54.74 154.40 647.33 164.90 597.59 353.90 480.10 341.74 150.63 710.75 302.63 924.83 643.83 284.36 480.52 131.18 119.80 381.39 38.73 398.88 599.83 269.06 305.78 21.42
1254.54 725.93 322.99 313.57 240.85 59.16 521.47 603.58 442.03 297.18 554.88 495.15 335.19 272.85 381.96 199.15 240.07 469.73 652.98 491.61 465.67 545.52 0.00 245.18 329.17 264.27 358.06 538.73 337.57 359.06 343.19 251.34 293.81 313.94 332.89 543.71 309.68 274.12 490.84 277.67 534.38 408.20 275.53 307.26 321.47 489.65 268.83 243.81 450.68 252.36 548.39 332.01 569.13 315.71 260.12 523.23 403.61 392.70 565.81 471.99 148.78 430.75 417.49 318.49 291.09 266.49 275.69 358.27 233.87 370.17 375.14 297.38 382.21 263.28 261.13 330.88 305.10 433.03 221.07 288.39 381.09 530.28 473.61 497.47 243.03 214.68 310.36 430.54 236.76 327.30 273.45 388.39 540.56 496.82 344.89 478.77 281.78 255.56 66.85 232.82 469.14 522.78 242.89 533.95 449.77 315.56 156.51 449.69 438.31 260.84 584.25 258.07 405.77 356.36 239.74 563.45
1249.27 631.40 484.99 126.09 197.06 257.17 478.06 509.32 284.45 127.98 479.51 355.76 195.75 27.67 248.91 258.46 76.26 521.62 560.63 267.79 479.75 513.67 245.18 0.00 93.55 243.34 242.13 464.66 168.84 178.31 470.52 156.72 122.87 79.54 177.97 376.26 304.41 280.60 427.41 86.24 488.59 456.28 212.20 96.02 107.68 325.84 191.99 210.50 456.18 28.54 471.55 278.14 509.31 215.23 226.81 404.17 225.24 421.01 495.30 375.59 136.97 263.30 193.67 520.12 65.17 224.39 225.18 410.16 272.02 144.25 351.40 168.01 221.16 60.80 177.88 85.70 130.88 438.42 176.72 351.88 247.76 496.56 339.46 442.85 370.19 242.93 257.08 194.92 152.04 494.27 239.27 327.02 473.36 374.58 244.41 454.20 120.64 276.06 269.92 290.75 363.04 362.06 255.72 539.68 244.39 260.69 346.46 382.49 393.87 206.59 514.35 173.93 248.92 323.24 258.87 498.40
1342.82 714.28 518.90 78.61 269.01 292.89 558.07 564.41 378.00 54.87 489.86 400.17 102.20 87.54 155.36 327.06 145.67 560.30 633.67 244.74 530.65 534.90 329.17 93.55 0.00 302.55 335.68 549.16 256.54 133.60 535.31 250.27 136.31 15.23 197.21 370.94 397.96 334.75 496.26 156.48 522.60 546.00 282.61 73.18 64.56 287.48 244.75 264.65 496.73 104.42 468.58 312.32 535.16 121.68 248.34 401.64 233.89 514.45 493.43 469.14 230.52 252.76 138.92 596.12 68.73 287.02 266.09 464.31 349.63 55.68 360.60 181.45 204.22 129.23 197.12 30.79 66.57 503.30 238.41 405.77 242.21 546.02 245.91 505.70 438.62 316.55 298.58 101.37 179.26 554.14 272.14 360.71 537.85 452.02 150.86 542.80 72.22 328.55 361.77 325.77 456.59 280.23 322.43 572.02 151.11 293.09 381.75 476.04 485.16 271.47 549.00 238.81 167.28 336.87 320.76 513.48
1076.72 484.09 252.96 354.75 84.25 267.38 307.78 374.01 252.33 322.51 339.48 277.30 404.75 256.33 424.27 65.12 273.97 284.94 400.98 401.84 276.52 294.44 264.27 243.34 302.55 0.00 143.56 274.46 237.88 379.02 232.76 96.60 205.45 317.78 220.24 358.85 131.86 43.92 273.56 202.97 317.81 318.27 61.61 289.37 330.93 510.21 126.88 52.57 213.08 271.88 390.50 116.78 318.05 424.23 54.21 334.93 276.46 248.46 338.02 275.70 208.17 319.03 424.97 506.22 258.52 28.93 71.96 173.48 91.54 333.61 169.36 160.31 270.49 291.55 130.13 298.91 347.40 247.06 126.87 127.41 298.98 266.01 529.52 314.09 362.88 74.86 95.03 384.98 316.33 338.29 30.41 215.89 349.18 242.71 453.41 264.73 340.63 59.46 197.42 47.41 271.23 547.68 32.61 630.39 426.44 124.32 186.08 290.68 294.71 86.95 333.17 109.28 448.08 111.73 29.46 315.86
1182.26 455.72 364.14 368.22 117.21 368.63 302.38 309.47 108.77 338.41 286.06 253.14 437.88 269.80 453.61 159.74 295.76 340.66 384.95 427.76 332.24 294.82 358.06 242.13 335.68 143.56 0.00 288.98 181.84 399.88 376.32 158.19 209.89 321.67 218.06 279.30 246.43 99.64 207.77 241.88 259.51 344.75 127.29 312.87 349.81 545.34 141.86 114.95 277.70 270.67 288.51 36.01 286.80 453.60 100.12 269.96 253.18 330.73 285.84 199.91 289.51 258.94 435.80 602.72 287.86 129.52 82.37 229.20 192.13 357.70 110.11 187.25 228.22 302.93 159.47 315.41 363.30 303.96 147.73 198.96 275.70 293.43 579.42 213.77 463.47 175.27 52.76 437.05 325.03 411.15 117.38 135.12 297.68 198.90 482.78 212.07 361.91 154.66 292.04 140.94 187.36 598.10 133.86 673.02 486.52 73.13 282.58 206.81 218.19 120.53 308.12 140.98 468.01 84.99 130.71 279.75
1232.72 209.63 437.84 590.75 358.71 541.84 33.32 139.17 180.21 592.64 82.05 254.66 649.12 492.33 613.03 339.58 520.82 329.83 126.52 549.44 286.50 62.09 538.73 464.66 549.16 274.46 288.98 0.00 365.91 635.22 417.64 371.06 455.08 533.93 351.95 345.07 406.32 318.38 138.00 477.43 128.01 270.70 336.07 540.55 568.85 751.52 386.69 327.03 278.32 493.20 234.00 321.94 85.70 668.60 328.67 261.00 408.86 463.96 97.84 158.05 482.63 427.73 654.14 763.09 513.77 303.39 346.42 308.43 366.00 515.95 254.10 409.94 379.19 525.46 404.59 550.36 585.27 336.68 401.33 401.87 431.38 73.36 748.25 122.78 637.34 349.32 341.74 606.63 590.79 581.99 304.87 233.85 113.32 130.48 669.97 138.02 585.30 324.29 471.88 321.87 153.92 739.07 307.07 904.85 656.37 317.07 460.54 173.37 166.65 361.41 61.01 383.74 636.84 254.52 303.92 80.00
1306.85 546.88 461.71 280.47 227.31 396.73 341.97 370.17 238.45 286.65 349.46 186.92 358.74 189.38 286.16 276.54 245.10 496.43 436.65 252.16 468.27 389.70 337.57 168.84 256.54 237.88 181.84 365.91 0.00 318.60 470.64 185.62 181.81 248.38 164.41 207.42 361.99 255.41 288.26 229.74 352.66 484.48 219.08 228.00 276.52 489.34 163.47 185.31 429.36 197.38 316.68 217.85 394.76 378.22 201.62 278.20 77.58 466.25 346.12 268.42 299.73 94.46 292.46 656.06 197.15 212.91 217.89 384.97 275.52 243.02 263.53 206.91 52.32 217.46 205.51 254.24 261.76 443.60 155.35 348.58 100.10 372.64 421.38 337.35 523.54 292.07 227.78 333.70 320.88 523.15 214.95 192.80 374.27 235.43 388.64 351.80 274.06 285.80 309.57 268.58 263.95 416.26 263.33 708.52 328.93 240.71 370.06 283.40 294.78 211.77 401.69 195.37 309.97 266.83 262.01 373.08
1409.45 743.04 570.96 69.81 324.11 329.94 611.28 639.48 462.76 91.92 585.13 501.62 98.70 150.64 193.19 360.82 182.72 621.99 704.11 277.92 605.45 610.21 359.06 178.31 133.60 379.02 399.88 635.22 318.60 0.00 591.16 282.42 237.90 118.37 300.35 488.78 464.59 397.56 550.14 242.88 603.35 581.98 326.96 134.87 113.69 277.83 266.43 327.46 581.44 150.60 545.99 373.30 620.30 86.83 342.28 519.20 324.08 570.92 596.57 495.07 290.74 378.03 122.03 677.55 121.45 350.09 324.62 527.12 395.54 146.86 448.80 265.43 333.84 134.39 249.84 132.38 67.03 540.40 252.15 471.82 319.91 609.52 244.73 557.61 432.76 365.38 355.53 169.54 196.37 604.49 349.56 449.08 577.94 504.74 116.01 605.61 77.28 390.24 314.82 395.89 506.52 290.42 373.65 649.38 172.75 345.81 404.48 487.07 498.45 308.57 633.83 292.17 196.71 408.36 370.50 608.75
1110.97 602.42 20.20 559.68 306.81 366.04 431.12 500.83 407.28 516.79 441.77 465.10 637.51 489.09 568.37 245.05 437.71 204.02 487.48 634.60 169.65 440.51 343.19 470.52 535.31 232.76 376.32 417.64 470.64 591.16 0.00 329.36 438.21 550.06 453.00 575.59 166.11 276.68 412.48 435.73 477.75 227.12 294.37 493.55 503.87 687.29 359.64 285.33 232.71 480.10 507.62 349.54 416.90 631.98 286.97 507.20 509.22 49.51 457.56 428.98 409.29 551.79 639.53 363.79 491.28 261.69 297.87 198.20 210.33 566.37 312.40 393.07 503.25 471.48 362.89 531.67 541.68 123.44 359.63 213.58 531.74 360.98 703.59 467.28 491.35 260.58 327.79 617.74 472.55 164.35 263.17 410.83 450.10 395.99 661.16 279.62 540.29 258.71 276.34 280.17 424.51 709.89 265.37 764.57 636.18 336.49 186.68 419.50 408.12 319.71 455.25 333.30 592.18 312.92 262.22 447.14
1147.68 579.93 329.31 279.56 41.69 274.19 387.72 426.08 242.87 257.00 343.29 326.04 352.47 181.14 365.95 105.46 181.90 366.36 465.28 343.52 323.03 388.33 251.34 156.72 250.27 96.60 158.19 371.06 185.62 282.42 329.36 0.00 142.12 236.26 157.62 354.39 202.82 135.43 295.03 106.37 355.88 299.56 55.48 231.05 264.40 431.48 79.70 89.25 299.46 185.26 314.92 132.85 388.59 369.25 81.62 296.53 263.20 319.42 359.08 304.57 165.74 259.78 350.39 532.06 200.20 67.67 76.53 264.99 130.28 271.40 217.76 108.06 237.94 217.52 71.81 242.42 281.89 281.70 30.27 213.71 274.23 356.43 489.84 341.18 389.84 115.61 117.78 351.64 235.12 393.46 82.55 189.23 397.85 297.44 394.98 356.24 248.56 141.12 184.49 136.18 292.02 512.56 99.00 696.40 401.11 103.97 211.92 306.98 295.60 49.87 414.65 17.21 378.43 166.52 102.15 366.91
1249.26 606.52 423.46 191.40 132.70 266.78 421.76 428.10 278.04 147.80 425.36 323.12 238.51 150.54 291.67 195.77 85.87 475.21 542.56 287.07 431.88 454.17 293.81 122.87 136.31 205.45 209.89 455.08 181.81 237.90 438.21 142.12 0.00 129.55 115.87 291.47 304.40 249.13 359.95 47.93 416.15 441.68 157.06 139.17 155.67 335.45 110.39 183.59 387.46 133.59 367.52 176.01 470.66 257.99 173.04 281.30 141.08 405.54 441.15 339.03 229.01 212.95 242.63 534.72 162.61 176.52 163.23 365.38 229.18 191.99 228.53 45.14 164.41 142.46 81.39 105.52 172.69 391.20 126.25 306.77 163.60 423.66 382.22 408.01 399.42 180.24 183.76 237.68 176.80 467.45 176.70 224.40 451.10 352.15 287.17 421.96 160.62 237.75 267.30 230.33 351.58 411.02 204.58 645.66 287.42 213.13 321.42 360.23 348.85 159.37 467.05 128.36 303.59 200.56 207.73 448.98
1328.81 699.05 533.00 63.38 262.25 304.33 551.31 557.65 363.99 66.31 493.99 415.40 117.43 72.31 170.59 311.83 136.91 575.53 629.24 255.83 545.88 521.78 313.94 79.54 15.23 317.78 321.67 533.93 248.38 118.37 550.06 236.26 129.55 0.00 181.98 386.17 383.95 340.47 489.50 165.78 513.54 530.77 286.61 88.41 49.33 272.25 239.94 270.37 511.96 89.19 483.81 305.56 537.99 136.91 263.57 410.85 227.74 500.55 478.20 455.13 216.51 267.99 154.15 599.66 81.12 297.49 281.32 470.03 346.55 70.91 353.84 174.69 219.45 114.00 209.51 24.03 51.34 488.07 223.18 407.98 250.26 553.21 261.14 520.93 423.39 309.79 313.31 116.60 194.49 538.91 287.37 353.95 522.62 454.12 166.09 533.74 75.81 343.78 349.46 327.98 442.58 295.46 319.83 587.25 166.34 305.48 366.52 462.03 473.41 256.24 533.77 223.58 182.51 330.11 316.68 513.77
1260.92 561.58 450.71 245.36 199.31 350.96 385.27 453.69 311.90 243.54 384.25 302.13 299.41 150.30 279.21 221.36 201.74 487.43 478.47 268.67 444.10 384.77 332.89 177.97 197.21 220.24 218.06 351.95 164.41 300.35 453.00 157.62 115.87 181.98 0.00 216.59 316.06 247.75 365.99 136.15 427.88 457.18 182.65 188.60 219.25 451.32 135.98 192.68 395.42 187.40 376.45 182.05 408.38 318.89 198.63 327.38 120.03 419.22 400.04 339.54 259.26 160.63 302.19 622.94 203.84 202.11 186.07 377.31 256.08 164.00 258.72 70.73 112.09 225.75 104.23 206.01 233.32 408.38 154.39 306.74 116.61 425.31 399.22 382.14 422.26 205.83 180.23 254.68 292.67 493.04 203.95 281.16 437.31 355.51 318.02 430.13 257.79 246.27 266.04 226.74 326.99 444.81 187.63 717.65 304.42 144.93 344.26 346.44 357.82 182.21 412.96 174.83 298.61 207.48 190.78 406.19
1344.48 478.43 555.39 440.46 334.45 526.56 311.75 306.49 299.27 425.81 288.69 202.07 473.14 366.89 400.56 382.44 377.34 510.79 385.26 230.94 522.20 286.49 543.71 376.26 370.94 358.85 279.30 345.07 207.42 488.78 575.59 354.39 291.47 386.17 216.59 0.00 431.51 378.94 264.12 330.19 294.75 492.09 348.99 365.41 435.14 626.92 311.58 330.37 482.19 398.72 190.71 243.29 295.31 492.62 314.06 110.79 177.37 548.11 300.64 245.27 434.86 118.18 424.49 813.23 369.66 340.58 305.07 487.06 403.19 380.59 305.59 246.33 166.72 390.96 282.58 396.99 421.75 496.27 332.74 419.62 171.20 345.42 535.78 249.01 600.61 381.43 263.82 422.15 468.27 520.26 328.44 245.63 298.39 270.94 495.32 387.31 414.47 316.88 482.63 339.62 242.42 542.27 359.57 915.94 460.76 280.41 497.73 222.97 211.59 360.56 292.88 362.81 424.37 333.75 362.72 265.07
944.86 561.03 180.58 430.50 182.95 306.78 431.92 448.67 355.20 392.93 434.17 358.47 485.53 332.08 526.97 121.19 361.71 268.27 449.67 504.54 267.52 426.30 309.68 304.41 397.96 131.86 246.43 406.32 361.99 464.59 166.11 202.82 304.40 383.95 316.06 431.51 0.00 146.79 328.80 298.03 420.36 324.99 147.34 370.00 393.13 606.03 225.78 176.68 254.47 313.99 439.09 248.64 449.91 505.01 186.07 436.55 362.19 116.60 420.68 305.15 243.26 403.51 479.12 438.46 361.22 149.08 187.34 156.81 86.47 440.30 297.18 259.26 391.86 347.62 232.83 390.11 417.82 231.57 222.15 47.47 384.71 397.87 625.00 374.62 460.53 136.72 216.53 499.33 340.41 206.43 162.27 301.71 420.50 338.14 496.28 366.93 416.43 114.63 242.83 127.47 317.70 647.51 128.43 695.83 522.26 212.76 153.17 329.63 338.83 181.62 443.91 209.44 534.37 229.03 131.58 440.60
1091.64 458.57 296.88 391.76 120.99 294.89 303.44 359.80 208.41 356.20 350.77 321.22 436.95 296.28 468.19 104.32 293.31 241.02 426.28 445.76 232.60 338.36 274.12 280.60 334.75 43.92 99.64 318.38 255.41 397.56 276.68 135.43 249.13 340.47 247.75 378.94 146.79 0.00 246.39 231.13 342.29 290.07 103.87 319.41 365.74 537.72 144.41 70.10 240.21 309.14 368.24 135.65 361.97 456.43 86.41 367.14 318.72 263.39 338.27 258.05 241.98 349.87 453.55 518.79 302.44 72.61 102.68 129.56 94.64 377.29 199.17 203.99 307.73 330.75 174.05 316.44 381.09 204.32 145.41 99.32 341.24 302.17 573.20 313.41 386.78 102.76 136.65 428.66 346.53 311.51 74.33 232.30 363.90 225.06 485.61 220.81 359.97 64.04 236.62 41.30 253.58 565.21 60.12 674.31 453.95 138.88 228.23 273.03 284.41 130.87 371.68 128.62 492.00 82.24 63.27 347.19
1227.56 312.73 432.68 515.19 253.34 524.91 140.33 143.34 142.96 486.34 107.67 205.50 598.46 455.08 574.42 338.68 445.82 333.95 242.92 452.23 290.62 135.46 490.84 427.41 496.26 273.56 207.77 138.00 288.26 550.14 412.48 295.03 359.95 489.50 365.99 264.12 328.80 246.39 0.00 389.46 127.22 265.54 289.64 466.64 465.87 695.40 283.71 280.82 274.94 455.95 189.01 183.94 151.67 601.53 264.51 180.87 322.69 445.40 91.88 55.07 460.77 379.54 580.72 757.93 435.79 285.19 270.64 284.35 341.03 514.87 176.45 319.57 340.58 461.59 307.40 465.47 511.23 337.21 325.30 345.71 300.17 107.23 681.03 111.69 619.14 325.78 249.12 536.49 519.03 535.23 270.31 176.98 136.30 52.83 624.29 132.86 509.84 310.43 435.21 287.69 67.62 671.24 306.17 880.79 586.23 221.06 442.34 63.91 52.53 292.52 125.29 312.24 598.23 164.15 303.02 127.45
1217.42 569.87 428.33 203.74 148.06 299.84 460.48 466.82 322.67 195.73 449.66 371.05 258.68 113.91 311.84 211.83 118.93 461.66 544.53 335.00 429.40 449.53 277.67 86.24 156.48 202.97 241.88 477.43 229.74 242.88 435.73 106.37 47.93 165.78 136.15 330.19 298.03 231.13 389.46 0.00 449.53 405.93 150.69 152.28 176.10 368.51 105.75 161.03 405.83 96.96 385.31 205.87 473.14 278.16 177.34 329.23 189.01 414.63 465.45 334.39 181.08 260.88 262.09 486.79 121.43 174.04 182.90 350.20 236.65 200.51 276.46 83.86 212.34 147.04 120.11 153.45 185.03 388.07 129.15 292.56 211.53 462.38 402.39 403.79 438.14 218.96 194.85 257.85 209.86 448.25 188.92 269.03 449.74 367.38 307.34 439.18 206.88 189.82 219.37 212.56 346.94 430.48 198.21 625.92 307.59 210.34 309.03 358.87 368.07 156.24 473.15 123.58 317.34 239.28 201.36 469.77
1225.07 256.19 484.08 566.63 321.82 561.99 98.59 101.51 204.14 550.30 49.35 227.58 624.80 513.32 561.47 369.38 502.02 300.26 172.10 482.93 320.52 73.33 534.38 488.59 522.60 317.81 259.51 128.01 352.66 603.35 477.75 355.88 416.15 513.54 427.88 294.75 420.36 342.29 127.22 449.53 0.00 263.05 324.34 523.14 526.01 751.60 343.78 290.57 272.67 517.13 163.62 295.52 60.85 644.28 274.26 183.96 376.16 493.76 35.34 115.21 487.20 370.05 622.33 755.44 500.52 302.28 292.01 348.75 358.85 564.56 240.85 371.01 346.49 475.09 373.85 521.67 563.40 373.81 364.39 383.11 398.68 121.62 696.69 45.74 636.23 369.86 312.27 596.63 540.40 595.30 287.40 229.35 63.17 117.23 673.46 202.98 559.12 362.61 501.68 341.03 126.68 675.44 327.22 932.53 571.61 282.95 459.43 116.28 104.90 348.16 90.91 338.67 585.28 291.37 330.37 51.91
962.02 480.33 247.32 556.88 341.25 467.36 283.57 323.09 337.96 556.56 294.83 414.41 648.20 458.46 665.51 340.53 481.46 78.87 340.54 642.73 57.47 297.58 408.20 456.28 546.00 318.27 344.75 270.70 484.48 581.98 227.12 299.56 441.68 530.77 457.18 492.09 324.99 290.07 265.54 405.93 263.05 0.00 322.02 530.61 563.96 731.04 348.93 316.94 145.90 484.82 380.76 375.25 321.19 667.68 328.02 403.87 536.87 276.63 298.39 246.82 465.30 517.60 649.95 492.39 499.76 289.34 345.77 172.29 351.95 570.96 266.29 407.62 527.16 517.08 371.37 541.98 575.59 125.83 329.83 285.09 551.24 214.04 789.40 308.79 623.29 325.00 351.70 645.39 534.68 391.47 304.22 322.56 299.91 249.05 694.54 132.68 548.12 336.84 463.71 314.10 259.37 812.05 313.94 942.15 695.13 361.81 374.05 271.30 280.50 349.43 331.71 316.77 677.99 364.08 317.09 314.96
1092.20 545.70 288.90 307.54 44.34 282.29 348.50 376.70 236.06 288.65 338.21 289.03 375.86 225.68 379.63 76.38 231.31 331.37 424.87 357.20 288.04 350.15 275.53 212.20 282.61 61.61 127.29 336.07 219.08 326.96 294.37 55.48 157.06 286.61 182.65 348.99 147.34 103.87 289.64 150.69 324.34 322.02 0.00 244.73 286.29 480.89 108.08 33.77 255.31 240.74 370.40 105.70 373.76 395.34 50.08 326.72 214.85 263.94 354.00 274.95 215.15 293.06 376.58 509.97 213.88 32.68 44.92 233.43 95.29 292.96 196.30 111.92 244.52 265.23 85.49 262.58 313.54 266.11 74.81 160.44 237.37 316.02 514.85 319.61 366.63 87.83 86.17 383.64 284.53 353.77 42.14 191.88 362.70 241.96 424.52 306.10 297.97 106.16 208.68 86.63 270.48 528.88 47.52 692.00 427.30 98.89 189.83 271.83 260.45 34.28 378.07 66.62 403.44 150.44 50.67 361.32
1282.97 673.70 473.35 120.86 232.43 303.84 520.68 548.88 380.47 94.02 494.53 394.92 175.38 78.14 202.67 278.83 122.93 487.12 615.36 254.40 529.20 538.04 307.26 96.02 73.18 289.37 312.87 540.55 228.00 134.87 493.55 231.05 139.17 88.41 188.60 365.41 370.00 319.41 466.64 152.28 523.14 530.61 244.73 0.00 69.73 311.09 206.87 273.66 500.04 115.20 463.33 282.70 537.71 194.86 258.83 420.47 228.64 486.60 510.32 431.34 200.14 247.23 198.60 616.14 30.85 273.84 241.08 425.55 313.55 87.46 313.93 175.60 198.97 134.40 159.24 66.64 102.15 469.05 209.40 358.11 229.31 529.31 310.56 477.40 443.79 294.36 282.33 174.55 213.86 544.74 258.96 363.57 497.73 414.14 224.04 524.94 98.81 255.37 333.09 278.11 426.31 353.41 292.25 552.85 224.29 255.21 386.92 406.86 418.24 237.22 565.89 222.76 199.15 317.76 295.40 518.15
1337.99 739.08 483.67 55.81 268.60 262.31 543.95 565.71 392.13 24.29 539.82 446.26 155.48 121.64 213.13 291.10 115.09 556.85 620.94 281.48 545.93 561.32 321.47 107.68 64.56 330.93 349.81 568.85 276.52 113.69 503.87 264.40 155.67 49.33 219.25 435.14 393.13 365.74 465.87 176.10 526.01 563.96 286.29 69.73 0.00 241.36 240.25 296.49 513.41 79.14 519.81 324.26 559.91 139.48 300.39 436.97 277.07 476.03 527.53 410.80 244.65 316.96 187.26 622.17 100.58 315.40 282.64 495.28 325.82 97.92 379.96 200.81 268.70 64.67 200.80 50.15 46.66 510.61 250.96 402.10 290.77 557.73 297.38 480.27 374.06 297.75 315.52 165.93 166.59 490.80 300.52 368.56 526.15 443.79 168.66 560.16 47.50 325.10 331.19 344.73 423.35 311.50 305.62 622.58 215.67 324.94 317.19 435.28 444.48 278.78 549.56 272.91 231.84 356.23 308.77 546.25
1550.89 937.14 707.49 208.87 468.15 430.49 757.21 763.55 590.19 252.47 748.60 640.68 221.81 307.29 347.60 502.52 249.58 777.40 862.30 502.82 734.07 780.23 489.65 325.84 287.48 510.21 545.34 751.52 489.34 277.83 687.29 431.48 335.45 272.25 451.32 626.92 606.03 537.72 695.40 368.51 751.60 731.04 480.89 311.09 241.36 0.00 445.84 482.26 685.39 297.30 666.91 511.46 778.07 238.01 478.68 616.75 476.53 637.78 750.45 652.16 425.37 540.24 319.55 808.14 313.07 494.62 479.45 667.28 537.24 307.41 563.98 380.59 491.70 306.03 416.84 259.36 227.58 653.79 406.98 589.56 483.93 759.11 325.53 721.63 613.51 515.69 519.21 326.45 315.58 704.33 502.48 559.85 767.51 680.32 267.19 757.41 240.66 532.30 465.68 509.56 664.71 276.36 477.60 497.90 370.27 509.28 555.34 676.64 684.30 446.93 790.92 414.27 371.41 536.01 480.75 772.22
1170.64 500.69 348.28 260.87 69.75 323.76 361.79 383.55 250.63 258.19 348.45 301.86 346.95 180.45 341.77 150.74 196.26 385.43 438.78 319.34 357.27 343.78 268.83 191.99 244.75 126.88 141.86 386.69 163.47 266.43 359.64 79.70 110.39 239.94 135.98 311.58 225.78 144.41 283.71 105.75 343.78 348.93 108.08 206.87 240.25 445.84 0.00 74.31 326.11 202.71 279.56 132.28 367.39 353.26 77.72 323.00 224.83 342.38 364.24 228.64 211.02 257.93 329.91 577.34 176.02 101.91 95.47 273.97 164.52 255.10 222.92 65.25 215.79 252.79 47.63 215.91 279.58 326.98 97.79 218.70 202.31 375.40 476.99 298.04 365.66 146.38 89.10 345.78 280.40 408.99 101.52 217.29 343.99 261.63 382.44 352.46 271.01 166.07 234.06 155.15 241.19 498.30 143.37 695.05 380.63 109.13 257.20 253.12 262.32 95.15 367.40 62.49 365.58 168.77 140.22 364.02
1121.54 528.67 276.40 324.60 50.89 302.97 337.87 387.75 223.72 288.62 311.07 276.53 366.85 226.18 408.56 101.93 232.71 311.12 412.37 386.13 282.96 347.01 243.81 210.50 264.65 52.57 114.95 327.03 185.31 327.46 285.33 89.25 183.59 270.37 192.68 330.37 176.68 70.10 280.82 161.03 290.57 316.94 33.77 273.66 296.49 482.26 74.31 0.00 259.39 239.04 353.87 97.81 351.42 386.33 16.31 310.63 248.62 280.94 325.91 272.35 229.25 279.77 383.45 504.89 242.81 27.60 32.58 199.66 90.21 320.33 185.54 139.56 237.63 271.30 114.42 246.34 313.51 274.42 75.31 163.27 271.14 303.52 510.56 308.96 361.55 110.01 66.55 366.02 280.97 347.58 29.64 196.92 353.74 253.01 415.51 278.15 301.44 100.49 229.53 83.27 259.80 495.11 78.02 682.96 415.76 71.75 184.75 268.15 279.53 61.86 381.48 80.72 429.55 116.67 76.70 334.69
1107.92 459.96 252.91 537.94 289.60 442.56 290.86 306.11 290.20 503.87 223.32 405.95 598.93 469.41 634.94 252.96 468.73 144.06 281.94 612.51 103.50 268.36 450.68 456.18 496.73 213.08 277.70 278.32 429.36 581.44 232.71 299.46 387.46 511.96 395.42 482.19 254.47 240.21 274.94 405.83 272.67 145.90 255.31 500.04 513.41 685.39 326.11 259.39 0.00 484.72 375.27 241.69 268.62 618.41 248.39 371.40 458.86 282.22 239.11 255.10 389.65 498.46 606.98 596.50 469.19 231.79 266.14 127.40 222.36 536.47 334.99 342.32 449.92 479.39 340.80 492.98 528.76 158.15 329.29 207.00 474.05 204.96 729.72 295.61 565.74 250.43 298.63 587.84 497.81 397.06 243.49 236.56 280.00 222.11 647.59 143.87 527.37 266.43 385.26 245.30 250.63 754.50 207.79 831.72 601.62 278.81 306.54 270.08 281.46 283.98 294.68 304.04 645.62 292.93 210.94 246.94
1258.85 659.94 484.40 129.51 223.89 228.63 506.60 537.86 312.99 103.43 508.05 384.30 171.54 47.09 236.29 287.00 47.72 550.16 589.17 239.25 508.29 504.38 252.36 28.54 104.42 271.88 270.67 493.20 197.38 150.60 480.10 185.26 133.59 89.19 187.40 398.72 313.99 309.14 455.95 96.96 517.13 484.82 240.74 115.20 79.14 297.30 202.71 239.04 484.72 0.00 465.05 302.83 480.77 191.02 255.35 414.89 221.35 430.59 523.84 404.13 165.51 291.84 165.13 543.03 84.35 252.93 253.72 438.70 300.56 160.10 362.12 159.22 249.70 85.62 195.47 113.22 117.85 451.93 197.96 361.46 243.87 525.10 315.04 471.39 395.01 271.47 285.62 205.79 138.65 513.69 267.81 298.48 501.90 403.12 220.20 482.74 126.64 286.78 263.82 307.70 391.58 333.52 284.26 568.22 215.85 289.23 317.92 411.03 422.41 230.60 519.12 202.47 220.38 314.64 287.41 511.01
1342.78 388.59 527.82 540.43 349.31 589.11 217.48 157.94 225.08 508.13 151.95 177.50 570.78 460.01 498.20 403.29 417.33 432.66 277.62 385.19 438.23 196.99 548.39 471.55 468.58 390.50 288.51 234.00 316.68 545.99 507.62 314.92 367.52 483.81 376.45 190.71 439.09 368.24 189.01 385.31 163.62 380.76 370.40 463.33 519.81 666.91 279.56 353.87 375.27 465.05 0.00 273.72 197.25 590.26 355.22 86.22 294.03 458.11 167.74 133.94 480.66 308.89 569.36 843.51 455.58 374.97 357.25 398.45 429.18 482.43 281.02 344.81 264.36 473.92 327.19 473.04 533.02 452.30 345.19 454.97 311.99 280.87 633.42 137.62 645.22 407.06 316.00 552.19 508.26 645.52 360.09 221.06 208.63 166.93 619.44 283.30 528.14 398.69 499.41 403.21 146.49 682.59 364.42 961.53 566.01 310.84 526.84 158.42 167.62 364.79 201.72 332.13 522.01 349.19 361.27 175.57
1179.84 486.95 333.13 346.00 91.16 362.73 298.66 326.86 144.78 302.40 276.44 261.66 414.52 305.39 417.60 157.37 261.88 376.67 393.34 391.75 345.19 319.40 332.01 278.14 312.32 116.78 36.01 321.94 217.85 373.30 349.54 132.85 176.01 305.56 182.05 243.29 248.64 135.65 183.94 205.87 295.52 375.25 105.70 282.70 324.26 511.46 132.28 97.81 241.69 302.83 273.72 0.00 321.74 417.59 81.50 233.95 217.17 339.45 275.82 225.11 288.12 256.77 418.64 578.54 251.85 101.25 91.09 265.21 163.86 330.93 108.96 159.71 208.23 277.65 123.46 281.53 327.29 317.22 163.12 209.50 239.69 291.17 543.41 249.78 435.20 141.84 65.18 413.69 339.48 412.77 86.37 99.11 320.24 192.12 446.77 248.08 325.90 152.24 273.03 129.50 220.64 587.03 138.84 709.03 463.43 37.12 258.40 234.94 223.56 130.34 291.04 145.91 432.00 90.46 135.69 300.06
1283.21 243.60 437.10 601.37 373.43 561.01 71.47 86.29 231.27 584.20 45.30 243.36 637.36 517.83 576.28 371.41 528.49 324.71 131.07 512.69 332.94 23.61 569.13 509.31 535.16 318.05 286.80 85.70 394.76 620.30 416.90 388.59 470.66 537.99 408.38 295.31 449.91 361.97 151.67 473.14 60.85 321.19 373.76 537.71 559.91 778.07 367.39 351.42 268.62 480.77 197.25 321.74 0.00 626.97 335.11 231.49 372.11 466.41 59.79 157.71 508.10 390.98 645.90 780.69 508.98 346.98 338.59 339.68 397.30 560.51 277.81 431.86 342.44 535.94 415.02 562.02 589.33 369.02 411.06 424.68 394.63 119.80 711.50 96.22 680.93 368.88 330.06 630.27 571.74 581.25 348.25 267.86 42.36 171.01 656.15 188.51 604.89 367.42 503.71 344.68 152.68 725.92 326.24 948.44 632.46 284.62 504.13 133.23 143.41 381.65 38.35 399.52 600.09 292.67 329.39 30.24
1449.87 810.09 623.15 144.86 359.50 353.21 643.41 612.29 488.39 115.19 611.54 521.85 19.48 209.22 178.10 404.18 205.99 681.98 716.92 330.80 652.33 618.15 315.71 215.23 121.68 424.23 453.60 668.60 378.22 86.83 631.98 369.25 257.99 136.91 318.89 492.62 505.01 456.43 601.53 278.16 644.28 667.68 395.34 194.86 139.48 238.01 353.26 386.33 618.41 191.02 590.26 417.59 626.97 0.00 370.02 523.32 347.69 594.19 615.11 550.28 316.21 374.44 117.22 634.20 190.41 408.70 387.77 585.99 421.65 177.36 482.28 303.13 325.90 203.84 318.80 152.47 128.30 592.89 338.98 515.18 325.17 641.93 157.90 619.75 500.23 388.65 420.26 132.69 248.36 595.41 393.82 482.39 630.05 573.70 29.18 560.57 138.69 450.23 382.56 447.45 562.83 207.07 411.27 562.55 167.94 414.77 456.67 573.90 583.96 361.06 656.02 360.49 167.98 458.55 408.24 596.73
1115.95 530.45 270.56 323.52 47.56 308.86 321.56 375.77 208.89 291.87 311.04 270.69 350.54 241.00 393.73 95.12 229.10 325.64 406.53 371.30 282.31 347.59 260.12 226.81 248.34 54.21 100.12 328.67 201.62 342.28 286.97 81.62 173.04 263.57 198.63 314.06 186.07 86.41 264.51 177.34 274.26 328.02 50.08 258.83 300.39 478.68 77.72 16.31 248.39 255.35 355.22 81.50 335.11 370.02 0.00 294.32 255.37 266.11 309.60 256.75 212.94 274.24 387.26 515.97 227.98 38.68 17.75 215.97 101.29 304.02 185.51 127.90 225.70 268.45 99.59 262.65 314.91 290.02 90.13 157.43 277.89 297.68 494.25 308.93 372.63 110.65 50.24 349.71 266.14 331.27 23.80 180.61 337.43 247.17 399.20 294.46 295.76 88.35 227.42 77.43 259.77 511.42 74.09 684.60 399.45 71.72 195.83 253.32 264.70 73.90 365.17 64.41 413.24 100.36 72.42 326.17
1365.89 417.56 527.40 465.41 282.38 548.08 227.68 195.70 188.48 429.10 210.51 91.28 503.84 431.84 477.65 362.70 367.17 474.53 324.39 298.97 448.22 219.27 523.23 404.17 401.64 334.93 269.96 261.00 278.20 519.20 507.20 296.53 281.30 410.85 327.38 110.79 436.55 367.14 180.87 329.23 183.96 403.87 326.72 420.47 436.97 616.75 323.00 310.63 371.40 414.89 86.22 233.95 231.49 523.32 294.32 0.00 246.98 533.69 210.29 157.05 462.27 228.97 523.93 795.35 403.76 319.40 285.33 397.27 378.86 434.72 194.80 311.62 276.65 423.76 275.37 386.82 453.99 463.33 325.53 399.99 225.77 288.10 612.87 138.22 593.40 359.01 244.08 476.72 458.10 612.18 304.52 134.84 237.52 178.72 549.89 295.09 441.92 345.98 464.25 358.15 169.60 596.84 340.27 922.79 526.46 271.07 476.55 181.53 178.65 321.56 232.57 313.74 501.46 284.90 343.42 204.20
1307.05 563.45 503.75 275.76 259.19 407.86 396.48 409.60 313.65 281.94 326.81 225.62 334.65 197.57 263.51 291.23 226.95 542.69 470.62 174.58 499.36 371.85 403.61 225.24 233.89 276.46 253.18 408.86 77.58 324.08 509.22 263.20 141.08 227.74 120.03 177.37 362.19 318.72 322.69 189.01 376.16 536.87 214.85 228.64 277.07 476.53 224.83 248.62 458.86 221.35 294.03 217.17 372.11 347.69 255.37 246.98 0.00 478.79 342.60 301.38 362.21 78.21 278.23 675.80 220.98 247.53 246.38 448.28 310.14 247.74 326.13 186.22 29.67 273.02 222.47 246.60 257.05 457.17 232.93 333.48 22.52 429.92 398.73 331.15 540.50 302.68 205.13 273.47 317.88 541.52 256.99 260.01 383.49 313.01 346.64 429.38 265.79 307.03 386.07 301.48 313.93 393.59 262.37 764.92 323.21 244.54 404.68 325.86 335.06 249.13 398.17 269.44 287.32 264.02 265.52 350.43
1061.46 599.86 69.71 522.60 283.20 415.55 470.75 550.34 439.50 479.00 491.28 475.07 602.13 448.68 617.88 237.79 388.20 253.53 536.99 601.91 219.16 490.02 392.70 421.01 514.45 248.46 330.73 463.96 466.25 570.92 49.51 319.42 405.54 500.55 419.22 548.11 116.60 263.39 445.40 414.63 493.76 276.63 263.94 486.60 476.03 637.78 342.38 280.94 282.22 430.59 458.11 339.45 466.41 594.19 266.11 533.69 478.79 0.00 507.07 416.85 359.86 513.61 595.72 413.30 458.59 265.68 248.36 195.64 203.07 519.93 361.91 366.45 465.07 444.79 330.20 505.77 503.89 172.95 320.83 164.07 501.31 410.49 709.55 448.02 540.86 253.32 289.61 610.61 457.01 206.65 278.87 406.17 483.24 427.16 612.88 329.13 502.50 231.23 325.85 244.07 411.82 660.38 231.59 715.06 625.42 302.33 236.19 392.37 403.75 298.22 484.95 317.04 641.69 345.63 234.74 496.65
1260.41 220.85 448.74 541.58 343.92 580.98 82.25 79.47 210.85 544.51 15.79 262.92 595.63 519.89 546.77 386.45 514.81 264.92 151.04 483.18 308.25 43.58 565.81 495.30 493.43 338.02 285.84 97.84 346.12 596.57 457.56 359.08 441.15 478.20 400.04 300.64 420.68 338.27 91.88 465.45 35.34 298.39 354.00 510.32 527.53 750.45 364.24 325.91 239.11 523.84 167.74 275.82 59.79 615.11 309.60 210.29 342.60 507.07 0.00 141.54 509.53 361.47 617.93 789.15 479.47 337.62 309.08 345.01 385.18 531.00 265.12 406.35 312.93 510.43 390.92 502.23 529.54 338.47 381.55 409.44 365.12 156.96 681.99 72.07 671.57 388.85 300.55 594.80 557.47 595.37 322.74 232.70 44.42 141.50 644.29 177.94 554.01 387.81 518.75 376.37 132.26 701.77 346.21 958.86 606.95 255.11 485.76 135.29 127.50 352.14 55.57 374.01 570.58 256.03 349.36 35.57
1208.84 344.44 449.18 466.61 264.17 507.71 133.15 154.91 91.14 435.09 129.02 174.65 560.05 403.26 535.41 311.81 424.90 325.69 210.14 456.02 304.29 150.52 471.99 375.59 469.14 275.70 199.91 158.05 268.42 495.07 428.98 304.57 339.03 455.13 339.54 245.27 305.15 258.05 55.07 334.39 115.21 246.82 274.95 431.34 410.80 652.16 228.64 272.35 255.10 404.13 133.94 225.11 157.71 550.28 256.75 157.05 301.38 416.85 141.54 0.00 439.66 360.75 528.93 739.21 404.66 271.24 247.76 264.51 317.30 465.84 151.68 293.89 320.74 436.39 276.27 444.55 457.46 318.36 320.23 321.03 323.90 146.93 625.96 69.47 594.30 315.58 206.51 481.42 490.52 511.58 256.36 144.78 115.35 32.99 579.46 149.36 458.30 308.41 444.11 299.35 12.55 671.55 272.94 872.93 531.16 200.60 428.39 24.48 33.68 297.63 138.76 291.13 547.33 215.25 269.79 135.45
1188.12 692.26 389.09 263.06 207.43 162.94 498.41 530.54 396.29 227.22 493.74 448.64 332.72 164.64 363.58 220.73 175.79 418.40 584.48 404.76 421.76 484.49 148.78 136.97 230.52 208.17 289.51 482.63 299.73 290.74 409.29 165.74 229.01 216.51 259.26 434.86 243.26 241.98 460.77 181.08 487.20 465.30 215.15 200.14 244.65 425.37 211.02 229.25 389.65 165.51 480.66 288.12 508.10 316.21 212.94 462.27 362.21 359.86 509.53 439.66 0.00 394.19 330.64 467.27 169.29 216.63 217.21 306.94 246.62 248.37 367.92 188.53 352.05 183.57 208.02 222.67 252.11 360.85 157.86 290.73 367.75 474.18 415.75 463.34 374.35 224.50 244.19 331.89 125.05 429.35 201.75 354.97 539.23 425.12 287.03 462.79 244.14 240.50 132.95 220.65 435.95 464.92 181.86 593.91 381.36 254.42 222.61 452.78 443.96 181.19 523.22 148.53 382.98 311.77 178.71 505.91
1348.37 582.32 535.38 331.37 296.17 479.73 415.35 400.44 283.09 307.63 345.68 216.22 354.96 275.78 282.38 339.84 298.82 561.56 489.49 198.41 518.23 390.72 430.75 263.30 252.76 319.03 258.94 427.73 94.46 378.03 551.79 259.78 212.95 267.99 160.63 118.18 403.51 349.87 379.54 260.88 370.05 517.60 293.06 247.23 316.96 540.24 257.93 279.77 498.46 291.84 308.89 256.77 390.98 374.44 274.24 228.97 78.21 513.61 361.47 360.75 394.19 0.00 353.54 695.05 256.58 291.49 265.25 479.43 354.10 263.73 251.31 231.36 48.54 272.78 264.86 283.55 319.33 476.04 249.81 371.34 79.37 463.60 417.60 350.02 582.17 324.31 224.00 330.32 389.75 560.39 288.62 287.26 402.36 329.89 403.49 446.26 322.64 325.90 404.03 338.43 356.40 450.44 299.32 800.08 350.19 263.41 447.06 341.15 329.77 285.01 411.06 252.35 306.19 282.89 302.47 369.30
1423.98 825.07 647.39 139.69 375.33 393.76 634.43 602.19 478.12 179.39 602.14 479.38 97.74 212.22 71.16 400.90 212.85 685.72 729.11 245.62 651.40 647.18 417.49 193.67 138.92 424.97 435.80 654.14 292.46 122.03 639.53 350.39 242.63 154.15 302.19 424.49 479.12 453.55 580.72 262.09 622.33 649.95 376.58 198.60 187.26 319.55 329.91 383.45 606.98 165.13 569.36 418.64 645.90 117.22 387.26 523.93 278.23 595.72 617.93 528.93 330.64 353.54 0.00 708.16 194.20 396.04 382.75 583.11 435.62 138.19 466.92 264.66 305.00 174.47 300.91 137.11 158.40 610.72 351.07 511.90 298.46 643.18 186.09 586.89 483.86 399.76 403.28 47.51 290.57 675.52 400.63 463.61 644.28 527.89 146.40 633.24 171.48 451.91 415.63 454.26 541.48 168.39 424.10 679.77 50.72 418.56 483.05 553.41 562.61 378.89 667.69 367.60 74.68 420.08 427.25 625.76
1383.32 926.12 343.59 632.06 521.37 377.65 775.96 717.31 711.49 615.67 773.75 739.06 632.59 547.79 700.45 477.47 558.56 527.41 832.93 782.28 533.44 775.00 318.49 520.12 596.12 506.22 602.72 763.09 656.06 677.55 363.79 532.06 534.72 599.66 622.94 813.23 438.46 518.79 757.93 486.79 755.44 492.39 509.97 616.14 622.17 808.14 577.34 504.89 596.50 543.03 843.51 578.54 780.69 634.20 515.97 795.35 675.80 413.30 789.15 739.21 467.27 695.05 708.16 0.00 585.29 477.29 533.72 521.90 512.19 651.80 653.46 570.65 699.13 580.92 560.17 605.82 623.59 487.23 538.61 452.02 698.32 706.43 792.10 766.87 395.40 493.00 554.05 686.52 555.25 396.09 492.17 660.51 786.90 715.54 663.38 625.07 600.27 500.23 385.34 477.49 738.84 841.27 485.39 724.79 736.26 550.79 320.14 758.29 747.49 482.19 809.58 514.85 724.26 601.03 482.24 753.58
1306.08 676.71 474.87 104.20 241.89 312.98 489.83 518.03 349.62 99.37 463.68 382.62 170.93 53.54 194.29 280.16 132.07 517.97 584.51 244.36 498.35 508.72 291.09 65.17 68.73 258.52 287.86 513.77 197.15 121.45 491.28 200.20 162.61 81.12 203.84 369.66 361.22 302.44 435.79 121.43 500.52 499.76 213.88 30.85 100.58 313.07 176.02 242.81 469.19 84.35 455.58 251.85 508.98 190.41 227.98 403.76 220.98 458.59 479.47 404.66 169.29 256.58 194.20 585.29 0.00 242.99 210.23 427.60 305.60 79.08 338.15 164.64 229.82 125.97 128.39 57.09 122.91 438.20 178.55 354.44 198.46 501.99 314.30 461.57 435.36 295.69 251.48 169.76 188.27 520.14 228.11 350.96 520.01 383.29 219.59 499.66 112.19 286.22 302.24 274.44 411.81 348.96 261.40 583.70 219.50 224.36 368.42 429.14 438.34 206.37 535.04 191.91 213.69 286.91 264.55 487.30
1093.94 513.02 261.64 327.00 58.85 287.62 336.71 372.99 238.29 303.16 338.67 261.77 389.22 240.80 408.74 85.89 245.04 298.69 397.61 386.31 255.36 323.37 266.49 224.39 287.02 28.93 129.52 303.39 212.91 350.09 261.69 67.67 176.52 297.49 202.11 340.58 149.08 72.61 285.19 174.04 302.28 289.34 32.68 273.84 315.40 494.62 101.91 27.60 231.79 252.93 374.97 101.25 346.98 408.70 38.68 319.40 247.53 265.68 337.62 271.24 216.63 291.49 396.04 477.29 242.99 0.00 56.43 202.17 62.61 304.68 198.29 131.38 242.95 279.74 114.60 273.94 328.05 273.60 97.94 148.51 270.05 288.76 500.59 325.62 333.95 82.41 76.76 356.05 298.26 355.51 14.88 200.36 365.45 238.25 437.88 292.11 311.70 75.28 218.19 68.51 266.77 522.71 52.85 659.32 405.79 99.35 157.15 286.22 293.13 66.96 362.10 80.35 421.96 139.04 56.00 344.79
1132.20 529.93 288.31 313.71 34.84 293.68 327.69 376.08 191.14 279.15 293.29 270.25 368.29 223.34 375.98 77.37 229.87 343.39 424.28 353.55 300.06 338.33 275.69 225.18 266.09 71.96 82.37 346.42 217.89 324.62 297.87 76.53 163.23 281.32 186.07 305.07 187.34 102.68 270.64 182.90 292.01 345.77 44.92 241.08 282.64 479.45 95.47 32.58 266.14 253.72 357.25 91.09 338.59 387.77 17.75 285.33 246.38 248.36 309.08 247.76 217.21 265.25 382.75 533.72 210.23 56.43 0.00 232.24 112.09 289.31 167.76 118.09 216.71 255.73 81.84 267.32 304.04 279.66 72.47 175.18 268.90 315.43 511.20 291.18 390.38 92.90 41.25 367.46 248.39 349.02 41.55 180.64 324.92 263.33 416.95 294.44 300.03 106.10 209.67 95.18 242.02 527.69 58.91 702.35 417.20 53.97 213.58 235.57 246.95 56.15 364.65 68.68 399.79 106.49 62.06 316.91
1101.67 404.22 218.40 520.59 232.68 381.12 275.11 366.26 316.07 476.99 333.06 439.16 566.51 425.41 593.35 231.78 422.87 111.46 409.34 570.92 114.82 322.97 358.27 410.16 464.31 173.48 229.20 308.43 384.97 527.12 198.20 264.99 365.38 470.03 377.31 487.06 156.81 129.56 284.35 350.20 348.75 172.29 233.43 425.55 495.28 667.28 273.97 199.66 127.40 438.70 398.45 265.21 339.68 585.99 215.97 397.27 448.28 195.64 345.01 264.51 306.94 479.43 583.11 521.90 427.60 202.17 232.24 0.00 197.06 506.68 316.02 333.55 433.44 453.57 299.21 446.00 501.88 74.76 274.97 181.64 470.80 291.48 702.76 333.44 516.34 232.32 260.98 558.22 431.99 362.55 199.49 262.43 342.76 231.52 593.97 210.12 489.53 170.18 291.42 170.86 260.04 694.77 189.68 803.87 583.51 261.64 201.76 279.49 290.87 260.43 341.72 258.18 617.16 199.09 192.83 309.44
1031.33 553.21 230.53 350.06 96.48 256.72 387.61 420.75 297.66 306.46 385.40 324.38 440.17 299.69 457.89 34.72 287.66 308.52 460.22 448.92 311.88 373.69 233.87 272.02 349.63 91.54 192.13 366.00 275.52 395.54 210.33 130.28 229.18 346.55 256.08 403.19 86.47 94.64 341.03 236.65 358.85 351.95 95.29 313.55 325.82 537.24 164.52 90.21 222.36 300.56 429.18 163.86 397.30 421.65 101.29 378.86 310.14 203.07 385.18 317.30 246.62 354.10 435.62 512.19 305.60 62.61 112.09 197.06 0.00 367.29 210.71 185.35 305.56 261.15 177.21 332.41 331.35 271.82 155.91 96.24 332.66 351.37 563.20 313.11 374.06 50.25 139.37 418.66 340.88 292.90 77.49 244.02 412.41 300.86 450.83 314.34 329.96 89.68 167.02 74.34 325.15 585.32 71.06 609.36 464.89 161.96 192.05 341.78 333.16 115.99 407.46 122.97 481.70 176.88 67.91 379.09
1370.43 725.58 553.95 98.54 313.09 312.64 549.27 597.11 428.70 104.72 515.21 414.02 157.88 132.62 115.21 342.44 131.73 574.58 642.47 288.79 560.04 548.77 370.17 144.25 55.68 333.61 357.70 515.95 243.02 146.86 566.37 271.40 191.99 70.91 164.00 380.59 440.30 377.29 514.87 200.51 564.56 570.96 292.96 87.46 97.92 307.41 255.10 320.33 536.47 160.10 482.43 330.93 560.51 177.36 304.02 434.72 247.74 519.93 531.00 465.84 248.37 263.73 138.19 651.80 79.08 304.68 289.31 506.68 367.29 0.00 401.39 234.73 218.07 162.59 207.47 86.47 79.83 517.28 257.63 433.52 240.98 581.07 235.22 519.55 461.92 357.97 330.56 90.68 222.66 588.72 307.19 416.39 563.61 462.37 154.02 569.77 120.57 342.83 347.83 353.52 453.29 280.81 340.48 627.70 140.42 303.44 408.37 472.74 484.12 285.45 576.96 254.19 134.61 365.99 343.63 538.83
1227.02 377.99 332.60 415.69 200.12 397.99 230.16 258.36 127.88 372.09 249.33 152.70 462.80 328.63 494.39 175.99 314.40 340.03 324.84 449.72 323.76 268.99 375.14 351.40 360.60 169.36 110.11 254.10 263.53 448.80 312.40 217.76 228.53 353.84 258.72 305.59 297.18 199.17 176.45 276.46 240.85 266.29 196.30 313.93 379.96 563.98 222.92 185.54 334.99 362.12 281.02 108.96 277.81 482.28 185.51 194.80 326.13 361.91 265.12 151.68 367.92 251.31 466.92 653.46 338.15 198.29 167.76 316.02 210.71 401.39 0.00 268.67 299.85 370.99 232.42 329.81 396.98 373.67 240.23 256.68 330.68 260.83 587.27 221.15 515.33 191.52 159.23 461.97 405.33 468.87 195.33 98.43 262.46 123.62 498.60 239.99 384.91 199.42 308.29 176.68 152.14 635.31 192.36 783.13 511.71 113.79 333.32 171.59 165.67 210.82 290.44 234.97 513.08 116.93 189.21 247.57
1204.12 565.94 382.73 195.62 135.00 280.23 376.62 382.96 296.02 192.94 411.38 290.48 283.65 195.68 330.39 150.63 131.01 430.07 497.42 284.75 386.74 409.03 297.38 168.01 181.45 160.31 187.25 409.94 206.91 265.43 393.07 108.06 45.14 174.69 70.73 246.33 259.26 203.99 319.57 83.86 371.01 407.62 111.92 175.60 200.81 380.59 65.25 139.56 342.32 159.22 344.81 159.71 431.86 303.13 127.90 311.62 186.22 366.45 406.35 293.89 188.53 231.36 264.66 570.65 164.64 131.38 118.09 333.55 185.35 234.73 268.67 0.00 182.82 187.60 36.25 150.66 214.33 346.06 86.41 261.63 187.34 378.52 427.36 363.29 354.28 135.10 138.62 282.82 221.94 422.31 135.97 258.82 409.24 326.88 332.31 399.19 205.76 198.75 237.74 189.60 306.44 433.05 159.44 683.67 315.38 172.06 276.28 318.37 327.57 114.23 432.65 116.48 339.34 155.42 162.59 422.92
1304.96 533.78 486.84 282.83 251.55 431.19 366.81 379.93 290.77 259.09 297.14 195.95 306.42 227.24 233.84 291.30 250.28 513.02 440.95 204.25 469.69 342.18 382.21 221.16 204.22 270.49 228.22 379.19 52.32 333.84 503.25 237.94 164.41 219.45 112.09 166.72 391.86 307.73 340.58 212.34 346.49 527.16 244.52 198.97 268.70 491.70 215.79 237.63 449.92 249.70 264.36 208.23 342.44 325.90 225.70 276.65 29.67 465.07 312.93 320.74 352.05 48.54 305.00 699.13 229.82 242.95 216.71 433.44 305.56 218.07 299.85 182.82 0.00 269.78 216.32 235.01 270.79 427.50 207.67 363.15 52.19 424.96 369.06 301.48 534.35 275.77 175.46 287.83 341.21 511.85 240.08 245.12 353.82 287.75 355.08 404.12 276.44 277.36 361.89 293.71 316.27 418.23 271.65 751.82 301.65 214.87 400.10 309.69 321.07 264.09 368.50 247.69 257.65 234.35 274.80 320.76
1292.48 692.20 491.68 107.02 220.89 237.50 538.86 570.12 345.25 88.96 524.44 398.41 197.13 75.45 212.72 226.43 56.59 552.82 621.43 319.40 509.49 548.42 263.28 60.80 129.23 291.55 302.93 525.46 217.46 134.39 471.48 217.52 142.46 114.00 225.75 390.96 347.62 330.75 461.59 147.04 475.09 517.08 265.23 134.40 64.67 306.03 252.79 271.30 479.39 85.62 473.92 277.65 535.94 203.84 268.45 423.76 273.02 444.79 510.43 436.39 183.57 272.78 174.47 580.92 125.97 279.74 255.73 453.57 261.15 162.59 370.99 187.60 269.78 0.00 223.85 114.82 88.31 460.80 213.99 337.43 295.54 548.61 343.91 503.65 309.39 241.96 250.85 221.98 143.50 529.17 274.73 347.91 534.16 435.38 215.19 506.05 105.20 298.75 272.69 289.45 423.84 342.86 271.60 600.48 225.19 296.29 362.35 443.29 454.67 253.94 566.00 221.28 236.53 343.02 268.45 527.00
1177.69 548.32 346.48 231.87 113.50 294.08 408.39 419.21 268.24 225.09 375.13 254.23 299.32 181.93 294.14 159.21 167.26 410.67 482.45 271.71 369.96 391.41 261.13 177.88 197.12 130.13 159.47 404.59 205.51 249.84 362.89 71.81 81.39 209.51 104.23 282.58 232.83 174.05 307.40 120.11 373.85 371.37 85.49 159.24 200.80 416.84 47.63 114.42 340.80 195.47 327.19 123.46 415.02 318.80 99.59 275.37 222.47 330.20 390.92 276.27 208.02 264.86 300.91 560.17 128.39 114.60 81.84 299.21 177.21 207.47 232.42 36.25 216.32 223.85 0.00 185.48 247.46 309.81 50.16 233.35 220.84 373.60 429.36 345.67 318.03 171.35 123.09 298.15 234.82 430.86 99.72 222.57 391.62 309.26 347.98 371.54 240.58 162.50 204.38 153.35 288.82 469.30 133.01 647.42 347.89 135.81 240.03 300.75 309.95 77.98 414.50 80.23 317.95 187.19 136.16 398.75
1334.97 707.80 522.74 85.88 238.22 280.30 527.28 533.62 370.15 42.28 518.02 428.64 132.99 92.17 186.15 301.29 117.57 553.76 641.60 275.53 529.30 545.81 330.88 85.70 30.79 298.91 315.41 550.36 254.24 132.38 531.67 242.42 105.52 24.03 206.01 396.99 390.11 316.44 465.47 153.45 521.67 541.98 262.58 66.64 50.15 259.36 215.91 246.34 492.98 113.22 473.04 281.53 562.02 152.47 262.65 386.82 246.60 505.77 502.23 444.55 222.67 283.55 137.11 605.82 57.09 273.94 267.32 446.00 332.41 86.47 329.81 150.66 235.01 114.82 185.48 0.00 67.17 495.29 231.77 409.61 255.55 529.18 276.70 513.53 424.21 285.76 289.28 132.16 174.19 540.95 275.98 329.92 546.65 440.38 181.65 524.49 55.10 322.01 333.67 329.61 448.74 305.50 310.10 602.81 181.90 281.45 367.34 465.75 454.37 263.46 557.80 233.88 198.07 306.08 313.25 537.80
1362.68 750.39 530.33 18.71 269.20 262.91 590.61 597.29 415.33 24.89 545.33 448.68 108.82 117.13 195.04 313.88 115.69 589.27 667.60 302.90 565.88 573.12 305.10 130.88 66.57 347.40 363.30 585.27 261.76 67.03 541.68 281.89 172.69 51.34 233.32 421.75 417.82 381.09 511.23 185.03 563.40 575.59 313.54 102.15 46.66 227.58 279.58 313.51 528.76 117.85 533.02 327.29 589.33 128.30 314.91 453.99 257.05 503.89 529.54 457.46 252.11 319.33 158.40 623.59 122.91 328.05 304.04 501.88 331.35 79.83 396.98 214.33 270.79 88.31 247.46 67.17 0.00 519.90 251.62 424.88 279.57 592.85 255.60 526.93 397.70 298.35 339.16 167.94 159.83 537.46 323.04 397.09 572.81 490.45 126.88 562.44 40.74 357.52 331.79 359.88 470.01 304.74 320.97 628.69 209.12 347.27 363.85 481.94 491.14 304.75 585.11 272.09 214.44 369.75 317.94 565.11
1087.85 478.98 143.64 527.63 271.01 455.52 349.87 405.64 390.83 495.01 354.26 437.65 573.41 439.12 603.95 259.62 404.21 158.68 440.09 581.52 115.35 381.40 433.03 438.42 503.30 247.06 303.96 336.68 443.60 540.40 123.44 281.70 391.20 488.07 408.38 496.27 231.57 204.32 337.21 388.07 373.81 125.83 266.11 469.05 510.61 653.79 326.98 274.42 158.15 451.93 452.30 317.22 369.02 592.89 290.02 463.33 457.17 172.95 338.47 318.36 360.85 476.04 610.72 487.23 438.20 273.60 279.66 74.76 271.82 517.28 373.67 346.06 427.50 460.80 309.81 495.29 519.90 0.00 288.25 184.47 479.69 267.74 739.17 343.84 591.10 263.39 252.04 604.67 482.40 287.79 266.92 337.19 326.66 306.28 622.07 258.51 495.84 244.94 366.18 245.62 315.51 759.84 220.75 877.45 614.58 297.48 276.52 296.06 284.68 231.83 394.04 264.49 627.76 273.85 217.60 359.98
1167.01 598.48 351.71 249.29 71.96 243.92 400.16 448.55 256.50 226.73 365.76 303.55 340.61 150.87 344.30 121.19 157.40 386.43 487.68 321.87 353.30 410.80 221.07 176.72 238.41 126.87 147.73 401.33 155.35 252.15 359.63 30.27 126.25 223.18 154.39 332.74 222.15 145.41 325.30 129.15 364.39 329.83 74.81 209.40 250.96 406.98 97.79 75.31 329.29 197.96 345.19 163.12 411.06 338.98 90.13 325.53 232.93 320.83 381.55 320.23 157.86 249.81 351.07 538.61 178.55 97.94 72.47 274.97 155.91 257.63 240.23 86.41 207.67 213.99 50.16 231.77 251.62 288.25 0.00 220.26 255.45 378.83 479.52 361.50 368.19 136.72 113.72 339.78 248.33 421.40 104.95 219.50 397.39 316.77 368.16 353.46 250.23 152.64 154.22 158.58 314.49 514.23 121.50 697.58 389.52 126.44 218.47 308.04 319.42 56.42 437.12 40.02 368.11 178.96 118.35 389.38
992.33 557.89 203.90 443.59 179.55 311.24 402.76 445.01 307.73 399.99 409.66 311.00 505.42 359.55 527.49 111.00 339.98 293.10 402.20 505.06 264.78 418.42 288.39 351.88 405.77 127.41 198.96 401.87 348.58 471.82 213.58 213.71 306.77 407.98 306.74 419.62 47.47 99.32 345.71 292.56 383.11 285.09 160.44 358.11 402.10 589.56 218.70 163.27 207.00 361.46 454.97 209.50 424.68 515.18 157.43 399.99 333.48 164.07 409.44 321.03 290.73 371.34 511.90 452.02 354.44 148.51 175.18 181.64 96.24 433.52 256.68 261.63 363.15 337.43 233.35 409.61 424.88 184.47 220.26 0.00 356.00 393.42 643.05 337.37 450.34 126.53 198.25 504.56 387.88 212.19 133.63 308.61 436.38 324.38 543.75 320.13 423.49 102.74 221.54 80.00 333.58 645.37 119.11 705.60 512.94 210.42 131.88 345.51 354.71 163.84 431.72 196.50 551.30 181.56 121.94 403.35
1329.57 585.97 526.27 275.06 272.06 430.38 419.00 421.47 291.13 266.77 349.33 204.88 344.41 220.09 286.03 313.75 249.47 565.21 493.14 152.06 521.88 394.37 381.09 247.76 242.21 298.98 275.70 431.38 100.10 319.91 531.74 274.23 163.60 250.26 116.61 171.20 384.71 341.24 300.17 211.53 398.68 551.24 237.37 229.31 290.77 483.93 202.31 271.14 474.05 243.87 311.99 239.69 394.63 325.17 277.89 225.77 22.52 501.31 365.12 323.90 367.75 79.37 298.46 698.32 198.46 270.05 268.90 470.80 332.66 240.98 330.68 187.34 52.19 295.54 220.84 255.55 279.57 479.69 255.45 356.00 0.00 407.40 395.49 353.67 538.87 322.44 227.65 250.95 340.40 564.04 279.51 237.49 406.01 335.53 324.12 433.03 243.27 329.55 382.65 324.00 336.45 371.07 284.89 782.16 300.69 261.54 405.47 348.38 352.70 271.65 420.69 264.80 309.84 286.54 288.04 372.95
1176.06 282.51 381.18 574.14 327.72 533.39 85.90 191.75 212.11 571.46 155.41 286.80 648.22 499.80 658.80 331.13 509.53 256.47 199.88 559.46 213.14 133.76 530.28 496.56 546.02 266.01 293.43 73.36 372.64 609.52 360.98 356.43 423.66 553.21 425.31 345.42 397.87 302.17 107.23 462.38 121.62 214.04 316.02 529.31 557.73 759.11 375.40 303.52 204.96 525.10 280.87 291.17 119.80 641.93 297.68 288.10 429.92 410.49 156.96 146.93 474.18 463.60 643.18 706.43 501.99 288.76 315.43 291.48 351.37 581.07 260.83 378.52 424.96 548.61 373.60 529.18 592.85 267.74 378.83 393.42 407.40 0.00 772.89 167.36 622.71 340.87 309.87 628.35 563.82 525.33 273.88 258.28 138.57 137.21 671.11 81.36 584.28 325.47 463.43 313.42 141.90 778.47 298.62 896.40 678.09 328.29 445.91 122.45 133.83 350.30 131.98 362.09 682.61 271.38 295.47 132.58
1569.86 902.84 723.79 274.31 496.63 458.35 735.87 711.83 623.91 273.09 666.20 558.73 177.38 333.45 135.22 562.08 338.48 797.68 810.01 313.90 755.95 711.24 473.61 339.46 245.91 529.52 579.42 748.25 421.38 244.73 703.59 489.84 382.22 261.14 399.22 535.78 625.00 573.20 681.03 402.39 696.69 789.40 514.85 310.56 297.38 325.53 476.99 510.56 729.72 315.04 633.42 543.41 711.50 157.90 494.25 612.87 398.73 709.55 681.99 625.96 415.75 417.60 186.09 792.10 314.30 500.59 511.20 702.76 563.20 235.22 587.27 427.36 369.06 343.91 429.36 276.70 255.60 739.17 479.52 643.05 395.49 772.89 0.00 650.95 644.93 546.55 544.49 144.54 347.90 694.95 515.47 606.62 722.88 656.81 128.72 718.47 275.14 565.93 540.46 563.05 638.51 49.17 523.94 720.45 155.41 538.66 614.57 650.44 659.64 507.34 737.56 484.72 111.41 582.78 527.09 689.82
1270.81 279.34 487.48 536.08 313.07 516.25 89.46 107.64 158.40 504.56 72.29 195.38 607.90 470.52 515.73 326.65 493.88 336.99 186.17 437.19 366.26 81.05 497.47 442.85 505.70 314.09 213.77 122.78 337.35 557.61 467.28 341.18 408.01 520.93 382.14 249.01 374.62 313.41 111.69 403.79 45.74 308.79 319.61 477.40 480.27 721.63 298.04 308.96 295.61 471.39 137.62 249.78 96.22 619.75 308.93 138.22 331.15 448.02 72.07 69.47 463.34 350.02 586.89 766.87 461.57 325.62 291.18 333.44 313.11 519.55 221.15 363.29 301.48 503.65 345.67 513.53 526.93 343.84 361.50 337.37 353.67 167.36 650.95 0.00 659.57 324.12 266.53 550.89 538.80 549.56 310.74 183.61 99.30 101.92 648.93 218.29 527.77 340.12 458.95 320.59 82.02 629.70 281.48 886.79 583.54 237.21 464.89 70.54 59.16 334.24 94.35 354.75 539.54 275.84 284.63 65.98
1207.96 845.35 493.59 404.64 392.80 211.41 670.66 706.94 572.24 398.35 672.62 572.26 480.75 384.84 522.11 339.34 365.98 627.80 731.56 589.74 589.31 657.32 243.03 370.19 438.62 362.88 463.47 637.34 523.54 432.76 491.35 389.84 399.42 423.39 422.26 600.61 460.53 386.78 619.14 438.14 636.23 623.29 366.63 443.79 374.06 613.51 365.66 361.55 565.74 395.01 645.22 435.20 680.93 500.23 372.63 593.40 540.50 540.86 671.57 594.30 374.35 582.17 483.86 395.40 435.36 333.95 390.38 516.34 374.06 461.92 515.33 354.28 534.35 309.39 318.03 424.21 397.70 591.10 368.19 450.34 538.87 622.71 644.93 659.57 0.00 354.87 410.71 531.37 312.68 518.67 348.83 534.31 699.40 572.20 516.21 607.59 414.59 409.23 249.94 402.36 600.72 652.25 384.51 329.39 534.58 433.30 327.11 618.78 627.08 396.01 696.05 398.26 545.92 469.02 381.36 678.74
1081.58 558.95 280.78 317.06 76.63 237.53 359.19 424.84 277.81 273.46 384.15 342.00 407.17 270.60 438.04 15.53 266.11 310.86 452.73 419.85 267.53 345.27 214.68 242.93 316.55 74.86 175.27 349.32 292.07 365.38 260.58 115.61 180.24 309.79 205.83 381.43 136.72 102.76 325.78 218.96 369.86 325.00 87.83 294.36 297.75 515.69 146.38 110.01 250.43 271.47 407.06 141.84 368.88 388.65 110.65 359.01 302.68 253.32 388.85 315.58 224.50 324.31 399.76 493.00 295.69 82.41 92.90 232.32 50.25 357.97 191.52 135.10 275.77 241.96 171.35 285.76 298.35 263.39 136.72 126.53 322.44 340.87 546.55 324.12 354.87 0.00 134.15 417.92 321.69 287.21 95.11 224.17 400.01 315.14 417.83 264.09 296.96 85.44 147.83 62.70 303.03 560.96 42.64 659.61 436.47 144.83 172.86 316.12 304.74 115.81 384.00 103.78 461.85 166.94 45.79 366.69
1129.50 508.48 311.38 334.24 76.09 330.96 328.59 361.42 161.53 320.40 284.76 229.00 400.78 264.59 409.30 118.62 269.63 337.56 416.65 379.71 294.23 329.80 310.36 257.08 298.58 95.03 52.76 341.74 227.78 355.53 327.79 117.78 183.76 313.31 180.23 263.82 216.53 136.65 249.12 194.85 312.27 351.70 86.17 282.33 315.52 519.21 89.10 66.55 298.63 285.62 316.00 65.18 330.06 420.26 50.24 244.08 205.13 289.61 300.55 206.51 244.19 224.00 403.28 554.05 251.48 76.76 41.25 260.98 139.37 330.56 159.23 138.62 175.46 250.85 123.09 289.28 339.16 252.04 113.72 198.25 227.65 309.87 544.49 266.53 410.71 134.15 0.00 399.95 284.01 377.72 64.62 164.29 321.86 239.50 440.91 264.83 341.28 101.90 250.92 118.25 219.06 561.66 96.19 725.42 449.69 45.44 233.91 230.99 240.19 97.40 345.27 109.93 433.11 107.39 99.34 308.38
1444.19 815.65 617.69 179.98 370.38 394.26 614.57 636.33 479.37 156.24 584.97 455.83 113.21 188.91 53.99 428.43 222.41 654.74 691.56 198.11 611.41 630.01 430.54 194.92 101.37 384.98 437.05 606.63 333.70 169.54 617.74 351.64 237.68 116.60 254.68 422.15 499.33 428.66 536.49 257.85 596.63 645.39 383.64 174.55 165.93 326.45 345.78 366.02 587.84 205.79 552.19 413.69 630.27 132.69 349.71 476.72 273.47 610.61 594.80 481.42 331.89 330.32 47.51 686.52 169.76 356.05 367.46 558.22 418.66 90.68 461.97 282.82 287.83 221.98 298.15 132.16 167.94 604.67 339.78 504.56 250.95 628.35 144.54 550.89 531.37 417.92 399.95 0.00 265.85 655.51 370.93 462.08 596.77 514.41 104.73 585.73 173.59 429.92 438.51 424.56 493.97 190.13 408.90 673.39 49.74 394.12 483.12 505.90 515.10 372.84 620.18 340.18 65.91 438.24 412.05 608.59
1285.27 778.32 452.35 150.88 276.81 196.79 576.08 604.90 431.54 142.59 541.68 489.05 248.44 179.71 319.84 306.16 90.93 543.45 672.67 353.74 546.49 586.72 236.76 152.04 179.26 316.33 325.03 590.79 320.88 196.37 472.55 235.12 176.80 194.49 292.67 468.27 340.41 346.53 519.03 209.86 540.40 534.68 284.53 213.86 166.59 315.58 280.40 280.97 497.81 138.65 508.26 339.48 571.74 248.36 266.14 458.10 317.88 457.01 557.47 490.52 125.05 389.75 290.57 555.25 188.27 298.26 248.39 431.99 340.88 222.66 405.33 221.94 341.21 143.50 234.82 174.19 159.83 482.40 248.33 387.88 340.40 563.82 347.90 538.80 312.68 321.69 284.01 265.85 0.00 492.61 289.94 401.20 573.31 511.72 219.18 537.10 119.09 346.79 196.21 328.81 490.41 383.09 290.02 468.86 315.59 302.36 285.87 483.96 495.34 250.57 610.09 217.91 331.76 354.88 286.87 565.30
1151.29 722.25 146.63 546.61 363.84 386.10 595.47 655.10 519.92 515.09 606.12 523.19 614.89 466.60 604.36 302.74 498.99 330.45 614.39 702.57 334.00 604.86 327.30 494.27 554.14 338.29 411.15 581.99 523.15 604.49 164.35 393.46 467.45 538.91 493.04 520.26 206.43 311.51 535.23 448.25 595.30 391.47 353.77 544.74 490.80 704.33 408.99 347.58 397.06 513.69 645.52 412.77 581.25 595.41 331.27 612.18 541.52 206.65 595.37 511.58 429.35 560.39 675.52 396.09 520.14 355.51 349.02 362.55 292.90 588.72 468.87 422.31 511.85 529.17 430.86 540.95 537.46 287.79 421.40 212.19 564.04 525.33 694.95 549.56 518.67 287.21 377.72 655.51 492.61 0.00 345.82 508.14 614.45 536.57 566.23 443.97 538.30 314.93 296.40 292.19 524.13 744.12 329.85 848.06 672.17 402.99 206.74 536.06 545.26 368.79 619.60 390.99 628.17 393.75 333.00 611.49
1103.97 514.50 246.76 324.34 53.84 287.24 329.91 358.11 226.15 298.15 334.84 246.89 374.34 225.92 393.86 86.61 252.90 310.95 382.73 371.43 270.24 324.85 273.45 239.27 272.14 30.41 117.38 304.87 214.95 349.56 263.17 82.55 176.70 287.37 203.95 328.44 162.27 74.33 270.31 188.92 287.40 304.22 42.14 258.96 300.52 502.48 101.52 29.64 243.49 267.81 360.09 86.37 348.25 393.82 23.80 304.52 256.99 278.87 322.74 256.36 201.75 288.62 400.63 492.17 228.11 14.88 41.55 199.49 77.49 307.19 195.33 135.97 240.08 274.73 99.72 275.98 323.04 266.92 104.95 133.63 279.51 273.88 515.47 310.74 348.83 95.11 64.62 370.93 289.94 345.82 0.00 185.48 350.57 223.37 423.00 295.14 319.56 76.37 218.91 53.63 251.89 524.75 52.47 660.80 420.67 95.52 172.03 271.34 282.72 76.42 363.58 88.21 417.67 124.16 49.32 339.31
1246.57 400.59 431.03 415.80 147.54 419.11 247.25 271.88 53.64 372.20 244.09 211.66 462.91 345.57 478.96 239.70 310.27 339.69 329.82 389.55 340.06 244.25 388.39 327.02 360.71 215.89 135.12 233.85 192.80 449.08 410.83 189.23 224.40 353.95 281.16 245.63 301.71 232.30 176.98 269.03 229.35 322.56 191.88 363.57 368.56 559.85 217.29 196.92 236.56 298.48 221.06 99.11 267.86 482.39 180.61 134.84 260.01 406.17 232.70 144.78 354.97 287.26 463.61 660.51 350.96 200.36 180.64 262.43 244.02 416.39 98.43 258.82 245.12 347.91 222.57 329.92 397.09 337.19 219.50 308.61 237.49 258.28 606.62 183.61 534.31 224.17 164.29 462.08 401.20 508.14 185.48 0.00 226.70 143.77 511.57 254.10 385.02 245.44 329.41 228.61 132.23 608.56 229.35 808.14 511.82 136.23 348.77 135.83 124.45 186.72 245.90 206.44 502.77 150.06 232.50 249.59
1261.93 246.68 470.30 573.89 356.16 592.14 80.00 78.98 188.91 550.44 56.68 255.22 640.05 475.47 587.66 402.29 529.52 309.34 153.51 524.07 351.71 54.74 540.56 473.36 537.85 349.18 297.68 113.32 374.27 577.94 450.10 397.85 451.10 522.62 437.31 298.39 420.50 363.90 136.30 449.74 63.17 299.91 362.70 497.73 526.15 767.51 343.99 353.74 280.00 501.90 208.63 320.24 42.36 630.05 337.43 237.52 383.49 483.24 44.42 115.35 539.23 402.36 644.28 786.90 520.01 365.45 324.92 342.76 412.41 563.61 262.46 409.24 353.82 534.16 391.62 546.65 572.81 326.66 397.39 436.38 406.01 138.57 722.88 99.30 699.40 400.01 321.86 596.77 573.31 614.45 350.57 226.70 0.00 138.84 659.23 218.83 573.65 397.48 534.59 386.16 110.32 729.00 357.37 970.70 634.78 296.00 522.60 90.87 102.25 381.07 80.71 393.60 611.47 300.45 360.52 33.32
1211.07 311.45 416.19 487.49 277.21 510.09 106.54 134.74 90.13 468.08 125.71 207.64 554.22 402.25 521.59 299.61 430.74 317.46 201.22 477.69 274.13 154.40 496.82 374.58 452.02 242.71 198.90 130.48 235.43 504.74 395.99 297.44 352.15 454.12 355.51 270.94 338.14 225.06 52.83 367.38 117.23 249.05 241.96 414.14 443.79 680.32 261.63 253.01 222.11 403.12 166.93 192.12 171.01 573.70 247.17 178.72 313.01 427.16 141.50 32.99 425.12 329.89 527.89 715.54 383.29 238.25 263.33 231.52 300.86 462.37 123.62 326.88 287.75 435.38 309.26 440.38 490.45 306.28 316.77 324.38 335.53 137.21 656.81 101.92 572.20 315.14 239.50 514.41 511.72 536.57 223.37 143.77 138.84 0.00 602.88 116.37 491.29 289.10 431.91 266.36 28.52 651.69 275.32 871.92 564.15 216.57 395.40 47.97 59.35 276.24 171.75 308.58 545.40 182.26 272.17 149.33
1441.14 839.27 652.33 145.59 388.68 329.63 672.59 583.11 517.57 144.37 640.72 529.00 48.66 238.40 148.92 433.36 234.00 705.43 746.10 302.84 681.51 647.33 344.89 244.41 150.86 453.41 482.78 669.97 388.64 116.01 661.16 394.98 287.17 166.09 318.02 495.32 496.28 485.61 624.29 307.34 673.46 694.54 424.52 224.04 168.66 267.19 382.44 415.51 647.59 220.20 619.44 446.77 656.15 29.18 399.20 549.89 346.64 612.88 644.29 579.46 287.03 403.49 146.40 663.38 219.59 437.88 416.95 593.97 450.83 154.02 498.60 332.31 355.08 215.19 347.98 181.65 126.88 622.07 368.16 543.75 324.12 671.11 128.72 648.93 516.21 417.83 440.91 104.73 219.18 566.23 423.00 511.57 659.23 602.88 0.00 589.75 146.42 479.41 411.74 476.63 592.01 177.89 440.45 591.73 147.03 443.95 485.85 603.08 613.14 390.24 675.38 377.77 138.80 487.73 437.42 625.91
1094.70 347.65 299.82 580.29 329.04 501.62 151.50 244.47 206.50 537.55 162.15 324.01 580.05 481.87 637.96 279.62 507.83 201.09 207.86 585.09 157.76 164.90 478.77 454.20 542.80 264.73 212.07 138.02 351.80 605.61 279.62 356.24 421.96 533.74 430.13 387.31 366.93 220.81 132.86 439.18 202.98 132.68 306.10 524.94 560.16 757.41 352.46 278.15 143.87 482.74 283.30 248.08 188.51 560.57 294.46 295.09 429.38 329.13 177.94 149.36 462.79 446.26 633.24 625.07 499.66 292.11 294.44 210.12 314.34 569.77 239.99 399.19 404.12 506.05 371.54 524.49 562.44 258.51 353.46 320.13 433.03 81.36 718.47 218.29 607.59 264.09 264.83 585.73 537.10 443.97 295.14 254.10 218.83 116.37 589.75 0.00 561.05 282.27 411.92 262.11 144.89 767.64 280.93 885.09 635.47 285.20 411.88 164.34 175.72 332.60 199.03 349.43 651.64 254.07 284.08 185.77
1361.29 752.04 531.17 31.79 267.81 261.52 580.76 588.72 405.09 23.50 559.59 447.88 129.35 128.39 227.58 312.49 114.30 585.93 668.44 262.16 564.49 597.59 281.78 120.64 72.22 340.63 361.91 585.30 274.06 77.28 540.29 248.56 160.62 75.81 257.79 414.47 416.43 359.97 509.84 206.88 559.12 548.12 297.97 98.81 47.50 240.66 271.01 301.44 527.37 126.64 528.14 325.90 604.89 138.69 295.76 441.92 265.79 502.50 554.01 458.30 244.14 322.64 171.48 600.27 112.19 311.70 300.03 489.53 329.96 120.57 384.91 205.76 276.44 105.20 240.58 55.10 40.74 495.84 250.23 423.49 243.27 584.28 275.14 527.77 414.59 296.96 341.28 173.59 119.09 538.30 319.56 385.02 573.65 491.29 146.42 561.05 0.00 354.18 315.30 358.49 470.85 264.00 319.58 587.95 222.20 320.27 364.69 482.78 491.98 264.01 597.06 231.35 239.50 361.18 316.55 583.21
1027.60 522.61 238.51 358.91 130.21 293.41 357.61 423.84 263.43 349.39 372.02 323.26 430.75 302.29 456.64 72.32 282.72 281.64 422.01 434.21 279.37 353.90 255.56 276.06 328.55 59.46 154.66 324.29 285.80 390.24 258.71 141.12 237.75 343.78 246.27 316.88 114.63 64.04 310.43 189.82 362.61 336.84 106.16 255.37 325.10 532.30 166.07 100.49 266.43 286.78 398.69 152.24 367.42 450.23 88.35 345.98 307.03 231.23 387.81 308.41 240.50 325.90 451.91 500.23 286.22 75.28 106.10 170.18 89.68 342.83 199.42 198.75 277.36 298.75 162.50 322.01 357.52 244.94 152.64 102.74 329.55 325.47 565.93 340.12 409.23 85.44 101.90 429.92 346.79 314.93 76.37 245.44 397.48 289.10 479.41 282.27 354.18 0.00 204.62 22.74 317.62 542.63 58.64 680.20 452.47 132.70 218.18 306.61 295.23 96.22 385.30 128.88 454.52 146.28 61.79 375.32
1187.69 659.08 256.14 347.09 181.87 89.70 494.02 559.67 383.05 306.90 502.96 457.77 402.04 297.59 448.81 132.30 216.10 402.88 587.56 476.09 406.24 480.10 66.85 269.92 361.77 197.42 292.04 471.88 309.57 314.82 276.34 184.49 267.30 349.46 266.04 482.63 242.83 236.62 435.21 219.37 501.68 463.71 208.68 333.09 331.19 465.68 234.06 229.53 385.26 263.82 499.41 273.03 503.71 382.56 227.42 464.25 386.07 325.85 518.75 444.11 132.95 404.03 415.63 385.34 302.24 218.19 209.67 291.42 167.02 347.83 308.29 237.74 361.89 272.69 204.38 333.67 331.79 366.18 154.22 221.54 382.65 463.43 540.46 458.95 249.94 147.83 250.92 438.51 196.21 296.40 218.91 329.41 534.59 431.91 411.74 411.92 315.30 204.62 0.00 195.32 431.56 579.30 177.47 564.49 466.35 263.64 89.66 445.24 435.78 210.64 518.83 191.22 472.62 309.15 174.32 501.52
1050.34 499.87 261.25 377.97 107.47 273.88 344.74 401.10 249.71 334.99 367.07 300.52 427.97 279.55 447.49 63.02 259.98 282.32 436.36 425.06 256.63 341.74 232.82 290.75 325.77 47.41 140.94 321.87 268.58 395.89 280.17 136.18 230.33 327.98 226.74 339.62 127.47 41.30 287.69 212.56 341.03 314.10 86.63 278.11 344.73 509.56 155.15 83.27 245.30 307.70 403.21 129.50 344.68 447.45 77.43 358.15 301.48 244.07 376.37 299.35 220.65 338.43 454.26 477.49 274.44 68.51 95.18 170.86 74.34 353.52 176.68 189.60 293.71 289.45 153.35 329.61 359.88 245.62 158.58 80.00 324.00 313.42 563.05 320.59 402.36 62.70 118.25 424.56 328.81 292.19 53.63 228.61 386.16 266.36 476.63 262.11 358.49 22.74 195.32 0.00 294.88 565.37 39.11 657.46 432.94 130.42 195.44 312.59 301.21 113.53 380.47 130.35 471.30 123.54 41.94 363.16
1221.39 339.97 444.71 479.16 251.62 495.16 120.60 163.26 78.59 447.64 116.47 183.80 547.50 390.71 547.96 299.26 419.20 320.90 197.59 468.57 302.65 150.63 469.14 363.04 456.59 271.23 187.36 153.92 263.95 506.52 424.51 292.02 351.58 442.58 326.99 242.42 317.70 253.58 67.62 346.94 126.68 259.37 270.48 426.31 423.35 664.71 241.19 259.80 250.63 391.58 146.49 220.64 152.68 562.83 259.77 169.60 313.93 411.82 132.26 12.55 435.95 356.40 541.48 738.84 411.81 266.77 242.02 260.04 325.15 453.29 152.14 306.44 316.27 423.84 288.82 448.74 470.01 315.51 314.49 333.58 336.45 141.90 638.51 82.02 600.72 303.03 219.06 493.97 490.41 524.13 251.89 132.23 110.32 28.52 592.01 144.89 470.85 317.62 431.56 294.88 0.00 664.82 260.39 860.38 543.71 188.05 418.70 19.45 30.83 285.08 151.31 303.68 559.88 210.78 257.24 135.36
1570.23 909.04 730.09 295.79 531.81 507.52 719.16 737.34 586.23 287.50 701.99 575.95 226.55 367.77 184.39 569.29 378.30 806.23 815.87 349.32 778.07 710.75 522.78 362.06 280.23 547.68 598.10 739.07 416.26 290.42 709.89 512.56 411.02 295.46 444.81 542.27 647.51 565.21 671.24 430.48 675.44 812.05 528.88 353.41 311.50 276.36 498.30 495.11 754.50 333.52 682.59 587.03 725.92 207.07 511.42 596.84 393.59 660.38 701.77 671.55 464.92 450.44 168.39 841.27 348.96 522.71 527.69 694.77 585.32 280.81 635.31 433.05 418.23 342.86 469.30 305.50 304.74 759.84 514.23 645.37 371.07 778.47 49.17 629.70 652.25 560.96 561.66 190.13 383.09 744.12 524.75 608.56 729.00 651.69 177.89 767.64 264.00 542.63 579.30 565.37 664.82 0.00 566.69 769.62 172.86 566.86 628.69 684.27 688.86 528.01 724.05 495.35 160.58 564.66 569.84 695.68
1073.29 516.70 285.57 339.68 81.81 234.77 316.55 382.20 241.19 296.08 341.51 299.36 409.93 272.37 427.15 45.17 260.94 299.80 410.09 404.72 256.47 302.63 242.89 255.72 322.43 32.61 133.86 307.07 263.33 373.65 265.37 99.00 204.58 319.83 187.63 359.57 128.43 60.12 306.17 198.21 327.22 313.94 47.52 292.25 305.62 477.60 143.37 78.02 207.79 284.26 364.42 138.84 326.24 411.27 74.09 340.27 262.37 231.59 346.21 272.94 181.86 299.32 424.10 485.39 261.40 52.85 58.91 189.68 71.06 340.48 192.36 159.44 271.65 271.60 133.01 310.10 320.97 220.75 121.50 119.11 284.89 298.62 523.94 281.48 384.51 42.64 96.19 408.90 290.02 329.85 52.47 229.35 357.37 275.32 440.45 280.93 319.58 58.64 177.47 39.11 260.39 566.69 0.00 663.00 393.83 102.19 202.50 273.48 262.10 81.80 341.36 96.25 437.83 142.36 3.15 324.05
1537.35 1114.48 749.11 619.74 705.84 474.79 938.17 982.49 781.79 611.45 959.08 895.44 582.03 567.35 727.38 644.08 559.79 915.33 1031.37 787.58 906.91 924.83 533.95 539.68 572.02 630.39 673.02 904.85 708.52 649.38 764.57 696.40 645.66 587.25 717.65 915.94 695.83 674.31 880.79 625.92 932.53 942.15 692.00 552.85 622.58 497.90 695.05 682.96 831.72 568.22 961.53 709.03 948.44 562.55 684.60 922.79 764.92 715.06 958.86 872.93 593.91 800.08 679.77 724.79 583.70 659.32 702.35 803.87 609.36 627.70 783.13 683.67 751.82 600.48 647.42 602.81 628.69 877.45 697.58 705.60 782.16 896.40 720.45 886.79 329.39 659.61 725.42 673.39 468.86 848.06 660.80 808.14 970.70 871.92 591.73 885.09 587.95 680.20 564.49 657.46 860.38 769.62 663.00 0.00 723.13 746.15 654.15 879.83 891.21 666.69 963.56 686.77 730.53 742.12 659.85 946.25
1467.12 827.80 656.38 190.41 420.12 436.35 664.31 652.91 528.84 205.98 598.79 491.32 148.46 238.65 67.81 439.00 255.44 693.63 741.30 229.82 650.30 643.83 449.77 244.39 151.11 426.44 486.52 656.37 328.93 172.75 636.18 401.11 287.42 166.34 304.42 460.76 522.26 453.95 586.23 307.59 571.61 695.13 427.30 224.29 215.67 370.27 380.63 415.76 601.62 215.85 566.01 463.43 632.46 167.94 399.45 526.46 323.21 625.42 606.95 531.16 381.36 350.19 50.72 736.26 219.50 405.79 417.20 583.51 464.89 140.42 511.71 315.38 301.65 225.19 347.89 181.90 209.12 614.58 389.52 512.94 300.69 678.09 155.41 583.54 534.58 436.47 449.69 49.74 315.59 672.17 420.67 511.82 634.78 564.15 147.03 635.47 222.20 452.47 466.35 432.94 543.71 172.86 393.83 723.13 0.00 443.86 532.86 555.64 564.84 422.58 662.52 389.92 44.00 470.80 396.98 622.41
1157.62 475.96 316.29 328.56 88.81 336.96 283.75 322.11 166.97 323.73 239.32 266.49 395.29 277.31 418.65 131.34 259.70 373.10 383.13 407.52 339.67 284.36 315.56 260.69 293.09 124.32 73.13 317.07 240.71 345.81 336.49 103.97 213.13 305.48 144.93 280.41 212.76 138.88 221.06 210.34 282.95 361.81 98.89 255.21 324.94 509.28 109.13 71.75 278.81 289.23 310.84 37.12 284.62 414.77 71.72 271.07 244.54 302.33 255.11 200.60 254.42 263.41 418.56 550.79 224.36 99.35 53.97 261.64 161.96 303.44 113.79 172.06 214.87 296.29 135.81 281.45 347.27 297.48 126.44 210.42 261.54 328.29 538.66 237.21 433.30 144.83 45.44 394.12 302.36 402.99 95.52 136.23 296.00 216.57 443.95 285.20 320.27 132.70 263.64 130.42 188.05 566.86 102.19 746.15 443.86 0.00 230.65 207.50 218.88 97.03 310.68 121.18 438.05 62.55 99.04 262.94
1098.03 605.98 166.48 373.00 201.23 179.36 476.87 530.14 391.35 341.48 469.97 418.92 472.67 365.01 523.58 157.33 305.76 313.22 534.08 511.74 316.58 480.52 156.51 346.46 381.75 186.08 282.58 460.54 370.06 404.48 186.68 211.92 321.42 366.52 344.26 497.73 153.17 228.23 442.34 309.03 459.43 374.05 189.83 386.92 317.19 555.34 257.20 184.75 306.54 317.92 526.84 258.40 504.13 456.67 195.83 476.55 404.68 236.19 485.76 428.39 222.61 447.06 483.05 320.14 368.42 157.15 213.58 201.76 192.05 408.37 333.32 276.28 400.10 362.35 240.03 367.34 363.85 276.52 218.47 131.88 405.47 445.91 614.57 464.89 327.11 172.86 233.91 483.12 285.87 206.74 172.03 348.77 522.60 395.40 485.85 411.88 364.69 218.18 89.66 195.44 418.70 628.69 202.50 654.15 532.86 230.65 0.00 438.15 449.53 162.05 519.25 194.71 538.30 293.20 199.35 493.59
1233.32 337.55 439.70 489.24 265.29 508.25 140.05 169.85 98.04 459.57 123.91 164.35 566.95 410.16 541.36 312.94 438.65 340.35 217.04 453.91 321.99 131.18 449.69 382.49 476.04 290.68 206.81 173.37 283.40 487.07 419.50 306.98 360.23 462.03 346.44 222.97 329.63 273.03 63.91 358.87 116.28 271.30 271.83 406.86 435.28 676.64 253.12 268.15 270.08 411.03 158.42 234.94 133.23 573.90 253.32 181.53 325.86 392.37 135.29 24.48 452.78 341.15 553.41 758.29 429.14 286.22 235.57 279.49 341.78 472.74 171.59 318.37 309.69 443.29 300.75 465.75 481.94 296.06 308.04 345.51 348.38 122.45 650.44 70.54 618.78 316.12 230.99 505.90 483.96 536.06 271.34 135.83 90.87 47.97 603.08 164.34 482.78 306.61 445.24 312.59 19.45 684.27 273.48 879.83 555.64 207.50 438.15 0.00 11.38 291.72 163.24 304.25 565.17 228.06 276.63 124.19
1242.52 338.50 428.32 500.29 253.91 496.87 148.62 165.27 109.42 468.77 119.64 152.97 578.33 421.54 552.74 307.27 434.72 351.73 227.26 442.53 310.61 119.80 438.31 393.87 485.16 294.71 218.19 166.65 294.78 498.45 408.12 295.60 348.85 473.41 357.82 211.59 338.83 284.41 52.53 368.07 104.90 280.50 260.45 418.24 444.48 684.30 262.32 279.53 281.46 422.41 167.62 223.56 143.41 583.96 264.70 178.65 335.06 403.75 127.50 33.68 443.96 329.77 562.61 747.49 438.34 293.13 246.95 290.87 333.16 484.12 165.67 327.57 321.07 454.67 309.95 454.37 491.14 284.68 319.42 354.71 352.70 133.83 659.64 59.16 627.08 304.74 240.19 515.10 495.34 545.26 282.72 124.45 102.25 59.35 613.14 175.72 491.98 295.23 435.78 301.21 30.83 688.86 262.10 891.21 564.84 218.88 449.53 11.38 0.00 293.09 153.51 312.81 576.55 216.68 265.25 125.14
1123.82 571.04 323.18 295.80 39.18 263.59 380.78 407.01 229.30 283.15 336.35 323.31 341.58 207.29 372.12 106.09 197.35 365.65 459.15 349.69 322.32 381.39 260.84 206.59 271.47 86.95 120.53 361.41 211.77 308.57 319.71 49.87 159.37 256.24 182.21 360.56 181.62 130.87 292.52 156.24 348.16 349.43 34.28 237.22 278.78 446.93 95.15 61.86 283.98 230.60 364.79 130.34 381.65 361.06 73.90 321.56 249.13 298.22 352.14 297.63 181.19 285.01 378.89 482.19 206.37 66.96 56.15 260.43 115.99 285.45 210.82 114.23 264.09 253.94 77.98 263.46 304.75 231.83 56.42 163.84 271.65 350.30 507.34 334.24 396.01 115.81 97.40 372.84 250.57 368.79 76.42 186.72 381.07 276.24 390.24 332.60 264.01 96.22 210.64 113.53 285.08 528.01 81.80 666.69 422.58 97.03 162.05 291.72 293.09 0.00 386.95 32.66 395.93 159.58 84.95 359.97
1293.73 270.64 475.45 597.15 378.63 576.13 69.58 92.27 229.90 573.85 71.36 281.71 651.20 542.02 602.34 386.53 552.92 320.49 135.90 523.82 318.90 38.73 584.25 514.35 549.00 333.17 308.12 61.01 401.69 633.83 455.25 414.65 467.05 533.77 412.96 292.88 443.91 371.68 125.29 473.15 90.91 331.71 378.07 565.89 549.56 790.92 367.40 381.48 294.68 519.12 201.72 291.04 38.35 656.02 365.17 232.57 398.17 484.95 55.57 138.76 523.22 411.06 667.69 809.58 535.04 362.10 364.65 341.72 407.46 576.96 290.44 432.65 368.50 566.00 414.50 557.80 585.11 394.04 437.12 431.72 420.69 131.98 737.56 94.35 696.05 384.00 345.27 620.18 610.09 619.60 363.58 245.90 80.71 171.75 675.38 199.03 597.06 385.30 518.83 380.47 151.31 724.05 341.36 963.56 662.52 310.68 519.25 163.24 153.51 386.95 0.00 419.61 626.15 289.44 344.51 59.29
1154.30 563.18 334.97 263.14 58.90 280.92 385.97 439.67 247.76 254.85 360.50 334.46 341.01 190.89 369.40 88.25 164.69 369.64 470.94 351.94 335.71 398.88 258.07 173.93 238.81 109.28 140.98 383.74 195.37 292.17 333.30 17.21 128.36 223.58 174.83 362.81 209.44 128.62 312.24 123.58 338.67 316.77 66.62 222.76 272.91 414.27 62.49 80.72 304.04 202.47 332.13 145.91 399.52 360.49 64.41 313.74 269.44 317.04 374.01 291.13 148.53 252.35 367.60 514.85 191.91 80.35 68.68 258.18 122.97 254.19 234.97 116.48 247.69 221.28 80.23 233.88 272.09 264.49 40.02 196.50 264.80 362.09 484.72 354.75 398.26 103.78 109.93 340.18 217.91 390.99 88.21 206.44 393.60 308.58 377.77 349.43 231.35 128.88 191.22 130.35 303.68 495.35 96.25 686.77 389.92 121.18 194.71 304.25 312.81 32.66 419.61 0.00 388.80 164.77 93.10 384.12
1479.23 791.43 612.38 214.37 385.22 447.25 624.46 637.58 533.37 222.15 554.79 447.32 172.42 254.82 23.81 462.96 266.34 686.27 698.60 202.49 677.32 599.83 405.77 248.92 167.28 448.08 468.01 636.84 309.97 196.71 592.18 378.43 303.59 182.51 298.61 424.37 534.37 492.00 598.23 317.34 585.28 677.99 403.44 199.15 231.84 371.41 365.58 429.55 645.62 220.38 522.01 432.00 600.09 167.98 413.24 501.46 287.32 641.69 570.58 547.33 382.98 306.19 74.68 724.26 213.69 421.96 399.79 617.16 481.70 134.61 513.08 339.34 257.65 236.53 317.95 198.07 214.44 627.76 368.11 551.30 309.84 682.61 111.41 539.54 545.92 461.85 433.11 65.91 331.76 628.17 417.67 502.77 611.47 545.40 138.80 651.64 239.50 454.52 472.62 471.30 559.88 160.58 437.83 730.53 44.00 438.05 538.30 565.17 576.55 395.93 626.15 388.80 0.00 492.00 440.98 578.41
1173.88 458.30 333.12 351.04 141.33 377.13 221.20 307.49 165.22 348.36 271.82 269.63 439.07 329.83 468.19 176.85 286.43 310.55 361.92 438.60 306.61 269.06 356.36 323.24 336.87 111.73 84.99 254.52 266.83 408.36 312.92 166.52 200.56 330.11 207.48 333.75 229.03 82.24 164.15 239.28 291.37 364.08 150.44 317.76 356.23 536.01 168.77 116.67 292.93 314.64 349.19 90.46 292.67 458.55 100.36 284.90 264.02 345.63 256.03 215.25 311.77 282.89 420.08 601.03 286.91 139.04 106.49 199.09 176.88 365.99 116.93 155.42 234.35 343.02 187.19 306.08 369.75 273.85 178.96 181.56 286.54 271.38 582.78 275.84 469.02 166.94 107.39 438.24 354.88 393.75 124.16 150.06 300.45 182.26 487.73 254.07 361.18 146.28 309.15 123.54 210.78 564.66 142.36 742.12 470.80 62.55 293.20 228.06 216.68 159.58 289.44 164.77 492.00 0.00 141.19 267.88
1076.44 513.55 282.42 336.65 84.96 237.92 319.70 385.35 238.04 293.05 338.36 296.21 413.08 269.22 430.30 42.02 257.79 302.95 413.24 407.87 259.62 305.78 239.74 258.87 320.76 29.46 130.71 303.92 262.01 370.50 262.22 102.15 207.73 316.68 190.78 362.72 131.58 63.27 303.02 201.36 330.37 317.09 50.67 295.40 308.77 480.75 140.22 76.70 210.94 287.41 361.27 135.69 329.39 408.24 72.42 343.42 265.52 234.74 349.36 269.79 178.71 302.47 427.25 482.24 264.55 56.00 62.06 192.83 67.91 343.63 189.21 162.59 274.80 268.45 136.16 313.25 317.94 217.60 118.35 121.94 288.04 295.47 527.09 284.63 381.36 45.79 99.34 412.05 286.87 333.00 49.32 232.50 360.52 272.17 437.42 284.08 316.55 61.79 174.32 41.94 257.24 569.84 3.15 659.85 396.98 99.04 199.35 276.63 265.25 84.95 344.51 93.10 440.98 141.19 0.00 327.20
1276.98 213.36 467.34 577.15 351.75 558.82 46.68 59.17 213.95 568.35 23.62 261.36 615.68 508.79 554.60 369.22 522.64 300.49 120.19 491.01 343.53 21.42 563.45 498.40 513.48 315.86 279.75 80.00 373.08 608.75 447.14 366.91 448.98 513.77 406.19 265.07 440.60 347.19 127.45 469.77 51.91 314.96 361.32 518.15 546.25 772.22 364.02 334.69 246.94 511.01 175.57 300.06 30.24 596.73 326.17 204.20 350.43 496.65 35.57 135.45 505.91 369.30 625.76 753.58 487.30 344.79 316.91 309.44 379.09 538.83 247.57 422.92 320.76 527.00 398.75 537.80 565.11 359.98 389.38 403.35 372.95 132.58 689.82 65.98 678.74 366.69 308.38 608.59 565.30 611.49 339.31 249.59 33.32 149.33 625.91 185.77 583.21 375.32 501.52 363.16 135.36 695.68 324.05 946.25 622.41 262.94 493.59 124.19 125.14 359.97 59.29 384.12 578.41 267.88 327.20 0.00
DEMAND_SECTION
1 0
2 15
3 43
4 89
5 96
6 95
7 43
8 20
9 69
10 80
11 18
12 99
13 95
14 62
15 52
16 73
17 92
18 30
19 22
20 84
21 40
22 46
23 54
24 56
25 92
26 84
27 78
28 50
29 60
30 62
31 34
32 98
33 75
34 51
35 59
36 91
37 50
38 78
39 13
40 99
41 7
42 8
43 82
44 51
45 70
46 95
47 72
48 65
49 43
50 95
51 53
52 83
53 33
54 76
55 84
56 72
57 97
58 23
59 21
60 30
61 71
62 73
63 93
64 63
65 67
66 83
67 88
68 20
69 53
70 85
71 51
72 79
73 60
74 60
75 79
76 78
77 70
78 48
79 83
80 49
81 95
82 4
83 79
84 3
85 16
86 92
87 84
88 52
89 98
90 13
91 62
92 80
93 35
94 33
95 87
96 33
97 89
98 55
99 60
100 88
101 12
102 100
103 95
104 12
105 74
106 86
107 96
108 32
109 43
110 73
111 28
112 71
113 85
114 74
115 78
116 41
DEPOT_SECTION
1
-1
EOF
