NAME: LDG105_2262_none_105_0290
COMMENT: CVRP with travel times.  rootPos=2,custPos=2,demandType=6,avgRouteSizeIndex=2,weather=none,lambda_cluster=1,lambda_random=4, T1=300,T2=700,beta=1, alpha(i,j) ~ U(0.8,1.2)
TYPE: CVRP
DIMENSION: 106
EDGE_WEIGHT_TYPE: EXPLICIT
EDGE_WEIGHT_FORMAT: FULL_MATRIX
CAPACITY: 401
NODE_COORD_SECTION
1 500 500
2 64 242
3 467 394
4 387 391
5 392 411
6 227 524
7 696 446
8 364 444
9 416 271
10 224 400
11 325 228
12 373 402
13 364 512
14 467 502
15 224 444
16 391 516
17 339 395
18 870 464
19 425 480
20 379 321
21 341 469
22 698 453
23 801 304
24 434 455
25 323 309
26 356 444
27 859 322
28 609 462
29 760 258
30 131 372
31 818 444
32 814 566
33 316 353
34 921 328
35 383 401
36 424 926
37 329 468
38 347 459
39 891 110
40 958 304
41 404 370
42 381 375
43 329 451
44 790 491
45 836 189
46 767 344
47 192 527
48 892 345
49 273 321
50 296 286
51 706 433
52 960 453
53 755 406
54 346 538
55 443 384
56 295 490
57 335 299
58 360 512
59 352 308
60 698 523
61 363 322
62 905 431
63 916 413
64 993 383
65 379 400
66 418 181
67 315 327
68 850 362
69 702 493
70 293 509
71 359 434
72 725 472
73 885 332
74 418 402
75 604 598
76 327 363
77 832 442
78 882 463
79 388 453
80 757 277
81 414 439
82 720 433
83 427 567
84 447 442
85 349 360
86 369 447
87 334 417
88 869 356
89 635 421
90 702 448
91 699 366
92 839 227
93 755 287
94 677 457
95 276 391
96 847 378
97 888 225
98 311 456
99 817 301
100 361 398
101 884 360
102 868 351
103 775 481
104 427 403
105 432 139
106 223 356
EDGE_WEIGHT_SECTION
0.00 478.37 151.22 183.97 166.78 276.88 289.07 180.07 302.42 287.23 367.52 193.14 158.06 47.56 319.35 188.74 224.20 424.90 124.94 263.26 167.05 264.01 405.78 119.87 279.43 164.81 439.09 156.35 409.78 400.26 354.11 384.33 262.40 477.26 190.42 548.81 185.14 191.92 583.43 487.89 200.96 198.48 201.59 316.74 536.98 433.38 308.33 423.40 318.62 338.25 302.08 454.26 341.54 150.59 187.52 249.24 275.19 147.01 285.92 321.22 265.22 486.07 468.13 552.70 196.02 373.91 294.19 376.99 279.34 219.07 169.32 238.80 439.71 161.46 185.68 259.77 376.89 438.04 133.19 390.49 161.59 288.74 127.46 124.04 238.94 167.79 210.35 400.70 250.54 279.90 343.96 468.58 372.33 289.65 272.34 383.20 530.77 224.59 385.72 210.63 422.97 414.53 295.02 144.59 382.66 380.66
478.37 0.00 416.86 350.38 356.08 376.81 638.89 397.26 367.18 300.31 405.37 329.72 429.65 475.30 285.69 479.25 381.40 821.36 439.44 350.53 405.88 653.60 770.57 422.74 315.55 392.60 813.70 552.81 761.77 238.49 741.97 793.10 351.33 831.67 336.25 871.58 378.20 408.29 864.06 865.46 400.43 371.82 403.29 745.92 818.15 699.53 378.44 797.84 305.67 244.67 647.92 848.60 720.71 481.11 395.34 404.60 323.99 440.70 305.48 684.95 326.12 827.94 831.19 921.72 330.65 398.57 322.23 754.56 687.65 454.27 379.04 692.19 781.17 374.10 656.67 365.58 764.75 825.90 393.48 757.99 395.05 665.80 492.88 438.05 376.20 401.77 356.92 778.27 557.19 655.28 674.21 730.27 739.83 627.96 351.93 791.26 855.97 426.27 759.56 353.56 779.65 792.10 724.20 390.75 473.91 398.83
151.22 416.86 0.00 105.94 82.28 279.83 278.40 130.21 179.25 263.16 228.87 94.84 185.21 110.83 256.23 206.83 136.96 490.49 153.15 157.94 162.40 289.55 357.07 132.30 194.93 148.16 439.22 258.46 381.56 353.26 421.42 450.29 166.53 466.45 91.81 599.16 183.47 160.86 580.31 493.47 95.64 126.06 183.85 411.88 450.98 282.67 318.15 394.42 230.80 232.45 287.43 539.24 367.08 176.76 36.30 231.88 190.15 181.73 171.64 316.90 157.66 469.07 466.25 554.68 86.21 266.46 204.62 382.57 343.76 231.55 141.87 342.00 415.95 89.04 271.54 165.38 441.65 501.00 148.97 362.27 126.12 306.22 190.73 92.51 141.32 139.73 141.58 406.02 196.70 294.79 371.22 421.37 369.21 299.99 205.70 411.81 462.89 193.03 377.13 116.62 412.61 412.41 393.68 72.17 309.14 271.93
183.97 350.38 105.94 0.00 44.43 235.44 290.29 84.58 124.66 195.05 240.67 28.36 118.73 161.86 188.35 168.33 68.26 502.16 127.79 89.27 124.20 315.35 452.58 89.55 136.63 81.68 496.11 233.61 430.72 286.78 431.05 473.90 100.05 505.35 25.33 560.66 119.17 111.95 591.59 552.73 50.05 21.44 94.08 428.14 551.96 388.61 251.10 447.78 162.68 158.83 311.34 572.70 385.22 178.83 84.42 139.17 144.62 129.78 126.11 357.91 88.18 532.04 498.15 571.66 19.73 246.65 120.45 441.83 374.74 161.84 77.68 359.68 467.69 54.90 343.23 116.76 453.83 514.98 82.56 448.32 68.01 330.13 181.96 98.60 71.96 96.86 75.10 446.04 253.53 306.68 385.84 514.15 430.16 317.04 122.11 478.53 545.05 126.55 432.52 50.14 429.59 463.52 413.46 40.69 254.55 220.17
166.78 356.08 82.28 44.43 0.00 197.55 303.51 47.93 169.09 196.23 226.04 26.36 128.34 119.22 198.64 140.54 57.42 484.30 83.36 106.50 80.12 323.41 439.35 66.66 112.65 69.35 483.29 215.75 453.87 296.39 440.66 456.04 98.46 518.57 23.74 532.87 101.19 79.12 578.77 565.95 78.80 44.59 104.25 441.36 533.26 364.95 245.80 461.00 151.84 183.53 324.56 585.92 388.72 166.83 94.03 153.81 144.61 121.93 139.84 345.09 111.33 544.79 523.61 584.88 29.34 247.89 142.12 455.05 375.14 163.07 64.80 372.90 477.81 37.04 300.59 120.04 463.44 507.30 66.97 444.55 55.19 343.35 180.37 106.45 72.16 60.21 84.44 459.26 278.98 319.90 341.41 503.65 431.73 315.45 141.30 491.75 541.46 129.13 419.70 50.20 442.81 476.74 426.68 53.91 283.25 220.23
276.88 376.81 279.83 235.44 197.55 0.00 470.39 157.05 342.65 170.45 372.56 216.97 140.92 252.79 93.64 171.21 230.47 649.01 201.39 283.61 117.43 467.98 594.54 237.74 267.31 153.76 603.29 393.84 600.97 239.99 585.34 575.65 231.73 686.32 221.29 563.54 145.11 142.30 742.76 703.42 241.19 242.14 151.97 563.20 704.19 527.72 55.18 639.47 240.13 301.13 485.71 717.75 523.70 179.44 266.86 120.54 276.51 129.87 294.50 457.17 277.90 708.09 674.20 761.52 215.71 438.50 253.50 627.62 483.60 144.44 175.13 503.92 635.82 230.47 423.54 210.15 608.12 669.27 203.67 586.01 219.18 498.73 236.20 245.91 244.88 169.33 206.03 648.71 428.40 483.87 459.44 616.31 567.85 442.34 159.88 636.19 658.42 159.39 578.86 211.20 633.14 640.21 558.51 244.24 437.91 263.24
289.07 638.89 278.40 290.29 303.51 470.39 0.00 351.44 380.14 457.26 454.12 310.63 351.57 280.35 426.18 369.17 358.55 216.17 305.37 339.48 376.41 25.06 177.39 335.74 366.75 355.39 241.99 132.72 177.32 568.79 155.04 185.80 379.04 259.96 304.32 542.74 394.60 382.63 350.97 291.71 305.97 303.49 377.51 137.85 304.52 169.87 520.03 227.22 431.63 394.22 21.05 282.41 94.93 382.45 276.01 427.91 358.07 340.52 339.56 80.83 363.89 284.80 269.06 327.64 309.92 479.89 398.01 180.81 84.45 430.77 334.02 69.39 209.46 266.47 179.61 388.96 177.82 234.37 331.95 158.03 303.55 39.84 286.84 297.42 354.01 354.15 365.29 204.52 81.70 16.39 104.84 267.37 139.87 28.05 412.40 210.81 302.38 415.17 189.95 327.95 226.79 218.35 123.17 249.60 451.46 497.98
180.07 397.26 130.21 84.58 47.93 157.05 351.44 0.00 200.86 159.80 261.45 67.54 96.81 137.04 169.63 92.61 74.89 516.19 78.25 143.90 39.62 366.47 447.45 92.07 153.38 21.42 446.24 258.81 443.92 252.99 428.29 499.10 111.30 529.27 71.04 484.94 53.32 31.19 586.46 546.37 99.40 89.93 56.32 406.15 547.14 412.88 205.30 500.30 162.36 188.44 362.57 568.15 414.13 124.57 131.43 105.88 165.40 94.00 170.33 324.83 153.57 551.04 517.15 632.81 66.74 289.07 142.27 492.04 363.03 124.08 18.22 403.57 478.77 84.97 318.41 98.92 451.07 512.22 46.88 458.58 62.88 380.44 151.11 88.86 105.86 12.28 78.12 507.19 322.50 367.83 336.30 459.26 440.42 348.89 121.24 510.49 549.84 81.20 427.39 54.15 490.74 513.45 408.91 101.84 323.98 210.89
302.42 367.18 179.25 124.66 169.09 342.65 380.14 200.86 0.00 269.98 153.53 153.02 243.39 272.57 312.36 274.75 184.46 496.85 243.02 98.74 225.22 397.16 511.63 214.21 139.46 206.34 511.79 332.58 412.99 336.26 467.00 520.81 163.68 529.76 149.99 667.08 230.44 200.35 496.88 574.26 101.46 146.10 218.74 454.99 459.61 461.92 375.76 500.79 181.06 122.51 359.09 592.51 353.53 301.98 160.80 263.83 107.50 253.22 126.01 447.78 119.08 573.41 565.00 628.34 144.39 174.48 147.44 487.71 456.55 286.50 202.34 436.84 479.26 153.87 450.79 172.20 489.78 519.85 188.98 432.28 192.67 377.88 306.62 187.14 130.67 213.14 199.76 464.00 375.95 383.34 442.88 522.81 450.44 408.19 246.12 500.53 573.72 251.21 521.49 174.80 486.27 481.48 433.27 157.83 129.89 278.54
287.23 300.31 263.16 195.05 196.23 170.45 457.26 159.80 269.98 0.00 261.07 188.97 181.66 255.54 76.81 234.29 144.08 652.77 208.76 171.24 120.18 456.76 598.51 237.44 162.14 168.18 602.34 391.30 583.98 183.88 587.04 616.39 119.36 660.15 174.74 626.62 119.53 145.05 715.78 669.18 196.84 193.10 144.62 565.95 687.54 487.40 132.76 599.15 153.19 174.27 465.12 674.97 534.29 206.89 245.03 191.36 165.02 192.71 159.41 471.59 165.53 614.90 648.79 726.46 180.34 327.38 125.08 574.91 476.25 212.38 175.96 496.45 620.68 212.59 426.29 97.78 607.25 629.77 202.98 564.69 213.94 483.91 268.39 247.61 152.37 168.38 165.50 598.62 431.15 440.87 466.81 615.36 570.60 466.45 72.94 610.61 667.62 167.60 578.45 196.67 584.39 612.45 547.65 229.46 332.74 101.17
367.52 405.37 228.87 240.67 226.04 372.56 454.12 261.45 153.53 261.07 0.00 216.16 305.36 319.96 287.06 340.98 223.47 592.89 302.82 157.10 255.13 470.58 576.03 247.65 113.39 264.44 626.87 413.38 550.35 324.81 550.55 631.32 164.99 648.90 228.61 706.52 260.35 230.26 563.73 703.10 219.40 219.23 273.47 547.66 613.14 511.54 381.36 600.90 157.95 160.70 457.27 674.97 499.72 341.84 249.90 270.45 96.05 294.31 114.56 453.50 152.49 600.00 619.01 724.68 224.79 116.44 135.99 611.44 495.38 304.74 257.32 505.89 608.10 243.17 500.41 179.34 527.77 590.56 282.48 531.06 270.44 438.48 385.24 271.63 169.68 267.72 253.06 604.98 425.57 470.51 533.03 646.30 512.90 482.17 238.20 609.45 691.76 231.60 587.77 212.62 582.71 622.46 525.94 255.89 175.78 206.42
193.14 329.72 94.84 28.36 26.36 216.97 310.63 67.54 153.02 188.97 216.16 0.00 107.63 145.58 178.52 154.68 59.38 499.34 109.72 85.79 100.19 331.58 448.55 93.02 115.80 63.21 483.98 230.79 432.05 275.68 419.95 471.08 79.49 501.95 14.23 547.01 114.10 98.73 588.91 546.45 77.93 49.80 89.01 448.11 540.86 377.51 223.31 468.12 146.03 186.15 328.28 580.79 405.02 157.64 73.32 147.89 146.79 118.68 133.27 355.23 104.01 552.67 521.49 592.00 8.63 221.53 116.44 462.17 365.63 136.71 49.32 370.17 451.45 52.08 326.95 101.07 442.73 503.88 71.46 428.27 65.33 343.78 170.86 108.33 46.48 72.05 58.08 458.78 281.89 327.02 367.77 503.05 410.11 305.94 117.19 495.31 533.95 109.04 429.84 23.84 449.93 476.26 426.39 61.03 282.91 193.87
158.06 429.65 185.21 118.73 128.34 140.92 351.57 96.81 243.39 181.66 305.36 107.63 0.00 146.13 196.34 57.24 149.75 526.10 82.57 176.16 71.39 349.16 475.72 129.97 222.39 113.80 522.55 275.02 493.44 310.97 482.64 434.73 171.93 559.01 104.60 449.57 62.13 75.10 618.03 603.51 162.81 140.17 87.22 463.04 620.64 467.88 196.10 530.04 216.03 277.03 366.89 589.73 382.78 60.10 163.69 124.25 209.31 11.05 223.64 384.35 194.38 598.68 564.79 642.70 99.00 329.16 200.80 523.61 383.21 145.71 115.03 385.10 508.51 142.45 327.50 157.45 505.42 549.10 66.05 509.16 94.45 379.91 117.38 143.21 154.11 93.45 141.28 507.79 292.67 365.05 340.62 540.43 491.00 323.52 185.21 529.50 517.50 105.17 458.96 123.16 526.95 521.50 441.32 146.85 373.28 264.08
47.56 475.30 110.83 161.86 119.22 252.79 280.35 137.04 272.57 255.54 319.96 145.58 146.13 0.00 291.02 165.64 176.64 416.18 127.48 225.72 135.36 255.29 417.57 72.31 231.87 143.13 482.17 147.63 401.06 352.70 401.67 387.92 214.84 495.55 142.96 544.50 163.04 157.42 574.71 535.45 192.92 163.81 165.25 364.30 528.26 393.50 293.11 470.96 271.06 302.75 293.36 501.82 332.82 198.15 147.13 220.97 263.83 157.18 259.06 332.24 227.69 492.74 494.01 567.82 148.56 367.11 246.63 424.55 314.23 203.85 121.76 286.36 449.64 153.42 181.37 226.66 403.80 439.18 133.99 381.77 131.39 280.02 79.90 112.10 191.38 144.49 181.66 448.26 256.42 271.18 374.57 504.46 363.61 280.93 224.78 430.76 542.56 202.91 433.28 163.07 470.53 462.09 342.58 136.55 335.10 333.10
319.35 285.69 256.23 188.35 198.64 93.64 426.18 169.63 312.36 76.81 287.06 178.52 196.34 291.02 0.00 227.59 141.22 642.35 223.44 227.23 161.89 425.68 590.38 244.37 173.67 166.85 615.87 393.41 562.89 260.00 568.03 586.42 171.75 672.95 182.42 619.92 134.21 161.27 752.05 695.52 230.96 204.66 139.49 538.29 690.09 538.90 105.98 627.68 146.49 207.49 434.04 675.81 503.21 236.06 236.05 127.33 205.63 207.39 200.86 470.26 221.52 652.97 679.25 740.63 185.09 368.83 175.12 606.99 471.12 177.00 169.26 465.37 622.45 220.27 468.00 153.77 588.01 650.80 216.51 559.11 230.83 452.83 268.40 248.96 181.69 181.91 139.63 621.51 396.13 409.79 481.49 628.89 540.95 451.32 66.24 609.77 702.14 140.63 591.95 154.68 617.94 638.99 516.57 229.04 344.27 177.23
188.74 479.25 206.83 168.33 140.54 171.21 369.17 92.61 274.75 234.29 340.98 154.68 57.24 165.64 227.59 0.00 152.31 532.31 63.80 225.76 128.63 374.76 456.95 93.33 245.99 105.51 516.59 267.10 474.67 340.13 446.72 448.42 198.44 580.46 143.00 392.33 119.37 122.70 637.75 616.72 191.57 169.13 144.46 409.35 601.87 458.12 226.39 526.37 241.60 281.05 348.12 546.87 415.39 53.76 193.20 171.85 256.91 58.65 261.57 402.24 223.92 555.14 560.74 645.31 148.60 342.63 218.36 507.55 416.53 154.93 105.36 425.87 535.61 124.86 347.01 191.53 469.50 530.65 85.77 493.96 114.17 365.99 91.86 114.32 193.00 82.63 153.56 520.21 309.41 372.37 321.85 529.61 483.08 371.12 161.35 536.96 568.13 150.28 454.28 146.76 508.18 502.73 387.63 138.76 404.64 272.34
224.20 381.40 136.96 68.26 57.42 230.47 358.55 74.89 184.46 144.08 223.47 59.38 149.75 176.64 141.22 152.31 0.00 537.32 140.78 99.91 113.04 373.70 490.67 124.08 111.84 78.04 503.64 268.77 462.89 284.05 462.07 509.06 84.48 561.33 56.35 544.64 103.59 106.08 636.19 585.48 89.74 63.44 78.50 438.61 582.98 419.63 203.13 516.04 94.42 155.42 370.40 606.60 446.14 159.72 115.44 125.22 133.75 157.46 139.03 381.45 102.79 542.93 563.61 639.92 50.75 278.55 93.81 510.09 394.23 146.26 56.67 412.29 510.83 94.20 358.01 63.12 484.85 531.19 104.28 459.11 112.61 385.90 212.98 152.68 53.79 69.68 29.59 500.90 321.79 374.94 398.83 516.66 440.95 348.06 83.88 497.88 576.07 86.37 477.12 54.68 497.85 518.38 447.36 108.95 282.44 188.49
424.90 821.36 490.49 502.16 484.30 649.01 216.17 516.19 496.85 652.77 592.89 499.34 526.10 416.18 642.35 532.31 537.32 0.00 487.97 540.32 543.25 220.85 206.84 465.38 569.72 495.25 169.04 268.55 261.74 745.77 87.90 114.09 533.41 197.84 485.11 672.14 555.41 531.33 369.39 249.07 513.01 501.02 547.86 122.96 337.16 207.82 687.85 140.27 610.51 610.39 221.89 112.66 143.32 567.06 476.85 593.73 574.24 532.52 555.73 191.84 560.12 76.56 77.83 195.62 490.71 565.16 570.36 141.49 219.59 598.59 514.81 198.83 154.07 447.26 321.35 554.99 65.12 23.00 510.14 259.30 481.74 204.56 487.68 427.33 500.40 518.13 540.89 141.32 297.87 232.56 240.20 277.27 253.32 244.22 610.20 104.79 260.53 555.03 206.59 507.28 122.08 158.80 144.68 464.13 626.74 637.72
124.94 439.44 153.15 127.79 83.36 201.39 305.37 78.25 243.02 208.76 302.82 109.72 82.57 127.48 223.44 63.80 140.78 487.97 0.00 188.98 116.91 322.39 393.15 55.17 196.01 99.67 454.07 230.59 410.87 331.24 400.07 470.88 181.82 516.66 107.10 456.13 89.23 109.44 599.22 554.20 146.32 127.95 114.32 409.54 538.07 395.89 256.57 462.57 235.20 266.69 284.32 548.89 363.43 117.56 159.72 161.06 227.97 71.52 223.20 365.54 194.69 532.79 514.09 586.45 112.70 331.25 216.80 443.75 362.85 182.08 96.47 362.07 471.81 89.15 308.85 177.17 422.85 475.25 59.40 430.16 75.64 302.19 98.38 60.64 155.52 90.53 136.56 456.41 339.38 308.57 258.05 484.60 441.28 330.01 199.49 473.16 518.14 137.30 390.48 132.40 444.38 438.93 389.65 106.02 366.61 258.67
263.26 350.53 157.94 89.27 106.50 283.61 339.48 143.90 98.74 171.24 157.10 85.79 176.16 225.72 227.23 225.76 99.91 540.32 188.98 0.00 166.18 356.50 474.77 172.42 72.86 139.11 533.30 290.07 477.11 288.01 452.42 517.24 79.82 557.34 82.76 618.09 168.78 161.19 590.90 601.84 62.30 67.83 171.68 443.65 558.35 440.61 303.04 525.76 113.68 123.15 318.43 546.89 398.46 236.26 121.64 214.85 61.05 187.21 62.34 403.24 24.41 563.37 529.48 625.02 77.16 182.79 85.04 519.81 415.89 222.50 135.11 396.18 506.84 111.36 404.84 73.46 475.20 534.34 139.99 488.49 113.34 337.22 239.39 147.98 56.94 156.18 129.50 507.10 342.80 342.68 377.16 564.75 475.39 367.53 160.99 508.19 599.76 176.00 475.89 107.57 507.57 524.58 424.68 118.67 228.63 198.83
167.05 405.88 162.40 124.20 80.12 117.43 376.41 39.62 225.22 120.18 255.13 100.19 71.39 135.36 161.89 128.63 113.04 543.25 116.91 166.18 0.00 390.65 487.07 120.31 173.13 48.00 485.86 282.99 483.54 239.58 467.91 506.12 114.30 568.89 103.86 520.96 27.68 24.87 626.08 585.99 123.76 124.71 34.54 445.77 586.76 445.07 165.68 533.90 185.68 213.63 397.46 600.32 442.37 86.71 149.43 99.51 159.08 74.59 177.59 351.41 160.47 590.66 556.77 657.78 105.91 321.72 136.07 527.95 366.17 102.30 57.84 405.85 518.39 113.04 306.11 92.72 490.69 551.84 86.50 468.58 102.50 415.38 176.54 128.48 145.48 51.90 88.60 532.16 310.97 392.80 374.96 498.88 450.42 387.06 130.14 518.76 588.89 75.75 467.01 93.77 515.71 522.78 441.08 126.81 343.73 218.09
264.01 653.60 289.55 315.35 323.41 467.98 25.06 366.47 397.16 456.76 470.58 331.58 349.16 255.29 425.68 374.76 373.70 220.85 322.39 356.50 390.65 0.00 191.58 317.40 391.81 375.29 235.79 107.66 202.38 588.69 167.76 160.74 392.07 253.76 317.35 517.68 405.69 381.61 376.03 288.96 331.03 328.55 391.02 122.33 329.58 169.37 523.16 224.79 456.69 419.28 38.07 267.91 77.53 380.04 293.03 444.93 383.13 338.11 364.62 80.33 380.91 291.66 266.91 341.83 322.95 504.95 423.07 205.87 59.39 447.79 353.92 52.45 203.26 286.37 154.55 408.86 190.54 243.85 340.05 183.09 311.65 54.03 303.86 277.61 378.06 362.25 378.32 202.54 106.76 15.89 121.86 281.56 164.93 25.64 437.46 196.85 309.72 411.87 211.64 345.09 224.81 220.02 108.67 274.66 476.52 476.83
405.78 770.57 357.07 452.58 439.35 594.54 177.39 447.45 511.63 598.51 576.03 448.55 475.72 417.57 590.38 456.95 490.67 206.84 393.15 474.77 487.07 191.58 0.00 443.65 537.76 445.16 83.65 269.94 98.64 690.51 180.61 313.97 520.24 164.78 445.52 709.26 482.38 478.64 264.00 183.78 434.57 474.02 497.77 206.47 200.70 122.58 633.43 135.81 565.02 559.59 156.34 229.75 189.83 510.71 375.23 536.34 529.08 464.67 510.57 231.19 496.59 221.61 207.64 235.36 439.92 464.45 518.96 112.39 250.97 551.52 455.74 225.07 114.28 439.71 346.13 500.73 173.69 211.62 412.97 79.35 384.57 137.55 422.13 439.89 495.03 435.17 475.77 109.07 247.07 180.59 135.10 114.18 67.99 193.94 556.10 114.55 124.99 504.94 20.06 454.26 128.66 111.24 184.75 426.99 481.14 624.29
119.87 422.74 132.30 89.55 66.66 237.74 335.74 92.07 214.21 237.44 247.65 93.02 129.97 72.31 244.37 93.33 124.08 465.38 55.17 172.42 120.31 317.40 443.65 0.00 179.31 96.48 480.32 209.74 461.47 280.39 379.22 450.03 165.12 498.29 90.40 485.66 117.91 95.44 582.66 542.79 125.47 110.99 118.60 419.30 583.28 383.59 275.62 469.32 218.50 248.38 339.49 540.06 322.06 147.09 140.58 170.13 211.27 126.69 193.31 348.98 155.38 478.13 493.24 601.64 96.00 314.55 199.98 470.78 342.00 186.36 75.11 341.36 447.79 81.49 253.68 171.35 402.00 463.15 63.92 442.18 59.08 342.13 152.21 39.79 138.82 79.79 135.01 447.07 318.53 333.29 313.22 517.71 424.02 309.16 178.13 483.60 474.80 149.34 423.59 116.86 469.34 464.55 397.58 86.14 344.10 286.89
279.43 315.55 194.93 136.63 112.65 267.31 366.75 153.38 139.46 162.14 113.39 115.80 222.39 231.87 173.67 245.99 111.84 569.72 196.01 72.86 173.13 391.81 537.76 179.31 0.00 167.43 562.78 308.49 483.50 260.72 483.65 548.78 63.09 611.31 126.97 638.32 175.73 166.17 627.76 648.09 135.16 115.19 181.12 486.50 599.07 465.00 279.65 553.74 93.91 70.88 387.80 570.93 461.68 233.03 162.53 237.06 31.96 230.22 27.19 447.58 48.45 535.91 553.52 660.59 124.43 195.16 37.06 547.11 451.20 228.79 151.32 413.27 567.25 129.78 413.24 80.41 506.43 546.72 179.62 464.21 167.84 406.59 283.60 209.59 69.32 165.66 141.43 547.99 374.28 383.14 450.02 556.48 482.37 394.80 145.94 557.67 645.22 198.21 532.35 99.23 535.55 565.47 464.78 146.65 170.60 139.08
164.81 392.60 148.16 81.68 69.35 153.76 355.39 21.42 206.34 168.18 264.44 63.21 113.80 143.13 166.85 105.51 78.04 495.25 99.67 139.11 48.00 375.29 445.16 96.48 167.43 0.00 456.84 267.63 454.52 256.14 449.71 484.57 114.45 539.87 67.55 497.84 71.73 43.59 597.06 556.97 111.62 103.12 52.61 427.57 557.74 430.83 208.94 510.90 172.46 209.86 376.44 571.30 418.54 103.15 126.64 98.48 168.39 102.75 174.00 303.41 146.61 571.81 538.57 636.76 61.95 284.74 137.59 502.64 345.29 120.37 21.37 385.83 489.37 88.92 324.50 120.34 462.56 518.25 49.91 473.81 73.48 395.23 172.53 110.28 98.11 22.88 65.51 511.14 325.65 367.85 357.72 469.86 459.73 359.26 122.97 521.09 560.44 59.78 425.10 73.46 494.69 524.05 412.06 105.79 336.23 232.31
439.09 813.70 439.22 496.11 483.29 603.29 241.99 446.24 511.79 602.34 626.87 483.98 522.55 482.17 615.87 516.59 503.64 169.04 454.07 533.30 485.86 235.79 83.65 480.32 562.78 456.84 0.00 334.54 172.09 691.46 180.10 273.00 500.98 83.03 490.16 749.66 482.81 477.43 242.61 100.13 471.00 513.42 497.00 244.19 188.58 156.55 632.22 54.06 578.08 571.99 220.94 198.88 158.26 559.99 458.88 549.77 530.82 517.41 549.33 291.07 557.71 139.86 125.89 205.05 484.56 534.92 544.98 62.10 249.19 550.31 456.69 208.65 32.53 476.40 386.53 522.56 165.66 161.32 456.50 152.80 428.10 202.15 486.73 484.44 530.46 433.96 504.89 74.12 280.20 234.38 196.02 108.23 138.46 258.54 559.71 64.25 103.60 510.92 63.59 500.39 70.63 67.21 222.47 459.53 523.97 634.49
156.35 552.81 258.46 233.61 215.75 393.84 132.72 258.81 332.58 391.30 413.38 230.79 275.02 147.63 393.41 267.10 268.77 268.55 230.59 290.07 282.99 107.66 269.94 209.74 308.49 267.63 334.54 0.00 253.43 481.03 275.42 240.29 291.28 347.92 216.56 586.39 298.03 273.95 427.08 396.62 245.42 232.47 289.75 229.99 380.63 277.03 440.74 323.54 360.92 372.24 145.73 375.57 185.19 306.94 249.28 343.06 340.45 263.97 335.60 184.61 299.21 345.11 346.38 420.19 222.16 452.32 334.06 313.53 166.60 351.48 246.26 160.11 302.01 178.71 223.26 301.20 298.20 291.55 254.69 234.14 226.29 132.39 223.43 169.95 277.27 268.99 277.53 310.20 108.79 123.55 226.94 356.83 215.98 133.30 341.65 303.36 394.93 304.21 290.00 238.73 332.47 327.68 216.33 195.58 438.36 369.17
409.78 761.77 381.56 430.72 453.87 600.97 177.32 443.92 412.99 583.98 550.35 432.05 493.44 401.06 562.89 474.67 462.89 261.74 410.87 477.11 483.54 202.38 98.64 461.47 483.50 454.52 172.09 253.43 0.00 689.14 236.25 354.81 485.52 233.06 435.95 720.06 480.49 475.11 248.55 240.99 445.48 409.28 494.68 272.36 127.20 98.89 627.03 176.19 530.40 535.50 194.41 318.19 204.80 528.43 386.14 547.45 498.84 482.39 510.69 258.15 476.02 261.86 227.97 288.16 438.62 433.91 458.90 166.06 261.77 537.77 454.37 246.71 195.80 432.14 356.93 502.25 213.47 261.73 466.24 19.29 473.01 200.84 460.20 423.38 459.80 431.64 446.11 172.81 245.00 193.71 152.82 109.82 37.45 205.37 538.67 168.33 206.90 508.60 108.50 408.21 194.38 155.33 250.64 426.92 436.71 578.24
400.26 238.49 353.26 286.78 296.39 239.99 568.79 252.99 336.26 183.88 324.81 275.68 310.97 352.70 260.00 340.13 284.05 745.77 331.24 288.01 239.58 588.69 690.51 280.39 260.72 256.14 691.46 481.03 689.14 0.00 659.61 721.32 242.51 774.49 272.65 732.46 267.26 262.59 829.52 791.59 297.51 308.22 274.12 647.18 792.36 635.93 258.05 711.79 269.48 308.08 577.44 784.70 602.45 326.29 322.48 335.86 228.76 314.17 247.27 559.55 263.60 732.71 766.60 850.16 267.05 409.46 264.28 698.06 579.58 341.88 234.77 620.12 723.99 302.32 534.07 220.93 682.39 743.54 292.10 689.33 305.94 596.23 404.10 320.18 275.52 257.50 294.67 707.94 531.49 585.18 589.29 704.48 673.13 564.36 256.82 734.76 755.19 300.76 670.45 286.86 708.09 725.42 625.46 319.19 431.32 160.34
354.11 741.97 421.42 431.05 440.66 585.34 155.04 428.29 467.00 587.04 550.55 419.95 482.64 401.67 568.03 446.72 462.07 87.90 400.07 452.42 467.91 167.76 180.61 379.22 483.65 449.71 180.10 275.42 236.25 659.61 0.00 164.12 491.64 153.23 416.92 629.80 467.51 443.43 381.54 241.26 425.11 452.49 465.63 80.81 291.25 180.25 622.65 152.42 555.91 537.24 133.99 160.84 113.47 500.48 388.95 512.54 513.11 471.59 494.60 175.88 476.83 132.72 114.02 235.26 411.32 522.82 520.71 130.36 134.00 533.39 446.51 115.31 167.25 419.24 293.19 511.93 22.78 83.93 424.17 216.96 395.77 146.55 399.78 339.43 466.43 440.57 466.69 114.58 224.72 158.24 192.20 260.45 235.12 179.54 530.81 124.19 273.71 473.69 176.41 441.73 136.85 112.89 59.09 402.37 596.89 611.76
384.33 793.10 450.29 473.90 456.04 575.65 185.80 499.10 520.81 616.39 631.32 471.08 434.73 387.92 586.42 448.42 509.06 114.09 470.88 517.24 506.12 160.74 313.97 450.03 548.78 484.57 273.00 240.29 354.81 721.32 164.12 0.00 531.57 301.42 456.85 570.39 496.86 508.52 482.53 321.80 485.71 472.76 521.95 107.50 408.76 310.80 630.83 253.41 601.21 573.44 198.81 226.75 167.28 494.83 453.77 558.98 543.87 445.78 525.36 181.16 539.50 190.65 191.92 230.96 462.45 541.35 574.35 210.90 204.13 580.44 486.55 175.09 265.72 419.00 207.26 541.49 141.34 137.09 494.98 335.52 466.58 214.77 463.72 410.24 517.56 507.45 517.82 212.95 260.92 176.63 282.60 377.96 325.67 186.38 581.94 218.88 356.24 539.90 294.97 479.02 235.22 230.40 129.22 435.40 616.69 609.46
262.40 351.33 166.53 100.05 98.46 231.73 379.04 111.30 163.68 119.36 164.99 79.49 171.93 214.84 171.75 198.44 84.48 533.41 181.82 79.82 114.30 392.07 520.24 165.12 63.09 114.45 500.98 291.28 485.52 242.51 491.64 531.57 0.00 581.44 74.72 590.77 116.90 134.94 634.70 601.11 120.64 80.51 118.03 503.29 568.18 449.20 252.12 536.53 77.10 106.66 382.49 598.77 455.35 201.01 145.01 183.00 83.94 182.98 66.49 417.86 89.33 587.89 593.18 660.41 80.32 234.46 44.00 498.71 426.12 185.79 93.08 430.66 530.94 112.57 396.21 21.58 514.42 510.41 131.95 481.74 137.74 394.11 231.35 180.00 33.01 115.81 114.07 522.42 353.58 395.43 439.87 562.79 463.58 366.43 105.51 535.41 594.44 160.38 502.25 77.31 518.34 536.25 481.57 129.44 233.69 133.51
477.26 831.67 466.45 505.35 518.57 686.32 259.96 529.27 529.76 660.15 648.90 501.95 559.01 495.55 672.95 580.46 561.33 197.84 516.66 557.34 568.89 253.76 164.78 498.29 611.31 539.87 83.03 347.92 233.06 774.49 153.23 301.42 581.44 0.00 516.18 771.44 565.84 560.46 295.97 118.35 521.03 518.55 580.03 234.04 215.35 183.78 715.25 72.03 647.98 610.16 238.91 148.87 176.23 619.11 480.67 632.80 613.61 570.06 599.52 313.76 581.75 157.83 130.02 122.02 510.58 593.29 618.39 100.27 287.23 633.34 539.72 268.54 50.50 481.53 408.31 577.40 176.01 204.45 539.53 214.99 511.13 220.12 504.70 492.66 548.43 516.99 560.03 95.21 316.53 263.16 258.61 143.23 196.83 276.51 619.14 131.74 156.96 593.95 146.62 525.79 75.76 77.73 212.32 464.66 541.94 695.82
190.42 336.25 91.81 25.33 23.74 221.29 304.32 71.04 149.99 174.74 228.61 14.23 104.60 142.96 182.42 143.00 56.35 485.11 107.10 82.76 103.86 317.35 445.52 90.40 126.97 67.55 490.16 216.56 435.95 272.65 416.92 456.85 74.72 516.18 0.00 535.33 112.72 97.82 587.08 560.68 74.12 44.85 96.31 433.88 537.83 374.48 237.54 461.81 149.93 179.85 325.25 571.40 390.79 161.54 70.29 146.15 132.56 115.65 119.04 353.40 100.98 547.61 518.46 585.69 5.60 235.76 118.72 455.86 351.40 150.94 52.82 355.94 465.68 37.85 324.33 96.30 439.70 500.85 57.23 432.17 63.50 329.55 156.63 117.66 60.71 75.55 60.97 455.75 278.86 320.71 365.15 488.82 414.01 291.71 125.09 492.28 519.72 112.42 428.01 27.74 443.62 473.23 412.16 54.72 279.88 197.77
548.81 871.58 599.16 560.66 532.87 563.54 542.74 484.94 667.08 626.62 706.52 547.01 449.57 544.50 619.92 392.33 544.64 672.14 456.13 618.09 520.96 517.68 709.26 485.66 638.32 497.84 749.66 586.39 720.06 732.46 629.80 570.39 590.77 771.44 535.33 0.00 511.70 515.03 893.71 793.35 583.90 561.46 536.79 618.95 847.26 687.05 618.72 742.47 633.93 673.38 555.75 756.47 595.21 446.09 585.53 564.18 649.24 450.98 653.90 556.77 616.25 716.96 698.26 789.81 540.93 734.96 610.69 712.76 572.33 547.26 497.69 541.01 720.94 517.19 363.13 583.86 607.02 669.81 478.10 700.77 506.50 571.71 484.19 506.65 585.33 474.96 545.89 720.22 624.44 533.57 609.68 770.79 682.61 543.32 553.68 685.41 827.40 542.61 729.32 539.09 741.90 737.70 597.23 531.09 796.97 664.67
185.14 378.20 183.47 119.17 101.19 145.11 394.60 53.32 230.44 119.53 260.35 114.10 62.13 163.04 134.21 119.37 103.59 555.41 89.23 168.78 27.68 405.69 482.38 117.91 175.73 71.73 482.81 298.03 480.49 267.26 467.51 496.86 116.90 565.84 112.72 511.70 0.00 30.09 623.03 582.94 128.98 140.61 25.09 453.35 583.71 444.31 182.11 536.87 188.28 216.23 373.55 578.50 439.97 102.91 154.65 71.83 164.30 73.18 182.81 375.14 163.07 592.49 570.47 675.68 118.32 328.11 138.67 527.78 356.72 92.85 68.58 380.93 515.34 136.13 333.79 95.32 490.29 551.44 83.45 496.26 99.45 391.42 148.86 128.08 149.91 48.85 79.15 527.61 338.65 397.80 347.28 495.83 478.10 385.46 123.08 491.08 579.63 48.07 463.96 105.39 533.61 528.16 431.63 153.00 335.98 220.69
191.92 408.29 160.86 111.95 79.12 142.30 382.63 31.19 200.35 145.05 230.26 98.73 75.10 157.42 161.27 122.70 106.08 531.33 109.44 161.19 24.87 381.61 478.64 95.44 166.17 43.59 477.43 273.95 475.11 262.59 443.43 508.52 134.94 560.46 97.82 515.03 30.09 0.00 617.65 577.56 98.89 121.12 43.21 437.34 578.33 443.53 190.55 531.49 193.55 213.53 379.52 599.34 417.50 111.58 124.56 74.69 134.21 64.05 152.72 347.00 184.76 573.57 548.34 664.00 92.22 320.26 160.94 523.23 374.84 110.97 49.41 411.02 509.96 116.16 330.98 117.59 466.21 527.36 76.26 479.73 94.07 398.31 170.38 104.00 128.84 43.47 97.27 510.02 335.84 397.50 367.49 490.45 461.57 373.37 141.20 521.17 570.24 61.52 458.58 75.30 521.93 527.50 440.10 133.03 330.24 242.08
583.43 864.06 580.31 591.59 578.77 742.76 350.97 586.46 496.88 715.78 563.73 588.91 618.03 574.71 752.05 637.75 636.19 369.39 599.22 590.90 626.08 376.03 264.00 582.66 627.76 597.06 242.61 427.08 248.55 829.52 381.54 482.53 634.70 295.97 587.08 893.71 623.03 617.65 0.00 232.62 598.34 613.03 637.22 387.75 172.66 297.64 772.44 229.12 665.56 619.39 368.06 373.94 362.79 662.46 596.11 675.35 604.38 612.89 622.89 431.80 615.31 314.92 300.95 353.52 592.68 607.56 590.70 275.53 435.42 690.53 594.75 420.36 245.47 578.72 530.58 634.05 383.11 392.39 551.98 229.26 523.58 386.85 633.85 579.92 627.55 574.18 614.78 269.58 432.67 367.36 399.10 260.54 211.10 379.02 697.77 303.80 139.01 651.14 284.06 597.37 247.31 268.65 409.47 577.53 626.77 731.98
487.89 865.46 493.47 552.73 565.95 703.42 291.71 546.37 574.26 669.18 703.10 546.45 603.51 535.45 695.52 616.72 585.48 249.07 554.20 601.84 585.99 288.96 183.78 542.79 648.09 556.97 100.13 396.62 240.99 791.59 241.26 321.80 601.11 118.35 560.68 793.35 582.94 577.56 232.62 0.00 568.41 565.93 597.13 306.55 262.44 210.80 732.35 116.53 671.05 620.79 283.41 236.09 220.73 638.48 520.07 649.90 630.95 614.56 631.27 358.26 609.56 202.33 188.36 137.65 555.08 618.22 631.38 110.90 323.19 650.44 556.82 282.65 95.00 528.91 443.51 588.03 218.48 244.67 556.63 221.70 528.23 264.62 533.65 554.60 592.93 534.09 555.89 134.61 361.03 304.85 296.15 208.36 238.59 314.60 648.45 147.60 158.93 611.05 163.72 548.86 133.10 148.44 300.35 512.04 586.44 713.40
200.96 400.43 95.64 50.05 78.80 241.19 305.97 99.40 101.46 196.84 219.40 77.93 162.81 192.92 230.96 191.57 89.74 513.01 146.32 62.30 123.76 331.03 434.57 125.47 135.16 111.62 471.00 245.42 445.48 297.51 425.11 485.71 120.64 521.03 74.12 583.90 128.98 98.89 598.34 568.41 0.00 65.56 120.75 439.52 546.62 378.31 277.77 463.46 175.98 185.45 314.30 579.79 394.33 201.33 59.34 173.58 123.35 151.76 124.64 386.80 86.71 549.26 526.07 587.34 69.78 245.09 127.73 457.51 387.89 188.51 117.62 375.36 483.37 66.71 367.18 99.06 447.89 509.04 116.97 426.19 109.80 333.09 230.75 85.68 116.08 111.68 119.33 444.80 284.06 322.36 398.09 517.01 427.06 334.02 172.16 481.33 558.53 160.41 454.63 76.34 445.27 462.28 420.55 56.37 231.35 224.43
198.48 371.82 126.06 21.44 44.59 242.14 303.49 89.93 146.10 193.10 219.23 49.80 140.17 163.81 204.66 169.13 63.44 501.02 127.95 67.83 124.71 328.55 474.02 110.99 115.19 103.12 513.42 232.47 409.28 308.22 452.49 472.76 80.51 518.55 44.85 561.46 140.61 121.12 613.03 565.93 65.56 0.00 115.52 441.34 536.48 408.73 266.57 460.98 144.30 139.77 324.54 585.90 398.42 200.27 105.86 160.61 123.18 151.22 104.67 379.35 66.74 546.78 519.59 584.86 41.17 225.21 101.59 455.03 387.94 183.28 92.55 372.88 480.89 53.76 345.18 95.32 475.27 524.02 92.75 428.57 89.45 343.33 201.48 116.83 50.52 93.30 93.03 459.24 274.97 319.88 386.00 519.10 443.36 331.54 143.55 491.73 564.57 147.99 453.96 71.58 442.79 476.72 426.66 53.89 275.99 202.80
201.59 403.29 183.85 94.08 104.25 151.97 377.51 56.32 218.74 144.62 273.47 89.01 87.22 165.25 139.49 144.46 78.50 547.86 114.32 171.68 34.54 391.02 497.77 118.60 181.12 52.61 497.00 289.75 494.68 274.12 465.63 521.95 118.03 580.03 96.31 536.79 25.09 43.21 637.22 597.13 120.75 115.52 0.00 428.26 597.90 419.22 157.02 530.97 172.92 224.64 398.56 565.78 440.66 96.57 162.33 64.97 177.42 87.19 184.52 356.02 148.69 567.40 573.47 658.88 97.64 303.02 147.08 519.12 331.63 67.76 43.49 372.17 529.53 111.04 340.65 103.73 488.41 542.23 94.72 498.82 113.64 416.51 173.95 145.18 131.13 63.04 54.06 533.26 345.51 393.90 372.37 510.02 481.85 388.02 97.99 516.17 593.40 42.35 477.71 95.58 516.81 550.74 406.54 127.91 348.63 208.98
316.74 745.92 411.88 428.14 441.36 563.20 137.85 406.15 454.99 565.95 547.66 448.11 463.04 364.30 538.29 409.35 438.61 122.96 409.54 443.65 445.77 122.33 206.47 419.30 486.50 427.57 244.19 229.99 272.36 647.18 80.81 107.50 503.29 234.04 433.88 618.95 453.35 437.34 387.75 306.55 439.52 441.34 428.26 0.00 355.34 208.50 585.28 216.51 525.87 528.47 125.22 180.96 101.46 463.11 380.18 493.23 487.78 451.99 477.41 138.51 468.06 169.33 179.31 279.40 439.48 584.86 523.56 195.65 96.63 496.02 412.41 77.94 227.19 404.32 255.82 501.32 88.07 145.96 449.93 253.07 428.18 109.18 391.01 398.84 491.86 418.43 468.20 194.46 215.95 128.50 188.52 307.72 234.91 142.17 515.43 189.48 248.74 470.61 226.53 460.30 205.36 176.98 21.72 387.45 584.88 599.16
536.98 818.15 450.98 551.96 533.26 704.19 304.52 547.14 459.61 687.54 613.14 540.86 620.64 528.26 690.09 601.87 582.98 337.16 538.07 558.35 586.76 329.58 200.70 583.28 599.07 557.74 188.58 380.63 127.20 792.36 291.25 408.76 568.18 215.35 537.83 847.26 583.71 578.33 172.66 262.44 546.62 536.48 597.90 355.34 0.00 226.09 733.12 217.89 634.48 573.48 321.61 341.78 320.85 627.74 487.28 645.68 567.11 609.59 585.62 385.35 578.69 274.36 289.72 328.62 532.23 561.11 586.10 215.90 358.20 651.21 557.59 317.66 220.41 509.73 484.13 589.76 314.03 329.44 569.46 146.49 546.51 315.41 587.40 543.49 535.17 534.86 573.31 195.84 372.20 320.91 280.02 87.88 164.65 332.57 650.62 232.37 114.11 606.83 182.00 535.41 218.11 178.36 333.62 523.15 563.91 701.69
433.38 699.53 282.67 388.61 364.95 527.72 169.87 412.88 461.92 487.40 511.54 377.51 467.88 393.50 538.90 458.12 419.63 207.82 395.89 440.61 445.07 169.37 122.58 383.59 465.00 430.83 156.55 277.03 98.89 635.93 180.25 310.80 449.20 183.78 374.48 687.05 444.31 443.53 297.64 210.80 378.31 408.73 419.22 208.50 226.09 0.00 576.24 111.75 513.47 498.62 172.29 256.57 165.04 459.43 318.97 484.19 456.32 464.40 437.81 217.92 440.33 186.40 183.58 272.01 368.88 445.56 487.29 99.90 228.76 486.98 424.54 209.06 133.28 371.71 323.92 448.05 187.14 218.33 428.54 79.60 400.14 153.50 438.08 343.80 423.99 422.40 424.25 123.61 251.57 153.48 137.84 138.70 86.54 195.01 488.37 129.14 180.22 461.57 142.64 399.29 129.94 137.44 186.78 354.84 497.02 554.60
308.33 378.44 318.15 251.10 245.80 55.18 520.03 205.30 375.76 132.76 381.36 223.31 196.10 293.11 105.98 226.39 203.13 687.85 256.57 303.04 165.68 523.16 633.43 275.62 279.65 208.94 632.22 440.74 627.03 258.05 622.65 630.83 252.12 715.25 237.54 618.72 182.11 190.55 772.44 732.35 277.77 266.57 157.02 585.28 733.12 576.24 0.00 686.28 252.47 307.03 498.98 722.80 578.88 190.43 296.63 138.93 285.31 185.05 266.80 512.35 298.29 724.42 722.45 805.57 231.94 434.77 257.38 676.14 488.65 89.26 200.51 529.19 664.75 268.06 471.79 230.54 645.43 699.25 232.86 623.25 248.86 517.77 233.19 294.16 256.92 198.26 211.08 682.09 476.65 515.77 514.62 645.24 605.09 497.52 172.22 673.19 713.60 162.40 613.37 218.82 673.24 688.46 563.56 284.34 450.25 233.93
423.40 797.84 394.42 447.78 461.00 639.47 227.22 500.30 500.79 599.15 600.90 468.12 530.04 470.96 627.68 526.37 516.04 140.27 462.57 525.76 533.90 224.79 135.81 469.32 553.74 510.90 54.06 323.54 176.19 711.79 152.42 253.41 536.53 72.03 461.81 742.47 536.87 531.49 229.12 116.53 463.46 460.98 530.97 216.51 217.89 111.75 686.28 0.00 605.28 556.30 209.94 144.82 147.26 571.18 425.92 586.95 566.93 534.09 548.42 284.79 527.72 85.80 71.83 160.26 467.41 535.20 562.57 46.41 258.70 598.73 491.51 218.16 21.53 423.96 379.34 523.54 153.99 163.27 489.44 156.90 461.04 191.15 475.73 455.55 511.50 488.02 522.78 40.46 287.56 234.19 204.52 154.06 138.74 239.39 561.44 74.68 127.99 564.98 117.65 485.44 18.19 39.53 194.79 407.09 512.97 648.91
318.62 305.67 230.80 162.68 151.84 240.13 431.63 162.36 181.06 153.19 157.95 146.03 216.03 271.06 146.49 241.60 94.42 610.51 235.20 113.68 185.68 456.69 565.02 218.50 93.91 172.46 578.08 360.92 530.40 269.48 555.91 601.21 77.10 647.98 149.93 633.93 188.28 193.55 665.56 671.05 175.98 144.30 172.92 525.87 634.48 513.47 252.47 605.28 0.00 61.00 432.11 652.48 512.14 248.57 209.28 191.19 73.56 218.14 92.07 475.87 130.00 577.51 611.40 702.19 144.59 260.04 74.86 570.09 488.65 225.48 151.09 483.40 597.48 187.78 452.43 92.96 578.69 587.51 198.70 514.47 206.87 450.90 306.56 247.10 110.11 164.10 124.01 593.80 373.52 448.02 490.84 546.60 497.03 441.64 80.25 592.30 608.74 152.34 571.38 122.19 587.09 607.63 504.15 198.19 264.51 121.58
338.25 244.67 232.45 158.83 183.53 301.13 394.22 188.44 122.51 174.27 160.70 186.15 277.03 302.75 207.49 281.05 155.42 610.39 266.69 123.15 213.63 419.28 559.59 248.38 70.88 209.86 571.99 372.24 535.50 308.08 537.24 573.44 106.66 610.16 179.85 673.38 216.23 213.53 619.39 620.79 185.45 139.77 224.64 528.47 573.48 498.62 307.03 556.30 61.00 0.00 403.25 621.22 476.04 300.34 196.15 252.19 79.32 277.58 60.81 471.75 98.74 583.27 603.81 696.14 178.56 228.78 77.56 509.89 459.58 286.48 199.74 463.61 564.45 193.53 479.17 120.91 557.47 617.07 232.52 517.17 226.84 422.04 336.48 256.60 139.67 200.72 185.01 533.60 312.52 410.61 487.04 485.60 534.09 415.81 141.25 546.59 614.23 213.34 579.65 170.11 555.87 547.43 509.50 193.66 241.48 158.76
302.08 647.92 287.43 311.34 324.56 485.71 21.05 362.57 359.09 465.12 457.27 328.28 366.89 293.36 434.04 348.12 370.40 221.89 284.32 318.43 397.46 38.07 156.34 339.49 387.80 376.44 220.94 145.73 194.41 577.44 133.99 198.81 382.49 238.91 325.25 555.75 373.55 379.52 368.06 283.41 314.30 324.54 398.56 125.22 321.61 172.29 498.98 209.94 432.11 403.25 0.00 265.49 80.03 401.88 254.96 406.86 379.12 355.84 360.61 88.69 342.84 266.71 248.01 306.59 319.65 500.94 403.47 201.86 97.46 409.72 355.07 77.75 188.41 287.52 192.62 391.89 156.77 217.92 343.72 175.12 324.60 18.79 265.79 315.68 374.76 374.85 375.02 205.04 90.73 24.25 83.79 246.32 156.96 49.10 433.45 189.76 281.33 421.62 176.40 349.00 226.51 222.52 106.25 270.65 472.51 482.65
454.26 848.60 539.24 572.70 585.92 717.75 282.41 568.15 592.51 674.97 674.97 580.79 589.73 501.82 675.81 546.87 606.60 112.66 548.89 546.89 600.32 267.91 229.75 540.06 570.93 571.30 198.88 375.57 318.19 784.70 160.84 226.75 598.77 148.87 571.40 756.47 578.50 599.34 373.94 236.09 579.79 585.90 565.78 180.96 341.78 256.57 722.80 144.82 652.48 621.22 265.49 0.00 238.98 600.63 520.45 630.75 578.92 589.51 560.41 276.03 522.48 134.30 120.14 98.44 572.16 674.43 607.41 169.65 234.15 633.54 549.93 215.46 166.35 548.88 393.34 577.19 174.39 117.28 585.01 298.90 556.61 246.70 531.28 500.27 582.20 572.66 609.83 145.94 356.22 266.02 326.04 292.10 283.56 279.69 628.05 166.52 243.63 608.13 209.69 599.14 163.01 163.42 159.24 532.01 657.79 702.56
341.54 720.71 367.08 385.22 388.72 523.70 94.93 414.13 353.53 534.29 499.72 405.02 382.78 332.82 503.21 415.39 446.14 143.32 363.43 398.46 442.37 77.53 189.83 322.06 461.68 418.54 158.26 185.19 204.80 602.45 113.47 167.28 455.35 176.23 390.79 595.21 439.97 417.50 362.79 220.73 394.33 398.42 440.66 101.46 320.85 165.04 578.88 147.26 512.14 476.04 80.03 238.98 0.00 442.88 334.99 486.89 453.00 393.83 434.49 154.88 422.87 219.88 219.09 279.58 396.39 528.01 483.50 148.72 136.92 489.75 397.17 129.98 125.73 361.40 232.08 471.92 136.25 166.32 385.98 194.54 381.14 61.24 345.82 355.14 448.94 401.85 451.76 125.01 170.76 93.42 155.79 249.04 212.70 103.17 500.19 161.54 232.19 471.40 172.39 418.53 147.28 142.49 79.74 344.53 483.42 554.36
150.59 481.11 176.76 178.83 166.83 179.44 382.45 124.57 301.98 206.89 341.84 157.64 60.10 198.15 236.06 53.76 159.72 567.06 117.56 236.26 86.71 380.04 510.71 147.09 233.03 103.15 559.99 306.94 528.43 326.29 500.48 494.83 201.01 619.11 161.54 446.09 102.91 111.58 662.46 638.48 201.33 200.27 96.57 463.11 627.74 459.43 190.43 571.18 248.57 300.34 401.88 600.63 442.88 0.00 213.06 150.84 245.79 49.57 249.98 406.56 245.26 608.90 595.67 673.58 159.10 379.09 222.78 527.58 414.09 101.17 124.52 389.39 568.61 178.62 331.18 179.43 523.26 544.06 113.00 538.23 138.88 410.79 145.62 168.08 187.34 126.03 130.13 551.29 324.80 395.93 375.61 573.01 520.07 354.40 194.56 533.79 577.60 138.92 503.39 133.80 561.94 556.49 441.39 185.37 403.63 302.60
187.52 395.34 36.30 84.42 94.03 266.86 276.01 131.43 160.80 245.03 249.90 73.32 163.69 147.13 236.05 193.20 115.44 476.85 159.72 121.64 149.43 293.03 375.23 140.58 162.53 126.64 458.88 249.28 386.14 322.48 388.95 453.77 145.01 480.67 70.29 585.53 154.65 124.56 596.11 520.07 59.34 105.86 162.33 380.18 487.28 318.97 296.63 425.92 209.28 196.15 254.96 520.45 334.99 213.06 0.00 199.25 153.85 174.74 135.34 343.65 121.36 505.37 486.46 549.80 64.69 294.85 168.32 409.17 329.59 210.03 122.64 332.71 438.23 70.57 307.84 158.40 411.73 472.88 127.52 366.85 107.29 273.75 213.54 110.33 119.80 143.71 120.06 385.46 224.72 279.21 338.75 457.67 385.01 304.06 184.18 421.99 499.19 171.51 395.29 95.10 407.73 402.94 361.21 54.44 290.69 265.13
249.24 404.60 231.88 139.17 153.81 120.54 427.91 105.88 263.83 191.36 270.45 147.89 124.25 220.97 127.33 171.85 125.22 593.73 161.06 214.85 99.51 444.93 536.34 170.13 237.06 98.48 549.77 343.06 547.45 335.86 512.54 558.98 183.00 632.80 146.15 564.18 71.83 74.69 675.35 649.90 173.58 160.61 64.97 493.23 645.68 484.19 138.93 586.95 191.19 252.19 406.86 630.75 486.89 150.84 199.25 0.00 208.90 113.20 227.41 401.89 213.66 587.68 621.57 710.83 145.67 361.07 210.50 580.93 396.60 49.67 101.09 437.14 582.30 168.64 402.34 167.15 535.32 596.47 123.37 554.42 151.77 425.65 141.07 173.11 179.01 115.81 112.11 584.71 392.70 431.11 419.11 562.79 536.26 425.67 162.96 562.91 641.75 38.85 516.28 149.99 568.76 599.99 471.51 179.86 393.72 186.25
275.19 323.99 190.15 144.62 144.61 276.51 358.07 165.40 107.50 165.02 96.05 146.79 209.31 263.83 205.63 256.91 133.75 574.24 227.97 61.05 159.08 383.13 529.08 211.27 31.96 168.39 530.82 340.45 498.84 228.76 513.11 543.87 83.94 613.61 132.56 649.24 164.30 134.21 604.38 630.95 123.35 123.18 177.42 487.78 567.11 456.32 285.31 566.93 73.56 79.32 379.12 578.92 453.00 245.79 153.85 208.90 0.00 198.26 18.51 438.90 56.44 503.95 537.84 628.63 138.16 186.48 39.94 538.88 442.52 245.18 164.81 409.84 563.11 161.74 436.87 83.29 535.89 578.68 186.43 479.55 174.39 397.91 289.19 209.03 101.28 175.67 163.34 539.31 365.60 374.46 438.21 558.83 497.71 386.12 148.82 554.24 634.42 180.02 536.94 131.19 548.74 556.79 466.06 159.84 202.56 171.04
147.01 440.70 181.73 129.78 121.93 129.87 340.52 94.00 253.22 192.71 294.31 118.68 11.05 157.18 207.39 58.65 157.46 532.52 71.52 187.21 74.59 338.11 464.67 126.69 230.22 102.75 517.41 263.97 482.39 314.17 471.59 445.78 182.98 570.06 115.65 450.98 73.18 64.05 612.89 614.56 151.76 151.22 87.19 451.99 609.59 464.40 185.05 534.09 218.14 277.58 355.84 589.51 393.83 49.57 174.74 113.20 198.26 0.00 216.77 379.21 205.43 587.63 553.74 631.65 110.05 340.21 210.66 515.27 372.16 134.66 110.51 374.05 519.56 144.45 332.69 167.31 494.37 546.77 77.10 498.11 89.31 368.86 106.33 132.16 165.16 87.78 141.25 518.84 303.72 354.00 329.57 534.76 479.95 312.47 185.18 518.45 528.55 94.12 453.82 134.21 515.90 510.45 430.27 135.80 383.11 253.03
285.92 305.48 171.64 126.11 139.84 294.50 339.56 170.33 126.01 159.41 114.56 133.27 223.64 259.06 200.86 261.57 139.03 555.73 223.20 62.34 177.59 364.62 510.57 193.31 27.19 174.00 549.33 335.60 510.69 247.27 494.60 525.36 66.49 599.52 119.04 653.90 182.81 152.72 622.89 631.27 124.64 104.67 184.52 477.41 585.62 437.81 266.80 548.42 92.07 60.81 360.61 560.41 434.49 249.98 135.34 227.41 18.51 216.77 0.00 420.39 37.93 522.46 543.00 647.14 124.64 167.97 58.45 520.37 424.01 245.74 159.57 408.95 549.02 156.89 418.36 88.07 517.38 573.91 176.27 491.40 175.68 379.40 275.67 204.27 96.51 178.94 154.44 520.80 347.09 355.95 439.50 546.41 479.43 367.61 144.58 548.13 618.03 198.53 529.51 116.18 530.23 538.28 462.73 141.33 197.79 166.27
321.22 684.95 316.90 357.91 345.09 457.17 80.83 324.83 447.78 471.59 453.50 355.23 384.35 332.24 470.26 402.24 381.45 191.84 365.54 403.24 351.41 80.33 231.19 348.98 447.58 303.41 291.07 184.61 258.15 559.55 175.88 181.16 417.86 313.76 353.40 556.77 375.14 347.00 431.80 358.26 386.80 379.35 356.02 138.51 385.35 217.92 512.35 284.79 475.87 471.75 88.69 276.03 154.88 406.56 343.65 401.89 438.90 379.21 420.39 0.00 427.65 268.40 250.39 371.63 359.00 560.72 441.00 254.17 41.88 423.78 324.78 82.42 263.26 345.04 193.64 406.06 159.15 214.84 318.30 238.86 289.90 93.64 310.38 344.09 401.52 326.29 368.92 263.35 159.23 64.44 172.48 312.20 220.70 101.57 426.38 226.82 356.18 363.19 251.25 376.87 283.31 272.05 116.79 330.43 532.29 531.43
265.22 326.12 157.66 88.18 111.33 277.90 363.89 153.57 119.08 165.53 152.49 104.01 194.38 227.69 221.52 223.92 102.79 560.12 194.69 24.41 160.47 380.91 496.59 155.38 48.45 146.61 557.71 299.21 476.02 263.60 476.83 539.50 89.33 581.75 100.98 616.25 163.07 184.76 615.31 609.56 86.71 66.74 148.69 468.06 578.69 440.33 298.29 527.72 130.00 98.74 342.84 522.48 422.87 245.26 121.36 213.66 56.44 205.43 37.93 427.65 0.00 538.96 505.07 620.92 95.38 205.90 84.93 498.66 440.30 216.45 147.36 420.59 531.25 120.50 380.43 67.75 499.61 537.12 158.21 464.31 137.75 361.63 257.61 172.39 59.72 141.29 132.38 506.82 341.71 367.09 401.57 579.03 482.47 391.94 155.28 510.20 620.55 176.73 500.30 113.26 509.53 524.30 448.09 120.63 219.05 187.53
486.07 827.94 469.07 532.04 544.79 708.09 284.80 551.04 573.41 614.90 600.00 552.67 598.68 492.74 652.97 555.14 542.93 76.56 532.79 563.37 590.66 291.66 221.61 478.13 535.91 571.81 139.86 345.11 261.86 732.71 132.72 190.65 587.89 157.83 547.61 716.96 592.49 573.57 314.92 202.33 549.26 546.78 567.40 169.33 274.36 186.40 724.42 85.80 577.51 583.27 266.71 134.30 219.88 608.90 505.37 587.68 503.95 587.63 522.46 268.40 538.96 0.00 33.89 124.68 544.04 609.98 543.89 132.21 263.30 635.16 553.24 247.27 107.33 509.76 397.91 587.24 109.94 80.74 542.05 242.70 528.49 276.95 532.50 472.15 558.14 557.92 513.34 126.26 354.89 288.16 290.32 239.86 224.54 275.16 605.90 121.60 213.79 581.47 203.45 571.24 103.99 125.33 191.05 492.89 598.77 674.99
468.13 831.19 466.25 498.15 523.61 674.20 269.06 517.15 565.00 648.79 619.01 521.49 564.79 494.01 679.25 560.74 563.61 77.83 514.09 529.48 556.77 266.91 207.64 493.24 553.52 538.57 125.89 346.38 227.97 766.60 114.02 191.92 593.18 130.02 518.46 698.26 570.47 548.34 300.95 188.36 526.07 519.59 573.47 179.31 289.72 183.58 722.45 71.83 611.40 603.81 248.01 120.14 219.09 595.67 486.46 621.57 537.84 553.74 543.00 250.39 505.07 33.89 0.00 121.24 512.86 591.28 577.78 118.24 248.02 641.23 535.37 229.33 93.36 486.57 399.18 572.82 91.24 100.83 538.19 228.73 509.79 260.57 513.80 453.45 564.79 529.43 547.23 101.00 336.19 269.46 267.13 225.89 210.57 241.27 620.26 95.04 199.82 587.71 189.40 543.27 80.80 111.36 173.11 469.70 584.80 692.60
552.70 921.72 554.68 571.66 584.88 761.52 327.64 632.81 628.34 726.46 724.68 592.00 642.70 567.82 740.63 645.31 639.92 195.62 586.45 625.02 657.78 341.83 235.36 601.64 660.59 636.76 205.05 420.19 288.16 850.16 235.26 230.96 660.41 122.02 585.69 789.81 675.68 664.00 353.52 137.65 587.34 584.86 658.88 279.40 328.62 272.01 805.57 160.26 702.19 696.14 306.59 98.44 279.58 673.58 549.80 710.83 628.63 631.65 647.14 371.63 620.92 124.68 121.24 0.00 591.29 647.17 668.57 186.25 332.59 716.31 615.39 313.90 172.52 547.84 426.68 663.38 212.48 187.96 613.32 268.87 584.92 287.80 572.38 574.69 635.38 635.52 638.02 164.34 397.32 330.84 328.40 265.25 250.71 319.18 693.77 195.37 214.51 690.29 250.67 609.32 142.07 181.82 257.68 530.97 663.96 779.35
196.02 330.65 86.21 19.73 29.34 215.71 309.92 66.74 144.39 180.34 224.79 8.63 99.00 148.56 185.09 148.60 50.75 490.71 112.70 77.16 105.91 322.95 439.92 96.00 124.43 61.95 484.56 222.16 438.62 267.05 411.32 462.45 80.32 510.58 5.60 540.93 118.32 92.22 592.68 555.08 69.78 41.17 97.64 439.48 532.23 368.88 231.94 467.41 144.59 178.56 319.65 572.16 396.39 159.10 64.69 145.67 138.16 110.05 124.64 359.00 95.38 544.04 512.86 591.29 0.00 230.16 124.32 461.46 357.00 145.34 57.95 361.54 460.08 43.45 329.93 101.90 434.10 495.25 62.83 431.54 69.10 335.15 162.23 116.96 55.11 79.02 55.37 450.15 273.26 326.31 370.75 494.42 416.68 297.31 119.49 486.68 525.32 106.82 433.61 30.41 449.22 467.63 417.76 60.32 274.28 200.44
373.91 398.57 266.46 246.65 247.89 438.50 479.89 289.07 174.48 327.38 116.44 221.53 329.16 367.11 368.83 342.63 278.55 565.16 331.25 182.79 321.72 504.95 464.45 314.55 195.16 284.74 534.92 452.32 433.91 409.46 522.82 541.35 234.46 593.29 235.76 734.96 328.11 320.26 607.56 618.22 245.09 225.21 303.02 584.86 561.11 445.56 434.77 535.20 260.04 228.78 500.94 674.43 528.01 379.09 294.85 361.07 186.48 340.21 167.97 560.72 205.90 609.98 591.28 647.17 230.16 0.00 209.09 525.07 547.26 358.24 270.85 506.92 554.81 273.61 538.00 249.23 500.04 562.19 292.99 414.62 286.86 519.73 392.39 329.86 239.73 293.58 248.96 548.78 463.16 496.28 550.39 537.31 396.46 487.57 312.55 544.99 589.44 330.57 471.33 245.37 553.39 562.61 563.14 271.29 75.34 249.12
294.19 322.23 204.62 120.45 142.12 253.50 398.01 142.27 147.44 125.08 135.99 116.44 200.80 246.63 175.12 218.36 93.81 570.36 216.80 85.04 136.07 423.07 518.96 199.98 37.06 137.59 544.98 334.06 458.90 264.28 520.71 574.35 44.00 618.39 118.72 610.69 138.67 160.94 590.70 631.38 127.73 101.59 147.08 523.56 586.10 487.29 257.38 562.57 74.86 77.56 403.47 607.41 483.50 222.78 168.32 210.50 39.94 210.66 58.45 441.00 84.93 543.89 577.78 668.57 124.32 209.09 0.00 520.48 469.68 211.06 124.87 449.78 567.89 155.35 428.00 43.35 543.49 547.36 170.33 439.61 153.72 422.26 275.35 210.06 69.96 135.73 123.40 544.19 373.98 414.40 462.20 558.37 457.77 410.43 108.88 557.18 638.44 180.18 518.23 121.31 544.38 558.02 501.84 155.48 207.66 141.28
376.99 754.56 382.57 441.83 455.05 627.62 180.81 492.04 487.71 574.91 611.44 462.17 523.61 424.55 606.99 507.55 510.09 141.49 443.75 519.81 527.95 205.87 112.39 470.78 547.11 502.64 62.10 313.53 166.06 698.06 130.36 210.90 498.71 100.27 455.86 712.76 527.78 523.23 275.53 110.90 457.51 455.03 519.12 195.65 215.90 99.90 676.14 46.41 570.09 509.89 201.86 169.65 148.72 527.58 409.17 580.93 538.88 515.27 520.37 254.17 498.66 132.21 118.24 186.25 461.46 525.07 520.48 0.00 212.29 586.88 485.56 171.75 62.72 418.01 349.63 477.13 107.58 133.77 457.56 146.77 429.16 207.67 467.65 443.70 505.55 479.76 516.83 23.71 262.51 197.20 218.42 170.33 128.61 208.86 563.94 36.70 165.70 556.72 112.72 479.49 45.98 37.54 189.45 401.14 554.16 602.50
279.34 687.65 343.76 374.74 375.14 483.60 84.45 363.03 456.55 476.25 495.38 365.63 383.21 314.23 471.12 416.53 394.23 219.59 362.85 415.89 366.17 59.39 250.97 342.00 451.20 345.29 249.19 166.60 261.77 579.58 134.00 204.13 426.12 287.23 351.40 572.33 356.72 374.84 435.42 323.19 387.89 387.94 331.63 96.63 358.20 228.76 488.65 258.70 488.65 459.58 97.46 234.15 136.92 414.09 329.59 396.60 442.52 372.16 424.01 41.88 440.30 263.30 248.02 332.59 357.00 547.26 469.68 212.29 0.00 399.39 344.81 40.54 262.65 345.31 209.20 435.36 156.78 210.60 360.18 242.48 331.78 113.42 352.26 302.21 412.11 367.54 385.69 221.47 147.06 75.28 181.25 270.32 224.32 59.69 429.62 184.94 345.37 373.98 271.03 379.14 241.43 230.17 74.91 334.05 535.91 532.31
219.07 454.27 231.55 161.84 163.07 144.44 430.77 124.08 286.50 212.38 304.74 136.71 145.71 203.85 177.00 154.93 146.26 598.59 182.08 222.50 102.30 447.79 551.52 186.36 228.79 120.37 550.31 351.48 537.77 341.88 533.39 580.44 185.79 633.34 150.94 547.26 92.85 110.97 690.53 650.44 188.51 183.28 67.76 496.02 651.21 486.98 89.26 598.73 225.48 286.48 409.72 633.54 489.75 101.17 210.03 49.67 245.18 134.66 245.74 423.78 216.45 635.16 641.23 716.31 145.34 358.24 211.06 586.88 399.39 0.00 111.25 439.93 582.84 178.80 385.22 167.71 556.17 609.99 150.95 533.99 166.95 428.51 143.93 207.40 183.10 116.35 121.82 595.49 413.27 433.97 440.13 563.33 515.83 442.65 165.75 583.93 653.91 73.14 531.46 129.56 584.57 612.97 474.30 195.67 399.39 235.10
169.32 379.04 141.87 77.68 64.80 175.13 334.02 18.22 202.34 175.96 257.32 49.32 115.03 121.76 169.26 105.36 56.67 514.81 96.47 135.11 57.84 353.92 455.74 75.11 151.32 21.37 456.69 246.26 454.37 234.77 446.51 486.55 93.08 539.72 52.82 497.69 68.58 49.41 594.75 556.82 117.62 92.55 43.49 412.41 557.59 424.54 200.51 491.51 151.09 199.74 355.07 549.93 397.17 124.52 122.64 101.09 164.81 110.51 159.57 324.78 147.36 553.24 535.37 615.39 57.95 270.85 124.87 485.56 344.81 111.25 0.00 385.35 489.22 67.55 303.13 104.90 469.29 530.44 57.33 456.52 71.17 373.86 169.33 107.08 87.64 22.73 59.90 489.77 304.28 350.41 354.52 469.71 438.36 344.53 103.02 520.94 549.91 81.15 435.68 52.09 473.32 507.25 390.69 84.42 321.92 214.01
238.80 692.19 342.00 359.68 372.90 503.92 69.39 403.57 436.84 496.45 505.89 370.17 385.10 286.36 465.37 425.87 412.29 198.83 362.07 396.18 405.85 52.45 225.07 341.36 413.27 385.83 208.65 160.11 246.71 620.12 115.31 175.09 430.66 268.54 355.94 541.01 380.93 411.02 420.36 282.65 375.36 372.88 372.17 77.94 317.66 209.06 529.19 218.16 483.40 463.61 77.75 215.46 129.98 389.39 332.71 437.14 409.84 374.05 408.95 82.42 420.59 247.27 229.33 313.90 361.54 506.92 449.78 171.75 40.54 439.93 385.35 0.00 233.70 335.86 177.88 423.38 138.09 199.24 371.99 227.42 350.24 87.52 343.54 330.06 416.65 400.84 416.91 180.93 151.09 55.58 161.54 229.78 209.26 64.23 470.16 144.40 312.25 414.52 245.13 383.68 200.89 198.41 56.22 318.99 520.85 529.28
439.71 781.17 415.95 467.69 477.81 635.82 209.46 478.77 479.26 620.68 608.10 451.45 508.51 449.64 622.45 535.61 510.83 154.07 471.81 506.84 518.39 203.26 114.28 447.79 567.25 489.37 32.53 302.01 195.80 723.99 167.25 265.72 530.94 50.50 465.68 720.94 515.34 509.96 245.47 95.00 483.37 480.89 529.53 227.19 220.41 133.28 664.75 21.53 597.48 564.45 188.41 166.35 125.73 568.61 438.23 582.30 563.11 519.56 549.02 263.26 531.25 107.33 93.36 172.52 460.08 554.81 567.89 62.72 262.65 582.84 489.22 233.70 0.00 443.87 357.81 539.85 145.16 177.07 489.03 176.51 460.63 169.62 454.20 471.96 497.93 466.49 509.53 52.77 266.03 212.66 224.43 132.53 158.35 226.01 568.64 89.30 106.46 543.45 96.12 475.29 38.10 54.36 205.47 427.00 491.44 645.32
161.46 374.10 89.04 54.90 37.04 230.47 266.47 84.97 153.87 212.59 243.17 52.08 142.45 153.42 220.27 124.86 94.20 447.26 89.15 111.36 113.04 286.37 439.71 81.49 129.78 88.92 476.40 178.71 432.14 302.32 419.24 419.00 112.57 481.53 37.85 517.19 136.13 116.16 578.72 528.91 66.71 53.76 111.04 404.32 509.73 371.71 268.06 423.96 187.78 193.53 287.52 548.88 361.40 178.62 70.57 168.64 161.74 144.45 156.89 345.04 120.50 509.76 486.57 547.84 43.45 273.61 155.35 418.01 345.31 178.80 67.55 335.86 443.87 0.00 334.79 122.49 442.02 470.26 83.54 412.85 55.14 306.31 187.53 79.81 98.56 90.28 98.82 422.22 285.74 282.86 347.20 510.41 394.69 294.52 162.94 454.71 550.33 148.70 419.65 65.59 405.77 439.70 389.64 16.87 283.76 235.62
185.68 656.67 271.54 343.23 300.59 423.54 179.61 318.41 450.79 426.29 500.41 326.95 327.50 181.37 468.00 347.01 358.01 321.35 308.85 404.84 306.11 154.55 346.13 253.68 413.24 324.50 386.53 223.26 356.93 534.07 293.19 207.26 396.21 408.31 324.33 363.13 333.79 330.98 530.58 443.51 367.18 345.18 340.65 255.82 484.13 323.92 471.79 379.34 452.43 479.17 192.62 393.34 232.08 331.18 307.84 402.34 436.87 332.69 418.36 193.64 380.43 397.91 399.18 426.68 329.93 538.00 428.00 349.63 209.20 385.22 303.13 177.88 357.81 334.79 0.00 398.83 315.97 344.35 315.36 337.64 312.76 208.58 261.27 293.47 372.75 325.86 359.46 357.09 261.31 170.44 246.55 407.66 319.48 180.19 406.15 322.28 464.27 381.86 366.19 344.44 378.77 374.57 234.10 317.92 516.47 462.39
259.77 365.58 165.38 116.76 120.04 210.15 388.96 98.92 172.20 97.78 179.34 101.07 157.45 226.66 153.77 191.53 63.12 554.99 177.17 73.46 92.72 408.86 500.73 171.35 80.41 120.34 522.56 301.20 502.25 220.93 511.93 541.49 21.58 577.40 96.30 583.86 95.32 117.59 634.05 588.03 99.06 95.32 103.73 501.32 589.76 448.05 230.54 523.54 92.96 120.91 391.89 577.19 471.92 179.43 158.40 167.15 83.29 167.31 88.07 406.06 67.75 587.24 572.82 663.38 101.90 249.23 43.35 477.13 435.36 167.71 104.90 423.38 539.85 122.49 398.83 0.00 534.71 531.99 144.56 482.96 116.16 410.68 244.18 172.50 54.59 111.20 92.71 500.84 362.08 405.35 435.22 558.18 485.16 388.01 87.53 513.83 616.02 143.39 480.67 98.89 523.11 514.67 479.60 139.36 251.01 125.37
376.89 764.75 441.65 453.83 463.44 608.12 177.82 451.07 489.78 607.25 527.77 442.73 505.42 403.80 588.01 469.50 484.85 65.12 422.85 475.20 490.69 190.54 173.69 402.00 506.43 462.56 165.66 298.20 213.47 682.39 22.78 141.34 514.42 176.01 439.70 607.02 490.29 466.21 383.11 218.48 447.89 475.27 488.41 88.07 314.03 187.14 645.43 153.99 578.69 557.47 156.77 174.39 136.25 523.26 411.73 535.32 535.89 494.37 517.38 159.15 499.61 109.94 91.24 212.48 434.10 500.04 543.49 107.58 156.78 556.17 469.29 138.09 145.16 442.02 315.97 534.71 0.00 62.79 446.95 194.18 418.55 169.33 422.56 362.21 489.21 463.35 475.77 131.29 244.95 178.22 182.35 239.83 212.34 187.97 553.59 101.41 251.62 496.47 153.63 464.51 153.56 135.67 81.87 425.15 575.38 634.54
438.04 825.90 501.00 514.98 507.30 669.27 234.37 512.22 519.85 629.77 590.56 503.88 549.10 439.18 650.80 530.65 531.19 23.00 475.25 534.34 551.84 243.85 211.62 463.15 546.72 518.25 161.32 291.55 261.73 743.54 83.93 137.09 510.41 204.45 500.85 669.81 551.44 527.36 392.39 244.67 509.04 524.02 542.23 145.96 329.44 218.33 699.25 163.27 587.51 617.07 217.92 117.28 166.32 544.06 472.88 596.47 578.68 546.77 573.91 214.84 537.12 80.74 100.83 187.96 495.25 562.19 547.36 133.77 210.60 609.99 530.44 199.24 177.07 470.26 344.35 531.99 62.79 0.00 508.10 242.44 479.70 227.56 483.71 423.36 477.40 524.50 538.56 133.60 307.74 241.01 217.20 269.55 245.60 250.76 592.85 97.07 264.92 557.62 198.87 503.46 145.08 151.08 143.02 483.97 637.53 643.92
133.19 393.48 148.97 82.56 66.97 203.67 331.95 46.88 188.98 202.98 282.48 71.46 66.05 133.99 216.51 85.77 104.28 510.14 59.40 139.99 86.50 340.05 412.97 63.92 179.62 49.91 456.50 254.69 466.24 292.10 424.17 494.98 131.95 539.53 57.23 478.10 83.45 76.26 551.98 556.63 116.97 92.75 94.72 449.93 569.46 428.54 232.86 489.44 198.70 232.52 343.72 585.01 385.98 113.00 127.52 123.37 186.43 77.10 176.27 318.30 158.21 542.05 538.19 613.32 62.83 292.99 170.33 457.56 360.18 150.95 57.33 371.99 489.03 83.54 315.36 144.56 446.95 508.10 0.00 482.12 28.40 361.59 157.78 84.74 117.94 34.60 77.16 481.27 297.91 348.34 317.45 481.58 467.78 314.41 160.35 494.26 537.96 109.69 392.91 84.97 471.25 495.10 428.21 82.35 318.87 250.48
390.49 757.99 362.27 448.32 444.55 586.01 158.03 458.58 432.28 564.69 531.06 428.27 509.16 381.77 559.11 493.96 459.11 259.30 430.16 488.49 468.58 183.09 79.35 442.18 464.21 473.81 152.80 234.14 19.29 689.33 216.96 335.52 481.74 214.99 432.17 700.77 496.26 479.73 229.26 221.70 426.19 428.57 498.82 253.07 146.49 79.60 623.25 156.90 514.47 517.17 175.12 298.90 194.54 538.23 366.85 554.42 479.55 498.11 491.40 238.86 464.31 242.70 228.73 268.87 431.54 414.62 439.61 146.77 242.48 533.99 456.52 227.42 176.51 412.85 337.64 482.96 194.18 242.44 482.12 0.00 453.72 181.55 440.91 404.09 457.76 450.93 445.74 170.48 239.73 174.42 172.11 129.11 18.16 186.08 538.30 166.69 204.34 522.16 89.21 404.43 175.09 174.62 231.35 407.63 417.42 574.46
161.59 395.05 126.12 68.01 55.19 219.18 303.55 62.88 192.67 213.94 270.44 65.33 94.45 131.39 230.83 114.17 112.61 481.74 75.64 113.34 102.50 311.65 384.57 59.08 167.84 73.48 428.10 226.29 473.01 305.94 395.77 466.58 137.74 511.13 63.50 506.50 99.45 94.07 523.58 528.23 109.80 89.45 113.64 428.18 546.51 400.14 248.86 461.04 206.87 226.84 324.60 556.61 381.14 138.88 107.29 151.77 174.39 89.31 175.68 289.90 137.75 528.49 509.79 584.92 69.10 286.86 153.72 429.16 331.78 166.95 71.17 350.24 460.63 55.14 312.76 116.16 418.55 479.70 28.40 453.72 0.00 342.40 174.02 56.34 111.81 50.60 91.20 452.87 269.51 319.94 333.69 458.63 439.38 286.01 174.19 465.86 509.56 127.56 364.51 89.17 442.85 466.70 406.46 53.95 322.56 241.53
288.74 665.80 306.22 330.13 343.35 498.73 39.84 380.44 377.88 483.91 438.48 343.78 379.91 280.02 452.83 365.99 385.90 204.56 302.19 337.22 415.38 54.03 137.55 342.13 406.59 395.23 202.15 132.39 200.84 596.23 146.55 214.77 394.11 220.12 329.55 571.71 391.42 398.31 386.85 264.62 333.09 343.33 416.51 109.18 315.41 153.50 517.77 191.15 450.90 422.04 18.79 246.70 61.24 410.79 273.75 425.65 397.91 368.86 379.40 93.64 361.63 276.95 260.57 287.80 335.15 519.73 422.26 207.67 113.42 428.51 373.86 87.52 169.62 306.31 208.58 410.68 169.33 227.56 361.59 181.55 342.40 0.00 284.58 302.34 390.26 392.72 390.52 186.25 109.52 43.04 94.55 227.53 175.75 56.39 452.24 170.97 262.54 436.60 157.61 357.29 207.72 203.73 87.46 289.44 491.30 501.44
127.46 492.88 190.73 181.96 180.37 236.20 286.84 151.11 306.62 268.39 385.24 170.86 117.38 79.90 268.40 91.86 212.98 487.68 98.38 239.39 176.54 303.86 422.13 152.21 283.60 172.53 486.73 223.43 460.20 404.10 399.78 463.72 231.35 504.70 156.63 484.19 148.86 170.38 633.85 533.65 230.75 201.48 173.95 391.01 587.40 438.08 233.19 475.73 306.56 336.48 265.79 531.28 345.82 145.62 213.54 141.07 289.19 106.33 275.67 310.38 257.61 532.50 513.80 572.38 162.23 392.39 275.35 467.65 352.26 143.93 169.33 343.54 454.20 187.53 261.27 244.18 422.56 483.71 157.78 440.91 174.02 284.58 0.00 159.02 217.34 163.39 217.60 470.83 332.22 290.04 349.58 512.11 422.75 314.89 253.21 455.55 547.12 179.92 442.19 184.37 492.30 488.31 372.04 204.40 415.00 327.32
124.04 438.05 92.51 98.60 106.45 245.91 297.42 88.86 187.14 247.61 271.63 108.33 143.21 112.10 248.96 114.32 152.68 427.33 60.64 147.98 128.48 277.61 439.89 39.79 209.59 110.28 484.44 169.95 423.38 320.18 339.43 410.24 180.00 492.66 117.66 506.65 128.08 104.00 579.92 554.60 85.68 116.83 145.18 398.84 543.49 343.80 294.16 455.55 247.10 256.60 315.68 500.27 355.14 168.08 110.33 173.11 209.03 132.16 204.27 344.09 172.39 472.15 453.45 574.69 116.96 329.86 210.06 443.70 302.21 207.40 107.08 330.06 471.96 79.81 293.47 172.50 362.21 423.36 84.74 404.09 56.34 302.34 159.02 0.00 146.99 101.14 147.54 450.88 278.74 293.50 318.69 482.50 385.93 269.37 210.10 463.62 514.59 134.26 420.85 132.17 451.84 433.40 377.12 62.94 317.03 297.87
238.94 376.20 141.32 71.96 72.16 244.88 354.01 105.86 130.67 152.37 169.68 46.48 154.11 191.38 181.69 193.00 53.79 500.40 155.52 56.94 145.48 378.06 495.03 138.82 69.32 98.11 530.46 277.27 459.80 275.52 466.43 517.56 33.01 548.43 60.71 585.33 149.91 128.84 627.55 592.93 116.08 50.52 131.13 491.86 535.17 423.99 256.92 511.50 110.11 139.67 374.76 582.20 448.94 187.34 119.80 179.01 101.28 165.16 96.51 401.52 59.72 558.14 564.79 635.38 55.11 239.73 69.96 505.55 412.11 183.10 87.64 416.65 497.93 98.56 372.75 54.59 489.21 477.40 117.94 457.76 111.81 390.26 217.34 146.99 0.00 110.37 83.38 505.26 325.49 370.40 413.57 540.55 439.81 352.42 115.45 541.79 580.43 140.16 476.32 53.54 493.31 522.74 472.87 104.41 239.92 166.52
167.79 401.77 139.73 96.86 60.21 169.33 354.15 12.28 213.14 168.38 267.72 72.05 93.45 144.49 181.91 82.63 69.68 518.13 90.53 156.18 51.90 362.25 435.17 79.79 165.66 22.88 433.96 268.99 431.64 257.50 440.57 507.45 115.81 516.99 75.55 474.96 48.85 43.47 574.18 534.09 111.68 93.30 63.04 418.43 534.86 422.40 198.26 488.02 164.10 200.72 374.85 572.66 401.85 126.03 143.71 115.81 175.67 87.78 178.94 326.29 141.29 557.92 529.43 635.52 79.02 293.58 135.73 479.76 367.54 116.35 22.73 400.84 466.49 90.28 325.86 111.20 463.35 524.50 34.60 450.93 50.60 392.72 163.39 101.14 110.37 0.00 70.93 503.47 320.11 370.54 348.58 446.98 452.70 336.61 125.75 498.21 537.56 76.96 415.11 66.43 493.45 501.17 413.42 104.55 336.26 223.17
210.35 356.92 141.58 75.10 84.44 206.03 365.29 78.12 199.76 165.50 253.06 58.08 141.28 181.66 139.63 153.56 29.59 540.89 136.56 129.50 88.60 378.32 475.77 135.01 141.43 65.51 504.89 277.53 446.11 294.67 466.69 517.82 114.07 560.03 60.97 545.89 79.15 97.27 614.78 555.89 119.33 93.03 54.06 468.20 573.31 424.25 211.08 522.78 124.01 185.01 375.02 609.83 451.76 130.13 120.06 112.11 163.34 141.25 154.44 368.92 132.38 513.34 547.23 638.02 55.37 248.96 123.40 516.83 385.69 121.82 59.90 416.91 509.53 98.82 359.46 92.71 475.77 538.56 77.16 445.74 91.20 390.52 217.60 147.54 83.38 70.93 0.00 505.52 328.63 381.68 394.61 517.91 445.50 352.68 92.56 527.47 580.69 89.93 455.71 59.23 504.59 523.00 450.59 115.69 312.03 173.32
400.70 778.27 406.02 446.04 459.26 648.71 204.52 507.19 464.00 598.62 604.98 458.78 507.79 448.26 621.51 520.21 500.90 141.32 456.41 507.10 532.16 202.54 109.07 447.07 547.99 511.14 74.12 310.20 172.81 707.94 114.58 212.95 522.42 95.21 455.75 720.22 527.61 510.02 269.58 134.61 444.80 459.24 533.26 194.46 195.84 123.61 682.09 40.46 593.80 533.60 205.04 145.94 125.01 551.29 385.46 584.71 539.31 518.84 520.80 263.35 506.82 126.26 101.00 164.34 450.15 548.78 544.19 23.71 221.47 595.49 489.77 180.93 52.77 422.22 357.09 500.84 131.29 133.60 481.27 170.48 452.87 186.25 470.83 450.88 505.26 503.47 505.52 0.00 257.01 218.43 198.36 165.04 152.32 228.18 568.15 36.53 159.23 556.97 89.01 480.56 22.27 17.48 172.74 405.35 544.21 626.21
250.54 557.19 196.70 253.53 278.98 428.40 81.70 322.50 375.95 431.15 425.57 281.89 292.67 256.42 396.13 309.41 321.79 297.87 339.38 342.80 310.97 106.76 247.07 318.53 374.28 325.65 280.20 108.79 245.00 531.49 224.72 260.92 353.58 316.53 278.86 624.44 338.65 335.84 432.67 361.03 284.06 274.97 345.51 215.95 372.20 251.57 476.65 287.56 373.52 312.52 90.73 356.22 170.76 324.80 224.72 392.70 365.60 303.72 347.09 159.23 341.71 354.89 336.19 397.32 273.26 463.16 373.98 262.51 147.06 413.27 304.28 151.09 266.03 285.74 261.31 362.08 244.95 307.74 297.91 239.73 269.51 109.52 332.22 278.74 325.49 320.11 328.63 257.01 0.00 98.09 174.52 337.05 221.57 103.29 375.64 280.49 372.06 380.08 267.13 303.67 279.28 274.49 196.98 268.87 392.13 468.63
279.90 655.28 294.79 306.68 319.90 483.87 16.39 367.83 383.34 440.87 470.51 327.02 365.05 271.18 409.79 372.37 374.94 232.56 308.57 342.68 392.80 15.89 180.59 333.29 383.14 367.85 234.38 123.55 193.71 585.18 158.24 176.63 395.43 263.16 320.71 533.57 397.80 397.50 367.36 304.85 322.36 319.88 393.90 128.50 320.91 153.48 515.77 234.19 448.02 410.61 24.25 266.02 93.42 395.93 279.21 431.11 374.46 354.00 355.95 64.44 367.09 288.16 269.46 330.84 326.31 496.28 414.40 197.20 75.28 433.97 350.41 55.58 212.66 282.86 170.44 405.35 178.22 241.01 348.34 174.42 319.94 43.04 290.04 293.50 370.40 370.54 381.68 218.43 98.09 0.00 108.04 270.57 156.26 41.53 428.79 199.98 305.58 427.63 200.65 344.34 240.70 234.74 106.78 265.99 467.85 492.72
343.96 674.21 371.22 385.84 341.41 459.44 104.84 336.30 442.88 466.81 533.03 367.77 340.62 374.57 481.49 321.85 398.83 240.20 258.05 377.16 374.96 121.86 135.10 313.22 450.02 357.72 196.02 226.94 152.82 589.29 192.20 282.60 439.87 258.61 365.15 609.68 347.28 367.49 399.10 296.15 398.09 386.00 372.37 188.52 280.02 137.84 514.62 204.52 490.84 487.04 83.79 326.04 155.79 375.61 338.75 419.11 438.21 329.57 439.50 172.48 401.57 290.32 267.13 328.40 370.75 550.39 462.20 218.42 181.25 440.13 354.52 161.54 224.43 347.20 246.55 435.22 182.35 217.20 317.45 172.11 333.69 94.55 349.58 318.69 413.57 348.58 394.61 198.36 174.52 108.04 0.00 226.55 190.27 132.89 421.00 234.23 260.09 395.35 132.43 384.64 186.33 180.88 166.80 354.44 475.05 516.72
468.58 730.27 421.37 514.15 503.65 616.31 267.37 459.26 522.81 615.36 646.30 503.05 540.43 504.46 628.89 529.61 516.66 277.27 484.60 564.75 498.88 281.56 114.18 517.71 556.48 469.86 108.23 356.83 109.82 704.48 260.45 377.96 562.79 143.23 488.82 770.79 495.83 490.45 260.54 208.36 517.01 519.10 510.02 307.72 87.88 138.70 645.24 154.06 546.60 485.60 246.32 292.10 249.04 573.01 457.67 562.79 558.83 534.76 546.41 312.20 579.03 239.86 225.89 265.25 494.42 537.31 558.37 170.33 270.32 563.33 469.71 229.78 132.53 510.41 407.66 558.18 239.83 269.55 481.58 129.11 458.63 227.53 512.11 482.50 540.55 446.98 517.91 165.04 337.05 270.57 226.55 0.00 140.85 283.92 572.73 172.48 128.63 523.94 94.12 487.01 170.63 147.56 286.00 493.54 546.53 644.36
372.33 739.83 369.21 430.16 431.73 567.85 139.87 440.42 450.44 570.60 512.90 410.11 491.00 363.61 540.95 483.08 440.95 253.32 441.28 475.39 450.42 164.93 67.99 424.02 482.37 459.73 138.46 215.98 37.45 673.13 235.12 325.67 463.58 196.83 414.01 682.61 478.10 461.57 211.10 238.59 427.06 443.36 481.85 234.91 164.65 86.54 605.09 138.74 497.03 534.09 156.96 283.56 212.70 520.07 385.01 536.26 497.71 479.95 479.43 220.70 482.47 224.54 210.57 250.71 416.68 396.46 457.77 128.61 224.32 515.83 438.36 209.26 158.35 394.69 319.48 485.16 212.34 245.60 467.78 18.16 439.38 175.75 422.75 385.93 439.81 452.70 445.50 152.32 221.57 156.26 190.27 140.85 0.00 167.92 521.91 148.53 192.98 504.00 74.87 386.27 156.93 166.15 213.19 389.47 435.58 556.30
289.65 627.96 299.99 317.04 315.45 442.34 28.05 348.89 408.19 466.45 482.17 305.94 323.52 280.93 451.32 371.12 348.06 244.22 330.01 367.53 387.06 25.64 193.94 309.16 394.80 359.26 258.54 133.30 205.37 564.36 179.54 186.38 366.43 276.51 291.71 543.32 385.46 373.37 379.02 314.60 334.02 331.54 388.02 142.17 332.57 195.01 497.52 239.39 441.64 415.81 49.10 279.69 103.17 354.40 304.06 425.67 386.12 312.47 367.61 101.57 391.94 275.16 241.27 319.18 297.31 487.57 410.43 208.86 59.69 442.65 344.53 64.23 226.01 294.52 180.19 388.01 187.97 250.76 314.41 186.08 286.01 56.39 314.89 269.37 352.42 336.61 352.68 228.18 103.29 41.53 132.89 283.92 167.92 0.00 416.80 208.63 318.93 403.63 214.00 319.45 221.20 245.66 120.45 277.65 479.51 489.48
272.34 351.93 205.70 122.11 141.30 159.88 412.40 121.24 246.12 72.94 238.20 117.19 185.21 224.78 66.24 161.35 83.88 610.20 199.49 160.99 130.14 437.46 556.10 178.13 145.94 122.97 559.71 341.65 538.67 256.82 530.81 581.94 105.51 619.14 125.09 553.68 123.08 141.20 697.77 648.45 172.16 143.55 97.99 515.43 650.62 488.37 172.22 561.44 80.25 141.25 433.45 628.05 500.19 194.56 184.18 162.96 148.82 185.18 144.58 426.38 155.28 605.90 620.26 693.77 119.49 312.55 108.88 563.94 429.62 165.75 103.02 470.16 568.64 162.94 406.15 87.53 553.59 592.85 160.35 538.30 174.19 452.24 253.21 210.10 115.45 125.75 92.56 568.15 375.64 428.79 421.00 572.73 521.91 416.80 0.00 581.76 644.81 128.13 538.70 135.64 551.70 585.63 493.71 162.80 316.54 110.99
383.20 791.26 411.81 478.53 491.75 636.19 210.81 510.49 500.53 610.61 609.45 495.31 529.50 430.76 609.77 536.96 497.88 104.79 473.16 508.19 518.76 196.85 114.55 483.60 557.67 521.09 64.25 303.36 168.33 734.76 124.19 218.88 535.41 131.74 492.28 685.41 491.08 521.17 303.80 147.60 481.33 491.73 516.17 189.48 232.37 129.14 673.19 74.68 592.30 546.59 189.76 166.52 161.54 533.79 421.99 562.91 554.24 518.45 548.13 226.82 510.20 121.60 95.04 195.37 486.68 544.99 557.18 36.70 184.94 583.93 520.94 144.40 89.30 454.71 322.28 513.83 101.41 97.07 494.26 166.69 465.86 170.97 455.55 463.62 541.79 498.21 527.47 36.53 280.49 199.98 234.23 172.48 148.53 208.63 581.76 0.00 167.85 539.15 101.80 516.19 56.49 54.01 183.28 437.84 580.74 639.20
530.77 855.97 462.89 545.05 541.46 658.42 302.38 549.84 573.72 667.62 691.76 533.95 517.50 542.56 702.14 568.13 576.07 260.53 518.14 599.76 588.89 309.72 124.99 474.80 645.22 560.44 103.60 394.93 206.90 755.19 273.71 356.24 594.44 156.96 519.72 827.40 579.63 570.24 139.01 158.93 558.53 564.57 593.40 248.74 114.11 180.22 713.60 127.99 608.74 614.23 281.33 243.63 232.19 577.60 499.19 641.75 634.42 528.55 618.03 356.18 620.55 213.79 199.82 214.51 525.32 589.44 638.44 165.70 345.37 653.91 549.91 312.25 106.46 550.33 464.27 616.02 251.62 264.92 537.96 204.34 509.56 262.54 547.12 514.59 580.43 537.56 580.69 159.23 372.06 305.58 260.09 128.63 192.98 318.93 644.81 167.85 0.00 614.52 145.05 547.46 144.56 160.82 270.46 533.46 597.90 717.49
224.59 426.27 193.03 126.55 129.13 159.39 415.17 81.20 251.21 167.60 231.60 109.04 105.17 202.91 140.63 150.28 86.37 555.03 137.30 176.00 75.75 411.87 504.94 149.34 198.21 59.78 510.92 304.21 508.60 300.76 473.69 539.90 160.38 593.95 112.42 542.61 48.07 61.52 651.14 611.05 160.41 147.99 42.35 470.61 606.83 461.57 162.40 564.98 152.34 213.34 421.62 608.13 471.40 138.92 171.51 38.85 180.02 94.12 198.53 363.19 176.73 581.47 587.71 690.29 106.82 330.57 180.18 556.72 373.98 73.14 81.15 414.52 543.45 148.70 381.86 143.39 496.47 557.62 109.69 522.16 127.56 436.60 179.92 134.26 140.16 76.96 89.93 556.97 380.08 427.63 395.35 523.94 504.00 403.63 128.13 539.15 614.52 0.00 484.88 132.88 548.22 567.66 448.89 165.57 368.81 225.10
385.72 759.56 377.13 432.52 419.70 578.86 189.95 427.39 521.49 578.45 587.77 429.84 458.96 433.28 591.95 454.28 477.12 206.59 390.48 475.89 467.01 211.64 20.06 423.59 532.35 425.10 63.59 290.00 108.50 670.45 176.41 294.97 502.25 146.62 428.01 729.32 463.96 458.58 284.06 163.72 454.63 453.96 477.71 226.53 182.00 142.64 613.37 117.65 571.38 579.65 176.40 209.69 172.39 503.39 395.29 516.28 536.94 453.82 529.51 251.25 500.30 203.45 189.40 250.67 433.61 471.33 518.23 112.72 271.03 531.46 435.68 245.13 96.12 419.65 366.19 480.67 153.63 198.87 392.91 89.21 364.51 157.61 442.19 420.85 476.32 415.11 455.71 89.01 267.13 200.65 132.43 94.12 74.87 214.00 538.70 101.80 145.05 484.88 0.00 453.68 108.60 106.49 204.81 418.46 501.20 606.04
210.63 353.56 116.62 50.14 50.20 211.20 327.95 54.15 174.80 196.67 212.62 23.84 123.16 163.07 154.68 146.76 54.68 507.28 132.40 107.57 93.77 345.09 454.26 116.86 99.23 73.46 500.39 238.73 408.21 286.86 441.73 479.02 77.31 525.79 27.74 539.09 105.39 75.30 597.37 548.86 76.34 71.58 95.58 460.30 535.41 399.29 218.82 485.44 122.19 170.11 349.00 599.14 418.53 133.80 95.10 149.99 131.19 134.21 116.18 376.87 113.26 571.24 543.27 609.32 30.41 245.37 121.31 479.49 379.14 129.56 52.09 383.68 475.29 65.59 344.44 98.89 464.51 503.46 84.97 404.43 89.17 357.29 184.37 132.17 53.54 66.43 59.23 480.56 303.67 344.34 384.64 487.01 386.27 319.45 135.64 516.19 547.46 132.88 453.68 0.00 467.25 498.04 439.90 78.35 269.83 170.03
422.97 779.65 412.61 429.59 442.81 633.14 226.79 490.74 486.27 584.39 582.71 449.93 526.95 470.53 617.94 508.18 497.85 122.08 444.38 507.57 515.71 224.81 128.66 469.34 535.55 494.69 70.63 332.47 194.38 708.09 136.85 235.22 518.34 75.76 443.62 741.90 533.61 521.93 247.31 133.10 445.27 442.79 516.81 205.36 218.11 129.94 673.24 18.19 587.09 555.87 226.51 163.01 147.28 561.94 407.73 568.76 548.74 515.90 530.23 283.31 509.53 103.99 80.80 142.07 449.22 553.39 544.38 45.98 241.43 584.57 473.32 200.89 38.10 405.77 378.77 523.11 153.56 145.08 471.25 175.09 442.85 207.72 492.30 451.84 493.31 493.45 504.59 22.27 279.28 240.70 186.33 170.63 156.93 221.20 551.70 56.49 144.56 548.22 108.60 467.25 0.00 39.75 195.01 388.90 529.54 637.28
414.53 792.10 412.41 463.52 476.74 640.21 218.35 513.45 481.48 612.45 622.46 476.26 521.50 462.09 638.99 502.73 518.38 158.80 438.93 524.58 522.78 220.02 111.24 464.55 565.47 524.05 67.21 327.68 155.33 725.42 112.89 230.40 536.25 77.73 473.23 737.70 528.16 527.50 268.65 148.44 462.28 476.72 550.74 176.98 178.36 137.44 688.46 39.53 607.63 547.43 222.52 163.42 142.49 556.49 402.94 599.99 556.79 510.45 538.28 272.05 524.30 125.33 111.36 181.82 467.63 562.61 558.02 37.54 230.17 612.97 507.25 198.41 54.36 439.70 374.57 514.67 135.67 151.08 495.10 174.62 466.70 203.73 488.31 433.40 522.74 501.17 523.00 17.48 274.49 234.74 180.88 147.56 166.15 245.66 585.63 54.01 160.82 567.66 106.49 498.04 39.75 0.00 155.26 422.83 545.80 640.04
295.02 724.20 393.68 413.46 426.68 558.51 123.17 408.91 433.27 547.65 525.94 426.39 441.32 342.58 516.57 387.63 447.36 144.68 389.65 424.68 441.08 108.67 184.75 397.58 464.78 412.06 222.47 216.33 250.64 625.46 59.09 129.22 481.57 212.32 412.16 597.23 431.63 440.10 409.47 300.35 420.55 426.66 406.54 21.72 333.62 186.78 563.56 194.79 504.15 509.50 106.25 159.24 79.74 441.39 361.21 471.51 466.06 430.27 462.73 116.79 448.09 191.05 173.11 257.68 417.76 563.14 501.84 189.45 74.91 474.30 390.69 56.22 205.47 389.64 234.10 479.60 81.87 143.02 428.21 231.35 406.46 87.46 372.04 377.12 472.87 413.42 450.59 172.74 196.98 106.78 166.80 286.00 213.19 120.45 493.71 183.28 270.46 448.89 204.81 439.90 195.01 155.26 0.00 372.77 563.16 585.50
144.59 390.75 72.17 40.69 53.91 244.24 249.60 101.84 157.83 229.46 255.89 61.03 146.85 136.55 229.04 138.76 108.95 464.13 106.02 118.67 126.81 274.66 426.99 86.14 146.65 105.79 459.53 195.58 426.92 319.19 402.37 435.40 129.44 464.66 54.72 531.09 153.00 133.03 577.53 512.04 56.37 53.89 127.91 387.45 523.15 354.84 284.34 407.09 198.19 193.66 270.65 532.01 344.53 185.37 54.44 179.86 159.84 135.80 141.33 330.43 120.63 492.89 469.70 530.97 60.32 271.29 155.48 401.14 334.05 195.67 84.42 318.99 427.00 16.87 317.92 139.36 425.15 483.97 82.35 407.63 53.95 289.44 204.40 62.94 104.41 104.55 115.69 405.35 268.87 265.99 354.44 493.54 389.47 277.65 162.80 437.84 533.46 165.57 418.46 78.35 388.90 422.83 372.77 0.00 287.72 248.38
382.66 473.91 309.14 254.55 283.25 437.91 451.46 323.98 129.89 332.74 175.78 282.91 373.28 335.10 344.27 404.64 282.44 626.74 366.61 228.63 343.73 476.52 481.14 344.10 170.60 336.23 523.97 438.36 436.71 431.32 596.89 616.69 233.69 541.94 279.88 796.97 335.98 330.24 626.77 586.44 231.35 275.99 348.63 584.88 563.91 497.02 450.25 512.97 264.51 241.48 472.51 657.79 483.42 403.63 290.69 393.72 202.56 383.11 197.79 532.29 219.05 598.77 584.80 663.96 274.28 75.34 207.66 554.16 535.91 399.39 321.92 520.85 491.44 283.76 516.47 251.01 575.38 637.53 318.87 417.42 322.56 491.30 415.00 317.03 239.92 336.26 312.03 544.21 392.13 467.85 475.05 546.53 435.58 479.51 316.54 580.74 597.90 368.81 501.20 269.83 529.54 545.80 563.16 287.72 0.00 309.68
380.66 398.83 271.93 220.17 220.23 263.24 497.98 210.89 278.54 101.17 206.42 193.87 264.08 333.10 177.23 272.34 188.49 637.72 258.67 198.83 218.09 476.83 624.29 286.89 139.08 232.31 634.49 369.17 578.24 160.34 611.76 609.46 133.51 695.82 197.77 664.67 220.69 242.08 731.98 713.40 224.43 202.80 208.98 599.16 701.69 554.60 233.93 648.91 121.58 158.76 482.65 702.56 554.36 302.60 265.13 186.25 171.04 253.03 166.27 531.43 187.53 674.99 692.60 779.35 200.44 249.12 141.28 602.50 532.31 235.10 214.01 529.28 645.32 235.62 462.39 125.37 634.54 643.92 250.48 574.46 241.53 501.44 327.32 297.87 166.52 223.17 173.32 626.21 468.63 492.72 516.72 644.36 556.30 489.48 110.99 639.20 717.49 225.10 606.04 170.03 637.28 640.04 585.50 248.38 309.68 0.00
DEMAND_SECTION
1 0
2 53
3 81
4 56
5 72
6 47
7 35
8 100
9 71
10 95
11 81
12 93
13 7
14 50
15 55
16 38
17 77
18 47
19 82
20 91
21 89
22 7
23 4
24 89
25 80
26 65
27 14
28 22
29 31
30 88
31 16
32 93
33 93
34 7
35 71
36 43
37 88
38 84
39 28
40 48
41 67
42 56
43 99
44 50
45 48
46 19
47 6
48 2
49 64
50 73
51 5
52 37
53 38
54 1
55 59
56 59
57 88
58 44
59 94
60 99
61 95
62 43
63 7
64 2
65 73
66 51
67 88
68 12
69 23
70 37
71 87
72 5
73 20
74 68
75 80
76 83
77 14
78 31
79 58
80 18
81 83
82 4
83 15
84 53
85 100
86 96
87 89
88 12
89 9
90 10
91 12
92 26
93 50
94 35
95 73
96 3
97 39
98 89
99 13
100 52
101 48
102 20
103 13
104 87
105 66
106 53
DEPOT_SECTION
1
-1
EOF
