NAME: LDG115_1144_fog_115_0103
COMMENT: CVRP with travel times.  rootPos=1,custPos=1,demandType=4,avgRouteSizeIndex=4,weather=fog,lambda_cluster=1,lambda_random=4, T1=300,T2=700,beta=1, alpha(i,j) ~ U(0.8,1.2)
TYPE: CVRP
DIMENSION: 116
EDGE_WEIGHT_TYPE: EXPLICIT
EDGE_WEIGHT_FORMAT: FULL_MATRIX
CAPACITY: 714
NODE_COORD_SECTION
1 6 835
2 800 447
3 741 464
4 680 756
5 28 467
6 507 818
7 839 742
8 329 479
9 234 217
10 441 386
11 691 670
12 968 708
13 618 937
14 275 237
15 647 602
16 232 387
17 706 744
18 952 718
19 783 585
20 223 743
21 978 501
22 938 649
23 648 708
24 515 287
25 75 981
26 782 234
27 387 373
28 893 584
29 821 953
30 921 352
31 451 218
32 120 446
33 416 553
34 465 82
35 754 104
36 801 15
37 540 825
38 156 790
39 317 828
40 858 238
41 480 467
42 676 562
43 321 535
44 24 473
45 977 638
46 891 39
47 716 932
48 145 275
49 723 339
50 617 489
51 950 548
52 959 435
53 44 571
54 496 98
55 326 10
56 811 646
57 313 238
58 398 457
59 622 13
60 589 276
61 179 454
62 515 30
63 246 342
64 112 663
65 693 405
66 317 319
67 634 517
68 631 747
69 766 52
70 8 983
71 961 514
72 489 66
73 712 19
74 805 79
75 629 902
76 432 717
77 48 840
78 959 578
79 107 758
80 756 860
81 341 651
82 615 664
83 360 327
84 28 200
85 831 648
86 626 387
87 780 187
88 141 848
89 500 958
90 425 297
91 427 636
92 296 271
93 482 41
94 587 266
95 400 86
96 485 466
97 333 706
98 925 211
99 882 150
100 143 59
101 712 351
102 329 174
103 659 164
104 249 313
105 322 951
106 987 780
107 174 934
108 445 607
109 323 477
110 881 398
111 421 937
112 375 705
113 737 589
114 187 944
115 924 287
116 773 551
EDGE_WEIGHT_SECTION
0.00 971.68 913.38 692.14 453.22 533.94 877.44 507.66 670.20 671.01 726.69 1044.68 642.18 731.46 758.04 605.74 744.10 1026.24 864.78 270.67 1064.47 989.25 684.01 826.04 184.57 917.36 666.42 962.28 839.66 1080.86 826.79 518.38 591.95 923.12 1091.58 1147.36 573.31 217.79 353.81 1039.65 602.00 795.45 504.22 439.12 1044.20 1129.73 762.51 659.84 877.99 737.69 1013.55 1074.36 332.84 936.25 946.53 893.97 669.12 550.68 1069.48 859.32 538.66 952.00 670.37 199.64 814.98 715.63 743.48 625.09 1125.61 168.78 1073.79 883.35 1157.89 1103.57 683.38 510.24 50.40 986.08 158.58 797.33 426.89 708.08 700.27 729.48 886.03 781.30 968.77 157.54 570.05 736.15 548.44 682.72 934.33 880.86 842.00 595.17 419.96 1084.24 1063.17 902.63 854.46 803.20 967.64 638.02 373.62 1063.90 256.38 549.46 522.93 1027.00 469.36 498.91 801.60 262.28 1106.65 881.42
971.68 0.00 75.48 363.86 771.49 502.98 291.80 524.98 644.76 422.57 285.88 320.56 590.41 588.47 298.94 657.68 360.23 342.88 175.48 765.58 253.34 250.21 352.02 360.33 970.04 217.19 464.29 264.07 571.08 149.90 424.35 647.98 506.40 500.04 391.41 427.70 508.16 807.54 640.06 312.22 369.68 252.32 581.12 757.39 305.16 485.15 548.29 707.84 129.63 261.09 223.40 163.60 858.41 503.17 674.01 254.25 585.18 468.34 517.50 301.39 654.64 551.15 621.55 796.08 158.73 575.59 242.24 361.47 451.24 1020.64 202.81 543.36 495.95 403.40 549.21 515.18 921.28 282.56 849.23 482.58 558.83 312.41 507.12 819.28 251.96 190.38 268.60 829.02 668.28 492.85 501.63 568.14 492.38 319.80 581.16 376.51 624.40 315.08 363.00 830.29 153.16 599.98 335.16 639.46 738.74 442.24 863.58 471.40 540.25 167.33 664.20 596.95 202.00 864.15 262.47 124.82
913.38 75.48 0.00 323.11 764.83 437.23 367.28 449.50 596.39 382.90 259.44 390.82 537.04 550.78 238.62 606.77 312.84 417.51 177.11 690.10 314.47 325.69 304.63 329.26 904.29 258.42 388.81 273.25 548.41 225.38 438.83 673.27 457.76 535.74 414.38 488.42 473.40 741.41 564.58 380.71 321.30 176.84 525.34 778.93 374.52 526.38 491.32 674.84 165.33 185.61 267.51 226.19 845.32 530.14 598.53 249.82 559.80 412.56 558.73 294.81 650.45 572.15 546.07 737.78 107.69 512.48 184.91 363.55 469.09 945.16 278.29 512.41 518.92 444.63 545.14 457.85 862.98 302.49 809.38 435.19 501.50 253.67 446.08 836.17 253.59 204.86 309.83 760.85 637.03 461.78 448.02 537.07 519.99 273.27 554.37 318.21 548.92 390.56 404.23 785.05 172.57 563.78 370.86 563.98 672.99 479.28 797.83 395.92 464.77 166.96 664.16 539.62 154.61 788.67 292.69 134.00
692.14 363.86 323.11 0.00 696.45 253.69 224.73 489.19 687.93 435.72 102.34 360.79 280.76 635.01 182.35 637.26 51.96 334.10 270.37 556.73 415.19 306.54 87.07 536.44 661.78 562.15 471.45 292.71 262.65 513.76 579.07 712.96 381.13 731.99 697.95 791.56 225.60 581.90 501.53 597.96 336.38 241.87 506.68 710.55 357.46 755.54 189.13 731.51 447.29 328.42 369.72 482.95 738.04 731.25 836.51 222.63 637.51 423.90 797.93 514.07 662.46 791.41 600.64 608.16 390.37 560.64 306.18 67.05 747.74 767.09 392.91 730.81 772.39 748.36 254.79 310.64 641.74 347.73 656.70 149.43 382.54 135.23 502.75 847.51 193.89 414.60 613.56 534.60 373.86 585.27 352.45 584.19 781.79 535.61 773.25 329.55 376.90 643.06 633.39 871.87 455.25 663.90 609.09 636.02 458.40 412.78 614.29 381.55 504.46 447.38 393.00 386.97 210.19 639.34 571.93 290.01
453.22 771.49 764.83 696.45 0.00 680.28 921.18 324.37 383.98 487.72 752.71 972.64 848.05 395.71 703.75 273.15 748.41 999.33 804.15 397.25 976.27 902.29 688.32 559.64 562.85 872.05 423.17 868.69 959.10 904.92 529.89 123.51 446.32 659.15 792.95 896.43 719.65 347.87 516.47 869.16 509.56 708.67 360.48 14.10 957.24 976.24 874.99 283.31 749.65 645.25 945.70 935.09 120.38 645.73 521.51 830.21 405.15 411.92 778.68 630.42 204.70 664.52 252.72 274.25 719.55 357.95 579.92 629.40 852.78 622.00 974.30 626.59 829.82 873.29 806.85 535.43 465.21 962.16 316.17 845.88 441.21 678.33 425.94 365.01 841.60 688.86 871.12 408.12 782.53 477.15 536.78 351.83 655.33 644.31 578.03 506.27 483.56 963.83 919.47 537.97 757.13 487.50 782.41 288.10 624.20 923.33 508.33 502.77 339.64 898.34 679.26 475.81 746.39 512.86 920.03 826.21
533.94 502.98 437.23 253.69 680.28 0.00 343.50 485.36 731.25 429.55 261.65 510.74 196.95 671.31 334.50 559.00 291.38 512.37 413.33 341.38 601.66 526.59 245.45 587.52 467.06 624.85 503.53 497.24 324.42 652.88 618.14 648.57 335.70 771.06 799.07 854.85 39.37 403.44 286.69 728.44 375.45 306.04 407.94 666.18 520.47 892.81 311.14 708.09 551.00 433.96 548.51 608.38 559.90 728.88 875.58 429.21 667.67 416.32 871.60 629.90 563.72 812.21 598.38 406.03 544.92 556.19 423.01 197.92 858.90 572.37 553.08 781.78 854.48 811.06 167.35 241.59 483.54 588.45 461.03 263.39 357.55 287.36 560.80 878.91 447.58 549.46 676.26 376.40 203.00 576.43 317.75 615.88 801.50 651.44 805.93 382.28 278.33 791.73 770.66 867.42 527.47 721.95 756.53 633.76 235.76 564.59 360.60 265.65 473.11 604.19 230.13 323.36 388.40 393.64 717.32 379.47
877.44 291.80 367.28 224.73 921.18 343.50 0.00 615.18 802.69 529.33 182.01 167.24 356.16 751.60 223.45 709.33 172.77 168.87 225.91 684.88 260.78 183.09 243.94 631.58 810.56 508.99 578.72 182.41 308.06 437.25 672.68 837.24 503.19 791.84 650.72 706.50 349.13 733.21 556.38 536.08 429.99 310.95 603.25 935.28 176.97 724.97 337.19 858.42 421.43 369.52 207.63 330.30 900.46 790.50 876.47 149.71 705.01 528.65 808.57 555.17 751.60 832.51 710.69 749.53 450.53 667.91 347.28 291.78 677.84 915.87 269.52 799.89 755.26 686.10 314.96 483.67 827.04 244.95 750.12 226.46 544.96 263.77 635.99 954.78 178.45 480.36 527.91 719.90 493.16 655.69 486.99 691.46 784.18 576.71 868.39 436.82 564.50 579.53 617.71 968.96 444.96 781.13 626.96 735.67 579.26 268.23 704.10 460.96 603.78 408.29 539.89 517.03 228.59 737.14 495.94 276.57
507.66 524.98 449.50 489.19 324.37 485.36 615.18 0.00 291.11 163.35 462.62 664.14 606.21 285.51 391.73 157.27 499.61 690.82 508.17 309.87 651.90 674.06 428.44 321.32 652.04 593.17 158.76 657.87 698.18 667.59 363.22 223.77 149.66 511.46 621.99 685.21 448.63 422.03 402.06 680.91 185.19 405.09 80.06 333.18 729.01 749.26 573.79 306.36 456.29 320.88 690.51 675.69 395.82 462.68 508.10 532.67 278.69 87.55 616.68 397.73 200.95 541.29 206.69 384.64 401.71 207.97 372.45 487.36 617.95 633.42 685.35 472.64 685.88 668.10 612.62 300.70 457.26 670.99 429.52 584.96 211.84 353.96 208.17 534.83 561.41 364.49 558.71 482.28 547.72 272.58 265.35 225.37 523.62 405.99 451.57 181.90 271.07 703.01 735.50 519.20 432.76 332.64 470.56 239.09 522.85 784.67 582.49 222.35 15.27 612.84 481.36 287.91 487.45 560.56 600.43 528.90
670.20 644.76 596.39 687.93 383.98 731.25 802.69 291.11 0.00 313.25 699.31 914.62 780.23 64.27 584.93 215.05 680.94 935.69 698.25 547.56 832.58 864.23 609.77 332.22 776.53 650.26 242.45 781.59 922.98 767.04 226.95 260.47 395.55 324.31 624.76 632.19 700.86 614.71 645.29 695.87 385.88 572.27 339.66 369.88 902.57 723.83 834.36 142.18 519.39 521.57 850.36 776.88 476.16 354.87 308.46 779.89 97.68 334.77 480.41 408.63 311.30 391.59 141.85 470.56 533.57 179.39 541.86 668.69 564.93 838.98 847.57 343.52 570.82 632.12 821.43 561.27 697.46 865.80 587.10 809.76 472.41 607.26 185.18 256.33 774.73 460.92 630.46 658.74 807.32 227.53 534.05 124.41 357.94 416.89 265.37 379.05 530.67 745.33 704.17 289.82 495.86 133.00 479.47 106.47 758.19 932.66 775.17 481.95 275.84 737.61 741.93 548.48 654.63 747.78 701.28 720.97
671.01 422.57 382.90 435.72 487.72 429.55 529.33 163.35 313.25 0.00 402.37 671.89 626.05 248.98 305.88 235.11 487.68 658.61 462.25 473.22 606.44 601.54 418.39 157.97 754.23 476.01 73.98 555.14 692.77 535.09 225.65 387.12 232.92 363.50 458.64 562.12 468.47 585.38 509.49 517.56 99.34 336.27 231.03 492.58 656.49 607.70 619.90 360.01 292.94 234.67 623.91 586.17 491.80 299.33 467.86 504.99 242.16 158.07 479.11 234.38 333.42 382.66 244.43 509.11 276.67 197.65 302.17 477.31 518.47 784.39 575.86 352.23 535.44 504.75 596.90 395.22 620.61 585.14 592.87 579.55 361.29 348.55 131.25 555.11 533.73 240.35 459.21 644.76 584.00 159.57 286.68 188.84 371.95 242.64 389.07 106.17 422.04 571.08 583.49 508.88 269.41 292.40 393.52 249.15 665.31 740.91 647.77 242.19 178.62 488.69 623.51 389.38 418.63 614.73 521.60 462.79
726.69 285.88 259.44 102.34 752.71 261.65 182.01 462.62 699.31 402.37 0.00 326.32 352.25 651.35 140.58 563.24 134.89 299.63 185.87 563.26 340.01 308.95 89.54 507.12 728.71 459.81 476.35 235.59 364.99 435.78 574.91 686.39 321.18 679.84 595.61 689.81 222.28 615.10 540.41 495.62 341.23 139.53 445.31 766.81 330.25 712.27 291.47 712.33 344.95 267.45 286.86 409.53 745.35 628.91 824.40 167.56 644.53 439.89 739.32 463.39 601.09 697.12 574.07 610.63 365.71 579.15 213.86 123.31 655.44 799.97 347.10 628.47 700.15 646.02 311.05 350.02 698.00 329.06 568.11 251.77 389.85 108.66 533.62 866.02 196.30 382.95 511.22 590.86 385.91 484.27 331.88 591.21 679.45 484.93 713.77 348.06 410.10 590.29 602.43 866.89 360.96 648.94 550.48 609.45 497.41 398.99 622.25 314.36 458.59 426.40 413.04 335.02 157.16 655.29 530.16 196.52
1044.68 320.56 390.82 360.79 972.64 510.74 167.24 664.14 914.62 671.89 326.32 0.00 483.84 872.46 379.42 796.02 317.63 26.69 259.48 852.12 228.91 70.35 376.20 618.97 977.80 537.75 692.13 163.39 356.10 395.72 733.30 882.33 608.95 812.70 650.86 721.68 516.37 899.94 723.62 517.06 585.96 385.46 699.90 986.74 99.36 705.95 363.51 945.11 442.29 460.22 206.37 329.04 1002.87 777.89 945.39 197.25 863.12 642.37 823.03 542.56 855.68 819.90 831.59 897.29 479.29 785.17 392.72 427.84 710.69 1035.21 232.84 830.79 755.40 701.28 469.70 628.53 994.28 167.99 894.43 297.42 647.37 366.18 749.40 1110.75 183.00 510.94 543.09 887.14 605.62 719.88 589.40 826.78 812.94 564.10 843.88 592.79 694.94 540.82 612.36 1059.66 418.76 854.61 647.82 866.97 746.50 126.05 871.34 557.61 648.87 376.42 700.65 661.34 322.66 889.42 438.24 302.64
642.18 590.41 537.04 280.76 848.05 196.95 356.16 606.21 780.23 626.05 352.25 483.84 0.00 781.37 375.90 736.16 311.63 484.21 463.71 520.15 602.15 463.50 277.36 684.58 564.14 795.46 629.27 492.12 273.83 736.36 775.27 766.78 480.03 896.68 917.60 987.35 157.58 544.89 440.32 822.50 532.58 439.07 526.15 833.95 518.45 1006.71 120.33 822.54 642.49 514.24 549.00 671.67 742.10 888.83 1023.15 414.37 785.88 566.27 1018.09 702.51 643.35 972.16 709.14 602.98 598.59 747.14 446.74 228.94 959.99 669.45 574.44 928.01 887.08 922.39 41.20 369.83 591.78 491.03 546.31 213.48 458.56 283.37 686.54 1018.48 387.23 622.87 808.76 484.64 137.00 694.64 435.96 752.28 962.17 724.05 921.39 525.75 396.54 836.36 898.94 1045.69 660.50 847.69 837.92 673.76 333.43 448.03 495.19 383.86 615.26 640.72 240.27 407.97 427.38 493.95 733.78 507.20
731.46 588.47 550.78 635.01 395.71 671.31 751.60 285.51 64.27 248.98 651.35 872.46 781.37 0.00 528.15 201.56 686.97 873.60 653.20 556.25 768.31 802.11 617.74 267.95 777.67 585.99 180.33 729.81 897.66 738.37 181.14 311.97 382.23 316.34 585.66 615.35 687.79 601.22 614.03 662.42 321.61 544.88 350.92 409.81 850.79 699.16 824.14 142.31 516.12 457.30 800.24 752.07 503.80 328.45 283.79 726.97 62.34 281.85 434.60 344.36 288.26 357.42 142.99 534.83 480.65 115.12 479.74 673.11 599.38 866.53 791.28 318.85 512.61 605.67 806.92 550.14 681.06 807.41 584.28 784.44 424.71 557.16 132.26 320.60 729.68 415.11 593.21 600.93 789.42 215.11 485.02 60.14 333.27 352.62 235.22 314.78 507.56 681.06 639.90 334.85 492.59 108.33 433.66 107.61 744.70 897.32 734.95 461.51 270.24 692.67 736.33 515.59 627.24 705.67 677.20 684.78
758.04 298.94 238.62 182.35 703.75 334.50 223.45 391.73 584.93 305.88 140.58 379.42 375.90 528.15 0.00 485.88 188.21 352.73 200.58 560.12 393.34 340.50 169.43 408.13 747.07 484.27 355.27 313.37 419.92 448.84 449.23 613.79 302.43 602.15 541.70 611.45 361.83 581.06 404.23 478.30 206.54 114.71 379.80 717.85 395.45 660.53 363.88 634.97 266.59 146.07 340.19 403.03 722.30 567.05 706.67 199.11 521.33 305.20 647.93 331.72 535.58 609.06 487.24 568.43 264.51 444.46 123.83 228.35 601.53 852.38 369.35 591.01 590.04 583.23 416.09 331.08 707.64 381.69 622.83 317.03 369.50 92.53 412.54 731.33 227.85 299.96 432.86 600.50 495.64 440.30 289.61 468.01 641.99 353.26 644.94 213.37 414.37 492.16 563.70 745.51 290.12 557.68 462.02 512.22 570.26 452.09 655.50 237.51 380.33 405.58 524.81 364.54 137.40 628.32 389.58 174.12
605.74 657.68 606.77 637.26 273.15 559.00 709.33 157.27 215.05 235.11 563.24 796.02 736.16 201.56 485.88 0.00 656.88 822.70 662.95 366.30 772.70 794.73 585.71 353.89 654.76 671.93 231.16 764.34 819.73 720.83 311.71 168.88 256.13 458.73 560.60 664.08 578.58 399.66 448.44 704.05 318.62 536.97 236.26 278.29 807.91 743.89 705.67 149.09 528.05 454.31 825.85 792.64 313.85 453.50 443.24 684.99 238.71 244.18 565.17 430.30 98.31 524.55 112.75 467.72 511.78 139.77 521.81 644.63 620.43 711.50 810.97 473.66 650.96 640.94 700.46 424.04 555.34 804.42 449.43 733.03 343.72 502.03 173.89 377.56 713.73 475.46 664.87 459.91 703.92 261.94 390.58 185.39 475.81 438.56 411.59 311.79 406.78 764.28 745.44 434.56 504.52 309.89 564.23 108.58 543.14 914.62 560.12 352.30 147.15 625.19 613.24 419.79 619.33 564.65 701.85 660.00
744.10 360.23 312.84 51.96 748.41 291.38 172.77 499.61 680.94 487.68 134.89 317.63 311.63 686.97 188.21 656.88 0.00 290.94 221.41 561.75 433.55 341.77 71.17 561.54 713.74 540.47 508.58 334.01 242.04 510.13 631.03 722.82 406.23 761.00 701.93 740.91 269.33 596.73 545.15 587.02 388.34 240.59 472.12 762.51 349.74 752.56 212.24 783.47 426.82 331.79 380.40 430.99 746.13 754.01 856.01 257.86 679.57 475.86 810.30 519.93 627.90 797.27 625.74 592.26 338.41 612.60 312.04 119.01 695.78 819.05 402.61 729.53 775.76 703.26 270.43 310.90 693.70 379.52 681.40 128.82 417.22 160.33 554.71 899.47 229.12 410.00 591.88 586.56 370.25 585.33 381.93 636.15 750.71 515.63 798.35 381.51 391.73 648.76 630.41 923.83 403.29 715.86 632.35 661.12 478.76 390.30 640.52 329.83 514.88 456.82 383.02 392.67 158.23 673.56 577.79 238.05
1026.24 342.88 417.51 334.10 999.33 512.37 168.87 690.82 935.69 658.61 299.63 26.69 484.21 873.60 352.73 822.70 290.94 0.00 247.23 830.40 237.49 97.04 362.11 645.66 979.43 560.07 708.00 154.10 339.53 369.03 759.99 909.01 585.39 833.77 643.11 746.59 494.75 887.67 725.25 507.77 559.27 373.21 726.59 1013.43 103.13 696.66 390.20 954.10 463.36 486.91 210.14 308.42 976.18 804.58 933.76 206.20 871.49 651.32 831.61 569.25 882.37 846.59 804.90 872.77 488.62 758.48 419.41 401.15 702.94 1008.52 244.33 832.16 747.65 676.90 443.01 601.84 975.84 192.38 867.74 270.73 620.68 339.49 765.27 1084.06 177.46 527.99 569.78 868.70 578.93 710.59 562.71 818.17 835.26 590.79 817.19 566.10 682.67 534.21 614.58 1069.71 439.83 881.30 668.89 840.28 748.13 99.36 872.97 584.30 675.55 385.00 673.96 634.65 310.41 883.88 464.93 293.35
864.78 175.48 177.11 270.37 804.15 413.33 225.91 508.17 698.25 462.25 185.87 259.48 463.71 653.20 200.58 662.95 221.41 247.23 0.00 651.31 235.49 189.13 213.20 479.97 880.39 392.67 472.87 178.08 448.95 325.38 516.40 731.94 413.85 660.76 539.33 595.11 373.96 738.76 604.81 399.63 362.91 125.98 508.26 818.25 244.08 566.41 399.26 706.87 290.35 253.90 182.34 279.57 788.88 650.38 764.12 105.22 641.49 420.62 684.72 415.05 664.04 683.57 616.29 718.82 241.39 587.17 224.23 272.12 599.16 985.70 244.23 614.92 643.87 574.71 450.97 485.82 814.38 229.00 753.98 343.76 497.87 216.68 530.14 874.04 76.48 314.95 416.52 739.67 513.60 470.72 421.10 610.72 653.69 395.30 647.55 356.08 533.76 490.56 506.44 845.57 266.82 665.51 495.88 648.04 638.88 302.17 773.93 369.00 515.80 314.58 564.72 507.81 63.18 782.90 423.59 50.66
270.67 765.58 690.10 556.73 397.25 341.38 684.88 309.87 547.56 473.22 563.26 852.12 520.15 556.25 560.12 366.30 561.75 830.40 651.31 0.00 876.26 788.87 490.58 631.19 342.17 879.65 447.18 787.54 665.80 915.04 599.36 423.54 381.37 752.28 926.90 992.86 380.75 112.16 155.89 926.03 471.67 525.33 365.89 383.15 843.82 1014.23 640.48 447.18 733.64 504.49 833.65 880.45 315.44 772.55 807.24 713.68 549.43 397.42 852.82 705.71 267.99 831.50 437.44 233.89 678.16 496.39 526.31 525.21 927.82 345.20 862.95 782.51 893.11 911.28 508.73 300.42 220.27 784.16 119.65 604.77 209.72 490.91 497.69 537.53 727.79 650.97 847.13 172.41 459.21 561.00 311.43 496.11 817.77 705.43 722.31 478.50 179.83 988.51 978.51 712.21 724.13 631.78 780.43 472.82 304.15 889.61 272.62 363.53 303.69 819.40 358.74 228.24 607.69 250.69 910.30 674.03
1064.47 253.34 314.47 415.19 976.27 601.66 260.78 651.90 832.58 606.44 340.01 228.91 602.15 768.31 393.34 772.70 433.55 237.49 235.49 876.26 0.00 189.31 406.83 567.02 996.94 440.05 656.19 125.98 469.26 230.70 677.69 875.67 611.18 684.45 570.16 565.44 562.29 880.60 789.92 361.96 507.46 361.47 657.30 985.08 134.36 562.91 544.08 887.96 376.73 371.77 53.15 123.75 1018.70 711.17 865.38 250.04 761.49 564.35 594.12 490.61 813.08 697.52 790.31 864.83 359.53 745.38 414.75 463.32 569.60 1102.25 56.51 735.82 651.69 529.65 560.95 658.87 1038.01 112.31 908.12 487.24 680.43 448.67 707.92 999.60 221.30 443.72 452.38 930.87 631.24 666.00 567.11 708.17 727.41 512.15 765.57 514.29 699.42 372.98 440.76 971.21 365.52 767.63 548.05 754.93 812.64 286.95 953.50 515.01 661.38 147.51 716.90 665.56 298.67 927.72 273.24 265.23
989.25 250.21 325.69 306.54 902.29 526.59 183.09 674.06 864.23 601.54 308.95 70.35 463.50 802.11 340.50 794.73 341.77 97.04 189.13 788.87 189.31 0.00 364.49 610.54 958.57 467.40 621.78 149.91 426.45 371.87 674.56 856.53 538.60 748.95 580.51 660.09 522.71 829.59 704.45 456.61 525.56 315.11 690.37 916.39 54.95 646.82 433.86 896.00 379.84 389.87 142.25 264.92 978.01 753.38 924.22 141.39 792.77 586.51 767.71 551.60 846.15 786.62 792.23 885.58 408.94 745.45 322.37 364.16 640.34 1046.73 162.49 793.57 685.05 635.63 422.30 595.31 938.85 115.39 877.06 367.77 638.96 365.44 679.05 1050.35 112.65 440.59 518.81 831.71 600.50 659.85 588.66 778.95 742.59 570.01 830.07 532.39 624.59 470.47 542.01 989.31 403.37 801.48 585.37 796.95 755.51 196.40 852.11 558.13 676.01 336.82 690.11 643.97 252.31 819.07 367.89 239.79
684.01 352.02 304.63 87.07 688.32 245.45 243.94 428.44 609.77 418.39 89.54 376.20 277.36 617.74 169.43 585.71 71.17 362.11 213.20 490.58 406.83 364.49 0.00 493.53 712.51 521.76 437.41 325.13 313.21 501.92 561.74 652.21 338.22 714.66 657.76 727.51 217.47 525.56 473.98 578.81 319.05 192.65 419.61 702.42 419.44 729.35 276.20 723.44 382.65 315.50 353.68 422.78 674.96 697.78 819.18 223.10 608.40 406.57 777.02 498.91 575.39 750.24 557.73 521.09 409.58 543.31 293.26 58.92 717.59 817.82 415.57 681.59 759.47 671.67 246.66 321.87 633.61 389.32 610.23 199.99 350.25 92.32 494.68 830.18 251.84 351.07 548.92 526.47 365.73 537.39 315.54 566.86 732.57 507.42 730.34 312.22 320.56 661.59 622.20 854.54 406.18 655.83 588.18 593.11 450.27 461.47 606.05 338.64 443.71 448.61 384.87 378.84 150.02 631.21 559.01 229.84
826.04 360.33 329.26 536.44 559.64 587.52 631.58 321.32 332.22 157.97 507.12 618.97 684.58 267.95 408.13 353.89 561.54 645.66 479.97 631.19 567.02 610.54 493.53 0.00 912.20 318.04 208.39 510.37 745.43 495.82 151.64 494.79 303.03 268.42 414.44 428.36 624.94 734.75 655.25 440.33 257.31 400.27 353.57 573.74 631.35 449.73 672.56 387.60 248.17 343.32 532.29 523.93 605.98 204.25 353.38 518.92 245.81 275.36 333.51 76.41 412.69 287.58 306.92 626.40 257.85 248.47 293.26 552.45 383.45 906.93 563.14 257.15 377.47 346.78 725.78 470.94 778.58 555.79 724.79 632.21 474.68 401.21 180.00 588.55 547.66 169.95 327.46 737.44 729.76 132.52 432.44 207.81 290.39 84.67 236.81 251.93 529.75 413.11 425.52 493.82 224.64 263.51 235.55 286.33 788.47 745.02 805.74 398.66 336.59 469.87 743.93 535.14 421.72 772.70 476.83 429.31
184.57 970.04 904.29 661.78 562.85 467.06 810.56 652.04 776.53 754.23 728.71 977.80 564.14 777.67 747.07 654.76 713.74 979.43 880.39 342.17 996.94 958.57 712.51 912.20 0.00 1069.18 754.89 950.81 791.48 1119.94 928.82 547.87 624.46 1040.47 1211.43 1212.93 506.43 255.10 357.73 1143.50 690.80 773.10 614.76 576.95 961.15 1239.26 638.68 717.53 936.32 761.62 943.79 1066.46 478.00 1053.56 1051.66 842.34 801.90 719.41 1169.35 915.46 610.16 1096.06 705.44 368.37 902.97 781.20 755.47 659.57 1222.90 105.31 1005.68 1035.14 1136.13 1172.07 605.34 482.53 225.01 947.65 282.21 730.45 490.14 704.88 738.57 879.70 845.92 870.10 1102.59 201.03 464.65 840.34 503.46 748.58 1037.29 893.92 974.78 683.97 460.10 1213.32 1193.07 1026.26 920.80 876.20 1044.80 670.06 268.22 958.50 106.46 551.31 645.86 1071.25 363.96 400.76 843.92 139.50 1123.86 846.53
917.36 217.19 258.42 562.15 872.05 624.85 508.99 593.17 650.26 476.01 459.81 537.75 795.46 585.99 484.27 671.93 540.47 560.07 392.67 879.65 440.05 467.40 521.76 318.04 1069.18 0.00 521.42 451.02 756.32 209.35 432.37 748.54 544.70 416.42 174.22 230.00 664.22 928.40 818.13 122.29 407.98 380.81 619.42 857.95 522.35 267.96 749.74 705.64 217.68 396.15 438.97 316.30 924.02 417.95 528.94 471.44 560.40 506.64 300.31 241.63 716.07 433.70 624.96 834.38 244.68 566.51 396.53 578.66 234.05 1086.14 420.00 365.05 278.76 186.21 766.40 669.47 959.58 484.02 942.37 643.10 669.93 512.09 498.04 846.99 469.15 337.82 51.41 868.15 827.85 424.62 595.32 525.85 416.03 263.17 412.37 414.81 743.92 166.88 145.81 672.31 239.11 553.68 210.96 604.37 860.61 659.43 985.45 561.54 594.85 304.99 854.98 684.62 413.03 972.89 211.01 342.01
666.42 464.29 388.81 471.45 423.17 503.53 578.72 158.76 242.45 73.98 476.35 692.13 629.27 180.33 355.27 231.16 508.58 708.00 472.87 447.18 656.19 621.78 437.41 208.39 754.89 521.42 0.00 588.18 728.50 609.07 204.46 358.32 259.05 357.38 503.89 561.84 514.91 559.34 527.50 587.43 148.73 372.00 232.60 437.27 676.73 652.36 655.63 286.03 366.92 284.42 655.21 615.00 505.50 353.28 393.88 549.70 170.99 133.26 457.92 279.79 289.96 418.71 170.45 477.15 350.65 123.67 299.41 496.33 563.72 785.96 649.84 358.01 548.33 550.16 658.33 413.23 616.02 634.53 566.83 615.28 340.06 384.28 57.27 481.13 549.35 314.33 516.75 619.59 609.09 113.82 304.69 157.17 408.99 258.25 343.32 141.90 382.94 586.69 599.10 434.90 343.39 218.42 400.58 175.17 646.37 775.04 691.66 288.63 143.49 555.77 601.83 354.13 454.36 688.71 595.58 520.10
962.28 264.07 273.25 292.71 868.69 497.24 182.41 657.87 781.59 555.14 235.59 163.39 492.12 729.81 313.37 764.34 334.01 154.10 178.08 787.54 125.98 149.91 325.13 510.37 950.81 451.02 588.18 0.00 443.64 300.64 607.86 780.71 508.21 679.67 561.87 619.12 457.87 791.83 696.69 353.67 491.96 262.21 650.49 882.79 120.98 542.56 427.67 850.95 309.26 356.27 77.01 199.68 945.89 669.29 812.36 133.63 727.26 573.67 703.63 433.96 792.14 711.30 758.63 846.22 350.61 690.73 288.77 358.90 551.86 1035.56 132.80 678.06 638.63 602.53 497.37 533.69 933.59 93.47 803.70 391.65 605.36 344.25 622.26 998.91 104.89 373.89 475.53 826.45 621.50 556.49 516.06 718.18 729.04 453.81 736.14 492.31 645.69 448.34 460.48 955.71 285.73 744.32 514.79 763.35 686.66 253.46 844.35 508.20 645.62 273.49 590.92 570.61 219.07 811.31 365.32 139.25
839.66 571.08 548.41 262.65 959.10 324.42 308.06 698.18 922.98 692.77 364.99 356.10 273.83 897.66 419.92 819.73 242.04 339.53 448.95 665.80 469.26 426.45 313.21 745.43 791.48 756.32 728.50 443.64 0.00 645.73 820.10 900.45 581.04 950.90 840.53 944.01 337.24 621.87 611.11 754.86 593.43 476.16 618.40 964.78 392.76 948.34 157.66 953.37 668.86 543.59 416.11 538.78 884.32 949.68 1077.54 343.73 894.56 680.95 1034.64 751.64 774.18 969.41 809.63 730.45 580.45 817.69 543.75 329.70 900.36 851.01 478.00 965.10 945.07 920.87 232.63 552.94 789.26 433.48 740.48 113.22 625.41 344.22 765.40 1095.26 372.47 645.57 807.73 682.12 375.19 820.90 500.85 841.24 992.75 751.20 982.24 586.60 576.20 768.72 826.19 1121.01 645.33 926.55 871.74 845.01 535.17 240.17 685.02 552.95 707.51 588.03 478.46 587.70 393.80 718.06 666.14 446.26
1080.86 149.90 225.38 513.76 904.92 652.88 437.25 667.59 767.04 535.09 435.78 395.72 736.36 738.37 448.84 720.83 510.13 369.03 325.38 915.04 230.70 371.87 501.92 495.82 1119.94 209.35 609.07 300.64 645.73 0.00 574.25 797.88 621.09 625.77 370.52 424.79 658.06 944.01 789.96 162.32 492.52 402.22 692.82 890.82 336.63 389.80 651.61 843.03 279.53 410.55 229.62 106.95 997.10 627.30 738.29 357.57 735.08 580.04 509.66 419.41 804.54 643.05 771.45 905.26 265.88 682.74 392.14 511.37 430.35 1170.54 225.92 574.40 475.06 370.75 699.11 665.08 1030.46 274.67 999.13 570.45 708.73 462.31 614.27 969.18 349.13 340.28 260.76 978.92 767.97 628.34 651.53 703.63 625.38 439.26 621.72 485.69 773.86 165.18 267.65 881.66 271.18 729.77 420.31 744.13 888.64 460.31 1013.48 620.86 677.07 95.64 814.10 746.85 351.90 1014.05 132.59 274.72
826.79 424.35 438.83 579.07 529.89 618.14 672.68 363.22 226.95 225.65 574.91 733.30 775.27 181.14 449.23 311.71 631.03 759.99 516.40 599.36 677.69 674.56 561.74 151.64 928.82 432.37 204.46 607.86 820.10 574.25 0.00 465.04 379.41 152.92 428.60 453.48 622.53 711.37 628.90 539.76 242.69 435.38 422.73 543.99 728.84 527.48 763.25 323.45 362.50 378.38 646.62 587.95 612.56 188.35 257.44 582.94 220.44 313.79 253.46 190.74 397.02 232.14 277.17 664.83 331.14 171.94 410.10 620.66 430.64 935.54 627.16 195.01 343.87 424.53 760.20 514.11 794.29 670.12 719.01 722.90 438.68 491.90 192.41 483.28 592.88 233.97 412.07 727.79 727.35 90.64 430.03 199.68 218.41 212.28 218.70 249.52 521.53 540.72 535.24 405.94 338.97 175.63 252.52 278.20 762.68 818.57 826.80 396.25 347.95 543.16 770.33 532.73 485.74 832.53 591.16 546.00
518.38 647.98 673.27 712.96 123.51 648.57 837.24 223.77 260.47 387.12 686.39 882.33 766.78 311.97 613.79 168.88 722.82 909.01 731.94 423.54 875.67 856.53 652.21 494.79 547.87 748.54 358.32 780.71 900.45 797.88 465.04 0.00 369.24 572.83 728.10 814.61 609.20 471.38 523.66 804.31 408.96 623.28 282.05 109.41 901.69 880.23 791.98 169.66 678.67 544.65 857.72 811.58 215.69 580.88 568.93 756.44 340.30 311.32 713.83 506.91 155.55 599.67 187.87 318.74 625.48 293.10 534.16 674.87 787.93 653.18 850.79 588.33 780.67 777.28 757.70 411.92 545.64 874.18 396.97 787.23 390.49 577.73 342.77 371.24 785.18 588.26 776.90 506.92 709.29 412.30 476.44 286.98 590.48 528.45 491.71 405.67 370.24 856.89 854.62 518.79 655.14 393.47 679.33 223.25 682.11 986.66 520.35 424.34 233.46 794.07 606.02 398.96 700.63 487.31 824.20 752.67
591.95 506.40 457.76 381.13 446.32 335.70 503.19 149.66 395.55 232.92 321.18 608.95 480.03 382.23 302.43 256.13 406.23 585.39 413.85 381.37 611.18 538.60 338.22 303.03 624.46 544.70 259.05 508.21 581.04 621.09 379.41 369.24 0.00 532.33 687.82 700.94 322.45 431.72 361.87 634.81 136.72 287.87 151.77 460.42 593.55 722.31 517.25 405.22 412.71 272.15 585.22 607.17 509.43 507.28 566.97 469.95 380.12 182.14 632.87 348.99 307.55 582.47 328.83 435.41 355.21 267.11 339.65 393.69 686.48 666.77 625.49 560.18 650.05 619.36 503.05 167.91 541.55 581.40 479.53 476.90 171.65 245.90 283.95 633.69 490.33 316.02 572.58 434.41 452.22 326.79 148.27 326.80 593.42 370.53 539.84 143.55 226.72 665.56 690.51 578.34 389.18 445.10 521.41 361.23 495.65 658.49 568.43 96.17 137.41 567.23 484.00 246.72 370.23 539.15 641.37 436.57
923.12 500.04 535.74 731.99 659.15 771.06 791.84 511.46 324.31 363.50 679.84 812.70 896.68 316.34 602.15 458.73 761.00 833.77 660.76 752.28 684.45 748.95 714.66 268.42 1040.47 416.42 357.38 679.67 950.90 625.77 152.92 572.83 532.33 0.00 347.74 362.98 757.77 785.37 781.82 512.14 395.61 540.31 525.43 673.25 738.31 465.86 913.33 458.65 370.41 531.30 631.30 630.70 618.80 64.17 180.93 735.86 254.00 452.88 225.81 292.69 535.44 79.22 406.43 735.08 458.82 324.86 561.68 667.74 295.72 1078.79 693.19 51.37 322.29 362.91 855.48 667.03 872.72 690.46 814.59 837.68 591.60 644.82 303.29 521.23 723.39 386.89 365.01 845.62 880.27 243.56 582.95 307.32 65.49 275.71 81.12 402.44 674.45 583.30 511.11 374.60 393.94 226.08 272.02 385.84 915.60 890.90 937.68 531.49 497.29 599.63 921.45 682.04 622.67 950.36 581.26 620.35
1091.58 391.41 414.38 697.95 792.95 799.07 650.72 621.99 624.76 458.64 595.61 650.86 917.60 585.66 541.70 560.60 701.93 643.11 539.33 926.90 570.16 580.51 657.76 414.44 1211.43 174.22 503.89 561.87 840.53 370.52 428.60 728.10 687.82 347.74 0.00 103.48 804.43 960.26 930.78 208.20 551.10 520.07 687.60 807.05 606.84 183.29 881.57 709.69 275.11 466.15 549.59 477.47 874.45 349.27 504.54 601.85 586.17 616.71 238.07 344.90 658.91 364.29 540.23 954.18 363.52 556.57 512.34 716.68 59.83 1228.80 518.68 296.37 104.54 80.34 904.42 785.28 1079.25 517.59 987.95 817.32 800.55 634.23 488.10 757.08 615.81 398.36 122.81 1020.51 968.06 516.52 707.97 555.00 347.35 329.77 413.29 551.84 811.79 292.68 186.02 706.77 298.64 506.89 178.89 575.61 1034.83 742.47 1106.41 666.28 637.26 422.65 993.60 810.67 568.99 1073.37 296.92 501.92
1147.36 427.70 488.42 791.56 896.43 854.85 706.50 685.21 632.19 562.12 689.81 721.68 987.35 615.35 611.45 664.08 740.91 746.59 595.11 992.86 565.44 660.09 727.51 428.36 1212.93 230.00 561.84 619.12 944.01 424.79 453.48 814.61 700.94 362.98 103.48 0.00 887.90 1018.03 936.53 311.68 582.83 589.82 695.03 910.53 687.52 116.89 937.89 735.00 344.86 549.74 580.51 507.71 950.27 427.15 511.97 643.85 608.53 671.17 234.58 351.95 734.73 369.36 643.71 999.61 428.66 591.01 575.61 786.43 67.26 1248.39 554.72 384.15 109.61 81.58 955.49 822.26 1134.43 621.07 1052.69 863.26 827.04 703.98 536.08 860.56 615.11 444.79 178.59 1032.61 949.88 448.02 713.72 555.21 418.86 373.49 444.10 589.66 813.03 290.36 211.11 719.85 368.39 589.06 269.68 633.73 1090.61 840.11 1166.63 661.62 700.48 417.93 1053.15 812.17 582.68 1137.35 292.20 552.52
573.31 508.16 473.40 225.60 719.65 39.37 349.13 448.63 700.86 468.47 222.28 516.37 157.58 687.79 361.83 578.58 269.33 494.75 373.96 380.75 562.29 522.71 217.47 624.94 506.43 664.22 514.91 457.87 337.24 658.06 622.53 609.20 322.45 757.77 804.43 887.90 0.00 407.48 326.06 717.90 379.84 345.41 368.57 705.55 526.10 914.23 277.91 703.54 567.23 410.74 509.14 631.81 599.27 767.80 879.97 389.84 628.30 444.86 875.99 615.22 524.35 836.99 559.01 445.40 535.49 589.56 383.64 158.55 864.26 611.74 567.43 781.25 854.71 850.43 198.78 241.29 522.91 551.34 500.40 224.02 321.81 269.30 572.18 860.90 418.58 559.14 715.63 415.77 163.63 537.06 278.38 627.65 823.26 636.76 766.56 373.01 238.96 798.05 810.03 888.11 566.84 729.63 765.52 594.39 275.13 553.06 399.97 226.28 457.68 640.36 190.76 323.06 367.49 433.01 751.41 418.80
217.79 807.54 741.41 581.90 347.87 403.44 733.21 422.03 614.71 585.38 615.10 899.94 544.89 601.22 581.06 399.66 596.73 887.67 738.76 112.16 880.60 829.59 525.56 734.75 255.10 928.40 559.34 791.83 621.87 944.01 711.37 471.38 431.72 785.37 960.26 1018.03 407.48 0.00 176.83 956.83 540.94 635.40 396.01 361.97 857.54 1039.40 631.80 548.75 786.46 568.31 827.45 944.61 296.51 849.54 842.90 748.66 638.37 500.85 964.83 778.35 380.15 864.59 499.11 189.71 753.11 539.43 604.44 527.80 1003.64 360.41 889.34 836.74 1005.27 936.45 570.79 367.43 167.39 768.29 118.61 631.50 287.85 569.04 573.55 649.69 768.63 720.24 952.73 60.25 472.76 661.60 353.60 585.05 850.86 760.49 811.25 534.11 205.00 1051.50 1031.17 824.37 793.40 709.55 892.59 508.24 276.33 862.04 160.46 389.41 415.85 848.37 372.07 301.78 675.58 164.99 953.30 730.41
353.81 640.06 564.58 501.53 516.47 286.69 556.38 402.06 645.29 509.49 540.41 723.62 440.32 614.03 404.23 448.44 545.15 725.25 604.81 155.89 789.92 704.45 473.98 655.25 357.73 818.13 527.50 696.69 611.11 789.96 628.90 523.66 361.87 781.82 930.78 936.53 326.06 176.83 0.00 882.53 410.15 518.94 344.43 502.37 727.86 962.86 560.65 597.53 655.67 485.22 744.42 790.77 396.09 808.82 865.02 603.34 607.21 431.05 869.79 663.85 423.88 838.20 503.44 242.22 622.32 579.49 506.81 434.48 952.06 451.75 758.46 800.45 929.19 884.87 454.04 256.98 303.41 745.64 275.54 509.65 190.22 446.03 580.64 693.42 591.80 589.45 821.94 196.27 303.32 586.08 222.81 553.89 779.43 685.39 780.09 403.32 153.42 896.39 916.67 802.57 662.61 689.56 795.83 538.82 225.28 797.39 251.27 274.91 386.79 731.54 202.85 205.39 541.63 224.09 793.81 578.35
1039.65 312.22 380.71 597.96 869.16 728.44 536.08 680.91 695.87 517.56 495.62 517.06 822.50 662.42 478.30 704.05 587.02 507.77 399.63 926.03 361.96 456.61 578.81 440.33 1143.50 122.29 587.43 353.67 754.86 162.32 539.76 804.31 634.81 512.14 208.20 311.68 717.90 956.83 882.53 0.00 500.61 469.58 712.05 883.26 474.65 228.96 770.42 758.92 234.65 453.19 377.03 269.27 964.49 540.24 651.23 476.38 666.03 599.27 392.11 363.92 748.95 538.70 616.44 903.69 313.03 598.63 464.88 618.93 268.03 1193.46 388.24 487.34 312.74 248.86 806.67 737.82 1052.21 436.19 1020.23 674.70 762.56 570.83 530.16 924.30 458.56 370.00 173.70 990.44 881.53 546.91 667.51 646.65 538.32 385.46 534.66 507.44 816.11 94.67 106.81 794.60 248.15 658.51 333.25 651.82 885.81 607.13 1037.04 651.08 696.11 214.45 888.35 770.21 428.79 1029.45 88.72 348.97
602.00 369.68 321.30 336.38 509.56 375.45 429.99 185.19 385.88 99.34 341.23 585.96 532.58 321.61 206.54 318.62 388.34 559.27 362.91 471.67 507.46 525.56 319.05 257.31 690.80 407.98 148.73 491.96 593.43 492.52 242.69 408.96 136.72 395.61 551.10 582.83 379.84 540.94 410.15 500.61 0.00 236.93 211.44 518.37 571.28 645.46 520.56 434.76 275.99 135.69 544.96 511.99 579.41 398.67 500.13 405.65 314.79 98.66 496.15 277.49 363.87 474.83 319.18 426.40 226.64 237.92 203.19 377.97 560.40 692.85 563.97 437.70 578.55 542.51 517.51 295.88 551.60 485.80 542.94 480.21 261.95 249.21 206.00 524.79 434.39 179.30 435.86 551.06 484.66 258.91 187.34 261.47 461.10 292.63 461.39 6.83 335.94 536.99 553.79 549.15 252.46 367.15 385.68 305.68 585.95 641.57 600.30 153.56 195.50 438.66 527.64 290.04 319.29 633.34 504.65 371.37
795.45 252.32 176.84 241.87 708.67 306.04 310.95 405.09 572.27 336.27 139.53 385.46 439.07 544.88 114.71 536.97 240.59 373.21 125.98 525.33 361.47 315.11 192.65 400.27 773.10 380.81 372.00 262.21 476.16 402.22 435.38 623.28 287.87 540.31 520.07 589.82 345.41 635.40 518.94 469.58 236.93 0.00 388.28 722.77 343.29 638.90 427.05 588.74 244.96 127.92 308.32 355.12 749.68 541.84 690.81 214.31 515.51 324.45 639.33 323.86 544.06 557.59 542.45 595.81 248.88 461.19 128.75 216.48 575.67 870.53 337.62 488.94 571.89 539.11 404.22 401.69 745.60 293.53 644.98 362.94 411.41 155.70 429.27 748.06 202.46 243.42 411.23 682.44 509.04 344.74 298.09 484.74 539.92 345.40 574.24 230.10 430.40 513.86 526.62 727.36 221.43 539.53 450.49 542.61 541.80 404.64 666.64 245.99 389.82 343.80 513.38 381.83 82.36 699.68 411.28 148.70
504.22 581.12 525.34 506.68 360.48 407.94 603.25 80.06 339.66 231.03 445.31 699.90 526.15 350.92 379.80 236.26 472.12 726.59 508.26 365.89 657.30 690.37 419.61 353.57 614.76 619.42 232.60 650.49 618.40 692.82 422.73 282.05 151.77 525.43 687.60 695.03 368.57 396.01 344.43 712.05 211.44 388.28 0.00 346.38 731.57 797.91 631.99 334.97 487.43 344.95 690.60 712.45 371.32 530.36 533.55 552.74 308.61 112.78 676.19 429.98 155.78 603.69 279.22 304.58 426.94 250.79 380.12 471.66 627.77 553.36 710.58 552.70 673.61 694.96 567.35 302.93 520.87 681.81 371.22 505.18 156.17 388.61 262.37 518.44 581.48 390.74 632.55 413.73 467.66 335.93 194.39 299.21 590.92 436.73 444.31 207.13 191.01 737.29 765.23 562.02 463.90 412.70 550.62 260.68 442.79 704.61 547.75 142.29 89.11 638.07 448.29 260.16 470.64 518.47 680.49 536.98
439.12 757.39 778.93 710.55 14.10 666.18 935.28 333.18 369.88 492.58 766.81 986.74 833.95 409.81 717.85 278.29 762.51 1013.43 818.25 383.15 985.08 916.39 702.42 573.74 576.95 857.95 437.27 882.79 964.78 890.82 543.99 109.41 460.42 673.25 807.05 910.53 705.55 361.97 502.37 883.26 518.37 722.77 346.38 0.00 971.34 989.64 889.09 279.07 763.75 654.06 959.80 920.99 106.28 659.83 507.41 844.31 419.25 420.73 786.57 616.32 190.60 678.62 266.82 260.15 705.45 372.05 594.02 643.50 866.88 607.90 960.20 640.69 815.72 886.69 792.75 521.33 464.42 976.26 302.07 851.56 455.31 687.14 423.29 350.91 855.70 687.71 885.22 422.22 768.43 491.25 534.67 365.93 669.43 637.86 592.13 515.08 479.65 966.30 933.57 525.59 761.99 501.60 788.74 302.20 638.30 937.43 522.43 488.67 342.87 903.48 665.16 489.91 760.49 526.96 933.61 840.31
1044.20 305.16 374.52 357.46 957.24 520.47 176.97 729.01 902.57 656.49 330.25 99.36 518.45 850.79 395.45 807.91 349.74 103.13 244.08 843.82 134.36 54.95 419.44 631.35 961.15 522.35 676.73 120.98 392.76 336.63 728.84 901.69 593.55 738.31 606.84 687.52 526.10 857.54 727.86 474.65 571.28 343.29 731.57 971.34 0.00 607.52 462.87 932.03 430.24 444.82 107.01 229.68 1032.96 790.27 919.24 196.34 847.72 641.46 728.48 554.94 887.35 751.38 847.18 926.50 447.85 800.40 377.32 419.11 623.46 1066.46 141.20 789.68 710.23 614.34 477.25 562.81 993.80 89.25 898.36 373.86 693.91 420.39 734.00 1084.29 167.60 494.87 537.07 886.66 655.45 677.47 625.92 825.71 797.54 574.79 819.43 573.39 679.54 463.76 517.09 1044.26 406.71 856.43 634.56 851.90 756.23 152.59 881.07 589.28 730.96 281.87 711.90 644.58 298.17 874.02 395.32 249.11
1129.73 485.15 526.38 755.54 976.24 892.81 724.97 749.26 723.83 607.70 712.27 705.95 1006.71 699.16 660.53 743.89 752.56 696.66 566.41 1014.23 562.91 646.82 729.35 449.73 1239.26 267.96 652.36 542.56 948.34 389.80 527.48 880.23 722.31 465.86 183.29 116.89 914.23 1039.40 962.86 228.96 645.46 638.90 797.91 989.64 607.52 0.00 924.08 823.85 393.94 623.09 532.23 482.95 1043.32 479.18 555.75 630.04 676.95 725.09 276.59 373.32 827.78 423.18 723.52 1037.77 467.80 663.56 574.35 788.27 170.14 1298.51 521.37 479.66 226.50 102.95 976.01 847.29 1180.13 591.39 1074.06 874.91 853.37 747.83 595.09 940.37 639.52 466.16 227.67 1098.12 1066.77 564.91 740.05 657.54 481.95 394.86 546.98 652.29 834.40 233.72 122.15 787.08 417.47 590.83 278.70 725.64 1095.69 760.11 1199.86 687.95 764.53 422.00 1055.13 838.50 594.33 1186.95 296.27 515.75
762.51 548.29 491.32 189.13 874.99 311.14 337.19 573.79 834.36 619.90 291.47 363.51 120.33 824.14 363.88 705.67 212.24 390.20 399.26 640.48 544.08 433.86 276.20 672.56 638.68 749.74 655.63 427.67 157.66 651.61 763.25 791.98 517.25 913.33 881.57 937.89 277.91 631.80 560.65 770.42 520.56 427.05 631.99 889.09 462.87 924.08 0.00 854.76 606.46 509.95 504.68 578.47 785.98 876.81 974.81 294.04 821.69 608.08 987.06 695.60 745.94 960.14 736.76 632.11 518.05 744.82 487.71 245.59 879.45 743.99 521.80 915.99 953.92 882.90 143.79 487.11 712.11 476.62 666.64 126.81 552.54 271.35 691.88 1031.69 322.78 603.73 772.73 604.97 257.33 745.50 494.57 768.37 930.35 717.14 858.24 513.73 516.87 771.95 801.93 1048.14 582.93 853.03 798.22 772.14 453.76 397.83 615.52 497.31 558.52 555.97 360.60 483.74 370.47 614.28 681.70 423.47
659.84 707.84 674.84 731.51 283.31 708.09 858.42 306.36 142.18 360.01 712.33 945.11 822.54 142.31 634.97 149.09 783.47 954.10 706.87 447.18 887.96 896.00 723.44 387.60 717.53 705.64 286.03 850.95 953.37 843.03 323.45 169.66 405.22 458.65 709.69 735.00 703.54 548.75 597.53 758.92 434.76 588.74 334.97 279.07 932.03 823.85 854.76 0.00 635.77 570.45 889.21 851.68 385.35 470.76 426.10 803.05 204.65 378.35 576.91 464.01 179.19 499.73 169.95 488.40 577.15 198.77 585.44 728.93 707.11 792.38 910.65 461.16 654.92 734.38 781.34 573.13 667.45 882.27 566.63 840.15 491.14 635.36 228.76 228.47 783.35 517.46 715.06 609.00 802.63 330.53 523.26 179.79 475.58 472.27 377.53 427.93 525.98 800.71 782.21 349.13 612.24 250.64 575.97 151.63 692.23 993.38 690.01 477.26 296.24 774.28 762.33 520.68 671.10 656.97 760.85 737.44
877.99 129.63 165.33 447.29 749.65 551.00 421.43 456.29 519.39 292.94 344.95 442.29 642.49 516.12 266.59 528.05 426.82 463.36 290.35 733.64 376.73 379.84 382.65 248.17 936.32 217.68 366.92 309.26 668.86 279.53 362.50 678.67 412.71 370.41 275.11 344.86 567.23 786.46 655.67 234.65 275.99 244.96 487.43 763.75 430.24 393.94 606.46 635.77 0.00 229.15 353.03 293.23 784.74 407.09 550.16 381.72 493.98 374.65 394.37 171.76 602.98 437.36 496.93 679.07 88.41 481.77 237.23 441.57 334.94 968.84 332.44 421.78 379.65 316.64 629.31 510.17 827.59 402.73 795.61 555.64 537.49 359.12 424.19 689.65 352.98 135.35 166.27 821.69 723.57 380.69 432.86 455.98 435.90 190.17 451.53 282.82 581.46 329.32 341.46 710.99 23.53 480.68 205.53 532.31 786.76 552.46 837.87 416.43 471.49 229.22 756.60 535.56 319.94 804.83 228.66 252.77
737.69 261.09 185.61 328.42 645.25 433.96 369.52 320.88 521.57 234.67 267.45 460.22 514.24 457.30 146.07 454.31 331.79 486.91 253.90 504.49 371.77 389.87 315.50 343.32 761.62 396.15 284.42 356.27 543.59 410.55 378.38 544.65 272.15 531.30 466.15 549.74 410.74 568.31 485.22 453.19 135.69 127.92 344.95 654.06 444.82 623.09 509.95 570.45 229.15 0.00 424.92 376.30 714.00 468.64 587.07 317.79 450.48 234.35 568.31 285.40 499.56 551.97 454.87 560.13 185.92 373.61 67.50 341.06 482.48 828.54 428.28 521.54 443.97 545.79 528.80 340.44 687.29 421.45 624.14 430.37 375.73 238.60 341.69 660.48 329.18 243.63 395.42 627.03 574.37 294.23 262.41 397.16 507.28 290.73 523.73 142.52 363.31 496.27 519.70 599.44 250.80 411.61 379.47 441.37 623.19 532.56 671.99 210.31 331.19 314.91 527.45 360.86 210.28 705.03 418.35 235.68
1013.55 223.40 267.51 369.72 945.70 548.51 207.63 690.51 850.36 623.91 286.86 206.37 549.00 800.24 340.19 825.85 380.40 210.14 182.34 833.65 53.15 142.25 353.68 532.29 943.79 438.97 655.21 77.01 416.11 229.62 646.62 857.72 585.22 631.30 549.59 580.51 509.14 827.45 744.42 377.03 544.96 308.32 690.60 959.80 107.01 532.23 504.68 889.21 353.03 424.92 0.00 122.67 971.22 691.21 812.23 210.64 778.10 602.96 647.27 455.88 846.38 644.37 798.63 874.77 375.20 767.74 365.78 410.17 516.45 1049.10 61.89 682.67 603.22 535.03 507.80 605.72 984.86 59.16 854.97 434.09 676.71 395.52 699.27 1004.98 181.90 413.78 457.76 877.72 636.62 633.50 556.06 740.10 696.79 477.42 712.42 538.42 674.24 371.90 410.08 996.86 354.50 766.55 558.56 808.08 763.67 259.60 900.35 551.34 698.14 200.66 667.93 621.88 245.52 888.32 288.31 216.26
1074.36 163.60 226.19 482.95 935.09 608.38 330.30 675.69 776.88 586.17 409.53 329.04 671.67 752.07 403.03 792.64 430.99 308.42 279.57 880.45 123.75 264.92 422.78 523.93 1066.46 316.30 615.00 199.68 538.78 106.95 587.95 811.58 607.17 630.70 477.47 507.71 631.81 944.61 790.77 269.27 511.99 355.12 712.45 920.99 229.68 482.95 578.47 851.68 293.23 376.30 122.67 0.00 947.95 666.77 811.63 284.43 748.78 599.67 614.06 464.99 818.24 709.92 772.26 924.89 319.15 672.44 405.84 481.70 537.30 1171.35 118.97 681.35 582.01 477.70 630.47 678.78 1023.96 181.83 966.10 542.45 707.45 426.26 667.54 982.88 304.57 353.98 367.71 949.25 693.70 656.45 605.72 731.74 655.98 483.40 711.82 505.32 739.61 249.23 360.80 874.19 316.76 643.88 498.76 783.58 811.92 382.27 968.98 586.61 690.96 167.45 768.29 708.42 272.76 1002.02 215.51 228.91
332.84 858.41 845.32 738.04 120.38 559.90 900.46 395.82 476.16 491.80 745.35 1002.87 742.10 503.80 722.30 313.85 746.13 976.18 788.88 315.44 1018.70 978.01 674.96 605.98 478.00 924.02 505.50 945.89 884.32 997.10 612.56 215.69 509.43 618.80 874.45 950.27 599.27 296.51 396.09 964.49 579.41 749.68 371.32 106.28 1032.96 1043.32 785.98 385.35 784.74 714.00 971.22 947.95 0.00 682.97 613.69 860.74 496.98 483.37 805.57 682.39 215.54 698.02 373.10 153.87 765.20 442.20 672.09 670.99 914.52 501.62 1033.11 670.17 840.66 952.76 727.25 520.87 358.14 1017.88 195.79 823.29 355.50 636.69 448.23 457.19 865.36 668.03 927.87 317.89 662.15 550.00 503.79 443.66 684.29 668.44 647.70 573.44 438.35 996.88 1009.29 631.87 761.21 498.47 819.32 408.48 533.97 976.64 418.79 503.69 411.09 939.04 558.88 486.58 790.19 422.63 996.25 839.54
936.25 503.17 530.14 731.25 645.73 728.88 790.50 462.68 354.87 299.33 628.91 777.89 888.83 328.45 567.05 453.50 754.01 804.58 650.38 772.55 711.17 753.38 697.78 204.25 1053.56 417.95 353.28 669.29 949.68 627.30 188.35 580.88 507.28 64.17 349.27 427.15 767.80 849.54 808.82 540.24 398.67 541.84 530.36 659.83 790.27 479.18 876.81 470.76 407.09 468.64 691.21 666.77 682.97 0.00 225.50 723.17 318.17 457.40 202.59 235.33 509.34 83.33 393.01 736.61 448.44 360.29 497.51 731.91 359.89 1083.72 705.98 52.90 327.44 422.37 896.23 675.19 919.94 714.71 853.15 836.46 627.03 605.46 337.91 585.40 726.86 374.20 366.54 909.79 883.33 256.58 586.01 330.61 86.14 256.87 145.29 405.50 709.88 584.83 487.89 438.77 383.56 238.29 207.85 409.13 951.03 903.94 947.10 541.52 477.95 636.31 910.53 656.69 595.78 914.06 582.79 601.51
946.53 674.01 598.53 836.51 521.51 875.58 876.47 508.10 308.46 467.86 824.40 945.39 1023.15 283.79 706.67 443.24 856.01 933.76 764.12 807.24 865.38 924.22 819.18 353.38 1051.66 528.94 393.88 812.36 1077.54 738.29 257.44 568.93 566.97 180.93 504.54 511.97 879.97 842.90 865.02 651.23 500.13 690.81 533.55 507.41 919.24 555.75 974.81 426.10 550.16 587.07 812.23 811.63 613.69 225.50 0.00 840.38 289.45 486.20 279.16 429.79 539.25 234.59 410.24 767.56 588.58 370.82 646.64 848.67 444.71 1086.91 874.12 211.18 412.69 511.90 1011.27 734.88 908.17 871.39 809.48 980.34 689.72 749.34 336.61 406.01 840.60 491.41 524.82 884.72 984.79 346.07 642.86 311.13 227.32 438.05 116.57 506.96 724.56 671.05 564.46 231.33 526.63 175.46 433.35 381.60 976.34 1033.12 971.00 653.69 521.23 725.77 954.77 719.94 743.18 989.46 676.27 713.46
893.97 254.25 249.82 222.63 830.21 429.21 149.71 532.67 779.89 504.99 167.56 197.25 414.37 726.97 199.11 684.99 257.86 206.20 105.22 713.68 250.04 141.39 223.10 518.92 842.34 471.44 549.70 133.63 343.73 357.57 582.94 756.44 469.95 735.86 601.85 643.85 389.84 748.66 603.34 476.38 405.65 214.31 552.74 844.31 196.34 630.04 294.04 803.05 381.72 317.79 210.64 284.43 860.74 723.17 840.38 0.00 720.44 445.12 708.54 493.13 708.52 770.47 685.06 744.19 344.29 643.57 250.29 282.02 661.68 947.65 227.76 703.25 706.39 657.65 409.69 508.83 843.57 182.58 735.67 258.02 505.24 224.05 594.71 930.44 28.74 348.97 521.74 736.43 551.37 559.05 447.27 667.12 746.63 474.07 726.32 412.48 543.66 477.91 507.89 914.34 358.67 729.40 565.19 689.03 664.97 285.00 735.88 420.93 542.15 261.93 580.60 502.58 131.95 735.16 387.66 129.43
669.12 585.18 559.80 637.51 405.15 667.67 705.01 278.69 97.68 242.16 644.53 863.12 785.88 62.34 521.33 238.71 679.57 871.49 641.49 549.43 761.49 792.77 608.40 245.81 801.90 560.40 170.99 727.26 894.56 735.08 220.44 340.30 380.12 254.00 586.17 608.53 628.30 638.37 607.21 666.03 314.79 515.51 308.61 419.25 847.72 676.95 821.69 204.65 493.98 450.48 778.10 748.78 496.98 318.17 289.45 720.44 0.00 285.46 400.36 322.22 281.44 295.08 152.43 568.24 484.26 113.01 470.40 667.32 549.72 837.90 787.99 289.80 533.89 592.59 810.53 548.03 618.72 800.59 577.46 781.34 425.77 550.34 135.87 350.38 717.97 394.80 573.27 663.27 776.27 170.77 454.12 53.32 319.49 330.48 172.88 307.96 458.50 658.92 625.72 308.57 470.45 135.41 472.96 131.84 749.77 834.98 770.26 402.02 263.42 639.93 715.78 519.20 597.87 768.01 675.09 664.21
550.68 468.34 412.56 423.90 411.92 416.32 528.65 87.55 334.77 158.07 439.89 642.37 566.27 281.85 305.20 244.18 475.86 651.32 420.62 397.42 564.35 586.51 406.57 275.36 719.41 506.64 133.26 573.67 680.95 580.04 313.79 311.32 182.14 452.88 616.71 671.17 444.86 500.85 431.05 599.27 98.66 324.45 112.78 420.73 641.46 725.09 608.08 378.35 374.65 234.35 602.96 599.67 483.37 457.40 486.20 445.12 285.46 0.00 567.25 351.77 268.56 532.10 251.98 351.04 314.16 201.88 284.90 465.49 658.81 666.14 597.80 467.34 652.83 622.14 525.07 350.05 544.81 584.46 467.58 567.73 268.95 336.73 149.59 491.23 473.86 277.96 523.38 526.51 571.84 223.15 261.73 261.57 518.32 360.03 448.69 94.35 295.85 624.51 652.45 513.11 351.12 310.74 484.34 243.91 513.11 703.21 660.53 218.58 97.03 525.29 468.57 364.43 406.81 631.25 603.31 441.35
1069.48 517.50 558.73 797.93 778.68 871.60 808.57 616.68 480.41 479.11 739.32 823.03 1018.09 434.60 647.93 565.17 810.30 831.61 684.72 852.82 594.12 767.71 777.02 333.51 1169.35 300.31 457.92 703.63 1034.64 509.66 253.46 713.83 632.87 225.81 238.07 234.58 875.99 964.83 869.79 392.11 496.15 639.33 676.19 786.57 728.48 276.59 987.06 576.91 394.37 568.31 647.27 614.06 805.57 202.59 279.16 708.54 400.36 567.25 0.00 316.21 650.48 146.59 525.96 898.95 482.78 425.40 594.02 817.02 185.26 1189.00 650.13 215.24 133.53 241.71 979.41 767.57 1019.08 704.53 950.99 921.42 692.14 734.72 445.87 685.17 700.10 461.39 280.66 981.25 899.81 344.10 683.49 426.85 205.36 294.67 281.62 502.98 774.99 391.89 285.30 510.49 417.90 405.18 188.84 505.37 1016.14 881.07 1080.26 649.71 601.41 446.61 1003.08 768.59 652.07 1085.99 459.42 638.37
859.32 301.39 294.81 514.07 630.42 629.90 555.17 397.73 408.63 234.38 463.39 542.56 702.51 344.36 331.72 430.30 519.93 569.25 415.05 705.71 490.61 551.60 498.91 76.41 915.46 241.63 279.79 433.96 751.64 419.41 190.74 506.91 348.99 292.69 344.90 351.95 615.22 778.35 663.85 363.92 277.49 323.86 429.98 616.32 554.94 373.32 695.60 464.01 171.76 285.40 455.88 464.99 682.39 235.33 429.79 493.13 322.22 351.77 316.21 0.00 474.44 277.34 383.33 702.81 213.11 324.88 320.89 540.34 337.56 970.34 504.20 288.23 301.06 270.37 728.08 516.90 829.09 479.38 700.74 648.75 495.99 424.25 256.41 636.69 491.53 147.84 280.97 766.18 762.15 208.93 441.04 284.22 321.47 21.54 313.22 284.32 573.35 349.98 362.39 542.36 148.23 312.05 172.42 362.74 819.99 668.61 877.79 388.94 413.00 400.98 793.33 539.49 378.94 849.11 400.42 366.18
538.66 654.64 650.45 662.46 204.70 563.72 751.60 200.95 311.30 333.42 601.09 855.68 643.35 288.26 535.58 98.31 627.90 882.37 664.04 267.99 813.08 846.15 575.39 412.69 610.16 716.07 289.96 792.14 774.18 804.54 397.02 155.55 307.55 535.44 658.91 734.73 524.35 380.15 423.88 748.95 363.87 544.06 155.78 190.60 887.35 827.78 745.94 179.19 602.98 499.56 846.38 818.24 215.54 509.34 539.25 708.52 281.44 268.56 650.48 474.44 0.00 576.52 169.45 369.41 581.08 238.08 535.90 627.44 711.89 613.19 834.53 561.32 625.12 739.25 602.15 423.26 488.26 837.59 387.64 660.96 311.95 544.39 232.69 383.47 737.26 543.17 712.33 440.40 623.44 334.46 344.07 228.12 572.06 452.90 454.32 362.91 346.79 781.34 793.75 475.89 579.45 363.79 603.78 204.83 572.14 860.39 540.61 298.07 216.22 723.50 595.33 341.49 626.42 518.68 800.16 652.89
952.00 551.15 572.15 791.41 664.52 812.21 832.51 541.29 391.59 382.66 697.12 819.90 972.16 357.42 609.06 524.55 797.27 846.59 683.57 831.50 697.52 786.62 750.24 287.58 1096.06 433.70 418.71 711.30 969.41 643.05 232.14 599.67 582.47 79.22 364.29 369.36 836.99 864.59 838.20 538.70 474.83 557.59 603.69 678.62 751.38 423.18 960.14 499.73 437.36 551.97 644.37 709.92 698.02 83.33 234.59 770.47 295.08 532.10 146.59 277.34 576.52 0.00 411.80 752.36 471.07 404.08 580.84 746.96 331.85 1120.78 706.26 68.65 259.75 388.30 934.70 686.51 913.80 693.59 868.90 856.19 670.82 688.79 382.51 565.77 760.05 425.18 382.29 924.84 959.49 312.84 662.17 348.40 58.77 298.88 159.91 481.66 753.58 538.48 431.89 437.01 425.57 258.59 231.83 426.00 994.82 903.97 1016.90 610.71 556.20 593.20 993.86 740.02 639.95 997.39 598.54 643.52
670.37 621.55 546.07 600.64 252.72 598.38 710.69 206.69 141.85 244.43 574.07 831.59 709.14 142.99 487.24 112.75 625.74 804.90 616.29 437.44 790.31 792.23 557.73 306.92 705.44 624.96 170.45 758.63 809.63 771.45 277.17 187.87 328.83 406.43 540.23 643.71 559.01 499.11 503.44 616.44 319.18 542.45 279.22 266.82 847.18 723.52 736.76 169.95 496.93 454.87 798.63 772.26 373.10 393.01 410.24 685.06 152.43 251.98 525.96 383.33 169.45 411.80 0.00 473.76 521.10 105.23 469.86 616.65 600.06 751.41 820.29 400.46 621.04 620.57 750.34 476.85 657.71 804.98 527.19 696.41 387.99 465.41 173.22 375.35 692.59 441.69 627.36 559.36 722.64 224.43 472.04 99.11 402.61 391.59 325.31 312.35 470.23 711.11 666.75 416.46 513.84 234.78 529.69 35.38 655.89 904.26 659.57 421.51 191.42 713.03 657.51 464.06 553.11 664.10 667.31 632.93
199.64 796.08 737.78 608.16 274.25 406.03 749.53 384.64 470.56 509.11 610.63 897.29 602.98 534.83 568.43 467.72 592.26 872.77 718.82 233.89 864.83 885.58 521.09 626.40 368.37 834.38 477.15 846.22 730.45 905.26 664.83 318.74 435.41 735.08 954.18 999.61 445.40 189.71 242.22 903.69 426.40 595.81 304.58 260.15 926.50 1037.77 632.11 488.40 679.07 560.13 874.77 924.89 153.87 736.61 767.56 744.19 568.24 351.04 898.95 702.81 369.41 752.36 473.76 0.00 639.38 549.52 627.63 564.50 932.35 368.42 921.34 683.71 958.25 968.91 573.38 367.00 226.90 889.34 116.54 669.42 372.64 533.28 500.63 611.06 772.93 605.70 845.34 188.18 534.66 574.19 401.92 516.90 734.69 705.37 735.93 419.57 305.05 949.73 980.19 755.92 655.54 603.56 812.08 438.38 404.26 912.14 322.20 349.82 393.69 851.40 445.07 349.79 671.11 292.92 907.73 742.55
814.98 158.73 107.69 390.37 719.55 544.92 450.53 401.71 533.57 276.67 365.71 479.29 598.59 480.65 264.51 511.78 338.41 488.62 241.39 678.16 359.53 408.94 409.58 257.85 902.97 244.68 350.65 350.61 580.45 265.88 331.14 625.48 355.21 458.82 363.52 428.66 535.49 753.11 622.32 313.03 226.64 248.88 426.94 705.45 447.85 467.80 518.05 577.15 88.41 185.92 375.20 319.15 765.20 448.44 588.58 344.29 484.26 314.16 482.78 213.11 581.08 471.07 521.10 639.38 0.00 416.86 151.85 457.42 361.40 919.49 361.54 463.28 448.17 364.85 608.84 424.79 764.58 410.18 755.92 467.23 468.44 357.04 348.39 737.77 317.87 97.17 254.68 733.91 635.16 390.37 399.51 464.88 412.30 232.96 494.66 219.81 548.11 310.35 390.49 728.09 64.88 506.77 293.94 525.82 780.68 543.56 813.28 366.54 411.19 212.02 713.37 502.21 262.30 838.65 317.07 214.86
715.63 575.59 512.48 560.64 357.95 556.19 667.91 207.97 179.39 197.65 579.15 785.17 747.14 115.12 444.46 139.77 612.60 758.48 587.17 496.39 745.38 745.45 543.31 248.47 781.20 566.51 123.67 690.73 817.69 682.74 171.94 293.10 267.11 324.86 556.57 591.01 589.56 539.43 579.49 598.63 237.92 461.19 250.79 372.05 800.40 663.56 744.82 198.77 481.77 373.61 767.74 672.44 442.20 360.29 370.82 643.57 113.01 201.88 425.40 324.88 238.08 404.08 105.23 549.52 416.86 0.00 423.08 557.99 525.41 804.15 773.51 366.95 515.81 592.60 723.54 435.02 665.23 723.72 583.83 704.47 389.27 473.47 68.47 384.41 663.65 405.91 545.92 599.68 708.92 142.99 411.60 59.69 390.35 333.14 285.89 231.09 441.80 658.86 640.02 311.23 467.06 195.36 424.46 111.14 682.91 857.84 699.89 363.28 192.70 628.88 658.79 451.80 543.55 704.42 562.08 609.29
743.48 242.24 184.91 306.18 579.92 423.01 347.28 372.45 541.86 302.17 213.86 392.72 446.74 479.74 123.83 521.81 312.04 419.41 224.23 526.31 414.75 322.37 293.26 293.26 755.47 396.53 299.41 288.77 543.75 392.14 410.10 534.16 339.65 561.68 512.34 575.61 383.64 604.44 506.81 464.88 203.19 128.75 380.12 594.02 377.32 574.35 487.71 585.44 237.23 67.50 365.78 405.84 672.09 497.51 646.64 250.29 470.40 284.90 594.02 320.89 535.90 580.84 469.86 627.63 151.85 423.08 0.00 314.16 513.25 860.78 421.57 550.41 511.47 516.70 487.94 272.94 712.84 382.24 624.47 440.86 316.59 216.36 356.68 727.98 261.68 176.13 403.50 605.70 547.27 361.73 329.91 456.58 564.15 299.35 530.07 210.02 399.44 462.20 452.20 666.94 216.73 479.11 421.52 474.58 640.59 517.94 738.84 277.81 381.93 351.87 574.40 354.71 166.47 710.44 423.31 246.29
625.09 361.47 363.55 67.05 629.40 197.92 291.78 487.36 668.69 477.31 123.31 427.84 228.94 673.11 228.35 644.63 119.01 401.15 272.12 525.21 463.32 364.16 58.92 552.45 659.57 578.66 496.33 358.90 329.70 511.37 620.66 674.87 393.69 667.74 716.68 786.43 158.55 527.80 434.48 618.93 377.97 216.48 471.66 643.50 419.11 788.27 245.59 728.93 441.57 341.06 410.17 481.70 670.99 731.91 848.67 282.02 667.32 465.49 817.02 540.34 627.44 746.96 616.65 564.50 457.42 557.99 314.16 0.00 776.51 764.88 459.96 705.42 785.03 730.59 187.74 262.95 574.69 414.78 589.65 216.48 315.49 151.24 553.60 789.90 260.94 409.99 607.84 467.55 306.81 561.22 309.87 617.68 733.23 522.35 748.86 371.14 365.37 639.50 681.12 869.22 437.91 714.75 647.10 624.52 391.35 479.34 553.11 354.87 502.63 507.53 325.95 319.92 208.94 572.29 617.93 288.76
1125.61 451.24 469.09 747.74 852.78 858.90 677.84 617.95 564.93 518.47 655.44 710.69 959.99 599.38 601.53 620.43 695.78 702.94 599.16 927.82 569.60 640.34 717.59 383.45 1222.90 234.05 563.72 551.86 900.36 430.35 430.64 787.93 686.48 295.72 59.83 67.26 864.26 1003.64 952.06 268.03 560.40 575.67 627.77 866.88 623.46 170.14 879.45 707.11 334.94 482.48 516.45 537.30 914.52 359.89 444.71 661.68 549.72 658.81 185.26 337.56 711.89 331.85 600.06 932.35 361.40 525.41 513.25 776.51 0.00 1181.13 540.33 347.09 86.77 67.19 932.65 786.19 1075.21 575.61 998.99 824.60 783.94 694.06 547.93 816.91 656.75 430.40 182.64 1041.50 996.56 515.28 735.80 585.10 361.21 359.10 376.84 567.23 798.64 299.77 221.82 652.59 354.24 521.80 220.27 635.44 1070.56 776.05 1154.47 692.79 633.22 479.34 1009.93 822.14 623.70 1133.20 356.75 561.75
168.78 1020.64 945.16 767.09 622.00 572.37 915.87 633.42 838.98 784.39 799.97 1035.21 669.45 866.53 852.38 711.50 819.05 1008.52 985.70 345.20 1102.25 1046.73 817.82 906.93 105.31 1086.14 785.96 1035.56 851.01 1170.54 935.54 653.18 666.77 1078.79 1228.80 1248.39 611.74 360.41 451.75 1193.46 692.85 870.53 553.36 607.90 1066.46 1298.51 743.99 792.38 968.84 828.54 1049.10 1171.35 501.62 1083.72 1086.91 947.65 837.90 666.14 1189.00 970.34 613.19 1120.78 751.41 368.42 919.49 804.15 860.78 764.88 1181.13 0.00 1110.99 1052.13 1226.97 1235.36 710.65 587.84 219.18 1052.96 327.36 737.79 554.92 795.91 815.73 882.73 934.08 872.15 1128.71 306.34 569.96 889.29 608.77 806.39 1103.11 985.48 997.67 699.68 525.03 1229.84 1231.95 1057.41 945.31 942.06 1049.91 775.37 373.53 1063.81 211.77 656.62 642.47 1112.12 469.27 506.07 949.23 227.66 1197.50 951.84
1073.79 202.81 278.29 392.91 974.30 553.08 269.52 685.35 847.57 575.86 347.10 232.84 574.44 791.28 369.35 810.97 402.61 244.33 244.23 862.95 56.51 162.49 415.57 563.14 1005.68 420.00 649.84 132.80 478.00 225.92 627.16 850.79 625.49 693.19 518.68 554.72 567.43 889.34 758.46 388.24 563.97 337.62 710.58 960.20 141.20 521.37 521.80 910.65 332.44 428.28 61.89 118.97 1033.11 705.98 874.12 227.76 787.99 597.80 650.13 504.20 834.53 706.26 820.29 921.34 361.54 773.51 421.57 459.96 540.33 1110.99 0.00 709.51 623.22 473.14 533.24 666.49 1034.65 121.05 915.21 485.78 733.00 451.81 707.11 943.09 199.02 393.19 395.87 927.51 574.73 682.36 617.95 764.68 670.90 522.61 774.31 567.72 736.13 322.56 399.22 993.16 355.97 762.85 537.97 811.44 771.16 293.79 913.68 571.52 694.83 203.52 678.00 682.12 304.40 905.44 328.83 260.95
883.35 543.36 512.41 730.81 626.59 781.78 799.89 472.64 343.52 352.23 628.47 830.79 928.01 318.85 591.01 473.66 729.53 832.16 614.92 782.51 735.82 793.57 681.59 257.15 1035.14 365.05 358.01 678.06 965.10 574.40 195.01 588.33 560.18 51.37 296.37 384.15 781.25 836.74 800.45 487.34 437.70 488.94 552.70 640.69 789.68 479.66 915.99 461.16 421.78 521.54 682.67 681.35 670.17 52.90 211.18 703.25 289.80 467.34 215.24 288.23 561.32 68.65 400.46 683.71 463.28 366.95 550.41 705.42 347.09 1052.13 709.51 0.00 274.54 376.71 889.86 709.12 908.52 741.83 800.25 851.88 610.23 644.64 328.63 557.03 691.40 427.10 313.64 871.89 922.36 244.19 607.46 343.12 50.98 309.77 116.92 444.53 693.08 531.93 482.39 410.40 436.46 210.52 237.94 365.08 934.23 893.58 963.02 572.83 487.91 651.00 935.91 709.59 571.30 966.96 529.89 637.60
1157.89 495.95 518.92 772.39 829.82 854.48 755.26 685.88 570.82 535.44 700.15 755.40 887.08 512.61 590.04 650.96 775.76 747.65 643.87 893.11 651.69 685.05 759.47 377.47 1136.13 278.76 548.33 638.63 945.07 475.06 343.87 780.67 650.05 322.29 104.54 109.61 854.71 1005.27 929.19 312.74 578.55 571.89 673.61 815.72 710.23 226.50 953.92 654.92 379.65 443.97 603.22 582.01 840.66 327.44 412.69 706.39 533.89 652.83 133.53 301.06 625.12 259.75 621.04 958.25 448.17 515.81 511.47 785.03 86.77 1226.97 623.22 274.54 0.00 153.61 845.88 784.41 1113.38 622.13 1001.80 874.34 782.55 682.57 536.28 818.70 720.35 448.90 227.35 1065.52 1018.34 434.51 706.38 543.55 309.25 322.60 391.46 585.38 807.28 365.98 254.41 644.02 403.18 485.06 215.32 603.00 1037.30 847.01 1115.96 654.28 691.82 504.18 971.42 735.37 654.25 1143.80 401.46 606.46
1103.57 403.40 444.63 748.36 873.29 811.06 686.10 668.10 632.12 504.75 646.02 701.28 922.39 605.67 583.23 640.94 703.26 676.90 574.71 911.28 529.65 635.63 671.67 346.78 1172.07 186.21 550.16 602.53 920.87 370.75 424.53 777.28 619.36 362.91 80.34 81.58 850.43 936.45 884.87 248.86 542.51 539.11 694.96 886.69 614.34 102.95 882.90 734.38 316.64 545.79 535.03 477.70 952.76 422.37 511.90 657.65 592.59 622.14 241.71 270.37 739.25 388.30 620.57 968.91 364.85 592.60 516.70 730.59 67.19 1235.36 473.14 376.71 153.61 0.00 918.33 777.15 1094.11 594.19 971.11 829.31 766.36 675.76 526.78 837.42 651.19 363.21 158.19 995.17 1000.01 479.30 668.61 554.59 404.74 291.91 444.03 549.34 731.45 232.58 154.63 719.78 317.68 561.33 214.52 622.69 1046.82 766.93 1096.91 659.31 683.37 435.99 988.73 771.31 599.24 1098.98 310.26 528.22
683.38 549.21 545.14 254.79 806.85 167.35 314.96 612.62 821.43 596.90 311.05 469.70 41.20 806.92 416.09 700.46 270.43 443.01 450.97 508.73 560.95 422.30 246.66 725.78 605.34 766.40 658.33 497.37 232.63 699.11 760.20 757.70 503.05 855.48 904.42 955.49 198.78 570.79 454.04 806.67 517.51 404.22 567.35 792.75 477.25 976.01 143.79 781.34 629.31 528.80 507.80 630.47 727.25 896.23 1011.27 409.69 810.53 525.07 979.41 728.08 602.15 934.70 750.34 573.38 608.84 723.54 487.94 187.74 932.65 710.65 533.24 889.86 845.88 918.33 0.00 383.76 632.98 449.83 587.51 172.28 499.76 324.57 674.66 977.64 428.43 597.73 795.58 525.84 178.20 735.84 477.16 778.98 920.97 710.09 936.60 524.34 437.74 823.69 859.14 1034.77 625.65 835.81 834.84 714.96 374.63 454.81 527.95 425.06 622.10 647.09 281.47 449.17 396.68 535.15 772.82 476.50
510.24 515.18 457.85 310.64 535.43 241.59 483.67 300.70 561.27 395.22 350.02 628.53 369.83 550.14 331.08 424.04 310.90 601.84 485.82 300.42 658.87 595.31 321.87 470.94 482.53 669.47 413.23 533.69 552.94 665.08 514.11 411.92 167.91 667.03 785.28 822.26 241.29 367.43 256.98 737.82 295.88 401.69 302.93 521.33 562.81 847.29 487.11 573.13 510.17 340.44 605.72 678.78 520.87 675.19 734.88 508.83 548.03 350.05 767.57 516.90 423.26 686.51 476.85 367.00 424.79 435.02 272.94 262.95 786.19 587.84 666.49 709.12 784.41 777.15 383.76 0.00 459.84 546.56 388.89 439.72 169.97 312.40 451.86 783.16 483.95 449.07 676.44 352.70 404.92 471.81 108.54 494.71 732.52 538.44 701.31 289.05 178.55 735.14 725.14 746.25 489.67 613.01 681.56 496.99 383.70 701.20 465.90 160.64 285.43 624.81 335.61 81.77 422.64 457.44 696.25 485.35
50.40 921.28 862.98 641.74 465.21 483.54 827.04 457.26 697.46 620.61 698.00 994.28 591.78 681.06 707.64 555.34 693.70 975.84 814.38 220.27 1038.01 938.85 633.61 778.58 225.01 959.58 616.02 933.59 789.26 1030.46 794.29 545.64 541.55 872.72 1079.25 1134.43 522.91 167.39 303.41 1052.21 551.60 745.60 520.87 464.42 993.80 1180.13 712.11 667.45 827.59 687.29 984.86 1023.96 358.14 919.94 908.17 843.57 618.72 544.81 1019.08 829.09 488.26 913.80 657.71 226.90 764.58 665.23 712.84 574.69 1075.21 219.18 1034.65 908.52 1113.38 1094.11 632.98 459.84 0.00 935.68 195.20 746.93 396.25 668.53 665.43 679.08 835.63 730.90 973.80 107.14 519.65 729.84 519.46 672.04 910.92 830.57 791.60 544.77 370.86 1074.93 1105.39 853.76 804.06 754.13 927.82 663.92 323.22 1013.50 205.98 555.27 472.53 976.60 418.96 448.51 751.20 211.88 1056.25 831.02
986.08 282.56 302.49 347.73 962.16 588.45 244.95 670.99 865.80 585.14 329.06 167.99 491.03 807.41 381.69 804.42 379.52 192.38 229.00 784.16 112.31 115.39 389.32 555.79 947.65 484.02 634.53 93.47 433.48 274.67 670.12 874.18 581.40 690.46 517.59 621.07 551.34 768.29 745.64 436.19 485.80 293.53 681.81 976.26 89.25 591.39 476.62 882.27 402.73 421.45 59.16 181.83 1017.88 714.71 871.39 182.58 800.59 584.46 704.53 479.38 837.59 693.59 804.98 889.34 410.18 723.72 382.24 414.78 575.61 1052.96 121.05 741.83 622.13 594.19 449.83 546.56 935.68 0.00 886.90 440.60 687.82 406.63 691.80 1010.59 153.84 467.36 516.92 828.54 628.03 638.27 591.62 747.27 752.36 500.92 771.58 492.63 709.88 412.80 469.24 1020.89 379.20 791.43 545.31 791.48 780.13 225.19 841.19 539.52 681.30 257.92 684.39 628.33 292.18 860.26 347.47 232.72
158.58 849.23 809.38 656.70 316.17 461.03 750.12 429.52 587.10 592.87 568.11 894.43 546.31 584.28 622.83 449.43 681.40 867.74 753.98 119.65 908.12 877.06 610.23 724.79 282.21 942.37 566.83 803.70 740.48 999.13 719.01 396.97 479.53 814.59 987.95 1052.69 500.40 118.61 275.54 1020.23 542.94 644.98 371.22 302.07 898.36 1074.06 666.64 566.63 795.61 624.14 854.97 966.10 195.79 853.15 809.48 735.67 577.46 467.58 950.99 700.74 387.64 868.90 527.19 116.54 755.92 583.83 624.47 589.65 998.99 327.36 915.21 800.25 1001.80 971.11 587.51 388.89 195.20 886.90 0.00 724.42 307.88 589.07 612.56 652.98 764.41 722.24 961.88 122.10 501.27 680.65 392.46 524.14 851.23 722.28 750.34 536.11 294.29 1000.51 1013.72 744.05 772.08 659.81 809.06 491.81 338.18 967.10 223.00 444.56 423.34 939.05 433.92 347.89 725.27 226.84 1012.41 764.63
797.33 482.58 435.19 149.43 845.88 263.39 226.46 584.96 809.76 579.55 251.77 297.42 213.48 784.44 317.03 733.03 128.82 270.73 343.76 604.77 487.24 367.77 199.99 632.21 730.45 643.10 615.28 391.65 113.22 570.45 722.90 787.23 476.90 837.68 817.32 863.26 224.02 631.50 509.65 674.70 480.21 362.94 505.18 851.56 373.86 874.91 126.81 840.15 555.64 430.37 434.09 542.45 823.29 836.46 980.34 258.02 781.34 567.73 921.42 648.75 660.96 856.19 696.41 669.42 467.23 704.47 440.86 216.48 824.60 737.79 485.78 851.88 874.34 829.31 172.28 439.72 746.93 440.60 724.42 0.00 512.19 231.00 652.18 982.04 286.76 532.35 694.51 639.79 350.48 707.68 387.63 728.02 879.53 637.98 869.02 473.38 462.98 703.12 752.76 1007.79 532.11 813.33 758.52 731.79 483.78 353.39 623.99 439.73 594.29 474.81 414.78 474.48 280.58 657.03 600.54 360.40
426.89 558.83 501.50 382.54 441.21 357.55 544.96 211.84 472.41 361.29 389.85 647.37 458.56 424.71 369.50 343.72 417.22 620.68 497.87 209.72 680.43 638.96 350.25 474.68 490.14 669.93 340.06 605.36 625.41 708.73 438.68 390.49 171.65 591.60 800.55 827.04 321.81 287.85 190.22 762.56 261.95 411.41 156.17 455.31 693.91 853.37 552.54 491.14 537.49 375.73 676.71 707.45 355.50 627.03 689.72 505.24 425.77 268.95 692.14 495.99 311.95 670.82 387.99 372.64 468.44 389.27 316.59 315.49 783.94 554.92 733.00 610.23 782.55 766.36 499.76 169.97 396.25 687.82 307.88 512.19 0.00 281.19 390.57 674.61 533.98 441.25 697.81 289.11 443.40 450.74 155.72 406.67 635.55 517.53 598.65 268.78 82.85 778.79 768.79 700.50 514.41 533.04 621.66 416.85 324.00 720.04 423.13 165.42 196.57 668.46 340.13 131.08 434.69 393.85 729.75 514.51
708.08 312.41 253.67 135.23 678.33 287.36 263.77 353.96 607.26 348.55 108.66 366.18 283.37 557.16 92.53 502.03 160.33 339.49 216.68 490.91 448.67 365.44 92.32 401.21 704.88 512.09 384.28 344.25 344.22 462.31 491.90 577.73 245.90 644.82 634.23 703.98 269.30 569.04 446.03 570.83 249.21 155.70 388.61 687.14 420.39 747.83 271.35 635.36 359.12 238.60 395.52 426.26 636.69 605.46 749.34 224.05 550.34 336.73 734.72 424.25 544.39 688.79 465.41 533.28 357.04 473.47 216.36 151.24 694.06 795.91 451.81 644.64 682.57 675.76 324.57 312.40 668.53 406.63 589.07 231.00 281.19 0.00 441.55 760.34 252.79 349.39 525.39 561.39 420.37 498.10 223.22 497.02 691.60 445.79 638.02 242.38 364.04 584.69 625.68 776.79 377.13 602.70 554.55 500.79 511.47 438.85 636.99 246.32 369.23 420.63 455.14 325.92 153.50 603.95 482.11 233.32
700.27 507.12 446.08 502.75 425.94 560.80 635.99 208.17 185.18 131.25 533.62 749.40 686.54 132.26 412.54 173.89 554.71 765.27 530.14 497.69 707.92 679.05 494.68 180.00 738.57 498.04 57.27 622.26 765.40 614.27 192.41 342.77 283.95 303.29 488.10 536.08 572.18 573.55 580.64 530.16 206.00 429.27 262.37 423.29 734.00 595.09 691.88 228.76 424.19 341.69 699.27 667.54 448.23 337.91 336.61 594.71 135.87 149.59 445.87 256.41 232.69 382.51 173.22 500.63 348.39 68.47 356.68 553.60 547.93 815.73 707.11 328.63 536.28 526.78 674.66 451.86 665.43 691.80 612.56 652.18 390.57 441.55 0.00 441.51 606.62 349.95 496.77 633.80 666.36 101.77 361.96 116.49 368.78 264.67 299.10 199.17 440.21 590.39 571.55 379.70 400.66 161.15 415.55 179.61 662.70 832.31 634.39 345.90 194.00 560.41 618.16 383.33 511.63 667.43 618.88 563.25
729.48 819.28 836.17 847.51 365.01 878.91 954.78 534.83 256.33 555.11 866.02 1110.75 1018.48 320.60 731.33 377.56 899.47 1084.06 874.04 537.53 999.60 1050.35 830.18 588.55 879.70 846.99 481.13 998.91 1095.26 969.18 483.28 371.24 633.69 521.23 757.08 860.56 860.90 649.69 693.42 924.30 524.79 748.06 518.44 350.91 1084.29 940.37 1031.69 228.47 689.65 660.48 1004.98 982.88 457.19 585.40 406.01 930.44 350.38 491.23 685.17 636.69 383.47 565.77 375.35 611.06 737.77 384.41 727.98 789.90 816.91 882.73 943.09 557.03 818.70 837.42 977.64 783.16 679.08 1010.59 652.98 982.04 674.61 760.34 441.51 0.00 950.52 680.15 795.58 709.94 986.10 483.86 686.72 380.74 586.72 658.23 440.11 517.96 709.45 924.27 943.10 174.68 713.18 389.33 707.62 362.80 841.68 1152.70 810.15 634.62 524.71 918.87 896.27 724.96 830.42 788.22 918.31 896.16
886.03 251.96 253.59 193.89 841.60 447.58 178.45 561.41 774.73 533.73 196.30 183.00 387.23 729.68 227.85 713.73 229.12 177.46 76.48 727.79 221.30 112.65 251.84 547.66 845.92 469.15 549.35 104.89 372.47 349.13 592.88 785.18 490.33 723.39 615.81 615.11 418.58 768.63 591.80 458.56 434.39 202.46 581.48 855.70 167.60 639.52 322.78 783.35 352.98 329.18 181.90 304.57 865.36 726.86 840.60 28.74 717.97 473.86 700.10 491.53 737.26 760.05 692.59 772.93 317.87 663.65 261.68 260.94 656.75 934.08 199.02 691.40 720.35 651.19 428.43 483.95 835.63 153.84 764.41 286.76 533.98 252.79 606.62 950.52 0.00 377.71 493.00 728.49 524.23 547.20 476.01 687.20 730.17 471.78 724.03 432.56 570.79 449.17 536.63 922.05 343.30 740.79 536.45 717.77 652.29 256.26 739.46 445.48 570.89 253.49 586.89 531.32 139.66 706.42 379.22 127.14
781.30 190.38 204.86 414.60 688.86 549.46 480.36 364.49 460.92 240.35 382.95 510.94 622.87 415.11 299.96 475.46 410.00 527.99 314.95 650.97 443.72 440.59 351.07 169.95 870.10 337.82 314.33 373.89 645.57 340.28 233.97 588.26 316.02 386.89 398.36 444.79 559.14 720.24 589.45 370.00 179.30 243.42 390.74 687.71 494.87 466.16 603.73 517.46 135.35 243.63 413.78 353.98 668.03 374.20 491.41 348.97 394.80 277.96 461.39 147.84 543.17 425.18 441.69 605.70 97.17 405.91 176.13 409.99 430.40 872.15 393.19 427.10 448.90 363.21 597.73 449.07 730.90 467.36 722.24 532.35 441.25 349.39 349.95 680.15 377.71 0.00 286.41 728.30 663.96 302.47 366.64 377.76 452.38 166.72 406.76 186.13 515.24 407.52 463.20 639.91 126.68 409.60 317.60 456.28 765.25 617.12 767.90 332.86 374.80 309.19 706.94 469.34 251.77 800.94 364.01 312.03
968.77 268.60 309.83 613.56 871.12 676.26 527.91 558.71 630.46 459.21 511.22 543.09 808.76 593.21 432.86 664.87 591.88 569.78 416.52 847.13 452.38 518.81 548.92 327.46 1102.59 51.41 516.75 475.53 807.73 260.76 412.07 776.90 572.58 365.01 122.81 178.59 715.63 952.73 821.94 173.70 435.86 411.23 632.55 885.22 537.07 227.67 772.73 715.06 166.27 395.42 457.76 367.71 927.87 366.54 524.82 521.74 573.27 523.38 280.66 280.97 712.33 382.29 627.36 845.34 254.68 545.92 403.50 607.84 182.64 1128.71 395.87 313.64 227.35 158.19 795.58 676.44 973.80 516.92 961.88 694.51 697.81 525.39 496.77 795.58 493.00 286.41 0.00 919.56 879.26 402.93 599.13 535.27 364.62 259.43 430.56 429.03 747.73 218.29 176.79 620.90 189.80 524.16 159.55 613.79 912.02 664.41 1004.14 575.76 543.44 341.98 906.39 701.83 464.44 971.10 216.25 393.42
157.54 829.02 760.85 534.60 408.12 376.40 719.90 482.28 658.74 644.76 590.86 887.14 484.64 600.93 600.50 459.91 586.56 868.70 739.67 172.41 930.87 831.71 526.47 737.44 201.03 868.15 619.59 826.45 682.12 978.92 727.79 506.92 434.41 845.62 1020.51 1032.61 415.77 60.25 196.27 990.44 551.06 682.44 413.73 422.22 886.66 1098.12 604.97 609.00 821.69 627.03 877.72 949.25 317.89 909.79 884.72 736.43 663.27 526.51 981.25 766.18 440.40 924.84 559.36 188.18 733.91 599.68 605.70 467.55 1041.50 306.34 927.51 871.89 1065.52 995.17 525.84 352.70 107.14 828.54 122.10 639.79 289.11 561.39 633.80 709.94 728.49 728.30 919.56 0.00 412.51 706.30 412.32 645.30 911.11 787.72 836.15 557.89 263.72 1035.03 1013.96 866.15 798.79 709.26 910.77 568.49 216.08 906.36 134.02 448.13 476.10 908.62 311.82 360.50 676.49 104.74 990.08 755.87
570.05 668.28 637.03 373.86 782.53 203.00 493.16 547.72 807.32 584.00 385.91 605.62 137.00 789.42 495.64 703.92 370.25 578.93 513.60 459.21 631.24 600.50 365.73 729.76 464.65 827.85 609.09 621.50 375.19 767.97 727.35 709.29 452.22 880.27 968.06 949.88 163.63 472.76 303.32 881.53 484.66 509.04 467.66 768.43 655.45 1066.77 257.33 802.63 723.57 574.37 636.62 693.70 662.15 883.33 984.79 551.37 776.27 571.84 899.81 762.15 623.44 959.49 722.64 534.66 635.16 708.92 547.27 306.81 996.56 569.96 574.73 922.36 1018.34 1000.01 178.20 404.92 519.65 628.03 501.27 350.48 443.40 420.37 666.36 986.10 524.23 663.96 879.26 412.51 0.00 700.69 441.58 732.47 945.76 763.63 911.97 477.83 360.55 897.29 972.18 1009.70 700.04 827.51 870.34 728.34 196.43 585.03 358.19 389.91 556.77 672.33 103.27 338.88 515.75 356.95 798.06 564.26
736.15 492.85 461.78 585.27 477.15 576.43 655.69 272.58 227.53 159.57 484.27 719.88 694.64 215.11 440.30 261.94 585.33 710.59 470.72 561.00 666.00 659.85 537.39 132.52 840.34 424.62 113.82 556.49 820.90 628.34 90.64 412.30 326.79 243.56 516.52 448.02 537.06 661.60 586.08 546.91 258.91 344.74 335.93 491.25 677.47 564.91 745.50 330.53 380.69 294.23 633.50 656.45 550.00 256.58 346.07 559.05 170.77 223.15 344.10 208.93 334.46 312.84 224.43 574.19 390.37 142.99 361.73 561.22 515.28 889.29 682.36 244.19 434.51 479.30 735.84 471.81 729.84 638.27 680.65 707.68 450.74 498.10 101.77 483.86 547.20 302.47 402.93 706.30 700.69 0.00 363.27 180.49 295.17 217.19 229.50 255.72 496.76 545.63 558.04 408.96 357.16 200.73 337.63 216.00 736.26 749.38 736.16 328.64 257.31 602.39 691.72 465.97 427.10 769.20 609.35 493.44
548.44 501.63 448.02 352.45 536.78 317.75 486.99 265.35 534.05 286.68 331.88 589.40 435.96 485.02 289.61 390.58 381.93 562.71 421.10 311.43 567.11 588.66 315.54 432.44 503.46 595.32 304.69 516.06 500.85 651.53 430.03 476.44 148.27 582.95 707.97 713.72 278.38 353.60 222.81 667.51 187.34 298.09 194.39 534.67 625.92 740.05 494.57 523.26 432.86 262.41 556.06 605.72 503.79 586.01 642.86 447.27 454.12 261.73 683.49 441.04 344.07 662.17 472.04 401.92 399.51 411.60 329.91 309.87 735.80 608.77 617.95 607.46 706.38 668.61 477.16 108.54 519.46 591.62 392.46 387.63 155.72 223.22 361.96 686.72 476.01 366.64 599.13 412.32 441.58 363.27 0.00 435.15 648.44 462.58 592.77 180.51 148.60 709.86 693.86 722.83 439.80 523.11 573.02 441.34 404.63 614.42 474.08 52.10 280.62 577.32 356.54 102.70 376.72 446.90 624.65 376.81
682.72 568.14 537.07 584.19 351.83 615.88 691.46 225.37 124.41 188.84 591.21 826.78 752.28 60.14 468.01 185.39 636.15 818.17 610.72 496.11 708.17 778.95 566.86 207.81 748.58 525.85 157.17 718.18 841.24 703.63 199.68 286.98 326.80 307.32 555.00 555.21 627.65 585.05 553.89 646.65 261.47 484.74 299.21 365.93 825.71 657.54 768.37 179.79 455.98 397.16 740.10 731.74 443.66 330.61 311.13 667.12 53.32 261.57 426.85 284.22 228.12 348.40 99.11 516.90 464.88 59.69 456.58 617.68 585.10 806.39 764.68 343.12 543.55 554.59 778.98 494.71 672.04 747.27 524.14 728.02 406.67 497.02 116.49 380.74 687.20 377.76 535.27 645.30 732.47 180.49 435.15 0.00 360.61 292.48 226.20 254.64 489.52 620.92 633.33 361.89 432.45 135.67 443.36 78.52 728.53 888.30 745.51 401.37 210.10 676.90 676.19 482.74 567.10 740.97 621.77 632.84
934.33 492.38 519.99 781.79 655.33 801.50 784.18 523.62 357.94 371.95 679.45 812.94 962.17 333.27 641.99 475.81 750.71 835.26 653.69 817.77 727.41 742.59 732.57 290.39 1037.29 416.03 408.99 729.04 992.75 625.38 218.41 590.48 593.42 65.49 347.35 418.86 823.26 850.86 779.43 538.32 461.10 539.92 590.92 669.43 797.54 481.95 930.35 475.58 435.90 507.28 696.79 655.98 684.29 86.14 227.32 746.63 319.49 518.32 205.36 321.47 572.06 58.77 402.61 734.69 412.30 390.35 564.15 733.23 361.21 1103.11 670.90 50.98 309.25 404.74 920.97 732.52 910.92 752.36 851.23 879.53 635.55 691.60 368.78 586.72 730.17 452.38 364.62 911.11 945.76 295.17 648.44 360.61 0.00 313.57 146.61 467.93 718.40 582.91 490.66 440.09 459.43 224.94 278.06 367.23 959.55 934.62 1003.17 596.98 538.89 624.32 975.68 742.83 622.28 986.68 580.87 617.20
880.86 319.80 273.27 535.61 644.31 651.44 576.71 405.99 416.89 242.64 484.93 564.10 724.05 352.62 353.26 438.56 515.63 590.79 395.30 705.43 512.15 570.01 507.42 84.67 893.92 263.17 258.25 453.81 751.20 439.26 212.28 528.45 370.53 275.71 329.77 373.49 636.76 760.49 685.39 385.46 292.63 345.40 436.73 637.86 574.79 394.86 717.14 472.27 190.17 290.73 477.42 483.40 668.44 256.87 438.05 474.07 330.48 360.03 294.67 21.54 452.90 298.88 391.59 705.37 232.96 333.14 299.35 522.35 359.10 985.48 522.61 309.77 322.60 291.91 710.09 538.44 830.57 500.92 722.28 637.98 517.53 445.79 264.67 658.23 471.78 166.72 259.43 787.72 763.63 217.19 462.58 292.48 313.57 0.00 321.48 285.80 555.49 328.44 340.85 520.82 168.08 290.51 150.88 371.00 841.53 690.15 879.27 410.48 401.74 419.39 812.77 561.03 357.40 857.37 418.83 344.64
842.00 581.16 554.37 773.25 578.03 805.93 868.39 451.57 265.37 389.07 713.77 843.88 921.39 235.22 644.94 411.59 798.35 817.19 647.55 722.31 765.57 830.07 730.34 236.81 974.78 412.37 343.32 736.14 982.24 621.72 218.70 491.71 539.84 81.12 413.29 444.10 766.56 811.25 780.09 534.66 461.39 574.24 444.31 592.13 819.43 546.98 858.24 377.53 451.53 523.73 712.42 711.82 647.70 145.29 116.57 726.32 172.88 448.69 281.62 313.22 454.32 159.91 325.31 735.93 494.66 285.89 530.07 748.86 376.84 997.67 774.31 116.92 391.46 444.03 936.60 701.31 791.60 771.58 750.34 869.02 598.65 638.02 299.10 440.11 724.03 406.76 430.56 836.15 911.97 229.50 592.77 226.20 146.61 321.48 0.00 468.22 631.38 579.25 558.18 293.48 461.45 149.23 353.14 304.72 887.10 916.55 933.49 558.14 436.30 680.75 888.66 682.43 656.60 940.89 623.38 596.89
595.17 376.51 318.21 329.55 506.27 382.28 436.82 181.90 379.05 106.17 348.06 592.79 525.75 314.78 213.37 311.79 381.51 566.10 356.08 478.50 514.29 532.39 312.22 251.93 683.97 414.81 141.90 492.31 586.60 485.69 249.52 405.67 143.55 402.44 551.84 589.66 373.01 534.11 403.32 507.44 6.83 230.10 207.13 515.08 573.39 652.29 513.73 427.93 282.82 142.52 538.42 505.32 573.44 405.50 506.96 412.48 307.96 94.35 502.98 284.32 362.91 481.66 312.35 419.57 219.81 231.09 210.02 371.14 567.23 699.68 567.72 444.53 585.38 549.34 524.34 289.05 544.77 492.63 536.11 473.38 268.78 242.38 199.17 517.96 432.56 186.13 429.03 557.89 477.83 255.72 180.51 254.64 467.93 285.80 468.22 0.00 329.11 530.16 560.62 542.32 259.29 360.32 392.51 312.51 585.14 634.74 593.47 146.73 191.38 431.83 534.47 283.21 312.46 626.51 511.48 378.20
419.96 624.40 548.92 376.90 483.56 278.33 564.50 271.07 530.67 422.04 410.10 694.94 396.54 507.56 414.37 406.78 391.73 682.67 533.76 179.83 699.42 624.59 320.56 529.75 460.10 743.92 382.94 645.69 576.20 773.86 521.53 370.24 226.72 674.45 811.79 813.03 238.96 205.00 153.42 816.11 335.94 430.40 191.01 479.65 679.54 834.40 516.87 525.98 581.46 363.31 674.24 739.61 438.35 709.88 724.56 543.66 458.50 295.85 774.99 573.35 346.79 753.58 470.23 305.05 548.11 441.80 399.44 365.37 798.64 525.03 736.13 693.08 807.28 731.45 437.74 178.55 370.86 709.88 294.29 462.98 82.85 364.04 440.21 709.45 570.79 515.24 747.73 263.72 360.55 496.76 148.60 489.52 718.40 555.49 631.38 329.11 0.00 850.88 826.17 649.15 588.40 593.91 704.51 451.69 353.02 746.73 365.46 184.41 279.42 678.22 257.28 96.78 470.58 368.46 748.30 525.41
1084.24 315.08 390.56 643.06 963.83 791.73 579.53 703.01 745.33 571.08 590.29 540.82 836.36 681.06 492.16 764.28 648.76 534.21 490.56 988.51 372.98 470.47 661.59 413.11 1213.32 166.88 586.69 448.34 768.72 165.18 540.72 856.89 665.56 583.30 292.68 290.36 798.05 1051.50 896.39 94.67 536.99 513.86 737.29 966.30 463.76 233.72 771.95 800.71 329.32 496.27 371.90 249.23 996.88 584.83 671.05 477.91 658.92 624.51 391.89 349.98 781.34 538.48 711.11 949.73 310.35 658.86 462.20 639.50 299.77 1229.84 322.56 531.93 365.98 232.58 823.69 735.14 1074.93 412.80 1000.51 703.12 778.79 584.69 590.39 924.27 449.17 407.52 218.29 1035.03 897.29 545.63 709.86 620.92 582.91 328.44 579.25 530.16 850.88 0.00 111.57 839.19 342.82 618.95 377.84 699.44 980.48 569.10 1123.63 666.81 718.28 228.31 965.45 812.56 517.08 1120.48 102.58 439.90
1063.17 363.00 404.23 633.39 919.47 770.66 617.71 735.50 704.17 583.49 602.43 612.36 898.94 639.90 563.70 745.44 630.41 614.58 506.44 978.51 440.76 542.01 622.20 425.52 1193.07 145.81 599.10 460.48 826.19 267.65 535.24 854.62 690.51 511.11 186.02 211.11 810.03 1031.17 916.67 106.81 553.79 526.62 765.23 933.57 517.09 122.15 801.93 782.21 341.46 519.70 410.08 360.80 1009.29 487.89 564.46 507.89 625.72 652.45 285.30 362.39 793.75 431.89 666.75 980.19 390.49 640.02 452.20 681.12 221.82 1231.95 399.22 482.39 254.41 154.63 859.14 725.14 1105.39 469.24 1013.72 752.76 768.79 625.68 571.55 943.10 536.63 463.20 176.79 1013.96 972.18 558.04 693.86 633.33 490.66 340.85 558.18 560.62 826.17 111.57 0.00 795.79 354.96 631.36 293.93 702.13 992.62 669.68 1131.26 641.76 720.23 299.85 995.16 792.31 472.18 1118.70 174.12 455.78
902.63 830.29 785.05 871.87 537.97 867.42 968.96 519.20 289.82 508.88 866.89 1059.66 1045.69 334.85 745.51 434.56 923.83 1069.71 845.57 712.21 971.21 989.31 854.54 493.82 1026.26 672.31 434.90 955.71 1121.01 881.66 405.94 518.79 578.34 374.60 706.77 719.85 888.11 824.37 802.57 794.60 549.15 727.36 562.02 525.59 1044.26 787.08 1048.14 349.13 710.99 599.44 996.86 874.19 631.87 438.77 231.33 914.34 308.57 513.11 510.49 542.36 475.89 437.01 416.46 755.92 728.09 311.23 666.94 869.22 652.59 1057.41 993.16 410.40 644.02 719.78 1034.77 746.25 853.76 1020.89 744.05 1007.79 700.50 776.79 379.70 174.68 922.05 639.91 620.90 866.15 1009.70 408.96 722.83 361.89 440.09 520.82 293.48 542.32 649.15 839.19 795.79 0.00 688.90 230.31 646.62 396.29 977.70 1132.00 967.05 674.51 503.93 914.35 906.43 707.68 782.39 962.90 837.15 835.12
854.46 153.16 172.57 455.25 757.13 527.47 444.96 432.76 495.86 269.41 360.96 418.76 660.50 492.59 290.12 504.52 403.29 439.83 266.82 724.13 365.52 403.37 406.18 224.64 920.80 239.11 343.39 285.73 645.33 271.18 338.97 655.14 389.18 393.94 298.64 368.39 566.84 793.40 662.61 248.15 252.46 221.43 463.90 761.99 406.71 417.47 582.93 612.24 23.53 250.80 354.50 316.76 761.21 383.56 526.63 358.67 470.45 351.12 417.90 148.23 579.45 425.57 513.84 655.54 64.88 467.06 216.73 437.91 354.24 945.31 355.97 436.46 403.18 317.68 625.65 489.67 804.06 379.20 772.08 532.11 514.41 377.13 400.66 713.18 343.30 126.68 189.80 798.79 700.04 357.16 439.80 432.45 459.43 168.08 461.45 259.29 588.40 342.82 354.96 688.90 0.00 458.59 229.06 510.97 763.23 528.93 814.34 406.02 447.96 252.75 734.81 542.50 303.79 781.30 252.19 229.24
803.20 599.98 563.78 663.90 487.50 721.95 781.13 332.64 133.00 292.40 648.94 854.61 847.69 108.33 557.68 309.89 715.86 881.30 665.51 631.78 767.63 801.48 655.83 263.51 876.20 553.68 218.42 744.32 926.55 729.77 175.63 393.47 445.10 226.08 506.89 589.06 729.63 709.55 689.56 658.51 367.15 539.53 412.70 501.60 856.43 590.83 853.03 250.64 480.68 411.61 766.55 643.88 498.47 238.29 175.46 729.40 135.41 310.74 405.18 312.05 363.79 258.59 234.78 603.56 506.77 195.36 479.11 714.75 521.80 942.06 762.85 210.52 485.06 561.33 835.81 613.01 754.13 791.43 659.81 813.33 533.04 602.70 161.15 389.33 740.79 409.60 524.16 709.26 827.51 200.73 523.11 135.67 224.94 290.51 149.23 360.32 593.91 618.95 631.36 230.31 458.59 0.00 428.15 206.14 823.85 944.17 795.54 507.05 345.77 709.90 779.31 544.48 621.89 814.00 644.93 635.15
967.64 335.16 370.86 609.09 782.41 756.53 626.96 470.56 479.47 393.52 550.48 647.82 837.92 433.66 462.02 564.23 632.35 668.89 495.88 780.43 548.05 585.37 588.18 235.55 1044.80 210.96 400.58 514.79 871.74 420.31 252.52 679.33 521.41 272.02 178.89 269.68 765.52 892.59 795.83 333.25 385.68 450.49 550.62 788.74 634.56 278.70 798.22 575.97 205.53 379.47 558.56 498.76 819.32 207.85 433.35 565.19 472.96 484.34 188.84 172.42 603.78 231.83 529.69 812.08 293.94 424.46 421.52 647.10 220.27 1049.91 537.97 237.94 215.32 214.52 834.84 681.56 927.82 545.31 809.06 758.52 621.66 554.55 415.55 707.62 536.45 317.60 159.55 910.77 870.34 337.63 573.02 443.36 278.06 150.88 353.14 392.51 704.51 377.84 293.93 646.62 229.06 428.15 0.00 521.88 945.66 757.99 985.98 539.24 485.83 434.75 906.92 675.72 508.28 1008.25 375.80 449.53
638.02 639.46 563.98 636.02 288.10 633.76 735.67 239.09 106.47 249.15 609.45 866.97 673.76 107.61 512.22 108.58 661.12 840.28 648.04 472.82 754.93 796.95 593.11 286.33 670.06 604.37 175.17 763.35 845.01 744.13 278.20 223.25 361.23 385.84 575.61 633.73 594.39 508.24 538.82 651.82 305.68 542.61 260.68 302.20 851.90 725.64 772.14 151.63 532.31 441.37 808.08 783.58 408.48 409.13 381.60 689.03 131.84 243.91 505.37 362.74 204.83 426.00 35.38 438.38 525.82 111.14 474.58 624.52 635.44 775.37 811.44 365.08 603.00 622.69 714.96 496.99 663.92 791.48 491.81 731.79 416.85 500.79 179.61 362.80 717.77 456.28 613.79 568.49 728.34 216.00 441.34 78.52 367.23 371.00 304.72 312.51 451.69 699.44 702.13 396.29 510.97 206.14 521.88 0.00 651.72 939.64 668.70 402.97 223.82 730.94 689.91 496.46 588.49 673.23 673.22 668.31
373.62 738.74 672.99 458.40 624.20 235.76 579.26 522.85 758.19 665.31 497.41 746.50 333.43 744.70 570.26 543.14 478.76 748.13 638.88 304.15 812.64 755.51 450.27 788.47 268.22 860.61 646.37 686.66 535.17 888.64 762.68 682.11 495.65 915.60 1034.83 1090.61 275.13 276.33 225.28 885.81 585.95 541.80 442.79 638.30 756.23 1095.69 453.76 692.23 786.76 623.19 763.67 811.92 533.97 951.03 976.34 664.97 749.77 513.11 1016.14 819.99 572.14 994.82 655.89 404.26 780.68 682.91 640.59 391.35 1070.56 373.53 771.16 934.23 1037.30 1046.82 374.63 383.70 323.22 780.13 338.18 483.78 324.00 511.47 662.70 841.68 652.29 765.25 912.02 216.08 196.43 736.26 404.63 728.53 959.55 841.53 887.10 585.14 353.02 980.48 992.62 977.70 763.23 823.85 945.66 651.72 0.00 690.28 161.76 452.48 520.57 839.95 95.74 301.93 575.70 194.80 953.08 615.23
1063.90 442.24 479.28 412.78 923.33 564.59 268.23 784.67 932.66 740.91 398.99 126.05 448.03 897.32 452.09 914.62 390.30 99.36 302.17 889.61 286.95 196.40 461.47 745.02 958.50 659.43 775.04 253.46 240.17 460.31 818.57 986.66 658.49 890.90 742.47 840.11 553.06 862.04 797.39 607.13 641.57 404.64 704.61 937.43 152.59 760.11 397.83 993.38 552.46 532.56 259.60 382.27 976.64 903.94 1033.12 285.00 834.98 703.21 881.07 668.61 860.39 903.97 904.26 912.14 543.56 857.84 517.94 479.34 776.05 1063.81 293.79 893.58 847.01 766.93 454.81 701.20 1013.50 225.19 967.10 353.39 720.04 438.85 832.31 1152.70 256.26 617.12 664.41 906.36 585.03 749.38 614.42 888.30 934.62 690.15 916.55 634.74 746.73 569.10 669.68 1132.00 528.93 944.17 757.99 939.64 690.28 0.00 852.04 562.32 774.91 434.46 594.54 661.37 365.35 885.08 547.91 352.83
256.38 863.58 797.83 614.29 508.33 360.60 704.10 582.49 775.17 647.77 622.25 871.34 495.19 734.95 655.50 560.12 640.52 872.97 773.93 272.62 953.50 852.11 606.05 805.74 106.46 985.45 691.66 844.35 685.02 1013.48 826.80 520.35 568.43 937.68 1106.41 1166.63 399.97 160.46 251.27 1037.04 600.30 666.64 547.75 522.43 881.07 1199.86 615.52 690.01 837.87 671.99 900.35 968.98 418.79 947.10 971.00 735.88 770.26 660.53 1080.26 877.79 540.61 1016.90 659.57 322.20 813.28 699.89 738.84 553.11 1154.47 211.77 913.68 963.02 1115.96 1096.91 527.95 465.90 205.98 841.19 223.00 623.99 423.13 636.99 634.39 810.15 739.46 767.90 1004.14 134.02 358.19 736.16 474.08 745.51 1003.17 879.27 933.49 593.47 365.46 1123.63 1131.26 967.05 814.34 795.54 985.98 668.70 161.76 852.04 0.00 526.18 576.31 964.79 257.50 384.13 737.46 33.04 1045.08 740.07
549.46 471.40 395.92 381.55 502.77 265.65 460.96 222.35 481.95 242.19 314.36 557.61 383.86 461.51 237.51 352.30 329.83 584.30 369.00 363.53 515.01 558.13 338.64 398.66 551.31 561.54 288.63 508.20 552.95 620.86 396.25 424.34 96.17 531.49 666.28 661.62 226.28 389.41 274.91 651.08 153.56 245.99 142.29 488.67 589.28 687.95 497.31 477.26 416.43 210.31 551.34 586.61 503.69 541.52 653.69 420.93 402.02 218.58 649.71 388.94 298.07 610.71 421.51 349.82 366.54 363.28 277.81 354.87 692.79 656.62 571.52 572.83 654.28 659.31 425.06 160.64 555.27 539.52 444.56 439.73 165.42 246.32 345.90 634.62 445.48 332.86 575.76 448.13 389.91 328.64 52.10 401.37 596.98 410.48 558.14 146.73 184.41 666.81 641.76 674.51 406.02 507.05 539.24 402.97 452.48 562.32 526.18 0.00 231.40 525.22 404.39 150.55 328.35 499.00 572.55 394.69
522.93 540.25 464.77 504.46 339.64 473.11 603.78 15.27 275.84 178.62 458.59 648.87 615.26 270.24 380.33 147.15 514.88 675.55 515.80 303.69 661.38 676.01 443.71 336.59 645.86 594.85 143.49 645.62 707.51 677.07 347.95 233.46 137.41 497.29 637.26 700.48 457.68 415.85 386.79 696.11 195.50 389.82 89.11 342.87 730.96 764.53 558.52 296.24 471.49 331.19 698.14 690.96 411.09 477.95 521.23 542.15 263.42 97.03 601.41 413.00 216.22 556.20 191.42 393.69 411.19 192.70 381.93 502.63 633.22 642.47 694.83 487.91 691.82 683.37 622.10 285.43 472.53 681.30 423.34 594.29 196.57 369.23 194.00 524.71 570.89 374.80 543.44 476.10 556.77 257.31 280.62 210.10 538.89 401.74 436.30 191.38 279.42 718.28 720.23 503.93 447.96 345.77 485.83 223.82 520.57 774.91 576.31 231.40 0.00 622.32 466.09 272.64 472.18 554.38 615.70 538.38
1027.00 167.33 166.96 447.38 898.34 604.19 408.29 612.84 737.61 488.69 426.40 376.42 640.72 692.67 405.58 625.19 456.82 385.00 314.58 819.40 147.51 336.82 448.61 469.87 1071.25 304.99 555.77 273.49 588.03 95.64 543.16 794.07 567.23 599.63 422.65 417.93 640.36 848.37 731.54 214.45 438.66 343.80 638.07 903.48 281.87 422.00 555.97 774.28 229.22 314.91 200.66 167.45 939.04 636.31 725.77 261.93 639.93 525.29 446.61 400.98 723.50 593.20 713.03 851.40 212.02 628.88 351.87 507.53 479.34 1112.12 203.52 651.00 504.18 435.99 647.09 624.81 976.60 257.92 939.05 474.81 668.46 420.63 560.41 918.87 253.49 309.19 341.98 908.62 672.33 602.39 577.32 676.90 624.32 419.39 680.75 431.83 678.22 228.31 299.85 914.35 252.75 709.90 434.75 730.94 839.95 434.46 964.79 525.22 622.32 0.00 775.60 675.77 298.59 955.63 125.73 263.92
469.36 664.20 664.16 393.00 679.26 230.13 539.89 481.36 741.93 623.51 413.04 700.65 240.27 736.33 524.81 613.24 383.02 673.96 564.72 358.74 716.90 690.11 384.87 743.93 363.96 854.98 601.83 590.92 478.46 814.10 770.33 606.02 484.00 921.45 993.60 1053.15 190.76 372.07 202.85 888.35 527.64 513.38 448.29 665.16 711.90 1055.13 360.60 762.33 756.60 527.45 667.93 768.29 558.88 910.53 954.77 580.60 715.78 468.57 1003.08 793.33 595.33 993.86 657.51 445.07 713.37 658.79 574.40 325.95 1009.93 469.27 678.00 935.91 971.42 988.73 281.47 335.61 418.96 684.39 433.92 414.78 340.13 455.14 618.16 896.27 586.89 706.94 906.39 311.82 103.27 691.72 356.54 676.19 975.68 812.77 888.66 534.47 257.28 965.45 995.16 906.43 734.81 779.31 906.92 689.91 95.74 594.54 257.50 404.39 466.09 775.60 0.00 253.84 534.89 290.54 901.33 539.38
498.91 596.95 539.62 386.97 475.81 323.36 517.03 287.91 548.48 389.38 335.02 661.34 407.97 515.59 364.54 419.79 392.67 634.65 507.81 228.24 665.56 643.97 378.84 535.14 400.76 684.62 354.13 570.61 587.70 746.85 532.73 398.96 246.72 682.04 810.67 812.17 323.06 301.78 205.39 770.21 290.04 381.83 260.16 489.91 644.58 838.50 483.74 520.68 535.56 360.86 621.88 708.42 486.58 656.69 719.94 502.58 519.20 364.43 768.59 539.49 341.49 740.02 464.06 349.79 502.21 451.80 354.71 319.92 822.14 506.07 682.12 709.59 735.37 771.31 449.17 81.77 448.51 628.33 347.89 474.48 131.08 325.92 383.33 724.96 531.32 469.34 701.83 360.50 338.88 465.97 102.70 482.74 742.83 561.03 682.43 283.21 96.78 812.56 792.31 707.68 542.50 544.48 675.72 496.46 301.93 661.37 384.13 150.55 272.64 675.77 253.84 0.00 454.55 417.17 723.10 479.51
801.60 202.00 154.61 210.19 746.39 388.40 228.59 487.45 654.63 418.63 157.16 322.66 427.38 627.24 137.40 619.33 158.23 310.41 63.18 607.69 298.67 252.31 150.02 421.72 843.92 413.03 454.36 219.07 393.80 351.90 485.74 700.63 370.23 622.67 568.99 582.68 367.49 675.58 541.63 428.79 319.29 82.36 470.64 760.49 298.17 594.33 370.47 671.10 319.94 210.28 245.52 272.76 790.19 595.78 743.18 131.95 597.87 406.81 652.07 378.94 626.42 639.95 553.11 671.11 262.30 543.55 166.47 208.94 623.70 949.23 304.40 571.30 654.25 599.24 396.68 422.64 751.20 292.18 725.27 280.58 434.69 153.50 511.63 830.42 139.66 251.77 464.44 676.49 515.75 427.10 376.72 567.10 622.28 357.40 656.60 312.46 470.58 517.08 472.18 782.39 303.79 621.89 508.28 588.49 575.70 365.35 737.46 328.35 472.18 298.59 534.89 454.55 0.00 757.45 424.32 79.82
262.28 864.15 788.67 639.34 512.86 393.64 737.14 560.56 747.78 614.73 655.29 889.42 493.95 705.67 628.32 564.65 673.56 883.88 782.90 250.69 927.72 819.07 631.21 772.70 139.50 972.89 688.71 811.31 718.06 1014.05 832.53 487.31 539.15 950.36 1073.37 1137.35 433.01 164.99 224.09 1029.45 633.34 699.68 518.47 526.96 874.02 1186.95 614.28 656.97 804.83 705.03 888.32 1002.02 422.63 914.06 989.46 735.16 768.01 631.25 1085.99 849.11 518.68 997.39 664.10 292.92 838.65 704.42 710.44 572.29 1133.20 227.66 905.44 966.96 1143.80 1098.98 535.15 457.44 211.88 860.26 226.84 657.03 393.85 603.95 667.43 788.22 706.42 800.94 971.10 104.74 356.95 769.20 446.90 740.97 986.68 857.37 940.89 626.51 368.46 1120.48 1118.70 962.90 781.30 814.00 1008.25 673.23 194.80 885.08 33.04 499.00 554.38 955.63 290.54 417.17 757.45 0.00 1017.90 773.11
1106.65 262.47 292.69 571.93 920.03 717.32 495.94 600.43 701.28 521.60 530.16 438.24 733.78 677.20 389.58 701.85 577.79 464.93 423.59 910.30 273.24 367.89 559.01 476.83 1123.86 211.01 595.58 365.32 666.14 132.59 591.16 824.20 641.37 581.26 296.92 292.20 751.41 953.30 793.81 88.72 504.65 411.28 680.49 933.61 395.32 296.27 681.70 760.85 228.66 418.35 288.31 215.51 996.25 582.79 676.27 387.66 675.09 603.31 459.42 400.42 800.16 598.54 667.31 907.73 317.07 562.08 423.31 617.93 356.75 1197.50 328.83 529.89 401.46 310.26 772.82 696.25 1056.25 347.47 1012.41 600.54 729.75 482.11 618.88 918.31 379.22 364.01 216.25 990.08 798.06 609.35 624.65 621.77 580.87 418.83 623.38 511.48 748.30 102.58 174.12 837.15 252.19 644.93 375.80 673.22 953.08 547.91 1045.08 572.55 615.70 125.73 901.33 723.10 424.32 1017.90 0.00 372.93
881.42 124.82 134.00 290.01 826.21 379.47 276.57 528.90 720.97 462.79 196.52 302.64 507.20 684.78 174.12 660.00 238.05 293.35 50.66 674.03 265.23 239.79 229.84 429.31 846.53 342.01 520.10 139.25 446.26 274.72 546.00 752.67 436.57 620.35 501.92 552.52 418.80 730.41 578.35 348.97 371.37 148.70 536.98 840.31 249.11 515.75 423.47 737.44 252.77 235.68 216.26 228.91 839.54 601.51 713.46 129.43 664.21 441.35 638.37 366.18 652.89 643.52 632.93 742.55 214.86 609.29 246.29 288.76 561.75 951.84 260.95 637.60 606.46 528.22 476.50 485.35 831.02 232.72 764.63 360.40 514.51 233.32 563.25 896.16 127.14 312.03 393.42 755.87 564.26 493.44 376.81 632.84 617.20 344.64 596.89 378.20 525.41 439.90 455.78 835.12 229.24 635.15 449.53 668.31 615.23 352.83 740.07 394.69 538.38 263.92 539.38 479.51 79.82 773.11 372.93 0.00
DEMAND_SECTION
1 0
2 74
3 24
4 30
5 31
6 63
7 4
8 100
9 42
10 70
11 10
12 85
13 43
14 45
15 67
16 9
17 57
18 87
19 2
20 4
21 100
22 34
23 79
24 91
25 60
26 80
27 96
28 15
29 71
30 87
31 25
32 57
33 78
34 89
35 45
36 6
37 24
38 67
39 84
40 3
41 87
42 10
43 17
44 23
45 27
46 38
47 97
48 22
49 24
50 15
51 57
52 83
53 38
54 87
55 55
56 95
57 91
58 13
59 3
60 1
61 31
62 22
63 51
64 92
65 5
66 90
67 9
68 94
69 96
70 45
71 96
72 56
73 49
74 17
75 32
76 5
77 43
78 25
79 84
80 54
81 43
82 87
83 92
84 35
85 82
86 100
87 43
88 61
89 21
90 70
91 89
92 14
93 47
94 96
95 50
96 10
97 1
98 45
99 38
100 96
101 59
102 97
103 97
104 31
105 15
106 56
107 69
108 36
109 19
110 55
111 36
112 20
113 76
114 3
115 29
116 49
DEPOT_SECTION
1
-1
EOF
