NAME: LDG200_1116_rain_200_0079
COMMENT: CVRP with travel times.  rootPos=1,custPos=1,demandType=1,avgRouteSizeIndex=6,weather=rain,lambda_cluster=1,lambda_random=4, T1=300,T2=700,beta=1, alpha(i,j) ~ U(0.8,1.2)
TYPE: CVRP
DIMENSION: 201
EDGE_WEIGHT_TYPE: EXPLICIT
EDGE_WEIGHT_FORMAT: FULL_MATRIX
CAPACITY: 49
NODE_COORD_SECTION
1 1 992
2 144 545
3 817 836
4 97 322
5 880 766
6 56 652
7 20 190
8 289 385
9 215 395
10 673 435
11 922 508
12 67 619
13 411 815
14 424 214
15 43 742
16 130 578
17 764 469
18 423 223
19 612 577
20 533 134
21 237 472
22 273 249
23 10 771
24 867 297
25 588 774
26 614 931
27 447 799
28 355 324
29 394 38
30 572 461
31 841 491
32 864 169
33 421 537
34 49 45
35 242 55
36 420 13
37 403 603
38 929 455
39 912 415
40 913 321
41 96 297
42 828 490
43 582 509
44 929 808
45 530 67
46 643 321
47 767 8
48 413 471
49 632 925
50 644 983
51 211 740
52 539 864
53 483 239
54 967 22
55 760 229
56 679 844
57 160 337
58 599 147
59 485 871
60 702 264
61 886 385
62 34 920
63 736 701
64 930 86
65 672 900
66 897 778
67 613 588
68 268 262
69 530 852
70 845 169
71 375 791
72 656 439
73 229 299
74 45 605
75 256 615
76 231 469
77 165 747
78 324 362
79 927 804
80 747 916
81 818 199
82 58 431
83 767 369
84 685 769
85 984 455
86 34 369
87 941 426
88 563 895
89 972 917
90 619 18
91 244 221
92 445 843
93 674 376
94 810 182
95 966 203
96 476 876
97 624 246
98 323 932
99 729 981
100 66 155
101 288 391
102 651 498
103 120 619
104 42 728
105 493 823
106 603 897
107 747 739
108 346 971
109 796 943
110 800 941
111 556 845
112 689 512
113 16 558
114 844 892
115 253 316
116 485 724
117 252 363
118 567 979
119 217 36
120 379 630
121 522 825
122 871 671
123 410 396
124 824 314
125 16 950
126 686 43
127 40 489
128 421 361
129 353 794
130 647 278
131 582 838
132 801 757
133 446 551
134 44 177
135 840 119
136 625 560
137 20 63
138 143 852
139 104 382
140 113 106
141 650 30
142 409 450
143 628 926
144 790 230
145 541 202
146 957 127
147 853 456
148 663 104
149 681 874
150 283 103
151 112 94
152 685 384
153 504 742
154 941 907
155 991 681
156 876 90
157 358 510
158 517 424
159 316 807
160 670 96
161 674 706
162 295 495
163 885 51
164 557 65
165 54 108
166 363 861
167 969 489
168 887 212
169 205 879
170 834 708
171 800 677
172 795 625
173 103 219
174 316 28
175 170 984
176 634 823
177 395 252
178 872 891
179 140 337
180 513 104
181 515 672
182 140 851
183 898 552
184 640 461
185 356 333
186 560 16
187 158 52
188 817 360
189 782 108
190 854 322
191 381 214
192 340 562
193 917 685
194 506 238
195 236 711
196 587 231
197 553 74
198 171 214
199 901 358
200 992 414
201 616 827
EDGE_WEIGHT_SECTION
0.00 445.30 807.06 693.91 859.05 364.78 819.62 653.33 639.49 842.09 958.73 384.79 437.42 865.54 280.39 463.50 881.60 846.49 765.00 964.80 592.38 801.03 275.64 1078.73 583.32 635.51 484.39 706.53 1020.65 782.40 947.62 1126.02 659.95 949.63 969.36 1022.00 585.14 1023.37 1057.80 1107.80 723.01 932.68 720.63 924.66 1013.55 883.33 1157.42 629.46 657.84 671.83 380.38 574.09 884.80 1297.01 987.50 649.56 688.74 985.77 536.42 994.12 1031.02 97.38 797.48 1222.83 684.02 888.36 747.25 785.16 567.96 1115.96 475.03 862.19 768.07 384.82 461.26 593.87 332.56 701.76 931.07 722.60 1067.57 565.37 970.93 683.58 1044.02 649.36 1055.48 606.26 956.53 1090.92 815.32 488.39 884.46 1072.30 1169.52 510.52 971.68 395.38 763.45 849.27 662.37 811.91 448.11 298.33 522.08 589.14 761.75 383.83 771.22 784.14 546.81 825.19 458.23 836.19 745.73 531.75 684.57 656.04 944.41 530.39 555.24 879.65 716.53 1037.93 56.91 1123.72 521.98 737.65 442.90 924.33 576.55 809.32 650.63 832.15 1156.22 749.18 913.52 215.85 619.06 866.98 1095.72 669.38 644.36 1016.23 900.78 1193.14 980.13 1089.94 692.01 877.32 891.24 881.41 552.66 915.55 1005.18 1196.24 605.90 775.75 422.10 1076.48 712.06 541.40 1215.11 1008.36 878.51 439.84 1024.80 1111.35 281.20 854.49 817.32 822.91 793.10 963.76 207.64 627.84 789.44 838.58 696.15 966.61 597.31 221.62 962.29 838.05 722.66 1053.88 939.10 998.85 1116.92 1071.69 834.57 547.58 927.30 867.78 383.05 920.00 991.61 798.30 1070.78 1093.03 633.64
445.30 0.00 721.81 286.80 738.46 155.15 412.31 270.52 194.19 568.93 741.95 116.62 388.64 462.19 239.54 37.91 658.17 443.14 474.10 561.45 159.84 390.16 296.24 748.64 508.40 603.43 423.13 303.18 599.28 459.93 702.02 793.44 330.01 548.56 545.20 589.46 258.25 732.03 764.94 779.75 311.67 716.96 478.68 781.94 581.45 601.23 789.12 348.79 609.37 669.96 212.25 495.05 492.22 918.80 657.67 620.64 300.81 622.78 486.28 585.49 761.56 347.92 580.81 867.55 635.33 728.86 495.33 369.40 483.03 772.83 375.92 539.72 340.25 134.13 134.74 171.09 209.77 318.95 779.93 713.35 737.74 215.17 700.34 575.55 802.38 300.28 774.35 542.31 891.45 699.99 388.00 416.20 602.95 742.47 839.69 464.70 554.37 451.44 730.42 429.94 279.56 565.39 90.45 228.26 434.89 579.89 634.45 473.23 732.32 745.24 507.91 598.31 138.81 790.63 306.47 410.66 268.81 577.07 499.11 294.31 497.96 731.03 349.30 733.42 394.73 721.63 188.68 389.38 343.79 560.23 533.90 670.39 336.29 393.05 777.83 506.91 518.93 294.21 205.23 466.19 702.40 312.46 608.96 686.40 537.79 863.31 745.48 686.59 651.38 498.96 483.13 615.68 407.67 863.30 822.09 843.54 279.38 418.83 337.29 669.70 597.54 222.88 837.64 606.19 468.10 416.58 777.50 781.52 359.56 687.56 657.52 623.23 347.80 585.40 439.66 585.19 386.09 786.33 303.42 534.51 434.03 299.98 681.46 543.17 319.94 631.47 538.31 689.73 780.71 709.88 431.22 248.27 722.78 476.85 239.88 549.11 598.97 410.37 779.33 821.95 570.84
807.06 721.81 0.00 795.26 110.69 748.20 972.02 669.43 745.76 453.96 401.01 709.67 443.35 707.33 770.02 719.38 399.30 717.05 355.63 774.89 729.67 779.40 782.11 532.10 290.96 236.82 396.38 630.40 883.15 454.73 380.90 659.23 507.59 1016.06 964.44 887.15 516.32 367.05 451.51 526.47 824.36 369.30 435.74 117.60 780.94 514.85 803.32 560.15 221.73 204.90 645.64 315.81 704.08 812.90 612.99 157.50 823.35 715.99 376.54 613.88 480.60 767.95 141.00 717.71 196.31 140.00 371.36 758.64 295.11 675.80 483.12 433.06 744.09 737.67 643.40 719.23 679.39 664.42 130.95 208.02 637.41 912.05 530.44 242.76 437.40 872.59 409.37 287.31 214.46 799.17 818.58 401.96 496.29 654.32 627.40 352.55 621.08 527.23 233.24 971.83 660.39 408.94 705.64 752.08 343.25 263.47 170.32 511.24 140.32 153.24 306.72 369.80 788.86 92.06 740.47 389.08 708.52 279.37 985.27 520.46 325.73 210.38 621.89 531.81 806.16 773.34 864.72 632.26 510.47 541.32 276.98 127.24 466.18 945.75 714.75 365.04 1034.42 657.36 851.60 1008.08 788.60 581.33 208.25 584.26 693.51 688.75 397.83 717.58 184.97 879.64 1001.74 501.80 385.82 173.48 275.82 718.27 572.53 487.95 521.34 698.39 202.20 680.54 770.94 786.26 983.59 466.83 422.79 608.78 624.48 165.05 155.03 237.08 889.69 913.08 662.53 242.19 713.31 107.77 826.26 734.00 404.12 651.59 351.85 426.20 647.16 829.55 990.82 513.20 733.42 493.34 757.42 598.82 213.24 671.01 624.14 637.61 769.51 876.17 502.46 456.97 238.67
693.91 286.80 795.26 0.00 811.91 347.65 198.80 219.29 148.27 575.47 799.81 309.12 593.73 354.98 432.04 324.71 658.53 349.00 593.09 479.16 253.76 217.18 459.67 747.98 659.44 743.36 609.76 280.24 443.58 490.50 737.63 776.83 398.92 306.00 366.91 479.71 420.05 809.86 811.83 773.64 29.10 730.10 513.24 894.30 519.93 554.94 707.64 391.99 777.25 818.92 462.30 688.79 398.20 840.96 671.57 791.62 70.73 542.25 697.25 609.85 763.58 596.53 654.26 795.99 775.31 841.22 579.93 197.02 668.09 751.12 569.39 535.12 184.14 337.12 396.54 241.57 450.30 264.15 888.14 873.34 720.11 162.44 667.92 718.75 879.94 77.33 801.32 724.75 1009.72 594.90 173.17 634.23 584.98 707.46 853.59 674.14 503.68 628.25 894.84 189.44 226.82 570.71 351.32 433.73 653.43 762.56 707.90 702.11 894.39 907.31 669.98 594.34 281.95 887.32 186.83 517.65 178.69 784.99 323.36 419.30 660.73 810.15 327.09 703.35 643.34 649.48 204.15 327.28 537.26 537.29 699.72 766.63 421.03 150.49 727.14 593.05 266.86 542.47 103.55 230.74 614.66 352.07 771.93 684.10 475.47 809.61 734.16 604.30 803.69 300.25 206.48 604.40 558.71 968.74 934.31 792.85 348.92 414.86 575.04 614.90 704.53 282.17 785.97 500.25 225.54 610.05 837.09 779.22 569.80 761.01 730.97 746.54 116.47 386.69 676.38 731.51 303.80 895.30 74.37 510.57 578.75 536.70 799.89 560.19 297.00 545.77 292.57 691.75 731.26 709.22 348.26 381.10 857.80 433.30 412.94 497.73 483.50 164.29 790.01 859.75 710.45
859.05 738.46 110.69 811.91 0.00 805.39 979.84 686.08 762.41 371.80 291.21 768.56 476.23 659.47 800.01 736.03 352.29 677.18 352.31 686.80 709.28 804.84 834.10 474.18 327.77 347.51 448.37 661.97 806.15 429.26 327.55 601.31 513.63 1032.71 927.38 842.28 513.91 327.10 373.76 440.33 841.01 340.74 401.82 82.39 735.56 514.92 763.37 533.66 332.42 314.76 634.99 367.80 594.81 757.02 583.37 209.49 818.81 664.63 427.92 597.37 402.23 819.94 157.65 677.76 277.39 29.31 363.04 784.08 347.10 587.92 519.96 400.00 755.62 776.08 623.43 711.36 684.92 693.63 76.23 179.61 579.49 916.59 501.88 227.51 337.46 889.24 369.42 370.08 214.44 754.61 815.21 444.16 460.49 596.94 571.52 404.54 560.76 594.12 248.39 977.63 677.04 383.47 700.93 804.07 395.24 313.07 151.69 569.81 210.43 197.51 358.71 344.33 847.75 184.36 721.84 371.89 725.17 390.06 946.26 515.23 358.41 99.69 587.97 464.69 846.73 676.48 881.37 586.72 523.42 555.92 328.97 101.77 482.83 962.40 645.43 319.50 1044.02 709.35 841.01 967.33 718.41 573.58 318.94 578.09 624.57 648.80 335.15 690.04 251.94 853.81 943.07 457.82 395.39 176.58 201.86 661.00 573.97 504.60 568.44 711.88 233.77 695.45 713.67 702.81 993.19 545.07 348.92 549.91 673.92 127.02 178.87 207.49 897.51 877.70 746.00 294.18 705.62 164.97 842.91 712.10 412.00 703.58 286.81 357.01 672.60 759.33 998.27 457.57 629.84 477.81 709.56 594.38 102.55 631.91 585.63 545.04 719.56 874.37 437.40 369.07 290.66
364.78 155.15 748.20 347.65 805.39 0.00 488.78 361.95 336.69 598.75 835.33 38.53 395.75 575.47 84.39 117.24 694.05 556.42 553.43 699.93 261.54 479.99 154.06 830.20 576.99 624.10 442.72 441.66 673.18 539.26 780.56 909.00 420.43 618.27 648.63 691.16 384.82 869.26 872.66 876.26 376.75 765.62 569.10 837.86 722.73 697.60 916.53 452.25 638.35 694.11 193.46 524.03 596.76 1043.06 812.82 663.35 357.90 740.81 465.89 740.64 847.95 267.40 695.62 948.71 668.65 834.70 574.66 459.23 536.15 927.02 398.50 619.05 438.52 53.98 246.60 283.46 211.04 403.17 851.21 711.19 880.14 234.53 717.05 644.14 920.62 318.52 911.58 571.25 944.57 770.56 502.50 446.72 660.74 883.36 973.27 490.52 709.52 435.07 751.55 524.84 352.91 644.13 106.16 86.08 488.01 577.73 698.48 454.44 781.46 768.54 557.61 678.96 117.72 827.15 415.68 435.20 401.04 614.07 644.11 367.10 513.57 815.35 451.00 807.55 314.21 860.11 191.14 491.08 376.19 694.08 561.18 759.66 461.84 485.89 902.09 586.24 588.64 272.73 288.22 536.14 824.37 448.34 631.69 826.80 672.39 998.25 813.07 789.93 658.49 590.10 554.13 680.16 476.26 904.14 944.76 954.02 350.27 551.12 318.50 810.98 622.08 320.94 988.27 733.58 537.81 408.60 895.57 901.61 330.77 799.32 736.17 741.75 451.64 676.54 406.64 612.47 524.57 827.17 365.31 675.79 479.88 266.96 808.53 622.50 450.94 772.75 608.26 776.12 899.23 846.02 569.70 327.60 849.35 611.45 219.76 687.59 740.25 440.52 858.66 952.92 618.27
819.62 412.31 972.02 198.80 979.84 488.78 0.00 317.90 292.60 682.37 888.72 462.80 708.52 391.78 565.14 450.22 756.21 410.83 691.70 549.32 384.65 275.63 613.37 841.82 754.61 887.43 703.05 396.21 427.63 612.84 836.24 831.04 497.53 205.72 310.36 438.65 550.94 908.47 893.94 842.03 180.74 827.78 603.53 1053.63 561.71 640.36 757.40 475.52 912.18 958.96 615.00 812.38 456.44 922.32 733.40 888.07 214.80 600.49 799.33 671.97 804.91 748.15 831.02 870.41 910.46 1009.15 688.87 267.97 800.36 827.15 693.25 683.22 270.81 434.80 452.07 397.60 583.95 361.89 1040.28 996.76 790.11 254.25 743.50 817.36 938.48 231.03 891.25 855.64 1122.06 624.77 247.59 756.69 673.40 785.85 915.42 782.03 557.89 768.15 1016.54 83.85 311.63 678.26 502.76 547.20 752.22 895.56 836.95 844.68 1018.40 1005.48 814.05 692.95 401.79 1027.38 266.80 661.72 277.30 917.26 276.74 563.37 804.80 932.42 439.91 817.12 794.96 692.17 323.99 430.49 661.12 640.56 828.96 878.07 505.84 83.69 781.35 685.85 188.58 673.96 272.42 155.70 650.24 447.92 916.00 755.05 535.00 908.23 847.81 674.46 910.29 304.75 179.96 653.98 702.78 1087.47 1054.04 847.06 460.59 513.47 721.79 663.05 812.70 426.50 860.40 541.75 137.75 733.91 935.77 830.42 700.69 922.60 905.35 824.62 82.33 355.02 819.41 829.24 386.82 1010.50 205.26 542.97 663.56 679.73 928.88 673.01 379.45 557.70 211.26 733.08 779.41 804.78 341.69 486.82 958.00 484.20 565.64 576.12 558.50 169.33 843.35 912.15 817.05
653.33 270.52 669.43 219.29 686.08 361.95 317.90 0.00 76.33 375.07 611.65 361.01 447.43 231.60 446.34 292.87 470.37 212.55 373.80 365.58 147.68 147.70 512.24 575.05 452.02 586.24 400.46 107.31 418.55 308.93 548.17 614.44 179.63 419.53 392.75 410.92 265.60 620.40 637.88 606.16 222.95 541.94 323.47 746.84 414.33 335.65 593.25 185.25 609.59 661.80 387.34 522.43 259.16 734.17 475.92 585.48 153.92 403.21 481.43 411.90 579.37 618.44 528.43 646.66 607.87 711.48 386.28 141.19 501.73 599.24 465.59 388.72 135.54 355.24 224.41 125.76 399.07 48.43 760.19 683.67 555.99 273.32 503.39 499.46 677.06 262.66 595.74 558.44 825.86 504.12 191.71 456.60 395.21 560.47 657.94 485.83 369.74 553.29 713.95 317.71 9.04 365.74 314.86 447.12 453.59 598.23 563.10 592.19 715.81 702.89 526.61 404.88 318.87 745.18 101.76 407.56 40.60 618.63 376.72 268.58 497.03 647.18 137.32 565.13 596.42 525.76 260.60 164.36 433.46 339.34 526.37 625.20 203.25 339.70 593.20 373.76 404.69 469.82 211.50 353.96 486.58 145.33 614.81 504.65 341.92 681.56 589.39 490.72 597.20 300.71 370.90 414.63 394.58 784.88 746.74 640.34 186.33 245.52 442.29 502.58 527.23 150.04 672.39 436.24 353.86 485.81 671.89 599.77 516.47 627.70 605.14 564.97 235.57 387.15 615.27 526.65 190.22 707.91 156.83 367.39 360.97 475.59 616.36 370.42 104.12 449.77 412.01 522.41 572.51 536.29 235.35 184.23 655.41 280.98 337.98 353.24 431.85 244.10 597.59 644.65 514.46
639.49 194.19 745.76 148.27 762.41 336.69 292.60 76.33 0.00 441.78 678.36 298.16 491.29 294.06 412.86 219.45 537.08 288.05 450.13 400.53 110.54 195.97 477.96 641.87 528.35 660.02 476.79 183.64 405.09 342.23 597.72 681.78 255.96 414.28 380.62 441.22 317.47 696.73 675.63 682.49 177.37 608.65 364.97 821.78 443.56 411.98 652.27 261.58 671.76 693.38 402.13 560.46 335.49 787.56 552.25 661.81 106.62 471.82 557.76 485.56 645.78 542.11 604.76 722.99 680.57 787.81 462.61 175.21 539.76 647.19 466.96 422.02 146.06 318.10 273.23 106.50 379.81 124.76 827.82 749.29 632.32 196.99 544.89 575.79 753.39 220.17 672.07 602.81 893.09 511.04 193.81 499.23 436.71 622.35 734.27 545.81 441.89 565.45 768.22 292.41 85.37 442.07 271.99 409.98 529.92 635.94 636.92 553.84 767.77 779.22 543.36 481.21 324.05 767.44 112.28 434.31 74.62 656.66 334.53 290.97 535.17 706.07 178.82 618.71 588.92 597.51 246.25 218.90 434.83 415.67 573.10 669.72 279.58 264.69 665.35 447.29 390.57 488.40 135.17 318.05 558.73 221.66 674.37 580.98 390.17 757.89 641.18 525.67 673.53 304.77 342.31 456.13 470.91 861.21 809.19 681.84 200.65 310.79 491.01 542.58 603.56 133.90 707.34 470.33 339.74 493.47 723.99 654.10 479.33 679.23 645.36 598.27 210.27 391.21 627.61 602.98 225.17 784.24 115.73 441.42 437.30 494.17 672.27 411.92 176.27 500.52 377.54 587.68 627.05 612.62 243.97 234.97 731.74 329.23 386.80 412.62 479.99 216.18 641.74 720.98 590.79
842.09 568.93 453.96 575.47 371.80 598.75 682.37 375.07 441.78 0.00 236.58 609.73 468.01 343.39 683.14 531.02 95.30 324.34 175.77 328.98 452.42 473.73 704.83 297.40 353.54 518.65 459.23 380.93 499.74 109.00 181.81 310.25 270.13 750.72 585.21 485.88 349.64 270.51 291.99 277.51 546.37 166.87 121.46 441.13 416.81 143.12 486.98 270.45 511.11 558.83 565.42 460.81 288.40 506.74 256.78 433.28 508.77 292.83 481.04 236.78 274.66 802.53 332.41 434.65 498.91 401.11 186.50 452.97 451.17 341.77 478.46 40.35 469.62 602.47 434.29 443.81 597.20 365.99 427.78 485.86 281.39 614.83 143.76 387.46 321.87 622.39 312.83 482.96 573.18 442.53 451.27 486.64 88.69 298.11 415.32 502.96 188.96 594.92 492.67 653.71 384.11 74.16 583.56 684.83 428.07 499.75 321.15 621.08 545.60 558.52 452.29 103.00 675.80 497.83 466.23 338.59 405.07 513.34 593.42 392.50 420.55 272.11 262.96 234.26 791.22 431.45 635.67 303.04 510.59 184.12 422.55 345.56 281.19 682.52 365.77 142.96 740.47 664.52 543.59 647.57 435.39 275.27 524.39 228.05 252.77 416.80 214.32 360.38 475.73 514.83 636.66 108.11 363.63 536.64 371.67 408.06 306.18 168.90 515.89 368.71 303.22 432.95 440.92 398.41 695.02 513.68 296.82 323.17 599.17 337.60 327.21 260.37 600.04 511.92 728.56 437.04 357.79 528.29 531.90 369.87 294.83 670.29 276.01 55.67 364.17 445.71 658.90 202.83 372.48 272.73 365.03 382.50 319.76 299.28 535.10 240.64 385.17 529.53 297.48 360.43 415.98
958.73 741.95 401.01 799.81 291.21 835.33 888.72 611.65 678.36 236.58 0.00 830.49 581.76 519.91 902.19 751.78 141.28 538.96 315.59 551.84 689.00 692.97 937.08 222.70 375.41 528.04 546.44 582.28 674.30 345.58 112.78 349.83 494.20 934.94 785.82 672.36 541.20 64.64 125.55 214.16 782.95 118.13 345.53 310.03 572.33 330.73 500.91 507.03 494.15 563.00 738.75 509.57 490.23 508.96 335.68 412.96 745.35 465.39 542.77 348.91 123.46 931.42 313.68 415.30 480.86 281.24 336.82 674.03 491.36 361.83 593.41 276.93 703.43 839.05 670.87 667.88 769.81 602.57 296.68 444.71 328.01 851.41 215.49 377.18 85.29 858.97 96.75 520.26 442.08 520.32 649.90 547.62 254.16 318.17 324.99 533.97 375.44 727.92 512.26 846.52 620.69 259.75 804.32 894.77 518.33 508.70 288.38 705.55 421.68 408.76 482.39 256.07 880.76 432.62 669.65 517.20 641.65 587.30 796.32 581.01 473.26 236.31 499.54 220.41 962.27 525.71 872.25 536.70 602.09 371.73 452.65 280.35 463.16 881.15 405.35 315.57 916.12 807.03 780.17 830.56 536.22 511.85 507.63 318.32 489.35 376.13 85.52 457.11 455.41 721.21 838.49 234.74 476.14 405.54 222.70 405.65 542.76 405.48 673.41 462.50 357.95 669.53 446.69 548.18 894.44 648.18 66.07 302.04 788.77 247.30 245.98 199.87 815.16 729.52 881.74 458.91 555.81 411.31 768.48 564.41 453.50 812.80 60.49 292.25 595.96 553.47 861.80 195.29 426.54 186.60 570.00 588.66 188.66 453.13 689.39 427.12 544.52 728.16 177.78 134.30 437.85
384.79 116.62 709.67 309.12 768.56 38.53 462.80 361.01 298.16 609.73 830.49 0.00 383.36 559.16 122.92 78.71 705.03 543.98 514.90 662.29 223.90 441.46 192.59 804.22 538.46 618.02 430.33 404.02 656.43 500.73 743.29 882.91 394.45 579.74 635.82 653.52 362.89 848.65 834.13 863.27 338.22 728.35 543.12 799.33 684.20 681.22 889.96 423.52 632.64 681.58 206.59 518.32 558.23 1004.53 774.29 635.23 331.92 702.28 489.59 702.11 817.83 287.41 657.09 968.39 654.33 797.87 536.13 420.70 497.62 888.49 406.13 580.52 399.99 28.00 208.07 245.82 207.60 378.17 812.68 715.70 854.36 208.55 730.39 605.61 906.80 284.37 876.27 559.51 906.04 796.95 463.97 434.33 622.21 844.83 947.29 481.96 670.99 417.88 745.98 486.31 362.54 606.19 67.63 124.61 449.48 582.24 659.95 467.57 746.91 756.15 522.50 640.43 79.19 801.73 377.15 396.67 372.78 614.52 605.58 349.91 501.18 776.82 413.36 777.21 334.22 822.47 156.99 453.44 404.15 661.07 548.49 721.13 423.42 447.36 863.56 547.71 550.11 311.26 262.24 510.16 798.85 422.36 619.16 803.02 634.75 979.93 775.80 763.95 646.10 551.57 515.60 641.63 437.73 883.15 906.23 916.38 324.29 525.14 331.63 772.45 583.55 282.41 949.74 708.94 499.28 421.73 866.04 898.14 349.78 760.79 697.64 703.22 413.11 638.01 445.17 599.78 486.93 817.44 339.33 637.26 462.23 305.49 770.00 583.97 416.39 734.22 582.28 756.08 861.59 809.44 532.06 289.07 824.47 573.81 202.57 649.95 701.72 441.48 820.13 914.39 589.47
437.42 388.64 443.35 593.73 476.23 395.75 708.52 447.43 491.29 468.01 581.76 383.36 0.00 595.70 372.14 382.76 499.34 576.65 340.87 689.13 420.43 552.57 418.18 701.44 206.35 253.62 46.97 450.65 776.09 384.42 523.49 778.26 297.59 740.21 751.87 784.20 211.62 612.15 633.67 684.64 596.97 508.55 355.33 530.99 725.81 578.75 837.05 355.01 249.42 298.36 202.29 162.17 604.32 927.43 677.12 285.85 533.65 677.08 121.05 640.44 632.89 427.32 374.78 862.09 280.35 505.54 342.75 531.81 148.24 746.72 43.73 455.56 526.16 392.91 269.17 438.83 252.22 480.94 536.67 349.21 740.24 570.94 569.71 287.91 667.05 632.84 654.47 185.58 556.66 811.84 559.50 50.97 510.37 713.90 828.96 98.60 633.91 169.15 372.49 708.33 438.39 393.85 340.56 377.18 100.10 229.23 376.80 200.08 385.71 372.79 161.86 421.29 451.87 436.24 492.38 133.62 431.22 251.66 759.91 202.67 117.82 442.23 437.68 660.21 380.51 807.24 512.18 463.20 67.12 574.93 172.88 374.46 289.66 725.70 786.46 325.05 783.79 294.17 588.33 744.58 789.54 394.93 235.94 692.23 626.33 866.24 556.00 710.45 262.74 659.83 761.52 516.11 143.25 525.77 573.87 839.45 313.15 475.73 123.73 732.29 320.50 357.39 856.71 743.14 765.66 85.05 626.63 719.71 264.34 417.07 430.45 421.33 626.19 746.27 366.46 224.17 513.77 448.80 557.30 710.73 173.18 288.40 530.59 419.88 467.41 782.77 804.57 611.60 795.09 673.57 558.90 288.89 489.88 624.32 180.79 607.19 759.89 634.72 686.90 702.07 229.97
865.54 462.19 707.33 354.98 659.47 575.47 391.78 231.60 294.06 343.39 519.91 559.16 595.70 0.00 656.51 484.32 412.44 19.05 413.11 164.10 339.13 182.18 706.55 450.04 595.91 730.13 605.04 159.01 235.66 373.32 498.95 462.62 329.36 415.03 270.27 199.53 415.33 581.71 538.18 458.10 367.83 484.01 323.43 724.40 202.53 248.58 415.84 253.17 729.35 754.98 596.61 637.72 64.66 570.54 341.62 684.78 297.32 208.71 639.04 311.59 496.21 785.25 566.33 544.66 678.01 688.78 434.34 200.80 617.02 435.37 618.54 303.04 247.74 546.69 433.68 339.28 595.95 216.12 735.70 748.65 420.41 470.44 374.69 631.79 605.20 422.83 567.63 678.91 831.80 299.81 225.40 620.44 304.59 394.07 523.64 643.77 215.42 735.27 807.35 407.68 222.56 366.03 491.53 638.57 568.88 722.56 595.38 795.78 782.94 795.86 641.90 389.10 550.47 783.93 244.14 519.12 270.69 733.92 288.13 405.51 616.11 615.50 189.27 425.34 808.63 314.50 474.12 150.17 640.38 259.33 667.89 631.66 347.14 393.23 438.88 405.75 424.42 679.09 394.86 351.48 331.49 252.58 715.87 370.35 143.22 516.45 505.34 289.24 714.38 201.30 327.22 285.17 560.18 819.91 706.22 477.06 327.63 285.17 606.94 290.78 566.54 324.14 488.69 227.27 389.73 644.22 578.43 464.72 707.92 608.37 589.90 560.22 325.54 219.57 824.54 634.66 81.93 805.83 301.71 155.59 503.78 684.86 567.81 339.22 175.77 218.17 353.61 424.38 407.14 446.08 50.09 393.03 662.18 92.42 547.25 184.34 220.05 240.24 474.54 603.45 655.72
280.39 239.54 770.02 432.04 800.01 84.39 565.14 446.34 412.86 683.14 902.19 122.92 372.14 656.51 0.00 201.63 765.29 637.46 625.51 755.77 317.38 533.03 85.92 892.45 570.28 591.12 419.11 497.50 757.57 615.60 789.41 990.10 451.87 696.27 733.02 747.00 416.47 902.74 895.92 938.33 461.14 804.35 600.54 868.59 804.52 739.28 983.44 481.58 601.02 629.32 169.85 500.42 669.22 1068.06 859.30 612.52 442.29 813.22 452.85 795.28 901.02 183.01 699.05 1029.94 600.51 829.32 604.28 526.70 520.38 976.98 374.89 662.60 487.68 138.37 274.39 339.30 142.90 487.56 876.24 687.58 933.65 310.89 801.44 627.92 964.03 396.00 933.69 547.68 912.40 854.95 534.93 420.33 710.70 933.32 1021.79 466.91 778.82 363.49 720.94 609.23 437.30 665.94 182.80 17.94 472.24 554.12 709.40 430.83 747.19 744.93 522.78 705.08 195.08 796.46 500.07 466.90 485.43 601.03 721.47 361.72 489.96 813.33 487.95 891.64 229.82 915.95 272.88 528.03 367.41 722.72 493.04 741.63 443.41 570.28 986.48 597.14 673.03 233.33 372.61 612.50 896.72 479.95 608.08 880.31 728.23 1064.94 818.25 868.48 634.88 667.46 636.76 730.12 473.56 871.42 931.26 962.34 416.63 586.32 294.89 868.40 653.78 367.34 1015.01 817.97 622.20 384.08 934.76 973.40 246.38 786.43 734.15 793.47 536.03 753.90 361.71 544.33 580.41 803.56 435.49 757.58 532.46 239.10 880.61 682.37 514.26 854.54 684.62 829.38 936.18 897.93 625.54 339.50 860.98 667.29 214.38 743.43 822.04 524.91 919.49 976.18 550.13
463.50 37.91 719.38 324.71 736.03 117.24 450.22 292.87 219.45 531.02 751.78 78.71 382.76 484.32 201.63 0.00 626.32 465.27 436.19 583.58 145.19 362.75 271.30 750.44 523.37 605.61 385.22 325.31 610.94 422.02 704.15 804.20 322.73 524.16 581.04 574.81 292.86 769.94 755.42 784.56 331.63 697.89 471.40 809.25 619.36 602.51 811.25 344.81 621.51 640.17 221.79 507.19 510.19 925.82 695.58 624.10 275.80 641.03 485.88 623.40 739.12 366.12 578.38 889.68 618.60 756.17 457.42 341.99 486.49 810.74 403.23 501.81 332.22 106.71 162.05 167.11 171.86 299.46 807.24 715.10 775.65 250.76 662.43 590.52 837.07 268.54 797.56 548.38 866.37 718.24 401.93 433.73 565.04 780.38 877.60 470.59 592.28 413.53 731.79 407.60 283.83 527.48 52.54 203.32 438.35 581.64 632.02 482.77 735.78 748.70 511.37 561.72 157.90 785.69 298.44 381.58 294.07 539.16 537.02 296.58 500.58 732.31 334.65 698.50 412.93 743.76 181.02 374.73 371.10 582.36 511.13 690.75 344.71 368.65 784.85 469.00 494.53 288.57 243.14 437.83 724.53 350.37 618.70 724.31 556.04 901.22 745.34 708.72 638.44 524.22 462.09 577.77 422.64 825.39 827.52 837.67 281.20 456.74 327.92 707.61 568.46 208.23 871.03 644.10 443.70 418.02 787.33 819.43 353.92 685.13 655.09 624.51 385.71 582.06 434.02 562.42 408.22 748.42 265.51 572.42 427.76 294.34 691.29 505.26 342.07 669.38 509.95 677.37 782.88 736.97 453.35 210.36 757.39 495.10 201.97 571.24 636.88 385.36 741.42 835.68 568.22
881.60 658.17 399.30 658.53 352.29 694.05 756.21 470.37 537.08 95.30 141.28 705.03 499.34 412.44 765.29 626.32 0.00 419.64 207.10 424.28 547.72 552.63 795.80 202.10 363.46 499.58 499.52 476.23 584.77 204.30 86.51 329.23 358.42 827.47 680.51 581.18 399.92 175.21 196.69 247.66 641.67 71.57 209.75 364.30 494.52 213.90 514.89 365.75 503.69 537.78 638.82 458.42 383.70 503.77 332.51 415.62 604.07 376.91 478.84 290.57 201.79 828.65 278.88 440.70 435.65 342.32 217.83 548.27 456.12 361.58 543.07 135.65 564.92 697.77 529.59 532.10 628.53 461.29 357.76 484.26 291.58 710.13 169.57 341.09 226.57 717.69 217.53 478.92 496.35 493.60 508.62 517.97 146.69 317.92 345.17 504.74 284.26 656.13 542.64 711.06 479.41 118.47 678.86 753.49 459.40 485.09 329.41 652.41 497.68 484.76 431.24 125.20 764.09 426.03 561.53 391.72 500.37 516.10 688.72 442.12 457.65 272.87 358.26 174.32 824.69 489.38 730.97 395.42 566.46 254.90 401.50 328.87 321.88 739.87 362.80 174.29 797.82 665.75 638.89 704.92 482.49 370.57 498.46 303.78 348.07 429.26 119.02 418.75 438.83 610.13 729.18 127.27 403.24 459.81 319.72 410.80 401.48 264.20 547.22 438.71 234.72 528.25 429.20 474.37 772.63 557.99 207.35 298.32 688.12 263.05 244.27 165.07 673.88 607.22 781.69 380.31 453.09 459.16 627.20 447.58 326.16 671.52 180.71 150.97 459.47 530.89 754.20 180.75 402.74 212.79 460.33 456.23 249.74 370.06 589.46 335.94 469.25 586.88 232.51 265.13 401.37
846.49 443.14 717.05 349.00 677.18 556.42 410.83 212.55 288.05 324.34 538.96 543.98 576.65 19.05 637.46 465.27 419.64 0.00 431.15 183.15 320.08 187.98 687.50 446.12 576.86 711.08 586.97 139.96 254.71 355.25 480.62 461.09 311.29 434.08 282.53 218.58 397.26 577.79 557.23 477.15 348.78 487.33 342.48 743.45 221.58 244.66 410.24 234.12 733.65 774.03 577.56 648.38 83.71 575.93 322.57 688.66 278.27 204.82 624.53 307.67 515.26 766.20 576.05 542.12 658.96 706.49 441.88 196.90 627.68 431.48 599.49 283.99 231.11 527.64 414.63 320.23 576.90 205.10 752.12 741.24 402.64 451.39 391.82 631.12 620.08 403.78 574.61 684.82 850.85 311.64 231.99 601.39 321.23 390.15 504.59 641.30 211.50 717.20 788.30 411.39 203.51 346.98 509.33 619.52 587.93 721.26 588.20 776.73 800.98 794.99 641.10 370.05 531.42 764.88 225.09 500.07 251.64 744.58 269.08 386.46 597.06 596.45 171.20 431.56 789.58 333.55 455.07 131.12 621.33 240.28 654.10 612.61 328.09 412.28 434.96 398.34 421.51 660.04 375.81 370.53 350.54 233.53 721.77 351.30 149.44 528.21 501.42 297.61 695.33 190.49 346.27 304.22 541.13 825.84 687.17 496.11 308.58 284.88 587.89 307.00 567.72 305.09 507.74 246.32 370.68 625.17 585.96 446.42 688.87 604.45 570.85 541.17 344.59 200.52 805.49 616.59 62.88 802.15 282.66 174.64 484.73 665.81 548.76 320.17 156.72 237.22 334.56 443.43 423.36 459.06 69.14 373.98 644.10 88.50 528.20 180.42 239.10 259.29 493.59 622.50 637.49
765.00 474.10 355.63 593.09 352.31 553.43 691.70 373.80 450.13 175.77 315.59 514.90 340.87 413.11 625.51 436.19 207.10 431.15 0.00 432.33 416.25 482.83 654.32 409.20 226.19 391.03 317.01 367.35 559.79 164.31 275.02 486.02 194.17 731.14 608.81 595.92 251.88 347.25 358.63 429.07 596.75 278.67 102.54 390.76 520.16 291.37 587.27 244.80 383.76 429.23 462.12 300.00 348.45 652.93 405.60 271.67 527.72 461.03 315.77 348.57 361.50 704.88 242.89 604.41 339.57 337.68 21.23 462.07 291.67 491.56 361.69 163.32 487.30 542.90 399.60 422.50 487.05 406.03 388.75 375.71 457.16 625.98 277.47 237.78 400.88 636.46 383.38 347.26 522.81 559.05 522.01 310.87 225.28 447.90 539.74 332.85 360.34 473.79 427.35 691.51 382.84 101.61 488.73 607.57 317.92 372.40 296.53 510.93 369.83 382.75 305.09 131.73 594.09 412.29 453.52 233.25 414.40 408.57 654.90 265.42 261.05 334.73 288.69 367.97 708.09 527.55 617.21 300.03 393.82 332.37 292.95 283.07 196.02 707.03 535.41 32.81 755.16 579.96 550.40 710.04 559.81 277.42 394.83 403.82 428.54 587.41 309.27 460.67 314.12 593.52 696.71 222.41 249.60 486.27 421.28 547.21 264.33 208.94 405.74 482.51 153.43 384.92 590.71 509.07 704.33 411.78 351.14 462.03 546.64 286.75 255.55 227.23 609.37 593.36 623.22 299.02 421.68 425.11 530.63 473.22 167.69 574.19 255.10 127.64 350.59 530.99 720.38 336.54 517.93 395.85 443.94 306.54 321.97 385.55 412.76 387.08 504.58 585.01 411.78 437.17 288.63
964.80 561.45 774.89 479.16 686.80 699.93 549.32 365.58 400.53 328.98 551.84 662.29 689.13 164.10 755.77 583.58 424.28 183.15 432.33 0.00 438.39 339.72 805.81 403.53 561.94 737.26 697.29 258.27 190.04 364.53 483.43 351.21 448.59 491.75 331.10 194.04 534.56 487.20 544.05 456.02 500.66 492.48 426.30 769.19 87.83 274.57 251.74 376.61 719.51 775.46 719.87 689.87 178.39 473.04 268.61 661.54 408.43 89.96 705.64 269.01 458.79 908.69 633.89 424.45 717.79 716.11 411.10 360.48 677.89 316.62 721.38 369.33 343.59 645.95 556.94 460.31 695.21 323.41 756.76 785.51 324.42 548.21 401.65 662.20 557.55 533.26 529.52 706.79 898.18 191.22 383.73 734.15 350.50 298.08 450.63 720.50 193.44 850.45 817.22 532.62 373.06 403.14 636.12 737.83 682.61 708.15 635.63 864.77 802.16 815.08 668.92 431.74 664.39 822.28 377.37 626.60 389.62 787.53 362.65 528.95 650.92 601.09 308.50 388.81 907.89 217.00 594.49 268.42 710.90 233.57 639.18 674.30 470.58 546.90 335.80 454.64 515.61 778.61 472.63 461.97 210.98 370.83 732.99 297.34 106.69 457.76 469.83 125.14 703.99 311.72 437.71 362.93 641.26 857.20 700.65 396.36 445.88 371.10 687.84 142.05 585.76 423.40 370.14 96.57 483.55 743.48 589.65 389.43 807.18 635.81 639.56 537.83 480.91 225.28 924.06 645.44 175.36 814.98 434.54 40.89 575.77 784.38 577.63 384.65 275.03 137.85 405.41 420.37 258.41 417.95 207.63 511.28 648.74 141.29 670.51 141.76 79.82 393.91 480.41 566.03 624.38
592.38 159.84 729.67 253.76 709.28 261.54 384.65 147.68 110.54 452.42 689.00 223.90 420.43 339.13 317.38 145.19 547.72 320.08 416.25 438.39 0.00 277.30 367.42 605.25 512.26 603.39 436.32 180.12 465.75 361.07 577.02 712.27 222.08 482.13 485.00 429.62 246.61 676.51 691.33 639.37 245.51 591.96 344.27 783.07 487.14 457.32 666.06 199.62 600.90 658.80 325.62 503.83 369.16 798.20 573.75 604.58 196.79 495.84 498.45 509.73 640.84 500.39 588.67 744.49 616.82 738.59 423.19 282.73 483.13 679.44 387.98 440.86 202.33 207.56 162.69 21.92 295.23 170.36 769.72 698.86 653.82 236.49 555.53 541.91 746.86 257.52 718.83 538.32 851.50 573.05 274.39 428.37 447.35 635.78 748.32 480.63 461.44 480.87 722.90 360.26 138.64 435.55 197.73 299.44 462.84 587.80 605.55 488.35 732.42 745.34 508.01 460.99 280.97 744.86 205.27 377.68 185.16 600.03 443.51 234.34 464.31 697.05 189.46 637.55 547.20 598.57 287.45 229.54 355.85 437.17 522.52 607.51 263.49 375.23 684.90 413.78 472.18 408.10 196.59 414.13 579.34 231.03 614.19 602.48 410.85 779.39 620.48 563.53 616.65 415.31 414.70 466.77 418.74 841.27 781.27 692.48 178.07 331.53 422.17 575.39 564.56 63.04 745.15 511.88 421.35 428.64 742.83 683.84 368.79 667.08 618.63 617.11 312.68 436.87 517.07 544.47 263.03 768.15 179.39 440.20 421.21 413.87 671.22 409.34 196.88 537.16 456.29 569.01 637.69 609.10 308.16 164.11 711.14 349.91 276.26 426.05 504.66 306.35 652.38 748.08 523.41
801.03 390.16 779.40 217.18 804.84 479.99 275.63 147.70 195.97 473.73 692.97 441.46 552.57 182.18 533.03 362.75 552.63 187.98 482.83 339.72 277.30 0.00 597.50 595.45 581.64 715.86 530.08 149.00 311.46 417.50 639.14 617.63 327.33 360.82 254.18 347.59 396.35 721.53 699.06 640.28 194.11 624.20 419.60 851.27 352.01 398.77 580.02 281.10 723.99 786.00 507.59 609.67 246.84 730.04 510.55 715.10 147.05 388.54 629.13 441.28 660.57 716.04 658.05 666.83 737.49 798.19 504.06 20.76 630.37 587.92 585.84 471.97 121.55 443.56 344.66 255.38 516.11 163.35 849.26 791.06 561.18 320.17 533.27 636.54 765.90 250.67 705.95 656.93 955.48 459.27 44.01 586.22 438.81 544.26 692.57 615.45 365.61 673.54 843.57 246.45 138.66 492.57 415.29 529.52 583.21 694.51 657.92 721.81 845.43 832.51 650.61 507.26 410.91 836.06 87.77 537.18 121.35 737.67 244.42 398.20 644.04 725.84 233.45 585.67 744.12 496.68 333.11 254.28 553.71 405.40 655.99 731.26 332.87 259.29 589.07 485.34 317.24 590.07 244.59 234.60 472.86 274.95 723.58 507.84 303.55 698.63 655.53 459.74 704.59 212.62 258.86 458.23 542.28 914.50 845.40 644.21 300.06 327.78 571.91 440.26 577.20 297.64 638.17 358.45 308.02 600.69 759.04 602.96 594.51 713.46 646.66 641.91 193.30 299.06 735.52 656.27 169.37 837.53 163.07 305.07 490.59 595.84 715.63 466.55 132.24 400.35 306.72 592.34 556.62 577.98 132.09 313.85 773.49 242.61 458.23 334.53 369.53 106.30 647.60 704.44 644.08
275.64 296.24 782.11 459.67 834.10 154.06 613.37 512.24 477.96 704.83 937.08 192.59 418.18 706.55 85.92 271.30 795.80 687.50 654.32 805.81 367.42 597.50 0.00 954.79 588.12 584.58 465.15 547.54 811.78 672.85 853.80 1015.08 488.71 682.61 798.96 797.04 458.84 944.97 883.43 932.23 488.77 867.37 621.05 869.75 854.56 776.12 1033.48 518.42 607.45 660.14 215.89 493.13 736.58 1153.98 896.14 624.61 498.40 863.26 455.46 832.12 950.20 184.77 719.20 1066.88 649.09 863.41 654.32 576.74 487.00 1004.33 420.93 712.64 555.34 201.85 360.31 389.34 167.27 537.78 883.10 692.63 973.25 360.93 846.23 650.12 988.46 382.34 925.57 540.39 920.25 924.62 590.70 444.70 738.05 960.67 1070.03 429.56 825.03 358.27 728.50 649.11 506.06 690.31 247.07 67.98 504.45 577.97 726.82 434.33 736.29 749.21 511.88 729.45 234.54 794.60 529.61 517.77 552.58 582.62 760.93 412.59 517.62 843.29 556.88 934.01 218.73 965.99 312.34 596.96 391.32 759.56 541.62 774.26 510.69 610.16 1045.18 621.51 719.70 175.81 436.09 662.54 946.76 516.79 603.73 919.91 778.27 1101.78 869.12 918.52 641.34 706.92 666.15 757.47 534.04 885.49 963.04 1048.26 453.47 623.16 340.93 905.24 699.58 430.46 1100.93 879.30 668.87 399.80 970.13 1015.03 241.16 810.80 780.19 821.13 576.14 793.36 275.79 579.32 630.45 827.40 485.53 807.62 583.33 170.04 909.42 716.34 564.30 904.58 712.13 887.81 1005.11 925.28 675.58 376.34 890.94 717.33 265.25 793.47 872.08 594.58 946.84 963.69 575.55
1078.73 748.64 532.10 747.98 474.18 830.20 841.82 575.05 641.87 297.40 222.70 804.22 701.44 450.04 892.45 750.44 202.10 446.12 409.20 403.53 605.25 595.45 954.79 0.00 531.84 641.95 665.36 467.74 547.23 353.07 225.47 127.13 506.77 803.23 642.64 568.73 552.40 209.05 145.40 61.80 769.67 229.46 358.10 482.05 427.07 277.91 316.82 484.57 641.25 690.19 757.59 617.17 394.72 314.42 143.65 560.70 692.70 347.61 611.69 215.83 99.24 1016.65 391.10 238.60 564.96 489.85 410.20 574.69 623.91 161.72 711.40 279.97 627.86 776.22 670.17 608.15 807.52 532.88 495.40 610.18 105.31 814.92 167.73 511.92 248.05 803.49 166.73 659.80 614.10 384.85 634.63 681.77 216.74 131.65 143.07 637.59 286.32 827.57 666.46 803.95 582.53 320.57 771.32 904.69 626.68 663.32 444.74 812.48 643.17 631.46 633.34 313.85 816.29 620.60 629.72 580.16 609.37 708.40 688.73 607.15 605.16 374.49 463.05 77.23 1026.70 331.73 834.09 491.29 679.27 280.23 603.60 469.39 498.04 827.20 182.65 376.39 846.81 867.85 743.68 767.24 349.70 498.44 627.77 114.92 345.83 233.68 182.01 278.39 566.87 600.91 742.98 197.32 569.08 577.56 381.05 208.70 561.12 392.07 749.32 287.68 436.82 542.21 261.37 405.37 798.93 752.06 207.44 96.22 876.49 386.87 411.39 309.66 761.21 581.68 944.37 582.41 459.63 583.33 703.55 422.87 528.26 873.62 283.19 284.31 484.50 415.70 754.21 115.18 216.47 38.76 500.13 619.14 411.36 357.62 739.21 265.70 390.64 674.21 123.52 186.12 579.55
583.32 508.40 290.96 659.44 327.77 576.99 754.61 452.02 528.35 353.54 375.41 538.46 206.35 595.91 570.28 523.37 363.46 576.86 226.19 561.94 512.26 581.64 588.12 531.84 0.00 175.32 171.03 501.18 751.98 354.67 387.78 632.62 290.18 827.15 816.93 755.98 291.19 440.05 497.96 548.93 674.97 372.84 292.90 389.37 649.77 469.14 765.04 342.74 157.57 213.52 408.64 134.16 572.16 784.06 547.23 133.46 588.71 638.80 179.01 545.77 498.87 556.01 221.08 746.06 155.85 349.73 247.42 591.70 115.95 641.87 221.82 341.09 574.28 545.98 373.66 511.83 449.64 490.87 388.21 242.15 571.87 675.43 455.24 100.26 460.70 713.17 472.16 144.85 434.17 749.41 625.65 172.21 404.32 598.21 655.96 158.56 538.11 352.86 261.93 754.42 442.98 279.38 470.83 552.34 142.92 146.21 198.16 330.14 270.97 283.89 106.98 318.52 617.65 321.71 540.50 141.79 491.11 225.59 814.19 279.23 111.48 321.98 411.88 454.61 586.86 705.32 678.49 450.93 226.68 510.14 77.24 226.00 248.77 776.41 643.09 210.58 853.10 453.73 650.09 790.67 737.58 382.66 171.05 575.96 606.31 730.53 420.29 638.44 155.68 727.35 807.61 406.22 100.73 401.22 425.41 708.80 360.34 433.99 299.20 660.28 128.74 466.52 709.49 658.51 802.27 273.12 441.48 608.52 423.90 272.76 242.80 239.59 672.28 777.38 506.33 83.50 553.86 324.25 608.85 602.83 156.34 447.96 378.97 305.41 484.42 699.79 845.95 514.31 676.65 493.08 598.99 365.45 362.25 585.91 387.14 564.92 641.76 687.94 499.96 509.71 62.44
635.51 603.43 236.82 743.36 347.51 624.10 887.43 586.24 660.02 518.65 528.04 618.02 253.62 730.13 591.12 605.61 499.58 711.08 391.03 737.26 603.39 715.86 584.58 641.95 175.32 0.00 221.67 635.40 884.10 495.20 505.02 769.08 424.40 961.37 899.49 892.62 378.12 513.49 597.95 666.17 764.86 490.08 447.77 317.28 819.14 600.41 922.50 476.96 33.89 75.56 430.64 131.21 672.76 956.37 721.25 139.04 672.63 743.54 180.92 671.93 620.30 587.03 278.54 864.15 76.99 344.04 369.80 725.92 129.76 781.49 274.40 478.30 692.70 629.90 468.69 621.13 480.57 625.09 330.63 171.56 739.39 746.73 578.24 196.49 583.84 819.86 555.81 103.38 372.94 893.24 759.87 207.28 523.84 746.46 773.84 155.02 639.67 326.35 165.12 887.24 577.20 446.47 554.75 573.18 168.54 46.37 243.08 343.52 242.63 231.34 127.82 461.23 669.66 272.94 674.72 225.71 625.33 66.45 933.88 369.05 160.38 393.37 546.10 629.93 608.63 872.41 740.53 585.15 291.16 641.41 98.08 277.89 382.99 864.68 818.41 377.67 983.03 454.00 731.83 892.14 886.10 492.25 28.57 705.70 730.50 835.19 537.53 795.90 113.36 860.61 916.40 543.26 246.45 331.96 477.30 850.65 494.56 482.68 320.11 817.74 277.92 556.34 884.81 833.83 932.20 230.01 563.59 738.17 441.29 340.03 336.78 392.35 805.10 911.60 482.85 148.89 688.08 295.81 698.74 778.15 291.27 459.77 467.55 472.50 618.64 875.11 943.55 635.73 826.84 630.88 733.21 455.27 391.72 684.00 426.04 691.35 817.08 782.19 648.90 603.41 130.14
484.39 423.13 396.38 609.76 448.37 442.72 703.05 400.46 476.79 459.23 546.44 430.33 46.97 605.04 419.11 385.22 499.52 586.97 317.01 697.29 436.32 530.08 465.15 665.36 171.03 221.67 0.00 452.80 768.69 388.01 493.94 737.67 275.68 787.18 784.26 762.29 189.71 582.68 600.39 651.36 601.51 508.88 337.77 484.02 703.90 578.17 790.08 353.77 236.29 262.19 249.26 121.97 557.35 920.21 701.43 238.88 554.38 655.17 111.27 644.03 601.99 474.29 341.10 815.12 233.38 477.68 295.78 540.14 101.27 735.94 90.70 448.74 522.72 439.88 316.14 432.72 299.19 441.68 497.37 339.69 733.25 617.91 573.30 240.94 631.73 637.75 625.00 163.16 509.69 786.10 574.09 56.14 501.60 717.49 787.30 85.37 612.00 216.12 349.63 702.86 391.42 385.75 387.53 424.15 53.13 206.81 338.84 247.05 350.56 363.48 126.15 374.32 498.84 408.87 488.94 137.34 439.55 218.17 762.63 244.46 116.20 395.26 415.77 615.99 427.48 760.27 559.15 455.85 114.09 588.88 125.91 366.68 267.75 724.85 780.63 328.64 768.39 341.14 597.12 739.11 762.62 393.69 235.88 683.46 590.60 844.22 522.72 663.48 253.22 701.17 756.05 498.55 96.28 496.78 542.22 814.49 319.59 429.54 170.70 685.32 299.77 373.28 856.53 740.14 749.00 132.02 612.51 672.74 311.31 409.25 383.48 410.62 620.72 777.52 413.43 177.20 535.71 419.81 535.39 712.88 176.77 335.37 526.37 423.47 469.56 760.86 793.58 564.63 760.52 626.60 580.84 272.21 442.91 594.45 227.76 610.78 728.13 636.38 656.31 672.60 183.00
706.53 303.18 630.40 280.24 661.97 441.66 396.21 107.31 183.64 380.93 582.28 404.02 450.65 159.01 497.50 325.31 476.23 139.96 367.35 258.27 180.12 149.00 547.54 467.74 501.18 635.40 452.80 0.00 345.56 295.51 536.87 532.15 243.71 439.75 341.28 358.54 329.68 599.27 578.94 498.85 301.93 547.80 304.12 702.27 307.02 298.05 485.94 165.62 654.87 703.81 461.60 565.18 189.04 645.75 393.63 609.10 254.53 319.60 556.95 329.61 555.06 651.10 523.08 564.37 629.13 649.19 388.58 128.24 554.07 499.32 494.38 375.12 195.76 387.68 298.67 202.04 436.94 65.14 700.26 688.44 473.70 361.62 466.74 534.57 636.85 335.75 556.95 612.44 812.71 396.81 188.18 501.62 358.56 455.66 575.65 538.17 281.32 592.52 747.68 390.62 114.79 380.97 377.85 479.56 505.93 631.96 576.07 650.73 737.18 750.10 572.60 420.11 426.18 687.06 161.98 435.62 141.63 667.40 366.63 317.96 528.56 621.47 117.97 467.45 649.62 418.45 366.35 105.28 481.37 257.05 578.42 623.00 252.41 380.58 504.78 369.86 410.12 544.08 286.04 383.60 399.22 169.08 641.39 422.36 234.61 599.27 562.01 383.41 604.73 249.24 385.23 377.98 476.68 772.64 748.34 570.49 228.95 259.04 447.93 395.27 428.20 165.13 565.08 331.76 359.29 485.21 644.78 517.48 548.91 609.09 542.29 551.55 336.60 335.68 689.53 563.36 82.91 722.05 235.81 260.08 410.13 549.85 566.63 351.07 16.76 357.04 360.42 483.23 511.63 428.98 128.04 257.19 669.12 173.67 412.24 245.93 324.54 251.18 515.30 615.38 548.19
1020.65 599.28 883.15 443.58 806.15 673.18 427.63 418.55 405.09 499.74 674.30 656.43 776.09 235.66 757.57 610.94 584.77 254.71 559.79 190.04 465.75 311.46 811.78 547.23 751.98 884.10 768.69 345.56 0.00 517.15 626.37 470.16 522.74 361.73 214.82 36.13 608.71 656.37 571.91 504.41 460.00 611.43 558.92 871.08 171.35 382.83 378.01 469.72 876.03 901.66 759.32 784.40 211.34 566.43 413.27 831.46 430.81 208.91 785.72 414.39 598.76 940.58 742.15 539.02 899.36 835.46 581.02 332.22 763.70 435.57 741.10 501.31 380.32 650.65 628.44 487.67 760.98 370.12 882.38 935.50 451.21 573.54 491.83 797.57 676.94 520.91 614.05 825.59 1003.13 232.61 298.93 789.52 438.08 424.87 577.58 790.45 312.78 889.07 987.14 343.78 420.38 554.97 663.48 759.26 715.56 869.24 754.58 926.45 929.62 942.54 788.58 556.39 577.24 951.22 395.55 663.42 428.12 880.60 218.91 622.06 778.63 771.85 382.65 523.27 963.74 310.39 607.73 373.01 708.97 341.83 814.57 798.95 534.73 357.02 454.75 592.60 361.10 873.85 508.34 271.93 286.03 453.32 862.55 432.31 284.61 576.71 588.78 303.82 873.91 143.33 247.67 457.50 704.48 966.59 807.56 516.19 528.03 431.24 781.49 284.34 713.22 510.69 482.25 207.49 310.27 781.76 658.61 516.33 834.54 764.39 756.99 720.08 371.41 109.00 982.82 821.13 262.65 967.99 404.70 149.15 692.45 871.39 720.57 518.14 362.19 150.97 284.39 550.90 372.98 560.24 217.52 562.17 819.50 248.44 709.96 316.21 207.78 323.16 568.92 652.17 814.42
782.40 459.93 454.73 490.50 429.26 539.26 612.84 308.93 342.23 109.00 345.58 500.73 384.42 373.32 615.60 422.02 204.30 355.25 164.31 364.53 361.07 417.50 672.85 353.07 354.67 495.20 388.01 295.51 517.15 0.00 282.99 419.25 210.44 670.24 561.38 481.02 250.23 355.22 333.40 368.92 519.60 275.87 61.77 503.05 413.29 194.33 538.19 161.45 512.24 547.93 482.25 431.01 319.88 579.38 328.20 411.81 447.84 313.83 426.38 256.02 317.10 693.53 351.37 531.48 479.71 456.30 161.37 396.74 417.04 409.30 428.15 79.79 360.62 528.73 392.01 339.15 532.18 270.33 489.70 486.99 378.22 535.92 240.41 386.72 425.57 550.29 375.54 478.27 571.48 432.34 442.01 426.26 143.02 365.64 477.83 426.98 258.84 485.92 567.49 548.37 302.79 105.46 474.56 618.07 368.90 490.81 333.72 554.67 534.14 547.06 429.13 139.70 579.92 479.76 370.17 276.80 335.54 533.94 601.80 285.55 395.60 363.84 184.05 276.48 740.34 483.40 554.35 224.13 451.54 235.33 411.65 327.49 172.19 587.32 453.15 144.09 650.95 600.09 464.68 620.22 441.47 166.50 515.71 324.88 301.19 525.80 323.32 411.59 454.26 522.37 619.07 155.75 293.15 558.39 480.51 504.89 263.43 99.37 463.63 416.01 317.74 345.67 508.45 380.54 600.12 469.47 381.76 420.00 603.03 337.00 357.77 256.04 530.51 552.59 666.77 428.10 326.03 517.03 457.96 389.59 211.24 594.32 344.56 83.24 285.26 437.06 649.63 259.97 410.67 314.95 371.16 296.51 411.49 290.37 432.89 222.77 397.29 492.70 319.40 413.66 407.04
947.62 702.02 380.90 737.63 327.55 780.56 836.24 548.17 597.72 181.81 112.78 743.29 523.49 498.95 789.41 704.15 86.51 480.62 275.02 483.43 577.02 639.14 853.80 225.47 387.78 505.02 493.94 536.87 626.37 282.99 0.00 330.61 381.42 860.64 729.49 630.30 443.77 119.33 114.31 172.10 724.30 14.94 232.75 334.18 501.71 282.47 493.16 444.44 516.36 543.38 676.71 487.94 457.22 491.96 300.15 431.60 682.41 417.46 506.13 275.14 126.23 852.94 262.00 422.17 440.07 335.15 253.79 631.59 467.24 345.01 567.22 218.28 637.33 747.87 586.85 555.10 701.90 519.86 320.83 469.20 318.80 769.67 176.08 353.90 189.24 781.00 156.45 445.28 466.23 507.22 595.13 522.37 233.20 320.94 316.42 524.68 333.38 680.28 495.44 797.57 547.18 182.43 728.68 807.35 492.38 458.65 309.37 674.38 477.51 469.70 480.66 143.29 787.09 446.04 620.10 415.87 558.94 526.02 749.70 498.52 436.62 227.86 418.90 201.54 890.71 481.39 796.34 458.98 590.61 296.41 457.92 313.81 408.39 826.38 386.13 247.66 830.33 752.26 699.53 727.37 496.65 429.14 502.88 271.42 421.80 372.63 43.46 428.28 437.77 660.52 751.63 213.78 397.66 429.69 305.12 386.24 451.58 322.77 597.79 406.44 277.48 578.35 438.91 499.44 806.83 587.93 178.85 281.68 738.69 215.85 229.21 148.19 753.91 681.07 805.84 421.89 535.60 431.08 704.90 489.09 350.31 758.03 94.20 223.25 520.11 511.41 799.49 148.39 429.31 224.81 509.31 493.79 263.24 433.59 645.86 341.67 502.46 673.39 163.41 194.57 400.83
1126.02 793.44 659.23 776.83 601.31 909.00 831.04 614.44 681.78 310.25 349.83 882.91 778.26 462.62 990.10 804.20 329.23 461.09 486.02 351.21 712.27 617.63 1015.08 127.13 632.62 769.08 737.67 532.15 470.16 419.25 330.61 0.00 580.38 782.38 650.69 478.12 653.18 305.44 272.53 174.51 785.22 334.60 431.71 609.18 351.23 281.16 207.61 538.86 768.38 775.79 820.25 744.30 397.96 196.49 138.52 687.83 714.98 261.25 738.82 207.95 226.37 1070.94 518.23 156.09 692.09 612.33 496.75 596.87 748.57 34.59 788.71 350.60 609.33 903.35 741.65 716.56 870.18 566.01 622.53 737.31 60.75 843.93 249.49 639.05 342.67 799.00 293.86 764.94 741.23 335.06 656.81 757.58 291.65 78.25 152.13 764.72 273.15 905.17 793.59 791.69 616.27 384.41 846.23 979.88 738.32 778.31 571.87 929.18 755.88 753.53 739.60 413.25 896.36 736.91 643.11 647.69 634.51 823.59 659.13 691.20 719.54 501.62 543.71 178.01 1069.11 244.97 859.26 503.63 792.05 275.10 709.86 596.52 591.44 827.18 55.52 453.21 822.36 951.52 768.35 742.09 286.90 548.38 754.90 109.79 342.91 106.55 287.15 256.12 686.78 590.68 717.83 311.07 673.88 704.69 508.18 102.01 616.43 442.01 824.88 234.28 563.95 669.34 141.70 315.21 780.43 823.93 334.57 64.93 909.42 514.00 529.95 436.79 748.71 557.92 1037.66 709.54 481.91 710.46 719.10 369.47 605.08 957.29 389.95 365.92 538.77 357.42 724.61 231.88 135.41 165.89 512.71 658.32 519.75 379.90 814.12 287.98 314.80 687.63 239.02 313.25 695.06
659.95 330.01 507.59 398.92 513.63 420.43 497.53 179.63 255.96 270.13 494.20 394.45 297.59 329.36 451.87 322.73 358.42 311.29 194.17 448.59 222.08 327.33 488.71 506.77 290.18 424.40 275.68 243.71 522.74 210.44 381.42 580.38 0.00 536.97 546.90 486.61 85.97 490.42 495.73 547.64 402.58 396.36 148.67 567.21 477.56 324.59 664.51 78.09 447.75 499.96 295.29 389.48 321.36 700.75 490.08 423.64 333.55 434.40 313.24 435.38 493.53 590.72 366.59 672.91 446.03 531.85 215.40 320.82 372.24 578.78 298.25 290.23 294.39 366.45 205.43 235.28 345.22 228.06 580.56 504.04 547.70 449.85 398.97 319.83 560.77 442.29 532.74 390.67 664.02 565.15 371.34 331.82 312.50 535.12 649.84 339.14 336.32 429.52 552.11 497.34 188.67 239.95 347.26 433.93 328.81 430.59 383.47 494.84 553.97 541.05 389.32 274.90 405.67 583.34 281.39 236.99 220.23 461.42 535.57 140.72 380.07 513.56 140.09 464.38 603.04 555.81 440.23 180.17 326.58 365.59 367.42 445.57 41.41 519.33 559.78 194.13 580.55 450.84 385.44 533.59 580.13 118.01 452.97 494.36 349.41 686.93 424.88 537.91 417.57 454.86 550.53 309.45 278.05 623.04 592.35 625.49 70.16 224.38 332.85 516.07 347.60 196.93 645.96 503.69 533.49 322.21 545.31 571.40 449.01 448.07 443.30 421.40 415.20 511.81 589.17 364.81 282.07 546.07 336.46 454.25 199.13 449.49 449.27 280.37 226.95 534.52 591.64 447.48 567.51 499.73 327.20 112.37 516.14 342.01 288.06 368.63 486.94 423.73 498.82 575.99 352.62
949.63 548.56 1016.06 306.00 1032.71 618.27 205.72 419.53 414.28 750.72 934.94 579.74 740.21 415.03 696.27 524.16 827.47 434.08 731.14 491.75 482.13 360.82 682.61 803.23 827.15 961.37 787.18 439.75 361.73 670.24 860.64 782.38 536.97 0.00 232.25 396.44 622.94 977.64 933.64 865.03 281.34 845.70 685.64 1104.18 486.02 655.58 664.25 539.99 984.72 1036.93 723.93 902.38 462.32 849.73 730.91 960.61 336.48 570.64 850.21 709.99 894.61 867.15 875.06 870.87 983.00 1062.02 752.37 349.21 888.45 788.16 783.94 718.07 319.96 564.81 589.35 460.21 687.61 450.50 1108.94 1041.01 770.84 385.38 789.72 856.80 1020.23 300.27 957.87 925.79 1200.99 503.28 324.31 791.18 714.23 744.50 889.33 838.81 622.42 909.36 1089.08 121.87 410.49 741.70 576.70 678.33 840.31 967.56 920.44 926.64 1090.94 1078.02 902.07 780.84 505.45 1108.12 353.74 773.96 398.98 991.87 186.16 670.03 858.03 1019.40 538.39 797.66 901.34 599.02 427.65 542.17 798.40 673.43 904.39 982.54 578.38 155.51 743.20 731.10 43.58 804.32 394.10 133.27 557.09 546.78 976.15 756.78 558.25 880.11 893.15 610.31 954.54 303.55 114.06 700.20 814.11 1160.01 1121.25 808.91 544.19 602.53 792.96 588.47 861.85 540.38 807.53 467.17 80.46 825.26 993.46 835.96 817.85 981.81 951.77 911.60 204.01 288.77 943.78 901.78 436.32 1083.04 322.42 480.75 736.10 804.10 954.84 753.48 456.51 512.70 165.45 839.41 704.83 829.90 391.19 585.68 1053.11 499.42 702.92 591.34 483.92 254.52 889.57 978.59 889.59
969.36 545.20 964.44 366.91 927.38 648.63 310.36 392.75 380.62 585.21 785.82 635.82 751.87 270.27 733.02 581.04 680.51 282.53 608.81 331.10 485.00 254.18 798.96 642.64 816.93 899.49 784.26 341.28 214.82 561.38 729.49 650.69 546.90 232.25 0.00 228.90 595.46 766.08 740.26 664.09 349.00 744.43 561.58 994.67 312.51 518.85 518.35 483.83 933.38 975.05 647.02 862.31 334.93 686.14 577.78 880.48 305.24 417.77 848.92 533.54 662.36 893.12 836.60 699.31 914.80 946.49 630.04 267.42 846.36 631.64 777.91 566.52 287.27 607.82 591.32 467.68 696.95 362.27 993.92 977.76 589.94 454.30 644.96 794.74 812.91 441.36 731.85 887.17 1100.94 426.63 210.61 802.84 574.86 587.98 754.35 850.47 475.93 890.07 1036.16 227.72 392.84 614.33 626.49 734.71 798.22 923.69 799.72 908.00 978.64 991.56 871.24 652.58 564.42 1021.10 321.05 726.94 368.01 963.26 46.09 599.18 832.85 848.39 407.29 565.41 912.45 430.10 491.30 386.96 771.02 490.48 894.17 888.43 568.16 226.67 608.22 641.62 258.83 813.66 378.72 155.87 411.19 460.40 928.06 578.03 365.12 729.04 723.49 452.47 892.48 92.04 160.43 555.44 768.00 1059.96 956.88 673.93 476.74 527.92 732.57 431.95 762.24 506.41 630.90 348.75 223.03 803.42 778.03 673.15 800.74 838.57 840.40 740.59 274.26 105.82 926.33 852.68 265.31 1033.92 331.35 297.80 711.60 813.03 823.69 570.37 334.97 344.99 111.57 668.55 538.15 603.88 220.18 512.96 896.04 362.69 674.76 445.25 348.94 212.16 676.62 769.60 839.92
1022.00 589.46 887.15 479.71 842.28 691.16 438.65 410.92 441.22 485.88 672.36 653.52 784.20 199.53 747.00 574.81 581.18 218.58 595.92 194.04 429.62 347.59 797.04 568.73 755.98 892.62 762.29 358.54 36.13 481.02 630.30 478.12 486.61 396.44 228.90 0.00 572.58 671.33 608.04 540.54 496.13 634.29 522.96 907.21 182.88 386.83 402.23 433.59 900.40 937.79 755.24 820.53 247.47 569.93 425.08 855.58 466.94 245.04 799.85 413.37 631.75 930.01 746.15 554.66 877.54 871.59 605.14 343.50 799.83 443.53 777.23 493.94 403.16 637.18 592.31 451.54 724.85 406.25 908.65 916.99 470.71 567.13 505.13 806.44 697.48 557.04 650.18 861.72 1029.45 266.67 335.06 800.86 463.40 444.37 583.50 821.90 296.92 892.52 978.55 379.91 419.96 556.93 627.35 729.06 751.69 896.74 778.54 917.97 925.29 912.37 824.71 560.39 613.37 955.22 370.23 683.73 431.39 916.73 210.28 585.93 789.64 757.88 346.52 534.80 976.82 343.71 636.87 349.70 745.10 345.83 833.22 802.95 509.63 393.15 437.37 605.28 397.23 837.72 491.55 308.06 301.78 417.19 898.68 453.81 285.86 541.98 586.84 307.82 877.25 179.46 283.80 482.82 723.28 1002.72 843.69 503.08 506.90 467.37 801.07 288.34 749.35 492.66 486.25 187.37 346.40 808.82 694.74 535.83 798.41 800.52 760.99 724.08 407.54 124.49 946.69 791.91 281.46 952.13 440.83 153.15 667.35 843.49 720.41 536.93 375.30 187.10 275.76 564.19 404.70 544.48 249.62 557.64 805.53 284.57 705.88 320.21 178.09 359.29 604.08 688.30 812.97
585.14 258.25 516.32 420.05 513.91 384.82 550.94 265.60 317.47 349.64 541.20 362.89 211.62 415.33 416.47 292.86 399.92 397.26 251.88 534.56 246.61 396.35 458.84 552.40 291.19 378.12 189.71 329.68 608.71 250.23 443.77 653.18 85.97 622.94 595.46 572.58 0.00 548.34 506.69 573.85 411.80 458.71 234.64 565.83 514.19 405.39 695.82 164.06 397.24 446.18 249.63 311.68 401.43 786.72 570.88 383.83 371.79 465.46 300.98 506.25 550.86 506.64 375.32 750.41 410.07 512.75 261.07 401.11 290.98 638.80 245.20 309.29 354.11 334.89 168.68 243.01 299.56 274.55 563.82 478.08 592.43 457.58 469.91 361.35 611.72 448.04 548.83 304.70 656.13 630.78 435.50 245.85 372.52 595.14 676.52 275.08 422.29 380.77 517.72 561.11 257.69 325.92 317.39 404.06 242.84 344.62 415.69 411.70 509.53 522.45 304.74 360.87 397.06 564.41 342.17 152.41 305.82 383.27 595.29 54.75 295.49 512.18 226.06 475.17 528.23 641.78 446.93 266.14 277.33 444.58 315.62 412.14 78.04 563.84 645.75 278.85 638.47 369.29 407.41 580.42 615.18 203.98 383.76 554.38 435.38 759.73 487.23 569.22 426.28 514.58 582.68 391.94 193.47 659.67 563.84 711.46 129.88 305.69 301.61 567.64 339.29 183.57 730.05 550.43 587.64 296.67 553.34 608.03 400.99 482.07 452.03 467.07 478.97 597.78 503.20 366.27 368.04 582.70 345.68 540.22 175.78 363.52 506.98 317.00 312.92 571.15 642.71 510.20 653.48 513.64 413.17 82.50 464.53 427.98 202.09 454.60 550.62 481.35 569.63 586.95 345.21
1023.37 732.03 367.05 809.86 327.10 869.26 908.47 620.40 696.73 270.51 64.64 848.65 612.15 581.71 902.74 769.94 175.21 577.79 347.25 487.20 676.51 721.53 944.97 209.05 440.05 513.49 582.68 599.27 656.37 355.22 119.33 305.44 490.42 977.64 766.08 671.33 548.34 0.00 84.46 189.97 807.60 131.94 341.75 374.67 552.59 333.13 436.27 516.67 545.73 571.95 737.72 513.69 526.39 445.85 296.93 465.08 747.92 464.36 558.54 342.27 117.32 948.84 295.48 350.66 497.03 345.88 326.02 700.77 511.39 339.75 655.88 301.58 715.84 856.87 695.85 664.10 777.70 592.09 361.32 506.71 314.36 878.67 232.53 416.30 70.35 853.23 42.32 545.85 465.71 514.18 683.83 561.18 318.80 312.03 260.35 568.83 374.41 731.95 572.49 886.27 629.44 254.66 812.15 902.66 554.08 540.36 339.96 709.67 486.32 473.40 486.51 215.52 870.84 459.11 692.33 508.96 631.17 579.94 811.30 580.56 524.84 227.41 527.90 200.67 983.80 515.73 838.21 541.22 666.73 370.46 456.77 344.99 497.09 886.65 357.70 323.46 947.33 840.96 808.53 844.37 530.08 501.37 542.06 311.68 482.79 321.70 84.49 450.97 471.25 768.28 868.63 299.38 493.56 470.18 239.18 351.22 560.58 395.00 670.02 444.37 390.36 682.87 403.89 560.24 923.83 662.09 108.45 285.73 810.92 292.90 306.59 251.45 826.14 712.48 885.86 499.89 588.80 474.82 774.03 528.09 467.31 846.73 112.07 313.84 589.29 552.44 876.78 188.65 410.37 170.29 628.64 587.53 253.30 489.29 688.36 426.09 543.49 762.09 135.41 89.92 483.93
1057.80 764.94 451.51 811.83 373.76 872.66 893.94 637.88 675.63 291.99 125.55 834.13 633.67 538.18 895.92 755.42 196.69 557.23 358.63 544.05 691.33 699.06 883.43 145.40 497.96 597.95 600.39 578.94 571.91 333.40 114.31 272.53 495.73 933.64 740.26 608.04 506.69 84.46 0.00 128.15 804.61 125.12 347.06 385.91 490.80 339.85 462.22 494.85 604.08 653.56 730.90 558.91 506.21 452.43 289.05 502.44 741.10 456.08 606.10 306.34 105.27 967.25 332.84 371.06 534.39 344.45 368.10 706.53 579.61 307.12 677.40 326.41 694.02 829.80 675.37 669.41 780.06 603.73 372.56 547.41 250.71 869.32 165.79 449.96 105.03 883.69 42.14 555.46 510.30 491.74 705.31 621.22 272.43 264.14 272.47 606.30 352.21 769.31 597.68 864.79 636.19 296.74 807.96 905.02 547.26 568.83 386.48 787.94 547.01 534.31 570.97 257.60 901.40 517.21 687.92 526.05 664.77 636.20 786.35 561.44 550.93 311.87 517.45 174.85 1000.89 477.13 884.77 534.40 694.84 321.89 541.23 392.02 505.59 879.83 328.05 325.82 929.81 848.74 798.08 826.85 452.18 499.90 597.20 260.32 456.97 321.52 77.67 418.91 508.61 715.24 819.58 253.01 511.97 469.32 235.65 346.71 565.89 432.77 698.75 420.17 391.79 679.07 399.38 520.04 882.18 702.24 86.70 237.73 839.65 322.73 307.42 258.37 811.61 680.91 916.02 505.84 588.62 487.19 767.21 514.57 460.49 842.97 170.42 317.00 595.70 545.62 851.83 160.86 361.87 168.04 588.27 589.19 310.27 469.11 681.54 403.89 503.29 778.42 63.64 80.26 515.14
1107.80 779.75 526.47 773.64 440.33 876.26 842.03 606.16 682.49 277.51 214.16 863.27 684.64 458.10 938.33 784.56 247.66 477.15 429.07 456.02 639.37 640.28 932.23 61.80 548.93 666.17 651.36 498.85 504.41 368.92 172.10 174.51 547.64 865.03 664.09 540.54 573.85 189.97 128.15 0.00 800.78 176.09 398.97 482.61 450.60 310.39 371.24 478.34 676.58 704.53 781.87 648.28 451.29 326.39 187.41 591.81 731.30 391.77 657.07 212.64 94.35 1010.42 422.21 251.96 612.17 453.82 407.84 627.09 639.34 209.10 715.82 317.86 682.75 838.02 663.94 656.04 831.80 560.30 469.26 611.43 167.11 845.64 168.02 513.98 192.60 834.60 147.65 606.43 594.31 428.61 678.64 672.19 255.58 193.45 144.32 657.27 317.43 841.43 667.54 800.76 610.56 336.48 810.16 938.81 598.23 619.80 465.14 806.25 581.37 594.29 648.60 297.34 866.02 608.31 660.82 577.02 622.01 687.17 710.18 628.60 608.72 340.64 513.47 98.68 1051.86 385.67 862.12 497.75 710.58 269.39 618.86 456.04 541.11 839.71 219.15 405.28 865.51 899.71 781.20 776.34 411.50 492.21 674.98 158.68 380.80 245.73 128.64 340.19 597.98 644.67 752.08 247.65 569.76 553.33 363.80 220.67 580.32 385.84 751.84 345.77 449.58 591.94 273.34 438.01 814.68 760.03 170.75 109.58 876.68 387.95 371.44 309.34 759.70 612.79 966.99 581.97 521.43 583.89 734.66 462.07 511.46 893.94 262.21 318.35 515.61 459.46 775.66 108.95 278.27 69.87 508.19 620.42 361.24 419.42 732.51 327.50 434.40 698.34 64.51 165.40 572.93
723.01 311.67 824.36 29.10 841.01 376.75 180.74 222.95 177.37 546.37 782.95 338.22 596.97 367.83 461.14 331.63 641.67 348.78 596.75 500.66 245.51 194.11 488.77 769.67 674.97 764.86 601.51 301.93 460.00 519.60 724.30 785.22 402.58 281.34 349.00 496.13 411.80 807.60 804.61 800.78 0.00 709.36 533.20 923.40 523.95 558.60 730.83 408.20 798.75 840.42 442.59 710.29 419.70 811.86 671.35 795.63 92.23 553.60 701.61 631.54 741.84 625.63 683.36 825.09 796.81 870.32 609.03 214.87 689.59 762.54 590.89 506.02 175.89 366.22 388.29 258.46 479.40 271.38 917.24 866.09 745.22 191.54 638.82 722.41 867.43 106.43 818.69 716.50 1038.82 592.28 202.27 631.53 569.25 718.88 853.37 683.79 532.78 657.35 916.34 180.55 231.99 569.01 362.57 462.83 654.64 756.42 737.00 703.57 915.89 925.84 691.48 592.08 311.05 916.42 209.67 539.15 205.53 795.07 350.62 440.80 667.47 818.48 347.05 724.85 672.44 665.60 233.25 348.78 558.76 558.98 721.22 795.73 426.20 179.59 756.24 596.71 237.76 553.57 132.65 216.80 623.67 368.28 793.43 700.08 496.97 780.51 755.66 625.80 819.81 316.67 233.74 588.67 580.21 997.84 909.20 821.95 377.06 441.70 567.63 630.56 717.78 266.20 807.47 509.26 203.16 631.55 807.99 795.20 561.55 790.11 760.07 763.20 98.41 403.10 687.48 747.63 325.30 924.40 66.12 499.18 583.92 547.80 770.79 549.01 318.69 565.78 288.92 697.89 746.92 730.91 326.20 367.27 866.13 436.72 442.04 509.15 512.60 136.84 778.04 849.08 726.57
932.68 716.96 369.30 730.10 340.74 765.62 827.78 541.94 608.65 166.87 118.13 728.35 508.55 484.01 804.35 697.89 71.57 487.33 278.67 492.48 591.96 624.20 867.37 229.46 372.84 490.08 508.88 547.80 611.43 275.87 14.94 334.60 396.36 845.70 744.43 634.29 458.71 131.94 125.12 176.09 709.36 0.00 247.69 349.12 486.77 267.53 497.15 437.32 501.56 528.44 691.65 473.13 442.28 477.02 296.28 416.66 671.76 402.52 506.27 266.80 130.22 867.88 247.06 407.23 448.61 346.48 268.73 619.84 467.38 359.95 552.28 203.34 636.49 756.35 587.58 570.04 700.10 532.86 335.77 454.26 309.35 781.70 161.14 338.96 178.45 789.26 162.89 430.34 481.17 522.16 580.19 522.51 218.26 324.93 320.41 524.82 337.37 665.34 510.38 782.63 550.98 190.04 729.97 822.29 493.03 443.71 297.59 678.80 467.68 454.76 479.82 158.23 802.03 451.14 633.10 400.93 571.94 511.08 756.41 513.46 436.76 241.05 429.83 192.09 875.77 496.33 802.54 466.99 575.67 308.53 450.08 298.87 393.45 811.44 375.30 245.86 815.39 737.32 710.46 712.43 511.59 442.14 498.93 271.19 419.64 357.69 47.45 439.29 422.83 675.46 736.69 198.84 412.60 444.63 318.34 371.30 466.52 335.77 612.73 421.38 291.33 593.29 423.97 511.61 791.89 593.60 184.20 285.67 735.41 230.79 214.27 133.25 745.45 678.79 790.90 422.55 520.78 423.05 697.87 501.21 335.37 743.09 109.14 222.54 531.04 515.40 784.55 151.29 420.51 227.71 524.25 508.73 277.61 423.69 651.32 356.61 494.86 658.45 178.35 205.38 415.77
720.63 478.68 435.74 513.24 401.82 569.10 603.53 323.47 364.97 121.46 345.53 543.12 355.33 323.43 600.54 471.40 209.75 342.48 102.54 426.30 344.27 419.60 621.05 358.10 292.90 447.77 337.77 304.12 558.92 61.77 232.75 431.71 148.67 685.64 561.58 522.96 234.64 341.75 347.06 398.97 533.20 247.69 0.00 456.81 459.34 240.40 562.49 223.22 450.47 498.19 443.96 391.99 367.42 602.61 374.42 363.66 471.59 375.60 401.66 311.92 358.98 718.40 294.74 537.54 431.56 431.13 113.22 398.84 383.66 430.11 390.84 141.56 404.58 515.12 354.10 322.35 493.89 331.64 467.86 425.22 399.03 536.92 250.30 324.95 412.10 557.95 384.07 433.84 588.86 456.51 454.72 393.91 163.83 386.45 501.17 423.14 310.42 486.47 519.34 603.34 314.43 91.28 495.93 582.60 357.84 439.11 271.95 539.84 472.37 485.29 374.39 126.23 554.34 483.06 411.95 222.06 362.56 500.56 607.67 289.39 353.04 371.26 186.15 338.25 696.90 517.22 563.59 226.23 422.45 274.52 361.91 360.66 190.08 625.33 473.96 82.32 694.91 599.51 466.78 639.59 503.24 228.27 458.53 345.69 362.96 538.26 276.21 435.89 406.11 492.61 618.53 160.78 263.12 552.32 493.13 496.89 218.83 161.14 436.20 457.73 255.97 345.60 529.26 442.31 644.08 440.38 411.60 434.86 556.54 336.26 347.54 275.43 521.20 490.82 612.03 376.40 328.13 482.40 480.30 451.36 217.86 598.16 326.95 145.01 287.36 498.83 651.73 299.99 472.44 351.06 341.40 261.04 413.96 352.14 436.73 284.54 459.06 504.16 350.15 427.32 355.34
924.66 781.94 117.60 894.30 82.39 837.86 1053.63 746.84 821.78 441.13 310.03 799.33 530.99 724.40 868.59 809.25 364.30 743.45 390.76 769.19 783.07 851.27 869.75 482.05 389.37 317.28 484.02 702.27 871.08 503.05 334.18 609.18 567.21 1104.18 994.67 907.21 565.83 374.67 385.91 482.61 923.40 349.12 456.81 0.00 815.79 535.17 794.03 588.65 325.62 322.50 717.38 403.45 659.74 769.81 625.70 275.10 898.26 733.84 464.18 609.32 433.49 855.59 240.04 686.52 313.91 53.08 411.99 830.51 382.75 643.77 570.76 481.48 815.96 827.33 647.20 766.35 767.31 752.57 13.35 240.75 587.36 917.78 510.26 289.11 395.32 971.63 406.78 391.20 132.05 828.76 870.20 492.45 510.99 613.70 590.34 440.19 630.09 631.12 263.04 1051.42 755.88 443.29 783.32 850.65 430.89 350.72 233.50 628.45 187.80 189.87 405.29 418.12 878.52 138.55 797.37 454.28 787.44 383.73 961.18 597.62 413.37 169.02 642.96 488.46 893.80 758.87 956.32 641.71 577.66 576.17 375.55 175.56 565.22 1044.79 664.70 374.49 1099.01 771.28 896.00 1032.26 774.95 622.09 312.14 596.97 693.90 636.98 353.97 752.43 287.34 918.74 1008.00 491.57 451.09 95.51 180.01 687.50 637.37 586.64 608.98 740.62 274.07 729.43 740.17 785.20 1048.18 547.29 339.23 578.27 728.88 172.38 219.47 259.37 971.30 943.97 766.42 324.26 759.67 101.28 903.67 768.85 483.49 769.19 320.36 439.40 719.03 821.92 1026.66 482.57 648.66 496.63 774.49 648.33 121.37 688.33 668.02 627.43 801.95 929.36 449.55 387.89 345.32
1013.55 581.45 780.94 519.93 735.56 722.73 561.71 414.33 443.56 416.81 572.33 684.20 725.81 202.53 804.52 619.36 494.52 221.58 520.16 87.83 487.14 352.01 854.56 427.07 649.77 819.14 703.90 307.02 171.35 413.29 501.71 351.23 477.56 486.02 312.51 182.88 514.19 552.59 490.80 450.60 523.95 486.77 459.34 815.79 0.00 280.62 251.76 427.30 807.34 863.29 753.09 767.43 194.37 418.80 283.42 749.37 496.26 128.77 768.75 307.82 448.87 929.37 639.94 425.92 805.62 764.87 498.93 372.77 746.73 343.21 753.30 419.85 414.01 694.70 594.61 509.06 740.15 372.16 802.44 859.02 325.89 636.04 418.57 738.64 569.95 597.26 518.36 794.62 923.24 133.17 396.02 731.07 357.19 299.55 441.84 773.48 232.64 894.96 905.05 511.61 421.81 463.80 671.90 786.58 698.59 795.98 672.33 903.58 889.99 895.27 756.75 454.18 720.26 849.01 439.78 640.46 411.88 863.63 344.06 556.39 738.75 688.92 359.19 351.92 956.64 175.34 673.37 319.11 759.66 239.62 727.01 696.74 436.15 519.34 295.71 532.60 529.60 840.02 560.46 443.28 144.60 399.80 820.82 312.15 173.21 432.62 495.43 165.36 791.82 290.71 419.02 376.61 675.78 894.61 726.45 361.42 496.57 387.22 727.59 143.52 664.70 472.15 380.04 36.24 481.62 792.23 577.50 391.01 855.93 673.22 654.78 605.91 488.97 206.69 931.15 733.27 263.19 880.98 504.24 46.94 593.87 845.79 595.91 460.31 323.78 56.96 386.82 435.18 259.88 390.39 248.22 537.73 723.09 157.27 703.73 190.52 36.43 408.66 433.66 556.11 712.21
883.33 601.23 514.85 554.94 514.92 697.60 640.36 335.65 411.98 143.12 330.73 681.22 578.75 248.58 739.28 602.51 213.90 244.66 291.37 274.57 457.32 398.77 776.12 277.91 469.14 600.41 578.17 298.05 382.83 194.33 282.47 281.16 324.59 655.58 518.85 386.83 405.39 333.13 339.85 310.39 558.60 267.53 240.40 535.17 280.62 0.00 343.86 257.70 585.32 634.26 606.74 564.88 193.26 447.35 165.49 536.55 489.57 210.10 580.65 110.79 276.74 789.78 431.86 348.32 598.36 544.23 286.11 419.53 556.55 293.95 577.91 139.80 454.36 655.97 501.37 435.40 656.67 331.91 521.82 601.46 245.56 608.97 174.06 501.17 403.48 598.31 363.08 611.51 642.62 320.07 442.78 602.24 76.57 250.29 347.51 606.55 106.23 680.25 635.79 629.94 344.69 202.79 631.15 721.34 543.67 606.02 434.86 723.30 655.17 667.15 552.17 216.71 654.52 606.91 437.41 462.46 376.25 612.79 499.35 410.04 525.93 415.23 316.96 264.02 836.59 310.16 596.25 276.88 603.22 41.00 522.43 459.27 327.35 641.81 306.38 258.56 648.30 724.58 547.15 565.78 316.40 297.62 571.84 194.22 181.21 371.13 302.10 217.26 579.00 435.15 541.52 95.99 487.48 630.68 492.79 347.82 359.68 267.51 583.97 235.21 430.34 441.92 373.97 285.94 597.47 642.31 396.80 289.34 724.87 476.95 426.66 378.97 571.22 425.66 846.81 552.64 304.07 622.62 492.48 233.68 405.57 718.81 376.67 182.79 314.81 330.64 564.83 233.13 294.91 263.80 298.67 399.78 462.88 156.16 557.38 137.29 269.19 488.82 285.36 383.98 531.58
1157.42 789.12 803.32 707.64 763.37 916.53 757.40 593.25 652.27 486.98 500.91 889.96 837.05 415.84 983.44 811.25 514.89 410.24 587.27 251.74 666.06 580.02 1033.48 316.82 765.04 922.50 790.08 485.94 378.01 538.19 493.16 207.61 664.51 664.25 518.35 402.23 695.82 436.27 462.22 371.24 730.83 497.15 562.49 794.03 251.76 343.86 0.00 593.24 907.41 950.80 924.22 845.82 373.99 277.23 250.97 791.96 660.17 236.93 892.54 299.09 416.06 1104.47 703.18 237.97 859.86 774.88 598.00 564.79 866.52 209.60 844.14 461.89 595.33 862.55 771.53 687.98 922.88 545.08 780.68 895.30 240.96 799.95 414.75 799.80 506.62 784.97 478.59 893.08 901.98 160.97 609.67 846.22 398.66 235.62 298.22 875.45 328.19 1006.20 947.64 673.55 587.65 524.53 858.49 965.50 839.57 901.61 735.57 1008.32 920.68 909.67 863.79 517.42 889.30 836.54 594.76 765.93 627.57 934.88 560.87 727.52 837.82 663.68 547.20 340.57 1100.51 109.53 811.50 520.16 876.27 302.86 834.05 759.98 671.21 712.50 152.09 554.46 707.83 941.57 724.37 649.94 107.16 573.96 893.93 279.70 321.92 263.55 449.70 126.60 834.41 452.65 625.68 418.08 788.24 874.39 675.45 171.51 654.04 538.49 900.37 148.44 707.18 651.07 169.56 221.57 688.28 922.10 524.26 261.66 1006.92 703.69 692.50 626.48 680.73 458.45 1087.02 839.01 427.10 873.81 686.28 281.27 706.33 947.34 548.34 459.63 489.62 227.04 626.35 362.38 240.48 355.58 447.93 677.34 682.30 373.50 874.86 325.86 224.14 593.99 435.75 494.76 827.48
629.46 348.79 560.15 391.99 533.66 452.25 475.52 185.25 261.58 270.45 507.03 423.52 355.01 253.17 481.58 344.81 365.75 234.12 244.80 376.61 199.62 281.10 518.42 484.57 342.74 476.96 353.77 165.62 469.72 161.45 444.44 538.86 78.09 539.99 483.83 433.59 164.06 516.67 494.85 478.34 408.20 437.32 223.22 588.65 427.30 257.70 593.24 0.00 499.53 552.52 349.04 414.26 268.34 667.73 423.19 474.01 321.26 356.31 391.33 368.49 441.22 532.08 419.15 606.02 498.59 562.97 223.57 260.34 393.56 543.93 365.37 241.24 242.50 398.27 246.62 177.70 398.97 163.92 602.00 557.06 503.26 382.93 384.19 397.92 574.79 413.30 527.56 450.70 716.58 493.17 320.28 367.27 304.47 500.27 593.16 407.18 342.22 506.30 604.67 475.33 176.21 266.91 376.97 463.64 398.73 488.95 461.56 555.09 606.53 593.61 406.98 301.15 458.30 635.90 208.72 295.68 224.34 510.46 483.68 152.34 362.94 525.29 87.07 437.93 578.89 494.26 427.77 108.19 397.50 298.70 419.98 488.94 93.97 476.59 526.76 214.16 510.36 466.88 307.35 511.58 506.03 39.92 505.53 451.92 271.32 628.83 484.77 466.64 495.66 391.79 500.95 317.20 333.60 675.60 623.62 590.09 101.98 146.29 385.41 458.49 394.87 184.22 612.94 425.60 459.53 398.99 543.21 547.04 498.58 467.46 457.89 417.49 393.19 434.64 600.79 417.37 229.05 598.63 342.08 401.23 251.69 461.11 499.90 244.69 148.86 464.26 525.45 369.39 516.34 445.81 264.15 142.08 524.31 270.03 299.68 290.54 408.85 361.92 462.91 548.46 405.18
657.84 609.37 221.73 777.25 332.42 638.35 912.18 609.59 671.76 511.11 494.15 632.64 249.42 729.35 601.02 621.51 503.69 733.65 383.76 719.51 600.90 723.99 607.45 641.25 157.57 33.89 236.29 654.87 876.03 512.24 516.36 768.38 447.75 984.72 933.38 900.40 397.24 545.73 604.08 676.58 798.75 501.56 450.47 325.62 807.34 585.32 907.41 499.53 0.00 68.85 444.89 114.32 664.69 926.66 704.80 129.09 706.52 777.43 190.56 656.84 617.61 606.10 277.84 879.85 76.29 337.60 376.41 744.75 135.02 747.60 293.15 497.52 726.59 641.44 474.63 622.82 458.12 614.36 338.97 183.39 714.47 712.84 563.15 162.60 570.58 797.95 561.94 92.54 357.85 873.25 768.00 222.34 508.75 726.78 784.32 177.89 673.56 332.46 150.03 911.99 600.55 436.95 588.64 583.08 183.16 68.70 251.51 314.91 210.37 197.45 148.12 447.06 652.77 246.58 698.07 259.60 648.68 100.34 967.77 383.81 136.59 383.42 569.45 597.21 629.93 862.89 718.08 604.13 316.54 626.32 131.97 288.34 406.34 898.57 785.69 368.15 991.34 475.14 733.46 914.47 879.95 509.04 13.48 690.61 711.05 841.32 547.94 780.81 109.37 877.40 938.73 528.17 239.04 316.87 484.71 849.95 517.91 516.57 319.85 802.65 268.97 537.86 852.09 816.08 940.51 251.15 529.70 737.47 449.57 335.10 305.14 368.31 829.85 934.17 467.76 134.21 710.71 283.85 732.63 760.40 313.91 480.91 433.66 462.98 641.99 857.36 977.44 620.64 792.95 630.18 755.84 466.75 391.02 650.11 430.21 717.49 799.33 816.08 655.03 620.37 136.10
671.83 669.96 204.90 818.92 314.76 694.11 958.96 661.80 693.38 558.83 563.00 681.58 298.36 754.98 629.32 640.17 537.78 774.03 429.23 775.46 658.80 786.00 660.14 690.19 213.52 75.56 262.19 703.81 901.66 547.93 543.38 775.79 499.96 1036.93 975.05 937.79 446.18 571.95 653.56 704.53 840.42 528.44 498.19 322.50 863.29 634.26 950.80 552.52 68.85 0.00 500.65 176.33 690.32 937.59 760.75 168.96 748.19 807.49 238.05 705.78 658.66 645.67 325.38 901.11 125.23 344.07 408.00 801.48 190.90 741.20 342.09 546.38 734.28 691.27 535.44 680.72 526.97 676.37 335.85 135.15 775.64 781.69 612.09 231.45 619.52 866.80 614.27 141.48 352.93 935.93 815.67 282.84 557.69 780.31 832.30 230.58 703.62 341.35 91.62 958.77 652.76 484.67 630.31 611.38 235.29 117.64 300.45 359.94 167.07 179.99 166.02 515.91 714.78 232.80 750.28 301.27 700.89 101.01 975.46 439.69 205.44 396.80 621.66 666.06 663.33 910.61 786.93 653.07 365.48 675.26 136.28 332.14 458.55 940.24 798.71 415.87 1024.61 523.81 777.75 963.41 928.89 567.81 62.42 739.55 779.90 882.34 575.89 829.75 149.61 936.17 987.67 577.11 284.65 335.21 474.87 864.42 570.12 558.24 381.86 851.59 314.40 595.76 884.89 872.03 973.78 305.57 598.55 786.41 458.46 369.95 359.93 395.19 876.63 974.55 464.19 187.57 759.65 259.61 774.30 816.35 336.69 529.58 502.51 510.70 694.20 913.31 1019.11 669.58 842.02 677.72 804.78 515.69 391.20 718.96 479.15 741.74 855.28 857.75 690.63 657.72 185.04
380.38 212.25 645.64 462.30 634.99 193.46 615.00 387.34 402.13 565.42 738.75 206.59 202.29 596.61 169.85 221.79 638.82 577.56 462.12 719.87 325.62 507.59 215.89 757.59 408.64 430.64 249.26 461.60 759.32 482.25 676.71 820.25 295.29 723.93 647.02 755.24 249.63 737.72 730.90 781.87 442.59 691.65 443.96 717.38 753.09 606.74 924.22 349.04 444.89 500.65 0.00 330.57 612.08 988.18 739.19 488.14 489.12 687.29 283.00 688.94 736.00 300.97 556.64 917.06 482.64 664.30 467.95 486.83 350.53 807.13 205.04 558.92 481.18 234.59 162.93 323.24 49.93 435.77 711.22 517.73 763.80 379.63 649.03 478.48 799.01 437.27 768.67 377.83 751.66 823.41 513.51 253.26 540.85 763.47 856.77 297.06 631.61 264.67 558.09 623.14 396.38 522.60 173.87 174.89 302.39 384.27 565.16 260.98 588.00 575.08 364.15 561.74 249.58 633.69 447.40 301.88 386.24 431.18 693.11 196.70 320.11 643.48 435.38 724.80 323.47 843.30 309.89 457.23 197.56 641.31 375.17 576.75 316.94 590.44 850.98 489.42 680.35 166.64 400.16 659.39 827.30 388.96 438.23 710.46 620.36 921.62 653.23 797.62 465.03 671.03 668.78 560.27 318.15 710.68 761.41 890.41 307.57 495.33 125.04 786.99 488.76 321.74 906.28 772.22 645.75 215.14 764.91 805.58 153.72 619.36 564.30 623.62 541.00 709.45 306.20 426.46 544.51 633.71 463.01 721.68 367.44 172.41 717.22 528.79 444.84 807.54 731.51 699.48 862.80 728.08 589.51 258.09 691.13 600.27 49.36 639.58 755.47 579.43 749.64 811.16 432.26
574.09 495.05 315.81 688.79 367.80 524.03 812.38 522.43 560.46 460.81 509.57 518.32 162.17 637.72 500.42 507.19 458.42 648.38 300.00 689.87 503.83 609.67 493.13 617.17 134.16 131.21 121.97 565.18 784.40 431.01 487.94 744.30 389.48 902.38 862.31 820.53 311.68 513.69 558.91 648.28 710.29 473.13 391.99 403.45 767.43 564.88 845.82 414.26 114.32 176.33 330.57 0.00 573.06 918.22 681.39 158.31 618.06 700.39 76.24 641.35 595.83 493.54 226.07 836.23 158.64 397.11 278.77 630.43 20.70 760.87 205.90 449.64 623.99 527.12 360.31 525.75 380.50 500.04 416.80 218.30 706.03 662.08 566.97 183.82 584.04 714.64 556.01 47.26 451.21 833.30 653.68 115.83 502.78 725.40 741.29 63.57 646.66 240.70 235.37 824.83 513.39 386.65 480.91 505.46 68.84 84.84 247.10 273.71 265.35 278.27 40.94 389.27 538.45 328.30 610.91 187.95 559.25 128.00 854.09 269.49 51.32 376.99 494.44 588.77 517.18 812.59 616.25 522.45 218.18 603.83 56.92 305.51 351.53 810.11 777.25 322.31 890.36 411.78 619.14 844.27 839.89 423.77 113.91 684.64 671.10 830.82 520.58 750.17 176.06 775.02 868.53 517.95 146.89 411.25 496.74 813.17 432.84 480.15 205.53 772.01 251.89 452.59 843.65 782.11 855.24 216.74 538.36 693.85 346.43 325.77 302.78 339.88 742.69 848.90 449.90 108.21 636.42 334.28 644.17 730.76 219.77 415.13 464.09 417.14 555.73 820.49 883.36 580.34 775.47 578.41 678.41 355.71 417.31 610.16 342.96 640.88 765.36 715.97 611.27 603.61 108.56
884.80 492.22 704.08 398.20 594.81 596.76 456.44 259.16 335.49 288.40 490.23 558.23 604.32 64.66 669.22 510.19 383.70 83.71 348.45 178.39 369.16 246.84 736.58 394.72 572.16 672.76 557.35 189.04 211.34 319.88 457.22 397.96 321.36 462.32 334.93 247.47 401.43 526.39 506.21 451.29 419.70 442.28 367.42 659.74 194.37 193.26 373.99 268.34 664.69 690.32 612.08 573.06 0.00 518.12 287.44 620.12 327.47 144.05 574.38 256.27 470.00 800.42 567.46 480.00 688.02 624.12 369.68 265.46 552.36 370.71 612.63 328.75 279.04 576.72 474.44 377.71 615.21 210.73 671.04 724.16 365.09 500.59 340.42 586.23 575.52 468.71 509.39 614.25 791.79 260.24 290.06 578.18 269.83 338.75 469.46 579.11 160.10 727.27 775.80 444.37 260.99 343.63 556.19 668.60 504.22 657.90 600.92 744.90 718.28 731.20 577.24 382.77 578.03 760.74 308.80 518.48 291.71 669.26 352.79 415.38 567.29 560.51 181.27 380.16 827.89 308.76 512.55 161.67 580.50 225.31 603.23 625.33 323.39 457.61 383.56 381.26 461.69 699.15 425.01 372.52 266.83 251.94 651.21 316.17 98.04 493.08 450.02 254.38 662.57 259.00 348.26 289.25 553.77 755.25 660.07 412.40 339.13 220.51 614.83 246.23 501.88 343.40 457.55 209.05 410.86 643.57 556.30 411.29 735.98 553.05 595.02 548.77 390.20 284.23 826.40 609.79 110.81 759.78 353.58 176.86 481.11 704.92 550.72 344.07 203.17 251.06 418.27 399.49 354.59 381.42 114.75 392.39 608.16 37.10 562.72 129.02 192.30 304.90 478.62 567.82 629.04
1297.01 918.80 812.90 840.96 757.02 1043.06 922.32 734.17 787.56 506.74 508.96 1004.53 927.43 570.54 1068.06 925.82 503.77 575.93 652.93 473.04 798.20 730.04 1153.98 314.42 784.06 956.37 920.21 645.75 566.43 579.38 491.96 196.49 700.75 849.73 686.14 569.93 786.72 445.85 452.43 326.39 811.86 477.02 602.61 769.81 418.80 447.35 277.23 667.73 926.66 937.59 988.18 918.22 518.12 0.00 309.51 870.32 820.32 386.81 909.87 371.06 389.20 1199.81 700.72 105.75 879.38 747.05 663.66 741.53 900.01 196.39 948.67 510.56 768.32 1005.76 884.44 810.20 1038.11 685.74 762.49 906.30 251.05 960.61 414.65 788.89 426.62 918.29 412.21 907.36 876.37 351.78 728.57 933.52 447.33 224.71 185.50 935.77 364.43 1065.30 980.88 864.36 728.08 573.55 978.36 1086.00 867.08 915.82 743.22 1052.88 907.74 894.82 877.95 587.47 1053.04 902.07 734.54 809.49 742.04 983.55 707.38 799.43 895.54 664.39 608.74 329.45 1240.10 256.04 979.64 637.51 957.21 413.07 861.30 750.91 742.16 893.26 140.97 620.12 893.31 1113.97 889.37 838.36 297.97 679.41 939.72 285.73 471.80 132.83 455.03 352.83 876.49 643.46 814.10 466.75 836.05 865.32 650.76 105.72 769.12 617.95 936.61 330.99 738.49 788.57 141.38 382.56 876.70 1012.48 486.06 248.13 1077.51 701.29 666.31 610.27 839.99 625.49 1199.45 810.99 610.04 871.09 846.43 454.24 765.43 1108.20 540.49 531.92 630.05 415.46 772.86 355.58 229.36 348.38 608.92 796.29 654.47 487.43 946.77 416.11 399.31 754.98 388.79 387.95 832.05
987.50 657.67 612.99 671.57 583.37 812.82 733.40 475.92 552.25 256.78 335.68 774.29 677.12 341.62 859.30 695.58 332.51 322.57 405.60 268.61 573.75 510.55 896.14 143.65 547.23 721.25 701.43 393.63 413.27 328.20 300.15 138.52 490.08 730.91 577.78 425.08 570.88 296.93 289.05 187.41 671.35 296.28 374.42 625.70 283.42 165.49 250.97 423.19 704.80 760.75 739.19 681.39 287.44 309.51 0.00 657.60 600.84 204.36 701.70 72.18 212.22 955.27 518.22 235.33 684.52 577.51 407.16 515.81 663.18 128.46 677.86 273.82 549.34 781.31 624.75 594.47 789.12 427.49 620.98 666.20 80.07 723.97 173.36 600.50 355.41 726.35 293.85 692.08 714.03 241.20 550.90 676.52 210.59 84.80 182.02 705.79 188.63 814.12 749.45 660.30 477.75 330.94 748.12 841.36 657.90 674.88 547.53 849.06 711.37 698.45 654.21 350.73 794.79 660.78 547.66 584.26 514.48 746.81 591.65 575.53 646.98 518.14 405.19 176.27 930.59 256.88 729.31 365.11 709.99 136.58 624.47 542.56 492.84 699.25 172.31 372.79 744.08 870.16 648.39 659.96 272.14 438.00 705.86 28.73 212.66 205.64 294.99 203.18 684.35 513.06 635.70 230.01 606.57 673.05 524.70 208.74 525.17 360.95 745.72 181.93 509.99 556.29 227.61 263.74 693.25 762.17 343.08 123.85 855.95 497.79 457.96 429.53 664.19 490.11 974.23 612.17 381.11 698.05 605.23 309.50 524.66 875.93 374.94 277.96 410.39 309.26 657.13 151.76 129.42 165.88 391.71 519.80 524.34 273.60 722.87 187.18 246.99 581.86 251.92 319.46 591.11
649.56 620.64 157.50 791.62 209.49 663.35 888.07 585.48 661.81 433.28 412.96 635.23 285.85 684.78 612.52 624.10 415.62 688.66 271.67 661.54 604.58 715.10 624.61 560.70 133.46 139.04 238.88 609.10 831.46 411.81 431.60 687.83 423.64 960.61 880.48 855.58 383.83 465.08 502.44 591.81 795.63 416.66 363.66 275.10 749.37 536.55 791.96 474.01 129.09 168.96 488.14 158.31 620.12 870.32 657.60 0.00 720.89 718.54 219.04 613.02 536.42 610.45 169.60 779.76 67.90 238.80 250.44 725.16 137.61 704.40 325.62 420.83 699.03 609.37 485.90 611.19 522.66 624.33 281.51 128.92 666.01 787.67 534.98 106.85 492.10 764.07 507.40 166.66 313.90 814.75 759.11 245.23 484.06 671.03 684.82 195.05 617.85 399.01 155.68 887.88 576.44 359.12 603.01 594.58 185.75 109.65 204.75 372.38 181.51 168.59 149.22 360.94 682.78 188.25 673.96 273.97 624.57 205.49 926.57 386.40 168.23 254.33 530.08 560.41 648.66 785.06 746.53 557.54 352.97 569.92 119.48 190.61 382.23 909.87 743.35 290.32 984.37 499.86 739.68 924.13 817.32 500.87 123.16 658.99 680.55 774.35 464.11 718.18 42.45 826.12 941.07 485.96 234.19 302.49 355.62 769.40 474.80 480.61 363.84 740.02 180.90 541.54 813.84 758.11 933.54 346.14 479.03 637.38 483.74 258.00 229.76 283.41 805.74 854.48 548.57 84.69 632.26 225.52 729.51 702.43 249.67 494.09 422.79 385.15 617.88 788.50 940.82 567.95 747.14 521.94 674.91 466.33 301.98 619.61 466.64 634.58 741.36 821.40 566.08 547.26 81.17
688.74 300.81 823.35 70.73 818.81 357.90 214.80 153.92 106.62 508.77 745.35 331.92 533.65 297.32 442.29 275.80 604.07 278.27 527.72 408.43 196.79 147.05 498.40 692.70 588.71 672.63 554.38 254.53 430.81 447.84 682.41 714.98 333.55 336.48 305.24 466.94 371.79 747.92 741.10 731.30 92.23 671.76 471.59 898.26 496.26 489.57 660.17 321.26 706.52 748.19 489.12 618.06 327.47 820.32 600.84 720.89 0.00 471.52 626.52 554.25 716.80 619.33 682.35 783.65 704.58 848.12 531.61 126.29 597.36 680.39 498.66 468.42 128.00 303.92 348.28 202.93 446.02 193.42 895.04 811.68 663.07 173.12 629.04 653.38 809.21 147.23 749.66 658.70 979.78 565.00 184.85 563.50 531.65 636.73 782.86 603.41 478.68 638.65 824.11 214.61 162.96 499.98 328.34 437.79 582.70 691.83 704.29 660.46 823.66 836.58 599.25 539.12 263.86 874.06 134.14 446.92 131.91 714.26 336.40 348.57 590.00 780.88 285.44 632.62 666.14 606.81 186.06 256.55 466.53 484.33 628.99 771.38 357.17 192.05 702.14 523.77 317.93 513.56 97.54 250.86 583.92 281.34 701.20 613.37 404.74 806.48 663.43 533.57 732.96 287.48 263.11 551.07 487.98 938.80 871.60 739.87 307.27 368.08 539.05 550.48 633.80 240.52 715.24 481.98 267.10 539.32 770.39 708.49 521.54 777.71 747.89 703.88 132.47 373.92 621.09 660.78 233.07 861.83 26.11 449.32 512.48 507.79 733.19 511.41 237.77 508.81 270.92 644.97 664.70 671.09 277.53 310.37 791.42 364.57 450.94 427.00 488.25 109.56 740.44 798.57 639.72
985.77 622.78 715.99 542.25 664.63 740.81 600.49 403.21 471.82 292.83 465.39 702.28 677.08 208.71 813.22 641.03 376.91 204.82 461.03 89.96 495.84 388.54 863.26 347.61 638.80 743.54 655.17 319.60 208.91 313.83 417.46 261.25 434.40 570.64 417.77 245.04 465.46 464.36 456.08 391.77 553.60 402.52 375.60 733.84 128.77 210.10 236.93 356.31 777.43 807.49 687.29 700.39 144.05 386.81 204.36 718.54 471.52 0.00 718.43 220.32 410.67 888.39 586.86 337.30 759.45 693.94 471.76 401.72 679.69 226.66 699.68 300.89 414.88 703.40 583.27 515.67 728.81 354.78 720.49 741.60 242.30 638.17 312.08 643.57 525.65 604.55 479.40 736.83 838.83 190.61 432.55 705.52 272.78 215.96 368.67 723.16 103.87 799.75 785.50 530.44 405.04 363.88 693.57 795.28 648.27 768.10 545.67 774.81 826.12 813.20 693.11 386.95 722.08 768.94 429.91 590.63 400.54 773.88 427.82 490.59 649.07 564.94 325.32 359.56 935.20 177.13 656.60 290.51 706.88 186.54 707.81 629.51 450.28 565.93 245.84 428.22 570.01 805.13 562.59 480.84 149.72 388.46 768.05 233.09 84.99 367.80 379.87 110.33 741.31 352.24 456.58 292.20 606.98 804.56 661.85 311.55 458.29 364.56 676.05 102.18 591.43 472.31 313.50 109.09 519.18 737.24 531.46 307.42 816.95 630.43 587.75 535.48 534.25 315.24 938.89 663.27 246.65 759.08 487.48 130.85 525.07 799.36 511.66 343.88 336.36 154.61 493.30 356.12 218.54 351.43 258.80 498.39 612.47 145.93 637.93 137.74 92.34 448.95 440.41 517.91 684.33
536.42 486.28 376.54 697.25 427.92 465.89 799.33 481.43 557.76 481.04 542.77 489.59 121.05 639.04 452.85 485.88 478.84 624.53 315.77 705.64 498.45 629.13 455.46 611.69 179.01 180.92 111.27 556.95 785.72 426.38 506.13 738.82 313.24 850.21 848.92 799.85 300.98 558.54 606.10 657.07 701.61 506.27 401.66 464.18 768.75 580.65 892.54 391.33 190.56 238.05 283.00 76.24 574.38 909.87 701.70 219.04 626.52 718.43 0.00 657.12 611.20 494.86 302.31 850.29 209.24 457.23 294.54 622.62 81.43 767.68 164.72 468.59 603.63 479.55 355.86 495.66 332.93 529.86 477.53 288.97 697.68 626.76 582.74 236.65 618.60 667.07 600.86 105.36 506.09 834.62 673.14 70.08 531.82 724.02 754.76 25.90 649.56 239.99 311.61 799.14 490.47 406.88 433.34 457.89 70.16 159.64 316.51 204.40 325.98 338.90 101.57 405.04 532.58 387.93 583.19 179.60 522.03 148.18 844.81 280.74 69.51 437.39 453.33 580.42 479.51 832.82 592.89 493.41 179.61 619.60 101.77 326.15 354.65 818.57 768.90 338.08 879.66 364.21 643.87 835.39 841.21 431.25 184.42 704.69 662.65 845.37 528.43 765.94 234.16 764.10 852.33 533.72 156.27 465.11 525.56 820.39 379.40 489.53 157.96 787.78 244.12 435.41 835.30 783.43 835.29 148.39 559.16 707.91 298.86 402.01 358.21 373.02 717.00 825.05 380.59 153.06 583.61 409.08 638.26 746.53 215.14 369.98 482.28 432.91 540.19 825.44 884.68 581.66 791.24 618.89 628.74 366.96 462.40 611.48 300.56 630.90 766.68 704.96 656.12 648.46 158.86
994.12 585.49 613.88 609.85 597.37 740.64 671.97 411.90 485.56 236.78 348.91 702.11 640.44 311.59 795.28 623.40 290.57 307.67 348.57 269.01 509.73 441.28 832.12 215.83 545.77 671.93 644.03 329.61 414.39 256.02 275.14 207.95 435.38 709.99 533.54 413.37 506.25 342.27 306.34 212.64 631.54 266.80 311.92 609.32 307.82 110.79 299.09 368.49 656.84 705.78 688.94 641.35 256.27 371.06 72.18 613.02 554.25 220.32 657.12 0.00 225.45 900.57 472.88 307.51 669.88 588.61 362.58 454.74 633.02 187.34 613.84 211.32 485.92 717.29 552.57 530.45 738.87 363.47 595.97 678.09 152.25 659.95 158.62 571.58 359.02 665.36 311.79 683.03 641.85 295.11 485.29 659.44 148.09 156.98 254.20 681.42 116.45 741.94 729.45 588.12 413.73 274.31 675.94 777.34 620.30 677.54 505.27 804.74 698.29 709.58 623.69 287.12 724.30 646.04 488.48 532.82 450.46 684.31 553.34 520.83 602.40 503.00 392.92 153.23 946.45 269.28 665.29 352.84 645.97 72.56 593.95 529.68 428.21 627.07 244.49 335.19 700.52 797.98 584.37 628.79 271.63 365.82 643.36 100.91 207.38 277.82 299.59 172.49 648.65 498.16 604.53 167.51 549.17 600.87 541.99 280.92 463.89 315.44 688.63 194.33 487.91 492.27 299.79 285.02 649.69 713.83 356.31 196.03 829.53 490.99 481.07 400.05 592.01 427.72 922.79 608.71 321.18 666.66 565.42 265.24 467.26 803.75 369.34 240.36 343.26 286.02 607.85 153.62 195.22 191.70 361.68 455.78 532.19 219.17 666.14 127.25 293.54 547.58 242.70 332.69 606.18
1031.02 761.56 480.60 763.58 402.23 847.95 804.91 579.37 645.78 274.66 123.46 817.83 632.89 496.21 901.02 739.12 201.79 515.26 361.50 458.79 640.84 660.57 950.20 99.24 498.87 620.30 601.99 555.06 598.76 317.10 126.23 226.37 493.53 894.61 662.36 631.75 550.86 117.32 105.27 94.35 741.84 130.22 358.98 433.49 448.87 276.74 416.06 441.22 617.61 658.66 736.00 595.83 470.00 389.20 212.22 536.42 716.80 410.67 611.20 225.45 0.00 973.30 377.28 305.91 566.30 404.70 372.23 673.93 578.11 238.37 668.05 250.28 668.60 839.49 626.82 618.92 782.93 530.94 420.14 565.56 204.55 818.72 130.90 468.11 167.66 800.58 86.34 560.56 548.44 396.86 622.79 622.82 230.46 194.71 238.67 611.40 339.11 763.68 613.53 804.72 581.20 298.76 785.04 884.82 548.86 573.93 411.84 769.13 545.13 532.22 568.65 269.52 897.02 551.42 645.95 499.27 584.89 628.10 708.45 570.69 547.49 344.73 466.96 96.95 974.11 402.25 832.76 490.24 639.06 298.01 538.91 403.81 472.82 826.71 281.89 328.69 892.42 853.84 747.59 818.23 412.76 455.09 616.35 194.86 379.07 256.37 82.77 333.65 553.05 680.85 803.80 211.04 523.89 507.46 340.92 307.94 543.20 348.72 701.62 350.74 403.71 625.44 323.23 472.04 866.29 711.85 130.86 195.46 833.75 333.94 325.57 263.47 722.58 653.17 889.24 487.62 546.63 514.15 730.85 485.93 465.59 848.07 183.95 233.86 568.17 478.50 773.93 71.83 303.08 135.42 546.30 583.30 312.12 432.90 686.64 352.70 459.21 701.05 54.32 107.24 508.68
97.38 347.92 767.95 596.53 819.94 267.40 748.15 618.44 542.11 802.53 931.42 287.41 427.32 785.25 183.01 366.12 828.65 766.20 704.88 908.69 500.39 716.04 184.77 1016.65 556.01 587.03 474.29 651.10 940.58 693.53 852.94 1070.94 590.72 867.15 893.12 930.01 506.64 948.84 967.25 1010.42 625.63 867.88 718.40 855.59 929.37 789.78 1104.47 532.08 606.10 645.67 300.97 493.54 800.42 1199.81 955.27 610.45 619.33 888.39 494.86 900.57 973.30 0.00 700.10 1138.10 631.18 849.25 711.84 708.11 472.84 1046.96 406.04 773.32 670.69 315.41 408.31 496.49 279.61 651.57 868.94 704.03 1029.64 493.90 916.27 612.51 1016.71 567.11 991.16 513.56 881.26 1025.25 717.94 455.51 836.55 1003.30 1125.24 499.59 874.30 345.36 721.20 773.72 613.21 744.75 350.73 200.95 424.70 570.57 710.41 357.67 722.13 735.05 497.72 733.32 366.60 780.44 654.39 496.34 616.73 589.74 847.03 451.89 487.77 829.13 619.15 970.01 46.81 1026.34 444.40 640.27 373.91 830.78 523.71 738.25 572.13 734.77 1058.84 689.06 837.52 162.90 549.65 795.51 1038.11 572.00 592.62 984.00 803.40 1160.91 894.29 998.72 636.63 838.98 803.01 849.28 455.28 891.64 937.66 1122.17 552.95 678.37 369.15 990.57 683.22 487.69 1145.02 954.11 786.69 357.02 993.98 1064.30 228.25 780.82 755.05 791.28 695.72 925.42 181.48 575.00 734.01 814.67 618.50 882.43 537.19 157.13 897.94 776.77 667.86 979.39 867.63 901.47 1048.42 977.89 779.14 478.35 870.87 802.11 318.56 822.62 940.93 707.92 994.99 1038.76 567.22
797.48 580.81 141.00 654.26 157.65 695.62 831.02 528.43 604.76 332.41 313.68 657.09 374.78 566.33 699.05 578.38 278.88 576.05 242.89 633.89 588.67 658.05 719.20 391.10 221.08 278.54 341.10 523.08 742.15 351.37 262.00 518.23 366.59 875.06 836.60 746.15 375.32 295.48 332.84 422.21 683.36 247.06 294.74 240.04 639.94 431.86 703.18 419.15 277.84 325.38 556.64 226.07 567.46 700.72 518.22 169.60 682.35 586.86 302.31 472.88 377.28 700.10 0.00 610.16 201.55 186.96 252.68 651.32 246.77 534.80 418.51 292.06 636.77 683.60 517.75 596.85 556.15 535.98 233.88 219.08 496.41 771.05 408.20 120.82 365.83 731.59 337.80 273.33 355.46 679.39 702.06 341.90 355.29 522.75 515.22 289.64 482.99 436.47 325.28 830.83 519.39 292.84 610.80 681.11 294.91 272.22 53.64 498.44 281.32 294.24 267.01 271.79 719.62 233.06 616.91 281.76 567.52 344.99 845.13 379.46 256.96 155.89 480.89 390.81 743.25 673.37 723.72 491.26 441.90 400.32 245.54 112.37 325.18 804.75 573.75 224.04 918.64 604.30 710.60 867.08 675.72 440.33 264.36 505.94 552.51 604.75 294.51 576.58 175.77 766.54 860.74 374.71 244.82 314.48 280.05 599.80 436.75 346.95 431.60 598.42 94.88 545.35 645.69 645.26 876.27 435.09 312.29 467.78 538.95 106.75 76.71 113.81 748.69 772.08 663.36 204.41 605.99 241.04 685.26 593.00 263.12 610.07 253.19 318.87 539.84 689.96 883.50 398.35 592.42 352.34 616.42 457.82 203.54 562.08 526.80 496.61 628.51 764.35 396.48 385.40 188.45
1222.83 867.55 717.71 795.99 677.76 948.71 870.41 646.66 722.99 434.65 415.30 968.39 862.09 544.66 1029.94 889.68 440.70 542.12 604.41 424.45 744.49 666.83 1066.88 238.60 746.06 864.15 815.12 564.37 539.02 531.48 422.17 156.09 672.91 870.87 699.31 554.66 750.41 350.66 371.06 251.96 825.09 407.23 537.54 686.52 425.92 348.32 237.97 606.02 879.85 901.11 917.06 836.23 480.00 105.75 235.33 779.76 783.65 337.30 850.29 307.51 305.91 1138.10 610.16 0.00 803.56 696.54 614.30 682.76 856.93 159.91 848.60 451.69 704.21 952.05 838.46 765.21 966.99 598.23 699.87 829.24 174.19 894.71 326.94 730.98 392.07 873.32 328.92 837.57 797.54 372.66 622.82 854.39 388.46 200.53 150.95 876.19 356.77 1017.40 905.06 825.26 648.49 508.81 925.43 1012.10 828.96 850.94 663.80 1014.76 833.33 824.06 837.17 521.88 965.53 809.77 696.42 759.60 685.22 918.31 690.66 758.36 832.98 578.07 570.62 291.45 1165.92 278.99 900.05 574.19 869.50 307.32 807.43 688.45 672.37 854.07 133.31 571.60 880.35 1043.78 819.13 810.95 318.85 641.29 866.37 206.60 422.29 49.54 380.60 304.24 785.93 627.19 786.69 407.88 769.16 778.68 545.01 67.60 708.00 538.82 928.60 282.40 675.42 727.03 68.41 403.70 849.29 942.29 422.71 142.38 1033.82 625.47 621.50 540.48 788.08 593.49 1149.57 780.85 550.58 787.80 800.18 401.51 723.47 1049.55 457.20 490.32 581.13 388.05 756.14 317.46 166.04 257.82 588.53 690.54 603.96 479.77 905.70 403.61 392.59 701.08 316.47 351.09 798.61
684.02 635.33 196.31 775.31 277.39 668.65 910.46 607.87 680.57 498.91 480.86 654.33 280.35 678.01 600.51 618.60 435.65 658.96 339.57 717.79 616.82 737.49 649.09 564.96 155.85 76.99 233.38 629.13 899.36 479.71 440.07 692.09 446.03 983.00 914.80 877.54 410.07 497.03 534.39 612.17 796.81 448.61 431.56 313.91 805.62 598.36 859.86 498.59 76.29 125.23 482.64 158.64 688.02 879.38 684.52 67.90 704.58 759.45 209.24 669.88 566.30 631.18 201.55 803.56 0.00 267.05 318.34 747.55 162.09 726.68 316.30 458.56 712.24 661.85 500.59 628.79 532.57 643.77 318.12 107.10 662.40 789.13 588.00 134.11 560.00 817.07 539.35 141.87 321.60 850.65 756.33 267.00 521.79 688.74 708.03 219.53 655.58 381.79 129.34 910.27 598.83 427.02 586.70 582.57 206.48 106.51 232.01 314.93 170.57 164.56 137.21 418.57 697.09 195.95 696.35 257.66 646.96 143.44 928.04 401.00 181.25 322.23 547.68 592.36 652.46 852.96 731.83 527.84 347.47 601.87 107.47 256.37 404.62 896.63 747.61 358.22 1001.77 493.52 748.94 946.52 877.27 524.20 62.81 679.88 731.19 798.64 483.53 778.13 36.37 845.83 955.90 541.21 227.66 299.40 414.04 773.66 516.19 548.50 364.17 799.97 200.93 553.78 826.33 812.86 951.74 307.00 513.84 661.18 428.17 263.04 273.66 315.36 828.13 859.48 491.12 102.29 649.49 222.43 730.69 758.68 307.88 499.29 454.74 448.48 640.27 851.83 973.09 588.46 773.56 553.89 694.62 487.22 314.73 687.51 461.14 681.41 797.61 814.14 598.03 581.25 93.41
888.36 728.86 140.00 841.22 29.31 834.70 1009.15 711.48 787.81 401.11 281.24 797.87 505.54 688.78 829.32 756.17 342.32 706.49 337.68 716.11 738.59 798.19 863.41 489.85 349.73 344.04 477.68 649.19 835.46 456.30 335.15 612.33 531.85 1062.02 946.49 871.59 512.75 345.88 344.45 453.82 870.32 346.48 431.13 53.08 764.87 544.23 774.88 562.97 337.60 344.07 664.30 397.11 624.12 747.05 577.51 238.80 848.12 693.94 457.23 588.61 404.70 849.25 186.96 696.54 267.05 0.00 358.91 777.43 376.41 617.23 549.27 429.31 762.88 805.39 594.12 740.67 714.23 714.33 51.07 208.92 552.64 895.89 496.73 256.82 366.53 918.55 377.99 399.39 185.13 775.68 833.83 473.47 489.01 578.98 561.55 433.85 590.07 623.43 253.23 1004.67 705.30 411.31 730.24 833.38 424.55 342.38 181.00 581.98 225.52 226.82 388.02 372.17 867.67 191.63 751.15 401.20 752.08 410.49 975.57 544.54 387.72 129.00 617.28 435.38 876.04 705.79 910.68 605.34 552.73 585.23 358.28 131.08 512.14 991.71 623.86 348.81 1053.21 738.66 870.32 996.64 721.87 569.01 329.86 548.78 653.88 657.37 325.18 713.57 281.25 883.12 972.38 469.59 424.70 148.59 191.89 674.49 589.65 533.56 597.75 735.01 220.99 696.32 690.26 732.12 1002.38 574.05 347.31 563.40 695.22 119.30 182.25 213.23 926.82 907.01 758.17 311.12 726.99 154.36 858.43 741.41 430.41 732.89 316.12 386.32 665.95 788.64 1009.61 467.45 619.87 467.84 733.64 595.25 92.58 635.25 614.94 574.35 748.87 892.99 408.09 359.10 319.97
747.25 495.33 371.36 579.93 363.04 574.66 688.87 386.28 462.61 186.50 336.82 536.13 342.75 434.34 604.28 457.42 217.83 441.88 21.23 411.10 423.19 504.06 654.32 410.20 247.42 369.80 295.78 388.58 581.02 161.37 253.79 496.75 215.40 752.37 630.04 605.14 261.07 326.02 368.10 407.84 609.03 268.73 113.22 411.99 498.93 286.11 598.00 223.57 376.41 408.00 467.95 278.77 369.68 663.66 407.16 250.44 531.61 471.76 294.54 362.58 372.23 711.84 252.68 614.30 318.34 358.91 0.00 483.30 270.44 503.56 340.46 174.05 466.07 561.28 402.85 401.27 497.78 387.49 408.76 374.41 467.89 606.50 288.20 259.01 396.37 636.87 368.34 326.03 521.83 564.31 539.25 325.57 237.28 459.90 524.48 320.44 371.07 452.56 406.12 688.68 377.24 112.34 486.13 586.34 302.89 355.31 277.85 498.94 391.06 403.98 283.86 110.50 615.32 433.52 432.29 215.50 425.37 387.34 676.13 286.65 239.82 313.50 299.37 378.70 690.34 538.28 628.80 310.76 372.59 325.06 271.72 304.30 183.03 700.16 547.41 43.54 733.93 585.79 530.92 720.77 570.54 263.49 373.60 414.55 430.11 587.28 297.25 471.40 292.89 605.83 717.94 239.18 256.56 480.85 400.05 557.94 285.56 230.17 416.47 493.24 174.66 406.15 602.71 507.67 683.10 426.48 372.37 471.92 549.98 297.48 234.32 206.00 606.54 604.04 605.47 295.28 432.41 403.88 543.11 451.99 188.92 580.02 276.33 138.37 371.82 541.72 741.61 324.63 496.70 401.05 454.62 317.38 300.74 369.17 418.59 384.14 490.92 585.49 397.67 415.94 274.22
785.16 369.40 758.64 197.02 784.08 459.23 267.97 141.19 175.21 452.97 674.03 420.70 531.81 200.80 526.70 341.99 548.27 196.90 462.07 360.48 282.73 20.76 576.74 574.69 591.70 725.92 540.14 128.24 332.22 396.74 631.59 596.87 320.82 349.21 267.42 343.50 401.11 700.77 706.53 627.09 214.87 619.84 398.84 830.51 372.77 419.53 564.79 260.34 744.75 801.48 486.83 630.43 265.46 741.53 515.81 725.16 126.29 401.72 622.62 454.74 673.93 708.11 651.32 682.76 747.55 777.43 483.30 0.00 639.14 600.80 565.08 472.43 129.86 422.80 323.90 260.81 513.85 167.17 828.50 783.16 540.42 299.41 554.03 638.72 755.68 271.43 685.19 677.69 940.95 464.16 59.94 582.78 453.28 557.14 674.35 625.51 377.10 652.78 833.58 262.38 148.72 490.12 394.53 508.76 593.27 715.27 670.79 727.24 831.90 842.57 664.02 516.24 390.15 815.30 108.53 531.53 100.59 756.04 260.35 390.35 623.28 725.08 212.69 595.69 728.25 499.56 312.35 233.52 532.95 384.64 666.05 724.23 342.93 276.90 600.56 464.58 334.85 569.31 223.83 255.36 457.63 264.99 744.34 487.08 324.31 698.24 667.02 480.50 725.35 206.49 256.99 472.70 535.77 900.88 824.64 664.97 283.88 336.76 576.17 461.02 556.44 285.42 658.93 379.21 319.59 579.93 740.10 582.20 615.27 718.52 667.42 652.78 210.91 292.93 714.76 658.08 190.13 847.59 152.40 325.83 486.00 575.08 694.87 445.79 111.48 382.52 325.83 608.36 577.38 557.22 152.85 323.91 772.73 263.37 437.47 355.29 369.10 123.91 642.89 683.68 654.14
567.96 483.03 295.11 668.09 347.10 536.15 800.36 501.73 539.76 451.17 491.36 497.62 148.24 617.02 520.38 486.49 456.12 627.68 291.67 677.89 483.13 630.37 487.00 623.91 115.95 129.76 101.27 554.07 763.70 417.04 467.24 748.57 372.24 888.45 846.36 799.83 290.98 511.39 579.61 639.34 689.59 467.38 383.66 382.75 746.73 556.55 866.52 393.56 135.02 190.90 350.53 20.70 552.36 900.01 663.18 137.61 597.36 679.69 81.43 633.02 578.11 472.84 246.77 856.93 162.09 376.41 270.44 639.14 0.00 757.82 188.01 444.49 603.29 525.62 348.29 505.05 387.13 520.74 396.10 239.00 687.82 650.06 558.64 163.12 576.65 698.70 548.46 67.71 433.25 812.60 674.38 109.70 500.48 714.16 761.99 57.44 640.13 261.40 249.74 804.13 492.69 382.78 480.36 512.09 48.14 105.54 239.82 267.58 249.29 262.21 24.88 380.94 559.15 307.60 590.21 168.21 538.55 116.90 844.47 248.79 30.62 356.29 473.74 570.56 511.05 808.72 636.95 501.75 215.36 595.50 54.62 287.26 330.83 789.41 759.04 313.98 869.66 411.48 602.07 840.38 819.19 403.07 134.61 679.22 650.40 825.07 510.70 741.84 176.23 754.32 857.32 502.46 133.07 418.80 476.04 797.11 412.14 466.33 226.23 763.68 244.69 431.89 825.44 761.41 834.54 210.61 539.43 714.55 346.13 335.62 305.66 334.13 721.99 828.20 443.77 105.91 615.72 341.83 623.47 718.78 205.80 409.00 443.39 408.81 542.42 803.42 862.66 559.64 767.14 599.11 657.71 335.01 403.94 589.46 329.03 624.82 744.66 706.92 608.97 601.31 111.71
1115.96 772.83 675.80 751.12 587.92 927.02 827.15 599.24 647.19 341.77 361.83 888.49 746.72 435.37 976.98 810.74 361.58 431.48 491.56 316.62 679.44 587.92 1004.33 161.72 641.87 781.49 735.94 499.32 435.57 409.30 345.01 34.59 578.78 788.16 631.64 443.53 638.80 339.75 307.12 209.10 762.54 359.95 430.11 643.77 343.21 293.95 209.60 543.93 747.60 741.20 807.13 760.87 370.71 196.39 128.46 704.40 680.39 226.66 767.68 187.34 238.37 1046.96 534.80 159.91 726.68 617.23 503.56 600.80 757.82 0.00 767.62 329.51 615.55 887.00 730.08 701.36 857.06 550.81 657.12 742.76 70.00 814.84 277.76 607.84 377.26 805.22 310.43 786.72 775.82 300.47 631.93 761.51 266.28 43.66 142.01 793.58 280.97 877.51 828.18 757.10 601.07 392.50 820.86 964.68 734.38 784.09 546.83 916.38 746.88 759.80 741.88 401.02 902.47 732.35 649.33 613.10 599.92 802.50 653.81 663.11 728.79 536.21 519.06 187.26 1059.05 239.86 824.67 478.98 799.75 259.90 712.14 580.65 579.81 792.59 57.51 460.02 796.67 955.95 739.26 707.50 261.71 552.31 761.08 113.72 308.32 141.14 321.14 221.53 696.03 556.09 683.24 285.70 639.66 739.28 542.77 123.22 645.91 445.94 832.95 199.69 596.30 664.45 143.69 320.99 745.84 829.93 361.05 99.52 940.94 548.59 542.95 460.83 756.53 526.86 1003.07 691.43 447.32 745.05 696.42 334.88 584.38 950.18 355.36 372.50 516.08 322.83 706.99 226.51 100.82 182.46 485.46 643.12 550.49 345.31 788.75 253.39 316.79 675.61 257.87 344.46 700.32
475.03 375.92 483.12 569.39 519.96 398.50 693.25 465.59 466.96 478.46 593.41 406.13 43.73 618.54 374.89 403.23 543.07 599.49 361.69 721.38 387.98 585.84 420.93 711.40 221.82 274.40 90.70 494.38 741.10 428.15 567.22 788.71 298.25 783.94 777.91 777.23 245.20 655.88 677.40 715.82 590.89 552.28 390.84 570.76 753.30 577.91 844.14 365.37 293.15 342.09 205.04 205.90 612.63 948.67 677.86 325.62 498.66 699.68 164.72 613.84 668.05 406.04 418.51 848.60 316.30 549.27 340.46 565.08 188.01 767.62 0.00 438.11 525.40 401.59 241.18 409.90 254.97 477.91 580.40 392.94 736.54 542.95 574.69 299.95 678.70 589.11 690.16 229.23 599.05 810.84 603.23 94.70 501.34 723.96 851.45 142.33 623.95 212.23 416.22 713.27 461.05 437.58 355.38 379.93 142.49 272.96 397.85 196.59 423.13 410.21 205.59 450.96 454.62 479.97 513.46 168.78 464.49 263.99 766.58 213.03 161.55 485.96 438.34 665.19 418.12 814.33 509.52 473.56 32.13 541.28 208.83 418.19 317.15 690.71 811.47 368.78 815.73 259.18 562.12 749.52 816.68 382.20 279.67 683.20 614.69 883.50 599.73 717.54 306.47 685.87 761.77 520.76 186.98 569.50 556.37 863.21 301.17 432.00 80.00 739.38 350.56 348.37 854.76 759.04 764.90 104.92 659.48 759.25 220.90 460.80 442.49 461.41 631.13 772.31 342.84 260.12 557.50 492.53 524.77 733.96 216.91 253.41 574.32 463.61 489.76 807.63 769.58 621.15 803.10 688.57 602.63 285.86 533.61 624.73 203.56 601.27 752.22 608.22 710.13 727.71 265.92
862.19 539.72 433.06 535.12 400.00 619.05 683.22 388.72 422.02 40.35 276.93 580.52 455.56 303.04 662.60 501.81 135.65 283.99 163.32 369.33 440.86 471.97 712.64 279.97 341.09 478.30 448.74 375.12 501.31 79.79 218.28 350.60 290.23 718.07 566.52 493.94 309.29 301.58 326.41 317.86 506.02 203.34 141.56 481.48 419.85 139.80 461.89 241.24 497.52 546.38 558.92 449.64 328.75 510.56 273.82 420.83 468.42 300.89 468.59 211.32 250.28 773.32 292.06 451.69 458.56 429.31 174.05 472.43 444.49 329.51 438.11 0.00 440.41 608.52 471.80 418.94 584.75 345.10 468.13 473.41 298.43 615.71 160.62 370.52 361.41 609.71 336.62 471.79 572.61 450.59 491.62 474.19 63.23 285.85 413.34 490.51 197.02 565.71 533.02 628.16 382.58 62.99 554.35 644.66 415.62 478.63 304.21 593.42 533.15 527.35 433.49 86.06 659.71 480.89 430.62 347.94 412.63 472.99 553.07 364.04 413.87 312.46 263.84 251.12 820.13 432.08 634.14 269.84 470.24 180.23 410.10 328.62 251.98 660.47 373.36 130.51 705.50 678.58 544.47 654.52 434.43 246.29 484.04 245.09 293.12 456.25 250.79 335.29 463.28 474.48 630.26 82.65 352.46 575.05 403.18 425.10 343.22 176.46 503.44 357.13 290.54 425.46 428.66 406.47 654.67 502.51 301.97 340.21 639.52 353.66 286.86 257.18 600.89 484.51 737.91 415.92 317.44 518.16 494.53 372.91 282.38 672.81 264.77 42.99 365.05 446.34 618.55 219.69 394.22 250.46 353.13 376.30 360.11 295.96 511.38 248.70 393.23 543.28 272.02 357.52 394.86
768.07 340.25 744.09 184.14 755.62 438.52 270.81 135.54 146.06 469.62 703.43 399.99 526.16 247.74 487.68 332.22 564.92 231.11 487.30 343.59 202.33 121.55 555.34 627.86 574.28 692.70 522.72 195.76 380.32 360.62 637.33 609.33 294.39 319.96 287.27 403.16 354.11 715.84 694.02 682.75 175.89 636.49 404.58 815.96 414.01 454.36 595.33 242.50 726.59 734.28 481.18 623.99 279.04 768.32 549.34 699.03 128.00 414.88 603.63 485.92 668.60 670.69 636.77 704.21 712.24 762.88 466.07 129.86 603.29 615.55 525.40 440.41 0.00 393.26 318.25 180.41 453.72 137.66 813.95 762.34 598.23 234.60 558.21 614.22 786.19 189.67 714.71 658.81 916.67 534.81 81.39 577.13 476.32 571.89 731.36 608.09 413.84 639.36 825.90 268.71 131.30 461.66 384.76 501.77 555.15 698.73 603.93 646.84 838.07 825.15 619.32 500.32 320.80 791.02 33.78 466.99 94.94 720.19 241.18 384.70 605.44 724.46 218.43 595.92 717.50 519.01 271.19 248.13 527.30 413.36 648.63 688.11 325.51 279.07 637.30 456.66 290.33 563.66 159.02 275.99 518.78 267.59 721.27 578.07 339.90 715.88 680.79 468.73 675.87 250.00 258.45 468.69 508.05 886.33 841.13 662.60 224.23 331.11 473.00 484.49 541.89 243.65 650.40 438.75 239.50 563.10 742.38 663.35 540.32 697.62 655.98 616.66 188.48 304.29 692.80 648.91 168.23 828.29 109.77 367.07 483.23 569.43 705.18 443.86 179.00 464.03 306.66 607.90 600.85 624.74 213.36 301.36 766.81 316.14 431.82 362.16 423.41 132.08 658.06 773.14 636.72
384.82 134.13 737.67 337.12 776.08 53.98 434.80 355.24 318.10 602.47 839.05 28.00 392.91 546.69 138.37 106.71 697.77 527.64 542.90 645.95 207.56 443.56 201.85 776.22 545.98 629.90 439.88 387.68 650.65 528.73 747.87 903.35 366.45 564.81 607.82 637.18 334.89 856.87 829.80 838.02 366.22 756.35 515.12 827.33 694.70 655.97 862.55 398.27 641.44 691.27 234.59 527.12 576.72 1005.76 781.31 609.37 303.92 703.40 479.55 717.29 839.49 315.41 683.60 952.05 661.85 805.39 561.28 422.80 525.62 887.00 401.59 608.52 393.26 0.00 236.07 229.48 213.03 377.92 840.68 725.25 861.38 180.55 737.91 593.75 924.34 264.54 871.94 574.38 923.27 780.61 474.65 443.88 629.73 843.34 919.29 491.51 669.00 427.43 762.49 506.47 346.20 606.40 75.15 133.87 477.48 591.79 667.47 495.57 765.77 765.70 541.36 641.35 73.41 797.62 405.15 404.19 392.72 627.73 599.80 359.46 510.73 784.34 397.02 805.21 362.22 806.13 137.16 437.10 394.11 644.73 565.79 719.49 407.86 475.36 891.56 560.58 544.52 326.71 234.24 482.16 786.90 394.36 628.85 810.04 618.41 986.95 791.33 735.95 651.82 545.79 506.42 649.15 445.25 911.15 898.73 900.04 296.29 497.14 321.59 757.79 591.07 270.60 952.71 719.44 493.69 411.69 888.23 872.44 321.78 766.25 705.16 731.22 424.33 632.23 460.62 617.08 470.59 834.89 311.33 647.76 469.75 320.94 798.00 611.97 404.44 744.72 554.28 767.66 845.25 814.98 515.72 310.04 799.42 557.47 212.12 633.61 712.22 413.48 838.52 910.06 596.99
461.26 134.74 643.40 396.54 623.43 246.60 452.07 224.41 273.23 434.29 670.87 208.07 269.17 433.68 274.39 162.05 529.59 414.63 399.60 556.94 162.69 344.66 360.31 670.17 373.66 468.69 316.14 298.67 628.44 392.01 586.85 741.65 205.43 589.35 591.32 592.31 168.68 695.85 675.37 663.94 388.29 587.58 354.10 647.20 594.61 501.37 771.53 246.62 474.63 535.44 162.93 360.31 474.44 884.44 624.75 485.90 348.28 583.27 355.86 552.57 626.82 408.31 517.75 838.46 500.59 594.12 402.85 323.90 348.29 730.08 241.18 471.80 318.25 236.07 0.00 169.66 212.86 272.84 645.19 578.61 685.20 301.77 578.05 440.81 756.16 386.88 713.16 407.57 756.71 660.48 383.84 304.62 517.93 701.92 794.29 329.96 541.75 328.88 595.68 500.42 233.45 445.38 205.95 292.33 300.15 445.15 538.71 405.41 597.58 610.50 373.17 480.33 273.55 655.89 284.47 313.99 223.31 465.19 559.43 217.72 363.22 662.53 305.02 632.18 404.35 705.23 323.42 322.10 209.05 542.37 399.16 566.55 219.82 522.41 765.21 399.56 608.58 245.41 320.94 536.67 664.37 242.71 474.22 631.86 498.28 830.39 630.31 652.12 524.52 508.10 526.63 514.88 272.93 742.71 732.52 804.85 144.64 345.49 269.72 630.28 500.87 181.85 844.73 609.29 557.75 281.84 722.02 726.98 310.76 613.31 583.35 608.85 418.28 573.05 390.86 450.45 381.58 685.43 322.17 558.75 344.46 251.18 654.70 458.78 281.91 644.61 604.03 554.99 730.25 631.41 426.58 161.80 633.21 437.34 113.57 529.26 592.54 426.81 681.14 734.06 436.10
593.87 171.09 719.23 241.57 711.36 283.46 397.60 125.76 106.50 443.81 667.88 245.82 438.83 339.28 339.30 167.11 532.10 320.23 422.50 460.31 21.92 255.38 389.34 608.15 511.83 621.13 432.72 202.04 487.67 339.15 555.10 716.56 235.28 460.21 467.68 451.54 243.01 664.10 669.41 656.04 258.46 570.04 322.35 766.35 509.06 435.40 687.98 177.70 622.82 680.72 323.24 525.75 377.71 810.20 594.47 611.19 202.93 515.67 495.66 530.45 618.92 496.49 596.85 765.21 628.79 740.67 401.27 260.81 505.05 701.36 409.90 418.94 180.41 229.48 169.66 0.00 273.31 166.98 779.70 706.99 674.54 214.57 561.89 555.11 734.45 235.60 705.26 547.71 873.42 594.97 261.80 450.29 469.27 657.70 751.22 499.62 445.77 458.95 744.82 338.34 116.72 413.63 219.65 321.36 469.81 587.63 594.30 466.43 736.60 749.52 529.93 448.58 302.89 758.49 214.19 395.42 164.85 602.43 421.59 256.26 486.23 675.13 211.38 615.63 543.30 620.49 284.31 251.46 377.77 457.89 544.44 629.43 271.67 371.19 669.23 391.86 450.74 390.02 174.67 410.19 597.21 217.62 626.77 623.20 432.77 800.11 598.56 585.45 620.52 411.27 392.78 483.13 436.48 853.30 801.32 714.40 191.70 323.99 439.38 597.31 563.21 84.96 755.41 533.80 399.91 423.48 720.91 704.37 390.71 645.16 596.71 595.19 316.77 458.79 535.47 526.50 284.95 776.33 192.34 462.12 418.79 395.79 649.30 422.39 214.75 557.45 434.37 547.09 659.61 623.51 330.08 186.03 702.01 371.83 283.23 447.97 526.58 312.49 640.61 726.16 545.33
332.56 209.77 679.39 450.30 684.92 211.04 583.95 399.07 379.81 597.20 769.81 207.60 252.22 595.95 142.90 171.86 628.53 576.90 487.05 695.21 295.23 516.11 167.27 807.52 449.64 480.57 299.19 436.94 760.98 532.18 701.90 870.18 345.22 687.61 696.95 724.85 299.56 777.70 780.06 831.80 479.40 700.10 493.89 767.31 740.15 656.67 922.88 398.97 458.12 526.97 49.93 380.50 615.21 1038.11 789.12 522.66 446.02 728.81 332.93 738.87 782.93 279.61 556.15 966.99 532.57 714.23 497.78 513.85 387.13 857.06 254.97 584.75 453.72 213.03 212.86 273.31 0.00 435.69 761.15 567.66 813.73 329.70 698.90 528.41 831.86 387.34 818.60 427.76 801.59 806.02 535.11 277.43 590.78 813.40 906.70 329.69 681.54 286.45 608.02 579.46 390.03 523.04 147.18 124.96 351.39 434.20 609.79 310.91 631.63 625.01 407.22 562.18 286.44 681.60 428.34 351.81 436.17 481.11 694.90 246.63 363.18 693.41 451.64 774.73 275.65 855.39 259.96 491.72 247.49 691.24 425.10 619.82 366.87 540.51 900.91 454.24 666.39 116.71 355.76 609.69 826.13 438.89 471.60 760.39 643.82 971.55 703.16 820.35 514.96 684.58 633.95 610.20 368.08 760.61 811.34 940.34 357.50 545.26 174.97 830.99 538.69 271.81 956.21 754.83 615.56 265.07 814.84 855.51 182.06 643.53 614.23 666.69 545.85 716.92 262.16 476.39 519.85 683.64 437.37 697.02 417.37 122.48 742.15 549.07 453.07 793.98 681.81 749.41 899.87 778.01 564.98 308.02 741.06 582.88 99.29 674.80 738.08 555.58 799.57 860.32 475.68
701.76 318.95 664.42 264.15 693.63 403.17 361.89 48.43 124.76 365.99 602.57 378.17 480.94 216.12 487.56 299.46 461.29 205.10 406.03 323.41 170.36 163.35 537.78 532.88 490.87 625.09 441.68 65.14 370.12 270.33 519.86 566.01 228.06 450.50 362.27 406.25 274.55 592.09 603.73 560.30 271.38 532.86 331.64 752.57 372.16 331.91 545.08 163.92 614.36 676.37 435.77 500.04 210.73 685.74 427.49 624.33 193.42 354.78 529.86 363.47 530.94 651.57 535.98 598.23 643.77 714.33 387.49 167.17 520.74 550.81 477.91 345.10 137.66 377.92 272.84 166.98 435.69 0.00 760.03 715.96 507.56 296.48 505.67 547.89 662.44 309.05 617.28 547.30 841.81 461.95 207.36 493.20 397.49 512.04 609.51 527.05 321.31 600.94 735.41 361.70 50.26 361.88 352.00 469.80 494.81 584.88 589.62 633.41 751.94 741.74 540.98 376.57 367.30 750.09 143.01 418.16 86.99 602.26 378.84 278.27 508.27 624.83 145.49 516.70 644.85 479.03 301.82 115.93 480.12 290.91 556.96 597.82 242.10 365.15 544.77 378.08 427.99 518.25 220.90 397.95 438.15 151.62 613.95 456.22 299.75 633.13 563.32 448.55 632.80 298.62 396.11 416.91 443.01 821.53 729.30 610.48 187.12 197.09 450.11 455.30 493.34 163.88 630.22 387.81 377.16 493.63 647.07 551.34 539.15 600.14 607.43 526.37 279.56 385.06 663.70 541.84 148.05 746.76 205.26 325.22 399.82 524.02 609.87 353.57 55.69 418.39 425.56 473.98 524.08 494.12 193.18 192.05 661.70 238.81 386.41 311.07 388.50 269.65 549.16 638.18 553.31
931.07 779.93 130.95 888.14 76.23 851.21 1040.28 760.19 827.82 427.78 296.68 812.68 536.67 735.70 876.24 807.24 357.76 752.12 388.75 756.76 769.72 849.26 883.10 495.40 388.21 330.63 497.37 700.26 882.38 489.70 320.83 622.53 580.56 1108.94 993.92 908.65 563.82 361.32 372.56 469.26 917.24 335.77 467.86 13.35 802.44 521.82 780.68 602.00 338.97 335.85 711.22 416.80 671.04 762.49 620.98 281.51 895.04 720.49 477.53 595.97 420.14 868.94 233.88 699.87 318.12 51.07 408.76 828.50 396.10 657.12 580.40 468.13 813.95 840.68 645.19 779.70 761.15 760.03 0.00 249.84 600.71 931.13 496.91 287.95 381.97 965.47 393.43 404.55 145.40 817.00 866.38 504.60 504.45 614.85 576.99 453.54 616.74 623.98 276.39 1038.07 753.27 443.91 777.16 864.00 444.24 364.07 227.92 633.05 174.45 187.37 398.86 404.77 891.87 144.65 798.07 448.12 800.79 397.08 947.83 591.46 418.85 155.67 649.00 486.45 907.15 752.71 957.60 655.06 591.01 562.82 388.90 162.21 559.06 1038.63 674.93 387.84 1104.28 781.37 909.35 1043.56 772.94 617.48 325.49 592.25 680.55 650.33 340.62 739.08 300.69 930.04 1019.30 485.03 455.83 108.86 166.66 689.93 634.41 580.83 622.33 727.27 272.06 742.78 741.33 779.04 1053.45 560.64 352.58 578.84 734.36 170.37 206.12 263.47 957.95 939.70 779.77 337.61 746.32 114.63 909.50 755.50 472.44 775.60 333.71 433.24 717.02 808.57 1013.31 469.22 635.31 483.28 783.88 646.32 108.02 677.98 661.86 621.27 791.01 942.71 436.20 374.54 358.67
722.60 713.35 208.02 873.34 179.61 711.19 996.76 683.67 749.29 485.86 444.71 715.70 349.21 748.65 687.58 715.10 484.26 741.24 375.71 785.51 698.86 791.06 692.63 610.18 242.15 171.56 339.69 688.44 935.50 486.99 469.20 737.31 504.04 1041.01 977.76 916.99 478.08 506.71 547.41 611.43 866.09 454.26 425.22 240.75 859.02 601.46 895.30 557.06 183.39 135.15 517.73 218.30 724.16 906.30 666.20 128.92 811.68 741.60 288.97 678.09 565.56 704.03 219.08 829.24 107.10 208.92 374.41 783.16 239.00 742.76 392.94 473.41 762.34 725.25 578.61 706.99 567.66 715.96 249.84 0.00 690.81 863.93 587.56 184.21 517.07 892.99 541.46 190.47 241.61 832.25 785.66 315.33 536.64 707.53 720.80 263.07 670.43 459.00 133.71 988.10 685.13 411.70 672.90 689.67 287.14 133.46 195.93 422.03 97.75 84.83 226.04 414.08 756.75 115.96 765.78 364.76 724.27 224.30 986.07 487.79 234.55 279.30 570.47 609.89 675.85 821.81 827.62 610.12 416.33 619.40 214.57 245.42 490.92 1003.73 791.64 342.90 1052.67 600.62 837.44 979.23 837.07 588.06 169.91 637.47 738.63 811.95 482.79 768.70 86.47 908.79 996.35 538.54 334.76 216.44 339.72 814.76 574.20 566.03 423.83 746.86 290.58 635.82 850.34 850.69 1001.84 401.57 507.75 686.86 535.27 282.71 239.99 332.89 914.43 916.04 598.22 180.49 712.45 139.47 799.97 812.08 336.86 606.39 423.82 437.73 671.68 841.08 1028.01 564.90 783.34 571.42 757.58 560.58 256.05 718.23 513.13 697.24 833.94 863.92 595.73 522.57 179.71
1067.57 737.74 637.41 720.11 579.49 880.14 790.11 555.99 632.32 281.39 328.01 854.36 740.24 420.41 933.65 775.65 291.58 402.64 457.16 324.42 653.82 561.18 973.25 105.31 571.87 739.39 733.25 473.70 451.21 378.22 318.80 60.75 547.70 770.84 589.94 470.71 592.43 314.36 250.71 167.11 745.22 309.35 399.03 587.36 325.89 245.56 240.96 503.26 714.47 775.64 763.80 706.03 365.09 251.05 80.07 666.01 663.07 242.30 697.68 152.25 204.55 1029.64 496.41 174.19 662.40 552.64 467.89 540.42 687.82 70.00 736.54 298.43 598.23 861.38 685.20 674.54 813.73 507.56 600.71 690.81 0.00 797.52 207.76 590.52 353.36 787.90 272.04 716.72 719.41 283.15 600.36 701.13 235.20 26.34 192.43 723.58 232.22 855.44 771.77 740.37 557.82 355.55 789.78 921.43 687.87 718.08 550.05 873.67 720.29 723.06 678.85 375.34 874.86 695.18 627.73 619.98 582.60 771.42 636.03 647.18 658.79 479.80 485.26 117.26 1010.66 226.42 807.35 445.18 750.32 216.65 649.11 563.33 550.41 779.32 111.95 424.35 761.61 890.77 721.94 723.14 244.39 491.93 721.92 53.34 291.00 167.30 275.34 204.21 626.03 538.77 698.88 254.62 645.02 682.87 486.36 149.74 586.41 385.56 764.13 182.37 526.30 636.36 169.15 303.67 761.48 795.07 312.75 117.80 880.56 492.18 482.57 413.15 707.78 509.54 1009.95 655.37 430.00 688.64 679.10 317.56 567.06 896.54 388.50 337.06 490.46 333.17 689.67 176.37 111.16 144.07 470.50 599.87 507.94 327.99 757.67 236.07 313.77 660.65 222.36 291.43 634.31
565.37 215.17 912.05 162.44 916.59 234.53 254.25 273.32 196.99 614.83 851.41 208.55 570.94 470.44 310.89 250.76 710.13 451.39 625.98 548.21 236.49 320.17 360.93 814.92 675.43 746.73 617.91 361.62 573.54 535.92 769.67 843.93 449.85 385.38 454.30 567.13 457.58 878.67 869.32 845.64 191.54 781.70 536.92 917.78 636.04 608.97 799.95 382.93 712.84 781.69 379.63 662.08 500.59 960.61 723.97 787.67 173.12 638.17 626.76 659.95 818.72 493.90 771.05 894.71 789.13 895.89 606.50 299.41 650.06 814.84 542.95 615.71 234.60 180.55 301.77 214.57 329.70 296.48 931.13 863.93 797.52 0.00 717.94 742.58 936.70 85.11 869.06 709.34 1011.79 708.03 315.99 606.39 609.76 771.18 900.48 600.86 605.85 607.98 862.87 338.10 282.36 628.20 255.70 292.95 601.92 746.92 808.87 640.61 899.35 910.29 674.94 663.15 147.54 913.28 268.38 584.74 271.61 753.92 439.21 469.00 664.99 883.63 351.87 805.74 540.71 753.61 69.74 391.95 510.82 587.39 700.93 844.00 445.87 311.67 829.31 597.09 404.57 446.41 75.58 301.61 717.75 377.45 726.32 752.70 556.48 926.94 813.13 673.35 812.64 440.59 325.87 629.18 574.70 970.81 982.24 854.89 397.64 483.82 472.32 690.26 728.92 294.40 885.00 639.83 375.94 562.42 911.65 847.82 502.33 850.39 804.45 791.96 265.67 527.03 591.86 741.07 402.83 950.53 179.22 589.10 584.63 452.18 845.32 584.97 352.17 681.93 373.73 752.32 800.10 790.60 433.59 395.47 887.53 495.54 392.67 561.45 628.03 282.68 814.79 917.97 737.87
970.93 700.34 530.44 667.92 501.88 717.05 743.50 503.39 544.89 143.76 215.49 730.39 569.71 374.69 801.44 662.43 169.57 391.82 277.47 401.65 555.53 533.27 846.23 167.73 455.24 578.24 573.30 466.74 491.83 240.41 176.08 249.49 398.97 789.72 644.96 505.13 469.91 232.53 165.79 168.02 638.82 161.14 250.30 510.26 418.57 174.06 414.75 384.19 563.15 612.09 649.03 566.97 340.42 414.65 173.36 534.98 629.04 312.08 582.74 158.62 130.90 916.27 408.20 326.94 588.00 496.73 288.20 554.03 558.64 277.76 574.69 160.62 558.21 737.91 578.05 561.89 698.90 505.67 496.91 587.56 207.76 717.94 0.00 468.80 264.47 737.68 207.93 591.48 613.07 375.83 577.28 588.34 108.18 234.10 291.85 604.66 208.21 722.66 628.60 700.54 494.35 213.92 662.76 803.13 529.77 601.45 417.04 722.78 571.56 569.12 553.99 221.52 804.64 487.42 524.43 462.09 542.48 633.61 645.10 524.66 528.02 402.19 366.07 90.50 928.55 350.00 745.91 406.15 542.56 215.06 524.25 460.01 412.60 739.49 278.98 244.66 770.90 769.61 646.70 712.94 365.26 406.91 549.67 176.43 338.62 356.04 208.59 288.15 566.54 575.99 688.68 89.52 478.44 601.66 401.44 308.93 446.54 312.66 614.55 275.05 387.07 545.90 345.38 396.35 744.63 615.35 252.49 184.56 728.75 391.93 375.41 294.39 675.57 586.34 852.06 532.66 451.23 524.69 655.15 403.57 396.53 763.84 270.28 190.33 449.98 429.05 710.58 59.07 302.78 128.97 424.78 511.34 404.15 303.32 630.65 259.89 404.42 614.93 180.84 238.14 517.68
683.58 575.55 242.76 718.75 227.51 644.14 817.36 499.46 575.79 387.46 377.18 605.61 287.91 631.79 627.92 590.52 341.09 631.12 237.78 662.20 541.91 636.54 650.12 511.92 100.26 196.49 240.94 534.57 797.57 386.72 353.90 639.05 319.83 856.80 794.74 806.44 361.35 416.30 449.96 513.98 722.41 338.96 324.95 289.11 738.64 501.17 799.80 397.92 162.60 231.45 478.48 183.82 586.23 788.89 600.50 106.85 653.38 643.57 236.65 571.58 468.11 612.51 120.82 730.98 134.11 256.82 259.01 638.72 163.12 607.84 299.95 370.52 614.22 593.75 440.81 555.11 528.41 547.89 287.95 184.21 590.52 742.58 468.80 0.00 459.49 762.12 444.06 182.20 369.73 778.09 680.55 261.77 424.60 564.18 623.35 220.56 567.54 424.52 262.53 817.17 508.50 323.60 537.98 609.98 187.81 176.25 97.90 387.78 281.96 269.04 164.62 284.46 667.16 278.01 601.22 208.94 540.06 262.94 840.83 352.28 193.74 221.72 459.92 511.63 659.32 749.54 730.91 500.00 326.94 499.02 134.88 125.74 349.03 839.16 651.69 270.59 900.38 553.99 675.95 853.42 774.42 437.84 176.08 571.77 640.23 696.65 385.34 675.28 97.74 774.69 870.36 416.46 167.88 360.77 325.15 709.51 389.99 446.72 379.95 697.12 106.37 516.76 706.99 743.96 853.32 358.15 410.30 588.60 509.25 172.50 142.54 205.71 735.03 815.77 563.97 83.59 601.90 283.80 656.29 691.70 249.79 548.22 325.79 353.92 546.78 757.27 894.99 490.25 670.66 473.16 647.03 432.20 261.99 623.33 461.46 586.85 727.21 742.84 513.60 498.68 92.48
1044.02 802.38 437.40 879.94 337.46 920.62 938.48 677.06 753.39 321.87 85.29 906.80 667.05 605.20 964.03 837.07 226.57 620.08 400.88 557.55 746.86 765.90 988.46 248.05 460.70 583.84 631.73 636.85 676.94 425.57 189.24 342.67 560.77 1020.23 812.91 697.48 611.72 70.35 105.03 192.60 867.43 178.45 412.10 395.32 569.95 403.48 506.62 574.79 570.58 619.52 799.01 584.04 575.52 426.62 355.41 492.10 809.21 525.65 618.60 359.02 167.66 1016.71 365.83 392.07 560.00 366.53 396.37 755.68 576.65 377.26 678.70 361.41 786.19 924.34 756.16 734.45 831.86 662.44 381.97 517.07 353.36 936.70 264.47 459.49 0.00 923.58 81.32 601.28 527.37 559.58 735.19 631.53 336.50 360.83 241.12 619.26 435.70 802.30 582.85 928.86 686.10 325.01 882.50 956.82 603.62 544.27 373.67 780.02 506.97 494.05 556.86 285.87 941.19 517.91 754.94 579.31 701.52 650.29 859.00 650.91 558.55 237.77 584.83 247.50 1047.56 551.34 908.56 587.81 687.38 379.80 527.12 365.64 548.45 947.94 387.25 377.62 993.84 892.32 865.46 890.88 557.21 571.72 557.10 326.68 529.62 342.53 145.78 491.56 534.55 785.02 910.94 320.03 561.43 490.83 274.37 356.45 628.05 465.35 740.37 485.19 431.04 686.95 409.12 592.69 970.34 732.44 59.44 277.74 874.06 303.26 316.95 285.16 856.15 736.31 956.21 543.08 627.80 496.60 833.89 544.33 513.82 898.09 145.78 377.54 653.61 613.73 916.44 205.40 449.37 209.29 633.81 657.88 273.95 538.42 749.65 475.51 575.94 813.45 136.29 72.00 523.14
649.36 300.28 872.59 77.33 889.24 318.52 231.03 262.66 220.17 622.39 858.97 284.37 632.84 422.83 396.00 268.54 717.69 403.78 636.46 533.26 257.52 250.67 382.34 803.49 713.17 819.86 637.75 335.75 520.91 550.29 781.00 799.00 442.29 300.27 441.36 557.04 448.04 853.23 883.69 834.60 106.43 789.26 557.95 971.63 597.26 598.31 784.97 413.30 797.95 866.80 437.27 714.64 468.71 918.29 726.35 764.07 147.23 604.55 667.07 665.36 800.58 567.11 731.59 873.32 817.07 918.55 636.87 271.43 698.70 805.22 589.11 609.71 189.67 264.54 386.88 235.60 387.34 309.05 965.47 892.99 787.90 85.11 737.68 762.12 923.58 0.00 844.69 739.75 1077.97 672.23 250.50 652.08 656.36 761.56 908.37 685.97 581.01 662.30 919.75 266.77 270.19 623.02 321.08 378.06 687.03 792.66 785.23 698.25 936.53 932.66 712.12 637.71 205.18 952.32 223.45 594.15 222.06 807.70 395.27 451.76 668.08 869.01 398.47 779.85 601.07 690.73 127.38 375.25 579.71 592.80 741.86 843.96 464.40 227.82 804.47 627.46 341.66 504.05 151.12 300.92 691.99 406.48 811.43 755.08 529.57 886.94 810.66 658.40 806.52 377.58 283.81 658.36 635.21 1046.03 963.99 852.27 405.35 458.23 509.11 674.16 714.85 316.98 840.07 577.58 290.83 599.21 911.68 850.20 569.40 838.34 789.83 806.33 193.80 464.02 649.50 762.10 357.90 969.06 121.12 555.74 622.12 509.82 873.64 566.72 352.51 623.10 329.79 735.12 783.40 764.73 382.76 365.54 912.57 476.67 470.51 551.83 560.83 241.62 847.73 903.12 775.61
1055.48 774.35 409.37 801.32 369.42 911.58 891.25 595.74 672.07 312.83 96.75 876.27 654.47 567.63 933.69 797.56 217.53 574.61 383.38 529.52 718.83 705.95 925.57 166.73 472.16 555.81 625.00 556.95 614.05 375.54 156.45 293.86 532.74 957.87 731.85 650.18 548.83 42.32 42.14 147.65 818.69 162.89 384.07 406.78 518.36 363.08 478.59 527.56 561.94 614.27 768.67 556.01 509.39 412.21 293.85 507.40 749.66 479.40 600.86 311.79 86.34 991.16 337.80 328.92 539.35 377.99 368.34 685.19 548.46 310.43 690.16 336.62 714.71 871.94 713.16 705.26 818.60 617.28 393.43 541.46 272.04 869.06 207.93 444.06 81.32 844.69 0.00 562.31 508.03 483.20 709.13 603.50 289.56 281.05 260.88 605.90 375.53 774.27 609.01 881.92 604.78 296.98 837.47 924.14 585.03 568.53 356.17 751.99 518.43 505.51 528.83 257.84 913.16 501.43 683.79 551.28 622.63 622.26 777.94 603.58 541.05 269.73 547.45 166.44 1026.12 475.04 856.34 572.17 698.84 351.34 499.09 377.10 539.41 913.05 346.99 365.78 957.24 883.28 807.24 868.07 494.08 541.43 575.42 281.20 448.56 279.38 115.44 419.99 513.57 742.82 843.81 282.46 535.88 490.89 257.22 308.90 602.90 435.06 712.34 403.87 396.09 703.65 361.57 520.71 906.41 704.41 128.84 243.41 853.24 335.22 301.52 267.66 808.92 670.89 928.18 463.70 546.48 508.06 752.57 517.64 498.26 880.74 128.28 320.20 573.71 564.84 843.42 158.17 368.05 127.97 591.61 602.58 285.41 486.11 719.31 394.19 503.96 763.42 93.09 58.43 484.76
606.26 542.31 287.31 724.75 370.08 571.25 855.64 558.44 602.81 482.96 520.26 559.51 185.58 678.91 547.68 548.38 478.92 684.82 347.26 706.79 538.32 656.93 540.39 659.80 144.85 103.38 163.16 612.44 825.59 478.27 445.28 764.94 390.67 925.79 887.17 861.72 304.70 545.85 555.46 606.43 716.50 430.34 433.84 391.20 794.62 611.51 893.08 450.70 92.54 141.48 377.83 47.26 614.25 907.36 692.08 166.66 658.70 736.83 105.36 683.03 560.56 513.56 273.33 837.57 141.87 399.39 326.03 677.69 67.71 786.72 229.23 471.79 658.81 574.38 407.57 547.71 427.76 547.30 404.55 190.47 716.72 709.34 591.48 182.20 601.28 739.75 562.31 0.00 423.43 846.97 700.94 163.09 534.94 743.06 750.75 110.83 658.01 287.96 213.02 860.84 549.40 408.80 525.66 552.72 110.03 57.01 274.39 273.84 283.86 275.30 59.45 436.53 585.71 306.43 646.87 211.78 597.53 80.74 899.99 316.50 87.76 403.92 530.76 599.46 560.37 834.74 663.51 558.89 252.70 634.76 89.08 288.53 382.74 850.75 787.94 355.43 931.55 459.04 666.40 885.12 875.00 460.21 79.06 701.53 712.29 788.03 477.79 783.29 128.80 816.21 887.38 551.07 190.21 382.45 487.94 801.64 434.58 523.47 252.79 805.13 244.20 475.28 854.31 760.59 891.68 253.75 585.62 716.01 393.69 354.70 324.74 384.44 778.70 885.34 450.03 98.61 672.74 306.45 650.38 747.68 267.03 462.39 500.53 450.26 599.56 817.11 924.55 581.63 821.50 625.67 714.85 374.21 424.78 651.35 366.37 659.39 777.34 763.23 608.69 620.74 119.67
956.53 891.45 214.46 1009.72 214.44 944.57 1122.06 825.86 893.09 573.18 442.08 906.04 556.66 831.80 912.40 866.37 496.35 850.85 522.81 898.18 851.50 955.48 920.25 614.10 434.17 372.94 509.69 812.71 1003.13 571.48 466.23 741.23 664.02 1200.99 1100.94 1029.45 656.13 465.71 510.30 594.31 1038.82 481.17 588.86 132.05 923.24 642.62 901.98 716.58 357.85 352.93 751.66 451.21 791.79 876.37 714.03 313.90 979.78 838.83 506.09 641.85 548.44 881.26 355.46 797.54 321.60 185.13 521.83 940.95 433.25 775.82 599.05 572.61 916.67 923.27 756.71 873.42 801.59 841.81 145.40 241.61 719.41 1011.79 613.07 369.73 527.37 1077.97 508.03 423.43 0.00 936.96 951.71 529.82 566.05 743.15 708.81 490.69 736.09 635.39 266.83 1119.85 816.82 525.69 876.48 894.46 456.56 367.39 332.70 593.36 185.86 198.78 410.27 486.55 975.19 125.65 902.85 562.60 858.11 431.06 1093.23 647.91 444.07 301.07 755.53 620.51 917.46 844.66 1047.17 773.76 594.33 683.62 419.36 243.99 622.61 1143.86 796.75 506.54 1207.00 797.72 963.35 1129.29 886.59 737.98 344.37 729.02 823.83 748.00 465.67 814.34 304.01 1031.97 1105.03 546.63 530.81 40.98 274.65 770.65 692.44 666.03 656.74 836.18 384.51 819.21 823.32 914.79 1156.17 590.13 471.28 703.89 749.77 262.37 328.59 360.35 1039.73 1051.37 769.55 385.71 890.05 117.95 982.69 876.30 519.14 803.49 452.41 571.45 829.47 927.87 1140.49 610.52 780.71 628.68 880.76 734.13 253.42 778.32 737.45 759.48 911.81 1029.97 573.94 506.36 371.73
1090.92 699.99 799.17 594.90 754.61 770.56 624.77 504.12 511.04 442.53 520.32 796.95 811.84 299.81 854.95 718.24 493.60 311.64 559.05 191.22 573.05 459.27 924.62 384.85 749.41 893.24 786.10 396.81 232.61 432.34 507.22 335.06 565.15 503.28 426.63 266.67 630.78 514.18 491.74 428.61 592.28 522.16 456.51 828.76 133.17 320.07 160.97 493.17 873.25 935.93 823.41 833.30 260.24 351.78 241.20 814.75 565.00 190.61 834.62 295.11 396.86 1025.25 679.39 372.66 850.65 775.68 564.31 464.16 812.60 300.47 810.84 450.59 534.81 780.61 660.48 594.97 806.02 461.95 817.00 832.25 283.15 708.03 375.83 778.09 559.58 672.23 483.20 846.97 936.96 0.00 503.20 838.42 394.68 256.81 423.22 814.57 253.57 918.26 899.16 555.49 511.60 513.58 770.78 856.64 764.46 853.19 711.78 965.42 928.88 917.08 809.51 493.63 805.75 863.25 520.60 678.57 477.75 923.58 451.52 645.51 804.13 714.64 425.06 400.41 1034.01 95.74 741.40 384.98 778.71 279.07 799.65 736.19 552.74 589.63 290.15 538.83 546.86 905.89 643.10 504.54 53.81 465.67 877.09 269.93 248.93 410.46 479.63 122.62 842.38 334.59 480.28 412.22 719.63 895.98 727.39 332.48 562.44 453.09 825.75 100.78 690.05 549.52 304.25 100.82 542.88 851.50 527.72 348.27 922.02 722.75 694.23 624.77 542.44 334.59 1051.34 748.36 366.58 900.52 591.11 172.50 643.58 911.66 580.81 455.65 413.57 81.64 514.72 392.96 217.14 376.68 327.18 603.60 708.98 223.14 774.05 209.57 111.40 455.44 451.18 504.10 769.42
815.32 388.00 818.58 173.17 815.21 502.50 247.59 191.71 193.81 451.27 649.90 463.97 559.50 225.40 534.93 401.93 508.62 231.99 522.01 383.73 274.39 44.01 590.70 634.63 625.65 759.87 574.09 188.18 298.93 442.01 595.13 656.81 371.34 324.31 210.61 335.06 435.50 683.83 705.31 678.64 202.27 580.19 454.72 870.20 396.02 442.78 609.67 320.28 768.00 815.67 513.51 653.68 290.06 728.57 550.90 759.11 184.85 432.55 673.14 485.29 622.79 717.94 702.06 622.82 756.33 833.83 539.25 59.94 674.38 631.93 603.23 491.62 81.39 474.65 383.84 261.80 535.11 207.36 866.38 785.66 600.36 315.99 577.28 680.55 735.19 250.50 709.13 700.94 951.71 503.20 0.00 610.47 482.82 588.27 732.92 658.10 409.62 679.46 885.67 202.44 182.67 525.43 454.47 552.87 627.22 738.52 685.32 728.23 883.41 870.49 694.62 551.27 402.19 826.06 115.17 548.38 160.53 781.68 200.41 442.21 677.32 723.38 268.57 629.68 764.75 536.18 352.58 228.49 592.89 414.32 700.00 769.50 376.88 231.25 633.08 495.71 289.20 629.25 240.41 196.30 514.10 318.96 767.59 547.02 347.56 672.36 627.64 483.07 748.60 168.61 220.56 502.24 586.29 940.30 822.94 688.22 305.62 371.79 554.39 461.23 616.38 325.04 682.18 402.46 264.01 639.87 715.97 642.14 621.71 749.65 690.67 673.69 165.26 255.05 765.26 700.28 210.80 863.33 191.16 349.08 534.60 625.58 689.33 484.87 171.42 421.56 265.89 636.35 577.59 608.77 176.10 357.86 758.36 286.62 464.15 378.54 413.54 78.26 672.57 730.03 688.09
488.39 416.20 401.96 634.23 444.16 446.72 756.69 456.60 499.23 486.64 547.62 434.33 50.97 620.44 420.33 433.73 517.97 601.39 310.87 734.15 428.37 586.22 444.70 681.77 172.21 207.28 56.14 501.62 789.52 426.26 522.37 757.58 331.82 791.18 802.84 800.86 245.85 561.18 621.22 672.19 631.53 522.51 393.91 492.45 731.07 602.24 846.22 367.27 222.34 282.84 253.26 115.83 578.18 933.52 676.52 245.23 563.50 705.52 70.08 659.44 622.82 455.51 341.90 854.39 267.00 473.47 325.57 582.78 109.70 761.51 94.70 474.19 577.13 443.88 304.62 450.29 277.43 493.20 504.60 315.33 701.13 606.39 588.34 261.77 631.53 652.08 603.50 163.09 529.82 838.42 610.47 0.00 536.15 717.85 816.51 52.26 668.14 208.22 351.20 759.00 447.56 412.48 391.53 402.39 73.96 200.67 344.73 223.17 354.20 348.23 129.79 430.46 502.84 404.17 543.35 177.55 482.19 205.32 810.88 214.93 85.75 431.59 454.34 626.82 431.48 816.41 537.39 475.46 118.09 625.90 159.53 342.39 294.92 755.55 801.96 343.68 824.53 324.90 621.43 795.25 818.76 407.19 226.43 647.79 638.59 858.95 543.55 719.62 249.60 710.80 791.65 533.28 152.42 508.19 541.80 827.80 364.12 477.40 142.97 741.46 300.95 365.33 860.66 767.31 805.14 100.91 594.56 728.88 276.16 366.10 404.31 389.26 676.86 797.24 382.32 210.82 564.74 435.66 589.61 755.04 215.02 330.67 498.52 438.51 516.13 788.03 834.42 585.46 805.94 661.88 609.87 301.15 470.16 615.28 231.76 649.03 767.50 673.06 672.17 651.10 198.25
884.46 602.95 496.29 584.98 460.49 660.74 673.40 395.21 436.71 88.69 254.16 622.21 510.37 304.59 710.70 565.04 146.69 321.23 225.28 350.50 447.35 438.81 738.05 216.74 404.32 523.84 501.60 358.56 438.08 143.02 233.20 291.65 312.50 714.23 574.86 463.40 372.52 318.80 272.43 255.58 569.25 218.26 163.83 510.99 357.19 76.57 398.66 304.47 508.75 557.69 540.85 502.78 269.83 447.33 210.59 484.06 531.65 272.78 531.82 148.09 230.46 836.55 355.29 388.46 521.79 489.01 237.28 453.28 500.48 266.28 501.34 63.23 476.32 629.73 517.93 469.27 590.78 397.49 504.45 536.64 235.20 609.76 108.18 424.60 336.50 656.36 289.56 534.94 566.05 394.68 482.82 536.15 0.00 222.62 350.11 553.74 179.06 628.94 581.36 592.36 386.17 126.22 554.58 707.89 478.85 529.45 358.29 656.65 595.11 590.58 475.60 140.14 701.40 534.97 454.33 385.89 434.30 536.22 575.92 427.27 477.10 360.80 257.89 198.68 848.61 368.85 637.73 297.97 533.47 117.57 445.86 382.70 315.21 631.31 310.13 193.74 700.80 689.67 538.52 642.35 371.20 309.52 495.27 181.86 257.78 393.02 245.74 272.06 520.85 505.89 618.09 19.42 415.69 606.50 460.36 361.87 382.66 215.32 566.67 293.90 353.77 437.72 365.43 362.51 653.93 565.74 320.23 276.98 687.86 409.24 350.09 311.26 615.47 502.23 775.86 479.15 380.64 572.24 552.04 310.25 345.61 683.90 314.65 106.22 341.80 407.21 641.40 158.63 330.99 187.23 354.68 424.87 396.43 232.73 522.47 208.74 345.76 544.83 208.79 337.70 458.09
1072.30 742.47 654.32 707.46 596.94 883.36 785.85 560.47 622.35 298.11 318.17 844.83 713.90 394.07 933.32 780.38 317.92 390.15 447.90 298.08 635.78 544.26 960.67 131.65 598.21 746.46 717.49 455.66 424.87 365.64 320.94 78.25 535.12 744.50 587.98 444.37 595.14 312.03 264.14 193.45 718.88 324.93 386.45 613.70 299.55 250.29 235.62 500.27 726.78 780.31 763.47 725.40 338.75 224.71 84.80 671.03 636.73 215.96 724.02 156.98 194.71 1003.30 522.75 200.53 688.74 578.98 459.90 557.14 714.16 43.66 723.96 285.85 571.89 843.34 701.92 657.70 813.40 512.04 614.85 707.53 26.34 771.18 234.10 564.18 360.83 761.56 281.05 743.06 743.15 256.81 588.27 717.85 222.62 0.00 185.67 749.92 258.56 851.56 790.78 733.33 562.30 348.84 777.20 926.16 698.38 740.43 576.39 879.27 739.84 726.93 698.22 362.76 858.81 689.26 605.67 606.28 556.26 758.84 620.57 649.89 685.13 506.14 475.40 143.60 1015.39 230.98 781.01 435.32 756.09 221.38 668.48 536.99 537.83 772.28 87.51 416.36 785.97 912.29 695.60 696.80 218.05 508.65 717.89 70.06 264.66 184.80 277.48 177.87 652.37 512.43 672.54 242.04 622.63 702.17 499.79 145.33 602.25 402.28 789.29 156.03 552.64 620.79 142.81 277.33 735.14 788.36 325.57 91.46 897.28 518.52 499.29 439.49 719.61 483.20 996.25 647.77 403.66 708.86 652.76 291.22 540.72 906.52 378.66 328.84 472.42 327.97 663.33 193.09 108.37 170.41 444.16 604.60 506.83 301.65 745.09 209.73 287.43 634.31 248.70 301.95 656.66
1169.52 839.69 627.40 853.59 571.52 973.27 915.42 657.94 734.27 415.32 324.99 947.29 828.96 523.64 1021.79 877.60 345.17 504.59 539.74 450.63 748.32 692.57 1070.03 143.07 655.96 773.84 787.30 575.65 577.58 477.83 316.42 152.13 649.84 889.33 754.35 583.50 676.52 260.35 272.47 144.32 853.37 320.41 501.17 590.34 441.84 347.51 298.22 593.16 784.32 832.30 856.77 741.29 469.46 185.50 182.02 684.82 782.86 368.67 754.76 254.20 238.67 1125.24 515.22 150.95 708.03 561.55 524.48 674.35 761.99 142.01 851.45 413.34 731.36 919.29 794.29 751.22 906.70 609.51 576.99 720.80 192.43 900.48 291.85 623.35 241.12 908.37 260.88 750.75 708.81 423.22 732.92 816.51 350.11 185.67 0.00 780.66 369.59 951.69 809.53 842.32 659.77 453.12 904.69 1015.25 742.55 764.12 568.86 936.60 722.24 709.32 746.86 413.98 945.99 717.68 729.68 707.42 696.50 824.33 773.67 731.27 748.23 478.89 587.21 201.35 1112.61 373.56 911.33 547.13 822.34 318.60 717.12 565.41 629.06 881.27 146.13 506.93 926.10 974.61 824.90 841.98 382.47 553.24 770.84 187.27 394.68 101.41 272.96 363.54 690.99 673.26 817.72 340.39 692.02 685.85 499.53 147.52 651.31 476.17 868.48 341.70 579.89 685.28 172.95 422.16 875.27 882.29 300.56 114.56 1006.31 529.94 480.81 452.73 845.15 648.53 1068.49 706.94 563.13 691.62 787.25 469.87 655.78 968.84 372.42 412.10 592.41 456.53 828.66 239.30 234.52 162.88 573.73 693.69 468.97 455.62 807.41 369.20 405.41 763.88 208.83 202.45 703.67
510.52 464.70 352.55 674.14 404.54 490.52 782.03 485.83 545.81 502.96 533.97 481.96 98.60 643.77 466.91 470.59 504.74 641.30 332.85 720.50 480.63 615.45 429.56 637.59 158.56 155.02 85.37 538.17 790.45 426.98 524.68 764.72 339.14 838.81 850.47 821.90 275.08 568.83 606.30 657.27 683.79 524.82 423.14 440.19 773.48 606.55 875.45 407.18 177.89 230.58 297.06 63.57 579.11 935.77 705.79 195.05 603.41 723.16 25.90 681.42 611.40 499.59 289.64 876.19 219.53 433.85 320.44 625.51 57.44 793.58 142.33 490.51 608.09 491.51 329.96 499.62 329.69 527.05 453.54 263.07 723.58 600.86 604.66 220.56 619.26 685.97 605.90 110.83 490.69 814.57 658.10 52.26 553.74 749.92 780.66 0.00 634.92 214.09 298.94 788.23 476.79 428.80 439.16 454.65 74.89 148.41 297.26 210.14 306.73 319.65 82.32 430.94 546.64 365.04 574.31 205.50 524.92 153.06 848.00 254.84 88.06 413.73 475.38 606.32 453.61 845.64 589.65 515.37 162.84 645.50 112.06 344.70 347.18 795.46 794.80 360.00 853.76 357.33 650.90 824.48 823.70 447.10 174.17 700.05 675.97 867.77 528.63 748.85 211.78 758.43 841.42 555.26 169.61 455.93 533.48 836.25 404.96 502.87 183.86 770.69 270.02 417.59 861.20 762.77 834.37 153.17 585.06 733.81 324.76 389.34 355.10 391.57 706.09 841.82 386.33 163.35 609.51 397.84 620.76 755.97 232.55 351.56 500.83 454.83 554.93 819.29 874.33 586.39 817.14 641.98 654.64 341.06 461.38 616.21 279.39 605.00 771.41 679.06 658.52 658.75 145.99
971.68 554.37 621.08 503.68 560.76 709.52 557.89 369.74 441.89 188.96 375.44 670.99 633.91 215.42 778.82 592.28 284.26 211.50 360.34 193.44 461.44 365.61 825.03 286.32 538.11 639.67 612.00 281.32 312.78 258.84 333.38 273.15 336.32 622.42 475.93 296.92 422.29 374.41 352.21 317.43 532.78 337.37 310.42 630.09 232.64 106.23 328.19 342.22 673.56 703.62 631.61 646.66 160.10 364.43 188.63 617.85 478.68 103.87 649.56 116.45 339.11 874.30 482.99 356.77 655.58 590.07 371.07 377.10 640.13 280.97 623.95 197.02 413.84 669.00 541.75 445.77 681.54 321.31 616.74 670.43 232.22 605.85 208.21 567.54 435.70 581.01 375.53 658.01 736.09 253.57 409.62 668.14 179.06 258.56 369.59 634.92 0.00 744.76 681.63 557.70 363.65 260.01 644.82 760.88 612.64 664.23 501.23 790.44 730.17 724.37 630.51 283.08 688.61 677.91 410.84 527.55 377.61 670.01 436.89 477.04 609.51 461.07 306.38 269.68 921.11 242.49 615.21 277.27 620.82 82.67 607.12 525.64 377.73 579.69 223.46 327.53 615.14 778.43 530.27 532.62 246.43 362.94 668.24 217.36 130.41 360.37 289.92 201.59 653.42 398.40 508.36 189.46 549.48 714.61 560.63 289.17 406.48 272.34 572.18 179.75 487.56 446.45 309.64 209.45 564.31 658.53 438.91 312.48 713.08 526.56 483.88 431.61 475.56 392.09 835.02 559.40 245.61 655.21 494.16 200.11 470.08 777.78 423.49 240.01 265.62 257.89 502.37 267.28 231.19 247.56 255.75 448.69 508.72 123.00 624.38 51.68 196.21 455.66 340.92 432.47 580.46
395.38 451.44 527.23 628.25 594.12 435.07 768.15 553.29 565.45 594.92 727.92 417.88 169.15 735.27 363.49 413.53 656.13 717.20 473.79 850.45 480.87 673.54 358.27 827.57 352.86 326.35 216.12 592.52 889.07 485.92 680.28 905.17 429.52 909.36 890.07 892.52 380.77 731.95 769.31 841.43 657.35 665.34 486.47 631.12 894.96 680.25 1006.20 506.30 332.46 341.35 264.67 240.70 727.27 1065.30 814.12 399.01 638.65 799.75 239.99 741.94 763.68 345.36 436.47 1017.40 381.79 623.43 452.56 652.78 261.40 877.51 212.23 565.71 639.36 427.43 328.88 458.95 286.45 600.94 623.98 459.00 855.44 607.98 722.66 424.52 802.30 662.30 774.27 287.96 635.39 918.26 679.46 208.22 628.94 851.56 951.69 214.09 744.76 0.00 399.47 797.29 562.33 546.83 375.08 350.79 269.25 325.54 487.80 76.53 449.53 462.45 275.69 557.85 497.07 533.67 613.35 264.41 552.19 307.42 879.87 353.96 286.97 567.38 546.00 762.40 338.47 969.32 546.41 586.08 180.10 721.25 297.62 543.61 458.81 764.29 935.02 481.84 890.17 182.46 622.85 847.28 927.39 530.95 318.98 810.80 768.16 1011.72 712.79 879.60 389.95 818.69 834.73 641.67 297.58 615.88 714.34 983.36 473.52 585.29 174.73 901.44 451.29 451.39 994.37 866.46 839.34 107.31 748.76 888.86 117.11 543.22 513.18 550.28 744.72 875.40 226.89 348.91 675.43 538.91 612.54 852.60 329.97 188.23 689.66 569.16 575.76 922.98 893.32 745.89 896.59 788.81 720.43 408.89 615.03 747.92 215.31 708.69 883.21 742.26 805.32 821.87 349.26
763.45 730.42 233.24 894.84 248.39 751.55 1016.54 713.95 768.22 492.67 512.26 745.98 372.49 807.35 720.94 731.79 542.64 788.30 427.35 817.22 722.90 843.57 728.50 666.46 261.93 165.12 349.63 747.68 987.14 567.49 495.44 793.59 552.11 1089.08 1036.16 978.55 517.72 572.49 597.68 667.54 916.34 510.38 519.34 263.04 905.05 635.79 947.64 604.67 150.03 91.62 558.09 235.37 775.80 980.88 749.45 155.68 824.11 785.50 311.61 729.45 613.53 721.20 325.28 905.06 129.34 253.23 406.12 833.58 249.74 828.18 416.22 533.02 825.90 762.49 595.68 744.82 608.02 735.41 276.39 133.71 771.77 862.87 628.60 262.53 582.85 919.75 609.01 213.02 266.83 899.16 885.67 351.20 581.36 790.78 809.53 298.94 681.63 399.47 0.00 1016.35 704.91 514.80 691.07 703.00 296.50 191.77 329.64 402.41 116.29 103.50 224.86 516.62 773.82 141.18 802.43 377.19 753.04 192.63 1057.38 498.53 268.90 345.08 665.94 688.61 737.94 924.12 851.62 657.18 439.61 676.79 227.90 293.45 510.70 1016.16 849.11 446.00 1115.03 581.93 836.59 1037.54 928.06 641.35 136.55 720.72 745.44 868.07 538.90 853.05 165.71 970.44 1061.80 600.78 357.00 255.42 443.05 875.16 622.27 636.29 440.90 861.38 330.27 659.86 927.83 891.08 1064.20 395.13 578.33 762.68 516.58 279.59 343.99 377.57 934.21 988.82 555.81 220.55 774.10 178.45 850.22 858.11 405.35 587.70 516.95 540.83 746.35 938.38 1095.03 627.74 865.15 677.62 819.23 584.75 345.81 775.29 553.28 733.31 877.84 933.67 658.85 612.33 199.49
849.27 429.94 971.83 189.44 977.63 524.84 83.85 317.71 292.41 653.71 846.52 486.31 708.33 407.68 609.23 407.60 711.06 411.39 691.51 532.62 360.26 246.45 649.11 803.95 754.42 887.24 702.86 390.62 343.78 548.37 797.57 791.69 497.34 121.87 227.72 379.91 561.11 886.27 864.79 800.76 180.55 782.63 603.34 1051.42 511.61 629.94 673.55 475.33 911.99 958.77 623.14 824.83 444.37 864.36 660.30 887.88 214.61 530.44 799.14 588.12 804.72 773.72 830.83 825.26 910.27 1004.67 688.68 262.38 804.13 757.10 713.27 628.16 268.71 506.47 500.42 338.34 579.46 361.70 1038.07 988.10 740.37 338.10 700.54 817.17 928.86 266.77 881.92 860.84 1119.85 555.49 202.44 759.00 592.36 733.33 842.32 788.23 557.70 797.29 1016.35 0.00 311.44 653.83 460.14 610.92 755.99 900.63 836.76 804.77 1018.21 1005.29 813.86 688.07 456.19 1027.19 266.61 661.53 277.11 921.03 203.23 563.18 804.61 912.21 439.72 741.35 792.36 608.32 393.59 430.30 681.14 616.76 828.77 875.86 505.65 38.95 776.28 685.66 112.40 696.17 272.23 71.85 566.39 447.73 915.81 689.03 534.72 865.94 830.08 636.84 910.10 220.90 96.11 611.78 702.59 1087.28 1025.38 832.35 460.40 513.28 735.52 628.12 810.60 423.30 779.68 522.58 61.57 753.93 912.59 784.15 710.86 885.37 893.11 804.41 82.14 307.34 835.70 829.05 407.19 1010.31 215.43 492.93 663.37 697.11 891.77 631.61 373.86 473.85 137.75 732.89 695.86 779.59 372.11 486.63 957.81 473.78 587.93 565.70 536.12 169.14 801.15 911.96 816.86
662.37 279.56 660.39 226.82 677.04 352.91 311.63 9.04 85.37 384.11 620.69 362.54 438.39 222.56 437.30 283.83 479.41 203.51 382.84 373.06 138.64 138.66 506.06 582.53 442.98 577.20 391.42 114.79 420.38 302.79 547.18 616.27 188.67 410.49 392.84 419.96 257.69 629.44 636.19 610.56 231.99 550.98 314.43 755.88 421.81 344.69 587.65 176.21 600.55 652.76 396.38 513.39 260.99 728.08 477.75 576.44 162.96 405.04 490.47 413.73 581.20 613.21 519.39 648.49 598.83 705.30 377.24 148.72 492.69 601.07 461.05 382.58 131.30 346.20 233.45 116.72 390.03 50.26 753.27 685.13 557.82 282.36 494.35 508.50 686.10 270.19 604.78 549.40 816.82 511.60 182.67 447.56 386.17 562.30 659.77 476.79 363.65 562.33 704.91 311.44 0.00 374.78 305.82 438.08 444.55 589.19 571.00 583.15 706.77 693.85 517.57 413.92 327.91 736.14 97.52 398.52 48.13 609.59 371.21 259.54 506.07 656.22 128.28 566.91 605.46 521.37 251.56 166.19 442.50 341.17 517.33 630.28 194.21 333.43 587.11 382.80 413.73 478.86 220.54 347.69 480.49 136.29 605.77 506.48 349.40 683.39 590.64 498.20 598.66 309.75 364.63 405.59 403.62 775.84 745.68 631.30 177.29 242.66 433.25 505.56 523.44 159.08 673.29 430.15 362.90 476.77 680.93 601.60 507.43 626.14 596.10 558.83 229.30 386.10 624.31 517.61 197.70 698.87 165.87 374.87 351.93 484.63 621.73 361.38 98.03 440.73 402.97 519.55 574.34 543.77 242.70 175.19 646.37 288.46 347.02 360.72 430.84 244.96 591.20 653.69 505.42
811.91 565.39 408.94 570.71 383.47 644.13 678.26 365.74 442.07 74.16 259.75 606.19 393.85 366.03 665.94 527.48 118.47 346.98 101.61 403.14 435.55 492.57 690.31 320.57 279.38 446.47 385.75 380.97 554.97 105.46 182.43 384.41 239.95 741.70 614.33 556.93 325.92 254.66 296.74 336.48 569.01 190.04 91.28 443.29 463.80 202.79 524.53 266.91 436.95 484.67 522.60 386.65 343.63 573.55 330.94 359.12 499.98 363.88 406.88 274.31 298.76 744.75 292.84 508.81 427.02 411.31 112.34 490.12 382.78 392.50 437.58 62.99 461.66 606.40 445.38 413.63 523.04 361.88 443.91 411.70 355.55 628.20 213.92 323.60 325.01 623.02 296.98 408.80 525.69 513.58 525.43 412.48 126.22 348.84 453.12 428.80 260.01 546.83 514.80 653.83 374.78 0.00 580.02 648.00 353.91 425.59 257.29 546.92 471.44 484.36 378.13 39.14 645.62 433.97 462.12 286.23 400.96 481.87 616.06 325.90 352.16 318.06 277.43 292.79 761.07 425.94 626.34 317.51 460.97 243.22 348.39 281.70 277.65 692.03 436.35 68.80 711.39 639.75 558.06 608.43 467.87 271.16 450.43 302.21 326.93 490.96 225.89 397.93 401.57 537.47 632.69 145.64 289.47 529.63 438.19 482.22 310.11 164.79 441.73 419.77 249.49 436.88 491.65 469.46 687.89 439.52 325.82 397.33 582.63 308.24 266.43 210.26 595.93 547.50 676.20 362.88 380.43 471.24 522.57 435.90 220.67 634.67 250.62 64.90 378.64 468.25 680.55 249.35 425.34 296.62 416.12 352.32 365.71 306.53 473.24 311.69 456.22 550.53 335.01 344.58 341.82
448.11 90.45 705.64 351.32 700.93 106.16 502.76 314.86 271.99 583.56 804.32 67.63 340.56 491.53 182.80 52.54 678.86 509.33 488.73 636.12 197.73 415.29 247.07 771.32 470.83 554.75 387.53 377.85 663.48 474.56 728.68 846.23 347.26 576.70 626.49 627.35 317.39 812.15 807.96 810.16 362.57 729.97 495.93 783.32 671.90 631.15 858.49 376.97 588.64 630.31 173.87 480.91 556.19 978.36 748.12 603.01 328.34 693.57 433.34 675.94 785.04 350.73 610.80 925.43 586.70 730.24 486.13 394.53 480.36 820.86 355.38 554.35 384.76 75.15 205.95 219.65 147.18 352.00 777.16 672.90 789.78 255.70 662.76 537.98 882.50 321.08 837.47 525.66 876.48 770.78 454.47 391.53 554.58 777.20 904.69 439.16 644.82 375.08 691.07 460.14 305.82 580.02 0.00 192.24 440.66 539.44 592.32 434.85 690.62 703.54 466.21 596.63 146.82 755.59 350.98 329.04 346.61 581.52 589.56 307.11 458.38 709.19 387.19 751.04 397.54 785.00 212.31 427.27 347.90 618.11 495.95 653.50 369.24 421.19 837.39 521.54 547.07 263.89 247.77 490.37 777.07 375.34 576.50 736.44 608.58 947.60 763.64 731.89 603.30 576.76 514.63 574.00 370.10 859.93 852.05 890.21 312.02 481.71 275.38 710.05 515.92 260.77 920.01 683.28 496.24 365.48 839.87 831.56 327.59 693.16 630.01 674.00 437.86 634.60 409.34 542.90 460.76 782.96 318.05 624.96 394.60 269.66 743.83 557.80 394.61 709.70 562.49 713.21 826.41 741.81 505.89 234.89 756.84 547.64 159.77 603.72 689.42 437.90 763.37 888.22 521.84
298.33 228.26 752.08 433.73 804.07 86.08 547.20 447.12 409.98 684.83 894.77 124.61 377.18 638.57 17.94 203.32 753.49 619.52 607.57 737.83 299.44 529.52 67.98 904.69 552.34 573.18 424.15 479.56 759.26 618.07 807.35 979.88 433.93 678.33 734.71 729.06 404.06 902.66 905.02 938.81 462.83 822.29 582.60 850.65 786.58 721.34 965.50 463.64 583.08 611.38 174.89 505.46 668.60 1086.00 841.36 594.58 437.79 795.28 457.89 777.34 884.82 200.95 681.11 1012.10 582.57 833.38 586.34 508.76 512.09 964.68 379.93 644.66 501.77 133.87 292.33 321.36 124.96 469.80 864.00 689.67 921.43 292.95 803.13 609.98 956.82 378.06 924.14 552.72 894.46 856.64 552.87 402.39 707.89 926.16 1015.25 454.65 760.88 350.79 703.00 610.92 438.08 648.00 192.24 0.00 476.35 558.69 691.46 427.32 729.25 742.17 504.84 687.14 203.80 778.52 501.76 476.77 484.60 606.07 727.37 371.59 488.14 818.37 488.90 879.23 247.76 898.01 271.03 528.98 372.45 704.78 475.10 723.69 455.91 571.97 984.34 579.20 674.72 223.30 368.11 594.56 878.78 462.01 596.56 870.09 710.29 1047.00 828.12 850.54 618.94 676.18 618.82 727.31 491.50 853.48 923.10 980.28 398.69 568.38 299.93 850.46 663.65 362.48 1032.95 811.32 623.89 366.14 939.80 965.21 264.32 768.49 739.19 791.65 537.72 736.31 343.77 526.39 562.47 794.15 417.55 739.64 542.33 229.07 862.67 674.03 496.32 836.60 666.68 833.03 937.13 895.12 607.60 321.56 859.94 649.35 224.25 725.49 804.10 526.60 916.68 982.57 532.19
522.08 434.89 343.25 653.43 395.24 488.01 752.22 453.59 529.92 428.07 518.33 449.48 100.10 568.88 472.24 438.35 459.40 587.93 317.92 682.61 462.84 583.21 504.45 626.68 142.92 168.54 53.13 505.93 715.56 368.90 492.38 738.32 328.81 840.31 798.22 751.69 242.84 554.08 547.26 598.23 654.64 493.03 357.84 430.89 698.59 543.67 839.57 398.73 183.16 235.29 302.39 68.84 504.22 867.08 657.90 185.75 582.70 648.27 70.16 620.30 548.86 424.70 294.91 828.96 206.48 424.55 302.89 593.27 48.14 734.38 142.49 415.62 555.15 477.48 300.15 469.81 351.39 494.81 444.24 287.14 687.87 601.92 529.77 187.81 603.62 687.03 585.03 110.03 456.56 764.46 627.22 73.96 478.85 698.38 742.55 74.89 612.64 269.25 296.50 755.99 444.55 353.91 440.66 476.35 0.00 153.68 285.71 240.68 297.43 310.35 73.02 372.76 528.67 355.74 542.07 135.78 492.68 165.04 796.33 258.89 63.07 404.43 467.87 597.53 471.51 779.85 606.47 504.73 167.22 584.67 99.01 313.55 304.76 774.75 785.89 285.11 821.52 382.99 621.09 792.24 771.05 402.32 182.75 634.53 602.26 805.23 469.59 712.97 224.37 706.18 809.18 480.75 94.72 466.94 512.96 761.36 372.72 427.98 216.93 734.81 271.66 426.41 814.03 713.27 794.65 174.87 569.28 696.17 350.12 356.12 330.35 366.58 673.85 788.45 416.87 150.30 588.84 389.97 588.52 681.08 157.66 388.50 473.24 379.94 522.69 755.28 814.52 511.50 758.96 587.92 618.97 325.34 446.17 541.32 280.89 577.36 696.52 687.23 603.18 627.52 142.52
589.14 579.89 263.47 762.56 313.07 577.73 895.56 598.23 635.94 499.75 508.70 582.24 229.23 722.56 554.12 581.64 485.09 721.26 372.40 708.15 587.80 694.51 577.97 663.32 146.21 46.37 206.81 631.96 869.24 490.81 458.65 778.31 430.59 967.56 923.69 896.74 344.62 540.36 568.83 619.80 756.42 443.71 439.11 350.72 795.98 606.02 901.61 488.95 68.70 117.64 384.27 84.84 657.90 915.82 674.88 109.65 691.83 768.10 159.64 677.54 573.93 570.57 272.22 850.94 106.51 342.38 355.31 715.27 105.54 784.09 272.96 478.63 698.73 591.79 445.15 587.63 434.20 584.88 364.07 133.46 718.08 746.92 601.45 176.25 544.27 792.66 568.53 57.01 367.39 853.19 738.52 200.67 529.45 740.43 764.12 148.41 664.23 325.54 191.77 900.63 589.19 425.59 539.44 558.69 153.68 0.00 243.04 297.15 231.21 218.29 92.58 460.71 623.29 249.42 686.71 244.91 637.32 112.82 938.93 354.33 136.16 361.57 550.22 600.82 602.02 851.53 694.16 590.30 296.35 640.98 83.59 231.52 394.98 883.88 789.30 356.79 948.73 496.62 703.98 845.77 883.79 508.61 55.22 703.61 733.73 801.40 491.16 784.65 108.17 854.72 870.03 548.87 213.58 326.41 430.93 815.01 474.50 529.05 290.37 806.49 250.42 528.19 855.70 803.22 925.23 276.38 566.97 729.38 431.27 343.88 316.12 381.96 818.49 921.78 473.34 104.83 658.38 249.44 690.30 749.04 284.00 499.97 470.93 451.62 630.63 846.00 917.89 595.00 804.30 624.56 703.51 427.12 367.77 695.00 379.67 692.52 787.97 800.81 622.06 616.27 83.77
761.75 634.45 170.32 707.90 151.69 698.48 836.95 563.10 636.92 321.15 288.38 659.95 376.80 595.38 709.40 632.02 329.41 588.20 296.53 635.63 605.55 657.92 726.82 444.74 198.16 243.08 338.84 576.07 754.58 333.72 309.37 571.87 383.47 920.44 799.72 778.54 415.69 339.96 386.48 465.14 737.00 297.59 271.95 233.50 672.33 434.86 735.57 461.56 251.51 300.45 565.16 247.10 600.92 743.22 547.53 204.75 704.29 545.67 316.51 505.27 411.84 710.41 53.64 663.80 232.01 181.00 277.85 670.79 239.82 546.83 397.85 304.21 603.93 667.47 538.71 594.30 609.79 589.62 227.92 195.93 550.05 808.87 417.04 97.90 373.67 785.23 356.17 274.39 332.70 711.78 685.32 344.73 358.29 576.39 568.86 297.26 501.23 487.80 329.64 836.76 571.00 257.29 592.32 691.46 285.71 243.04 0.00 462.96 280.45 267.53 214.94 218.15 739.14 223.27 570.15 263.28 603.70 298.92 845.11 406.62 258.98 166.33 458.10 444.45 738.12 683.23 777.36 498.18 424.84 432.71 216.36 88.71 378.82 858.39 604.34 277.68 894.26 629.79 738.73 865.72 695.39 493.97 238.03 522.93 573.92 635.55 336.50 608.97 195.64 764.56 862.38 350.15 265.78 322.23 270.98 653.44 453.63 397.63 452.63 630.81 148.52 580.40 690.52 654.76 843.43 439.26 323.93 521.42 574.49 100.84 93.70 164.34 754.62 762.77 639.15 180.33 600.08 260.54 713.70 625.39 265.49 635.56 227.89 322.19 559.31 700.28 910.59 448.88 604.35 405.98 613.35 492.84 204.90 563.82 515.80 529.00 638.01 723.35 449.26 414.60 159.27
383.83 473.23 511.24 702.11 569.81 454.44 844.68 592.19 553.84 621.08 705.55 467.57 200.08 795.78 430.83 482.77 652.41 776.73 510.93 864.77 488.35 721.81 434.33 812.48 330.14 343.52 247.05 650.73 926.45 554.67 674.38 929.18 494.84 926.64 908.00 917.97 411.70 709.67 787.94 806.25 703.57 678.80 539.84 628.45 903.58 723.30 1008.32 555.09 314.91 359.94 260.98 273.71 744.90 1052.88 849.06 372.38 660.46 774.81 204.40 804.74 769.13 357.67 498.44 1014.76 314.93 581.98 498.94 727.24 267.58 916.38 196.59 593.42 646.84 495.57 405.41 466.43 310.91 633.41 633.05 422.03 873.67 640.61 722.78 387.78 780.02 698.25 751.99 273.84 593.36 965.42 728.23 223.17 656.65 879.27 936.60 210.14 790.44 76.53 402.41 804.77 583.15 546.92 434.85 427.32 240.68 297.15 462.96 0.00 472.43 479.49 248.02 554.76 510.56 510.88 666.12 317.78 628.46 352.58 888.02 402.75 273.91 609.50 622.53 784.75 375.33 951.94 570.87 662.61 217.48 737.87 252.90 501.49 489.74 811.04 966.78 478.12 917.17 258.99 641.10 869.81 924.53 578.79 328.39 820.33 772.63 1025.50 710.27 885.14 351.30 858.61 845.55 673.76 276.72 614.33 700.90 947.16 497.76 609.98 227.30 876.99 447.87 521.18 999.83 883.90 866.34 183.84 759.27 889.16 193.64 560.28 530.32 569.73 764.11 925.22 176.19 304.19 713.85 537.36 658.77 905.66 343.43 264.29 686.68 572.95 652.29 929.42 900.80 697.30 940.96 773.72 758.98 482.45 629.66 782.00 291.84 777.44 867.15 770.02 807.25 799.59 309.99
771.22 732.32 140.32 894.39 210.43 781.46 1018.40 715.81 767.77 545.60 421.68 746.91 385.71 782.94 747.19 735.78 497.68 800.98 369.83 802.16 732.42 845.43 736.29 643.17 270.97 242.63 350.56 737.18 929.62 534.14 477.51 755.88 553.97 1090.94 978.64 925.29 509.53 486.32 547.01 581.37 915.89 467.68 472.37 187.80 889.99 655.17 920.68 606.53 210.37 167.07 588.00 265.35 718.28 907.74 711.37 181.51 823.66 826.12 325.98 698.29 545.13 722.13 281.32 833.33 170.57 225.52 391.06 831.90 249.29 746.88 423.13 533.15 838.07 765.77 597.58 736.60 631.63 751.94 174.45 97.75 720.29 899.35 571.56 281.96 506.97 936.53 518.43 283.86 185.86 928.88 883.41 354.20 595.11 739.84 722.24 306.73 730.17 449.53 116.29 1018.21 706.77 471.44 690.62 729.25 297.43 231.21 280.45 472.43 0.00 12.92 224.41 478.97 803.80 84.14 804.29 376.74 754.90 245.20 1024.73 498.08 268.45 310.12 655.49 603.03 760.34 886.91 881.60 669.86 452.83 668.57 254.15 236.41 512.56 1015.71 791.51 402.64 1116.89 611.86 836.14 1054.46 928.84 631.08 220.79 682.64 798.37 797.81 496.21 830.50 184.22 941.37 1066.54 592.24 370.90 169.51 341.11 802.04 624.13 578.77 470.88 838.71 342.52 669.72 854.71 878.90 1066.06 448.73 487.75 690.95 566.64 261.66 253.41 355.14 936.07 963.19 630.79 210.10 745.03 92.54 849.77 843.05 427.31 617.63 450.23 497.47 720.42 900.82 1068.63 568.88 809.76 608.28 790.16 584.30 282.47 755.38 566.50 725.98 874.41 933.22 599.45 548.99 231.16
784.14 745.24 153.24 907.31 197.51 768.54 1005.48 702.89 779.22 558.52 408.76 756.15 372.79 795.86 744.93 748.70 484.76 794.99 382.75 815.08 745.34 832.51 749.21 631.46 283.89 231.34 363.48 750.10 942.54 547.06 469.70 753.53 541.05 1078.02 991.56 912.37 522.45 473.40 534.31 594.29 925.84 454.76 485.29 189.87 895.27 667.15 909.67 593.61 197.45 179.99 575.08 278.27 731.20 894.82 698.45 168.59 836.58 813.20 338.90 709.58 532.22 735.05 294.24 824.06 164.56 226.82 403.98 842.57 262.21 759.80 410.21 527.35 825.15 765.70 610.50 749.52 625.01 741.74 187.37 84.83 723.06 910.29 569.12 269.04 494.05 932.66 505.51 275.30 198.78 917.08 870.49 348.23 590.58 726.93 709.32 319.65 724.37 462.45 103.50 1005.29 693.85 484.36 703.54 742.17 310.35 218.29 267.53 479.49 12.92 0.00 237.33 476.53 816.72 81.70 791.37 389.66 741.98 232.28 1037.65 511.00 281.37 297.20 655.30 615.95 753.30 873.99 884.97 682.78 439.91 655.65 267.07 233.97 499.64 1027.28 804.43 415.56 1103.97 624.78 849.06 1041.54 915.92 618.16 210.93 669.72 807.84 784.89 483.29 831.91 171.30 928.45 1054.37 605.16 383.82 165.56 354.03 805.82 611.21 591.69 483.80 831.69 340.56 682.64 855.45 891.82 1053.14 448.60 474.83 703.87 579.56 255.16 240.49 342.22 923.15 976.11 643.71 223.02 732.11 88.59 859.72 848.33 418.26 630.55 437.31 510.39 733.34 913.74 1055.71 555.96 822.68 595.36 777.24 597.22 295.39 768.30 553.58 738.90 883.84 938.81 586.54 543.06 244.08
546.81 507.91 306.72 669.98 358.71 557.61 814.05 526.61 543.36 452.29 482.39 522.50 161.86 641.90 522.78 511.37 431.24 641.10 305.09 668.92 508.01 650.61 511.88 633.34 106.98 127.82 126.15 572.60 788.58 429.13 480.66 739.60 389.32 902.07 871.24 824.71 304.74 486.51 570.97 648.60 691.48 479.82 374.39 405.29 756.75 552.17 863.79 406.98 148.12 166.02 364.15 40.94 577.24 877.95 654.21 149.22 599.25 693.11 101.57 623.69 568.65 497.72 267.01 837.17 137.21 388.02 283.86 664.02 24.88 741.88 205.59 433.49 619.32 541.36 373.17 529.93 407.22 540.98 398.86 226.04 678.85 674.94 553.99 164.62 556.86 712.12 528.83 59.45 410.27 809.51 694.62 129.79 475.60 698.22 746.86 82.32 630.51 275.69 224.86 813.86 517.57 378.13 466.21 504.84 73.02 92.58 214.94 248.02 224.41 237.33 0.00 394.36 579.39 289.38 615.09 152.33 563.43 140.19 860.50 273.67 44.04 381.17 487.16 561.59 535.93 804.07 657.19 515.17 228.98 593.17 29.74 278.33 355.71 791.30 750.07 309.33 894.54 424.90 611.73 850.11 818.64 416.49 134.64 657.46 671.44 808.21 524.12 737.19 151.35 779.20 850.57 495.02 146.49 393.92 477.74 772.23 434.62 479.75 246.47 759.03 224.71 445.31 816.47 757.71 847.96 224.32 536.11 715.50 359.55 315.78 307.16 346.57 731.72 841.62 424.21 81.03 629.14 316.95 625.36 709.81 217.89 430.67 442.83 404.16 555.84 806.77 870.17 584.52 780.56 600.06 671.13 359.89 414.58 614.34 342.65 599.94 748.74 708.81 584.09 576.43 86.83
825.19 598.31 369.80 594.34 344.33 678.96 692.95 404.88 481.21 103.00 256.07 640.43 421.29 389.10 705.08 561.72 125.20 370.05 131.73 431.74 460.99 507.26 729.45 313.85 318.52 461.23 374.32 420.11 556.39 139.70 143.29 413.25 274.90 780.84 652.58 560.39 360.87 215.52 257.60 297.34 592.08 158.23 126.23 418.12 454.18 216.71 517.42 301.15 447.06 515.91 561.74 389.27 382.77 587.47 350.73 360.94 539.12 386.95 405.04 287.12 269.52 733.32 271.79 521.88 418.57 372.17 110.50 516.24 380.94 401.02 450.96 86.06 500.32 641.35 480.33 448.58 562.18 376.57 404.77 414.08 375.34 663.15 221.52 284.46 285.87 637.71 257.84 436.53 486.55 493.63 551.27 430.46 140.14 362.76 413.98 430.94 283.08 557.85 516.62 688.07 413.92 39.14 596.63 687.14 372.76 460.71 218.15 554.76 478.97 476.53 394.36 0.00 680.57 394.83 476.81 293.44 415.65 497.84 639.13 365.04 350.32 278.92 312.38 299.52 768.28 465.08 665.48 333.24 478.74 214.56 382.22 242.56 293.53 714.75 450.27 107.94 750.53 660.75 593.01 647.57 489.96 285.85 456.18 322.00 355.77 476.78 186.75 390.82 382.20 560.54 671.83 132.00 278.04 490.49 408.56 502.01 345.06 179.48 454.50 412.66 223.19 467.35 505.57 459.50 727.03 468.31 322.14 406.08 595.40 269.10 272.85 171.12 610.62 570.57 683.41 368.05 403.50 432.10 561.61 407.24 259.81 666.52 237.49 104.04 413.59 504.20 704.61 271.21 386.20 327.37 439.19 372.01 326.57 345.67 512.38 310.85 442.75 589.67 306.70 305.44 376.94
458.23 138.81 788.86 281.95 847.75 117.72 401.79 318.87 324.05 675.80 880.76 79.19 451.87 550.47 195.08 157.90 764.09 531.42 594.09 664.39 280.97 410.91 234.54 816.29 617.65 669.66 498.84 426.18 577.24 579.92 787.09 896.36 405.67 505.45 564.42 613.37 397.06 870.84 901.40 866.02 311.05 802.03 554.34 878.52 720.26 654.52 889.30 458.30 652.77 714.78 249.58 538.45 578.03 1053.04 794.79 682.78 263.86 722.08 532.58 724.30 897.02 366.60 719.62 965.53 697.09 867.67 615.32 390.15 559.15 902.47 454.62 659.71 320.80 73.41 273.55 302.89 286.44 367.30 891.87 756.75 874.86 147.54 804.64 667.16 941.19 205.18 913.16 585.71 975.19 805.75 402.19 502.84 701.40 858.81 945.99 546.64 688.61 497.07 773.82 456.19 327.91 645.62 146.82 203.80 528.67 623.29 739.14 510.56 803.80 816.72 579.39 680.57 0.00 866.75 354.58 475.86 359.47 666.45 526.39 429.10 569.69 856.01 453.91 856.40 413.41 839.81 77.80 483.23 447.14 658.21 595.37 792.90 447.08 432.44 912.07 599.80 485.16 390.45 223.12 449.15 805.45 451.27 652.36 823.52 647.56 1000.43 830.55 789.53 714.51 472.38 473.41 715.12 516.92 934.21 960.90 956.93 369.70 557.64 374.62 805.29 662.74 274.08 971.20 704.93 434.33 464.72 916.31 831.43 395.19 826.37 776.83 762.04 374.05 558.82 510.33 646.66 489.03 872.73 280.83 673.32 541.42 384.68 820.27 663.16 422.99 725.33 521.27 827.69 891.38 848.69 534.16 368.26 861.59 586.62 281.76 649.08 721.68 373.42 899.32 960.76 647.01
836.19 790.63 92.06 887.32 184.36 827.15 1027.38 745.18 767.44 497.83 432.62 801.73 436.24 783.93 796.46 785.69 426.03 764.88 412.29 822.28 744.86 836.06 794.60 620.60 321.71 272.94 408.87 687.06 951.22 479.76 446.04 736.91 583.34 1108.12 1021.10 955.22 564.41 459.11 517.21 608.31 916.42 451.14 483.06 138.55 849.01 606.91 836.54 635.90 246.58 232.80 633.69 328.30 760.74 902.07 660.78 188.25 874.06 768.94 387.93 646.04 551.42 780.44 233.06 809.77 195.95 191.63 433.52 815.30 307.60 732.35 479.97 480.89 791.02 797.62 655.89 758.49 681.60 750.09 144.65 115.96 695.18 913.28 487.42 278.01 517.91 952.32 501.43 306.43 125.65 863.25 826.06 404.17 534.97 689.26 717.68 365.04 677.91 533.67 141.18 1027.19 736.14 433.97 755.59 778.52 355.74 249.42 223.27 510.88 84.14 81.70 289.38 394.83 866.75 0.00 779.08 441.71 750.08 313.98 1026.47 556.39 318.42 282.32 663.81 577.92 791.81 837.42 927.78 703.89 503.36 609.39 303.42 152.27 541.93 1032.13 766.40 445.10 1081.35 688.11 837.70 1022.36 852.68 644.69 258.76 663.85 750.60 775.53 479.67 775.57 202.43 936.30 1046.62 526.83 420.87 114.24 311.31 796.35 566.79 574.31 533.83 762.47 258.86 693.56 832.07 853.20 1030.52 497.73 473.03 671.98 624.12 252.50 236.87 329.14 945.05 965.40 687.07 272.94 769.97 37.27 883.17 802.07 393.49 682.34 376.99 491.46 703.82 894.81 1047.48 546.49 779.96 582.90 815.10 642.61 252.67 740.50 617.03 695.43 837.58 904.32 580.85 519.19 265.19
745.73 306.47 740.47 186.83 721.84 415.68 266.80 101.76 112.28 466.23 669.65 377.15 492.38 244.14 500.07 298.44 561.53 225.09 453.52 377.37 205.27 87.77 529.61 629.72 540.50 674.72 488.94 161.98 395.55 370.17 620.10 643.11 281.39 353.74 321.05 370.23 342.17 692.33 687.92 660.82 209.67 633.10 411.95 797.37 439.78 437.41 594.76 208.72 698.07 750.28 447.40 610.91 308.80 734.54 547.66 673.96 134.14 429.91 583.19 488.48 645.95 654.39 616.91 696.42 696.35 751.15 432.29 108.53 590.21 649.33 513.46 430.62 33.78 405.15 284.47 214.19 428.34 143.01 798.07 765.78 627.73 268.38 524.43 601.22 754.94 223.45 683.79 646.87 902.85 520.60 115.17 543.35 454.33 605.67 729.68 574.31 410.84 613.35 802.43 266.61 97.52 462.12 350.98 501.76 542.07 686.71 570.15 666.12 804.29 791.37 615.09 476.81 354.58 779.08 0.00 494.26 61.16 707.11 274.96 350.92 571.66 734.01 225.80 562.14 688.82 485.23 304.97 214.35 493.52 419.03 614.85 658.86 291.73 288.60 634.30 422.88 324.11 529.88 192.80 302.86 527.16 233.81 703.29 576.39 373.68 745.96 661.23 502.51 696.18 283.78 292.23 434.91 496.34 873.36 832.34 628.82 212.29 297.33 506.78 518.27 575.67 209.87 681.49 425.95 273.28 566.31 732.59 671.51 506.74 670.99 657.05 626.21 184.47 288.58 659.22 615.13 202.01 796.39 143.55 392.84 449.45 535.65 695.39 453.41 145.22 462.31 340.44 574.12 622.50 590.96 219.86 272.71 733.03 313.59 398.04 395.94 409.20 153.20 624.28 742.22 602.94
531.75 410.66 389.08 517.65 371.89 435.20 661.72 407.56 434.31 338.59 517.20 396.67 133.62 519.12 466.90 381.58 391.72 500.07 233.25 626.60 377.68 537.18 517.77 580.16 141.79 225.71 137.34 435.62 663.42 276.80 415.87 647.69 236.99 773.96 726.94 683.73 152.41 508.96 526.05 577.02 539.15 400.93 222.06 454.28 640.46 462.46 765.93 295.68 259.60 301.27 301.88 187.95 518.48 809.49 584.26 273.97 446.92 590.63 179.60 532.82 499.27 496.34 281.76 759.60 257.66 401.20 215.50 531.53 168.21 613.10 168.78 347.94 466.99 404.19 313.99 395.42 351.81 418.16 448.12 364.76 619.98 584.74 462.09 208.94 579.31 594.15 551.28 211.78 562.60 678.57 548.38 177.55 385.89 606.28 707.42 205.50 527.55 264.41 377.19 661.53 398.52 286.23 329.04 476.77 135.78 244.91 263.28 317.78 376.74 389.66 152.33 293.44 475.86 441.71 494.26 0.00 433.10 285.11 708.17 143.34 143.08 380.15 337.21 552.59 474.84 712.17 541.35 368.95 200.74 496.58 182.07 324.46 204.31 638.97 670.61 217.43 757.32 399.83 544.46 697.78 718.27 266.54 254.28 566.64 567.00 754.24 448.38 639.33 286.04 634.90 698.24 382.84 41.06 530.89 523.87 718.95 282.29 350.96 244.14 661.17 186.88 330.63 749.09 657.34 706.49 218.67 568.73 646.65 334.48 364.12 300.97 344.96 579.39 700.59 389.97 213.86 479.19 453.92 473.03 651.37 65.56 405.60 484.34 306.30 420.05 697.42 717.84 515.70 679.64 571.38 524.32 229.56 427.80 509.07 252.52 499.57 664.27 556.48 553.59 598.88 192.80
684.57 268.81 708.52 178.69 725.17 401.04 277.30 40.60 74.62 405.07 641.65 372.78 431.22 270.69 485.43 294.07 500.37 251.64 414.40 389.62 185.16 121.35 552.58 609.37 491.11 625.33 439.55 141.63 428.12 335.54 558.94 634.51 220.23 398.98 368.01 431.39 305.82 631.17 664.77 622.01 205.53 571.94 362.56 787.44 411.88 376.25 627.57 224.34 648.68 700.89 386.24 559.25 291.71 742.04 514.48 624.57 131.91 400.54 522.03 450.46 584.89 616.73 567.52 685.22 646.96 752.08 425.37 100.59 538.55 599.92 464.49 412.63 94.94 392.72 223.31 164.85 436.17 86.99 800.79 724.27 582.60 271.61 542.48 540.06 701.52 222.06 622.63 597.53 858.11 477.75 160.53 482.19 434.30 556.26 696.50 524.92 377.61 552.19 753.04 277.11 48.13 400.96 346.61 484.60 492.68 637.32 603.70 628.46 754.90 741.98 563.43 415.65 359.47 750.08 61.16 433.10 0.00 655.45 336.12 289.76 537.63 677.18 176.41 597.67 627.66 538.49 299.69 153.19 432.36 377.90 565.46 655.49 242.34 299.10 601.07 414.36 385.27 468.72 209.79 313.36 525.14 184.42 653.90 543.21 315.55 720.12 602.40 510.87 637.80 284.79 330.30 453.72 435.18 823.97 776.74 666.78 183.29 236.17 481.38 502.72 567.83 184.83 687.25 426.56 334.44 505.15 701.89 638.33 534.07 661.38 628.05 586.77 194.97 349.74 614.17 565.74 214.26 747.00 145.96 378.87 400.06 474.49 651.58 405.06 142.68 468.57 385.48 513.06 561.34 570.61 253.44 223.32 694.50 254.61 336.88 346.53 409.81 203.50 636.15 681.06 553.55
656.04 577.07 279.37 784.99 390.06 614.07 917.26 618.63 656.66 513.34 587.30 614.52 251.66 733.92 601.03 539.16 516.10 744.58 408.57 787.53 600.03 737.67 582.62 708.40 225.59 66.45 218.17 667.40 880.60 533.94 526.02 823.59 461.42 991.87 963.26 916.73 383.27 579.94 636.20 687.17 795.07 511.08 500.56 383.73 863.63 612.79 934.88 510.46 100.34 101.01 431.18 128.00 669.26 983.55 746.81 205.49 714.26 773.88 148.18 684.31 628.10 589.74 344.99 918.31 143.44 410.49 387.34 756.04 116.90 802.50 263.99 472.99 720.19 627.73 465.19 602.43 481.11 602.26 397.08 224.30 771.42 753.92 633.61 262.94 650.29 807.70 622.26 80.74 431.06 923.58 781.68 205.32 536.22 758.84 824.33 153.06 670.01 307.42 192.63 921.03 609.59 481.87 581.52 606.07 165.04 112.82 298.92 352.58 245.20 232.28 140.19 497.84 666.45 313.98 707.11 285.11 655.45 0.00 961.37 365.69 147.52 459.82 590.64 680.20 599.13 905.07 720.18 618.65 296.12 653.22 164.53 344.34 447.73 906.31 846.35 430.88 983.29 440.19 718.97 941.05 907.42 519.97 95.02 718.08 766.11 868.77 558.53 808.28 179.81 871.22 963.84 555.64 249.97 397.84 543.75 882.38 513.15 549.13 306.14 830.12 290.66 548.79 901.65 841.33 951.44 296.46 622.85 796.75 374.84 399.76 392.62 421.34 838.89 945.10 507.95 179.35 731.79 320.87 728.95 828.42 322.70 445.96 526.81 515.98 657.95 897.85 979.56 662.37 867.21 697.33 774.61 451.91 458.17 706.36 432.45 721.69 858.08 772.35 682.42 669.86 196.59
944.41 499.11 985.27 323.36 946.26 644.11 276.74 376.72 334.53 593.42 796.32 605.58 759.91 288.13 721.47 537.02 688.72 269.08 654.90 362.65 443.51 244.42 760.93 688.73 814.19 933.88 762.63 366.63 218.91 601.80 749.70 659.13 535.57 186.16 46.09 210.28 595.29 811.30 786.35 710.18 350.62 756.41 607.67 961.18 344.06 499.35 560.87 483.68 967.77 975.46 693.11 854.09 352.79 707.38 591.65 926.57 336.40 427.82 844.81 553.34 708.45 847.03 845.13 690.66 928.04 975.57 676.13 260.35 844.47 653.81 766.58 553.07 241.18 599.80 559.43 421.59 694.90 378.84 947.83 986.07 636.03 439.21 645.10 840.83 859.00 395.27 777.94 899.99 1093.23 451.52 200.41 810.88 575.92 620.57 773.67 848.00 436.89 879.87 1057.38 203.23 371.21 616.06 589.56 727.37 796.33 938.93 845.11 888.02 1024.73 1037.65 860.50 639.13 526.39 1026.47 274.96 708.17 336.12 961.37 0.00 625.50 846.62 865.53 440.28 611.50 893.84 451.34 498.66 400.20 768.48 509.36 888.54 881.69 565.42 226.23 639.77 667.42 229.74 793.32 400.20 137.60 457.28 485.75 962.45 603.38 404.13 740.20 726.81 484.02 917.05 117.39 116.88 573.30 749.23 1056.69 956.25 674.92 465.41 553.96 714.18 464.54 783.07 468.43 622.25 380.30 179.48 804.28 824.12 698.50 781.50 859.14 839.93 786.68 252.21 137.37 933.98 885.67 311.40 1062.46 350.95 329.35 723.14 799.09 817.84 589.25 360.32 369.88 65.48 653.62 569.70 649.97 266.27 542.54 913.18 343.19 664.56 435.11 380.49 258.25 722.71 815.69 876.63
530.39 294.31 520.46 419.30 515.23 367.10 563.37 268.58 290.97 392.50 581.01 349.91 202.67 405.51 361.72 296.58 442.12 386.46 265.42 528.95 234.34 398.20 412.59 607.15 279.23 369.05 244.46 317.96 622.06 285.55 498.52 691.20 140.72 670.03 599.18 585.93 54.75 580.56 561.44 628.60 440.80 513.46 289.39 597.62 556.39 410.04 727.52 152.34 383.81 439.69 196.70 269.49 415.38 799.43 575.53 386.40 348.57 490.59 280.74 520.83 570.69 451.89 379.46 758.36 401.00 544.54 286.65 390.35 248.79 663.11 213.03 364.04 384.70 359.46 217.72 256.26 246.63 278.27 591.46 487.79 647.18 469.00 524.66 352.28 650.91 451.76 603.58 316.50 647.91 645.51 442.21 214.93 427.27 649.89 731.27 254.84 477.04 353.96 498.53 563.18 259.54 325.90 307.11 371.59 258.89 354.33 406.62 402.75 498.08 511.00 273.67 365.04 429.10 556.39 350.92 143.34 289.76 365.69 625.50 0.00 269.34 522.25 239.41 529.92 473.48 646.60 399.26 260.53 245.16 451.04 303.41 466.89 120.24 540.62 679.10 298.23 662.70 314.54 411.13 599.43 640.31 192.26 383.40 604.26 423.66 781.17 541.98 600.92 425.02 544.13 611.68 437.64 184.40 606.93 618.59 693.71 163.35 298.63 293.03 592.77 330.22 187.29 746.38 577.94 611.87 246.65 608.09 649.77 346.24 477.35 443.07 488.30 481.04 586.98 448.45 354.70 381.39 590.62 374.68 553.57 191.72 308.77 520.52 336.83 301.20 613.35 619.49 521.73 668.68 568.39 416.49 86.22 519.28 422.37 147.34 442.88 561.19 458.13 604.95 641.70 336.14
555.24 497.96 325.73 660.73 358.41 513.57 804.80 497.03 535.17 420.55 473.26 501.18 117.82 616.11 489.96 500.58 457.65 597.06 261.05 650.92 464.31 644.04 517.62 605.16 111.48 160.38 116.20 528.56 778.63 395.60 436.62 719.54 380.07 858.03 832.85 789.64 295.49 524.84 550.93 608.72 667.47 436.76 353.04 413.37 738.75 525.93 837.82 362.94 136.59 205.44 320.11 51.32 567.29 895.54 646.98 168.23 590.00 649.07 69.51 602.40 547.49 487.77 256.96 832.98 181.25 387.72 239.82 623.28 30.62 728.79 161.55 413.87 605.44 510.73 363.22 486.23 363.18 508.27 418.85 234.55 658.79 664.99 528.02 193.74 558.55 668.08 541.05 87.76 444.07 804.13 677.32 85.75 477.10 685.13 748.23 88.06 609.51 286.97 268.90 804.61 506.07 352.16 458.38 488.14 63.07 136.16 258.98 273.91 268.45 281.37 44.04 350.32 569.69 318.42 571.66 143.08 537.63 147.52 846.62 269.34 0.00 386.69 443.12 566.09 498.33 778.10 623.14 471.13 184.94 564.88 73.78 256.64 342.08 782.05 754.57 283.36 854.75 380.86 632.69 840.86 798.79 372.45 150.07 648.60 634.26 794.45 480.08 711.22 195.39 740.81 827.59 479.00 102.45 432.66 456.05 797.76 425.37 435.71 227.47 733.06 240.22 401.27 820.97 747.49 803.92 186.66 508.81 701.38 315.51 359.82 333.67 303.51 722.47 797.58 450.10 125.07 585.10 355.69 616.11 691.81 184.36 386.63 412.77 378.19 511.80 781.54 860.92 564.45 736.52 604.56 627.09 355.56 392.89 604.39 298.61 618.37 730.74 699.56 600.03 599.48 118.05
879.65 731.03 210.38 810.15 99.69 815.35 932.42 647.18 706.07 272.11 236.31 776.82 442.23 615.50 813.33 732.31 272.87 596.45 334.73 601.09 697.05 725.84 843.29 374.49 321.98 393.37 395.26 621.47 771.85 363.84 227.86 501.62 513.56 1019.40 848.39 757.88 512.18 227.41 311.87 340.64 818.48 241.05 371.26 169.02 688.92 415.23 663.68 525.29 383.42 396.80 643.48 376.99 560.51 664.39 518.14 254.33 780.88 564.94 437.39 503.00 344.73 829.13 155.89 578.07 322.23 129.00 313.50 725.08 356.29 536.21 485.96 312.46 724.46 784.34 662.53 675.13 693.41 624.83 155.67 279.30 479.80 883.63 402.19 221.72 237.77 869.01 269.73 403.92 301.07 714.64 723.38 431.59 360.80 506.14 478.89 413.73 461.07 567.38 345.08 912.21 656.22 318.06 709.19 818.37 404.43 361.57 166.33 609.50 310.12 297.20 381.17 278.92 856.01 282.32 734.01 380.15 677.18 459.82 865.53 522.25 386.69 0.00 535.07 428.08 822.74 703.56 879.61 575.15 509.35 456.23 356.60 130.05 481.07 951.16 557.14 319.43 1012.58 712.82 815.70 919.68 707.50 530.34 377.49 489.41 524.88 549.11 271.32 609.95 296.78 779.42 905.34 380.22 389.60 264.53 146.96 561.31 523.94 441.01 518.44 631.79 193.27 636.30 613.98 670.52 963.96 527.28 283.16 450.22 647.47 65.49 79.18 107.80 872.15 784.03 770.12 305.31 629.90 264.66 804.01 641.98 402.69 718.59 187.12 327.78 636.28 717.82 931.01 376.25 574.94 397.70 628.21 594.68 47.65 571.39 623.02 512.75 657.28 801.64 362.82 309.77 314.20
716.53 349.30 621.89 327.09 587.97 451.00 439.91 137.32 178.82 262.96 499.54 413.36 437.68 189.27 487.95 334.65 358.26 171.20 288.69 308.50 189.46 233.45 556.88 463.05 411.88 546.10 415.77 117.97 382.65 184.05 418.90 543.71 140.09 538.39 407.29 346.52 226.06 527.90 517.45 513.47 347.05 429.83 186.15 642.96 359.19 316.96 547.20 87.07 569.45 621.66 435.38 494.44 181.27 608.74 405.19 530.08 285.44 325.32 453.33 392.92 466.96 619.15 480.89 570.62 547.68 617.28 299.37 212.69 473.74 519.06 438.34 263.84 218.43 397.02 305.02 211.38 451.64 145.49 649.00 570.47 485.26 351.87 366.07 459.92 584.83 398.47 547.45 530.76 755.53 425.06 268.57 454.34 257.89 475.40 587.21 475.38 306.38 546.00 665.94 439.72 128.28 277.43 387.19 488.90 467.87 550.22 458.10 622.53 655.49 655.30 487.16 312.38 453.91 663.81 225.80 337.21 176.41 590.64 440.28 239.41 443.12 535.07 0.00 456.57 664.32 468.54 379.84 40.08 466.67 335.75 489.12 511.54 163.11 443.51 529.84 268.47 508.76 517.88 280.63 464.87 440.04 70.67 574.12 433.92 245.60 610.83 462.36 433.64 539.41 338.32 464.24 277.31 376.76 738.47 630.37 503.02 160.38 142.07 454.55 427.50 442.12 179.83 555.69 373.87 457.93 462.30 559.78 529.04 558.25 521.05 529.23 440.09 357.58 371.72 663.33 445.39 141.98 667.77 294.15 314.16 320.83 523.65 493.45 233.10 101.21 407.44 465.58 416.52 448.23 445.12 187.11 211.12 580.75 201.92 386.75 265.67 357.12 318.01 462.92 574.20 466.45
1037.93 733.42 531.81 703.35 464.69 807.55 817.12 565.13 618.71 234.26 220.41 777.21 660.21 425.34 891.64 698.50 174.32 431.56 367.97 388.81 637.55 585.67 934.01 77.23 454.61 629.93 615.99 467.45 523.27 276.48 201.54 178.01 464.38 797.66 565.41 534.80 475.17 200.67 174.85 98.68 724.85 192.09 338.25 488.46 351.92 264.02 340.57 437.93 597.21 666.06 724.80 588.77 380.16 329.45 176.27 560.41 632.62 359.56 580.42 153.23 96.95 970.01 390.81 291.45 592.36 435.38 378.70 595.69 570.56 187.26 665.19 251.12 595.92 805.21 632.18 615.63 774.73 516.70 486.45 609.89 117.26 805.74 90.50 511.63 247.50 779.85 166.44 599.46 620.51 400.41 629.68 626.82 198.68 143.60 201.35 606.32 269.68 762.40 688.61 741.35 566.91 292.79 751.04 879.23 597.53 600.82 444.45 784.75 603.03 615.95 561.59 299.52 856.40 577.92 562.14 552.59 597.67 680.20 611.50 529.92 566.09 428.08 456.57 0.00 999.01 315.06 818.47 466.38 633.06 225.79 531.85 469.10 448.67 780.30 188.48 335.16 820.28 840.07 730.16 721.28 356.99 442.98 610.69 147.54 282.12 284.56 158.08 278.19 566.58 622.05 706.85 180.02 555.34 582.77 410.50 254.19 534.54 375.85 705.05 299.63 409.04 619.44 254.88 388.16 769.45 705.85 227.81 153.91 819.25 417.39 397.90 325.34 745.24 558.61 942.56 538.11 453.79 589.74 658.73 398.86 487.03 838.69 272.40 279.07 484.21 405.54 676.98 103.14 228.42 38.47 475.43 557.67 390.68 343.06 677.26 280.48 388.35 665.58 111.21 204.19 517.05
56.91 394.73 806.16 643.34 846.73 314.21 794.96 596.42 588.92 791.22 962.27 334.22 380.51 808.63 229.82 412.93 824.69 789.58 708.09 907.89 547.20 744.12 218.73 1026.70 586.86 608.63 427.48 649.62 963.74 740.34 890.71 1069.11 603.04 901.34 912.45 976.82 528.23 983.80 1000.89 1051.86 672.44 875.77 696.90 893.80 956.64 836.59 1100.51 578.89 629.93 663.33 323.47 517.18 827.89 1240.10 930.59 648.66 666.14 935.20 479.51 946.45 974.11 46.81 743.25 1165.92 652.46 876.04 690.34 728.25 511.05 1059.05 418.12 820.13 717.50 362.22 404.35 543.30 275.65 644.85 907.15 675.85 1010.66 540.71 928.55 659.32 1047.56 601.07 1026.12 560.37 917.46 1034.01 764.75 431.48 848.61 1015.39 1112.61 453.61 921.11 338.47 737.94 792.36 605.46 761.07 397.54 247.76 471.51 602.02 738.12 375.33 760.34 753.30 535.93 768.28 413.41 791.81 688.82 474.84 627.66 599.13 893.84 473.48 498.33 822.74 664.32 999.01 0.00 1068.07 491.21 687.08 385.99 873.89 553.39 754.97 593.72 781.58 1102.90 692.27 884.33 158.94 596.46 842.32 1038.81 618.81 616.45 959.32 850.21 1136.23 923.22 1033.03 643.25 820.41 839.09 857.68 502.09 892.29 954.38 1139.33 548.99 725.18 365.19 1019.57 661.72 484.49 1158.20 981.38 833.50 382.93 1007.14 1054.44 224.29 797.58 760.41 801.84 742.53 906.85 199.14 604.68 732.53 815.32 646.39 909.70 540.40 164.71 911.10 781.14 665.75 1006.66 914.44 948.28 1060.01 1024.70 777.66 490.67 870.39 810.87 326.14 869.43 966.07 754.73 1028.43 1046.38 599.60
1123.72 721.63 773.34 649.48 676.48 860.11 692.17 525.76 597.51 431.45 525.71 822.47 807.24 314.50 915.95 743.76 489.38 333.55 527.55 217.00 598.57 496.68 965.99 331.73 705.32 872.41 760.27 418.45 310.39 483.40 481.39 244.97 555.81 599.02 430.10 343.71 641.78 515.73 477.13 385.67 665.60 496.33 517.22 758.87 175.34 310.16 109.53 494.26 862.89 910.61 843.30 812.59 308.76 256.04 256.88 785.06 606.81 177.13 832.82 269.28 402.25 1026.34 673.37 278.99 852.96 705.79 538.28 499.56 808.72 239.86 814.33 432.08 519.01 806.13 705.23 620.49 855.39 479.03 752.71 821.81 226.42 753.61 350.00 749.54 551.34 690.73 475.04 834.74 844.66 95.74 536.18 816.41 368.85 230.98 373.56 845.64 242.49 969.32 924.12 608.32 521.37 425.94 785.00 898.01 779.85 851.53 683.23 951.94 886.91 873.99 804.07 465.08 839.81 837.42 485.23 712.17 538.49 905.07 451.34 646.60 778.10 703.56 468.54 315.06 1068.07 0.00 772.93 428.46 829.77 273.05 774.33 707.64 588.23 637.22 227.43 494.74 642.60 950.64 678.03 582.32 41.93 508.73 864.12 279.76 222.94 328.53 473.14 96.79 827.51 387.42 558.06 386.39 715.41 853.06 707.49 263.25 580.55 465.00 814.67 74.95 675.43 583.58 210.58 156.34 620.66 865.46 533.11 304.96 955.57 696.92 688.21 598.94 615.50 382.03 1077.51 788.82 392.36 841.45 616.21 202.15 646.61 955.37 575.59 429.82 423.34 159.42 516.82 373.00 139.04 347.07 364.59 603.85 666.33 283.88 793.94 260.63 173.09 528.76 415.05 500.19 767.76
521.98 188.68 864.72 204.15 881.37 191.14 323.99 260.60 246.25 635.67 872.25 156.99 512.18 474.12 272.88 181.02 730.97 455.07 617.21 594.49 287.45 333.11 312.34 834.09 678.49 740.53 559.15 366.35 607.73 554.35 796.34 859.26 440.23 427.65 491.30 636.87 446.93 838.21 884.77 862.12 233.25 802.54 563.59 956.32 673.37 596.25 811.50 427.77 718.08 786.93 309.89 616.25 512.55 979.64 729.31 746.53 186.06 656.60 592.89 665.29 832.76 444.40 723.72 900.05 731.83 910.68 628.80 312.35 636.95 824.67 509.52 634.14 271.19 137.16 323.42 284.31 259.96 301.82 957.60 827.62 807.35 69.74 745.91 730.91 908.56 127.38 856.34 663.51 1047.17 741.40 352.58 537.39 637.73 781.01 911.33 589.65 615.21 546.41 851.62 393.59 251.56 626.34 212.31 271.03 606.47 694.16 777.36 570.87 881.60 884.97 657.19 665.48 77.80 927.78 304.97 541.35 299.69 720.18 498.66 399.26 623.14 879.61 379.84 818.47 491.21 772.93 0.00 417.75 477.39 592.73 673.17 836.09 445.77 354.64 838.67 634.36 407.36 376.67 145.32 371.35 732.05 387.85 730.16 758.04 579.20 934.95 807.10 719.63 768.20 464.40 395.61 657.15 582.41 1006.19 997.24 882.86 428.85 494.22 434.93 736.54 690.45 350.49 901.30 668.04 356.53 525.03 932.49 853.16 442.02 830.47 800.43 805.53 318.53 550.84 522.12 724.46 419.13 929.44 203.03 626.43 590.98 382.44 870.14 612.94 349.59 692.29 443.47 771.11 825.90 795.33 463.59 391.38 897.93 518.26 349.28 571.28 673.46 295.62 842.76 905.25 724.81
737.65 389.38 632.26 327.28 586.72 491.08 430.49 164.36 218.90 303.04 536.70 453.44 463.20 150.17 528.03 374.73 395.42 131.12 300.03 268.42 229.54 254.28 596.96 491.29 450.93 585.15 455.85 105.28 373.01 224.13 458.98 503.63 180.17 542.17 386.96 349.70 266.14 541.22 534.40 497.75 348.78 466.99 226.23 641.71 319.11 276.88 520.16 108.19 604.13 653.07 457.23 522.45 161.67 637.51 365.11 557.54 256.55 290.51 493.41 352.84 490.24 640.27 491.26 574.19 527.84 605.34 310.76 233.52 501.75 478.98 473.56 269.84 248.13 437.10 322.10 251.46 491.72 115.93 655.06 610.12 445.18 391.95 406.15 500.00 587.81 375.25 572.17 558.89 773.76 384.98 228.49 475.46 297.97 435.32 547.13 515.37 277.27 586.08 657.18 430.30 166.19 317.51 427.27 528.98 504.73 590.30 498.18 662.61 669.86 682.78 515.17 333.24 483.23 703.89 214.35 368.95 153.19 618.65 400.20 260.53 471.13 575.15 40.08 466.38 687.08 428.46 417.75 0.00 505.69 317.88 528.17 551.62 202.16 440.64 496.54 267.22 498.59 557.96 320.71 424.79 428.50 102.41 590.65 393.84 205.52 570.75 456.73 393.56 564.21 317.99 443.91 317.39 410.01 737.22 653.65 543.10 177.46 153.76 493.60 392.69 453.46 219.91 547.97 333.79 464.57 502.38 571.81 488.96 598.33 521.16 539.56 480.17 348.16 331.64 679.65 485.47 121.65 706.82 282.66 305.76 353.61 563.73 533.53 256.38 122.04 368.34 445.25 419.47 408.15 485.20 166.78 242.86 611.50 161.84 407.87 225.59 317.04 287.65 503.00 597.48 506.53
442.90 343.79 510.47 537.26 523.42 376.19 661.12 433.46 434.83 510.59 602.09 404.15 67.12 640.38 367.41 371.10 566.46 621.33 393.82 710.90 355.85 553.71 391.32 679.27 226.68 291.16 114.09 481.37 708.97 451.54 590.61 792.05 326.58 798.40 771.02 745.10 277.33 666.73 694.84 710.58 558.76 575.67 422.45 577.66 759.66 603.22 876.27 397.50 316.54 365.48 197.56 218.18 580.50 957.21 709.99 352.97 466.53 706.88 179.61 645.97 639.06 373.91 441.90 869.50 347.47 552.73 372.59 532.95 215.36 799.75 32.13 470.24 527.30 394.11 209.05 377.77 247.49 480.12 591.01 416.33 750.32 510.82 542.56 326.94 687.38 579.71 698.84 252.70 594.33 778.71 592.89 118.09 533.47 756.09 822.34 162.84 620.82 180.10 439.61 681.14 442.50 460.97 347.90 372.45 167.22 296.35 424.84 217.48 452.83 439.91 228.98 478.74 447.14 503.36 493.52 200.74 432.36 296.12 768.48 245.16 184.94 509.35 466.67 633.06 385.99 829.77 477.39 505.69 0.00 573.41 240.00 441.58 349.28 658.58 821.54 392.17 784.46 227.05 529.99 717.39 787.84 414.33 303.06 714.35 646.82 895.43 617.17 749.67 329.86 717.15 729.64 552.89 200.70 553.35 588.50 851.49 333.30 464.13 72.52 771.51 350.63 316.24 886.89 726.91 733.63 72.79 668.16 727.12 197.22 484.19 464.72 466.27 599.00 782.10 331.88 291.29 564.28 476.38 492.64 736.20 240.30 221.28 597.71 487.00 490.96 783.43 737.45 601.63 835.23 667.86 609.41 317.99 557.00 617.60 234.62 569.14 743.66 576.09 693.38 736.39 289.12
924.33 560.23 541.32 537.29 555.92 694.08 640.56 339.34 415.67 184.12 371.73 661.07 574.93 259.33 722.72 582.36 254.90 240.28 332.37 233.57 437.17 405.40 759.56 280.23 510.14 641.41 588.88 257.05 341.83 235.33 296.41 275.10 365.59 673.43 490.48 345.83 444.58 370.46 321.89 269.39 558.98 308.53 274.52 576.17 239.62 41.00 302.86 298.70 626.32 675.26 641.31 603.83 225.31 413.07 136.58 569.92 484.33 186.54 619.60 72.56 298.01 830.78 400.32 307.32 601.87 585.23 325.06 384.64 595.50 259.90 541.28 180.23 413.36 644.73 542.37 457.89 691.24 290.91 562.82 619.40 216.65 587.39 215.06 499.02 379.80 592.80 351.34 634.76 683.62 279.07 414.32 625.90 117.57 221.38 318.60 645.50 82.67 721.25 676.79 616.76 341.17 243.22 618.11 704.78 584.67 640.98 432.71 737.87 668.57 655.65 593.17 214.56 658.21 609.39 419.03 496.58 377.90 653.22 509.36 451.04 564.88 456.23 335.75 225.79 873.89 273.05 592.73 317.88 573.41 0.00 563.43 457.12 368.35 637.63 306.13 299.56 661.79 765.58 511.81 597.83 275.40 338.62 612.84 165.31 152.19 342.22 324.71 176.26 576.09 430.77 573.57 136.99 492.60 671.68 533.79 345.32 400.68 242.88 621.28 198.10 437.75 419.71 364.19 244.94 610.96 646.20 408.59 260.43 762.18 476.23 415.16 378.25 558.23 384.66 871.83 536.15 286.59 641.36 492.86 192.68 446.57 759.81 390.61 223.22 273.81 289.64 564.79 226.18 261.82 264.26 309.42 383.22 503.88 188.21 598.38 96.29 228.19 492.58 258.25 385.41 557.21
576.55 533.90 276.98 699.72 328.97 561.18 828.96 526.37 573.10 422.55 452.65 548.49 172.88 667.89 493.04 511.13 401.50 654.10 292.95 639.18 522.52 655.99 541.62 603.60 77.24 98.08 125.91 578.42 814.57 411.65 457.92 709.86 367.42 904.39 894.17 833.22 315.62 456.77 541.23 618.86 721.22 450.08 361.91 375.55 727.01 522.43 834.05 419.98 131.97 136.28 375.17 56.92 603.23 861.30 624.47 119.48 628.99 707.81 101.77 593.95 538.91 523.71 245.54 807.43 107.47 358.28 271.72 666.05 54.62 712.14 208.83 410.10 648.63 565.79 399.16 544.44 425.10 556.96 388.90 214.57 649.11 700.93 524.25 134.88 527.12 741.86 499.09 89.08 419.36 799.65 700.00 159.53 445.86 668.48 717.12 112.06 607.12 297.62 227.90 828.77 517.33 348.39 495.95 475.10 99.01 83.59 216.36 252.90 254.15 267.07 29.74 382.22 595.37 303.42 614.85 182.07 565.46 164.53 888.54 303.41 73.78 356.60 489.12 531.85 553.39 774.33 673.17 528.17 240.00 563.43 0.00 248.59 326.01 821.04 720.33 279.59 894.30 424.26 641.47 865.02 806.59 446.23 126.65 627.72 675.32 778.47 497.53 707.45 143.84 804.59 880.31 465.28 148.37 378.38 448.00 786.04 437.58 481.63 259.73 729.29 194.97 459.48 786.73 735.75 874.91 250.16 506.37 685.76 389.29 307.38 277.42 316.83 746.63 852.73 429.09 51.29 631.10 319.05 655.10 680.07 200.41 430.03 444.25 374.42 561.66 777.03 891.56 582.25 753.89 570.32 676.23 389.63 384.84 640.33 353.67 629.68 719.00 738.55 554.35 546.69 57.09
809.32 670.39 127.24 766.63 101.77 759.66 878.07 625.20 669.72 345.56 280.35 721.13 374.46 631.66 741.63 690.75 328.87 612.61 283.07 674.30 607.51 731.26 774.26 469.39 226.00 277.89 366.68 623.00 798.95 327.49 313.81 596.52 445.57 982.54 888.43 802.95 412.14 344.99 392.02 456.04 795.73 298.87 360.66 175.56 696.74 459.27 759.98 488.94 288.34 332.14 576.75 305.51 625.33 750.91 542.56 190.61 771.38 629.51 326.15 529.68 403.81 738.25 112.37 688.45 256.37 131.08 304.30 724.23 287.26 580.65 418.19 328.62 688.11 719.49 566.55 629.43 619.82 597.82 162.21 245.42 563.33 844.00 460.01 125.74 365.64 843.96 377.10 288.53 243.99 736.19 769.50 342.39 382.70 536.99 565.41 344.70 525.64 543.61 293.45 875.86 630.28 281.70 653.50 723.69 313.55 231.52 88.71 501.49 236.41 233.97 278.33 242.56 792.90 152.27 658.86 324.46 655.49 344.34 881.69 466.89 256.64 130.05 511.54 469.10 754.97 707.64 836.09 551.62 441.58 457.12 248.59 0.00 437.55 899.87 624.50 315.88 978.44 637.50 792.17 890.13 732.52 493.99 286.74 513.83 598.33 653.84 327.40 633.38 220.00 803.10 914.39 374.56 293.62 266.51 199.41 670.17 472.20 422.04 484.11 655.22 198.69 593.68 679.80 702.06 927.61 443.30 346.42 546.07 572.15 119.32 84.60 186.33 795.74 813.13 677.68 197.30 646.06 189.54 757.82 649.80 310.23 643.27 252.53 339.19 612.75 742.54 896.50 436.82 628.76 430.63 681.75 492.61 136.25 588.23 555.25 550.26 685.31 812.06 455.66 402.77 218.22
650.63 336.29 466.18 421.03 482.83 461.84 505.84 203.25 279.58 281.19 463.16 423.42 289.66 347.14 443.41 344.71 321.88 328.09 196.02 470.58 263.49 332.87 510.69 498.04 248.77 382.99 267.75 252.41 534.73 172.19 408.39 591.44 41.41 578.38 568.16 509.63 78.04 497.09 505.59 541.11 426.20 393.45 190.08 565.22 436.15 327.35 671.21 93.97 406.34 458.55 316.94 351.53 323.39 742.16 492.84 382.23 357.17 450.28 354.65 428.21 472.82 572.13 325.18 672.37 404.62 512.14 183.03 342.93 330.83 579.81 317.15 251.98 325.51 407.86 219.82 271.67 366.87 242.10 559.06 490.92 550.41 445.87 412.60 349.03 548.45 464.40 539.41 382.74 622.61 552.74 376.88 294.92 315.21 537.83 629.06 347.18 377.73 458.81 510.70 505.65 194.21 277.65 369.24 455.91 304.76 394.98 378.82 489.74 512.56 499.64 355.71 293.53 447.08 541.93 291.73 204.31 242.34 447.73 565.42 120.24 342.08 481.07 163.11 448.67 593.72 588.23 445.77 202.16 349.28 368.35 326.01 437.55 0.00 527.64 601.19 221.94 604.33 434.78 401.32 541.90 580.75 133.89 411.56 497.07 365.29 697.99 440.90 544.61 404.45 478.58 558.84 327.94 239.63 581.63 580.73 666.13 111.57 227.65 291.44 552.46 349.45 235.42 680.64 472.39 553.50 363.62 529.23 529.99 430.90 431.93 401.89 389.03 423.51 528.61 554.28 323.40 305.09 504.66 360.08 477.27 157.72 429.01 451.12 238.96 235.65 493.11 597.18 432.16 582.86 487.14 350.22 134.35 483.77 360.49 267.58 384.51 472.58 439.17 491.59 580.06 311.21
832.15 393.05 945.75 150.49 962.40 485.89 83.69 339.70 264.69 682.52 881.15 447.36 725.70 393.23 570.28 368.65 739.87 412.28 707.03 546.90 375.23 259.29 610.16 827.20 776.41 864.68 724.85 380.58 357.02 587.32 826.38 827.18 519.33 155.51 226.67 393.15 563.84 886.65 879.83 839.71 179.59 811.44 625.33 1044.79 519.34 641.81 712.50 476.59 898.57 940.24 590.44 810.11 457.61 893.26 699.25 909.87 192.05 565.93 818.57 627.07 826.71 734.77 804.75 854.07 896.63 991.71 700.16 276.90 789.41 792.59 690.71 660.47 279.07 475.36 522.41 371.19 540.51 365.15 1038.63 1003.73 779.32 311.67 739.49 839.16 947.94 227.82 913.05 850.75 1143.86 589.63 231.25 755.55 631.31 772.28 881.27 795.46 579.69 764.29 1016.16 38.95 333.43 692.03 421.19 571.97 774.75 883.88 858.39 811.04 1015.71 1027.28 791.30 714.75 432.44 1032.13 288.60 638.97 299.10 906.31 226.23 540.62 782.05 951.16 443.51 780.30 781.58 637.22 354.64 440.64 658.58 637.63 821.04 899.87 527.64 0.00 801.44 674.22 125.88 657.22 254.04 110.80 605.34 469.72 893.25 727.98 536.45 903.61 802.16 660.84 925.01 259.85 109.35 650.73 680.03 1109.27 1054.19 867.15 465.34 535.27 696.57 641.36 808.78 398.59 818.63 525.41 75.05 731.37 947.22 823.10 713.59 911.50 881.46 843.36 104.13 332.49 802.67 851.04 403.21 1032.30 218.16 506.17 685.36 662.99 920.58 670.56 387.41 507.99 176.70 754.88 730.00 788.44 380.29 499.66 979.80 485.65 548.98 577.57 542.16 152.99 840.10 933.95 831.77
1156.22 777.83 714.75 727.14 645.43 902.09 781.35 593.20 665.35 365.77 405.35 863.56 786.46 438.88 986.48 784.85 362.80 434.96 535.41 335.80 684.90 589.07 1045.18 182.65 643.09 818.41 780.63 504.78 454.75 453.15 386.13 55.52 559.78 743.20 608.22 437.37 645.75 357.70 328.05 219.15 756.24 375.30 473.96 664.70 295.71 306.38 152.09 526.76 785.69 798.71 850.98 777.25 383.56 140.97 172.31 743.35 702.14 245.84 768.90 244.49 281.89 1058.84 573.75 133.31 747.61 623.86 547.41 600.56 759.04 57.51 811.47 373.36 637.30 891.56 765.21 669.23 900.91 544.77 674.93 791.64 111.95 829.31 278.98 651.69 387.25 804.47 346.99 787.94 796.75 290.15 633.08 801.96 310.13 87.51 146.13 794.80 223.46 935.02 849.11 776.28 587.11 436.35 837.39 984.34 785.89 789.30 604.34 966.78 791.51 804.43 750.07 450.27 912.07 766.40 634.30 670.61 601.07 846.35 639.77 679.10 754.57 557.14 529.84 188.48 1102.90 227.43 838.67 496.54 821.54 306.13 720.33 624.50 601.19 801.44 0.00 503.87 786.78 993.64 753.73 726.68 236.34 566.68 799.17 154.17 330.83 136.91 342.67 222.31 737.98 563.35 702.42 329.55 697.17 760.21 563.70 65.71 628.74 486.39 795.64 200.47 597.52 669.91 86.18 276.03 765.02 871.51 389.90 109.57 936.54 569.52 583.40 492.31 699.02 502.40 1058.48 726.59 469.07 765.98 717.62 323.74 628.23 987.87 412.87 409.79 489.08 310.40 682.53 277.20 88.39 221.41 479.21 668.84 575.27 346.46 826.44 275.14 259.28 648.45 283.66 348.58 705.53
749.18 506.91 365.04 593.05 319.50 586.24 685.85 373.76 447.29 142.96 315.57 547.71 325.05 405.75 597.14 469.00 174.29 398.34 32.81 454.64 413.78 485.34 621.51 376.39 210.58 377.67 328.64 369.86 592.60 144.09 247.66 453.21 194.13 731.10 641.62 605.28 278.85 323.46 325.82 405.28 596.71 245.86 82.32 374.49 532.60 258.56 554.46 214.16 368.15 415.87 489.42 322.31 381.26 620.12 372.79 290.32 523.77 428.22 338.08 335.19 328.69 689.06 224.04 571.60 358.22 348.81 43.54 464.58 313.98 460.02 368.78 130.51 456.66 560.58 399.56 391.86 454.24 378.08 387.84 342.90 424.35 597.09 244.66 270.59 377.62 627.46 365.78 355.43 506.54 538.83 495.71 343.68 193.74 416.36 506.93 360.00 327.53 481.84 446.00 685.66 382.80 68.80 521.54 579.20 285.11 356.79 277.68 478.12 402.64 415.56 309.33 107.94 599.80 445.10 422.88 217.43 414.36 430.88 667.42 298.23 283.36 319.43 268.47 335.16 692.27 494.74 634.36 267.22 392.17 299.56 279.59 315.88 221.94 674.22 503.87 0.00 724.52 570.95 521.51 677.23 527.00 254.08 381.63 371.01 395.73 554.60 291.12 427.86 332.77 574.93 700.85 195.64 233.78 470.00 443.59 514.40 264.29 233.59 372.93 449.70 186.24 391.06 559.17 512.11 673.69 410.10 381.64 429.22 513.83 253.94 272.34 249.54 603.52 573.14 607.40 294.08 388.87 447.42 530.59 492.24 151.87 576.72 287.91 94.83 353.10 498.18 712.47 303.73 494.14 363.04 423.72 306.50 344.28 375.33 445.57 354.34 520.56 554.87 383.01 406.08 273.02
913.52 518.93 1034.42 266.86 1044.02 588.64 188.58 404.69 390.57 740.47 916.12 550.11 783.79 424.42 673.03 494.53 797.82 421.51 755.16 515.61 472.18 317.24 719.70 846.81 853.10 983.03 768.39 410.12 361.10 650.95 830.33 822.36 580.55 43.58 258.83 397.23 638.47 947.33 929.81 865.51 237.76 815.39 694.91 1099.01 529.60 648.30 707.83 510.36 991.34 1024.61 680.35 890.36 461.69 893.31 744.08 984.37 317.93 570.01 879.66 700.52 892.42 837.52 918.64 880.35 1001.77 1053.21 733.93 334.85 869.66 796.67 815.73 705.50 290.33 544.52 608.58 450.74 666.39 427.99 1104.28 1052.67 761.61 404.57 770.90 900.38 993.84 341.66 957.24 931.55 1207.00 546.86 289.20 824.53 700.80 785.97 926.10 853.76 615.14 890.17 1115.03 112.40 413.73 711.39 547.07 674.72 821.52 948.73 894.26 917.17 1116.89 1103.97 894.54 750.53 485.16 1081.35 324.11 757.32 385.27 983.29 229.74 662.70 854.75 1012.58 508.76 820.28 884.33 642.60 407.36 498.59 784.46 661.79 894.30 978.44 604.33 125.88 786.78 724.52 0.00 780.24 370.41 102.96 600.67 550.02 1003.95 765.84 553.08 923.69 862.84 640.75 966.20 303.79 113.43 681.38 798.38 1176.66 1108.68 852.49 514.56 621.44 763.33 632.05 832.22 503.96 843.35 510.75 50.83 786.92 982.19 860.96 788.22 977.82 946.31 906.99 194.54 332.35 914.15 927.73 435.69 1108.99 292.79 510.25 762.05 774.47 924.53 734.19 426.88 512.07 175.08 820.59 734.08 829.27 390.56 588.92 1034.67 492.14 674.86 584.06 527.50 210.94 870.75 935.01 915.54
215.85 294.21 657.36 542.47 709.35 272.73 673.96 469.82 488.40 664.52 807.03 311.26 294.17 679.09 233.33 288.57 665.75 660.04 579.96 778.61 408.10 590.07 175.81 867.85 453.73 454.00 341.14 544.08 873.85 600.09 752.26 951.52 450.84 804.32 813.66 837.72 369.29 840.96 848.74 899.71 553.57 737.32 599.51 771.28 840.02 724.58 941.57 466.88 475.14 523.81 166.64 411.78 699.15 1113.97 870.16 499.86 513.56 805.13 364.21 797.98 853.84 162.90 604.30 1043.78 493.52 738.66 585.79 569.31 411.48 955.95 259.18 678.58 563.66 326.71 245.41 390.02 116.71 518.25 781.37 600.62 890.77 446.41 769.61 553.99 892.32 504.05 883.28 459.04 797.72 905.89 629.25 324.90 689.67 912.29 974.61 357.33 778.43 182.46 581.93 696.17 478.86 639.75 263.89 223.30 382.99 496.62 629.79 258.99 611.86 624.78 424.90 660.75 390.45 688.11 529.88 399.83 468.72 440.19 793.32 314.54 380.86 712.82 517.88 840.07 158.94 950.64 376.67 557.96 227.05 765.58 424.26 637.50 434.78 657.22 993.64 570.95 780.24 0.00 472.47 722.19 909.78 488.12 482.57 871.53 738.20 1058.07 771.07 897.53 520.07 748.82 724.45 709.09 414.26 773.14 815.55 1008.25 390.05 590.90 206.25 875.69 577.68 388.52 1055.10 854.70 729.41 223.99 857.33 901.40 65.35 691.00 633.64 684.37 620.74 818.46 145.45 475.55 626.99 703.43 487.45 804.16 465.39 5.77 793.63 646.63 527.32 890.02 784.48 800.40 966.11 876.82 671.99 391.15 760.47 682.75 167.20 757.42 837.95 623.12 898.26 887.44 470.52
619.06 205.23 851.60 103.55 841.01 288.22 272.42 211.50 135.17 543.59 780.17 262.24 588.33 394.86 372.61 243.14 638.89 375.81 550.40 472.63 196.59 244.59 436.09 743.68 650.09 731.83 597.12 286.04 508.34 464.68 699.53 768.35 385.44 394.10 378.72 491.55 407.41 808.53 798.08 781.20 132.65 710.46 466.78 896.00 560.46 547.15 724.37 307.35 733.46 777.75 400.16 619.14 425.01 889.37 648.39 739.68 97.54 562.59 643.87 584.37 747.59 549.65 710.60 819.13 748.94 870.32 530.92 223.83 602.07 739.26 562.12 544.47 159.02 234.24 320.94 174.67 355.76 220.90 909.35 837.44 721.94 75.58 646.70 675.95 865.46 151.12 807.24 666.40 963.35 643.10 240.41 621.43 538.52 695.60 824.90 650.90 530.27 622.85 836.59 272.23 220.54 558.06 247.77 368.11 621.09 703.98 738.73 641.10 836.14 849.06 611.73 593.01 223.12 837.70 192.80 544.46 209.79 718.97 400.20 411.13 632.69 815.70 280.63 730.16 596.46 678.03 145.32 320.71 529.99 511.81 641.47 792.17 401.32 254.04 753.73 521.51 370.41 472.47 0.00 308.48 659.05 347.27 733.05 677.12 480.90 851.36 742.99 597.77 763.08 365.01 310.03 557.94 585.52 951.94 911.00 783.65 335.82 417.99 523.15 614.68 653.34 259.63 809.42 569.20 329.09 537.09 840.41 772.24 537.82 774.81 765.24 720.72 190.09 451.45 617.92 692.76 327.25 874.97 103.64 513.52 509.05 478.24 774.08 513.73 276.59 606.35 368.46 676.74 728.86 715.02 358.01 324.91 831.66 419.96 407.54 485.87 552.45 207.10 743.55 854.83 698.56
866.98 466.19 1008.08 230.74 967.33 536.14 155.70 353.96 318.05 647.57 830.56 510.16 744.58 351.48 612.50 437.83 704.92 370.53 710.04 461.97 414.13 234.60 662.54 767.24 790.67 892.14 739.11 383.60 271.93 620.22 727.37 742.09 533.59 133.27 155.87 308.06 580.42 844.37 826.85 776.34 216.80 712.43 639.59 1032.26 443.28 565.78 649.94 511.58 914.47 963.41 659.39 844.27 372.52 838.36 659.96 924.13 250.86 480.84 835.39 628.79 818.23 795.51 867.08 810.95 946.52 996.64 720.77 255.36 840.38 707.50 749.52 654.52 275.99 482.16 536.67 410.19 609.69 397.95 1043.56 979.23 723.14 301.61 712.94 853.42 890.88 300.92 868.07 885.12 1129.29 504.54 196.30 795.25 642.35 696.80 841.98 824.48 532.62 847.28 1037.54 71.85 347.69 608.43 490.37 594.56 792.24 845.77 865.72 869.81 1054.46 1041.54 850.11 647.57 449.15 1022.36 302.86 697.78 313.36 941.05 137.60 599.43 840.86 919.68 464.87 721.28 842.32 582.32 371.35 424.79 717.39 597.83 865.02 890.13 541.90 110.80 726.68 677.23 102.96 722.19 308.48 0.00 546.32 483.98 900.99 676.67 470.56 848.64 759.88 575.75 939.19 200.83 24.26 636.65 738.84 1088.31 1019.24 784.92 496.65 549.53 736.23 556.27 811.80 450.58 754.18 479.42 79.46 790.18 896.63 771.79 730.17 916.67 874.86 818.69 118.39 252.25 856.10 865.30 346.52 1046.56 234.74 421.08 699.62 716.42 821.57 673.33 366.84 422.90 72.12 769.14 644.91 740.10 301.39 522.88 954.66 409.62 639.80 501.54 479.71 168.70 814.33 907.11 853.11
1095.72 702.40 788.60 614.66 718.41 824.37 650.24 486.58 558.73 435.39 536.22 798.85 789.54 331.49 896.72 724.53 482.49 350.54 559.81 210.98 579.34 472.86 946.76 349.70 737.58 886.10 762.62 399.22 286.03 441.47 496.65 286.90 580.13 557.09 411.19 301.78 615.18 530.08 452.18 411.50 623.67 511.59 503.24 774.95 144.60 316.40 107.16 506.03 879.95 928.89 827.30 839.89 266.83 297.97 272.14 817.32 583.92 149.72 841.21 271.63 412.76 1038.11 675.72 318.85 877.27 721.87 570.54 457.63 819.19 261.71 816.68 434.43 518.78 786.90 664.37 597.21 826.13 438.15 772.94 837.07 244.39 717.75 365.26 774.42 557.21 691.99 494.08 875.00 886.59 53.81 514.10 818.76 371.20 218.05 382.47 823.70 246.43 927.39 928.06 566.39 480.49 467.87 777.07 878.78 771.05 883.79 695.39 924.53 928.84 915.92 818.64 489.96 805.45 852.68 527.16 718.27 525.14 907.42 457.28 640.31 798.79 707.50 440.04 356.99 1038.81 41.93 732.05 428.50 787.84 275.40 806.59 732.52 580.75 605.34 236.34 527.00 600.67 909.78 659.05 546.32 0.00 466.80 866.47 288.11 234.71 356.65 495.53 99.14 851.49 345.49 533.70 373.38 734.62 870.46 687.83 278.67 564.87 470.26 818.61 90.21 679.72 554.32 250.44 114.41 596.30 850.91 538.88 309.51 918.67 699.27 690.56 601.29 573.57 351.29 1055.23 802.17 377.64 876.23 583.49 186.09 652.71 915.55 535.79 432.17 382.46 135.06 522.76 388.26 180.97 366.11 340.77 600.40 708.26 276.95 777.94 218.70 131.16 486.83 454.41 515.45 800.02
669.38 312.46 581.33 352.07 573.58 448.34 447.92 145.33 221.66 275.27 511.85 422.36 394.93 252.58 479.95 350.37 370.57 233.53 277.42 370.83 231.03 274.95 516.79 498.44 382.66 492.25 393.69 169.08 453.32 166.50 429.14 548.38 118.01 546.78 460.40 417.19 203.98 501.37 499.90 492.21 368.28 442.14 228.27 622.09 399.80 297.62 573.96 39.92 509.04 567.81 388.96 423.77 251.94 679.41 438.00 500.87 281.34 388.46 431.25 365.82 455.09 572.00 440.33 641.29 524.20 569.01 263.49 264.99 403.07 552.31 382.20 246.29 267.59 394.36 242.71 217.62 438.89 151.62 617.48 588.06 491.93 377.45 406.91 437.84 571.72 406.48 541.43 460.21 737.98 465.67 318.96 407.19 309.52 508.65 553.24 447.10 362.94 530.95 641.35 447.73 136.29 271.16 375.34 462.01 402.32 508.61 493.97 578.79 631.08 618.16 416.49 285.85 451.27 644.69 233.81 266.54 184.42 519.97 485.75 192.26 372.45 530.34 70.67 442.98 618.81 508.73 387.85 102.41 414.33 338.62 446.23 493.99 133.89 469.72 566.68 254.08 550.02 488.12 347.27 483.98 466.80 0.00 520.82 438.59 303.47 643.64 472.60 495.97 535.58 368.36 500.92 322.25 307.60 715.52 609.39 573.69 98.07 106.37 398.51 490.64 387.15 213.06 626.36 414.48 499.19 438.91 548.26 533.71 538.50 503.50 497.81 422.54 365.59 434.05 629.06 457.29 212.65 638.55 302.16 384.83 251.20 493.89 511.06 231.70 153.51 456.49 529.50 383.26 510.56 459.68 257.78 140.45 510.08 242.53 339.60 311.26 397.73 381.25 485.90 562.33 445.10
644.36 608.96 208.25 771.93 318.94 631.69 916.00 614.81 674.37 524.39 507.63 619.16 235.94 715.87 608.08 618.70 498.46 721.77 394.83 732.99 614.19 723.58 603.73 627.77 171.05 28.57 235.88 641.39 862.55 515.71 502.88 754.90 452.97 976.15 928.06 898.68 383.76 542.06 597.20 674.98 793.43 498.93 458.53 312.14 820.82 571.84 893.93 505.53 13.48 62.42 438.23 113.91 651.21 939.72 705.86 123.16 701.20 768.05 184.42 643.36 616.35 592.62 264.36 866.37 62.81 329.86 373.60 744.34 134.61 761.08 279.67 484.04 721.27 628.85 474.22 626.77 471.60 613.95 325.49 169.91 721.92 726.32 549.67 176.08 557.10 811.43 575.42 79.06 344.37 877.09 767.59 226.43 495.27 717.89 770.84 174.17 668.24 318.98 136.55 915.81 605.77 450.43 576.50 596.56 182.75 55.22 238.03 328.39 220.79 210.93 134.64 456.18 652.36 258.76 703.29 254.28 653.90 95.02 962.45 383.40 150.07 377.49 574.12 610.69 616.45 864.12 730.16 590.65 303.06 612.84 126.65 286.74 411.56 893.25 799.17 381.63 1003.95 482.57 733.05 900.99 866.47 520.82 0.00 677.13 724.53 837.41 546.34 767.33 95.89 888.93 925.25 514.69 252.52 303.39 476.85 836.47 513.64 511.25 319.44 789.17 263.74 551.34 860.70 829.56 953.99 258.58 543.18 723.99 436.09 325.85 318.62 378.17 833.67 922.29 454.28 128.73 697.23 281.95 727.31 773.88 319.84 488.34 447.14 476.46 647.21 870.84 972.12 607.16 806.43 616.70 742.36 453.27 377.54 663.59 416.73 704.01 812.81 810.76 660.84 629.10 122.62
1016.23 686.40 584.26 684.10 578.09 826.80 755.05 504.65 580.98 228.05 318.32 803.02 692.23 370.35 880.31 724.31 303.78 351.30 403.82 297.34 602.48 507.84 919.91 114.92 575.96 705.70 683.46 422.36 432.31 324.88 271.42 109.79 494.36 756.78 578.03 453.81 554.38 311.68 260.32 158.68 700.08 271.19 345.69 596.97 312.15 194.22 279.70 451.92 690.61 739.55 710.46 684.64 316.17 285.73 28.73 658.99 613.37 233.09 704.69 100.91 194.86 984.00 505.94 206.60 679.88 548.78 414.55 487.08 679.22 113.72 683.20 245.09 578.07 810.04 631.86 623.20 760.39 456.22 592.25 637.47 53.34 752.70 176.43 571.77 326.68 755.08 281.20 701.53 729.02 269.93 547.02 647.79 181.86 70.06 187.27 700.05 217.36 810.80 720.72 689.03 506.48 302.21 736.44 870.09 634.53 703.61 522.93 820.33 682.64 669.72 657.46 322.00 823.52 663.85 576.39 566.64 543.21 718.08 603.38 604.26 648.60 489.41 433.92 147.54 959.32 279.76 758.04 393.84 714.35 165.31 627.72 513.83 497.07 727.98 154.17 371.01 765.84 871.53 677.12 676.67 288.11 438.59 677.13 0.00 241.39 211.16 277.63 224.93 666.52 485.99 652.41 201.28 591.68 692.48 495.97 180.01 533.07 332.22 727.43 210.66 531.27 585.02 212.87 292.47 715.01 741.73 322.36 95.12 827.22 471.18 429.23 404.44 692.92 518.84 956.61 640.90 409.84 686.41 633.96 338.23 522.88 865.76 346.21 283.72 439.12 300.78 668.86 123.03 158.15 153.68 420.44 548.53 506.98 302.33 704.33 215.91 275.72 610.59 223.19 301.04 619.84
900.78 537.79 693.51 475.47 624.57 672.39 535.00 341.92 390.17 252.77 489.35 634.75 626.33 143.22 728.23 556.04 348.07 149.44 428.54 106.69 410.85 303.55 778.27 345.83 606.31 730.50 590.60 234.61 284.61 301.19 421.80 342.91 349.41 558.25 365.12 285.86 435.38 482.79 456.97 380.80 496.97 419.64 362.96 693.90 173.21 181.21 321.92 271.32 711.05 779.90 620.36 671.10 98.04 471.80 212.66 680.55 404.74 84.99 662.65 207.38 379.07 803.40 552.51 422.29 731.19 653.88 430.11 324.31 650.40 308.32 614.69 293.12 339.90 618.41 498.28 432.77 643.82 299.75 680.55 738.63 291.00 556.48 338.62 640.23 529.62 529.57 448.56 712.29 823.83 248.93 347.56 638.59 257.78 264.66 394.68 675.97 130.41 768.16 745.44 534.72 349.40 326.93 608.58 710.29 602.26 733.73 573.92 772.63 798.37 807.84 671.44 355.77 647.56 750.60 373.68 567.00 315.55 766.11 404.13 423.66 634.26 524.88 245.60 282.12 850.21 222.94 579.20 205.52 646.82 152.19 675.32 598.33 365.29 536.45 330.83 395.73 553.08 738.20 480.90 470.56 234.71 303.47 724.53 241.39 0.00 418.30 420.33 195.32 722.92 339.93 446.30 277.20 594.34 789.41 624.44 396.54 373.30 280.73 645.51 187.17 555.99 387.32 398.49 154.28 502.25 670.31 509.93 336.51 759.82 576.89 567.35 513.14 468.76 326.33 872.11 628.90 171.67 781.06 430.85 135.46 512.43 732.43 516.00 308.44 251.37 192.94 469.61 361.00 303.53 320.59 193.31 413.40 572.53 60.94 571.00 80.13 137.53 383.46 393.33 486.31 649.96
1193.14 863.31 688.75 809.61 648.80 998.25 908.23 681.56 757.89 416.80 376.13 979.93 866.24 516.45 1064.94 901.22 429.26 528.21 587.41 457.76 779.39 698.63 1101.78 233.68 730.53 835.19 844.22 599.27 576.71 525.80 372.63 106.55 686.93 880.11 729.04 541.98 759.73 321.70 321.52 245.73 780.51 357.69 538.26 636.98 432.62 371.13 263.55 628.83 841.32 882.34 921.62 830.82 493.08 132.83 205.64 774.35 806.48 367.80 845.37 277.82 256.37 1160.91 604.75 49.54 798.64 657.37 587.28 698.24 825.07 141.14 883.50 456.25 715.88 986.95 830.39 800.11 971.55 633.13 650.33 811.95 167.30 926.94 356.04 696.65 342.53 886.94 279.38 788.03 748.00 410.46 672.36 858.95 393.02 184.80 101.41 867.77 360.37 1011.72 868.07 865.94 683.39 490.96 947.60 1047.00 805.23 801.40 635.55 1025.50 797.81 784.89 808.21 476.78 1000.43 775.53 745.96 754.24 720.12 868.77 740.20 781.17 794.45 549.11 610.83 284.56 1136.23 328.53 934.95 570.75 895.43 342.22 778.47 653.84 697.99 903.61 136.91 554.60 923.69 1058.07 851.36 848.64 356.65 643.64 837.41 211.16 418.30 0.00 339.14 353.78 780.52 676.73 824.38 412.44 754.82 732.49 536.60 117.14 722.98 543.38 927.53 331.94 649.02 761.93 117.95 412.94 886.98 930.48 387.23 171.48 1015.97 588.48 571.96 490.94 835.93 623.22 1144.21 731.31 586.75 738.26 810.87 451.05 693.06 1063.84 407.66 472.47 616.03 437.59 803.35 328.20 215.58 264.29 566.54 725.44 564.79 479.24 908.82 392.82 396.19 750.62 310.24 301.55 752.37
980.13 745.48 397.83 734.16 335.15 813.07 847.81 589.39 641.18 214.32 85.52 775.80 556.00 505.34 818.25 745.34 119.02 501.42 309.27 469.83 620.48 655.53 869.12 182.01 420.29 537.53 522.72 562.01 588.78 323.32 43.46 287.15 424.88 893.15 723.49 586.84 487.23 84.49 77.67 128.64 755.66 47.45 276.21 353.97 495.43 302.10 449.70 484.77 547.94 575.89 653.23 520.58 450.02 455.03 294.99 464.11 663.43 379.87 528.43 299.59 82.77 894.29 294.51 380.60 483.53 325.18 297.25 667.02 510.70 321.14 599.73 250.79 680.79 791.33 630.31 598.56 703.16 563.32 340.62 482.79 275.34 813.13 208.59 385.34 145.78 810.66 115.44 477.79 465.67 479.63 627.64 543.55 245.74 277.48 272.96 528.63 289.92 712.79 538.90 830.08 590.64 225.89 763.64 828.12 469.59 491.16 336.50 710.27 496.21 483.29 524.12 186.75 830.55 479.67 661.23 448.38 602.40 558.53 726.81 541.98 480.08 271.32 462.36 158.08 923.22 473.14 807.10 456.73 617.17 324.71 497.53 327.40 440.90 802.16 342.67 291.12 862.84 771.07 742.99 759.88 495.53 472.60 546.34 277.63 420.33 339.14 0.00 416.42 470.28 687.13 784.14 226.32 441.12 424.69 281.98 349.31 495.04 366.23 641.25 433.51 320.94 621.81 401.98 475.75 839.34 631.39 151.59 238.22 782.15 259.31 242.80 180.70 765.48 682.01 838.35 465.35 516.23 455.25 689.54 490.03 382.82 765.30 133.57 266.71 555.54 467.95 792.29 154.60 385.85 187.10 545.67 537.25 232.60 412.92 603.87 341.60 459.00 705.90 137.09 157.93 444.29
1089.94 686.59 717.58 604.30 690.04 789.93 674.46 490.72 525.67 360.38 457.11 763.95 710.45 289.24 868.48 708.72 418.75 297.61 460.67 125.14 563.53 459.74 918.52 278.39 638.44 795.90 663.48 383.41 303.82 411.59 428.28 256.12 537.91 610.31 452.47 307.82 569.22 450.97 418.91 340.19 625.80 439.29 435.89 752.43 165.36 217.26 126.60 466.64 780.81 829.75 797.62 750.17 254.38 352.83 203.18 718.18 533.57 110.33 765.94 172.49 333.65 998.72 576.58 304.24 778.13 713.57 471.40 480.50 741.84 221.53 717.54 335.29 468.73 735.95 652.12 585.45 820.35 448.55 739.08 768.70 204.21 673.35 288.15 675.28 491.56 658.40 419.99 783.29 814.34 122.62 483.07 719.62 272.06 177.87 363.54 748.85 201.59 879.60 853.05 636.84 498.20 397.93 731.89 850.54 712.97 784.65 608.97 885.14 830.50 831.91 737.19 390.82 789.53 775.57 502.51 639.33 510.87 808.28 484.02 600.92 711.22 609.95 433.64 278.19 1033.03 96.79 719.63 393.56 749.67 176.26 707.45 633.38 544.61 660.84 222.31 427.86 640.75 897.53 597.77 575.75 99.14 495.97 767.33 224.93 195.32 353.78 416.42 0.00 752.35 415.94 551.49 291.48 661.64 773.36 654.38 271.22 527.44 411.89 773.77 21.84 580.58 548.54 278.02 143.14 608.69 795.50 464.51 269.33 914.67 600.13 591.42 502.15 602.56 346.65 1029.30 712.41 300.50 796.24 559.68 154.67 579.73 903.30 517.60 333.03 400.17 162.99 526.78 319.89 138.20 297.74 332.77 550.74 645.77 256.26 748.26 225.01 153.24 515.56 355.27 440.89 700.88
692.01 651.38 184.97 803.69 251.94 658.49 910.29 597.20 673.53 475.73 455.41 646.10 262.74 714.38 634.88 638.44 438.83 695.33 314.12 703.99 616.65 704.59 641.34 566.87 155.68 113.36 253.22 604.73 873.91 454.26 437.77 686.78 417.57 954.54 892.48 877.25 426.28 471.25 508.61 597.98 819.81 422.83 406.11 287.34 791.82 579.00 834.41 495.66 109.37 149.61 465.03 176.06 662.57 876.49 684.35 42.45 732.96 741.31 234.16 648.65 553.05 636.63 175.77 785.93 36.37 281.25 292.89 725.35 176.23 696.03 306.47 463.28 675.87 651.82 524.52 620.52 514.96 632.80 300.69 86.47 626.03 812.64 566.54 97.74 534.55 806.52 513.57 128.80 304.01 842.38 748.60 249.60 520.85 652.37 690.99 211.78 653.42 389.95 165.71 910.10 598.66 401.57 603.30 618.94 224.37 108.17 195.64 351.30 184.22 171.30 151.35 382.20 714.51 202.43 696.18 286.04 637.80 179.81 917.05 425.02 195.39 296.78 539.41 566.58 643.25 827.51 768.20 564.21 329.86 576.09 143.84 220.00 404.45 925.01 737.98 332.77 966.20 520.07 763.08 939.19 851.49 535.58 95.89 666.52 722.92 780.52 470.28 752.35 0.00 828.83 934.32 514.20 256.41 263.03 398.07 775.57 487.73 522.72 381.59 774.19 204.11 553.61 795.18 800.56 915.37 343.37 488.06 643.55 454.72 270.24 237.29 289.58 827.96 895.85 527.49 94.02 632.49 186.06 754.03 744.88 292.12 525.84 423.53 427.60 621.49 830.95 956.09 574.12 737.19 528.11 677.62 503.01 342.52 662.06 443.53 672.38 783.81 807.95 572.25 561.17 93.24
877.32 498.96 879.64 300.25 853.81 590.10 304.75 300.71 304.77 514.83 721.21 551.57 659.83 201.30 667.46 524.22 610.13 190.49 593.52 311.72 415.31 212.62 706.92 600.91 727.35 860.61 701.17 249.24 143.33 522.37 660.52 590.68 454.86 303.55 92.04 179.46 514.58 768.28 715.24 644.67 316.67 675.46 492.61 918.74 290.71 435.15 452.65 391.79 877.40 936.17 671.03 775.02 259.00 643.46 513.06 826.12 287.48 352.24 764.10 498.16 680.85 838.98 766.54 627.19 845.83 883.12 605.83 206.49 754.32 556.09 685.87 474.48 250.00 545.79 508.10 411.27 684.58 298.62 930.04 908.79 538.77 440.59 575.99 774.69 785.02 377.58 742.82 816.21 1031.97 334.59 168.61 710.80 505.89 512.43 673.26 758.43 398.40 818.69 970.44 220.90 309.75 537.47 576.76 676.18 706.18 854.72 764.56 858.61 941.37 928.45 779.20 560.54 472.38 936.30 283.78 634.90 284.79 871.22 117.39 544.13 740.81 779.42 338.32 622.05 820.41 387.42 464.40 317.99 717.15 430.77 804.59 803.10 478.58 259.85 563.35 574.93 303.79 748.82 365.01 200.83 345.49 368.36 888.93 485.99 339.93 676.73 687.13 415.94 828.83 0.00 203.18 486.47 675.96 990.99 877.66 611.45 384.70 466.79 697.17 413.61 677.44 414.37 558.78 309.47 265.78 711.38 776.45 581.11 756.80 769.60 748.36 671.62 228.08 86.44 882.73 783.71 196.34 965.71 261.37 278.42 619.56 743.05 739.25 510.66 242.93 252.95 182.87 609.02 474.96 629.36 151.21 461.83 827.07 278.99 621.67 370.91 315.22 179.83 675.84 787.03 770.95
891.24 483.13 1001.74 206.48 943.07 554.13 179.96 370.90 342.31 636.66 838.49 515.60 761.52 327.22 636.76 462.09 729.18 346.27 696.71 437.71 414.70 258.86 666.15 742.98 807.61 916.40 756.05 385.23 247.67 619.07 751.63 717.83 550.53 114.06 160.43 283.80 582.68 868.63 819.58 752.08 233.74 736.69 618.53 1008.00 419.02 541.52 625.68 500.95 938.73 987.67 668.78 868.53 348.26 814.10 635.70 941.07 263.11 456.58 852.33 604.53 803.80 803.01 860.74 786.69 955.90 972.38 717.94 256.99 857.32 683.24 761.77 630.26 258.45 506.42 526.63 392.78 633.95 396.11 1019.30 996.35 698.88 325.87 688.68 870.36 910.94 283.81 843.81 887.38 1105.03 480.28 220.56 791.65 618.09 672.54 817.72 841.42 508.36 834.73 1061.80 96.11 364.63 632.69 514.63 618.82 809.18 870.03 862.38 845.55 1066.54 1054.37 850.57 671.83 473.41 1046.62 292.23 698.24 330.30 963.84 116.88 611.68 827.59 905.34 464.24 706.85 839.09 558.06 395.61 443.91 729.64 573.57 880.31 914.39 558.84 109.35 702.42 700.85 113.43 724.45 310.03 24.26 533.70 500.92 925.25 652.41 446.30 824.38 784.14 551.49 934.32 203.18 0.00 612.39 739.30 1064.05 1008.33 760.66 482.68 566.47 731.45 532.01 800.34 426.32 729.92 455.16 62.60 802.43 904.56 747.53 732.43 895.52 899.12 797.54 135.33 254.25 858.36 882.24 322.26 1063.50 237.00 396.82 716.56 718.68 845.83 666.44 368.47 398.64 86.09 747.75 620.65 715.84 277.13 527.39 952.99 385.36 619.42 477.28 455.45 191.49 801.76 899.84 870.05
881.41 615.68 501.80 604.40 457.82 680.16 653.98 414.63 456.13 108.11 234.74 641.63 516.11 285.17 730.12 577.77 127.27 304.22 222.41 362.93 466.77 458.23 757.47 197.32 406.22 543.26 498.55 377.98 457.50 155.75 213.78 311.07 309.45 700.20 555.44 482.82 391.94 299.38 253.01 247.65 588.67 198.84 160.78 491.57 376.61 95.99 418.08 317.20 528.17 577.11 560.27 517.95 289.25 466.75 230.01 485.96 551.07 292.20 533.72 167.51 211.04 849.28 374.71 407.88 541.21 469.59 239.18 472.70 502.46 285.70 520.76 82.65 468.69 649.15 514.88 483.13 610.20 416.91 485.03 538.54 254.62 629.18 89.52 416.46 320.03 658.36 282.46 551.07 546.63 412.22 502.24 533.28 19.42 242.04 340.39 555.26 189.46 641.67 600.78 611.78 405.59 145.64 574.00 727.31 480.75 548.87 350.15 673.76 592.24 605.16 495.02 132.00 715.12 526.83 434.91 382.84 453.72 555.64 573.30 437.64 479.00 380.22 277.31 180.02 857.68 386.39 657.15 317.39 552.89 136.99 465.28 374.56 327.94 650.73 329.55 195.64 681.38 709.09 557.94 636.65 373.38 322.25 514.69 201.28 277.20 412.44 226.32 291.48 514.20 486.47 612.39 0.00 410.04 587.08 446.99 381.29 379.61 234.74 568.57 311.44 348.36 457.14 384.85 368.16 673.35 574.92 300.81 274.08 707.28 390.32 369.51 292.34 610.71 504.74 772.81 489.72 367.10 564.10 571.46 329.67 347.51 703.32 295.23 100.81 361.22 424.68 638.78 139.21 350.41 206.65 335.26 421.82 377.01 252.15 541.89 228.16 365.18 525.41 189.37 318.28 468.66
552.66 407.67 385.82 558.71 395.39 476.26 702.78 394.58 470.91 363.63 476.14 437.73 143.25 560.18 473.56 422.64 403.24 541.13 249.60 641.26 418.74 542.28 534.04 569.08 100.73 246.45 96.28 476.68 704.48 293.15 397.66 673.88 278.05 814.11 768.00 723.28 193.47 493.56 511.97 569.76 580.21 412.60 263.12 451.09 675.78 487.48 788.24 333.60 239.04 284.65 318.15 146.89 553.77 836.05 606.57 234.19 487.98 606.98 156.27 549.17 523.89 455.28 244.82 769.16 227.66 424.70 256.56 535.77 133.07 639.66 186.98 352.46 508.05 445.25 272.93 436.48 368.08 443.01 455.83 334.76 645.02 574.70 478.44 167.88 561.43 635.21 535.88 190.21 530.81 719.63 586.29 152.42 415.69 622.63 692.02 169.61 549.48 297.58 357.00 702.59 403.62 289.47 370.10 491.50 94.72 213.58 265.78 276.72 370.90 383.82 146.49 278.04 516.92 420.87 496.34 41.06 435.18 249.97 749.23 184.40 102.45 389.60 376.76 555.34 502.09 715.41 582.41 410.01 200.70 492.60 148.37 293.62 239.63 680.03 697.17 233.78 798.38 414.26 585.52 738.84 734.62 307.60 252.52 591.68 594.34 754.82 441.12 661.64 256.41 675.96 739.30 410.04 0.00 489.83 493.03 748.18 323.35 333.26 251.77 683.48 227.94 369.98 765.44 673.69 747.55 190.27 542.21 626.78 375.54 340.38 310.42 340.32 620.45 741.65 431.03 184.23 518.74 412.86 514.09 682.15 81.91 420.03 479.70 328.61 461.11 730.21 758.90 523.75 664.24 530.32 563.87 270.62 429.87 550.13 293.58 515.92 690.44 597.54 561.07 583.48 163.17
915.55 863.30 173.48 968.74 176.58 904.14 1087.47 784.88 861.21 536.64 405.54 883.15 525.77 819.91 871.42 825.39 459.81 825.84 486.27 857.20 841.27 914.50 885.49 577.56 401.22 331.96 496.78 772.64 966.59 558.39 429.69 704.69 623.04 1160.01 1059.96 1002.72 659.67 470.18 469.32 553.33 997.84 444.63 552.32 95.51 894.61 630.68 874.39 675.60 316.87 335.21 710.68 411.25 755.25 865.32 673.05 302.49 938.80 804.56 465.11 600.87 507.46 891.64 314.48 778.68 299.40 148.59 480.85 900.88 418.80 739.28 569.50 575.05 886.33 911.15 742.71 853.30 760.61 821.53 108.86 216.44 682.87 970.81 601.66 360.77 490.83 1046.03 490.89 382.45 40.98 895.98 940.30 508.19 606.50 702.17 685.85 455.93 714.61 615.88 255.42 1087.28 775.84 529.63 859.93 853.48 466.94 326.41 322.23 614.33 169.51 165.56 393.92 490.49 934.21 114.24 873.36 530.89 823.97 397.84 1056.69 606.93 432.66 264.53 738.47 582.77 892.29 853.06 1006.19 737.22 553.35 671.68 378.38 266.51 581.63 1109.27 760.21 470.00 1176.66 773.14 951.94 1088.31 870.46 715.52 303.39 692.48 789.41 732.49 424.69 773.36 263.03 990.99 1064.05 587.08 489.83 0.00 233.67 774.00 681.03 646.60 616.78 795.20 344.44 794.22 826.67 879.39 1125.83 549.15 434.74 662.91 717.75 221.39 288.19 319.37 1005.14 1026.36 757.67 344.73 855.18 76.97 941.71 864.36 507.73 774.63 415.87 533.59 789.40 886.89 1122.17 569.54 744.17 592.14 839.78 693.15 216.88 737.34 706.08 721.62 878.51 1018.41 532.96 483.40 356.27
1005.18 822.09 275.82 934.31 201.86 944.76 1054.04 746.74 809.19 371.67 222.70 906.23 573.87 706.22 931.26 827.52 319.72 687.17 421.28 700.65 781.27 845.40 963.04 381.05 425.41 477.30 542.22 748.34 807.56 480.51 305.12 508.18 592.35 1121.25 956.88 843.69 563.84 239.18 235.65 363.80 909.20 318.34 493.13 180.01 726.45 492.79 675.45 623.62 484.71 474.87 761.41 496.74 660.07 650.76 524.70 355.62 871.60 661.85 525.56 541.99 340.92 937.66 280.05 545.01 414.04 191.89 400.05 824.64 476.04 542.77 556.37 403.18 841.13 898.73 732.52 801.32 811.34 729.30 166.66 339.72 486.36 982.24 401.44 325.15 274.37 963.99 257.22 487.94 274.65 727.39 822.94 541.80 460.36 499.79 499.53 533.48 560.63 714.34 443.05 1025.38 745.68 438.19 852.05 923.10 512.96 430.93 270.98 700.90 341.11 354.03 477.74 408.56 960.90 311.31 832.34 523.87 776.74 543.75 956.25 618.59 456.05 146.96 630.37 410.50 954.38 707.49 997.24 653.65 588.50 533.79 448.00 199.41 580.73 1054.19 563.70 443.59 1108.68 815.55 911.00 1019.24 687.83 609.39 476.85 495.97 624.44 536.60 281.98 654.38 398.07 877.66 1008.33 446.99 493.03 233.67 0.00 566.12 645.01 540.57 636.37 632.54 340.23 718.23 613.42 753.84 1057.85 642.71 238.16 473.38 771.56 203.37 226.14 254.76 971.71 883.59 877.09 396.71 720.62 281.29 897.71 726.47 509.64 809.78 251.65 397.27 731.58 749.93 973.20 396.51 597.52 385.19 736.70 617.16 99.31 648.95 754.66 612.31 738.94 901.20 299.29 315.65 417.63
1196.24 843.54 718.27 792.85 661.00 954.02 847.06 640.34 681.84 408.06 405.65 916.38 839.45 477.06 962.34 837.67 410.80 496.11 547.21 396.36 692.48 644.21 1048.26 208.70 708.80 850.65 814.49 570.49 516.19 504.89 386.24 102.01 625.49 808.91 673.93 503.08 711.46 351.22 346.71 220.67 821.95 371.30 496.89 687.50 361.42 347.82 171.51 590.09 849.95 864.42 890.41 813.17 412.40 105.72 208.74 769.40 739.87 311.55 820.39 280.92 307.94 1122.17 599.80 67.60 773.66 674.49 557.94 664.97 797.11 123.22 863.21 425.10 662.60 900.04 804.85 714.40 940.34 610.48 689.93 814.76 149.74 854.89 308.93 709.51 356.45 852.27 308.90 801.64 770.65 332.48 688.22 827.80 361.87 145.33 147.52 836.25 289.17 983.36 875.16 832.35 631.30 482.22 890.21 980.28 761.36 815.01 653.44 947.16 802.04 805.82 772.23 502.01 956.93 796.35 628.82 718.95 666.78 882.38 674.92 693.71 797.76 561.31 503.02 254.19 1139.33 263.25 882.86 543.10 851.49 345.32 786.04 670.17 666.13 867.15 65.71 514.40 852.49 1008.25 783.65 784.92 278.67 573.69 836.47 180.01 396.54 117.14 349.31 271.22 775.57 611.45 760.66 381.29 748.18 774.00 566.12 0.00 663.40 512.23 861.35 259.57 645.52 682.85 52.67 341.74 823.26 921.74 391.42 166.94 1002.25 595.57 585.57 504.55 764.73 568.11 1108.92 765.21 523.21 788.78 765.98 385.77 666.27 1002.48 437.18 459.26 554.79 365.22 740.40 249.86 143.21 247.46 527.15 714.14 581.91 412.17 841.05 340.85 324.99 714.16 283.07 349.97 771.24
605.90 279.38 572.53 348.92 573.97 350.27 460.59 186.33 200.65 306.18 542.76 324.29 313.15 327.63 416.63 281.20 401.48 308.58 264.33 445.88 178.07 300.06 453.47 561.12 360.34 494.56 319.59 228.95 528.03 263.43 451.58 616.43 70.16 544.19 476.74 506.90 129.88 560.58 565.89 580.32 377.06 466.52 218.83 637.37 496.57 359.68 654.04 101.98 517.91 570.12 307.57 432.84 339.13 769.12 525.17 474.80 307.27 458.29 379.40 463.89 543.20 552.95 436.75 708.00 516.19 589.65 285.56 283.88 412.14 645.91 301.17 343.22 224.23 296.29 144.64 191.70 357.50 187.12 634.41 574.20 586.41 397.64 446.54 389.99 628.05 405.35 602.90 434.58 692.44 562.44 305.62 364.12 382.66 602.25 651.31 404.96 406.48 473.52 622.27 460.40 177.29 310.11 312.02 398.69 372.72 474.50 453.63 497.76 624.13 611.21 434.62 345.06 369.70 566.79 212.29 282.29 183.29 513.15 465.41 163.35 425.37 523.94 160.38 534.54 548.99 580.55 428.85 177.46 333.30 400.68 437.58 472.20 111.57 465.34 628.74 264.29 514.56 390.05 335.82 496.65 564.87 98.07 513.64 533.07 373.30 722.98 495.04 527.44 487.73 384.70 482.68 379.61 323.35 681.03 645.01 663.40 0.00 200.85 335.19 505.60 417.76 126.77 714.92 511.25 463.73 378.71 603.00 614.69 455.40 511.56 444.76 491.56 378.26 471.14 535.50 434.97 299.11 604.06 316.38 474.54 269.29 395.82 519.43 329.77 212.19 545.80 530.89 471.37 585.61 522.36 344.24 77.13 545.70 339.30 258.21 392.52 494.50 356.31 564.89 646.15 422.78
775.75 418.83 487.95 414.86 504.60 551.12 513.47 245.52 310.79 168.90 405.48 525.14 475.73 285.17 586.32 456.74 264.20 284.88 208.94 371.10 331.53 327.78 623.16 392.07 433.99 482.68 429.54 259.04 431.24 99.37 322.77 442.01 224.38 602.53 527.92 467.37 305.69 395.00 432.77 385.84 441.70 335.77 161.14 586.64 387.22 267.51 538.49 146.29 516.57 558.24 495.33 480.15 220.51 617.95 360.95 480.61 368.08 364.56 489.53 315.44 348.72 678.37 346.95 538.82 548.50 533.56 230.17 336.76 466.33 445.94 432.00 176.46 331.11 497.14 345.49 323.99 545.26 197.09 580.83 566.03 385.56 483.82 312.66 446.72 465.35 458.23 435.06 523.47 666.03 453.09 371.79 477.40 215.32 402.28 476.17 502.87 272.34 585.29 636.29 513.28 242.66 164.79 481.71 568.38 427.98 529.05 397.63 609.98 578.77 591.69 479.75 179.48 557.64 574.31 297.33 350.96 236.17 549.13 553.96 298.63 435.71 441.01 142.07 375.85 725.18 465.00 494.22 153.76 464.13 242.88 481.63 422.04 227.65 535.27 486.39 233.59 621.44 590.90 417.99 549.53 470.26 106.37 511.25 332.22 280.73 543.38 366.23 411.89 522.72 466.79 566.47 234.74 333.26 646.60 540.57 512.23 200.85 0.00 486.63 390.05 362.37 287.87 545.09 401.90 570.61 523.53 465.72 427.34 621.83 425.21 423.66 350.60 431.14 485.40 735.43 501.67 275.41 572.13 382.13 397.37 310.61 596.67 415.41 168.89 243.28 443.91 599.01 276.89 490.37 353.31 317.10 246.82 488.66 229.95 445.97 251.56 385.15 434.08 403.04 455.96 484.21
422.10 337.29 521.34 575.04 568.44 318.50 721.79 442.29 491.01 515.89 673.41 331.63 123.73 606.94 294.89 327.92 547.22 587.89 405.74 687.84 422.17 571.91 340.93 749.32 299.20 320.11 170.70 447.93 781.49 463.63 597.79 824.88 332.85 792.96 732.57 801.07 301.61 670.02 698.75 751.84 567.63 612.73 436.20 608.98 727.59 583.97 900.37 385.41 319.85 381.86 125.04 205.53 614.83 936.61 745.72 363.84 539.05 676.05 157.96 688.63 701.62 369.15 431.60 928.60 364.17 597.75 416.47 576.17 226.23 832.95 80.00 503.44 473.00 321.59 269.72 439.38 174.97 450.11 622.33 423.83 764.13 472.32 614.55 379.95 740.37 509.11 712.34 252.79 656.74 825.75 554.39 142.97 566.67 789.29 868.48 183.86 572.18 174.73 440.90 735.52 433.25 441.73 275.38 299.93 216.93 290.37 452.63 227.30 470.88 483.80 246.47 454.50 374.62 533.83 506.78 244.14 481.38 306.14 714.18 293.03 227.47 518.44 454.55 705.05 365.19 814.67 434.93 493.60 72.52 621.28 259.73 484.11 291.44 696.57 795.64 372.93 763.33 206.25 523.15 736.23 818.61 398.51 319.44 727.43 645.51 927.53 641.25 773.77 381.59 697.17 731.45 568.57 251.77 616.78 636.37 861.35 335.19 486.63 0.00 751.93 402.08 359.13 881.82 763.83 712.50 90.10 707.02 799.11 140.90 506.06 439.26 530.98 654.53 777.29 262.84 311.02 530.84 539.81 565.16 708.01 287.05 212.02 636.08 467.76 464.69 784.55 771.74 673.62 803.37 718.92 575.97 258.06 566.09 621.60 162.10 623.86 764.02 567.53 755.94 759.94 314.09
1076.48 669.70 698.39 614.90 711.88 810.98 663.05 502.58 542.58 368.71 462.50 772.45 732.29 290.78 868.40 707.61 438.71 307.00 482.51 142.05 575.39 440.26 905.24 287.68 660.28 817.74 685.32 395.27 284.34 416.01 406.44 234.28 516.07 588.47 431.95 288.34 567.64 444.37 420.17 345.77 630.56 421.38 457.73 740.62 143.52 235.21 148.44 458.49 802.65 851.59 786.99 772.01 246.23 330.99 181.93 740.02 550.48 102.18 787.78 194.33 350.74 990.57 598.42 282.40 799.97 735.01 493.24 461.02 763.68 199.69 739.38 357.13 484.49 757.79 630.28 597.31 830.99 455.30 727.27 746.86 182.37 690.26 275.05 697.12 485.19 674.16 403.87 805.13 836.18 100.78 461.23 741.46 293.90 156.03 341.70 770.69 179.75 901.44 861.38 628.12 505.56 419.77 710.05 850.46 734.81 806.49 630.81 876.99 838.71 831.69 759.03 412.66 805.29 762.47 518.27 661.17 502.72 830.12 464.54 592.77 733.06 631.79 427.50 299.63 1019.57 74.95 736.54 392.69 771.51 198.10 729.29 655.22 552.46 641.36 200.47 449.70 632.05 875.69 614.68 556.27 90.21 490.64 789.17 210.66 187.17 331.94 433.51 21.84 774.19 413.61 532.01 311.44 683.48 795.20 632.54 259.57 505.60 390.05 751.93 0.00 602.42 560.40 256.18 121.30 594.61 817.34 481.60 247.49 892.83 621.97 613.26 523.99 580.72 327.17 1014.77 734.25 317.41 799.74 576.59 135.19 601.57 881.46 500.64 354.87 412.03 171.94 507.30 298.05 116.36 275.90 336.47 528.90 643.65 248.11 740.11 208.73 131.40 493.72 377.11 425.24 722.72
712.06 597.54 202.20 704.53 233.77 622.08 812.70 527.23 603.56 303.22 357.95 583.55 320.50 566.54 653.78 568.46 234.72 567.72 153.43 585.76 564.56 577.20 699.58 436.82 128.74 277.92 299.77 428.20 713.22 317.74 277.48 563.95 347.60 861.85 762.24 749.35 339.29 390.36 391.79 449.58 717.78 291.33 255.97 274.07 664.70 430.34 707.18 394.87 268.97 314.40 488.76 251.89 501.88 738.49 509.99 180.90 633.80 591.43 244.12 487.91 403.71 683.22 94.88 675.42 200.93 220.99 174.66 556.44 244.69 596.30 350.56 290.54 541.89 591.07 500.87 563.21 538.69 493.34 272.06 290.58 526.30 728.92 387.07 106.37 431.04 714.85 396.09 244.20 384.51 690.05 616.38 300.95 353.77 552.64 579.89 270.02 487.56 451.29 330.27 810.60 523.44 249.49 515.92 663.65 271.66 250.42 148.52 447.87 342.52 340.56 224.71 223.19 662.74 258.86 575.67 186.88 567.83 290.66 783.07 330.22 240.22 193.27 442.12 409.04 661.72 675.43 690.45 453.46 350.63 437.75 194.97 198.69 349.45 808.78 597.52 186.24 832.22 577.68 653.34 811.80 679.72 387.15 263.74 531.27 555.99 649.02 320.94 580.58 204.11 677.44 800.34 348.36 227.94 344.44 340.23 645.52 417.76 362.37 402.08 602.42 0.00 517.51 663.92 638.25 781.39 392.51 381.85 533.04 521.36 180.89 114.09 158.08 730.37 746.79 576.85 145.59 511.11 293.85 651.66 626.65 209.42 571.91 297.46 247.55 444.96 650.90 788.62 415.47 609.39 447.22 556.24 416.44 240.92 538.98 439.40 480.48 655.00 673.97 440.89 417.10 166.65
541.40 222.88 680.54 282.17 695.45 320.94 426.50 150.04 133.90 432.95 669.53 282.41 357.39 324.14 367.34 208.23 528.25 305.09 384.92 423.40 63.04 297.64 430.46 542.21 466.52 556.34 373.28 165.13 510.69 345.67 578.35 669.34 196.93 540.38 506.41 492.66 183.57 682.87 679.07 591.94 266.20 593.29 345.60 729.43 472.15 441.92 651.07 184.22 537.86 595.76 321.74 452.59 343.40 788.57 556.29 541.54 240.52 472.31 435.41 492.27 625.44 487.69 545.35 727.03 553.78 696.32 406.15 285.42 431.89 664.45 348.37 425.46 243.65 270.60 181.85 84.96 271.81 163.88 742.78 635.82 636.36 294.40 545.90 516.76 686.95 316.98 703.65 475.28 819.21 549.52 325.04 365.33 437.72 620.79 685.28 417.59 446.45 451.39 659.86 423.30 159.08 436.88 260.77 362.48 426.41 528.19 580.40 521.18 669.72 682.64 445.31 467.35 274.08 693.56 209.87 330.63 184.83 548.79 468.43 187.29 401.27 636.30 179.83 619.44 484.49 583.58 350.49 219.91 316.24 419.71 459.48 593.68 235.42 398.59 669.91 391.06 503.96 388.52 259.63 450.58 554.32 213.06 551.34 585.02 387.32 761.93 621.81 548.54 553.61 414.37 426.32 457.14 369.98 794.22 718.23 682.85 126.77 287.87 359.13 560.40 517.51 0.00 730.21 496.89 469.36 389.03 724.71 638.43 431.83 638.33 571.53 583.25 344.17 498.45 533.97 481.43 248.04 730.83 242.43 425.21 359.35 394.29 640.02 412.93 181.26 522.17 511.44 553.61 628.06 580.97 293.17 101.07 648.10 326.38 295.42 411.06 481.58 350.08 642.75 728.33 460.37
1215.11 837.64 770.94 785.97 713.67 988.27 860.40 672.39 707.34 440.92 446.69 949.74 856.71 488.69 1015.01 871.03 429.20 507.74 590.71 370.14 745.15 638.17 1100.93 261.37 709.49 884.81 856.53 565.08 482.25 508.45 438.91 141.70 645.96 807.53 630.90 486.25 730.05 403.89 399.38 273.34 807.47 423.97 529.26 740.17 380.04 373.97 169.56 612.94 852.09 884.89 906.28 843.65 457.55 141.38 227.61 813.84 715.24 313.50 835.30 299.79 323.23 1145.02 645.69 68.41 826.33 690.26 602.71 658.93 825.44 143.69 854.76 428.66 650.40 952.71 844.73 755.41 956.21 630.22 741.33 850.34 169.15 885.00 345.38 706.99 409.12 840.07 361.57 854.31 823.32 304.25 682.18 860.66 365.43 142.81 172.95 861.20 309.64 994.37 927.83 779.68 673.29 491.65 920.01 1032.95 814.03 855.70 690.52 999.83 854.71 855.45 816.47 505.57 971.20 832.07 681.49 749.09 687.25 901.65 622.25 746.38 820.97 613.98 555.69 254.88 1158.20 210.58 901.30 547.97 886.89 364.19 786.73 679.80 680.64 818.63 86.18 559.17 843.35 1055.10 809.42 754.18 250.44 626.36 860.70 212.87 398.49 117.95 401.98 278.02 795.18 558.78 729.92 384.85 765.44 826.67 613.42 52.67 714.92 545.09 881.82 256.18 663.92 730.21 0.00 362.21 792.52 931.17 444.09 183.79 1022.72 648.24 638.24 557.22 778.07 525.08 1139.06 790.58 482.17 837.38 741.35 333.10 683.53 1049.33 489.85 471.65 575.26 361.83 687.73 302.53 139.82 293.35 527.30 747.41 634.58 432.64 887.90 352.54 345.46 728.93 335.74 375.40 771.93
1008.36 606.19 786.26 500.25 702.81 733.58 541.75 436.24 470.33 398.41 548.18 708.94 743.14 227.27 817.97 644.10 474.37 246.32 509.07 96.57 511.88 358.45 879.30 405.37 658.51 833.83 740.14 331.76 207.49 380.54 499.44 315.21 503.69 467.17 348.75 187.37 550.43 560.24 520.04 438.01 509.26 511.61 442.31 785.20 36.24 285.94 221.57 425.60 816.08 872.03 772.22 782.11 209.05 382.56 263.74 758.11 481.98 109.09 783.43 285.02 472.04 954.11 645.26 403.70 812.86 732.12 507.67 379.21 761.41 320.99 759.04 406.47 438.75 719.44 609.29 533.80 754.83 387.81 779.04 850.69 303.67 639.83 396.35 743.96 592.69 577.58 520.71 760.59 914.79 100.82 402.46 767.31 362.51 277.33 422.16 762.77 209.45 866.46 891.08 522.58 430.15 469.46 683.28 811.32 713.27 803.22 654.76 883.90 878.90 891.82 757.71 459.50 704.93 853.20 425.95 657.34 426.56 841.33 380.30 577.94 747.49 670.52 373.87 388.16 981.38 156.34 668.04 333.79 726.91 244.94 735.75 702.06 472.39 525.41 276.03 512.11 510.75 854.70 569.20 479.42 114.41 414.48 829.56 292.47 154.28 412.94 475.75 143.14 800.56 309.47 455.16 368.16 673.69 879.39 753.84 341.74 511.25 401.90 763.83 121.30 638.25 496.89 362.21 0.00 517.76 799.70 602.90 368.79 868.33 667.65 660.10 569.67 459.42 242.93 967.39 740.51 271.49 863.76 508.09 71.68 591.78 860.47 593.64 431.88 332.12 56.52 423.06 415.50 237.66 397.20 226.36 552.41 690.34 171.95 722.86 157.77 16.75 372.42 456.40 546.54 719.45
878.51 468.10 983.59 225.54 993.19 537.81 137.75 353.86 339.74 695.02 894.44 499.28 765.66 389.73 622.20 443.70 772.63 370.68 704.33 483.55 421.35 308.02 668.87 798.93 802.27 932.20 749.00 359.29 310.27 600.12 806.83 780.43 533.49 80.46 223.03 346.40 587.64 923.83 882.18 814.68 203.16 791.89 644.08 1048.18 481.62 597.47 688.28 459.53 940.51 973.78 645.75 855.24 410.86 876.70 693.25 933.54 267.10 519.18 835.29 649.69 866.29 786.69 876.27 849.29 951.74 1002.38 683.10 319.59 834.54 745.84 764.90 654.67 239.50 493.69 557.75 399.91 615.56 377.16 1053.45 1001.84 761.48 375.94 744.63 853.32 970.34 290.83 906.41 891.68 1156.17 542.88 264.01 805.14 653.93 735.14 875.27 834.37 564.31 839.34 1064.20 61.57 362.90 687.89 496.24 623.89 794.65 925.23 843.43 866.34 1066.06 1053.14 847.96 727.03 434.33 1030.52 273.28 706.49 334.44 951.44 179.48 611.87 803.92 963.96 457.93 769.45 833.50 620.66 356.53 464.57 733.63 610.96 874.91 927.61 553.50 75.05 765.02 673.69 50.83 729.41 329.09 79.46 596.30 499.19 953.99 715.01 502.25 886.98 839.34 608.69 915.37 265.78 62.60 673.35 747.55 1125.83 1057.85 823.26 463.73 570.61 712.50 594.61 781.39 469.36 792.52 517.76 0.00 802.60 956.64 810.13 737.39 926.99 895.48 856.16 143.71 283.76 863.32 876.90 384.86 1058.16 241.96 459.42 711.22 723.64 901.03 683.36 376.05 461.24 141.39 794.46 683.25 778.44 339.73 538.09 983.84 441.31 624.03 533.23 518.05 228.04 862.72 962.44 864.71
439.84 416.58 466.83 610.05 545.07 408.60 733.91 485.81 493.47 513.68 648.18 421.73 85.05 644.22 384.08 418.02 557.99 625.17 411.78 743.48 428.64 600.69 399.80 752.06 273.12 230.01 132.02 485.21 781.76 469.47 587.93 823.93 322.21 825.26 803.42 808.82 296.67 662.09 702.24 760.03 631.55 593.60 440.38 547.29 792.23 642.31 922.10 398.99 251.15 305.57 215.14 216.74 643.57 1012.48 762.17 346.14 539.32 737.24 148.39 713.83 711.85 357.02 435.09 942.29 307.00 574.05 426.48 579.93 210.61 829.93 104.92 502.51 563.10 411.69 281.84 423.48 265.07 493.63 560.64 401.57 795.07 562.42 615.35 358.15 732.44 599.21 704.41 253.75 590.13 851.50 639.87 100.91 565.74 788.36 882.29 153.17 658.53 107.31 395.13 753.93 476.77 439.52 365.48 366.14 174.87 276.38 439.26 183.84 448.73 448.60 224.32 468.31 464.72 497.73 566.31 218.67 505.15 296.46 804.28 246.65 186.66 527.28 462.30 705.85 382.93 865.46 525.03 502.38 72.79 646.20 250.16 443.30 363.62 731.37 871.51 410.10 786.92 223.99 537.09 790.18 850.91 438.91 258.58 741.73 670.31 930.48 631.39 795.50 343.37 711.38 802.43 574.92 190.27 549.15 642.71 921.74 378.71 523.53 90.10 817.34 392.51 389.03 931.17 799.70 802.60 0.00 683.73 799.91 212.16 467.01 500.69 490.17 671.79 797.82 281.41 301.45 568.12 525.82 565.43 745.29 258.23 229.76 587.69 504.42 468.45 831.15 810.24 674.42 854.51 720.59 613.12 301.58 571.07 658.88 246.25 641.93 801.26 648.88 751.34 752.01 299.16
1024.80 777.50 422.79 837.09 348.92 895.57 935.77 671.89 723.99 296.82 66.07 866.04 626.63 578.43 934.76 787.33 207.35 585.96 351.14 589.65 742.83 759.04 970.13 207.44 441.48 563.59 612.51 644.78 658.61 381.76 178.85 334.57 545.31 993.46 778.03 694.74 553.34 108.45 86.70 170.75 807.99 184.20 411.60 339.23 577.50 396.80 524.26 543.21 529.70 598.55 764.91 538.36 556.30 486.06 343.08 479.03 770.39 531.46 559.16 356.31 130.86 993.98 312.29 422.71 513.84 347.31 372.37 740.10 539.43 361.05 659.48 301.97 742.38 888.23 722.02 720.91 814.84 647.07 352.58 507.75 312.75 911.65 252.49 410.30 59.44 911.68 128.84 585.62 471.28 527.72 715.97 594.56 320.23 325.57 300.56 585.06 438.91 748.76 578.33 912.59 680.93 325.82 839.87 939.80 569.28 566.97 323.93 759.27 487.75 474.83 536.11 322.14 916.31 473.03 732.59 568.73 701.89 622.85 824.12 608.09 508.81 283.16 559.78 227.81 1007.14 533.11 932.49 571.81 668.16 408.59 506.37 346.42 529.23 947.22 389.90 381.64 982.19 857.33 840.41 896.63 538.88 548.26 543.18 322.36 509.93 387.23 151.59 464.51 488.06 776.45 904.56 300.81 542.21 434.74 238.16 391.42 603.00 465.72 707.02 481.60 381.85 724.71 444.09 602.90 956.64 683.73 0.00 280.33 824.32 300.82 267.76 235.42 853.44 758.72 935.46 493.89 619.41 440.51 796.50 601.27 518.83 851.56 96.04 344.96 660.99 609.36 889.60 202.69 423.91 215.80 628.52 635.84 254.73 519.20 755.43 473.14 589.99 794.23 150.34 105.47 483.20
1111.35 781.52 608.78 779.22 549.91 901.61 830.42 599.77 654.10 323.17 302.04 898.14 719.71 464.72 973.40 819.43 298.32 446.42 462.03 389.43 683.84 602.96 1015.03 96.22 608.52 738.17 672.74 517.48 516.33 420.00 281.68 64.93 571.40 835.96 673.15 535.83 608.03 285.73 237.73 109.58 795.20 285.67 434.86 578.27 391.01 289.34 261.66 547.04 737.47 786.41 805.58 693.85 411.29 248.13 123.85 637.38 708.49 307.42 707.91 196.03 195.46 1064.30 467.78 142.38 661.18 563.40 471.92 582.20 714.55 99.52 759.25 340.21 663.35 872.44 726.98 704.37 855.51 551.34 578.84 686.86 117.80 847.82 184.56 588.60 277.74 850.20 243.41 716.01 703.89 348.27 642.14 728.88 276.98 91.46 114.56 733.81 312.48 888.86 762.68 784.15 601.60 397.33 831.56 965.21 696.17 729.38 521.42 889.16 690.95 703.87 715.50 406.08 831.43 671.98 671.51 646.65 638.33 796.75 698.50 649.77 701.38 450.22 529.04 153.91 1054.44 304.96 853.16 488.96 727.12 260.43 685.76 546.07 529.99 823.10 109.57 429.22 860.96 901.40 772.24 771.79 309.51 533.71 723.99 95.12 336.51 171.48 238.22 269.33 643.55 581.11 747.53 274.08 626.78 662.91 473.38 166.94 614.69 427.34 799.11 247.49 533.04 638.43 183.79 368.79 810.13 799.91 280.33 0.00 913.31 483.09 481.02 403.41 788.04 574.66 1021.05 672.19 495.12 679.55 729.08 382.68 581.09 907.17 362.53 374.89 534.24 395.90 754.79 191.86 175.63 115.44 488.73 643.65 470.82 393.11 797.11 301.19 368.85 704.96 174.09 274.98 656.23
281.20 359.56 624.48 569.80 673.92 330.77 700.69 516.47 479.33 599.17 788.77 349.78 264.34 707.92 246.38 353.92 688.12 688.87 546.64 807.18 368.79 594.51 241.16 876.49 423.90 441.29 311.31 548.91 834.54 603.03 738.69 909.42 449.01 817.85 800.74 798.41 400.99 810.92 839.65 876.68 561.55 735.41 556.54 728.88 855.93 724.87 1006.92 498.58 449.57 458.46 153.72 346.43 735.98 1077.51 855.95 483.74 521.54 816.95 298.86 829.53 833.75 228.25 538.95 1033.82 428.17 695.22 549.98 615.27 346.13 940.94 220.90 639.52 540.32 321.78 310.76 390.71 182.06 539.15 734.36 535.27 880.56 502.33 728.75 509.25 874.06 569.40 853.24 393.69 749.77 922.02 621.71 276.16 687.86 897.28 1006.31 324.76 713.08 117.11 516.58 710.86 507.43 582.63 327.59 264.32 350.12 431.27 574.49 193.64 566.64 579.56 359.55 595.40 395.19 624.12 506.74 334.48 534.07 374.84 781.50 346.24 315.51 647.47 558.25 819.25 224.29 955.57 442.02 598.33 197.22 762.18 389.29 572.15 430.90 713.59 936.54 513.83 788.22 65.35 537.82 730.17 918.67 538.50 436.09 827.22 759.82 1015.97 782.15 914.67 454.72 756.80 732.43 707.28 375.54 717.75 771.56 1002.25 455.40 621.83 140.90 892.83 521.36 431.83 1022.72 868.33 737.39 212.16 824.32 913.31 0.00 635.09 568.29 619.02 628.72 795.32 152.48 440.58 631.82 640.78 495.43 808.99 400.04 71.12 728.28 608.66 536.21 898.91 792.46 787.82 944.27 857.72 676.95 398.96 695.12 698.88 198.90 764.76 854.08 631.10 857.45 900.84 433.56
854.49 687.56 165.05 761.01 127.02 799.32 922.60 627.70 679.23 337.60 247.30 760.79 417.07 608.37 786.43 685.13 263.05 604.45 286.75 635.81 667.08 713.46 810.80 386.87 272.76 340.03 409.25 609.09 764.39 337.00 215.85 514.00 448.07 981.81 838.57 800.52 482.07 292.90 322.73 387.95 790.11 230.79 336.26 172.38 673.22 476.95 703.69 467.46 335.10 369.95 619.36 325.77 553.05 701.29 497.79 258.00 777.71 630.43 402.01 490.99 333.94 780.82 106.75 625.47 263.04 119.30 297.48 718.52 335.62 548.59 460.80 353.66 697.62 766.25 613.31 645.16 643.53 600.14 170.37 282.71 492.18 850.39 391.93 172.50 303.26 838.34 335.22 354.70 262.37 722.75 749.65 366.10 409.24 518.52 529.94 389.34 526.56 543.22 279.59 885.37 626.14 308.24 693.16 768.49 356.12 343.88 100.84 560.28 261.66 255.16 315.78 269.10 826.37 252.50 670.99 364.12 661.38 399.76 859.14 477.35 359.82 65.49 521.05 417.39 797.58 696.92 830.47 521.16 484.19 476.23 307.38 119.32 431.93 911.50 569.52 253.94 977.82 691.00 774.81 916.67 699.27 503.50 325.85 471.18 576.89 588.48 259.31 600.13 270.24 769.60 895.52 390.32 340.38 221.39 203.37 595.57 511.56 425.21 506.06 621.97 180.89 638.33 648.24 667.65 926.99 467.01 300.82 483.09 635.09 0.00 66.80 97.98 855.44 804.97 736.47 256.09 642.81 215.23 784.53 668.91 366.33 696.77 237.36 348.77 607.04 719.39 924.62 348.15 603.34 424.57 618.39 560.44 104.06 515.95 597.86 557.52 657.12 808.81 379.26 370.58 260.11
817.32 657.52 155.03 730.97 178.87 736.17 905.35 605.14 645.36 327.21 245.98 697.64 430.45 589.90 734.15 655.09 244.27 570.85 255.55 639.56 618.63 646.66 780.19 411.39 242.80 336.78 383.48 542.29 756.99 357.77 229.21 529.95 443.30 951.77 840.40 760.99 452.03 306.59 307.42 371.44 760.07 214.27 347.54 219.47 654.78 426.66 692.50 457.89 305.14 359.93 564.30 302.78 595.02 666.31 457.96 229.76 747.89 587.75 358.21 481.07 325.57 755.05 76.71 621.50 273.66 182.25 234.32 667.42 305.66 542.95 442.49 286.86 655.98 705.16 583.35 596.71 614.23 607.43 206.12 239.99 482.57 804.45 375.41 142.54 316.95 789.83 301.52 324.74 328.59 694.23 690.67 404.31 350.09 499.29 480.81 355.10 483.88 513.18 343.99 893.11 596.10 266.43 630.01 739.19 330.35 316.12 93.70 530.32 253.41 240.49 307.16 272.85 776.83 236.87 657.05 300.97 628.05 392.62 839.93 443.07 333.67 79.18 529.23 397.90 760.41 688.21 800.43 539.56 464.72 415.16 277.42 84.60 401.89 881.46 583.40 272.34 946.31 633.64 765.24 874.86 690.56 497.81 318.62 429.23 567.35 571.96 242.80 591.42 237.29 748.36 899.12 369.51 310.42 288.19 226.14 585.57 444.76 423.66 439.26 613.26 114.09 571.53 638.24 660.10 895.48 500.69 267.76 481.02 568.29 66.80 0.00 101.73 823.02 771.37 690.94 226.13 604.30 261.74 761.09 607.84 323.51 639.41 196.82 329.85 559.05 704.80 902.71 365.56 587.38 429.05 622.14 521.89 126.83 572.96 553.49 511.45 643.35 752.96 371.06 356.14 235.02
822.91 623.23 237.08 746.54 207.49 741.75 824.62 564.97 598.27 260.37 199.87 703.22 421.33 560.22 793.47 624.51 165.07 541.17 227.23 537.83 617.11 641.91 821.13 309.66 239.59 392.35 410.62 551.55 720.08 256.04 148.19 436.79 421.40 911.60 740.59 724.08 467.07 251.45 258.37 309.34 763.20 133.25 275.43 259.37 605.91 378.97 626.48 417.49 368.31 395.19 623.62 339.88 548.77 610.27 429.53 283.41 703.88 535.48 373.02 400.05 263.47 791.28 113.81 540.48 315.36 213.23 206.00 652.78 334.13 460.83 461.41 257.18 616.66 731.22 608.85 595.19 666.69 526.37 263.47 332.89 413.15 791.96 294.39 205.71 285.16 806.33 267.66 384.44 360.35 624.77 673.69 389.26 311.26 439.49 452.73 391.57 431.61 550.28 377.57 804.41 558.83 210.26 674.00 791.65 366.58 381.96 164.34 569.73 355.14 342.22 346.57 171.12 762.04 329.14 626.21 344.96 586.77 421.34 786.68 488.30 303.51 107.80 440.09 325.34 801.84 598.94 805.53 480.17 466.27 378.25 316.83 186.33 389.03 843.36 492.31 249.54 906.99 684.37 720.72 818.69 601.29 422.54 378.17 404.44 513.14 490.94 180.70 502.15 289.58 671.62 797.54 292.34 340.32 319.37 254.76 504.55 491.56 350.60 530.98 523.99 158.08 583.25 557.22 569.67 856.16 490.17 235.42 403.41 619.02 97.98 101.73 0.00 781.74 741.69 734.93 289.30 565.54 294.09 714.00 570.93 310.89 687.55 139.38 275.16 541.30 626.19 852.16 284.54 524.31 348.42 520.41 523.38 155.45 516.79 597.48 474.54 586.42 748.21 311.60 326.09 298.19
793.10 347.80 889.69 116.47 897.51 451.64 82.33 235.57 210.27 600.04 815.16 413.11 626.19 325.54 536.03 385.71 673.88 344.59 609.37 480.91 312.68 193.30 576.14 761.21 672.28 805.10 620.72 336.60 371.41 530.51 753.91 748.71 415.20 204.01 274.26 407.54 478.97 826.14 811.61 759.70 98.41 745.45 521.20 971.30 488.97 571.22 680.73 393.19 829.85 876.63 541.00 742.69 390.20 839.99 664.19 805.74 132.47 534.25 717.00 592.01 722.58 695.72 748.69 788.08 828.13 926.82 606.54 210.91 721.99 756.53 631.13 600.89 188.48 424.33 418.28 316.77 545.85 279.56 957.95 914.43 707.78 265.67 675.57 735.03 856.15 193.80 808.92 778.70 1039.73 542.44 165.26 676.86 615.47 719.61 845.15 706.09 475.56 744.72 934.21 82.14 229.30 595.93 437.86 537.72 673.85 818.49 754.62 764.11 936.07 923.15 731.72 610.62 374.05 945.05 184.47 579.39 194.97 838.89 252.21 481.04 722.47 872.15 357.58 745.24 742.53 615.50 318.53 348.16 599.00 558.23 746.63 795.74 423.51 104.13 699.02 603.52 194.54 620.74 190.09 118.39 573.57 365.59 833.67 692.92 468.76 835.93 765.48 602.56 827.96 228.08 135.33 610.71 620.45 1005.14 971.71 764.73 378.26 431.14 654.53 580.72 730.37 344.17 778.07 459.42 143.71 671.79 853.44 788.04 628.72 855.44 823.02 781.74 0.00 304.69 753.56 746.91 337.22 928.17 133.29 481.13 581.23 614.97 846.55 590.68 321.42 481.03 190.51 650.75 697.08 722.45 325.39 404.49 875.67 417.96 529.41 509.88 476.17 87.00 776.90 829.82 734.72
963.76 585.40 913.08 386.69 877.70 676.54 355.02 387.15 391.21 511.92 729.52 638.01 746.27 219.57 753.90 582.06 607.22 200.52 593.36 225.28 436.87 299.06 793.36 581.68 777.38 911.60 777.52 335.68 109.00 552.59 681.07 557.92 511.81 288.77 105.82 124.49 597.78 712.48 680.91 612.79 403.10 678.79 490.82 943.97 206.69 425.66 458.45 434.64 934.17 974.55 709.45 848.90 284.23 625.49 490.11 854.48 373.92 315.24 825.05 427.72 653.17 925.42 772.08 593.49 859.48 907.01 604.04 292.93 828.20 526.86 772.31 484.51 304.29 632.23 573.05 458.79 716.92 385.06 939.70 916.04 509.54 527.03 586.34 815.77 736.31 464.02 670.89 885.34 1051.37 334.59 255.05 797.24 502.23 483.20 648.53 841.82 392.09 875.40 988.82 307.34 386.10 547.50 634.60 736.31 788.45 921.78 762.77 925.22 963.19 976.11 841.62 570.57 558.82 965.40 288.58 700.59 349.74 945.10 137.37 586.98 797.58 784.03 371.72 558.61 906.85 382.03 550.84 331.64 782.10 384.66 852.73 813.13 528.61 332.49 502.40 573.14 332.35 818.46 451.45 252.25 351.29 434.05 922.29 518.84 326.33 623.22 682.01 346.65 895.85 86.44 254.25 504.74 741.65 1026.36 883.59 568.11 471.14 485.40 777.29 327.17 746.79 498.45 525.08 242.93 283.76 797.82 758.72 574.66 795.32 804.97 771.37 741.69 304.69 0.00 947.80 817.11 263.40 973.22 347.81 191.98 685.25 821.52 749.28 520.69 329.37 257.36 180.13 581.34 432.33 542.92 237.65 548.27 831.68 289.02 660.09 359.04 243.12 266.27 640.35 729.32 838.01
207.64 439.66 662.53 676.38 746.00 406.64 819.41 615.27 627.61 728.56 881.74 445.17 366.46 824.54 361.71 434.02 781.69 805.49 623.22 924.06 517.07 735.52 275.79 944.37 506.33 482.85 413.43 689.53 982.82 666.77 805.84 1037.66 589.17 943.78 926.33 946.69 503.20 885.86 916.02 966.99 687.48 790.90 612.03 766.42 931.15 846.81 1087.02 600.79 467.76 464.19 306.20 449.90 826.40 1199.45 974.23 548.57 621.09 938.89 380.59 922.79 889.24 181.48 663.36 1149.57 491.12 758.17 605.47 714.76 443.77 1003.07 342.84 737.91 692.80 460.62 390.86 535.47 262.16 663.70 779.77 598.22 1009.95 591.86 852.06 563.97 956.21 649.50 928.18 450.03 769.55 1051.34 765.26 382.32 775.86 996.25 1068.49 386.33 835.02 226.89 555.81 835.70 624.31 676.20 409.34 343.77 416.87 473.34 639.15 176.19 630.79 643.71 424.21 683.41 510.33 687.07 659.22 389.97 614.17 507.95 933.98 448.45 450.10 770.12 663.33 942.56 199.14 1077.51 522.12 679.65 331.88 871.83 429.09 677.68 554.28 802.67 1058.48 607.40 914.15 145.45 617.92 856.10 1055.23 629.06 454.28 956.61 872.11 1144.21 838.35 1029.30 527.49 882.73 858.36 772.81 431.03 757.67 877.09 1108.92 535.50 735.43 262.84 1014.77 576.85 533.97 1139.06 967.39 863.32 281.41 935.46 1021.05 152.48 736.47 690.94 734.93 753.56 947.80 0.00 480.38 757.96 713.55 621.36 949.61 455.53 139.68 862.87 696.27 672.77 988.11 892.01 873.49 1066.21 905.61 803.09 488.61 805.85 828.20 301.11 886.70 967.58 730.65 943.56 975.78 486.18
627.84 585.19 242.19 731.51 294.18 612.47 829.24 526.65 602.98 437.04 458.91 599.78 224.17 634.66 544.33 562.42 380.31 616.59 299.02 645.44 544.47 656.27 579.32 582.41 83.50 148.89 177.20 563.36 821.13 428.10 421.89 709.54 364.81 901.78 852.68 791.91 366.27 499.89 505.84 581.97 747.63 422.55 376.40 324.26 733.27 552.64 839.01 417.37 134.21 187.57 426.46 108.21 609.79 810.99 612.17 84.69 660.78 663.27 153.06 608.71 487.62 575.00 204.41 780.85 102.29 311.12 295.28 658.08 105.91 691.43 260.12 415.92 648.91 617.08 450.45 526.50 476.39 541.84 337.61 180.49 655.37 741.07 532.66 83.59 543.08 762.10 463.70 98.61 385.71 748.36 700.28 210.82 479.15 647.77 706.94 163.35 559.40 348.91 220.55 829.05 517.61 362.88 542.90 526.39 150.30 104.83 180.33 304.19 210.10 223.02 81.03 368.05 646.66 272.94 615.13 213.86 565.74 179.35 885.67 354.70 125.07 305.31 445.39 538.11 604.68 788.82 724.46 485.47 291.29 536.15 51.29 197.30 323.40 851.04 726.59 294.08 927.73 475.55 692.76 865.30 802.17 457.29 128.73 640.90 628.90 731.31 465.35 712.41 94.02 783.71 882.24 489.72 184.23 344.73 396.71 765.21 434.97 501.67 311.02 734.25 145.59 481.43 790.58 740.51 876.90 301.45 493.89 672.19 440.58 256.09 226.13 289.30 746.91 817.11 480.38 0.00 587.37 267.76 683.48 686.33 239.84 481.32 408.22 388.91 546.60 783.29 910.97 559.45 741.59 556.75 632.50 440.92 333.55 646.89 404.96 603.82 725.26 762.57 541.94 522.13 21.06
789.44 386.09 713.31 303.80 705.62 524.57 386.82 190.22 225.17 357.79 555.81 486.93 513.77 81.93 580.41 408.22 453.09 62.88 421.68 175.36 263.03 169.37 630.45 459.63 553.86 688.08 535.71 82.91 262.65 326.03 535.60 481.91 282.07 436.32 265.31 281.46 368.04 588.80 588.62 521.43 325.30 520.78 328.13 759.67 263.19 304.07 427.10 229.05 710.71 759.65 544.51 636.42 110.81 610.04 381.11 632.26 233.07 246.65 583.61 321.18 546.63 734.01 605.99 550.58 649.49 726.99 432.41 190.13 615.72 447.32 557.50 317.44 168.23 470.59 381.58 284.95 519.85 148.05 746.32 712.45 430.00 402.83 451.23 601.90 627.80 357.90 546.48 672.74 890.05 366.58 210.80 564.74 380.64 403.66 563.13 609.51 245.61 675.43 774.10 407.19 197.70 380.43 460.76 562.47 588.84 658.38 600.08 713.85 745.03 732.11 629.14 403.50 489.03 769.97 202.01 479.19 214.26 731.79 311.40 381.39 585.10 629.90 141.98 453.79 732.53 392.36 419.13 121.65 564.28 286.59 631.10 646.06 305.09 403.21 469.07 388.87 435.69 626.99 327.25 346.52 377.64 212.65 697.23 409.84 171.67 586.75 516.23 300.50 632.49 196.34 322.26 367.10 518.74 855.18 720.62 523.21 299.11 275.41 530.84 317.41 511.11 248.04 482.17 271.49 384.86 568.12 619.41 495.12 631.82 642.81 604.30 565.54 337.22 263.40 757.96 587.37 0.00 804.96 259.18 216.25 462.81 632.76 582.21 360.43 99.67 300.10 323.60 474.80 433.77 485.89 45.13 340.10 638.30 147.91 495.15 193.93 255.18 250.22 544.84 604.91 574.61
838.58 786.33 107.77 895.30 164.97 827.17 1010.50 707.91 784.24 528.29 411.31 817.44 448.80 805.83 803.56 748.42 459.16 802.15 425.11 814.98 768.15 837.53 827.40 583.33 324.25 295.81 419.81 722.05 967.99 517.03 431.08 710.46 546.07 1083.04 1033.92 952.13 582.70 474.82 487.19 583.89 924.40 423.05 482.40 101.28 880.98 622.62 873.81 598.63 283.85 259.61 633.71 334.28 759.78 871.09 698.05 225.52 861.83 759.08 409.08 666.66 514.15 814.67 241.04 787.80 222.43 154.36 403.88 847.59 341.83 745.05 492.53 518.16 828.29 834.89 685.43 776.33 683.64 746.76 114.63 139.47 688.64 950.53 524.69 283.80 496.60 969.06 508.06 306.45 117.95 900.52 863.33 435.66 572.24 708.86 691.62 397.84 655.21 538.91 178.45 1010.31 698.87 471.24 782.96 794.15 389.97 249.44 260.54 537.36 92.54 88.59 316.95 432.10 872.73 37.27 796.39 453.92 747.00 320.87 1062.46 590.62 355.69 264.66 667.77 589.74 815.32 841.45 929.44 706.82 476.38 641.36 319.05 189.54 504.66 1032.30 765.98 447.42 1108.99 703.43 874.97 1046.56 876.23 638.55 281.95 686.41 781.06 738.26 455.25 796.24 186.06 965.71 1063.50 564.10 412.86 76.97 281.29 788.78 604.06 572.13 539.81 799.74 293.85 730.83 837.38 863.76 1058.16 525.82 440.51 679.55 640.78 215.23 261.74 294.09 928.17 973.22 713.55 267.76 804.96 0.00 864.74 834.04 430.76 697.66 414.26 521.98 738.81 913.10 1082.47 563.38 749.94 593.38 814.50 639.01 222.65 731.18 629.11 706.89 851.42 941.59 550.83 489.17 279.30
696.15 303.42 826.26 74.37 842.91 365.31 205.26 156.83 115.73 531.90 768.48 339.33 557.30 301.71 435.49 265.51 627.20 282.66 530.63 434.54 179.39 163.07 485.53 703.55 608.85 698.74 535.39 235.81 404.70 457.96 704.90 719.10 336.46 322.42 331.35 440.83 345.68 774.03 767.21 734.66 66.12 697.87 480.30 903.67 504.24 492.48 686.28 342.08 732.63 774.30 463.01 644.17 353.58 846.43 605.23 729.51 26.11 487.48 638.26 565.42 730.85 618.50 685.26 800.18 730.69 858.43 543.11 152.40 623.47 696.42 524.77 494.53 109.77 311.33 322.17 192.34 437.37 205.26 909.50 799.97 679.10 179.22 655.15 656.29 833.89 121.12 752.57 650.38 982.69 591.11 191.16 589.61 552.04 652.76 787.25 620.76 494.16 612.54 850.22 215.43 165.87 522.57 318.05 417.55 588.52 690.30 713.70 658.77 849.77 859.72 625.36 561.61 280.83 883.17 143.55 473.03 145.96 728.95 350.95 374.68 616.11 804.01 294.15 658.73 646.39 616.21 203.03 282.66 492.64 492.86 655.10 757.82 360.08 218.16 717.62 530.59 292.79 487.45 103.64 234.74 583.49 302.16 727.31 633.96 430.85 810.87 689.54 559.68 754.03 261.37 237.00 571.46 514.09 941.71 897.71 765.98 316.38 382.13 565.16 576.59 651.66 242.43 741.35 508.09 241.96 565.43 796.50 729.08 495.43 784.53 761.09 714.00 133.29 347.81 621.36 683.48 259.18 864.74 0.00 457.30 517.80 481.68 759.30 527.25 252.57 514.32 297.03 659.02 690.81 664.79 294.55 336.48 810.21 371.16 424.83 443.03 514.36 135.67 751.11 801.48 665.83
966.61 534.51 734.00 510.57 712.10 675.79 542.97 367.39 441.42 369.87 564.41 637.26 710.73 155.59 757.58 572.42 447.58 174.64 473.22 40.89 440.20 305.07 807.62 422.87 602.83 778.15 712.88 260.08 149.15 389.59 489.09 369.47 454.25 480.75 297.80 153.15 540.22 528.09 514.57 462.07 499.18 501.21 451.36 768.85 46.94 233.68 281.27 401.23 760.40 816.35 721.68 730.76 176.86 454.24 309.50 702.43 449.32 130.85 746.53 265.24 485.93 882.43 593.00 401.51 758.68 741.41 451.99 325.83 718.78 334.88 733.96 372.91 367.07 647.76 558.75 462.12 697.02 325.22 755.50 812.08 317.56 589.10 403.57 691.70 544.33 555.74 517.64 747.68 876.30 172.50 349.08 755.04 310.25 291.22 469.87 755.97 200.11 852.60 858.11 492.93 374.87 435.90 624.96 739.64 681.08 749.04 625.39 905.66 843.05 848.33 709.81 407.24 673.32 802.07 392.84 651.37 378.87 828.42 329.35 553.57 691.81 641.98 314.16 398.86 909.70 202.15 626.43 305.76 736.20 192.68 680.07 649.80 477.27 506.17 323.74 492.24 510.25 804.16 513.52 421.08 186.09 384.83 773.88 338.23 135.46 451.05 490.03 154.67 744.88 278.42 396.82 329.67 682.15 864.36 726.47 385.77 474.54 397.37 708.01 135.19 626.65 425.21 333.10 71.68 459.42 745.29 601.27 382.68 808.99 668.91 607.84 570.93 481.13 191.98 949.61 686.33 216.25 834.04 457.30 0.00 600.83 809.93 583.29 415.90 276.84 96.96 372.11 418.86 251.55 411.09 201.28 517.27 689.63 182.18 672.32 167.06 64.46 395.83 450.93 560.43 665.27
597.31 434.03 404.12 578.75 412.00 479.88 663.56 360.97 437.30 294.83 453.50 462.23 173.18 503.78 532.46 427.76 326.16 484.73 167.69 575.77 421.21 490.59 583.33 528.26 156.34 291.27 176.77 410.13 692.45 211.24 350.31 605.08 199.13 736.10 711.60 667.35 175.78 467.31 460.49 511.46 583.92 335.37 217.86 483.49 593.87 405.57 706.33 251.69 313.91 336.69 367.44 219.77 481.11 765.43 524.66 249.67 512.48 525.07 215.14 467.26 465.59 537.19 263.12 723.47 307.88 430.41 188.92 486.00 205.80 584.38 216.91 282.38 483.23 469.75 344.46 418.79 417.37 399.82 472.44 336.86 567.06 584.63 396.53 249.79 513.82 622.12 498.26 267.03 519.14 643.58 534.60 215.02 345.61 540.72 655.78 232.55 470.08 329.97 405.35 663.37 351.93 220.67 394.60 542.33 157.66 284.00 265.49 343.43 427.31 418.26 217.89 259.81 541.42 393.49 449.45 65.56 400.06 322.70 723.14 191.72 184.36 402.69 320.83 487.03 540.40 646.61 590.98 353.61 240.30 446.57 200.41 310.23 157.72 685.36 628.23 151.87 762.05 465.39 509.05 699.62 652.71 251.20 319.84 522.88 512.43 693.06 382.82 579.73 292.12 619.56 716.56 347.51 81.91 507.73 509.64 666.27 269.29 310.61 287.05 601.57 209.42 359.35 683.53 591.78 711.22 258.23 518.83 581.09 400.04 366.33 323.51 310.89 581.23 685.25 455.53 239.84 462.81 430.76 517.80 600.83 0.00 461.58 422.79 246.70 393.37 648.30 691.15 455.60 621.91 511.92 507.94 258.28 446.48 493.73 318.08 434.01 608.53 596.89 513.72 540.75 218.78
221.62 299.98 651.59 536.70 703.58 266.96 679.73 475.59 494.17 670.29 812.80 305.49 288.40 684.86 239.10 294.34 671.52 665.81 574.19 784.38 413.87 595.84 170.04 873.62 447.96 459.77 335.37 549.85 871.39 594.32 758.03 957.29 449.49 804.10 813.03 843.49 363.52 846.73 842.97 893.94 547.80 743.09 598.16 769.19 845.79 718.81 947.34 461.11 480.91 529.58 172.41 415.13 704.92 1108.20 875.93 494.09 507.79 799.36 369.98 803.75 848.07 157.13 610.07 1049.55 499.29 732.89 580.02 575.08 409.00 950.18 253.41 672.81 569.43 320.94 251.18 395.79 122.48 524.02 775.60 606.39 896.54 452.18 763.84 548.22 898.09 509.82 880.74 462.39 803.49 911.66 625.58 330.67 683.90 906.52 968.84 351.56 777.78 188.23 587.70 697.11 484.63 634.67 269.66 229.07 388.50 499.97 635.56 264.29 617.63 630.55 430.67 666.52 384.68 682.34 535.65 405.60 474.49 445.96 799.09 308.77 386.63 718.59 523.65 838.69 164.71 955.37 382.44 563.73 221.28 759.81 430.03 643.27 429.01 662.99 987.87 576.72 774.47 5.77 478.24 716.42 915.55 493.89 488.34 865.76 732.43 1063.84 765.30 903.30 525.84 743.05 718.68 703.32 420.03 774.63 809.78 1002.48 395.82 596.67 212.02 881.46 571.91 394.29 1049.33 860.47 723.64 229.76 851.56 907.17 71.12 696.77 639.41 687.55 614.97 821.52 139.68 481.32 632.76 697.66 481.68 809.93 461.58 0.00 799.40 640.86 533.09 895.79 778.71 806.17 971.88 871.13 677.76 385.38 766.24 688.52 161.43 751.65 843.72 617.35 892.69 893.21 476.29
962.29 681.46 351.85 799.89 286.81 808.53 928.88 616.36 672.27 276.01 60.49 770.00 530.59 567.81 880.61 691.29 180.71 548.76 255.10 577.63 671.22 715.63 909.42 283.19 378.97 467.55 526.37 566.63 720.57 344.56 94.20 389.95 449.27 954.84 823.69 720.41 506.98 112.07 170.42 262.21 770.79 109.14 326.95 320.36 595.91 376.67 548.34 499.90 433.66 502.51 717.22 464.09 550.72 540.49 374.94 422.79 733.19 511.66 482.28 369.34 183.95 897.94 253.19 457.20 454.74 316.12 276.33 694.87 443.39 355.36 574.32 264.77 705.18 798.00 654.70 649.30 742.15 609.87 333.71 423.82 388.50 845.32 270.28 325.79 145.78 873.64 128.28 500.53 452.41 580.81 689.33 498.52 314.65 378.66 372.42 500.83 423.49 689.66 516.95 891.77 621.73 250.62 743.83 862.67 473.24 470.93 227.89 686.68 450.23 437.31 442.83 237.49 820.27 376.99 695.39 484.34 651.58 526.81 817.84 520.52 412.77 187.12 493.45 272.40 911.10 575.59 870.14 533.53 597.71 390.61 444.25 252.53 451.12 920.58 412.87 287.91 924.53 793.63 774.08 821.57 535.79 511.06 447.14 346.21 516.00 407.66 133.57 517.60 423.53 739.25 845.83 295.23 479.70 415.87 251.65 437.18 519.43 415.41 636.08 500.64 297.46 640.02 489.85 593.64 901.03 587.69 96.04 362.53 728.28 237.36 196.82 139.38 846.55 749.28 862.87 408.22 582.21 414.26 759.30 583.29 422.79 799.40 0.00 307.76 583.39 601.52 883.32 223.18 456.18 247.09 603.51 561.64 234.77 513.62 667.86 435.87 592.57 767.59 221.37 186.71 387.16
838.05 543.17 426.20 560.19 357.01 622.50 673.01 370.42 411.92 55.67 292.25 583.97 419.88 339.22 682.37 505.26 150.97 320.17 127.64 384.65 409.34 466.55 716.34 284.31 305.41 472.50 423.47 351.07 518.14 83.24 223.25 365.92 280.37 753.48 570.37 536.93 317.00 313.84 317.00 318.35 549.01 222.54 145.01 439.40 460.31 182.79 459.63 244.69 462.98 510.70 528.79 417.14 344.07 531.92 277.96 385.15 511.41 343.88 432.91 240.36 233.86 776.77 318.87 490.32 448.48 386.32 138.37 445.79 408.81 372.50 463.61 42.99 443.86 611.97 458.78 422.39 549.07 353.57 433.24 437.73 337.06 584.97 190.33 353.92 377.54 566.72 320.20 450.26 571.45 455.65 484.87 438.51 106.22 328.84 412.10 454.83 240.01 569.16 540.83 631.61 361.38 64.90 557.80 674.03 379.94 451.62 322.19 572.95 497.47 510.39 404.16 104.04 663.16 491.46 453.41 306.30 405.06 515.98 589.25 336.83 378.19 327.78 233.10 279.07 781.14 429.82 612.94 256.38 487.00 223.22 374.42 339.19 238.96 670.56 409.79 94.83 734.19 646.63 513.73 673.33 432.17 231.70 476.46 283.72 308.44 472.47 266.71 333.03 427.60 510.66 666.44 100.81 328.61 533.59 397.27 459.26 329.77 168.89 467.76 354.87 247.55 412.93 471.65 431.88 683.36 504.42 344.96 374.89 608.66 348.77 329.85 275.16 590.68 520.69 696.27 388.91 360.43 521.98 527.25 415.90 246.70 640.86 307.76 0.00 334.31 403.35 654.73 209.40 407.38 268.21 389.31 372.15 375.43 338.95 479.43 274.11 436.22 544.03 288.18 341.10 367.85
722.66 319.94 647.16 297.00 672.60 450.94 379.45 104.12 176.27 364.17 595.96 416.39 467.41 175.77 514.26 342.07 459.47 156.72 350.59 275.03 196.88 132.24 564.30 484.50 484.42 618.64 469.56 16.76 362.19 285.26 520.11 538.77 226.95 456.51 334.97 375.30 312.92 589.29 595.70 515.61 318.69 531.04 287.36 719.03 323.78 314.81 489.62 148.86 641.99 694.20 444.84 555.73 203.17 630.05 410.39 617.88 237.77 336.36 540.19 343.26 568.17 667.86 539.84 581.13 640.27 665.95 371.82 111.48 542.42 516.08 489.76 365.05 179.00 404.44 281.91 214.75 453.07 55.69 717.02 671.68 490.46 352.17 449.98 546.78 653.61 352.51 573.71 599.56 829.47 413.57 171.42 516.13 341.80 472.42 592.41 554.93 265.62 575.76 746.35 373.86 98.03 378.64 394.61 496.32 522.69 630.63 559.31 652.29 720.42 733.34 555.84 413.59 422.99 703.82 145.22 420.05 142.68 657.95 360.32 301.20 511.80 636.28 101.21 484.21 665.75 423.34 349.59 122.04 490.96 273.81 561.66 612.75 235.65 387.41 489.08 353.10 426.88 527.32 276.59 366.84 382.46 153.51 647.21 439.12 251.37 616.03 555.54 400.17 621.49 242.93 368.47 361.22 461.11 789.40 731.58 554.79 212.19 243.28 464.69 412.03 444.96 181.26 575.26 332.12 376.05 468.45 660.99 534.24 536.21 607.04 559.05 541.30 321.42 329.37 672.77 546.60 99.67 738.81 252.57 276.84 393.37 533.09 583.39 334.31 0.00 362.70 376.59 496.88 496.81 445.74 144.67 247.74 663.59 190.43 395.48 262.69 332.81 234.42 532.06 632.14 546.86
1053.88 631.47 829.55 545.77 759.33 772.75 557.70 449.77 500.52 445.71 553.47 734.22 782.77 218.17 854.54 669.38 530.89 237.22 530.99 137.85 537.16 400.35 904.58 415.70 699.79 875.11 760.86 357.04 150.97 437.06 511.41 357.42 534.52 512.70 344.99 187.10 571.15 552.44 545.62 459.46 565.78 515.40 498.83 821.92 56.96 330.64 227.04 464.26 857.36 913.31 807.54 820.49 251.06 415.46 309.26 788.50 508.81 154.61 825.44 286.02 478.50 979.39 689.96 388.05 851.83 788.64 541.72 382.52 803.42 322.83 807.63 446.34 464.03 744.72 644.61 557.45 793.98 418.39 808.57 841.08 333.17 681.93 429.05 757.27 613.73 623.10 564.84 817.11 927.87 81.64 421.56 788.03 407.21 327.97 456.53 819.29 257.89 922.98 938.38 473.85 440.73 468.25 709.70 836.60 755.28 846.00 700.28 929.42 900.82 913.74 806.77 504.20 725.33 894.81 462.31 697.42 468.57 897.85 369.88 613.35 781.54 717.82 407.44 405.54 1006.66 159.42 692.29 368.34 783.43 289.64 777.03 742.54 493.11 507.99 310.40 498.18 512.07 890.02 606.35 422.90 135.06 456.49 870.84 300.78 192.94 437.59 467.95 162.99 830.95 252.95 398.64 424.68 730.21 886.89 749.93 365.22 545.80 443.91 784.55 171.94 650.90 522.17 361.83 56.52 461.24 831.15 609.36 395.90 898.91 719.39 704.80 626.19 481.03 257.36 988.11 783.29 300.10 913.10 514.32 96.96 648.30 895.79 601.52 403.35 362.70 0.00 435.36 423.81 222.01 444.01 268.26 594.42 700.55 213.96 758.18 214.29 62.27 428.94 490.62 585.74 762.23
939.10 538.31 990.82 292.57 998.27 608.26 211.26 412.01 377.54 658.90 861.80 582.28 804.57 353.61 684.62 509.95 754.20 334.56 720.38 405.41 456.29 306.72 712.13 754.21 845.95 943.55 793.58 360.42 284.39 649.63 799.49 724.61 591.64 165.45 111.57 275.76 642.71 876.78 851.83 775.66 288.92 784.55 651.73 1026.66 386.82 564.83 626.35 525.45 977.44 1019.11 731.51 883.36 418.27 772.86 657.13 940.82 270.92 493.30 884.68 607.85 773.93 867.63 883.50 756.14 973.09 1009.61 741.61 325.83 862.66 706.99 769.58 618.55 306.66 554.28 604.03 434.37 681.81 425.56 1013.31 1028.01 689.67 373.73 710.58 894.99 916.44 329.79 843.42 924.55 1140.49 514.72 265.89 834.42 641.40 663.33 828.66 874.33 502.37 893.32 1095.03 137.75 402.97 680.55 562.49 666.68 814.52 917.89 910.59 900.80 1068.63 1055.71 870.17 704.61 521.27 1047.48 340.44 717.84 385.48 979.56 65.48 619.49 860.92 931.01 465.58 676.98 914.44 516.82 443.47 445.25 737.45 564.79 891.56 896.50 597.18 176.70 682.53 712.47 175.08 784.48 368.46 72.12 522.76 529.50 972.12 668.86 469.61 803.35 792.29 526.78 956.09 182.87 86.09 638.78 758.90 1122.17 973.20 740.40 530.89 599.01 771.74 507.30 788.62 511.44 687.73 423.06 141.39 810.24 889.60 754.79 792.46 924.62 902.71 852.16 190.51 180.13 892.01 910.97 323.60 1082.47 297.03 372.11 691.15 778.71 883.32 654.73 376.59 435.36 0.00 719.10 612.46 715.45 331.75 578.16 961.90 408.67 705.51 500.59 423.25 240.82 788.19 881.17 898.21
998.85 689.73 513.20 691.75 457.57 776.12 733.08 522.41 587.68 202.83 195.29 756.08 611.60 424.38 829.38 677.37 180.75 443.43 336.54 420.37 569.01 592.34 887.81 115.18 514.31 635.73 564.63 483.23 550.90 259.97 148.39 231.88 447.48 839.41 668.55 564.19 510.20 188.65 160.86 108.95 697.89 151.29 299.99 482.57 435.18 233.13 362.38 369.39 620.64 669.58 699.48 580.34 399.49 355.58 151.76 567.95 644.97 356.12 581.66 153.62 71.83 901.47 398.35 317.46 588.46 467.45 324.63 608.36 559.64 226.51 621.15 219.69 607.90 767.66 554.99 547.09 749.41 473.98 469.22 564.90 176.37 752.32 59.07 490.25 205.40 735.12 158.17 581.63 610.52 392.96 636.35 585.46 158.63 193.09 239.30 586.39 267.28 745.89 627.74 732.89 519.55 249.35 713.21 833.03 511.50 595.00 448.88 697.30 568.88 555.96 584.52 271.21 827.69 546.49 574.12 515.70 513.06 662.37 653.62 521.73 564.45 376.25 416.52 103.14 948.28 373.00 771.11 419.47 601.63 226.18 582.25 436.82 432.16 754.88 277.20 303.73 820.59 800.40 676.74 769.14 388.26 383.26 607.16 123.03 361.00 328.20 154.60 319.89 574.12 609.02 747.75 139.21 523.75 569.54 396.51 249.86 471.37 276.89 673.62 298.05 415.47 553.61 302.53 415.50 794.46 674.42 202.69 191.86 787.82 348.15 365.56 284.54 650.75 581.34 873.49 559.45 474.80 563.38 659.02 418.86 455.60 806.17 223.18 209.40 496.88 423.81 719.10 0.00 281.18 76.42 474.47 511.47 383.95 362.39 668.56 280.87 398.75 664.62 126.15 179.07 549.22
1116.92 780.71 733.42 731.26 629.84 899.23 779.41 572.51 627.05 372.48 426.54 861.59 795.09 407.14 936.18 782.88 402.74 423.36 517.93 258.41 637.69 556.62 1005.11 216.47 676.65 826.84 760.52 511.63 372.98 410.67 429.31 135.41 567.51 704.83 538.15 404.70 653.48 410.37 361.87 278.27 746.92 420.51 472.44 648.66 259.88 294.91 240.48 516.34 792.95 842.02 862.80 775.47 354.59 229.36 129.42 747.14 664.70 218.54 791.24 195.22 303.08 1048.42 592.42 166.04 773.56 619.87 496.70 577.38 767.14 100.82 803.10 394.22 600.85 845.25 730.25 659.61 899.87 524.08 635.31 783.34 111.16 800.10 302.78 670.66 449.37 783.40 368.05 821.50 780.71 217.14 577.59 805.94 330.99 108.37 234.52 817.14 231.19 896.59 865.15 695.86 574.34 425.34 826.41 937.13 758.96 804.30 604.35 940.96 809.76 822.68 780.56 386.20 891.38 779.96 622.50 679.64 561.34 867.21 569.70 668.68 736.52 574.94 448.23 228.42 1060.01 139.04 825.90 408.15 835.23 261.82 753.89 628.76 582.86 730.00 88.39 494.14 734.08 966.11 728.86 644.91 180.97 510.56 806.43 158.15 303.53 215.58 385.85 138.20 737.19 474.96 620.65 350.41 664.24 744.17 597.52 143.21 585.61 490.37 803.37 116.36 609.39 628.06 139.82 237.66 683.25 854.51 423.91 175.63 944.27 603.34 587.38 524.31 697.08 432.33 1066.21 741.59 433.77 749.94 690.81 251.55 621.91 971.88 456.18 407.38 496.81 222.01 612.46 281.18 0.00 240.08 447.24 645.04 527.29 354.19 816.02 282.87 247.76 610.08 333.52 402.59 720.53
1071.69 709.88 493.34 709.22 477.81 846.02 804.78 536.29 612.62 272.73 186.60 809.44 673.57 446.08 897.93 736.97 212.79 459.06 395.85 417.95 609.10 577.98 925.28 38.76 493.08 630.88 626.60 428.98 560.24 314.95 224.81 165.89 499.73 829.90 603.88 544.48 513.64 170.29 168.04 69.87 730.91 227.71 351.06 496.63 390.39 263.80 355.58 445.81 630.18 677.72 728.08 578.41 381.42 348.38 165.88 521.94 671.09 351.43 618.89 191.70 135.42 977.89 352.34 257.82 553.89 467.84 401.05 557.22 599.11 182.46 688.57 250.46 624.74 814.98 631.41 623.51 778.01 494.12 483.28 571.42 144.07 790.60 128.97 473.16 209.29 764.73 127.97 625.67 628.68 376.68 608.77 661.88 187.23 170.41 162.88 641.98 247.56 788.81 677.62 779.59 543.77 296.62 741.81 895.12 587.92 624.56 405.98 773.72 608.28 595.36 600.06 327.37 848.69 582.90 590.96 571.38 570.61 697.33 649.97 568.39 604.56 397.70 445.12 38.47 1024.70 347.07 795.33 485.20 667.86 264.26 570.32 430.63 487.14 788.44 221.41 363.04 829.27 876.82 715.02 740.10 366.11 459.68 616.70 153.68 320.59 264.29 187.10 297.74 528.11 629.36 715.84 206.65 530.32 592.14 385.19 247.46 522.36 353.31 718.92 275.90 447.22 580.97 293.35 397.20 778.44 720.59 215.80 115.44 857.72 424.57 429.05 348.42 722.45 542.92 905.61 556.75 485.89 593.38 664.79 411.09 511.92 871.13 247.09 268.21 445.74 444.01 715.45 76.42 240.08 0.00 496.17 587.89 375.26 370.56 709.70 299.24 407.30 635.45 104.40 186.40 540.79
834.57 431.22 757.42 348.26 709.56 569.70 341.69 235.35 243.97 365.03 570.00 532.06 558.90 50.09 625.54 453.35 460.33 69.14 443.94 207.63 308.16 132.09 675.58 500.13 598.99 733.21 580.84 128.04 217.52 371.16 509.31 512.71 327.20 391.19 220.18 249.62 413.17 628.64 588.27 508.19 326.20 524.25 341.40 774.49 248.22 298.67 447.93 264.15 755.84 804.78 589.51 678.41 114.75 608.92 391.71 674.91 277.53 258.80 628.74 361.68 546.30 779.14 616.42 588.53 694.62 733.64 454.62 152.85 657.71 485.46 602.63 353.13 213.36 515.72 426.58 330.08 564.98 193.18 783.88 757.58 470.50 433.59 424.78 647.03 633.81 382.76 591.61 714.85 880.76 327.18 176.10 609.87 354.68 444.16 573.73 654.64 255.75 720.43 819.23 372.11 242.70 416.12 505.89 607.60 618.97 703.51 613.35 758.98 790.16 777.24 671.13 439.19 534.16 815.10 219.86 524.32 253.44 774.61 266.27 416.49 627.09 628.21 187.11 475.43 777.66 364.59 463.59 166.78 609.41 309.42 676.23 681.75 350.22 380.29 479.21 423.72 390.56 671.99 358.01 301.39 340.77 257.78 742.36 420.44 193.31 566.54 545.67 332.77 677.62 151.21 277.13 335.26 563.87 839.78 736.70 527.15 344.24 317.10 575.97 336.47 556.24 293.17 527.30 226.36 339.73 613.12 628.52 488.73 676.95 618.39 622.14 520.41 325.39 237.65 803.09 632.50 45.13 814.50 294.55 201.28 507.94 677.76 603.51 389.31 144.67 268.26 331.75 474.47 447.24 496.17 0.00 385.23 675.86 142.51 540.15 234.43 243.11 238.39 524.63 650.04 619.74
547.58 248.27 598.82 381.10 594.38 327.60 486.82 184.23 234.97 382.50 588.66 289.07 288.89 393.03 339.50 210.36 456.23 373.98 306.54 511.28 164.11 313.85 376.34 619.14 365.45 455.27 272.21 257.19 562.17 296.51 493.79 658.32 112.37 585.68 512.96 557.64 82.50 587.53 589.19 620.42 367.27 508.73 261.04 648.33 537.73 399.78 677.34 142.08 466.75 515.69 258.09 355.71 392.39 796.29 519.80 466.33 310.37 498.39 366.96 455.78 583.30 478.35 457.82 690.54 487.22 595.25 317.38 323.91 335.01 643.12 285.86 376.30 301.36 310.04 161.80 186.03 308.02 192.05 646.32 560.58 599.87 395.47 511.34 432.20 657.88 365.54 602.58 374.21 734.13 603.60 357.86 301.15 424.87 604.60 693.69 341.06 448.69 408.89 584.75 486.63 175.19 352.32 234.89 321.56 325.34 427.12 492.84 482.45 584.30 597.22 359.89 372.01 368.26 642.61 272.71 229.56 223.32 451.91 542.54 86.22 355.56 594.68 211.12 557.67 490.67 603.85 391.38 242.86 317.99 383.22 389.63 492.61 134.35 499.66 668.84 306.50 588.92 391.15 324.91 522.88 600.40 140.45 453.27 548.53 413.40 725.44 537.25 550.74 503.01 461.83 527.39 421.82 270.62 693.15 617.16 714.14 77.13 246.82 258.06 528.90 416.44 101.07 747.41 552.41 538.09 301.58 635.84 643.65 398.96 560.44 521.89 523.38 404.49 548.27 488.61 440.92 340.10 639.01 336.48 517.27 258.28 385.38 561.64 372.15 247.74 594.42 578.16 511.47 645.04 587.89 385.23 0.00 547.03 380.46 223.95 432.62 535.66 419.93 604.99 661.01 422.36
927.30 722.78 213.24 857.80 102.55 849.35 958.00 655.41 731.74 319.76 188.66 824.47 489.88 662.18 860.98 757.39 249.74 644.10 321.97 648.74 711.14 773.49 890.94 411.36 362.25 391.72 442.91 669.12 819.50 411.49 263.24 519.75 516.14 1053.11 896.04 805.53 464.53 253.30 310.27 361.24 866.13 277.61 413.96 121.37 723.09 462.88 682.30 524.31 391.02 391.20 691.13 417.31 608.16 654.47 524.34 301.98 791.42 612.47 462.40 532.19 312.12 870.87 203.54 603.96 314.73 92.58 300.74 772.73 403.94 550.49 533.61 360.11 766.81 799.42 633.21 702.01 741.06 661.70 108.02 256.05 507.94 887.53 404.15 261.99 273.95 912.57 285.41 424.78 253.42 708.98 758.36 470.16 396.43 506.83 468.97 461.38 508.72 615.03 345.81 957.81 646.37 365.71 756.84 859.94 446.17 367.77 204.90 629.66 282.47 295.39 414.58 326.57 861.59 252.67 733.03 427.80 694.50 458.17 913.18 519.28 392.89 47.65 580.75 390.68 870.39 666.33 897.93 611.50 557.00 503.88 384.84 136.25 483.77 979.80 575.27 344.28 1034.67 760.47 831.66 954.66 708.26 510.08 377.54 506.98 572.53 564.79 232.60 645.77 342.52 827.07 952.99 377.01 429.87 216.88 99.31 581.91 545.70 488.66 566.09 643.65 240.92 648.10 634.58 690.34 983.84 571.07 254.73 470.82 695.12 104.06 126.83 155.45 875.67 831.68 805.85 333.55 638.30 222.65 810.21 689.63 446.48 766.24 234.77 375.43 663.59 700.55 961.90 383.95 527.29 375.26 675.86 547.03 0.00 619.04 666.62 532.57 691.60 836.62 339.68 266.52 354.47
867.78 476.85 671.01 433.30 631.91 611.45 484.20 280.98 329.23 299.28 453.13 573.81 624.32 92.42 667.29 495.10 370.06 88.50 385.55 141.29 349.91 242.61 717.33 357.62 585.91 684.00 594.45 173.67 248.44 290.37 433.59 379.90 342.01 499.42 362.69 284.57 427.98 489.29 469.11 419.42 436.72 423.69 352.14 688.33 157.27 156.16 373.50 270.03 650.11 718.96 600.27 610.16 37.10 487.43 273.60 619.61 364.57 145.93 611.48 219.17 432.90 802.11 562.08 479.77 687.51 635.25 369.17 263.37 589.46 345.31 624.73 295.96 316.14 557.47 437.34 371.83 582.88 238.81 677.98 718.23 327.99 495.54 303.32 623.33 538.42 476.67 486.11 651.35 778.32 223.14 286.62 615.28 232.73 301.65 455.62 616.21 123.00 747.92 775.29 473.78 288.46 306.53 547.64 649.35 541.32 695.00 563.82 782.00 755.38 768.30 614.34 345.67 586.62 740.50 313.59 509.07 254.61 706.36 343.19 422.37 604.39 571.39 201.92 343.06 810.87 283.88 518.26 161.84 617.60 188.21 640.33 588.23 360.49 485.65 346.46 375.33 492.14 682.75 419.96 409.62 276.95 242.53 663.59 302.33 60.94 479.24 412.92 256.26 662.06 278.99 385.36 252.15 550.13 737.34 648.95 412.17 339.30 229.95 621.60 248.11 538.98 326.38 432.64 171.95 441.31 658.88 519.20 393.11 698.88 515.95 572.96 516.79 417.96 289.02 828.20 646.89 147.91 731.18 371.16 182.18 493.73 688.52 513.62 338.95 190.43 213.96 408.67 362.39 354.19 370.56 142.51 380.46 619.04 0.00 550.91 91.92 155.20 332.66 441.52 540.14 643.39
383.05 239.88 624.14 412.94 585.63 219.76 565.64 337.98 386.80 535.10 689.39 202.57 180.79 547.25 214.38 201.97 589.46 528.20 412.76 670.51 276.26 458.23 265.25 739.21 387.14 426.04 227.76 412.24 709.96 432.89 645.86 814.12 288.06 702.92 674.76 705.88 202.09 688.36 681.54 732.51 442.04 651.32 436.73 668.02 703.73 557.38 874.86 299.68 430.21 479.15 49.36 342.96 562.72 946.77 722.87 466.64 450.94 637.93 300.56 666.14 686.64 318.56 526.80 905.70 461.14 614.94 418.59 437.47 329.03 788.75 203.56 511.38 431.82 212.12 113.57 283.23 99.29 386.41 661.86 513.13 757.67 392.67 630.65 461.46 749.65 470.51 719.31 366.37 737.45 774.05 464.15 231.76 522.47 745.09 807.41 279.39 624.38 215.31 553.28 587.93 347.02 473.24 159.77 224.25 280.89 379.67 515.80 291.84 566.50 553.58 342.65 512.38 281.76 617.03 398.04 252.52 336.88 432.45 664.56 147.34 298.61 623.02 386.75 677.26 326.14 793.94 349.28 407.87 234.62 598.38 353.67 555.25 267.58 548.98 826.44 445.57 674.86 167.20 407.54 639.80 777.94 339.60 416.73 704.33 571.00 908.82 603.87 748.26 443.53 621.67 619.42 541.89 293.58 706.08 754.66 841.05 258.21 445.97 162.10 740.11 439.40 295.42 887.90 722.86 624.03 246.25 755.43 797.11 198.90 597.86 553.49 597.48 529.41 660.09 301.11 404.96 495.15 629.11 424.83 672.32 318.08 161.43 667.86 479.43 395.48 758.18 705.51 668.56 816.02 709.70 540.15 223.95 666.62 550.91 0.00 590.22 706.11 540.38 731.26 761.80 410.76
920.00 549.11 637.61 497.73 545.04 687.59 576.12 353.24 412.62 240.64 427.12 649.95 607.19 184.34 743.43 571.24 335.94 180.42 387.08 141.76 426.05 334.53 793.47 265.70 564.92 691.35 610.78 245.93 316.21 222.77 341.67 287.98 368.63 591.34 445.25 320.21 454.60 426.09 403.89 327.50 509.15 356.61 284.54 627.43 190.52 137.29 325.86 290.54 717.49 741.74 639.58 640.88 129.02 416.11 187.18 634.58 427.00 137.74 630.90 127.25 352.70 822.62 496.61 403.61 681.41 574.35 384.14 355.29 624.82 253.39 601.27 248.70 362.16 633.61 529.26 447.97 674.80 311.07 621.27 697.24 236.07 561.45 259.89 586.85 475.51 551.83 394.19 659.39 759.48 209.57 378.54 649.03 208.74 209.73 369.20 605.00 51.68 708.69 733.31 565.70 360.72 311.69 603.72 725.49 577.36 692.52 529.00 777.44 725.98 738.90 599.94 310.85 649.08 695.43 395.94 499.57 346.53 721.69 435.11 442.88 618.37 512.75 265.67 280.48 869.43 260.63 571.28 225.59 569.14 96.29 629.68 550.26 384.51 577.57 275.14 354.34 584.06 757.42 485.87 501.54 218.70 311.26 704.01 215.91 80.13 392.82 341.60 225.01 672.38 370.91 477.28 228.16 515.92 721.62 612.31 340.85 392.52 251.56 623.86 208.73 480.48 411.06 352.54 157.77 533.23 641.93 473.14 301.19 764.76 557.52 511.45 474.54 509.88 359.04 886.70 603.82 193.93 706.89 443.03 167.06 434.01 751.65 435.87 274.11 262.69 214.29 500.59 280.87 282.87 299.24 234.43 432.62 532.57 91.92 590.22 0.00 174.52 424.58 354.54 451.82 624.88
991.61 598.97 769.51 483.50 719.56 740.25 558.50 431.85 479.99 385.17 544.52 701.72 759.89 220.05 822.04 636.88 469.25 239.10 504.58 79.82 504.66 369.53 872.08 390.64 641.76 817.08 728.13 324.54 207.78 397.29 502.46 314.80 486.94 483.92 348.94 178.09 550.62 543.49 503.29 434.40 512.60 494.86 459.06 801.95 36.43 269.19 224.14 408.85 799.33 855.28 755.47 765.36 192.30 399.31 246.99 741.36 488.25 92.34 766.68 293.54 459.21 940.93 628.51 392.59 797.61 748.87 490.92 369.10 744.66 316.79 752.22 393.23 423.41 712.22 592.54 526.58 738.08 388.50 791.01 833.94 313.77 628.03 404.42 727.21 575.94 560.83 503.96 777.34 911.81 111.40 413.54 767.50 345.76 287.43 405.41 771.41 196.21 883.21 877.84 536.12 430.84 456.22 689.42 804.10 696.52 787.97 638.01 867.15 874.41 883.84 748.74 442.75 721.68 837.58 409.20 664.27 409.81 858.08 380.49 561.19 730.74 657.28 357.12 388.35 966.07 173.09 673.46 317.04 743.66 228.19 719.00 685.31 472.58 542.16 259.28 520.56 527.50 837.95 552.45 479.71 131.16 397.73 812.81 275.72 137.53 396.19 459.00 153.24 783.81 315.22 455.45 365.18 690.44 878.51 738.94 324.99 494.50 385.15 764.02 131.40 655.00 481.58 345.46 16.75 518.05 801.26 589.99 368.85 854.08 657.12 643.35 586.42 476.17 243.12 967.58 725.26 255.18 851.42 514.36 64.46 608.53 843.72 592.57 436.22 332.81 62.27 423.25 398.75 247.76 407.30 243.11 535.66 691.60 155.20 706.11 174.52 0.00 389.17 439.65 556.64 704.20
798.30 410.37 876.17 164.29 874.37 440.52 169.33 244.10 216.18 529.53 728.16 441.48 634.72 240.24 524.91 385.36 586.88 259.29 585.01 393.91 306.35 106.30 594.58 674.21 687.94 782.19 636.38 251.18 323.16 492.70 673.39 687.63 423.73 254.52 212.16 359.29 481.35 762.09 778.42 698.34 136.84 658.45 504.16 929.36 408.66 488.82 593.99 361.92 816.08 857.75 579.43 715.97 304.90 754.98 581.86 821.40 109.56 448.95 704.96 547.58 701.05 707.92 764.35 701.08 814.14 892.99 585.49 123.91 706.92 675.61 608.22 543.28 132.08 413.48 426.81 312.49 555.58 269.65 942.71 863.92 660.65 282.68 614.93 742.84 813.45 241.62 763.42 763.23 1029.97 455.44 78.26 673.06 544.83 634.31 763.88 679.06 455.66 742.26 933.67 169.14 244.96 550.53 437.90 526.60 687.23 800.81 723.35 770.02 933.22 938.81 708.81 589.67 373.42 904.32 153.20 556.48 203.50 772.35 258.25 458.13 699.56 801.64 318.01 665.58 754.73 528.76 295.62 287.65 576.09 492.58 738.55 812.06 439.17 152.99 648.45 554.87 210.94 623.12 207.10 168.70 486.83 381.25 810.76 610.59 383.46 750.62 705.90 515.56 807.95 179.83 191.49 525.41 597.54 1018.41 901.20 714.16 356.31 434.08 567.53 493.72 673.97 350.08 728.93 372.42 228.04 648.88 794.23 704.96 631.10 808.81 752.96 748.21 87.00 266.27 730.65 762.57 250.22 941.59 135.67 395.83 596.89 617.35 767.59 544.03 234.42 428.94 240.82 664.62 610.08 635.45 238.39 419.93 836.62 332.66 540.38 424.58 389.17 0.00 714.78 807.59 749.28
1070.78 779.33 502.46 790.01 437.40 858.66 843.35 597.59 641.74 297.48 177.78 820.13 686.90 474.54 919.49 741.42 232.51 493.59 411.78 480.41 652.38 647.60 946.84 123.52 499.96 648.90 656.31 515.30 568.92 319.40 163.41 239.02 498.82 889.57 676.62 604.08 569.63 135.41 63.64 64.51 778.04 178.35 350.15 449.55 433.66 285.36 435.75 462.91 655.03 690.63 749.64 611.27 478.62 388.79 251.92 566.08 740.44 440.41 656.12 242.70 54.32 994.99 396.48 316.47 598.03 408.09 397.67 642.89 608.97 257.87 710.13 272.02 658.06 838.52 681.14 640.61 799.57 549.16 436.20 595.73 222.36 814.79 180.84 513.60 136.29 847.73 93.09 608.69 573.94 451.18 672.57 672.17 208.79 248.70 208.83 658.52 340.92 805.32 658.85 801.15 591.20 335.01 763.37 916.68 603.18 622.06 449.26 807.25 599.45 586.54 584.09 306.70 899.32 580.85 624.28 553.59 636.15 682.42 722.71 604.95 600.03 362.82 462.92 111.21 1028.43 415.05 842.76 503.00 693.38 258.25 554.35 455.66 491.59 840.10 283.66 383.01 870.75 898.26 743.55 814.33 454.41 485.90 660.84 223.19 393.33 310.24 137.09 355.27 572.25 675.84 801.76 189.37 561.07 532.96 299.29 283.07 564.89 403.04 755.94 377.11 440.89 642.75 335.74 456.40 862.72 751.34 150.34 174.09 857.45 379.26 371.06 311.60 776.90 640.35 943.56 541.94 544.84 550.83 751.11 450.93 513.72 892.69 221.37 288.18 532.06 490.62 788.19 126.15 333.52 104.40 524.63 604.99 339.68 441.52 731.26 354.54 439.65 714.78 0.00 143.90 562.40
1093.03 821.95 456.97 859.75 369.07 952.92 912.15 644.65 720.98 360.43 134.30 914.39 702.07 603.45 976.18 835.68 265.13 622.50 437.17 566.03 748.08 704.44 963.69 186.12 509.71 603.41 672.60 615.38 652.17 413.66 194.57 313.25 575.99 978.59 769.60 688.30 586.95 89.92 80.26 165.40 849.08 205.38 427.32 387.89 556.11 383.98 494.76 548.46 620.37 657.72 811.16 603.61 567.82 387.95 319.46 547.26 798.57 517.91 648.46 332.69 107.24 1038.76 385.40 351.09 581.25 359.10 415.94 683.68 601.31 344.46 727.71 357.52 773.14 910.06 734.06 726.16 860.32 638.18 374.54 522.57 291.43 917.97 238.14 498.68 72.00 903.12 58.43 620.74 506.36 504.10 730.03 651.10 337.70 301.95 202.45 658.75 432.47 821.87 612.33 911.96 653.69 344.58 888.22 982.57 627.52 616.27 414.60 799.59 548.99 543.06 576.43 305.44 960.76 519.19 742.22 598.88 681.06 669.86 815.69 641.70 599.48 309.77 574.20 204.19 1046.38 500.19 905.25 597.48 736.39 385.41 546.69 402.77 580.06 933.95 348.58 406.08 935.01 887.44 854.83 907.11 515.45 562.33 629.10 301.04 486.31 301.55 157.93 440.89 561.17 787.03 899.84 318.28 583.48 483.40 315.65 349.97 646.15 455.96 759.94 425.24 417.10 728.33 375.40 546.54 962.44 752.01 105.47 274.98 900.84 370.58 356.14 326.09 829.82 729.32 975.78 522.13 604.91 489.17 801.48 560.43 540.75 893.21 186.71 341.10 632.14 585.74 881.17 179.07 402.59 186.40 650.04 661.01 266.52 540.14 761.80 451.82 556.64 807.59 143.90 0.00 543.19
633.64 570.84 238.67 710.45 290.66 618.27 817.05 514.46 590.79 415.98 437.85 589.47 229.97 655.72 550.13 568.22 401.37 637.49 288.63 624.38 523.41 644.08 575.55 579.55 62.44 130.14 183.00 548.19 814.42 407.04 400.83 695.06 352.62 889.59 839.92 812.97 345.21 483.93 515.14 572.93 726.57 415.77 355.34 345.32 712.21 531.58 827.48 405.18 136.10 185.04 432.26 108.56 629.04 832.05 591.11 81.17 639.72 684.33 158.86 606.18 508.68 567.22 188.45 798.61 93.41 319.97 274.22 654.14 111.71 700.32 265.92 394.86 636.72 596.99 436.10 545.33 475.68 553.31 358.67 179.71 634.31 737.87 517.68 92.48 523.14 775.61 484.76 119.67 371.73 769.42 688.09 198.25 458.09 656.66 703.67 145.99 580.46 349.26 199.49 816.86 505.42 341.82 521.84 532.19 142.52 83.77 159.27 309.99 231.16 244.08 86.83 376.94 647.01 265.19 602.94 192.80 553.55 196.59 876.63 336.14 118.05 314.20 466.45 517.05 599.60 767.76 724.81 506.53 289.12 557.21 57.09 218.22 311.21 831.77 705.53 273.02 915.54 470.52 698.56 853.11 800.02 445.10 122.62 619.84 649.96 752.37 444.29 700.88 93.24 770.95 870.05 468.66 163.17 356.27 417.63 771.24 422.78 484.21 314.09 722.72 166.65 460.37 771.93 719.45 864.71 299.16 483.20 656.23 433.56 260.11 235.02 298.19 734.72 838.01 486.18 21.06 574.61 279.30 665.83 665.27 218.78 476.29 387.16 367.85 546.86 762.23 898.21 549.22 720.53 540.79 619.74 422.36 354.47 643.39 410.76 624.88 704.20 749.28 562.40 543.19 0.00
DEMAND_SECTION
1 0
2 1
3 1
4 1
5 1
6 1
7 1
8 1
9 1
10 1
11 1
12 1
13 1
14 1
15 1
16 1
17 1
18 1
19 1
20 1
21 1
22 1
23 1
24 1
25 1
26 1
27 1
28 1
29 1
30 1
31 1
32 1
33 1
34 1
35 1
36 1
37 1
38 1
39 1
40 1
41 1
42 1
43 1
44 1
45 1
46 1
47 1
48 1
49 1
50 1
51 1
52 1
53 1
54 1
55 1
56 1
57 1
58 1
59 1
60 1
61 1
62 1
63 1
64 1
65 1
66 1
67 1
68 1
69 1
70 1
71 1
72 1
73 1
74 1
75 1
76 1
77 1
78 1
79 1
80 1
81 1
82 1
83 1
84 1
85 1
86 1
87 1
88 1
89 1
90 1
91 1
92 1
93 1
94 1
95 1
96 1
97 1
98 1
99 1
100 1
101 1
102 1
103 1
104 1
105 1
106 1
107 1
108 1
109 1
110 1
111 1
112 1
113 1
114 1
115 1
116 1
117 1
118 1
119 1
120 1
121 1
122 1
123 1
124 1
125 1
126 1
127 1
128 1
129 1
130 1
131 1
132 1
133 1
134 1
135 1
136 1
137 1
138 1
139 1
140 1
141 1
142 1
143 1
144 1
145 1
146 1
147 1
148 1
149 1
150 1
151 1
152 1
153 1
154 1
155 1
156 1
157 1
158 1
159 1
160 1
161 1
162 1
163 1
164 1
165 1
166 1
167 1
168 1
169 1
170 1
171 1
172 1
173 1
174 1
175 1
176 1
177 1
178 1
179 1
180 1
181 1
182 1
183 1
184 1
185 1
186 1
187 1
188 1
189 1
190 1
191 1
192 1
193 1
194 1
195 1
196 1
197 1
198 1
199 1
200 1
201 1
DEPOT_SECTION
1
-1
EOF
