NAME: LDG200_1245_rain_200_0229
COMMENT: CVRP with travel times.  rootPos=1,custPos=2,demandType=4,avgRouteSizeIndex=5,weather=rain,lambda_cluster=1,lambda_random=4, T1=300,T2=700,beta=1, alpha(i,j) ~ U(0.8,1.2)
TYPE: CVRP
DIMENSION: 201
EDGE_WEIGHT_TYPE: EXPLICIT
EDGE_WEIGHT_FORMAT: FULL_MATRIX
CAPACITY: 940
NODE_COORD_SECTION
1 567 842
2 717 919
3 145 554
4 206 33
5 830 376
6 892 835
7 768 957
8 314 995
9 880 886
10 682 754
11 502 555
12 242 502
13 713 887
14 189 48
15 860 874
16 776 727
17 199 619
18 126 966
19 899 483
20 155 520
21 511 970
22 155 606
23 301 937
24 664 556
25 970 390
26 145 492
27 407 978
28 716 600
29 181 543
30 750 862
31 172 110
32 707 590
33 823 913
34 48 543
35 990 555
36 151 525
37 814 990
38 837 518
39 688 922
40 833 440
41 923 580
42 948 496
43 919 432
44 304 519
45 188 7
46 198 12
47 59 547
48 848 922
49 91 578
50 215 107
51 224 903
52 953 478
53 683 785
54 192 66
55 927 467
56 701 696
57 152 88
58 217 559
59 888 995
60 181 887
61 792 543
62 186 497
63 141 465
64 986 423
65 116 507
66 157 538
67 185 280
68 526 509
69 959 436
70 272 988
71 945 472
72 194 511
73 806 841
74 732 573
75 749 856
76 782 919
77 832 929
78 198 594
79 327 848
80 835 964
81 940 436
82 224 71
83 843 326
84 248 598
85 856 389
86 317 923
87 207 553
88 765 532
89 182 690
90 268 948
91 210 11
92 225 561
93 94 167
94 699 544
95 827 706
96 219 469
97 942 984
98 173 64
99 755 484
100 103 63
101 274 19
102 704 729
103 129 63
104 141 63
105 185 11
106 244 975
107 251 70
108 294 538
109 197 561
110 780 909
111 733 872
112 620 547
113 923 443
114 621 482
115 266 552
116 135 108
117 723 447
118 886 519
119 744 620
120 154 456
121 851 423
122 235 896
123 269 926
124 88 976
125 96 40
126 614 666
127 776 935
128 651 491
129 257 30
130 808 499
131 113 90
132 924 402
133 837 902
134 916 437
135 645 589
136 274 602
137 204 43
138 938 499
139 206 542
140 205 209
141 973 381
142 66 37
143 784 993
144 787 925
145 930 406
146 968 552
147 184 34
148 885 823
149 686 575
150 686 528
151 266 961
152 657 594
153 156 36
154 794 598
155 832 494
156 258 711
157 960 558
158 831 442
159 196 30
160 358 939
161 226 52
162 90 59
163 206 276
164 638 803
165 1000 411
166 970 519
167 171 988
168 652 796
169 195 477
170 653 627
171 911 455
172 163 653
173 650 939
174 141 467
175 204 404
176 874 948
177 207 488
178 934 246
179 847 881
180 105 602
181 877 468
182 793 981
183 827 455
184 149 154
185 23 556
186 783 899
187 308 699
188 94 149
189 294 1000
190 713 567
191 259 623
192 748 916
193 917 399
194 202 81
195 661 579
196 80 8
197 282 989
198 705 893
199 277 19
200 759 609
201 965 313
EDGE_WEIGHT_SECTION
0.00 209.79 518.73 932.42 627.55 406.31 291.35 412.83 381.97 213.07 391.86 581.92 221.38 955.21 386.72 313.08 481.19 563.12 581.73 576.23 359.03 557.70 390.00 363.27 650.44 614.01 270.05 370.94 526.88 257.68 1001.00 391.37 311.69 673.04 582.55 557.96 344.91 483.02 167.00 499.24 498.00 509.71 575.76 593.60 892.30 902.54 655.62 331.77 596.68 964.08 384.45 538.03 193.87 946.65 563.82 284.24 990.23 512.67 414.71 485.63 470.06 603.61 631.24 643.47 636.57 564.17 807.61 441.17 590.20 456.74 544.58 568.76 337.73 410.04 249.83 303.79 299.27 464.11 386.23 361.79 605.97 947.83 662.43 456.26 569.72 348.66 533.49 476.08 554.50 423.20 928.60 536.82 941.86 346.10 320.80 627.63 465.44 964.67 468.57 1001.18 979.24 262.56 962.07 971.52 880.07 470.43 988.04 566.01 517.55 283.07 230.10 405.59 576.30 425.44 547.97 994.63 462.29 589.38 398.78 644.71 536.16 395.74 420.53 576.90 1002.85 222.30 303.13 430.75 999.43 500.00 1001.42 605.53 346.65 573.50 354.12 490.00 939.47 528.11 548.36 925.44 646.44 1038.06 346.69 301.97 620.80 555.88 915.83 393.28 384.84 377.34 452.52 348.51 962.46 406.44 517.77 496.41 547.61 494.42 925.49 406.60 972.84 1016.47 824.34 104.60 638.90 581.61 525.93 135.31 626.11 333.54 538.40 557.02 124.45 620.38 693.91 372.58 594.20 751.70 369.05 601.27 566.33 332.53 521.00 919.76 678.00 301.21 419.97 981.16 419.06 389.03 424.54 250.25 605.37 987.16 328.53 1009.13 464.30 224.07 989.07 377.73 716.99
209.79 0.00 690.70 1093.97 631.83 238.72 81.56 487.15 175.03 229.25 595.68 726.00 53.10 1061.61 188.27 301.49 611.05 656.28 540.86 704.90 248.80 693.12 496.69 473.43 615.56 749.28 374.79 381.73 655.26 115.14 1044.75 402.16 149.13 815.46 522.93 707.01 162.71 492.67 78.87 584.02 474.97 537.17 586.90 678.73 1102.09 1107.33 798.04 156.17 740.47 1064.15 558.91 565.49 187.41 1056.58 591.01 308.65 1081.27 702.13 214.63 616.63 491.32 733.53 770.98 615.63 750.81 715.17 950.52 574.31 608.29 512.25 565.26 733.42 136.73 423.42 113.94 94.00 152.27 673.90 499.51 166.87 600.07 1063.93 682.22 651.27 625.93 465.75 713.81 492.61 669.95 530.43 1093.40 682.81 1076.19 461.24 320.48 761.96 255.65 1082.85 497.11 1104.54 1010.05 263.41 1067.32 1082.80 1089.86 542.98 1074.32 642.49 701.13 73.28 88.37 490.48 588.80 515.14 693.08 1091.23 500.02 586.85 401.71 782.48 604.55 582.90 551.89 701.24 1127.61 338.40 93.34 498.39 1038.08 523.44 1035.71 583.24 158.36 584.64 434.94 624.87 1070.40 555.57 696.26 889.79 633.09 1162.82 136.90 92.18 610.66 518.43 1100.99 231.63 445.34 466.35 529.95 449.56 1108.44 411.25 511.94 539.53 524.58 579.20 1090.81 407.81 1074.57 1116.11 979.11 162.12 649.42 503.09 631.70 192.83 733.65 388.35 549.54 677.54 119.47 777.87 823.21 203.80 708.26 734.97 159.26 731.13 555.64 122.74 565.81 1079.66 818.53 91.42 463.09 1074.97 523.80 418.31 622.37 40.46 595.23 1016.07 444.63 1147.61 513.23 63.66 1000.22 413.81 639.37
518.73 690.70 0.00 573.61 737.86 832.66 772.26 515.41 865.57 668.89 421.49 148.56 730.36 557.20 850.87 751.98 79.65 526.20 782.42 61.42 594.88 85.83 450.47 517.89 851.91 95.28 534.05 609.59 77.82 765.95 483.17 589.16 775.84 157.54 912.69 66.01 826.10 696.99 685.73 775.18 832.25 836.06 822.00 212.73 563.92 558.08 171.97 825.58 113.73 515.29 400.02 834.54 680.77 535.31 782.29 690.99 498.28 110.67 905.33 411.86 657.62 133.62 113.53 858.15 141.55 45.44 329.04 473.36 856.69 457.23 817.08 122.76 760.62 601.06 747.88 773.24 802.70 124.88 381.01 837.55 826.07 559.74 850.67 146.87 792.02 449.36 89.85 670.25 152.96 488.99 582.28 119.50 450.22 564.57 797.85 159.35 942.45 507.25 666.37 547.61 616.20 655.49 531.81 516.33 558.71 450.56 562.22 209.49 71.44 756.30 748.83 552.86 812.35 604.55 158.90 529.20 680.76 793.79 650.22 125.98 771.31 425.72 477.21 470.17 583.73 529.78 784.04 592.17 571.98 720.82 549.50 777.58 815.47 826.36 569.52 155.00 569.23 833.12 102.25 468.45 859.75 618.85 786.35 780.18 805.00 863.24 522.95 802.09 588.07 567.21 459.67 579.95 552.15 699.13 719.01 263.91 833.48 770.36 552.17 498.86 585.56 562.90 306.63 610.90 887.48 861.42 539.28 641.61 112.17 612.86 806.25 125.90 643.18 102.67 201.73 876.01 144.08 990.06 835.25 123.66 751.33 813.44 743.78 470.47 197.80 738.16 227.61 470.27 494.91 580.05 178.59 731.16 789.57 527.67 552.63 585.01 477.06 740.92 608.77 665.57 926.81
932.42 1093.97 573.61 0.00 803.97 1085.74 1133.35 1000.51 1125.94 943.83 698.92 502.21 1040.87 32.36 1147.99 932.21 574.86 1021.41 896.27 543.91 1071.75 610.58 919.60 769.79 846.96 516.37 1029.26 836.01 538.98 1046.42 139.39 825.67 1151.13 597.32 1014.22 537.36 1177.03 865.63 1067.38 829.63 995.97 936.96 855.70 551.83 64.58 49.07 579.90 1132.60 642.03 102.85 895.23 922.15 944.28 49.72 902.95 914.72 105.09 560.71 1227.61 898.08 862.67 515.49 481.80 893.74 532.12 549.69 289.10 625.76 892.28 952.44 931.29 527.95 1080.72 820.42 1064.49 1116.82 1163.79 601.75 874.46 1168.87 872.66 67.76 830.49 613.22 838.56 914.15 539.89 838.80 648.17 978.58 51.55 583.02 171.12 767.98 974.60 485.35 1167.26 82.31 735.63 154.58 102.20 912.22 107.75 96.60 52.35 996.10 55.62 569.78 568.75 1105.32 1072.11 707.69 872.89 660.49 522.23 144.47 831.84 911.97 869.58 486.95 783.07 901.05 926.02 965.38 159.17 793.29 1109.99 740.61 67.61 858.62 153.96 813.17 1167.25 862.80 749.75 598.19 24.05 945.81 548.23 240.15 829.43 194.38 1176.17 1094.18 830.44 1003.82 50.66 1055.17 792.73 799.22 949.26 769.88 79.19 912.35 855.91 712.72 1000.97 824.81 21.44 970.76 65.03 161.02 298.94 1014.30 871.59 969.64 1031.24 1011.81 472.86 827.32 880.30 640.61 1056.87 470.94 416.41 1216.09 504.77 783.40 1128.62 642.49 865.18 1170.34 851.39 153.62 603.79 1104.69 722.82 207.19 973.44 810.91 644.94 1129.11 825.16 77.90 804.53 159.17 972.27 1030.31 105.47 895.42 896.63
627.55 631.83 737.86 803.97 0.00 493.48 611.47 830.41 539.94 485.49 490.54 720.94 610.66 771.61 515.55 409.25 778.56 1022.12 139.77 793.03 739.40 767.84 802.06 321.01 210.15 827.83 846.50 333.15 756.03 549.63 835.08 316.84 545.95 890.50 266.80 803.87 647.32 154.64 640.31 137.95 236.53 204.55 164.02 677.23 836.55 817.33 873.08 536.70 850.57 774.15 898.76 191.82 512.00 766.58 189.92 390.76 841.98 734.62 643.05 961.85 204.53 788.56 793.26 226.84 858.52 783.30 875.75 407.57 210.56 888.59 169.68 760.78 506.33 275.82 549.82 587.40 569.20 747.00 790.12 607.66 180.02 776.64 112.81 739.26 63.85 816.63 746.06 238.97 820.92 876.84 829.95 712.48 899.73 310.20 381.04 753.17 684.55 792.85 240.17 861.92 778.82 436.00 815.34 799.86 833.16 930.45 803.91 698.14 735.01 572.52 580.25 357.70 178.31 328.92 647.55 815.18 264.44 189.68 298.71 817.01 91.39 919.64 857.26 1059.35 868.82 419.03 553.97 271.78 806.85 141.33 857.22 157.52 539.43 171.12 384.23 752.28 780.40 214.74 715.03 838.83 204.24 904.03 631.18 579.91 149.08 273.49 810.99 479.87 331.05 279.21 906.16 364.28 818.44 231.81 119.89 752.40 266.18 133.13 801.25 794.56 812.95 877.21 868.65 533.06 246.40 227.01 965.76 539.69 771.15 368.11 151.81 839.91 644.65 782.40 834.33 620.19 763.29 294.03 486.54 841.91 157.61 632.06 136.88 833.72 934.75 589.45 675.96 893.41 870.46 283.57 751.81 591.37 145.53 726.07 338.41 883.49 899.98 619.99 768.99 296.86 241.51
406.31 238.72 832.66 1085.74 493.48 0.00 207.00 647.25 63.69 269.99 591.93 814.62 214.52 1118.10 62.25 226.70 830.24 830.76 353.71 872.52 443.95 858.71 625.44 429.99 511.75 884.67 570.20 381.71 822.88 148.63 1133.13 362.04 137.28 895.35 358.72 856.29 217.31 364.61 239.31 455.96 273.91 409.12 433.46 726.88 1150.32 1134.81 912.77 124.18 944.84 1103.84 722.14 409.13 311.06 1109.19 403.86 289.88 1131.93 803.91 196.27 785.23 387.55 849.88 895.59 494.67 927.81 862.58 990.87 580.93 455.79 705.43 418.18 824.30 140.08 346.82 166.70 191.26 139.19 838.31 590.39 193.57 450.21 1146.06 540.56 792.01 510.78 584.10 824.73 416.01 861.32 658.64 1137.29 806.16 1162.42 410.76 219.97 875.98 208.30 1140.41 474.21 1145.05 1078.92 244.64 1098.47 1082.99 1138.09 737.49 1101.24 690.64 828.69 177.24 179.25 459.55 413.57 496.37 741.23 1086.65 489.09 385.79 338.92 898.83 466.91 722.20 657.12 882.71 1151.95 420.53 194.56 472.97 1123.14 406.65 1140.35 464.17 138.40 432.14 409.16 802.82 1109.79 390.72 805.55 1019.05 505.84 1186.25 243.10 168.62 450.68 346.18 1136.40 30.57 405.22 434.72 687.96 395.39 1143.47 291.59 399.36 747.45 316.42 451.14 1107.18 631.54 1111.87 1130.30 1023.56 311.93 491.33 366.05 804.97 328.56 856.52 393.48 397.04 845.55 314.88 906.45 926.27 156.97 824.61 612.70 91.26 909.62 384.80 239.57 437.75 1127.81 940.46 194.17 685.51 1123.12 687.30 367.83 760.29 220.34 464.01 1135.68 428.24 1166.62 710.97 225.08 1088.75 349.17 554.26
291.35 81.56 772.26 1133.35 611.47 207.00 0.00 568.71 189.51 246.17 612.33 805.85 113.60 1100.99 144.75 277.57 692.61 685.10 545.89 786.46 330.36 761.83 568.31 475.52 628.44 830.84 446.41 417.20 736.82 140.28 1084.13 435.56 106.07 895.21 520.12 788.57 95.09 456.83 160.11 548.18 451.93 521.50 589.56 718.11 1159.73 1134.56 877.79 132.47 818.89 1103.53 640.47 493.18 260.05 1095.96 545.43 334.16 1046.37 742.28 176.20 645.45 409.76 814.77 852.54 601.32 832.37 795.11 1003.72 598.45 559.74 581.51 515.32 789.83 165.55 392.35 124.21 65.82 99.97 735.16 550.85 131.97 585.91 1106.02 671.57 688.86 578.86 547.31 763.10 461.54 680.91 586.33 1132.78 736.90 1125.96 456.29 305.06 822.55 219.81 1103.70 536.80 1125.44 1049.43 288.92 1101.12 1102.58 1148.60 616.84 1111.87 681.87 748.58 78.31 148.87 499.97 575.42 540.65 732.46 1091.65 534.62 545.93 343.19 858.34 568.71 618.29 600.38 754.13 1161.41 396.71 57.50 518.50 1077.46 472.96 1075.09 593.51 139.03 587.30 433.85 665.02 1109.78 533.87 766.71 929.17 617.18 1196.62 55.34 57.28 605.60 528.12 1140.37 208.59 422.03 487.23 557.01 413.72 1147.82 440.07 491.58 550.49 501.54 543.36 1130.19 489.37 1113.95 1140.73 1037.11 243.68 594.05 531.91 705.56 274.39 808.57 409.29 552.20 688.50 201.03 857.02 898.13 173.28 789.50 759.44 160.07 787.58 555.07 84.31 529.97 1119.04 889.49 96.45 544.65 1114.35 595.42 413.36 657.14 69.28 590.17 1055.45 448.64 1186.21 594.79 103.04 1039.60 370.49 708.06
412.83 487.15 515.41 1000.51 830.41 647.25 568.71 0.00 583.56 602.77 652.64 535.64 498.46 972.62 602.24 663.36 435.76 246.67 764.54 546.00 295.94 517.83 127.70 581.98 934.91 590.38 142.78 636.45 521.14 521.83 914.11 653.25 572.81 607.18 839.47 564.27 602.62 745.27 476.63 768.36 754.66 787.47 844.29 547.78 1036.25 1023.50 589.76 523.07 565.18 897.66 190.39 815.79 598.28 963.77 814.69 593.62 969.90 504.12 629.42 216.84 669.37 562.62 588.60 905.50 600.34 529.23 720.72 696.55 866.62 58.18 822.34 569.45 610.72 653.50 523.57 565.12 555.57 496.10 187.02 611.11 861.04 942.11 914.93 456.95 822.22 86.36 524.94 701.28 362.45 107.55 1036.12 504.99 890.36 628.66 700.42 590.64 606.47 979.22 711.76 987.54 999.54 553.28 942.02 957.50 1024.02 110.37 999.59 511.54 496.59 560.43 491.21 658.61 824.40 554.74 491.26 945.75 733.71 792.83 604.34 614.53 814.92 195.19 129.09 247.17 1002.31 602.54 531.69 649.52 1003.07 732.57 974.75 875.00 557.72 831.20 652.03 433.11 986.57 805.87 527.40 871.34 917.38 1037.52 591.62 557.63 882.75 834.03 1006.96 646.68 661.23 631.30 108.36 644.04 1004.57 649.57 710.52 318.58 804.27 773.18 1011.16 79.34 984.73 1002.83 768.56 510.88 902.16 846.80 157.72 530.75 574.44 609.03 807.87 442.18 398.10 586.68 593.41 606.56 567.03 1019.05 573.23 533.41 774.01 562.65 785.82 862.15 596.95 560.13 395.02 916.36 40.05 644.14 425.23 527.61 873.49 945.74 616.72 1018.60 73.84 509.02 989.71 577.04 949.49
381.97 175.03 865.57 1125.94 539.94 63.69 189.51 583.56 0.00 313.04 591.73 847.22 187.14 1137.47 47.72 266.90 786.08 784.18 417.40 843.54 423.83 868.15 598.06 421.08 549.35 885.15 538.02 367.18 793.90 168.14 1069.44 387.61 107.18 880.82 398.92 848.15 167.66 428.30 234.55 481.37 314.11 452.42 497.15 771.19 1166.00 1175.01 898.24 60.49 915.50 1119.61 690.63 424.10 293.64 1149.39 467.55 334.19 1068.24 821.44 166.84 744.53 383.24 831.77 887.59 504.29 915.39 853.81 1023.98 596.70 480.65 641.74 446.24 796.92 143.18 379.93 184.23 145.40 89.54 846.08 563.01 129.88 503.23 1162.19 604.25 794.18 523.00 556.72 842.26 449.12 826.52 631.26 1172.43 822.14 1160.70 401.85 283.66 855.79 144.61 1106.97 488.60 1108.85 1112.93 288.95 1071.77 1087.25 1153.77 693.93 1135.25 734.95 833.82 124.68 151.87 492.66 477.26 530.38 773.83 1022.96 518.04 425.99 402.61 896.08 518.29 692.94 619.26 819.02 1132.06 444.63 149.11 495.36 1146.95 446.44 1100.97 515.65 74.71 495.83 449.36 750.26 1143.38 438.02 834.90 1023.83 546.04 1167.27 179.41 154.09 490.88 393.48 1157.13 70.77 430.79 432.79 660.58 435.59 1127.38 355.28 420.05 696.10 363.72 476.55 1147.38 582.84 1152.07 1124.14 1031.64 329.46 524.97 406.25 741.28 312.06 874.40 396.58 460.73 818.17 287.50 898.45 963.46 93.28 856.69 676.39 53.40 882.24 448.49 194.56 449.97 1106.56 925.93 142.82 638.12 1121.40 623.61 358.92 777.08 168.36 506.31 1112.07 428.04 1170.88 657.40 197.70 1122.76 387.28 617.95
213.07 229.25 668.89 943.83 485.49 269.99 246.17 602.77 313.04 0.00 396.78 594.81 176.15 965.42 290.72 162.54 589.32 635.61 401.21 666.90 409.81 661.91 539.04 267.83 437.37 689.52 459.99 225.88 629.90 146.88 975.26 224.43 275.08 752.67 369.48 661.14 287.11 332.31 237.56 388.35 393.16 425.97 435.70 531.73 987.77 962.81 735.25 262.83 700.89 905.52 587.07 454.29 67.32 938.29 451.36 94.73 944.05 578.43 369.18 678.07 307.87 654.73 675.78 510.36 702.33 667.43 858.43 382.61 457.09 559.93 450.91 634.52 230.94 237.40 128.81 251.38 283.14 568.32 445.61 324.20 461.39 876.07 468.30 522.02 458.83 546.27 599.25 306.59 662.63 510.56 968.96 586.35 967.27 272.42 239.29 656.17 385.88 945.26 372.08 949.90 883.77 49.49 903.32 887.84 979.29 589.41 906.09 495.49 606.78 234.44 161.17 261.23 437.60 301.22 521.42 952.13 379.67 427.10 188.24 694.79 425.27 577.42 538.45 704.64 956.80 150.54 223.57 275.98 927.99 368.74 945.20 465.47 296.03 433.44 238.26 555.76 928.23 444.37 588.90 820.73 454.90 992.01 300.78 249.51 480.74 406.31 946.80 300.56 246.94 297.11 539.88 258.39 948.32 253.68 365.60 596.95 376.55 383.53 946.33 565.24 918.69 965.19 836.69 118.07 497.06 440.90 671.25 87.36 645.02 207.83 398.34 635.17 262.44 686.64 731.12 346.32 629.46 614.94 302.55 709.40 429.09 301.66 389.08 932.66 743.76 216.30 546.33 927.97 592.35 229.49 490.30 206.82 465.31 926.64 233.09 971.47 572.59 186.71 893.60 215.54 553.11
391.86 595.68 421.49 698.92 490.54 591.93 612.33 652.64 591.73 396.78 0.00 461.92 557.60 680.84 572.82 373.33 403.61 640.22 461.18 436.82 528.21 485.68 524.94 198.43 471.40 481.20 646.84 253.36 480.07 498.29 657.84 232.93 570.01 561.69 549.69 455.09 638.26 372.75 558.86 415.88 472.73 500.92 487.83 352.63 728.01 737.07 561.23 616.03 508.14 605.88 554.96 488.19 408.27 649.20 456.77 302.05 653.05 463.28 663.09 656.14 325.11 463.96 501.89 547.58 527.47 466.93 487.75 82.97 511.67 641.09 466.05 487.44 492.05 253.82 516.36 574.84 596.87 417.30 660.66 631.72 501.83 650.33 518.47 379.18 472.56 566.28 481.49 268.49 476.92 591.72 746.00 438.36 591.88 245.11 441.62 428.57 677.39 687.44 376.40 680.89 727.97 347.29 666.31 650.83 715.78 617.08 691.60 388.87 456.42 557.90 528.91 204.35 467.94 219.38 439.46 628.90 340.76 439.72 302.98 475.96 452.80 580.66 534.82 709.25 699.66 257.28 554.83 270.63 705.26 360.77 669.14 507.10 588.32 487.92 218.74 421.17 702.49 508.88 479.08 616.49 488.93 734.87 632.04 580.77 518.22 531.30 708.87 563.43 242.33 247.75 614.38 198.61 705.42 341.08 396.49 456.79 510.18 411.06 719.38 616.07 692.95 696.18 439.91 467.59 531.09 473.26 705.29 450.98 426.19 238.65 470.34 495.81 516.31 500.85 515.75 647.93 438.69 625.57 592.69 481.25 459.98 632.92 432.76 545.30 516.58 539.76 380.35 620.18 625.25 232.81 410.90 579.66 502.79 652.95 163.69 702.12 627.37 547.04 737.80 295.11 510.28
581.92 726.00 148.56 502.21 720.94 814.62 805.85 535.64 847.22 594.81 461.92 0.00 713.37 496.07 811.21 667.98 156.12 581.98 747.98 120.38 588.42 182.21 505.54 532.76 822.81 138.47 548.86 591.76 70.74 724.53 493.33 571.33 782.00 233.36 862.13 124.99 817.61 680.55 690.75 709.49 777.32 810.13 771.17 130.78 546.15 521.19 226.44 831.74 192.70 478.90 440.30 804.92 595.26 491.04 752.67 615.22 528.40 69.25 898.72 464.76 604.49 85.09 151.13 829.05 184.74 130.65 299.94 378.95 814.89 515.19 787.46 90.55 704.04 559.07 706.46 784.47 808.86 118.42 422.93 843.71 793.02 434.45 833.75 165.10 772.88 523.59 90.07 628.26 210.92 530.55 530.12 94.17 375.59 534.95 756.93 61.36 948.61 509.44 609.02 490.50 539.63 569.98 497.29 512.77 540.94 541.17 491.93 123.98 113.36 763.75 735.60 500.33 772.38 503.88 73.39 513.33 636.74 740.66 608.23 125.20 756.05 414.60 474.34 528.13 526.62 444.27 810.42 552.92 495.41 667.69 550.45 748.48 800.31 752.40 540.31 146.51 486.61 808.87 111.54 471.83 830.65 561.74 777.86 793.98 775.90 842.78 505.18 813.55 555.37 561.51 501.43 520.18 542.90 657.14 701.74 261.04 813.02 714.31 504.71 521.92 477.07 505.79 347.78 608.62 851.08 819.43 544.79 577.91 83.07 560.09 775.59 180.97 706.37 157.73 172.63 882.17 61.36 950.41 804.68 206.66 726.00 806.83 699.85 437.76 276.88 762.45 262.91 414.89 495.59 538.06 157.38 742.26 760.47 450.53 550.50 482.96 535.02 702.81 533.27 599.70 901.48
221.38 53.10 730.36 1040.87 610.66 214.52 113.60 498.46 187.14 176.15 557.60 713.37 0.00 1008.51 200.35 248.39 664.15 696.77 539.77 714.50 267.12 746.22 469.86 428.65 562.46 754.59 355.68 361.89 708.36 65.89 991.65 382.32 159.71 802.73 473.68 696.23 208.11 494.26 62.48 564.50 441.79 484.07 533.80 625.63 1068.35 1054.23 785.31 194.86 739.05 1011.05 556.26 512.39 167.57 1003.48 553.73 255.55 1033.83 678.07 233.94 603.11 441.61 715.17 773.39 566.38 800.86 684.92 919.17 521.21 555.19 516.28 518.94 680.32 124.22 370.32 60.84 114.68 171.53 667.96 446.41 201.60 564.01 1013.54 629.12 621.66 610.71 440.12 698.89 439.51 689.93 511.32 1040.30 702.22 1033.48 411.99 271.23 739.19 301.74 1029.75 500.63 1051.44 956.95 210.31 1014.22 1029.70 1056.12 556.06 1021.22 589.39 706.42 115.06 35.27 437.38 535.70 462.04 639.98 1038.13 446.92 553.67 350.19 766.09 594.02 578.22 525.06 705.27 1074.51 311.95 139.43 452.13 984.98 474.19 982.61 530.14 199.34 531.54 381.84 655.40 1017.30 502.47 704.30 836.69 579.99 1109.72 168.94 137.32 557.56 465.33 1047.89 198.45 407.76 413.25 540.64 401.97 1055.34 378.85 490.77 592.63 482.22 559.68 1037.71 446.30 1021.47 1063.01 967.01 151.34 600.17 490.58 644.78 174.09 723.78 370.10 496.44 701.57 100.36 763.67 813.34 235.05 691.87 713.04 171.34 695.10 551.36 168.14 549.26 1026.56 804.05 108.48 516.19 1021.87 504.69 369.06 589.94 93.56 542.13 962.97 393.91 1094.51 496.45 10.56 947.12 377.49 676.39
955.21 1061.61 557.20 32.36 771.61 1118.10 1100.99 972.62 1137.47 965.42 680.84 496.07 1008.51 0.00 1136.46 920.49 555.98 1002.53 889.46 532.08 1049.44 578.22 888.66 779.76 814.60 505.09 1008.19 817.00 552.12 1074.40 107.03 804.12 1127.58 610.46 996.05 513.81 1153.48 863.52 1055.02 822.82 984.69 925.68 846.31 519.47 80.35 66.36 593.04 1100.24 619.93 74.96 876.35 910.87 965.87 38.00 891.67 906.36 81.54 548.99 1204.06 865.72 851.39 503.77 470.52 873.02 511.85 538.41 261.21 597.87 881.00 933.56 898.93 500.06 1069.00 799.56 1059.03 1093.27 1132.74 579.44 861.94 1145.32 861.38 89.35 819.21 602.22 831.75 886.26 528.17 835.22 629.29 960.80 72.75 565.05 197.09 735.62 987.74 510.89 1199.62 49.95 724.35 122.22 88.83 923.11 75.39 90.87 75.14 977.22 87.98 537.42 557.03 1102.04 1043.78 719.25 861.61 671.38 510.51 124.20 820.56 905.16 848.72 481.22 776.26 868.69 932.52 946.50 135.68 814.88 1096.57 708.25 99.97 847.34 128.55 801.89 1134.89 855.99 738.03 604.69 37.19 939.00 526.86 207.93 797.07 170.89 1156.33 1070.63 829.31 992.54 39.38 1087.53 774.29 766.86 937.98 758.16 46.83 896.31 844.63 719.22 984.61 818.00 44.79 944.20 53.75 137.51 266.58 1022.06 839.23 958.36 998.88 991.35 461.14 815.60 869.02 608.25 1079.66 459.66 388.52 1183.73 493.05 751.04 1150.40 631.21 858.37 1146.79 844.58 141.90 636.15 1095.87 703.94 192.95 961.72 778.55 633.94 1102.07 813.88 45.54 793.08 150.77 953.39 997.95 98.66 869.72 876.91
386.72 188.27 850.87 1147.99 515.55 62.25 144.75 602.24 47.72 290.72 572.82 811.21 200.35 1136.46 0.00 288.95 771.22 773.91 415.96 862.09 420.72 853.29 628.22 411.16 547.77 881.26 517.59 319.46 812.45 151.41 1117.16 339.89 75.03 833.10 420.97 852.39 180.01 426.86 242.09 433.65 336.16 436.83 495.71 723.47 1183.26 1171.24 850.52 79.17 893.13 1082.40 679.73 465.15 265.85 1117.24 466.11 286.47 1095.46 806.69 185.52 734.26 335.52 846.47 839.87 456.57 910.98 859.17 1009.87 559.49 506.10 660.42 471.70 827.08 129.65 381.53 169.48 129.01 101.89 835.01 593.17 136.74 512.46 1126.85 567.99 784.49 475.28 586.88 827.51 405.05 815.62 651.77 1160.70 802.75 1159.01 400.84 282.22 872.57 192.33 1129.46 440.88 1141.64 1075.51 241.23 1095.06 1079.58 1171.03 677.13 1097.83 687.23 824.13 114.99 182.03 476.00 475.82 492.96 737.82 1070.68 497.54 448.04 393.47 865.80 470.57 681.48 594.87 839.11 1148.54 416.84 132.31 485.44 1119.73 398.72 1136.94 526.42 80.21 494.39 417.21 740.57 1152.13 425.70 802.14 1015.92 532.52 1183.75 196.19 106.37 512.93 408.43 1158.35 92.82 383.07 412.57 674.43 397.08 1140.06 337.99 395.66 685.20 378.67 428.83 1156.27 569.29 1111.48 1156.93 1012.73 307.50 490.36 428.30 754.19 317.56 853.11 383.05 459.29 823.21 262.27 850.73 922.86 141.00 821.20 674.95 29.01 874.33 447.05 177.32 402.25 1118.12 878.21 131.92 623.26 1119.71 642.29 373.16 781.02 158.09 526.26 1130.48 409.13 1163.21 674.71 189.79 1085.34 378.87 616.51
313.08 301.49 751.98 932.21 409.25 226.70 277.57 663.36 266.90 162.54 373.33 667.98 248.39 920.49 288.95 0.00 680.76 747.65 355.88 720.54 454.66 750.90 618.84 236.78 453.47 701.72 572.03 205.21 699.03 202.99 959.40 201.32 258.00 827.83 312.46 738.81 264.93 254.61 250.02 345.96 270.73 339.58 410.04 564.12 961.30 963.08 810.41 307.74 810.18 888.22 677.48 332.22 229.86 882.49 366.24 128.58 974.49 681.66 353.72 751.83 212.39 648.34 717.89 423.89 747.99 706.54 858.90 365.31 398.78 605.18 354.36 683.19 241.68 221.14 187.55 242.93 284.86 693.61 535.18 294.98 383.69 927.79 474.20 684.56 381.49 624.76 693.10 281.92 715.89 600.97 938.22 659.52 965.21 265.49 93.53 710.91 408.54 931.85 339.43 1015.76 902.42 161.53 990.67 979.06 949.07 657.37 913.04 600.36 682.05 251.70 219.91 260.97 390.15 346.08 594.59 983.55 363.41 348.56 171.98 738.98 366.49 666.99 628.86 794.17 1005.00 252.28 246.23 311.06 930.45 275.59 946.93 388.96 297.63 410.04 182.46 694.58 926.15 343.60 662.07 801.01 436.16 1040.21 304.68 220.29 392.40 250.55 942.16 196.13 226.75 274.00 630.29 174.72 950.62 185.94 289.36 609.24 280.31 341.14 940.13 654.81 885.17 1027.33 813.24 208.48 394.00 321.30 746.09 177.77 690.97 254.23 375.54 686.42 328.55 728.75 731.59 358.17 673.61 562.07 269.58 788.95 352.85 296.45 327.75 918.63 858.90 262.31 532.80 993.51 642.86 234.59 652.84 265.56 376.97 920.83 209.64 1054.56 625.01 258.95 892.59 199.28 528.33
481.19 611.05 79.65 574.86 778.56 830.24 692.61 435.76 786.08 589.32 403.61 156.12 664.15 555.98 771.22 680.76 0.00 446.55 734.68 110.24 533.79 82.07 411.05 560.19 864.50 154.62 454.40 602.43 85.38 726.00 562.82 593.99 696.19 204.41 881.97 128.51 773.76 742.78 648.19 734.02 809.44 813.55 788.05 175.15 612.91 587.74 186.99 745.93 129.42 548.08 320.37 806.99 626.97 592.63 757.11 639.75 560.78 96.68 825.68 405.98 646.30 126.86 190.31 784.05 200.89 125.09 375.60 427.15 817.26 377.58 784.85 136.75 690.16 598.97 707.93 705.05 723.05 63.79 397.46 757.90 796.59 590.57 853.61 67.30 773.93 369.71 114.89 668.16 73.31 426.95 600.36 71.76 509.76 580.36 748.01 195.53 862.80 586.90 681.90 605.38 639.60 594.51 558.55 574.03 610.21 421.24 589.32 148.51 117.23 684.33 699.42 548.53 780.46 525.86 136.69 578.64 684.94 782.47 648.13 203.92 765.24 346.07 399.62 390.52 611.84 507.57 704.39 590.75 622.27 709.50 569.86 811.95 735.82 782.55 584.68 111.22 550.81 809.65 96.18 535.64 854.44 647.05 742.57 703.23 839.37 863.34 595.36 799.67 595.63 549.12 428.51 564.55 602.81 672.09 713.82 203.73 841.04 738.84 578.49 427.65 591.79 620.67 386.28 585.79 817.84 821.92 470.70 576.97 169.49 533.21 758.51 142.30 605.64 182.32 259.05 796.36 152.13 941.67 755.60 120.08 703.59 733.79 729.79 501.16 213.60 702.47 147.96 539.27 415.26 617.75 99.02 651.51 823.94 596.16 567.30 639.08 397.41 668.39 649.43 661.84 879.07
563.12 656.28 526.20 1021.41 1022.12 830.76 685.10 246.67 784.18 635.61 640.22 581.98 696.77 1002.53 773.91 747.65 446.55 0.00 977.08 556.79 447.85 528.62 226.91 763.87 1062.42 601.17 348.81 762.51 531.93 699.83 978.54 767.48 724.49 529.83 986.89 575.06 750.39 901.08 652.49 957.11 949.50 982.31 972.33 583.49 1035.29 1034.29 512.41 731.53 484.30 952.45 192.99 999.25 662.12 999.06 989.76 631.36 991.05 514.91 800.97 150.73 848.46 573.41 629.63 1046.99 575.51 540.02 785.15 723.19 993.72 205.86 987.54 546.30 712.09 787.13 693.83 669.70 740.83 510.34 299.19 742.23 1000.58 996.90 1004.93 513.85 998.74 268.25 531.58 850.58 373.24 221.29 1046.91 518.31 914.13 809.05 775.92 599.90 853.14 1007.04 861.15 911.98 1044.61 586.12 941.06 956.54 1023.06 153.67 1035.87 553.25 509.20 659.50 673.10 781.37 963.94 801.41 568.03 963.16 923.63 977.73 757.01 642.51 994.03 167.38 235.93 69.03 948.10 709.35 693.48 838.15 1000.39 887.64 975.68 1002.10 744.58 970.07 708.30 522.29 997.36 981.98 500.55 954.67 1072.53 983.22 724.85 667.54 1017.37 937.44 1032.55 806.99 783.57 813.19 191.97 728.43 1003.25 790.31 902.23 407.76 907.68 952.29 1025.04 314.11 1038.34 927.27 822.73 656.31 1062.56 972.03 145.01 644.49 599.54 721.20 934.97 436.69 604.13 618.77 689.10 790.02 569.86 1151.57 745.48 515.60 965.72 743.70 925.71 917.85 568.48 677.64 411.06 953.43 238.54 766.12 514.41 615.82 1001.94 999.40 754.95 1020.42 224.79 707.33 1038.25 771.88 1104.63
581.73 540.86 782.42 896.27 139.77 353.71 545.89 764.54 417.40 401.21 461.18 747.98 539.77 889.46 415.96 355.88 734.68 977.08 0.00 784.65 691.62 791.65 776.33 283.22 170.78 811.21 801.46 248.68 747.65 502.34 951.86 228.25 490.99 878.29 161.59 799.79 564.05 127.49 587.18 107.82 133.97 78.87 79.75 668.62 881.71 899.47 860.87 477.89 833.95 913.92 836.30 79.89 443.00 906.35 50.15 345.72 965.07 687.84 549.98 923.79 143.49 762.76 776.64 140.96 811.74 761.05 804.42 398.96 102.08 803.13 64.47 727.91 453.60 214.78 494.21 488.30 485.93 737.01 727.18 547.28 96.50 889.62 186.85 722.49 168.69 743.14 706.05 213.02 804.30 817.68 883.98 662.92 924.05 267.87 311.17 740.97 562.01 930.08 181.17 985.99 800.63 390.96 955.11 939.63 893.94 846.11 888.88 693.33 722.80 467.58 504.50 327.51 59.86 338.19 674.59 939.50 236.68 49.91 232.50 782.27 113.20 823.14 806.39 992.12 999.42 360.63 514.25 255.16 828.66 120.61 992.91 110.46 492.11 78.43 282.22 734.80 889.42 74.97 706.65 846.99 166.33 1026.65 590.88 498.99 125.73 149.91 902.02 377.31 271.43 267.27 807.34 302.35 904.25 204.66 92.74 734.68 126.41 103.00 881.39 685.20 851.77 970.70 817.39 479.18 137.62 87.24 904.72 488.57 735.37 305.17 43.33 786.18 617.50 765.78 773.29 510.68 754.68 258.99 444.97 818.26 31.09 561.91 114.32 885.21 913.41 485.72 674.28 960.09 804.59 235.79 690.77 511.26 110.30 865.84 297.49 1008.19 790.62 542.80 790.80 205.20 200.55
576.23 704.90 61.42 543.91 793.03 872.52 786.46 546.00 843.54 666.90 436.82 120.38 714.50 532.08 862.09 720.54 110.24 556.79 784.65 0.00 570.70 115.01 511.89 576.98 844.40 44.38 548.25 623.50 49.64 726.46 464.71 603.07 790.04 141.83 884.51 18.27 850.17 721.06 726.86 762.63 814.07 828.60 808.89 184.55 534.22 528.38 124.41 839.78 137.22 476.69 430.61 811.19 652.43 527.80 758.94 675.16 450.54 113.47 908.20 443.66 667.41 72.20 80.07 849.75 90.65 56.31 290.44 411.94 839.35 487.82 793.73 72.58 732.44 637.41 708.39 783.76 816.90 112.12 405.08 851.75 825.64 521.14 895.26 166.96 802.55 479.95 92.65 705.31 183.55 458.62 552.58 121.73 416.76 598.63 776.98 131.45 956.65 507.87 658.86 517.91 557.18 629.92 499.51 484.03 529.01 511.98 532.52 183.92 95.51 778.18 717.63 524.68 789.00 553.75 145.48 478.30 669.73 803.58 638.73 93.68 747.06 456.31 506.90 500.76 552.99 516.36 796.50 583.59 542.28 730.61 501.76 770.07 828.71 803.01 580.39 179.07 535.64 815.14 78.00 434.99 852.24 588.20 810.42 797.08 797.49 835.06 493.25 841.95 559.89 594.50 487.94 573.95 508.05 664.03 755.81 293.60 805.30 757.81 522.47 524.71 563.76 533.20 276.93 563.16 879.97 855.90 580.94 593.87 104.66 632.18 803.62 187.32 700.68 72.97 163.13 890.21 97.47 982.55 833.08 162.49 753.56 827.64 746.58 431.87 179.65 791.09 241.81 429.03 525.50 636.34 190.14 745.36 782.06 497.97 600.51 567.66 507.65 703.94 547.35 666.03 929.04
359.03 248.80 594.88 1071.75 739.40 443.95 330.36 295.94 423.83 409.81 528.21 588.42 267.12 1049.44 420.72 454.66 533.79 447.85 691.62 570.70 0.00 563.59 275.06 517.99 759.39 615.08 153.16 509.53 532.77 295.32 996.27 489.10 371.30 678.93 703.11 563.85 366.42 649.38 204.64 687.18 656.93 736.62 652.90 599.49 1079.00 1077.17 661.51 376.38 602.57 994.76 371.76 754.54 348.97 1030.16 702.85 436.23 996.12 519.17 447.78 400.59 548.13 619.18 610.90 755.28 643.07 592.68 808.51 531.35 719.91 327.36 737.64 600.00 375.37 476.84 313.39 321.84 347.98 470.00 280.16 374.65 683.11 1022.87 764.53 524.84 717.23 294.37 539.99 546.03 549.22 311.41 1097.25 544.09 947.59 498.76 479.73 648.81 450.72 1037.80 636.75 1037.38 1097.86 390.99 990.80 975.32 1066.77 294.18 1080.35 568.39 523.44 322.08 287.32 580.88 672.79 627.29 569.45 1001.13 614.95 684.30 526.00 584.97 720.93 379.52 330.26 456.16 1044.28 499.96 288.41 592.27 1083.83 611.33 1032.68 697.32 384.29 671.67 556.67 568.76 1047.70 754.26 554.25 965.82 763.33 1079.49 365.62 314.35 708.17 705.21 1042.04 450.50 532.28 529.70 299.79 536.54 1035.80 574.91 619.51 489.05 706.54 682.36 1070.76 261.96 1065.49 1052.67 825.72 353.16 770.35 737.20 382.90 322.45 634.74 540.37 690.26 535.32 248.70 621.76 681.20 421.29 622.50 832.14 408.06 630.34 683.00 366.50 655.78 926.26 686.75 340.22 459.60 986.89 302.17 455.83 544.64 289.26 692.74 1003.90 524.95 1058.95 307.53 261.71 1107.69 553.30 807.40
557.70 693.12 85.83 610.58 767.84 858.71 761.83 517.83 868.15 661.91 485.68 182.21 746.22 578.22 853.29 750.90 82.07 528.62 791.65 115.01 563.59 0.00 440.78 576.47 867.98 159.39 536.47 656.77 114.02 768.24 538.84 647.74 778.26 186.29 843.65 122.97 818.00 694.40 724.70 753.58 758.84 848.93 841.35 204.31 621.71 615.87 178.86 828.00 91.26 551.56 402.44 863.96 678.18 573.19 814.08 659.31 555.24 112.96 899.11 402.17 687.41 164.55 171.32 866.12 160.04 81.71 368.55 473.97 860.28 459.65 841.82 129.70 772.23 659.64 750.17 784.24 805.12 93.59 371.37 839.97 823.48 583.25 880.65 148.43 819.10 451.78 97.71 728.83 155.38 470.74 636.56 128.73 498.45 617.87 777.81 184.22 944.87 555.21 730.28 605.40 655.96 614.07 589.85 587.60 616.50 503.31 620.01 168.07 68.85 766.40 774.75 571.07 837.43 573.26 156.31 547.69 731.76 811.46 703.11 197.25 768.72 377.06 424.64 472.59 638.34 527.19 786.46 635.84 626.50 740.65 582.64 850.19 817.89 839.52 599.28 146.90 587.01 830.53 99.66 526.24 885.51 673.55 778.25 780.40 867.15 838.21 580.74 881.74 624.27 625.79 463.89 579.15 600.11 721.62 729.15 211.34 808.45 758.40 607.86 491.00 619.56 620.69 364.42 652.71 899.91 850.98 507.25 622.00 198.00 615.28 815.48 116.21 682.15 160.46 267.83 878.43 167.91 1006.04 837.67 88.65 760.56 807.22 746.07 483.98 175.44 764.62 230.03 506.54 489.87 638.63 171.61 730.36 862.18 532.68 611.21 640.80 479.48 746.90 646.13 682.62 936.04
390.00 496.69 450.47 919.60 802.06 625.44 568.31 127.70 598.06 539.04 524.94 505.54 469.86 888.66 628.22 618.84 411.05 226.91 776.33 511.89 275.06 440.78 0.00 536.96 896.45 489.72 121.90 628.66 463.02 476.81 857.00 608.23 564.46 531.31 803.46 511.33 592.49 706.98 433.39 780.15 766.45 799.26 846.79 459.91 948.69 955.02 537.01 602.88 490.75 849.86 96.70 827.58 564.85 869.88 801.36 534.79 896.85 460.29 644.41 159.79 664.20 489.37 522.44 892.17 535.99 495.91 663.61 607.91 868.18 122.81 834.13 519.37 565.70 592.91 478.55 544.24 570.38 417.48 142.00 611.44 836.06 894.31 896.51 406.87 811.09 41.34 480.43 662.10 343.76 74.78 961.41 454.91 810.72 583.64 679.35 496.49 644.22 919.24 680.42 925.63 925.65 489.55 884.91 886.86 936.46 128.39 951.79 423.67 451.57 557.48 446.19 617.83 831.42 646.26 474.26 851.57 699.83 794.65 616.13 496.51 780.56 122.40 55.20 275.49 945.20 570.26 510.81 611.24 953.68 660.73 928.88 862.77 587.78 833.02 584.70 383.03 925.85 817.66 482.38 821.26 913.98 980.41 581.49 536.75 877.58 845.82 928.04 609.37 616.21 586.28 104.10 599.02 935.49 661.36 712.34 268.50 816.06 781.34 933.45 91.13 936.93 940.92 711.45 475.58 913.95 855.05 211.52 497.98 446.74 564.01 809.43 324.57 377.22 521.40 536.30 626.25 478.65 1013.88 621.06 446.80 775.83 552.52 754.76 805.04 525.56 546.23 312.35 850.02 114.50 599.12 375.15 524.56 874.76 887.28 571.70 961.86 106.95 480.42 915.82 588.83 951.31
363.27 473.43 517.89 769.79 321.01 429.99 475.52 581.98 421.08 267.83 198.43 532.76 428.65 779.76 411.16 236.78 560.19 763.87 283.22 576.98 517.99 576.47 536.96 0.00 359.49 608.18 628.84 91.70 542.88 365.33 775.98 71.27 441.06 663.11 396.31 583.90 501.71 235.87 456.01 281.99 320.04 318.17 314.35 451.46 803.25 799.85 645.69 481.57 631.62 704.80 623.89 316.65 286.02 770.08 264.40 173.10 749.81 463.51 526.54 696.75 139.73 562.88 584.81 355.21 587.41 562.12 646.62 181.89 344.81 611.29 299.19 551.55 363.10 83.17 383.40 444.53 467.92 512.68 531.71 491.05 315.87 749.25 366.84 531.14 274.13 495.62 484.33 152.36 603.48 570.16 777.04 488.43 780.84 46.68 279.96 527.49 548.11 786.36 182.10 821.88 691.85 218.34 804.56 806.02 791.02 649.01 714.17 487.70 507.62 428.95 395.95 80.87 294.46 109.30 508.24 791.53 162.87 275.90 132.33 558.88 318.91 610.97 592.16 781.29 858.00 140.97 418.28 74.28 736.07 202.93 786.29 349.36 459.37 308.47 70.05 530.11 780.64 320.60 505.80 640.37 377.02 893.12 495.49 444.22 350.93 378.02 793.24 426.88 79.25 49.32 599.48 62.06 783.70 181.24 201.12 542.94 348.26 277.17 772.61 553.56 759.73 837.17 638.34 338.64 389.00 343.53 734.66 322.03 558.89 109.70 299.69 574.01 487.72 584.90 619.18 514.36 537.61 489.41 440.17 614.52 264.61 496.37 252.35 742.98 708.22 410.81 517.30 817.86 573.61 62.16 551.64 449.34 350.76 736.99 34.74 887.64 618.85 418.09 701.68 147.68 435.15
650.44 615.56 851.91 846.96 210.15 511.75 628.44 934.91 549.35 437.37 471.40 822.81 562.46 814.60 547.77 453.47 864.50 1062.42 170.78 844.40 759.39 867.98 896.45 359.49 0.00 835.75 876.93 347.03 809.32 561.70 921.63 367.46 579.79 915.91 211.44 839.94 667.92 207.66 585.64 193.35 237.84 149.19 106.49 774.65 893.17 868.00 933.33 585.66 931.28 889.56 972.60 135.26 504.69 852.60 144.04 468.59 896.14 778.99 671.65 1037.80 274.45 782.37 815.44 91.20 874.06 869.23 883.36 525.42 68.70 970.78 114.32 814.07 501.83 343.97 543.63 606.97 589.80 828.16 838.26 641.50 78.58 865.09 218.18 814.15 174.64 855.11 799.35 310.80 920.66 929.65 875.52 800.21 950.84 312.81 377.09 789.49 668.18 864.55 308.64 936.82 828.64 476.30 889.99 903.62 889.74 949.32 835.89 778.86 799.13 604.24 575.99 407.16 115.22 451.01 774.37 938.80 292.33 185.21 351.73 789.51 179.12 957.21 933.86 1009.78 950.28 500.46 606.99 394.33 872.86 253.91 943.15 74.33 582.08 118.79 416.29 847.89 831.07 138.81 768.32 955.52 17.53 985.49 675.00 618.84 61.07 216.93 853.98 481.18 351.55 344.05 958.97 404.63 861.43 309.64 224.39 815.24 213.11 188.53 858.75 855.98 822.47 952.11 844.13 555.44 59.69 175.56 1030.67 524.73 739.74 416.25 127.45 920.25 662.82 814.40 756.05 642.63 771.65 261.65 535.50 906.03 168.38 646.03 175.16 935.06 961.02 586.10 813.49 911.54 933.10 355.74 782.43 598.10 76.50 860.14 394.23 965.37 961.40 551.90 838.47 359.62 135.78
614.01 749.28 95.28 516.37 827.83 884.67 830.84 590.38 885.15 689.52 481.20 138.47 754.59 505.09 881.26 701.72 154.62 601.17 811.21 44.38 615.08 159.39 489.72 608.18 835.75 0.00 592.63 667.52 94.02 763.90 460.60 647.45 834.42 126.11 887.80 58.36 885.95 765.44 708.04 759.81 802.99 835.80 805.84 200.50 506.68 500.84 108.69 882.50 125.66 458.88 474.99 855.57 692.52 510.94 803.32 685.27 479.20 157.85 952.58 451.11 688.08 53.38 43.11 841.99 46.27 81.71 272.63 434.37 840.53 532.20 837.46 88.23 776.82 640.04 748.48 828.14 861.28 150.73 420.31 892.79 820.91 503.33 894.15 200.24 801.44 520.97 137.03 709.23 227.93 503.00 525.04 153.22 379.80 643.01 795.25 113.14 991.47 502.13 650.21 490.37 558.96 640.03 455.13 439.65 501.47 545.84 504.98 194.03 139.89 822.56 733.28 527.31 821.14 574.27 189.86 433.92 692.16 809.38 652.67 49.30 791.44 500.69 516.46 545.14 508.61 560.74 829.16 556.05 514.74 751.28 475.32 761.42 871.31 815.70 605.79 223.45 511.99 854.20 122.38 398.03 843.59 543.82 854.80 841.46 788.84 879.44 465.71 886.33 604.27 616.93 486.96 589.90 463.67 691.67 770.49 303.16 849.68 754.99 494.93 539.94 545.95 505.66 249.39 603.25 871.32 893.08 625.32 633.96 96.01 650.71 828.55 165.15 738.46 45.43 145.53 903.65 78.65 973.90 877.46 169.61 785.05 871.00 728.41 414.06 171.22 831.18 286.19 384.65 555.27 661.05 228.75 789.74 773.41 470.43 624.82 523.28 540.63 744.03 552.60 625.37 929.13
270.05 374.79 534.05 1029.26 846.50 570.20 446.41 142.78 538.02 459.99 646.84 548.86 355.68 1008.19 517.59 572.03 454.40 348.81 801.46 548.25 153.16 536.47 121.90 628.84 876.93 592.63 0.00 586.89 498.61 421.57 940.37 591.86 442.56 653.21 816.77 552.86 470.59 725.46 333.85 769.29 768.05 727.74 796.71 563.06 1043.50 1038.67 636.43 480.98 583.82 933.23 218.60 756.06 463.92 987.42 797.40 455.74 985.13 479.61 522.51 247.43 672.84 542.98 612.53 861.50 594.16 558.52 746.98 642.59 808.23 186.69 762.61 508.13 479.90 611.51 416.52 422.34 448.48 469.50 228.04 489.54 826.92 977.68 829.31 423.20 823.12 163.24 500.43 674.96 459.90 158.25 1036.13 503.76 881.23 616.15 590.85 567.00 522.32 1014.79 738.62 996.14 1009.45 410.50 955.30 939.82 1031.27 200.38 1005.44 532.95 507.96 435.58 390.95 675.64 794.33 662.23 514.91 961.57 732.34 759.64 581.39 607.29 806.21 226.36 177.10 362.36 1008.78 492.35 388.91 700.80 1038.64 729.75 997.18 826.48 482.19 794.45 599.27 456.94 1005.21 746.14 521.90 895.17 864.47 1043.99 459.59 414.85 841.75 767.32 1003.54 554.13 607.95 647.39 187.57 618.56 1000.30 614.69 726.61 382.88 737.56 764.47 1032.76 167.23 1020.30 1011.43 794.82 374.65 856.93 799.64 289.10 405.36 568.64 570.29 759.35 446.47 255.32 618.60 658.20 504.35 561.14 975.95 501.97 568.70 790.10 430.62 750.09 886.70 644.94 439.56 306.44 920.53 149.01 590.50 391.48 415.25 826.32 981.31 594.10 1023.45 194.25 366.24 1004.74 596.26 935.02
370.94 381.73 609.59 836.01 333.15 381.71 417.20 636.45 367.18 225.88 253.36 591.76 361.89 817.00 319.46 205.21 602.43 762.51 248.68 623.50 509.53 656.77 628.66 91.70 347.03 667.52 586.89 0.00 573.86 327.39 834.12 20.43 394.49 672.98 321.84 628.11 470.14 218.08 397.12 236.50 237.03 269.84 315.95 467.02 869.47 866.07 655.56 398.63 695.82 762.94 648.74 298.16 194.32 797.78 298.83 131.15 793.60 555.21 504.98 723.69 128.62 614.14 657.23 331.60 679.11 621.83 690.41 240.03 278.33 659.07 304.71 626.33 322.62 62.07 345.46 386.21 421.35 596.51 491.23 440.21 315.13 807.39 362.40 574.93 297.72 587.32 576.03 131.26 616.42 609.70 843.26 570.41 845.24 81.38 188.26 567.46 506.49 844.50 168.08 872.67 758.07 176.39 848.35 849.81 857.24 688.55 780.39 503.26 587.92 387.00 339.53 156.54 306.38 175.52 542.94 838.88 178.08 264.79 74.01 631.30 278.93 623.04 627.25 819.68 908.64 185.04 419.64 165.98 802.29 191.82 844.82 340.90 399.67 313.69 97.75 585.04 846.86 288.24 593.47 703.91 364.56 876.29 472.54 404.76 342.00 316.40 856.38 401.34 63.61 93.11 639.02 77.62 838.63 128.45 217.38 486.00 286.64 241.32 838.83 557.11 825.95 887.96 693.27 266.34 347.17 324.21 752.01 261.85 617.21 69.22 278.59 585.86 436.93 668.09 646.88 460.46 588.87 478.30 348.47 694.82 279.77 471.21 241.01 798.66 718.09 368.86 466.46 873.54 665.31 53.70 592.65 411.40 345.56 811.02 89.67 933.44 662.53 351.33 767.90 59.41 438.88
526.88 655.26 77.82 538.98 756.03 822.88 736.82 521.14 793.90 629.90 480.07 70.74 708.36 552.12 812.45 699.03 85.38 531.93 747.65 49.64 532.77 114.02 463.02 542.88 809.32 94.02 498.61 573.86 0.00 734.65 500.69 553.43 740.40 162.62 834.87 54.25 800.53 671.42 693.88 712.99 794.01 825.95 782.69 134.91 577.03 551.86 155.70 790.14 121.96 492.90 405.75 817.07 630.35 539.51 766.71 647.15 486.52 79.37 858.56 394.02 639.58 86.41 115.72 847.96 121.49 59.91 325.60 404.57 812.73 462.96 797.82 86.75 682.80 587.77 716.58 749.26 767.26 62.77 355.44 802.11 800.50 505.19 858.26 117.61 765.55 455.09 58.55 656.96 158.69 481.35 564.48 84.73 446.33 548.99 746.99 132.10 907.01 543.85 679.76 561.24 603.72 601.91 518.10 529.72 574.33 504.92 548.87 155.91 45.87 728.54 731.80 475.04 793.24 542.44 108.48 509.14 662.36 759.53 589.09 139.37 710.06 431.45 457.26 475.90 526.46 479.36 748.60 560.96 566.15 702.78 537.74 767.39 779.07 789.08 544.44 129.43 514.93 807.55 41.00 470.64 825.99 561.67 760.78 747.44 770.83 785.42 542.89 792.31 510.25 569.84 496.23 524.31 557.69 666.33 706.17 243.96 755.66 708.17 542.61 475.07 547.81 571.50 323.85 599.14 868.15 820.01 556.08 609.84 129.04 595.18 753.98 138.45 651.33 122.61 199.11 840.57 110.31 955.89 783.44 135.92 716.56 778.00 712.48 444.82 206.14 746.68 192.17 478.67 500.64 586.70 140.79 695.72 755.40 521.27 559.23 553.70 482.79 712.60 596.99 616.39 892.04
257.68 115.14 765.95 1046.42 549.63 148.63 140.28 521.83 168.14 146.88 498.29 724.53 65.89 1074.40 151.41 202.99 726.00 699.83 502.34 726.46 295.32 768.24 476.81 365.33 561.70 763.90 421.57 327.39 734.65 0.00 1057.54 336.44 128.20 813.02 407.79 708.19 191.14 454.55 90.68 521.99 382.54 441.30 523.00 643.09 1086.22 1061.05 830.44 138.78 804.94 1021.01 573.51 469.62 175.83 1039.10 510.96 196.24 1055.41 655.28 244.87 636.60 395.47 710.52 780.07 500.49 779.18 749.45 897.58 498.10 513.73 559.38 476.17 675.67 88.89 324.18 18.07 104.50 141.38 704.45 441.76 186.13 544.53 1022.95 579.66 668.90 563.62 435.47 676.10 393.37 712.69 510.01 1051.18 680.20 1048.77 346.10 205.34 734.54 249.26 1056.62 484.09 1056.40 995.13 160.85 1009.57 999.20 1083.52 588.86 1008.49 606.85 699.39 87.56 30.62 408.11 507.89 412.58 657.44 1058.38 462.29 494.28 321.89 774.83 528.13 573.57 532.01 748.37 1068.16 297.42 129.34 422.86 978.81 408.30 1048.50 487.37 149.15 504.23 339.07 679.76 1050.27 459.70 697.57 902.58 569.54 1103.37 193.04 111.44 514.79 440.42 1077.97 179.20 358.30 377.04 539.33 357.18 1059.68 336.08 448.00 602.33 432.15 517.17 1067.86 493.41 1050.40 1071.69 938.20 163.30 534.28 455.25 674.51 179.93 751.98 320.64 491.79 696.92 166.25 786.14 836.52 214.69 720.07 687.13 155.67 760.99 511.49 185.99 490.59 1039.01 819.71 69.42 578.04 1039.33 561.88 303.17 637.18 84.01 499.36 1028.86 334.60 1082.83 562.34 76.45 1004.96 336.76 648.58
1001.00 1044.75 483.17 139.39 835.08 1133.13 1084.13 914.11 1069.44 975.26 657.84 493.33 991.65 107.03 1117.16 959.40 562.82 978.54 951.86 464.71 996.27 538.84 857.00 775.98 921.63 460.60 940.37 834.12 500.69 1057.54 0.00 813.69 1137.02 553.73 1001.94 446.44 1162.92 943.98 1038.16 885.22 917.13 968.15 911.29 513.47 149.50 155.13 569.29 1127.42 514.27 71.18 870.97 955.42 990.52 126.49 958.37 937.63 90.98 501.94 1184.25 862.27 849.56 452.89 437.23 963.47 434.13 457.13 193.39 594.09 910.20 928.18 933.28 432.24 1094.75 828.20 1052.49 1085.21 1157.55 540.29 818.37 1154.76 915.51 115.63 854.81 553.41 891.95 882.48 498.81 897.39 623.91 923.33 129.07 497.23 178.55 807.18 1022.38 460.01 1214.05 77.13 804.81 118.77 170.89 925.77 71.94 87.42 153.94 933.73 97.02 549.71 508.80 1097.15 1026.92 715.47 931.18 701.89 533.86 46.48 804.70 967.56 849.35 411.30 838.66 896.67 881.64 940.61 132.23 841.16 1106.01 763.73 176.59 912.76 124.49 890.72 1144.15 918.39 800.32 553.81 144.22 986.55 477.99 270.41 904.10 167.44 1139.47 1080.07 871.84 958.32 139.42 1140.21 770.51 776.65 923.51 784.68 122.03 903.28 925.09 668.34 966.74 880.40 149.97 938.00 142.58 134.06 241.23 991.33 946.26 995.45 994.67 1003.64 410.26 843.53 948.65 609.07 1092.01 445.19 320.70 1162.72 442.17 858.07 1122.84 558.22 920.77 1156.23 906.98 112.54 598.45 1079.01 692.86 144.92 946.87 838.14 576.46 1085.21 887.27 109.01 810.72 151.30 948.01 981.09 161.06 830.75 983.94
391.37 402.16 589.16 825.67 316.84 362.04 435.56 653.25 387.61 224.43 232.93 571.33 382.32 804.12 339.89 201.32 593.99 767.48 228.25 603.07 489.10 647.74 608.23 71.27 367.46 647.45 591.86 20.43 553.43 336.44 813.69 0.00 408.28 693.41 341.01 607.68 466.25 218.25 417.55 245.92 256.20 289.01 297.09 472.74 857.06 855.73 675.99 419.06 675.39 742.51 644.84 308.14 214.75 778.25 278.40 141.37 773.17 534.78 525.41 719.79 114.50 600.59 636.80 352.03 658.68 602.30 669.98 219.60 298.76 679.50 292.72 605.90 330.32 43.21 352.69 404.57 435.14 583.95 498.93 419.78 324.75 786.96 341.97 554.50 283.60 566.89 555.60 112.40 611.65 630.13 832.92 559.70 824.81 68.50 208.69 547.03 516.71 824.07 147.65 852.24 747.73 181.36 827.92 829.38 844.83 689.98 770.05 508.98 578.89 391.97 359.96 136.11 288.11 165.18 530.06 818.45 184.69 250.67 92.37 610.87 282.84 619.14 607.72 815.79 888.21 175.47 433.75 145.55 791.95 177.70 824.39 320.47 419.05 294.83 78.22 564.61 836.52 303.22 577.07 695.61 383.04 855.86 488.61 415.85 327.88 335.57 837.92 392.61 43.18 72.68 659.45 83.34 818.20 112.90 196.95 506.43 305.81 241.10 828.49 576.28 815.61 867.53 672.84 286.77 365.87 305.35 733.15 282.28 596.78 76.92 259.73 582.18 457.36 647.66 627.35 480.89 575.32 464.18 368.90 685.79 259.34 489.57 222.15 778.23 738.52 373.83 446.03 853.11 644.88 33.27 581.53 418.28 326.70 790.59 69.24 913.01 681.70 371.76 757.56 78.58 428.80
311.69 149.13 775.84 1151.13 545.95 137.28 106.07 572.81 107.18 275.08 570.01 782.00 159.71 1127.58 75.03 258.00 696.19 724.49 490.99 790.04 371.30 778.26 564.46 441.06 579.79 834.42 442.56 394.49 740.40 128.20 1137.02 408.28 0.00 900.60 414.05 794.65 104.98 460.81 199.84 508.68 376.20 474.50 521.69 733.49 1158.34 1133.17 883.18 49.74 825.61 1094.42 606.59 496.79 247.76 1108.96 512.30 296.49 1046.04 779.76 142.30 684.84 410.55 823.05 856.12 531.60 835.95 800.31 1025.78 571.51 536.50 614.64 506.49 803.87 77.96 392.10 146.27 79.59 26.86 759.98 569.96 61.71 534.38 1124.28 637.89 736.41 545.18 563.67 798.95 454.62 742.48 598.20 1159.23 767.95 1157.59 456.04 318.76 843.36 166.61 1100.03 515.91 1119.16 1085.53 251.25 1100.79 1089.60 1155.64 642.94 1106.17 697.25 783.90 76.92 158.82 493.78 522.90 502.98 708.61 1091.32 534.37 488.08 342.94 879.77 545.60 632.06 598.99 793.52 1155.28 398.75 82.89 487.30 1107.01 467.54 1097.26 557.20 39.63 502.92 408.93 702.50 1131.14 456.10 776.09 982.83 595.32 1190.40 131.26 56.95 551.90 455.57 1151.33 132.86 421.78 480.96 627.52 410.87 1144.93 352.48 426.06 612.06 425.81 503.86 1137.25 539.57 1143.17 1134.45 1009.92 286.71 553.16 444.32 679.16 261.04 832.21 331.36 534.32 750.07 187.24 863.01 917.58 100.17 829.23 676.20 59.41 816.27 489.55 102.29 477.28 1115.31 909.79 58.78 548.23 1129.73 582.50 413.11 707.51 108.67 545.21 1109.11 406.32 1173.23 627.74 156.70 1093.26 370.24 663.59
673.04 815.46 157.54 597.32 890.50 895.35 895.21 607.18 880.82 752.67 561.69 233.36 802.73 610.46 833.10 827.83 204.41 529.83 878.29 141.83 678.93 186.29 531.31 663.11 915.91 126.11 653.21 672.98 162.62 813.02 553.73 693.41 900.60 0.00 994.82 156.82 910.15 781.04 834.15 840.08 910.01 935.57 886.00 266.87 615.14 609.30 17.42 912.27 111.85 567.54 493.96 949.03 764.82 592.63 900.72 784.78 552.53 199.60 991.26 463.59 774.05 179.49 164.75 922.15 119.60 152.12 381.29 536.53 920.69 549.75 928.46 200.26 845.42 735.05 814.76 885.35 918.66 208.93 461.90 961.21 901.07 611.99 961.53 235.27 902.17 562.56 184.35 804.24 246.90 528.14 622.82 215.37 499.64 704.51 861.24 221.59 1025.43 591.26 726.80 593.14 662.06 739.54 556.06 548.10 609.93 558.65 613.44 293.54 155.49 864.63 782.40 635.76 901.30 678.34 242.95 507.25 701.58 898.10 746.99 157.75 855.36 519.66 558.05 465.21 616.35 613.83 899.57 664.51 623.20 827.29 585.26 841.58 913.31 895.86 676.20 239.05 573.27 917.17 186.30 516.35 923.75 651.56 870.40 886.52 869.00 948.04 574.17 919.57 672.87 712.43 498.82 656.27 589.78 798.74 815.79 344.75 918.28 835.26 600.95 581.53 614.25 608.43 357.85 701.52 951.48 949.03 577.46 732.23 176.17 729.65 902.12 206.74 797.49 153.89 253.98 974.10 204.76 1054.06 862.11 107.63 847.20 899.37 832.71 488.73 45.11 880.61 352.37 510.76 567.13 725.27 262.37 834.80 853.57 578.89 691.19 631.73 552.49 792.17 661.06 732.39 1009.29
582.55 522.93 912.69 1014.22 266.80 358.72 520.12 839.47 398.92 369.48 549.69 862.13 473.68 996.05 420.97 312.46 881.97 986.89 161.59 884.51 703.11 843.65 803.46 396.31 211.44 887.80 816.77 321.84 834.87 407.79 1001.94 341.01 414.05 994.82 0.00 880.61 514.89 220.07 498.47 206.23 84.81 118.62 181.86 786.89 980.12 1005.29 977.40 445.61 934.91 1036.26 900.16 119.26 436.80 1021.76 131.91 402.95 1025.61 835.13 537.75 963.25 287.74 881.20 928.99 196.01 900.90 894.78 860.13 517.23 142.74 878.06 97.12 848.13 437.66 321.68 425.86 493.64 436.77 871.76 809.55 475.76 173.41 991.81 307.29 825.46 243.48 817.90 853.34 307.67 847.02 878.24 1002.24 810.21 964.26 349.63 262.01 845.38 456.74 1027.50 328.46 1053.27 940.22 406.27 1038.87 1023.39 992.35 921.04 979.31 791.74 845.62 487.58 438.41 433.74 161.97 473.05 788.74 1001.46 334.15 168.21 289.73 909.22 252.79 925.86 858.66 1055.92 1072.22 417.86 496.34 407.51 968.25 259.61 1041.70 201.05 410.96 175.98 414.05 859.20 990.17 129.93 853.94 988.87 198.98 1107.43 526.94 471.00 204.49 61.91 1021.09 328.15 340.81 376.09 882.27 398.05 1042.88 334.96 238.66 804.50 79.21 211.05 1004.15 760.13 949.19 1063.40 812.29 478.21 205.64 76.43 990.34 456.84 862.10 391.06 149.69 907.70 574.04 918.13 899.47 492.20 872.95 361.10 401.60 932.30 178.38 516.34 237.63 917.86 999.45 472.83 787.04 992.74 879.52 342.69 793.74 491.80 189.06 992.87 393.85 1074.68 865.55 484.24 930.39 262.43 302.66
557.96 707.01 66.01 537.36 803.87 856.29 788.57 564.27 848.15 661.14 455.09 124.99 696.23 513.81 852.39 738.81 128.51 575.06 799.79 18.27 563.85 122.97 511.33 583.90 839.94 58.36 552.86 628.11 54.25 708.19 446.44 607.68 794.65 156.82 880.61 0.00 839.70 710.59 724.96 751.16 795.80 846.87 810.03 189.16 548.23 543.43 142.61 824.14 155.49 458.42 448.88 829.46 634.16 517.50 777.21 656.89 432.27 129.15 903.63 448.27 685.68 90.47 77.16 846.18 104.63 41.26 272.17 430.21 844.72 506.09 812.00 88.96 737.05 642.02 690.12 789.79 821.51 93.85 394.61 834.43 825.10 502.87 910.40 148.69 817.69 495.27 110.92 710.60 201.82 476.89 553.59 136.87 413.85 603.24 758.71 147.83 940.54 489.60 654.40 511.34 575.45 611.65 487.02 483.02 544.06 516.57 541.10 165.65 85.04 780.29 722.48 529.29 807.27 572.02 160.62 477.55 688.00 813.78 643.34 92.67 762.20 474.58 491.82 519.03 547.31 531.50 778.23 598.64 557.33 748.88 483.49 765.61 812.95 819.89 565.34 168.60 517.37 833.41 93.14 432.08 847.78 582.52 799.95 799.19 793.03 839.67 508.30 846.56 564.50 607.62 506.21 578.56 522.03 682.30 745.34 278.52 809.91 755.98 523.48 514.24 545.49 526.63 291.98 544.89 875.51 874.17 599.21 575.60 100.20 642.91 808.23 186.76 682.41 88.02 144.86 894.82 115.74 978.09 823.38 144.22 768.70 812.64 762.26 413.60 161.38 772.82 246.42 443.01 543.77 639.38 171.87 747.47 777.60 497.57 613.48 566.65 525.92 685.67 565.62 670.64 933.32
344.91 162.71 826.10 1177.03 647.32 217.31 95.09 602.62 167.66 287.11 638.26 817.61 208.11 1153.48 180.01 264.93 773.76 750.39 564.05 850.17 366.42 818.00 592.49 501.71 667.92 885.95 470.59 470.14 800.53 191.14 1162.92 466.25 104.98 910.15 514.89 839.70 0.00 508.12 177.91 599.47 430.08 569.00 595.91 767.18 1185.00 1159.83 892.73 110.62 869.61 1098.46 669.53 565.30 310.70 1147.42 610.19 359.43 1071.94 748.36 131.86 710.74 477.32 832.57 890.35 636.58 872.26 841.11 1031.52 630.24 617.30 617.20 584.39 807.97 182.94 466.85 181.50 105.49 78.12 769.86 574.77 64.27 619.20 1142.91 733.00 715.02 641.38 569.96 769.18 531.08 776.00 628.84 1185.89 742.98 1142.86 506.12 344.73 828.63 211.53 1129.27 581.12 1151.01 1144.52 314.19 1126.69 1128.15 1182.30 660.60 1163.16 730.94 754.66 103.58 192.69 525.90 597.81 565.92 775.83 1117.22 562.93 541.96 417.69 864.42 620.00 657.96 625.65 806.19 1186.98 437.65 108.79 550.24 1148.31 540.52 1123.16 625.68 135.83 593.65 447.39 671.10 1157.04 553.99 772.79 1024.26 662.01 1222.19 39.75 82.85 606.85 495.81 1177.23 186.74 479.48 502.37 645.42 439.65 1173.86 450.87 527.43 645.58 479.69 594.65 1163.15 523.28 1150.10 1166.30 1076.78 307.72 658.14 522.22 697.19 277.01 814.65 434.86 558.55 783.59 252.02 889.31 904.21 105.58 807.30 775.15 160.78 835.85 590.92 39.97 581.26 1155.45 928.26 121.72 625.80 1163.42 619.60 480.05 736.56 134.57 622.24 1146.54 474.57 1211.78 628.70 198.13 1134.69 428.20 738.50
483.02 492.67 696.99 865.63 154.64 364.61 456.83 745.27 428.30 332.31 372.75 680.55 494.26 863.52 426.86 254.61 742.78 901.08 127.49 721.06 649.38 694.40 706.98 235.87 207.66 765.44 725.46 218.08 671.42 454.55 943.98 218.25 460.81 781.04 220.07 710.59 508.12 0.00 504.63 91.35 135.26 154.53 159.29 628.33 865.24 884.25 763.62 451.56 773.10 887.83 798.21 176.82 390.96 901.52 151.76 269.72 924.68 669.66 557.91 866.77 109.45 736.00 761.52 219.15 792.91 730.10 821.49 364.92 165.88 787.00 179.50 702.11 409.05 180.74 442.16 432.76 458.90 678.99 676.32 499.96 129.08 852.39 238.88 681.27 146.17 726.84 654.41 124.92 789.09 781.76 862.82 672.09 882.05 192.95 258.78 710.52 561.64 888.08 139.17 961.69 799.31 314.96 938.78 923.30 877.47 829.98 855.33 657.75 625.55 446.00 458.99 293.47 165.72 296.19 607.16 897.50 212.38 117.06 144.07 743.14 111.88 796.63 762.18 955.61 959.09 315.29 399.33 261.86 798.02 46.25 950.91 155.79 454.29 155.43 263.83 704.43 850.75 136.13 656.36 804.99 225.19 994.30 476.54 425.27 172.75 214.63 849.12 378.60 222.91 224.19 791.21 243.98 910.35 146.67 34.75 686.60 184.87 86.53 864.73 669.07 809.77 946.40 812.66 378.42 226.79 167.99 870.68 409.13 693.37 278.09 141.04 767.79 559.51 756.12 708.48 521.58 720.64 338.53 401.40 732.45 98.24 477.42 73.14 918.05 826.15 459.25 664.28 921.35 785.32 193.55 656.73 476.99 167.78 880.71 209.06 985.87 774.49 488.19 789.48 171.37 273.72
167.00 78.87 685.73 1067.38 640.31 239.31 160.11 476.63 234.55 237.56 558.86 690.75 62.48 1055.02 242.09 250.02 648.19 652.49 587.18 726.86 204.64 724.70 433.39 456.01 585.64 708.04 333.85 397.12 693.88 90.68 1038.16 417.55 199.84 834.15 498.47 724.96 177.91 504.63 0.00 595.98 471.38 531.98 581.21 668.32 1059.30 1069.54 816.73 206.88 763.68 1057.56 530.09 560.30 202.80 1049.99 601.64 286.92 1080.34 679.67 276.32 581.28 462.41 654.66 724.21 591.17 754.31 731.17 878.17 583.69 602.57 515.96 566.85 689.16 170.73 413.88 108.75 145.05 216.18 631.11 484.80 217.58 611.42 1060.05 670.34 623.26 631.51 392.05 700.49 483.07 721.50 466.59 1086.81 693.63 997.32 436.78 294.18 683.09 331.14 1076.26 563.11 1097.95 1003.46 251.53 1061.63 1077.11 1047.07 498.82 1067.73 632.08 684.55 134.85 82.68 498.79 583.11 503.26 682.67 1084.64 509.40 583.12 397.60 703.61 616.51 533.72 488.59 660.80 1121.92 353.79 168.83 513.54 1031.49 498.98 1029.12 578.05 179.65 578.95 429.75 621.75 1063.81 550.38 698.70 883.20 568.11 1157.13 200.20 142.89 605.47 500.57 1082.83 245.86 448.98 467.72 495.91 424.74 1101.85 426.76 538.68 618.40 520.99 591.16 1084.22 449.99 1067.98 1109.52 926.01 197.85 610.27 537.09 587.54 178.15 661.30 411.32 543.85 724.02 78.53 727.15 750.86 265.37 629.39 760.45 217.85 741.61 598.77 201.61 577.77 1019.60 845.00 152.99 541.96 1036.62 482.86 393.85 591.54 91.17 590.04 1009.48 425.28 1141.02 512.17 57.07 993.63 424.90 686.36
499.24 584.02 775.18 829.63 137.95 455.96 548.18 768.36 481.37 388.35 415.88 709.49 564.50 822.82 433.65 345.96 734.02 957.11 107.82 762.63 687.18 753.58 780.15 281.99 193.35 759.81 769.29 236.50 712.99 521.99 885.22 245.92 508.68 840.08 206.23 751.16 599.47 91.35 595.98 0.00 226.61 167.01 112.11 621.75 773.89 799.06 846.69 503.33 829.36 867.43 815.99 175.39 430.82 852.70 130.25 325.75 889.85 664.51 609.68 915.91 186.74 727.47 725.24 164.72 788.41 757.45 749.81 379.16 161.57 806.95 157.99 746.17 472.96 210.34 516.45 524.11 535.54 713.68 727.73 570.39 139.70 822.98 172.83 676.94 80.12 744.82 685.33 147.39 796.85 818.54 817.34 689.43 893.84 241.48 350.13 724.76 625.98 846.26 150.96 887.81 733.99 370.99 868.12 877.57 786.12 849.93 822.24 585.51 708.62 537.35 548.81 295.67 119.06 267.30 636.10 909.29 138.50 138.70 235.42 751.17 46.56 815.26 776.18 991.00 908.90 359.25 490.68 250.57 762.02 137.60 907.47 128.84 506.06 99.08 274.34 706.16 822.78 182.79 700.42 811.76 187.44 928.47 567.89 516.62 132.28 231.32 814.86 469.95 202.74 234.68 811.16 259.98 844.05 198.44 86.52 666.43 224.92 4.82 814.75 689.02 798.51 872.52 788.13 469.77 176.49 160.57 900.28 474.68 705.16 305.72 111.11 778.30 563.29 714.38 794.72 574.65 719.48 252.46 453.17 815.52 76.73 568.77 31.40 891.24 885.19 539.95 623.29 933.14 808.41 231.35 645.22 558.00 116.85 834.82 253.02 915.18 794.44 570.74 724.16 262.72 252.21
498.00 474.97 832.25 995.97 236.53 273.91 451.93 754.66 314.11 393.16 472.73 777.32 441.79 984.69 336.16 270.73 809.44 949.50 133.97 814.07 656.93 758.84 766.45 320.04 237.84 802.99 768.05 237.03 794.01 382.54 917.13 256.20 376.20 910.01 84.81 795.80 430.08 135.26 471.38 226.61 0.00 138.92 205.32 704.05 1000.50 1008.85 892.59 366.95 850.10 976.60 826.42 135.22 431.35 1003.11 180.11 318.14 991.77 762.60 457.47 926.24 244.71 819.67 846.10 252.71 849.26 835.81 880.92 460.18 199.93 793.25 154.31 802.67 352.85 236.87 400.61 416.44 351.96 803.38 724.74 414.48 189.12 973.56 320.82 768.54 272.40 733.09 780.81 260.18 817.42 807.63 983.99 737.68 1003.22 300.81 177.20 803.23 458.72 994.26 260.34 1035.90 928.21 363.38 989.07 1004.55 1012.73 836.23 951.59 740.29 760.81 402.77 406.52 349.60 193.83 412.55 703.93 961.89 333.63 111.88 204.92 827.61 240.78 850.41 813.78 973.37 1049.36 333.05 411.53 339.09 933.28 181.51 1039.90 201.54 369.68 203.06 334.42 788.36 971.92 123.91 771.41 909.10 231.93 1084.57 469.83 414.09 176.77 79.37 984.38 243.34 283.76 291.28 797.46 314.65 1031.52 250.15 153.85 723.03 49.61 221.79 985.90 675.32 930.94 1051.19 895.90 393.40 236.09 92.14 905.53 424.11 814.54 306.25 167.96 822.89 542.15 848.42 843.74 407.39 794.40 384.56 316.79 847.49 165.06 470.05 199.37 975.05 914.64 419.70 702.23 1042.52 794.71 257.88 779.76 434.51 192.20 962.60 309.04 1068.43 780.74 452.35 918.38 177.62 315.90
509.71 537.17 836.06 936.96 204.55 409.12 521.50 787.47 452.42 425.97 500.92 810.13 484.07 925.68 436.83 339.58 813.55 982.31 78.87 828.60 736.62 848.93 799.26 318.17 149.19 835.80 727.74 269.84 825.95 441.30 968.15 289.01 474.50 935.57 118.62 846.87 569.00 154.53 531.98 167.01 138.92 0.00 86.48 710.48 940.90 949.84 918.15 465.25 907.46 959.00 859.23 28.32 464.16 959.51 69.66 350.95 963.36 766.71 551.24 959.05 222.36 818.95 829.45 133.76 882.07 839.92 871.96 477.83 80.49 826.06 34.87 785.88 438.26 286.89 423.23 521.07 490.88 815.88 757.55 536.21 103.23 914.55 245.04 800.44 181.05 765.90 784.92 258.62 860.51 840.44 924.98 741.79 921.62 287.38 316.12 819.84 575.36 950.24 260.04 1016.26 846.54 396.19 976.62 961.14 945.71 869.04 915.56 746.72 780.08 501.07 455.59 384.33 66.59 417.06 736.74 939.21 271.90 87.39 237.73 838.97 159.11 883.22 854.46 1006.18 1009.97 365.86 524.37 334.03 874.57 199.48 979.45 123.79 452.37 86.57 361.09 809.62 912.91 18.40 785.52 915.97 136.73 1045.18 568.35 498.43 140.74 89.03 947.93 382.26 316.57 318.62 830.27 347.46 972.51 274.81 169.70 755.84 92.70 162.19 926.89 708.13 871.93 1000.97 824.12 484.41 129.19 71.90 938.34 499.88 789.20 339.06 87.44 850.65 584.43 818.59 835.72 542.56 818.12 265.72 415.09 886.98 109.96 574.59 135.61 855.61 980.68 490.15 735.04 930.49 827.52 307.90 769.64 501.24 125.31 930.62 341.85 1012.43 813.55 494.63 836.71 210.43 207.28
575.76 586.90 822.00 855.70 164.02 433.46 589.56 844.29 497.15 435.70 487.83 771.17 533.80 846.31 495.71 410.04 788.05 972.33 79.75 808.89 652.90 841.35 846.79 314.35 106.49 805.84 796.71 315.95 782.69 523.00 911.29 297.09 521.69 886.00 181.86 810.03 595.91 159.29 581.21 112.11 205.32 86.48 0.00 722.78 871.46 868.06 903.42 516.71 892.38 879.63 890.93 101.64 462.21 884.31 49.95 408.11 909.92 741.21 623.06 992.11 197.65 752.46 785.53 102.38 844.15 814.42 785.48 453.12 67.01 882.88 84.74 781.28 493.35 253.88 509.71 565.49 548.55 780.67 781.44 583.40 30.21 835.18 198.24 776.65 128.12 809.97 759.42 249.86 861.36 884.51 843.41 716.29 889.61 267.67 375.40 759.58 638.60 870.87 234.54 953.54 760.06 386.21 921.57 906.09 859.23 859.23 830.09 697.62 772.50 547.33 498.53 366.61 19.89 369.77 728.75 946.60 204.23 128.18 282.46 759.60 72.63 899.38 859.76 1003.98 961.99 440.38 532.06 313.59 788.09 191.06 951.02 44.42 482.06 18.77 358.46 787.55 833.54 104.88 741.69 900.36 110.43 994.20 584.91 558.00 55.27 165.64 861.45 448.66 281.09 298.91 887.09 338.33 893.14 251.37 139.45 744.78 179.18 107.29 840.82 764.95 792.56 938.25 737.64 537.71 117.45 126.99 943.82 523.06 709.83 359.43 37.36 862.42 590.43 784.49 750.25 572.25 741.74 179.24 501.57 871.63 84.46 555.94 122.20 905.48 931.11 565.47 735.40 928.91 884.34 274.89 744.93 587.72 39.84 879.44 343.03 968.66 870.37 544.36 750.23 284.95 154.50
593.60 678.73 212.73 551.83 677.23 726.88 718.11 547.78 771.19 531.73 352.63 130.78 625.63 519.47 723.47 564.12 175.15 583.49 668.62 184.55 599.49 204.31 459.91 451.46 774.65 200.50 563.06 467.02 134.91 643.09 513.47 472.74 733.49 266.87 786.89 189.16 767.18 628.33 668.32 621.75 704.05 710.48 722.78 0.00 583.64 585.83 284.29 762.17 256.87 466.51 447.81 682.16 557.70 504.83 698.94 527.48 482.26 128.31 819.10 432.76 525.13 147.12 216.67 786.47 223.70 194.82 370.63 269.66 745.35 541.54 704.30 168.38 717.48 479.18 652.03 709.79 760.35 129.49 360.76 791.42 739.53 510.96 769.74 139.86 677.03 461.42 146.52 548.37 248.46 513.33 592.22 103.39 453.70 481.22 655.28 173.96 887.59 539.59 568.49 561.33 599.76 482.24 521.94 506.46 571.41 489.35 568.44 36.24 147.60 692.85 660.90 391.04 702.89 411.47 86.83 484.53 527.45 660.87 524.92 196.07 668.31 422.11 484.72 562.37 555.29 457.71 734.63 457.32 571.92 588.33 524.77 710.14 727.52 720.83 409.53 156.89 556.66 722.85 126.45 469.69 768.74 590.50 733.41 716.73 713.58 763.42 558.85 754.22 446.08 452.22 508.94 389.40 566.30 531.87 633.79 271.42 733.66 626.57 564.26 480.39 553.58 576.62 418.47 520.88 783.03 741.32 552.30 490.17 153.76 468.91 689.81 222.40 605.38 219.61 243.32 817.71 121.85 874.21 752.48 254.50 686.45 727.21 640.11 400.93 311.98 674.71 268.92 468.72 538.04 470.11 171.58 719.16 698.15 508.58 424.32 557.75 560.47 615.07 589.93 526.43 843.58
892.30 1102.09 563.92 64.58 836.55 1150.32 1159.73 1036.25 1166.00 987.77 728.01 546.15 1068.35 80.35 1183.26 961.30 612.91 1035.29 881.71 534.22 1079.00 621.71 948.69 803.25 893.17 506.68 1043.50 869.47 577.03 1086.22 149.50 857.06 1158.34 615.14 980.12 548.23 1185.00 865.24 1059.30 773.89 1000.50 940.90 871.46 583.64 0.00 25.17 615.37 1122.66 624.96 153.93 933.28 949.28 960.71 78.81 904.14 947.17 115.96 564.90 1229.01 884.56 894.73 525.92 472.11 925.80 530.69 540.00 315.53 676.84 924.34 990.49 931.88 554.38 1109.81 879.91 1096.96 1102.14 1143.50 614.07 882.51 1179.74 901.67 111.70 820.80 620.30 854.01 965.23 544.08 864.87 686.22 968.89 44.04 587.21 215.93 815.97 1012.65 530.16 1197.88 72.37 767.69 141.06 111.40 942.03 94.23 103.68 12.23 999.40 120.20 601.91 572.94 1081.42 1064.60 772.27 891.35 693.95 551.32 143.04 814.69 912.59 905.03 494.03 798.83 949.04 951.27 1003.43 135.01 837.23 1128.09 773.19 108.81 890.68 133.58 845.23 1157.31 872.97 778.84 623.44 62.10 956.68 575.11 275.47 875.64 170.22 1205.30 1105.05 872.65 1005.21 40.97 1119.75 826.19 816.45 939.57 798.97 70.16 941.44 860.41 737.97 998.81 778.71 47.51 981.37 97.09 142.55 331.52 996.90 917.80 934.46 1071.34 1027.61 501.95 856.41 885.00 671.83 1016.75 461.25 442.84 1206.15 533.86 831.39 1167.40 632.80 850.62 1179.85 805.29 182.71 644.00 1099.56 760.87 216.28 1002.53 858.90 652.02 1125.10 857.22 110.48 819.12 141.29 993.24 1057.79 121.23 927.31 872.73
902.54 1107.33 558.08 49.07 817.33 1134.81 1134.56 1023.50 1175.01 962.81 737.07 521.19 1054.23 66.36 1171.24 963.08 587.74 1034.29 899.47 528.38 1077.17 615.87 955.02 799.85 868.00 500.84 1038.67 866.07 551.86 1061.05 155.13 855.73 1133.17 609.30 1005.29 543.43 1159.83 884.25 1069.54 799.06 1008.85 949.84 868.06 585.83 25.17 0.00 592.78 1147.83 626.50 131.19 908.11 935.03 963.26 89.05 915.83 957.41 117.12 559.06 1221.09 894.80 875.55 535.82 466.27 906.62 540.93 534.16 317.44 654.10 905.16 965.32 945.54 554.06 1120.05 865.92 1078.98 1076.97 1137.58 608.23 876.67 1162.35 885.54 86.74 814.96 624.67 850.92 942.49 538.24 844.99 661.05 963.05 26.06 581.37 215.07 801.98 987.48 529.30 1172.71 97.54 748.51 151.30 108.00 942.28 104.47 108.05 22.47 993.56 104.69 599.27 567.10 1056.25 1046.62 756.76 885.77 690.55 561.56 153.28 789.52 924.33 901.63 492.20 795.43 933.81 938.90 978.26 144.64 812.27 1102.92 753.97 96.89 871.50 143.82 826.05 1141.33 875.16 789.08 611.07 36.93 958.17 569.27 271.13 850.47 179.85 1180.13 1087.66 853.47 1016.70 35.13 1104.24 822.79 817.61 933.73 809.21 88.47 951.68 868.79 725.60 1013.33 803.88 27.63 975.53 77.91 162.44 312.30 988.81 892.63 959.63 1058.44 1019.52 512.19 866.65 893.18 653.97 1026.99 455.41 444.75 1186.77 544.10 817.40 1142.23 626.96 868.38 1154.68 830.46 192.95 638.16 1074.39 735.70 220.07 1002.04 844.91 647.19 1099.93 838.04 91.26 834.59 151.53 985.15 1043.67 117.83 915.44 847.56
655.62 798.04 171.97 579.90 873.08 912.77 877.79 589.76 898.24 735.25 561.23 226.44 785.31 593.04 850.52 810.41 186.99 512.41 860.87 124.41 661.51 178.86 537.01 645.69 933.33 108.69 636.43 655.56 155.70 830.44 569.29 675.99 883.18 17.42 977.40 142.61 892.73 763.62 816.73 846.69 892.59 918.15 903.42 284.29 615.37 592.78 0.00 929.69 126.61 567.57 476.54 933.18 747.40 575.21 883.30 767.36 568.83 182.18 973.84 457.47 756.63 162.07 151.80 939.57 135.90 135.12 381.32 536.35 929.50 532.33 911.04 196.92 838.50 717.63 819.39 867.93 910.04 191.51 447.64 943.79 892.70 608.01 964.02 222.83 888.32 548.30 166.93 786.82 229.48 510.72 605.40 197.95 482.22 687.09 843.82 221.83 1042.85 607.56 709.38 587.37 644.64 722.12 545.96 548.34 610.16 541.23 601.98 276.12 138.07 847.21 799.82 630.74 906.65 671.18 225.53 523.55 719.00 880.68 729.57 157.99 837.94 502.24 549.46 447.79 606.25 596.41 882.57 664.74 611.74 809.87 584.01 859.00 914.75 908.74 659.20 221.63 555.85 899.75 168.88 506.72 941.17 641.46 852.98 869.10 886.42 941.12 574.40 936.99 665.95 695.01 481.40 648.37 572.36 784.01 798.37 336.16 911.36 841.87 583.53 567.27 596.83 602.66 346.39 687.50 968.90 931.61 594.88 718.21 193.59 712.23 884.70 224.16 780.07 154.12 254.22 977.73 187.34 1071.48 879.53 90.21 829.78 881.95 815.29 471.31 62.53 863.19 334.95 493.34 549.71 707.85 244.95 817.38 870.99 567.43 673.89 628.13 535.07 774.75 649.60 714.97 1005.26
331.77 156.17 825.58 1132.60 536.70 124.18 132.47 523.07 60.49 262.83 616.03 831.74 194.86 1100.24 79.17 307.74 745.93 731.53 477.89 839.78 376.38 828.00 602.88 481.57 585.66 882.50 480.98 398.63 790.14 138.78 1127.42 419.06 49.74 912.27 445.61 824.14 110.62 451.56 206.88 503.33 366.95 465.25 516.71 762.17 1122.66 1147.83 929.69 0.00 875.35 1059.12 656.33 484.59 290.40 1099.65 503.05 335.02 1095.78 771.23 106.35 691.88 414.69 846.28 888.68 535.74 885.69 839.52 1013.53 536.21 527.25 581.25 500.12 811.43 127.70 440.42 134.02 104.84 32.50 795.88 577.52 95.02 538.56 1103.57 632.91 750.81 540.20 571.23 792.05 449.64 792.22 630.62 1153.24 783.34 1183.22 462.34 328.16 868.99 193.14 1050.29 520.05 1145.35 1133.91 299.63 1120.95 1136.43 1134.89 633.44 1146.44 725.93 795.02 113.83 166.38 524.06 517.92 551.36 758.35 1083.45 555.11 478.83 392.68 904.78 537.81 652.88 583.82 770.24 1174.06 413.37 92.07 508.02 1117.59 464.51 1130.44 552.22 34.65 497.94 454.95 711.46 1137.43 446.85 813.15 1031.55 597.81 1188.63 118.92 106.69 542.65 446.32 1123.71 123.61 433.32 491.74 631.43 448.29 1095.19 349.45 416.81 661.80 416.56 508.00 1123.13 563.98 1128.60 1160.64 1055.94 279.25 569.53 459.09 680.79 272.00 855.01 377.38 521.22 799.81 236.98 877.82 944.57 83.49 836.27 695.95 50.16 866.01 480.30 147.89 481.42 1154.96 935.66 108.52 597.97 1158.41 563.12 419.41 753.13 115.71 540.23 1107.20 452.34 1199.13 596.91 205.42 1141.98 375.12 655.78
596.68 740.47 113.73 642.03 850.57 944.84 818.89 565.18 915.50 700.89 508.14 192.70 739.05 619.93 893.13 810.18 129.42 484.30 833.95 137.22 602.57 91.26 490.75 631.62 931.28 125.66 583.82 695.82 121.96 804.94 514.27 675.39 825.61 111.85 934.91 155.49 869.61 773.10 763.68 829.36 850.10 907.46 892.38 256.87 624.96 626.50 126.61 875.35 0.00 564.50 449.79 879.14 752.31 604.92 861.44 720.62 542.60 181.74 920.19 471.32 739.30 179.04 168.77 913.47 127.80 159.17 378.25 526.53 921.59 507.00 889.18 183.30 804.76 668.01 799.89 809.40 852.47 132.57 431.40 861.45 900.92 608.95 951.09 187.41 870.99 499.13 176.41 737.20 202.73 469.81 643.34 199.29 505.46 670.95 816.79 192.02 975.01 571.53 701.48 560.21 684.62 705.33 544.54 548.74 612.73 527.30 611.29 259.33 147.55 813.75 774.32 597.00 884.79 612.24 230.44 515.45 747.32 875.47 711.05 174.96 832.02 468.32 481.70 490.52 593.36 601.32 812.70 578.79 640.40 802.50 491.38 887.08 865.24 886.88 666.40 208.70 621.29 908.92 162.96 523.69 947.95 623.38 840.05 786.76 892.79 907.38 591.37 914.27 632.21 666.19 499.13 646.27 580.57 766.08 807.85 268.40 877.62 824.54 620.59 551.03 649.84 571.78 375.05 700.38 947.26 921.19 598.51 706.39 221.67 662.63 862.84 199.51 721.13 171.09 271.19 925.78 204.31 1050.22 885.02 43.95 807.92 862.92 797.96 501.02 84.18 821.68 277.38 510.31 544.68 647.00 210.59 780.93 877.36 596.09 666.36 603.28 526.83 728.49 675.33 738.35 983.40
964.08 1064.15 515.29 102.85 774.15 1103.84 1103.53 897.66 1119.61 905.52 605.88 478.90 1011.05 74.96 1082.40 888.22 548.08 952.45 913.92 476.69 994.76 551.56 849.86 704.80 889.56 458.88 933.23 762.94 492.90 1021.01 71.18 742.51 1094.42 567.54 1036.26 458.42 1098.46 887.83 1057.56 867.43 976.60 959.00 879.63 466.51 153.93 131.19 567.57 1059.12 564.50 0.00 868.45 944.19 920.97 84.33 924.99 866.45 138.40 494.19 1165.47 861.63 778.38 445.75 430.26 915.78 494.34 499.68 186.25 522.91 914.32 925.66 943.83 425.10 1025.75 757.02 1034.33 1087.71 1091.62 536.15 792.28 1149.01 894.70 44.45 783.63 546.27 838.00 811.30 482.93 826.21 621.39 885.84 140.12 490.09 221.74 736.00 951.20 452.87 1207.20 81.56 757.67 144.85 149.63 860.16 137.35 121.87 150.10 955.86 101.93 502.75 482.71 1070.77 1046.32 644.29 894.93 664.72 519.38 117.66 780.70 914.55 778.17 409.79 820.87 888.62 874.50 938.60 180.97 769.98 1069.72 710.57 105.41 841.58 161.71 835.21 1093.77 889.49 729.14 546.67 96.61 977.40 451.90 226.82 872.03 216.09 1138.21 1094.65 862.63 1016.67 114.34 1078.32 699.33 705.47 912.58 713.50 118.88 855.09 877.95 661.20 986.91 862.61 113.50 869.24 87.07 160.14 230.30 987.39 914.19 991.68 987.53 956.68 403.12 772.35 902.34 610.79 1055.71 434.26 313.56 1142.61 435.03 826.00 1082.49 589.61 902.98 1138.43 889.19 155.73 602.15 1052.63 685.07 216.10 937.71 766.96 569.32 1097.08 847.20 48.08 739.54 205.50 945.49 1000.49 143.27 805.47 924.98
384.45 558.91 400.02 895.23 898.76 722.14 640.47 190.39 690.63 587.07 554.96 440.30 556.26 876.35 679.73 677.48 320.37 192.99 836.30 430.61 371.76 402.44 96.70 623.89 972.60 474.99 218.60 648.74 405.75 573.51 870.97 644.84 606.59 493.96 900.16 448.88 669.53 798.21 530.09 815.99 826.42 859.23 890.93 447.81 933.28 908.11 476.54 656.33 449.79 868.45 0.00 887.55 558.27 896.50 882.23 564.11 881.15 388.73 723.26 101.18 698.15 447.23 503.45 965.59 484.95 413.84 690.23 605.53 912.32 132.21 894.10 457.12 632.08 637.05 575.25 578.17 633.45 384.16 157.51 664.52 912.55 874.75 926.48 387.67 867.25 138.04 409.55 706.24 247.06 133.34 920.73 392.13 815.53 670.57 685.20 501.30 740.92 907.27 710.39 925.75 929.46 586.25 878.92 894.40 930.58 100.87 909.69 411.57 432.21 565.95 542.89 651.47 875.91 669.03 457.06 870.69 779.32 834.32 676.10 523.13 862.55 25.70 85.17 192.45 932.21 532.64 607.51 698.17 935.71 757.43 890.23 918.40 643.93 888.67 566.62 380.61 871.18 877.63 416.55 818.84 966.69 967.42 663.38 589.83 911.53 905.79 912.66 706.07 643.99 673.21 112.53 586.75 923.18 718.40 793.03 266.08 876.03 820.81 898.86 151.10 912.16 941.04 696.55 469.00 973.92 899.19 150.33 499.71 473.36 579.52 853.57 360.54 473.92 492.59 562.92 696.47 472.50 1047.83 650.72 419.24 856.52 634.41 815.99 795.82 517.80 547.81 269.38 838.67 169.89 658.06 372.73 599.37 906.41 890.83 589.15 923.26 152.04 566.82 939.29 648.80 1016.60
538.03 565.49 834.54 922.15 191.82 409.13 493.18 815.79 424.10 454.29 488.19 804.92 512.39 910.87 465.15 332.22 806.99 999.25 79.89 811.19 754.54 863.96 827.58 316.65 135.26 855.57 756.06 298.16 817.07 469.62 955.42 308.14 496.79 949.03 119.26 829.46 565.30 176.82 560.30 175.39 135.22 28.32 101.64 682.16 949.28 935.03 933.18 484.59 879.14 944.19 887.55 0.00 489.13 946.78 52.25 379.27 936.88 760.15 564.00 986.65 223.38 806.22 850.09 119.83 884.05 833.36 870.48 477.39 66.56 854.38 22.14 773.15 444.56 280.80 451.55 543.36 487.18 809.32 785.87 549.70 96.95 899.74 232.31 783.03 154.89 794.22 778.36 279.17 873.27 868.76 910.17 735.23 908.89 269.97 312.42 820.86 568.71 935.43 253.48 990.10 858.28 413.13 963.89 948.41 949.89 886.15 887.24 718.40 795.11 523.36 483.91 356.01 82.24 410.50 731.53 926.48 259.17 115.71 266.05 824.16 170.85 895.48 878.70 1034.50 997.24 394.18 546.66 332.53 886.31 200.50 966.72 108.98 480.69 95.01 354.56 792.21 898.10 40.69 778.96 915.51 124.00 1030.76 548.52 520.72 112.42 81.67 941.30 378.56 308.01 301.21 858.59 361.79 957.70 278.81 166.89 771.70 105.46 175.31 912.08 736.45 857.12 974.81 839.28 512.73 100.87 84.31 938.49 509.99 774.39 367.38 64.28 858.52 612.75 843.15 807.40 517.38 804.01 280.88 437.38 890.57 103.40 577.49 163.93 842.88 963.32 518.47 754.17 917.76 855.84 301.81 770.66 529.56 96.99 917.89 345.33 999.70 841.87 522.95 848.45 238.75 222.93
193.87 187.41 680.77 944.28 512.00 311.06 260.05 598.28 293.64 67.32 408.27 595.26 167.57 965.87 265.85 229.86 626.97 662.12 443.00 652.43 348.97 678.18 564.85 286.02 504.69 692.52 463.92 194.32 630.35 175.83 990.52 214.75 247.76 764.82 436.80 634.16 310.70 390.96 202.80 430.82 431.35 464.16 462.21 557.70 960.71 963.26 747.40 290.40 752.31 920.97 558.27 489.13 0.00 956.20 479.64 121.24 970.47 608.94 364.43 659.38 322.94 668.46 676.23 525.92 732.84 675.42 797.13 413.25 472.65 540.10 477.42 635.10 246.99 255.32 163.23 224.06 274.62 621.32 453.06 305.69 492.42 876.52 494.81 589.34 488.62 542.53 620.38 324.51 638.66 490.73 972.19 586.80 970.85 275.70 265.80 656.62 411.21 962.36 362.40 976.41 910.28 76.00 929.83 914.35 948.48 569.58 932.60 521.46 609.33 207.12 145.21 328.55 464.11 327.73 521.87 978.64 372.40 459.11 246.89 695.24 473.25 583.97 509.65 729.09 983.31 150.99 248.90 310.98 937.48 386.14 971.71 491.98 263.21 459.95 264.77 623.08 928.68 477.36 589.35 888.05 522.22 1018.52 291.06 231.00 507.25 432.82 947.25 280.49 257.93 287.43 520.05 271.94 974.83 280.19 392.11 535.46 403.06 435.64 946.78 572.69 919.14 991.70 844.97 89.27 541.49 467.41 658.30 67.53 645.47 235.79 424.85 673.47 242.61 687.09 669.82 316.65 643.19 641.45 240.24 716.23 455.60 304.57 415.59 938.56 745.68 188.98 479.01 953.94 563.55 248.02 557.62 227.87 491.82 927.09 257.22 997.98 552.76 157.01 920.11 253.73 604.80
946.65 1056.58 535.31 49.72 766.58 1109.19 1095.96 963.77 1149.39 938.29 649.20 491.04 1003.48 38.00 1117.24 882.49 592.63 999.06 906.35 527.80 1030.16 573.19 869.88 770.08 852.60 510.94 987.42 797.78 539.51 1039.10 126.49 778.25 1108.96 592.63 1021.76 517.50 1147.42 901.52 1049.99 852.70 1003.11 959.51 884.31 504.83 78.81 89.05 575.21 1099.65 604.92 84.33 896.50 946.78 956.20 0.00 929.67 868.36 106.69 510.99 1184.64 887.40 862.71 465.77 476.37 911.02 517.27 544.26 245.33 607.24 919.00 953.71 924.64 484.18 1031.00 809.94 1021.03 1097.04 1132.15 560.16 828.60 1170.47 899.38 79.68 839.50 564.22 830.43 895.63 490.17 845.29 649.44 944.66 101.27 533.30 169.91 773.62 976.02 472.89 1178.09 49.36 762.35 144.42 126.83 888.80 108.18 96.57 66.58 971.84 94.95 523.10 519.03 1099.41 1038.75 712.78 899.61 699.82 472.51 129.62 856.64 943.16 846.25 468.87 814.26 905.64 894.52 966.65 122.51 805.21 1076.38 703.22 117.33 885.34 129.51 839.89 1127.27 893.99 700.03 566.69 67.58 977.00 498.51 245.93 835.07 157.72 1151.30 1095.78 867.31 1009.34 59.67 1078.62 777.40 789.80 943.83 720.16 68.13 862.63 882.63 681.22 979.58 856.00 71.16 921.04 91.75 159.71 261.55 1001.23 877.23 986.81 1010.38 977.03 423.14 777.60 907.02 603.22 1071.10 465.51 372.64 1183.14 455.05 789.04 1131.64 616.79 896.37 1154.47 882.58 103.90 637.74 1081.27 716.54 178.78 923.72 800.87 595.94 1097.04 851.88 40.51 755.08 172.07 968.96 992.92 136.66 856.83 914.91
563.82 591.01 782.29 902.95 189.92 403.86 545.43 814.69 467.55 451.36 456.77 752.67 553.73 891.67 466.11 366.24 757.11 989.76 50.15 758.94 702.85 814.08 801.36 264.40 144.04 803.32 797.40 298.83 766.71 510.96 958.37 278.40 512.30 900.72 131.91 777.21 610.19 151.76 601.64 130.25 180.11 69.66 49.95 698.94 904.14 915.83 883.30 503.05 861.44 924.99 882.23 52.25 479.64 929.67 0.00 358.40 949.45 710.27 589.04 961.15 193.64 784.42 804.13 90.81 834.17 783.48 835.43 430.81 80.41 853.28 34.79 750.34 463.32 264.93 492.89 538.45 532.07 759.44 765.00 574.01 66.70 880.54 209.28 730.78 144.52 760.02 728.48 247.39 830.42 834.56 890.97 685.35 921.54 217.72 340.83 776.41 588.65 916.23 203.60 979.73 810.01 403.64 966.93 951.45 909.18 891.19 861.35 715.76 745.23 517.73 525.25 343.76 30.06 360.62 679.28 939.13 254.18 100.06 282.65 804.96 122.58 870.59 828.82 1035.24 1009.48 399.31 551.09 282.65 838.04 149.75 979.37 89.78 505.78 44.07 329.67 739.96 878.90 56.20 729.08 869.42 126.51 1020.39 600.77 536.23 86.53 115.69 911.40 423.45 256.46 248.96 857.49 309.54 938.50 228.93 117.01 720.15 130.50 125.43 890.77 735.35 837.92 964.44 787.59 529.33 124.60 96.96 951.14 507.33 755.19 345.19 69.32 833.63 600.60 793.27 781.51 560.83 777.69 229.19 452.89 840.69 53.52 587.90 132.37 855.53 935.84 535.87 724.43 930.41 838.01 260.65 740.92 559.59 86.36 915.99 293.08 1012.35 840.77 564.29 800.18 255.35 170.75
284.24 308.65 690.99 914.72 390.76 289.88 334.16 593.62 334.19 94.73 302.05 615.22 255.55 906.36 286.47 128.58 639.75 631.36 345.72 675.16 436.23 659.31 534.79 173.10 468.59 685.27 455.74 131.15 647.15 196.24 937.63 141.37 296.49 784.78 402.95 656.89 359.43 269.72 286.92 325.75 318.14 350.95 408.11 527.48 947.17 957.41 767.36 335.02 720.62 866.45 564.11 379.27 121.24 868.36 358.40 0.00 914.54 619.77 413.16 623.25 232.85 650.48 696.19 431.90 731.54 663.18 789.80 343.54 409.48 558.04 385.82 651.90 285.13 174.81 214.31 272.79 323.35 628.26 406.60 354.42 398.80 910.90 460.09 573.42 367.38 507.26 637.18 219.22 701.76 559.17 950.14 606.76 893.93 197.37 196.81 676.58 375.34 917.72 289.02 945.65 864.95 45.24 899.07 883.59 934.94 610.23 887.27 491.24 629.29 255.85 226.86 246.28 388.46 282.40 541.83 924.79 309.23 346.37 125.65 699.43 362.67 538.41 570.83 700.39 952.55 237.37 297.63 247.38 909.17 274.01 940.95 415.39 336.12 389.34 168.33 611.89 935.94 369.35 606.15 799.57 451.06 987.76 374.84 279.73 438.50 379.13 928.03 320.45 167.12 214.05 588.49 173.28 887.32 158.95 270.87 615.49 367.75 320.93 936.16 526.23 932.83 960.94 741.96 179.64 465.69 410.28 668.60 148.93 657.12 175.64 389.05 661.76 324.01 707.05 717.46 345.88 625.21 578.21 315.48 736.19 334.36 354.28 294.35 847.35 795.16 237.71 587.40 922.23 595.72 154.44 585.03 280.25 427.38 906.70 138.36 967.22 577.87 244.99 874.78 140.52 490.52
990.23 1081.27 498.28 105.09 841.98 1131.93 1046.37 969.90 1068.24 944.05 653.05 528.40 1033.83 81.54 1095.46 974.49 560.78 991.05 965.07 450.54 996.12 555.24 896.85 749.81 896.14 479.20 985.13 793.60 486.52 1055.41 90.98 773.17 1046.04 552.53 1025.61 432.27 1071.94 924.68 1080.34 889.85 991.77 963.36 909.92 482.26 115.96 117.12 568.83 1095.78 542.60 138.40 881.15 936.88 970.47 106.69 949.45 914.54 0.00 514.84 1122.52 845.08 866.66 486.44 472.49 946.07 432.93 473.53 249.18 641.01 944.61 938.36 928.49 488.03 1103.49 795.37 1066.06 1011.73 1066.57 526.12 826.88 1063.78 924.99 93.95 885.12 572.83 872.15 927.54 494.02 861.71 634.09 909.16 121.32 537.15 154.19 731.73 981.86 468.42 1177.34 57.33 787.96 79.07 170.37 894.56 54.75 56.21 128.19 948.84 146.14 518.50 517.31 1020.50 1033.70 756.64 925.22 749.27 569.09 45.28 828.38 975.01 844.53 446.56 851.87 904.37 919.93 939.41 115.04 819.48 1015.03 762.53 136.41 910.95 51.22 865.50 1085.67 919.78 806.72 592.10 85.10 977.57 525.05 197.14 878.61 150.25 1092.24 989.09 892.92 1018.55 105.29 1139.01 768.17 700.49 922.10 811.87 101.92 886.07 908.24 706.63 1041.38 893.61 91.21 946.51 117.36 94.36 281.89 977.16 920.77 990.66 1021.28 972.43 466.05 850.09 932.63 619.03 1087.64 483.35 376.49 1132.10 497.96 832.58 1105.45 576.49 933.98 1065.25 915.15 107.75 593.65 1031.11 678.69 143.72 976.04 774.36 602.97 1040.81 877.49 115.91 784.55 139.84 958.19 1023.27 174.27 829.55 958.45
512.67 702.13 110.67 560.71 734.62 803.91 742.28 504.12 821.44 578.43 463.28 69.25 678.07 548.99 806.69 681.66 96.68 514.91 687.84 113.47 519.17 112.96 460.29 463.51 778.99 157.85 479.61 555.21 79.37 655.28 501.94 534.78 779.76 199.60 835.13 129.15 748.36 669.66 679.67 664.51 762.60 766.71 741.21 128.31 564.90 559.06 182.18 771.23 181.74 494.19 388.73 760.15 608.94 510.99 710.27 619.77 514.84 0.00 829.47 428.04 603.24 122.89 154.96 801.08 123.90 98.61 308.55 380.31 770.42 445.94 738.01 88.04 717.72 546.68 637.21 723.56 779.28 49.17 353.68 799.42 749.75 503.70 798.85 104.01 706.14 454.34 20.82 615.87 141.67 461.99 583.26 24.92 444.84 510.19 733.39 130.61 904.54 560.35 645.61 559.75 578.69 574.53 528.10 512.62 559.69 487.35 561.18 128.53 44.11 702.84 669.57 501.69 733.62 522.12 87.07 481.96 626.38 737.75 595.84 177.26 701.43 414.43 405.09 458.88 561.45 457.95 749.51 537.79 564.66 666.44 523.02 765.11 770.38 735.71 533.56 77.26 555.86 762.81 42.29 486.02 796.52 596.66 708.61 724.73 777.26 816.50 523.93 822.11 542.76 512.83 484.65 517.71 573.10 616.09 664.63 191.79 811.77 659.69 553.15 473.31 546.32 575.04 349.71 613.17 825.46 775.08 539.06 582.46 127.49 573.21 711.67 142.08 637.12 146.36 181.24 833.36 107.17 916.97 788.82 151.01 656.75 737.58 633.11 407.09 244.71 720.98 239.04 473.79 470.32 525.67 88.13 673.01 771.72 514.74 498.25 552.21 465.77 688.63 588.52 611.19 832.23
414.71 214.63 905.33 1227.61 643.05 196.27 176.20 629.42 166.84 369.18 663.09 898.72 233.94 1204.06 185.52 353.72 825.68 800.97 549.98 908.20 447.78 899.11 644.41 526.54 671.65 952.58 522.51 504.98 858.56 244.87 1184.25 525.41 142.30 991.26 537.75 903.63 131.86 557.91 276.32 609.68 457.47 551.24 623.06 819.10 1229.01 1221.09 973.84 106.35 920.19 1165.47 723.26 564.00 364.43 1184.64 589.04 413.16 1122.52 829.47 0.00 761.32 521.04 923.93 971.46 642.09 943.79 906.82 990.86 642.56 612.64 602.58 567.02 889.08 220.26 517.43 240.37 156.07 115.44 809.78 662.84 119.09 619.87 1209.92 736.83 796.13 646.55 633.14 850.29 555.99 857.11 651.95 1243.84 824.09 1190.67 556.30 395.31 909.74 102.54 1156.64 626.40 1201.59 1190.89 367.92 1177.27 1178.73 1241.24 654.77 1202.80 782.86 835.77 164.84 251.70 550.73 609.84 619.65 833.45 1167.80 613.51 528.42 468.27 945.53 644.16 708.54 686.91 791.57 1237.56 502.22 159.37 600.82 1218.92 570.86 1173.74 658.57 141.00 604.29 484.61 752.21 1207.62 532.84 853.90 1070.63 668.88 1272.77 120.86 133.43 634.24 488.30 1227.81 214.13 521.72 554.29 653.51 464.48 1201.54 455.80 523.16 726.69 458.54 614.35 1213.73 575.20 1234.95 1216.88 1038.70 359.64 664.87 522.89 743.49 328.93 895.76 473.66 593.14 864.70 303.94 966.05 863.55 86.41 905.71 802.30 156.51 916.96 581.07 91.89 587.77 1132.29 1004.37 175.45 677.72 1186.50 640.26 525.76 817.67 185.15 646.58 1196.91 499.40 1262.36 622.41 244.50 1181.06 478.78 724.83
485.63 616.63 411.86 898.08 961.85 785.23 645.45 216.84 744.53 678.07 656.14 464.76 603.11 865.72 734.26 751.83 405.98 150.73 923.79 443.66 400.59 402.17 159.79 696.75 1037.80 451.11 247.43 723.69 394.02 636.60 862.27 719.79 684.84 463.59 963.25 448.27 710.74 866.77 581.28 915.91 926.24 959.05 992.11 432.76 884.56 894.80 457.47 691.88 471.32 861.63 101.18 986.65 659.38 887.40 961.15 623.25 845.08 428.04 761.32 0.00 799.33 480.43 494.22 1051.11 497.38 453.93 675.38 634.52 1002.02 172.28 988.26 480.77 672.44 738.23 638.34 630.05 695.91 378.87 232.46 702.58 995.85 899.21 991.04 402.59 950.25 201.13 448.86 786.83 332.67 169.94 920.86 452.96 828.24 743.43 786.31 514.01 769.75 860.99 774.95 837.16 954.55 649.34 790.33 805.81 872.33 146.76 942.89 469.00 432.31 619.85 605.98 630.64 977.09 734.51 478.32 839.14 856.90 933.17 748.90 491.78 940.35 100.65 149.73 219.76 850.62 633.82 636.34 716.56 942.49 820.52 843.49 993.35 704.93 989.85 641.57 446.51 878.36 977.45 435.02 849.14 1051.95 885.83 685.20 627.89 996.79 1002.38 881.82 767.34 718.94 725.44 187.48 661.70 866.29 782.20 872.13 341.03 975.85 911.09 901.25 250.92 919.34 852.45 700.50 570.11 1061.41 1000.37 230.84 593.14 464.26 654.47 954.75 285.96 502.75 496.54 553.82 750.37 496.17 1149.01 705.83 490.82 925.03 678.05 912.41 816.81 486.95 637.99 298.37 835.76 176.79 739.01 387.11 576.17 981.36 848.67 688.22 889.44 152.45 613.67 964.38 748.62 1100.51
470.06 491.32 657.62 862.67 204.53 387.55 409.76 669.37 383.24 307.87 325.11 604.49 441.61 851.39 335.52 212.39 646.30 848.46 143.49 667.41 548.13 687.41 664.20 139.73 274.45 688.08 672.84 128.62 639.58 395.47 849.56 114.50 410.55 774.05 287.74 685.68 477.32 109.45 462.41 186.74 244.71 222.36 197.65 525.13 894.73 875.55 756.63 414.69 739.30 778.38 698.15 223.38 322.94 862.71 193.64 232.85 866.66 603.24 521.04 799.33 0.00 636.46 664.71 281.35 723.33 690.42 715.34 255.47 241.01 707.96 207.96 644.33 373.93 71.29 380.77 431.83 437.41 625.30 598.85 472.26 214.40 822.83 261.81 579.00 169.10 635.35 624.06 69.53 679.64 709.89 850.69 596.03 869.92 135.23 242.21 601.07 527.85 859.94 127.04 923.23 831.58 262.34 904.85 900.25 890.41 739.50 836.09 561.37 618.56 450.51 413.13 184.02 177.76 249.03 531.10 856.04 179.63 136.17 119.63 638.78 183.03 722.12 710.70 888.08 958.69 247.76 458.62 197.44 869.23 63.20 889.44 237.48 415.73 197.74 181.20 612.74 838.62 218.46 598.58 743.52 268.54 969.60 465.10 432.68 213.38 238.29 881.82 356.98 157.07 166.17 712.17 161.07 897.26 99.41 114.81 614.62 208.53 181.92 852.60 590.03 797.64 913.65 763.18 366.31 281.11 230.73 761.23 381.78 643.10 176.84 186.82 685.16 512.25 675.57 629.80 476.52 611.19 349.68 364.53 725.46 174.58 494.07 155.34 856.77 800.74 454.81 560.53 909.22 709.42 92.30 547.28 458.78 228.81 826.46 161.42 973.74 695.45 452.17 841.41 92.33 318.45
603.61 733.53 133.62 515.49 788.56 849.88 814.77 562.62 831.77 654.73 463.96 85.09 715.17 503.77 846.47 648.34 126.86 573.41 762.76 72.20 619.18 164.55 489.37 562.88 782.37 53.38 542.98 614.14 86.41 710.52 452.89 600.59 823.05 179.49 881.20 90.47 832.57 736.00 654.66 727.47 819.67 818.95 752.46 147.12 525.92 535.82 162.07 846.28 179.04 445.75 447.23 806.22 668.46 465.77 784.42 650.48 486.44 122.89 923.93 480.43 636.46 0.00 69.55 788.61 99.65 96.17 259.50 380.99 787.15 504.44 784.08 34.85 769.21 615.10 712.26 796.19 816.16 149.18 406.10 872.24 767.53 490.20 861.81 156.02 769.10 496.57 111.62 684.29 200.17 530.82 560.02 99.84 393.20 594.08 741.87 78.97 959.78 502.35 596.83 478.52 550.29 605.24 431.69 447.17 513.69 548.10 462.46 159.24 111.41 789.51 679.90 502.37 767.76 520.89 146.59 480.50 638.78 756.00 614.75 92.40 749.66 472.93 499.02 517.38 491.98 517.47 823.49 568.65 547.30 699.66 484.85 708.04 834.31 762.32 556.65 171.72 519.72 837.35 80.60 424.47 790.21 527.19 803.07 797.55 735.46 841.83 500.69 843.08 557.41 563.55 540.34 536.52 507.65 678.99 717.11 285.72 825.52 722.65 529.91 525.73 508.02 493.81 284.37 635.36 817.94 846.25 597.28 613.17 42.63 597.33 775.17 218.53 728.06 80.41 132.19 889.47 25.27 920.52 866.19 187.01 731.67 832.04 696.07 400.93 224.60 779.94 274.82 432.50 542.12 617.23 179.07 745.83 720.03 493.83 571.44 530.80 524.27 711.73 551.28 642.05 875.75
631.24 770.98 113.53 481.80 793.26 895.59 852.54 588.60 887.59 675.78 501.89 151.13 773.39 470.52 839.87 717.89 190.31 629.63 776.64 80.07 610.90 171.32 522.44 584.81 815.44 43.11 612.53 657.23 115.72 780.07 437.23 636.80 856.12 164.75 928.99 77.16 890.35 761.52 724.21 725.24 846.10 829.45 785.53 216.67 472.11 466.27 151.80 888.68 168.77 430.26 503.45 850.09 676.23 476.37 804.13 696.19 472.49 154.96 971.46 494.22 664.71 69.55 0.00 821.68 89.38 89.61 244.01 435.37 820.22 540.11 831.87 104.40 785.01 616.67 767.28 863.83 882.98 167.13 453.61 911.59 800.60 474.71 859.58 216.20 766.87 554.27 134.14 685.86 256.39 518.50 490.47 169.39 336.69 615.92 811.42 89.77 999.37 478.76 629.90 451.60 524.39 650.95 431.76 416.28 466.90 549.01 470.41 204.95 144.04 844.26 749.45 503.94 796.15 577.18 154.36 451.43 690.01 800.88 665.83 25.93 762.16 529.15 530.69 573.60 485.24 525.24 837.06 521.48 480.17 727.91 473.64 741.11 854.03 795.39 588.79 219.25 477.42 847.85 130.12 354.92 823.28 520.45 850.60 863.00 768.53 873.24 431.14 894.52 596.87 598.74 489.18 590.19 476.76 648.56 750.18 317.39 858.59 720.42 460.36 509.26 515.32 466.89 214.82 622.05 851.01 858.51 637.73 652.76 75.70 630.40 805.53 208.26 755.69 10.86 116.70 898.20 94.82 953.59 868.88 160.69 750.61 879.57 693.84 385.44 171.89 843.42 307.89 375.99 557.49 637.68 243.09 811.44 753.10 435.86 611.86 499.91 542.85 762.83 518.03 668.48 908.82
643.47 615.63 858.15 893.74 226.84 494.67 601.32 905.50 504.29 510.36 547.58 829.05 566.38 873.02 456.57 423.89 784.05 1046.99 140.96 849.75 755.28 866.12 892.17 355.21 91.20 841.99 861.50 331.60 847.96 500.49 963.47 352.03 531.60 922.15 196.01 846.18 636.58 219.15 591.17 164.72 252.71 133.76 102.38 786.47 925.80 906.62 939.57 535.74 913.47 915.78 965.59 119.83 525.92 911.02 90.81 431.90 946.07 801.08 642.09 1051.11 281.35 788.61 821.68 0.00 880.30 874.29 887.40 521.62 53.27 944.09 98.89 823.46 527.42 328.54 518.56 585.58 558.46 845.51 822.83 593.31 90.07 871.33 244.67 821.59 179.67 850.83 819.29 302.47 857.36 925.37 881.76 776.16 985.64 308.53 361.66 795.73 648.90 907.02 294.41 995.24 834.88 460.87 948.41 942.24 921.48 933.89 874.27 750.23 836.04 571.56 531.11 421.06 103.59 422.38 770.09 990.11 293.58 169.78 347.30 795.75 163.34 954.64 919.63 1056.70 1000.34 490.12 588.88 335.14 878.80 240.56 987.17 80.57 536.78 83.61 420.48 830.77 869.69 133.67 819.89 960.23 75.95 1035.55 652.76 562.94 107.99 173.34 912.40 496.05 347.27 339.77 948.30 400.35 919.85 272.95 204.29 810.96 203.10 159.90 883.67 826.16 828.71 999.59 840.02 577.86 33.79 161.06 1015.24 580.83 745.98 400.82 112.02 917.46 666.74 820.64 802.97 597.57 777.89 260.96 485.58 904.13 144.33 630.60 186.48 919.63 967.26 569.91 752.74 969.96 928.82 349.55 809.94 584.50 92.56 915.59 383.89 1004.81 931.58 576.94 840.94 344.19 194.20
636.57 750.81 141.55 532.12 858.52 927.81 832.37 600.34 915.39 702.33 527.47 184.74 800.86 511.85 910.98 747.99 200.89 575.51 811.74 90.65 643.07 160.04 535.99 587.41 874.06 46.27 594.16 679.11 121.49 779.18 434.13 658.68 835.95 119.60 900.90 104.63 872.26 792.91 754.31 788.41 849.26 882.07 844.15 223.70 530.69 540.93 135.90 885.69 127.80 494.34 484.95 884.05 732.84 517.27 834.17 731.54 432.93 123.90 943.79 497.38 723.33 99.65 89.38 880.30 0.00 118.98 308.09 480.64 878.84 542.16 861.91 134.50 804.29 670.58 761.11 844.81 862.81 173.07 466.58 897.66 859.22 526.88 922.75 227.91 830.04 567.24 144.72 739.77 237.89 549.27 554.25 148.82 426.07 634.09 841.52 148.39 993.07 471.66 688.52 473.54 590.38 686.30 436.46 451.94 518.46 585.82 531.15 240.30 167.36 824.09 779.55 562.56 857.52 620.54 210.97 387.65 738.43 855.65 698.94 84.55 825.33 510.65 528.99 506.48 496.75 581.85 844.15 601.90 546.16 786.53 465.66 799.73 875.58 854.01 633.23 201.16 508.07 886.71 162.49 444.30 881.90 531.96 832.51 842.99 827.15 851.45 511.56 913.80 631.74 636.73 533.23 613.10 492.07 737.94 788.53 315.69 821.69 783.59 524.14 586.21 549.05 488.83 295.24 649.52 909.63 886.04 635.28 680.23 134.32 689.02 835.57 211.42 761.02 91.28 180.78 857.38 124.92 1012.21 895.36 171.75 780.65 861.48 757.01 430.10 164.71 842.23 287.72 430.92 579.84 649.57 212.03 791.27 811.72 476.76 622.15 535.57 561.99 790.30 584.02 671.64 956.13
564.17 715.17 45.44 549.69 783.30 862.58 795.11 529.23 853.81 667.43 466.93 130.65 684.92 538.41 859.17 706.54 125.09 540.02 761.05 56.31 592.68 81.71 495.91 562.12 869.23 81.71 558.52 621.83 59.91 749.45 457.13 602.30 800.31 152.12 894.78 41.26 841.11 730.10 731.17 757.45 835.81 839.92 814.42 194.82 540.00 534.16 135.12 839.52 159.17 499.68 413.84 833.36 675.42 544.26 783.48 663.18 473.53 98.61 906.82 453.93 690.42 96.17 89.61 874.29 118.98 0.00 313.43 453.52 843.63 471.05 811.22 77.32 742.71 619.13 731.38 780.88 807.02 122.68 414.12 848.08 822.96 544.13 883.88 177.52 791.17 494.80 118.46 669.34 166.78 514.82 558.36 98.13 426.30 597.60 799.97 113.91 909.76 530.86 688.01 523.69 592.28 617.94 516.76 505.89 534.79 496.00 538.30 171.94 104.55 788.45 720.19 534.95 806.83 595.33 163.06 503.61 711.31 810.96 649.00 115.54 769.97 439.54 457.92 483.99 559.81 533.94 747.45 589.37 548.06 753.62 524.75 804.21 838.98 808.92 524.08 170.01 545.31 836.02 100.91 444.53 880.81 594.93 801.36 773.39 830.74 845.33 499.03 847.53 570.16 566.36 505.11 544.21 545.38 686.68 761.80 244.62 815.57 758.30 528.25 533.75 583.21 538.98 282.71 586.15 898.67 848.29 564.17 616.86 138.80 601.65 784.88 171.34 688.62 78.75 186.12 880.33 121.44 993.66 843.35 128.35 729.96 825.54 731.72 454.86 152.36 783.60 252.08 424.83 508.73 598.12 186.74 755.63 815.31 503.75 579.13 589.52 490.88 695.48 585.92 676.30 905.44
807.61 950.52 329.04 289.10 875.75 990.87 1003.72 720.72 1023.98 858.43 487.75 299.94 919.17 261.21 1009.87 858.90 375.60 785.15 804.42 290.44 808.51 368.55 663.61 646.62 883.36 272.63 746.98 690.41 325.60 897.58 193.39 669.98 1025.78 381.29 860.13 272.17 1031.52 821.49 878.17 749.81 880.92 871.96 785.48 370.63 315.53 317.44 381.32 1013.53 378.25 186.25 690.23 870.48 797.13 245.33 835.43 789.80 249.18 308.55 990.86 675.38 715.34 259.50 244.01 887.40 308.09 313.43 0.00 570.72 852.49 747.44 848.34 238.85 958.19 644.05 879.51 1000.19 1020.16 357.72 624.98 1082.58 815.69 230.70 803.68 360.02 811.90 704.95 315.63 713.24 443.17 738.39 322.46 303.84 199.81 628.54 851.43 266.62 1093.40 267.81 707.52 266.82 335.88 808.94 221.30 236.78 303.30 770.51 288.18 362.94 315.41 985.14 883.90 692.10 805.37 707.13 340.47 225.03 611.31 851.51 693.21 223.54 786.73 714.54 688.25 760.38 281.59 711.35 1026.92 684.70 291.66 778.54 265.27 829.90 1046.73 803.79 676.44 360.42 282.86 855.85 284.60 189.11 877.45 316.80 991.77 1007.89 822.29 922.04 300.59 1021.44 664.98 597.30 730.12 686.36 283.85 742.12 800.03 474.95 915.09 744.99 299.75 744.61 273.32 282.11 47.84 817.06 902.47 891.66 801.28 816.87 216.87 726.40 822.84 437.78 927.18 251.80 127.31 1077.27 248.78 894.93 1024.65 404.70 816.90 1020.74 771.57 141.43 415.90 967.00 517.77 216.31 753.48 665.06 383.07 956.17 825.32 234.33 651.44 298.25 767.27 929.73 329.52 720.51 939.98
441.17 574.31 473.36 625.76 407.57 580.93 598.45 696.55 596.70 382.61 82.97 378.95 521.21 597.87 559.49 365.31 427.15 723.19 398.96 411.94 531.35 473.97 607.91 181.89 525.42 434.37 642.59 240.03 404.57 498.10 594.09 219.60 571.51 536.53 517.23 430.21 630.24 364.92 583.69 379.16 460.18 477.83 453.12 269.66 676.84 654.10 536.35 536.21 526.53 522.91 605.53 477.39 413.25 607.24 430.81 343.54 641.01 380.31 642.56 634.52 255.47 380.99 435.37 521.62 480.64 453.52 570.72 0.00 478.90 691.14 463.43 404.47 502.84 234.11 511.42 564.80 568.71 399.15 619.38 626.10 469.87 567.36 500.08 409.52 407.37 623.00 398.52 303.30 500.46 645.94 663.03 355.39 659.83 213.09 428.29 345.60 684.29 604.47 298.83 667.76 645.00 337.25 660.26 644.78 673.01 648.90 624.84 305.90 415.27 547.86 526.85 121.38 433.23 141.81 356.49 640.57 257.79 391.64 255.26 409.44 416.08 579.83 617.79 792.22 703.88 316.80 546.81 187.66 628.32 318.67 672.86 487.28 570.86 453.21 206.23 377.32 619.52 473.93 396.11 548.14 507.89 739.00 624.02 571.74 468.85 493.76 637.25 555.41 176.42 182.56 640.21 190.59 641.79 332.18 370.28 412.59 464.00 374.34 636.41 680.94 609.98 683.05 522.88 478.38 536.58 486.20 710.02 449.31 387.63 249.44 420.15 492.06 565.62 446.23 470.35 619.70 355.72 605.15 559.58 510.73 416.79 624.90 394.93 628.27 581.64 529.72 336.15 699.13 691.12 244.05 441.24 574.17 484.28 570.99 216.63 728.41 693.88 531.77 654.83 282.56 573.92
590.20 608.29 856.69 892.28 210.56 455.79 559.74 866.62 480.65 457.09 511.67 814.89 555.19 881.00 506.10 398.78 817.26 993.72 102.08 839.35 719.91 860.28 868.18 344.81 68.70 840.53 808.23 278.33 812.73 513.73 910.20 298.76 536.50 920.69 142.74 844.72 617.30 165.88 602.57 161.57 199.93 80.49 67.01 745.35 924.34 905.16 929.50 527.25 921.59 914.32 912.32 66.56 472.65 919.00 80.41 409.48 944.61 770.42 612.64 1002.02 241.01 787.15 820.22 53.27 878.84 843.63 852.49 478.90 0.00 905.21 45.62 796.63 474.15 275.27 503.72 547.63 551.89 819.59 769.56 598.21 36.80 869.87 234.20 806.94 177.71 840.43 788.63 287.74 883.62 888.03 880.30 745.50 932.37 298.13 308.39 794.27 599.48 905.56 263.75 1000.62 827.07 407.60 956.26 940.78 920.02 880.62 855.29 747.08 791.43 563.07 519.92 388.00 63.25 419.23 759.69 949.96 271.24 116.51 309.95 794.29 139.64 901.37 888.97 1029.18 998.88 446.35 553.45 342.80 855.10 212.13 985.71 79.11 525.78 62.49 376.08 817.38 868.23 80.40 789.23 929.57 86.23 1034.09 606.30 560.43 80.47 148.23 911.43 443.27 302.48 329.37 909.42 355.95 927.83 254.92 177.16 764.33 154.70 156.75 882.21 787.28 827.25 997.63 804.65 524.59 68.84 107.79 961.97 540.18 744.52 347.55 58.75 864.19 633.79 819.18 775.45 573.93 776.43 246.25 477.09 898.33 113.67 577.33 165.56 866.36 965.80 558.42 744.79 941.24 887.55 296.28 788.29 570.42 74.71 914.13 365.40 1003.35 892.70 565.75 817.24 290.92 203.94
456.74 512.25 457.23 952.44 888.59 705.43 581.51 58.18 641.74 559.93 641.09 515.19 516.28 933.56 660.42 605.18 377.58 205.86 803.13 487.82 327.36 459.65 122.81 611.29 970.78 532.20 186.69 659.07 462.96 559.38 928.18 679.50 614.64 549.75 878.06 506.09 617.20 787.00 515.96 806.95 793.25 826.06 882.88 541.54 990.49 965.32 532.33 581.25 507.00 925.66 132.21 854.38 540.10 953.71 853.28 558.04 938.36 445.94 602.58 172.28 707.96 504.44 540.11 944.09 542.16 471.05 747.44 691.14 905.21 0.00 860.93 514.33 591.10 692.09 561.12 596.48 613.75 441.37 201.94 552.93 899.63 949.64 947.58 444.88 860.81 123.91 466.76 739.87 304.27 49.37 977.94 449.34 876.80 657.97 698.71 573.11 664.65 964.48 716.95 974.19 976.72 597.19 936.13 951.61 985.29 52.19 966.90 523.63 487.47 579.54 528.76 692.16 862.99 612.92 488.89 927.90 774.16 808.72 642.93 566.04 853.51 137.76 106.27 188.99 989.42 554.23 575.60 685.57 998.56 771.16 947.44 913.59 615.90 881.56 635.77 430.74 928.39 844.46 473.76 868.97 962.79 1024.63 630.21 601.54 921.34 855.73 949.53 691.94 690.54 660.61 50.93 655.90 980.39 688.16 768.70 316.21 842.86 811.77 956.07 117.93 969.37 989.48 733.21 503.28 940.75 885.39 140.91 472.57 530.57 609.46 846.46 417.75 442.01 529.25 620.13 659.76 529.71 1057.64 631.41 475.23 832.19 601.24 837.33 853.03 582.85 561.40 354.99 895.88 37.68 673.45 422.86 552.71 913.43 954.25 646.03 998.15 19.83 526.84 966.89 615.63 1003.68
544.58 565.26 817.08 931.29 169.68 418.18 515.32 822.34 446.24 450.91 466.05 787.46 518.94 898.93 471.70 354.36 784.85 987.54 64.47 793.73 737.64 841.82 834.13 299.19 114.32 837.46 762.61 304.71 797.82 476.17 933.28 292.72 506.49 928.46 97.12 812.00 584.39 179.50 566.85 157.99 154.31 34.87 84.74 704.30 931.88 945.54 911.04 500.12 889.18 943.83 894.10 22.14 477.42 924.64 34.79 385.82 928.49 738.01 567.02 988.26 207.96 784.08 831.87 98.89 861.91 811.22 848.34 463.43 45.62 860.93 0.00 751.01 428.53 269.09 458.10 533.67 506.27 787.18 791.65 568.20 82.42 910.25 210.17 765.57 177.03 794.81 756.22 257.03 858.16 869.35 920.68 713.09 886.75 252.51 331.51 805.44 553.86 945.94 231.34 986.34 844.80 401.42 941.75 926.27 943.97 874.44 896.14 740.54 772.97 530.94 490.46 378.15 64.85 388.36 714.07 904.34 237.03 114.38 272.60 834.67 157.37 887.61 856.56 1036.42 975.10 400.73 547.27 310.39 872.83 184.54 944.58 119.49 487.24 78.86 346.69 774.75 908.61 53.27 756.82 897.16 101.86 1010.31 570.66 533.30 121.32 103.81 938.31 397.65 291.25 283.75 865.14 344.33 945.76 256.67 144.75 754.94 126.52 153.17 922.59 743.00 867.63 971.05 822.38 519.28 114.46 62.17 916.35 532.13 784.90 369.64 52.57 850.65 619.30 821.01 816.30 538.64 805.43 263.98 449.96 868.43 81.26 571.15 167.16 820.74 963.58 512.80 738.75 895.62 862.39 290.10 755.24 524.80 107.50 895.75 327.87 977.56 848.42 529.50 834.97 245.30 205.54
568.76 733.42 122.76 527.95 760.78 824.30 789.83 569.45 796.92 634.52 487.44 90.55 680.32 500.06 827.08 683.19 136.75 546.30 727.91 72.58 600.00 129.70 519.37 551.55 814.07 88.23 508.13 626.33 86.75 675.67 432.24 605.90 803.87 200.26 848.13 88.96 807.97 702.11 689.16 746.17 802.67 785.88 781.28 168.38 554.38 554.06 196.92 811.43 183.30 425.10 457.12 773.15 635.10 484.18 750.34 651.90 488.03 88.04 889.08 480.77 644.33 34.85 104.40 823.46 134.50 77.32 238.85 404.47 796.63 514.33 751.01 0.00 743.88 629.89 677.41 761.34 781.31 130.00 386.13 843.83 789.82 469.55 827.69 121.17 734.98 486.79 76.78 699.08 210.06 507.54 528.00 64.99 373.10 574.79 753.38 58.87 924.93 506.66 631.68 488.01 526.26 606.66 460.15 475.63 542.15 546.43 497.31 160.66 76.56 762.45 645.05 517.16 773.69 546.28 113.23 463.88 662.26 777.82 649.25 99.16 714.81 482.82 464.17 527.27 520.44 484.11 794.77 592.13 530.51 707.53 504.12 742.89 809.77 775.78 577.91 136.87 521.71 802.88 45.75 408.37 825.06 555.65 768.22 769.65 770.31 842.34 530.75 808.23 580.89 587.03 536.86 557.78 522.70 668.38 736.86 250.87 842.41 747.73 538.60 505.76 512.17 503.30 286.69 633.85 852.79 813.18 562.43 614.59 77.48 599.93 751.74 221.86 693.21 110.47 167.04 854.62 59.77 955.37 831.34 183.46 696.82 797.19 721.15 380.28 229.68 745.09 278.92 412.40 529.40 613.71 144.22 732.62 754.88 473.18 586.29 537.10 532.39 690.88 516.43 639.54 872.30
337.73 136.73 760.62 1080.72 506.33 140.08 165.55 610.72 143.18 230.94 492.05 704.04 124.22 1069.00 129.65 241.68 690.16 712.09 453.60 732.44 375.37 772.23 565.70 363.10 501.83 776.82 479.90 322.62 682.80 88.89 1094.75 330.32 77.96 845.42 437.66 737.05 182.94 409.05 170.73 472.96 352.85 438.26 493.35 717.48 1109.81 1120.05 838.50 127.70 804.76 1025.75 632.08 444.56 246.99 1031.00 463.32 285.13 1103.49 717.72 220.26 672.44 373.93 769.21 785.01 527.42 804.29 742.71 958.19 502.84 474.15 591.10 428.53 743.88 0.00 314.14 102.13 105.14 104.82 730.10 530.65 139.67 463.34 1070.20 600.48 722.36 534.77 524.36 729.16 383.33 763.47 598.90 1126.82 695.58 1079.63 378.08 240.80 765.40 244.57 1080.36 474.32 1100.54 1054.95 249.74 1098.46 1088.09 1097.58 643.29 1028.21 681.24 718.11 102.41 119.51 415.82 473.46 472.40 630.65 1076.55 456.41 461.94 264.98 804.02 507.44 657.61 620.90 780.09 1136.66 369.22 138.57 437.38 1067.70 389.58 1085.71 522.83 96.27 493.44 330.97 692.02 1098.58 419.86 698.13 939.79 519.36 1171.78 205.30 126.29 507.01 432.22 1090.67 109.51 343.82 403.00 628.22 332.91 1077.32 274.52 386.44 637.55 402.46 477.78 1102.16 544.54 1073.77 1115.83 931.96 247.36 524.64 366.36 732.01 263.99 754.25 253.40 481.10 775.56 224.58 795.87 843.81 178.13 751.97 598.24 100.64 798.20 449.93 180.25 461.74 1037.35 888.94 84.27 599.82 1112.23 607.99 335.15 714.16 96.27 522.44 1066.07 328.36 1171.72 610.93 113.66 1050.22 292.28 614.15
410.04 423.42 601.06 820.42 275.82 346.82 392.35 653.50 379.93 237.40 253.82 559.07 370.32 799.56 381.53 221.14 598.97 787.13 214.78 637.41 476.84 659.64 592.91 83.17 343.97 640.04 611.51 62.07 587.77 324.18 828.20 43.21 392.10 735.05 321.68 642.02 466.85 180.74 413.88 210.34 236.87 286.89 253.88 479.18 879.91 865.92 717.63 440.42 668.01 757.02 637.05 280.80 255.32 809.94 264.93 174.81 795.37 546.68 517.43 738.23 71.29 615.10 616.67 328.54 670.58 619.13 644.05 234.11 275.27 692.09 269.09 629.89 314.14 0.00 309.48 361.36 418.96 586.51 527.56 453.81 284.09 801.47 329.71 531.67 240.39 578.79 567.50 69.19 608.35 653.33 860.21 571.60 843.86 63.94 250.33 579.71 524.54 838.58 169.42 870.64 775.02 201.01 833.56 849.04 872.77 721.30 764.80 515.42 590.79 382.08 341.84 112.73 249.05 192.47 525.50 784.75 142.27 207.46 49.16 590.74 247.26 650.83 639.41 829.50 893.85 196.36 394.79 126.15 819.24 134.49 818.15 283.65 410.41 251.62 109.91 551.49 836.75 289.75 584.14 672.23 339.83 899.07 445.40 384.00 284.67 309.58 838.94 377.39 85.78 94.88 682.65 89.78 839.09 98.07 155.98 548.07 279.82 205.52 841.86 574.16 810.36 876.29 691.89 328.41 344.11 262.14 689.94 322.85 621.74 105.55 216.52 613.87 470.68 627.53 650.11 473.21 589.83 420.97 407.05 697.69 219.47 446.36 178.94 785.48 752.19 393.48 489.24 860.36 656.78 21.01 563.39 387.49 283.49 788.86 90.13 930.05 679.58 380.88 784.85 76.46 389.74
249.83 113.94 747.88 1064.49 549.82 166.70 124.21 523.57 184.23 128.81 516.36 706.46 60.84 1059.03 169.48 187.55 707.93 693.83 494.21 708.39 313.39 750.17 478.55 383.40 543.63 748.48 416.52 345.46 716.58 18.07 1052.49 352.69 146.27 814.76 425.86 690.12 181.50 442.16 108.75 516.45 400.61 423.23 509.71 652.03 1096.96 1078.98 819.39 134.02 799.89 1034.33 575.25 451.55 163.23 1021.03 492.89 214.31 1066.06 637.21 240.37 638.34 380.77 712.26 767.28 518.56 761.11 731.38 879.51 511.42 503.72 561.12 458.10 677.41 102.13 309.48 0.00 122.57 159.45 686.38 443.50 204.20 526.46 1004.88 596.02 650.83 549.87 437.21 658.03 378.67 694.62 511.75 1052.92 662.13 1050.51 364.17 223.41 736.28 267.33 1070.39 478.90 1058.14 1011.49 177.21 1011.31 1015.56 1087.61 590.60 1026.56 615.79 681.32 105.63 32.36 390.04 489.82 428.94 650.23 1060.12 451.75 505.43 317.05 776.57 546.20 575.31 533.75 750.11 1071.60 279.35 147.41 404.79 996.88 426.37 1043.45 469.30 167.22 509.80 321.00 673.76 1057.04 441.63 679.50 897.53 551.47 1106.81 179.55 129.51 496.72 438.10 1075.61 195.54 374.66 395.11 541.07 341.13 1076.04 318.01 429.93 620.40 421.38 512.34 1075.14 495.15 1047.50 1073.43 927.35 145.23 552.35 468.49 676.25 161.86 754.89 336.64 493.53 698.66 161.20 778.14 818.45 217.51 737.18 681.78 173.74 755.94 493.42 191.75 488.42 1020.94 801.64 87.49 559.97 1048.27 563.62 321.24 619.11 78.01 481.29 1023.81 352.67 1099.19 557.29 71.40 1007.96 344.35 630.51
303.79 94.00 773.24 1116.82 587.40 191.26 65.82 565.12 145.40 251.38 574.84 784.47 114.68 1093.27 129.01 242.93 705.05 669.70 488.30 783.76 321.84 784.24 544.24 444.53 606.97 828.14 422.34 386.21 749.26 104.50 1085.21 404.57 79.59 885.35 493.64 789.79 105.49 432.76 145.05 524.11 416.44 521.07 565.49 709.79 1102.14 1076.97 867.93 104.84 809.40 1087.71 578.17 543.36 224.06 1097.04 538.45 272.79 1011.73 723.56 156.07 630.05 431.83 796.19 863.83 585.58 844.81 780.88 1000.19 564.80 547.63 596.48 533.67 761.34 105.14 361.36 122.57 0.00 72.34 745.06 527.43 97.33 561.84 1100.58 646.36 690.22 566.02 521.14 744.38 430.55 718.78 580.59 1103.03 718.18 1118.06 400.63 239.24 803.83 195.74 1069.06 521.54 1090.80 1050.51 227.55 1066.48 1065.90 1099.44 616.02 1084.15 673.55 729.86 20.72 116.29 474.09 548.16 479.28 711.08 1057.01 502.72 528.18 312.20 839.62 544.64 552.47 542.79 738.73 1126.77 375.05 33.43 463.60 1078.54 478.95 1062.95 588.55 89.65 552.94 409.78 646.30 1096.83 502.67 747.99 930.25 624.50 1161.98 110.64 22.64 593.21 474.32 1112.10 180.15 391.04 431.87 609.91 389.65 1113.65 379.66 467.51 588.36 466.05 519.29 1102.94 501.81 1115.03 1106.09 971.29 244.90 616.47 471.50 682.66 237.34 789.85 358.54 528.13 726.37 213.47 856.73 879.41 120.37 774.44 703.38 106.70 788.66 519.39 85.00 505.90 1110.72 893.58 35.08 557.09 1106.03 558.80 382.37 695.01 53.88 595.10 1056.53 411.15 1149.53 599.64 104.12 1040.68 339.50 677.07
299.27 152.27 802.70 1163.79 569.20 139.19 99.97 555.57 89.54 283.14 596.87 808.86 171.53 1132.74 101.89 284.86 723.05 740.83 485.93 816.90 347.98 805.12 570.38 467.92 589.80 861.28 448.48 421.35 767.26 141.38 1157.55 435.14 26.86 918.66 436.77 821.51 78.12 458.90 216.18 535.54 351.96 490.88 548.55 760.35 1143.50 1137.58 910.04 32.50 852.47 1091.62 633.45 487.18 274.62 1132.15 532.07 323.35 1066.57 779.28 115.44 695.91 437.41 816.16 882.98 558.46 862.81 807.02 1020.16 568.71 551.89 613.75 506.27 781.31 104.82 418.96 159.45 72.34 0.00 763.38 547.40 62.52 541.08 1136.07 664.75 718.31 572.04 541.11 797.49 481.48 769.34 606.73 1156.82 754.36 1154.41 472.97 295.66 840.18 174.11 1082.79 542.77 1145.64 1112.39 278.11 1115.21 1114.40 1155.73 642.16 1113.94 724.11 790.47 81.33 136.26 502.04 545.79 529.84 735.47 1111.85 557.56 463.84 369.80 880.47 570.31 624.81 603.40 802.74 1175.50 425.61 59.57 514.16 1120.19 494.40 1117.79 553.50 66.49 529.78 435.79 706.91 1151.67 475.87 798.09 1002.59 583.89 1210.71 117.87 77.48 528.73 431.33 1156.21 108.62 448.64 503.25 636.05 415.79 1127.69 379.34 449.31 638.92 401.57 530.72 1155.63 560.08 1159.50 1160.93 1036.78 292.91 580.02 444.10 706.02 287.90 850.46 358.22 519.92 776.93 214.10 885.77 940.02 73.31 841.08 703.06 82.66 843.13 512.80 118.09 504.14 1142.17 936.65 85.64 575.09 1156.59 595.62 439.97 723.81 125.01 544.16 1128.87 433.18 1198.03 629.41 176.46 1113.02 397.10 667.86
464.11 673.90 124.88 601.75 747.00 838.31 735.16 496.10 846.08 568.32 417.30 118.42 667.96 579.44 835.01 693.61 63.79 510.34 737.01 112.12 470.00 93.59 417.48 512.68 828.16 150.73 469.50 596.51 62.77 704.45 540.29 583.95 759.98 208.93 871.76 93.85 769.86 678.99 631.11 713.68 803.38 815.88 780.67 129.49 614.07 608.23 191.51 795.88 132.57 536.15 384.16 809.32 621.32 560.16 759.44 628.26 526.12 49.17 809.78 378.87 625.30 149.18 167.13 845.51 173.07 122.68 357.72 399.15 819.59 441.37 787.18 130.00 730.10 586.51 686.38 745.06 763.38 0.00 348.07 820.92 798.92 552.87 841.15 54.84 755.31 433.50 69.99 655.70 137.10 418.58 627.25 74.09 489.59 559.36 684.22 179.78 912.32 583.45 636.69 601.21 627.86 596.04 577.27 561.79 608.86 480.23 610.35 150.04 53.44 724.34 694.21 520.53 781.88 479.67 99.45 531.13 656.94 761.47 635.67 186.52 750.60 409.86 397.97 454.31 589.23 470.33 758.41 574.45 613.83 688.50 572.19 814.28 779.72 761.90 539.02 98.76 577.70 811.98 84.25 498.40 842.92 624.44 730.11 746.23 819.62 848.19 573.10 839.61 573.02 536.66 447.90 518.89 607.24 661.36 701.36 184.67 818.43 708.86 602.32 467.70 595.49 616.50 360.23 568.71 860.58 824.25 534.49 599.42 176.66 586.15 760.84 92.91 588.56 156.27 230.41 836.69 152.50 920.67 810.32 160.34 705.92 759.08 682.28 456.26 216.75 737.95 211.75 522.96 463.20 574.84 78.02 694.51 804.19 533.90 547.42 601.38 461.20 678.52 637.69 625.76 881.40
386.23 499.51 381.01 874.46 790.12 590.39 550.85 187.02 563.01 445.61 660.66 422.93 446.41 861.94 593.17 535.18 397.46 299.19 727.18 405.08 280.16 371.37 142.00 531.71 838.26 420.31 228.04 491.23 355.44 441.76 818.37 498.93 569.96 461.90 809.55 394.61 574.77 676.32 484.80 727.73 724.74 757.55 781.44 360.76 882.51 876.67 447.64 577.52 431.40 792.28 157.51 785.87 453.06 828.60 765.00 406.60 826.88 353.68 662.84 232.46 598.85 406.10 453.61 822.83 466.58 414.12 624.98 619.38 769.56 201.94 791.65 386.13 530.65 527.56 443.50 527.43 547.40 348.07 0.00 607.98 800.76 836.73 815.25 347.26 767.95 100.66 338.43 596.75 339.31 152.57 900.87 369.45 703.34 549.48 603.41 439.73 691.02 866.37 646.58 818.25 912.39 451.84 825.04 830.23 877.30 231.42 868.56 324.52 309.57 525.25 411.14 502.73 764.12 606.60 375.11 808.30 624.44 733.93 532.25 469.61 769.27 131.81 164.23 349.96 854.37 537.83 559.23 588.65 897.69 662.05 848.54 793.75 575.36 779.18 499.58 323.42 870.37 775.95 340.38 757.97 853.00 889.49 590.60 533.29 812.23 785.73 841.54 574.32 542.11 571.61 181.89 501.52 821.47 560.89 670.23 208.89 774.35 727.53 870.76 119.63 874.44 833.54 667.93 490.83 838.40 787.92 262.00 520.59 440.54 422.01 744.08 255.16 483.36 463.97 521.62 620.71 408.63 936.55 597.43 416.47 733.72 580.18 700.95 724.70 456.15 511.18 283.23 742.64 227.07 506.55 315.54 481.57 805.74 817.87 496.97 881.52 214.60 456.97 902.56 547.12 897.12
361.79 166.87 837.55 1168.87 607.66 193.57 131.97 611.11 129.88 324.20 631.72 843.71 201.60 1145.32 136.74 294.98 757.90 742.23 547.28 851.75 374.65 839.97 611.44 491.05 641.50 892.79 489.54 440.21 802.11 186.13 1154.76 419.78 61.71 961.21 475.76 834.43 64.27 499.96 217.58 570.39 414.48 536.21 583.40 791.42 1179.74 1162.35 943.79 95.02 861.45 1149.01 664.52 549.70 305.69 1170.47 574.01 354.42 1063.78 799.42 119.09 702.58 472.26 872.24 911.59 593.31 897.66 848.08 1082.58 626.10 598.21 552.93 568.20 843.83 139.67 453.81 204.20 97.33 62.52 820.92 607.98 0.00 596.09 1157.73 699.60 766.08 606.89 603.63 820.24 508.66 800.41 602.30 1185.10 794.04 1193.92 488.28 336.57 879.69 147.26 1121.11 567.43 1142.85 1143.46 309.18 1118.53 1118.97 1184.82 605.12 1155.00 755.18 805.72 106.10 198.78 542.61 584.61 560.91 770.32 1109.06 524.49 526.36 404.65 915.48 607.31 649.80 628.17 741.92 1178.82 443.48 100.63 545.23 1164.94 529.25 1115.00 616.02 101.34 564.63 470.64 722.16 1148.88 517.81 823.85 1027.58 646.41 1214.03 94.43 74.69 591.25 493.85 1169.07 171.14 449.68 492.46 603.86 456.85 1165.70 414.19 487.77 669.99 464.09 565.57 1154.99 555.89 1173.43 1158.14 1068.62 289.54 614.87 506.03 693.84 309.62 865.71 393.07 582.44 808.00 248.95 922.45 955.27 106.83 846.97 737.91 121.12 877.98 551.26 72.58 538.99 1171.53 945.63 116.71 609.94 1187.66 590.61 453.05 769.22 126.41 606.68 1153.86 468.03 1202.60 572.76 201.45 1138.01 384.42 725.30
605.97 600.07 826.07 872.66 180.02 450.21 585.91 861.04 503.23 461.39 501.83 793.02 564.01 861.38 512.46 383.69 796.59 1000.58 96.50 825.64 683.11 823.48 836.06 315.87 78.58 820.91 826.92 315.13 800.50 544.53 915.51 324.75 534.38 901.07 173.41 825.10 619.20 129.08 611.42 139.70 189.12 103.23 30.21 739.53 901.67 885.54 892.70 538.56 900.92 894.70 912.55 96.95 492.42 899.38 66.70 398.80 924.99 749.75 619.87 995.85 214.40 767.53 800.60 90.07 859.22 822.96 815.69 469.87 36.80 899.63 82.42 789.82 463.34 284.09 526.46 561.84 541.08 798.92 800.76 596.09 0.00 850.25 197.40 782.25 151.10 811.49 767.96 254.00 869.90 886.03 860.68 724.83 919.82 269.19 345.19 774.65 630.15 885.94 243.08 981.00 790.27 416.42 936.64 921.16 889.44 889.44 818.49 725.21 754.63 564.08 528.74 395.23 36.64 397.36 730.75 961.99 234.44 144.93 273.15 774.67 102.84 919.64 868.30 992.38 979.26 444.37 528.41 322.13 818.30 175.33 966.09 59.49 503.91 40.62 378.72 796.71 848.61 95.68 768.56 908.90 96.11 1014.47 605.62 554.35 43.67 167.73 891.66 432.46 307.93 300.43 903.84 361.01 908.21 268.41 156.49 771.62 161.33 134.88 862.59 781.70 807.63 968.46 767.85 507.50 97.71 96.98 974.03 538.21 724.90 378.75 67.57 882.68 607.18 799.56 738.65 573.45 756.81 209.45 492.37 861.53 93.00 586.15 138.95 903.16 946.18 547.61 762.99 959.12 889.48 294.21 761.68 559.61 59.10 894.51 338.14 983.73 887.12 574.57 780.44 300.45 177.33
947.83 1063.93 559.74 67.76 776.64 1146.06 1106.02 942.11 1162.19 876.07 650.33 434.45 1013.54 89.35 1126.85 927.79 590.57 996.90 889.62 521.14 1022.87 583.25 894.31 749.25 865.09 503.33 977.68 807.39 505.19 1022.95 115.63 786.96 1124.28 611.99 991.81 502.87 1142.91 852.39 1060.05 822.98 973.56 914.55 835.18 510.96 111.70 86.74 608.01 1103.57 608.95 44.45 874.75 899.74 876.52 79.68 880.54 910.90 93.95 503.70 1209.92 899.21 822.83 490.20 474.71 871.33 526.88 544.13 230.70 567.36 869.87 949.64 910.25 469.55 1070.20 801.47 1004.88 1100.58 1136.07 552.87 836.73 1157.73 850.25 0.00 828.08 590.72 831.91 855.75 524.52 824.09 645.37 930.29 95.67 528.62 224.23 780.45 995.65 495.81 1203.06 85.84 713.22 173.02 105.18 904.61 139.84 124.36 106.49 975.62 57.48 547.20 527.16 1083.64 1021.73 688.74 850.48 662.35 507.84 139.23 809.43 905.32 822.62 454.24 776.42 849.05 908.79 962.58 180.70 725.53 1099.64 713.28 60.96 836.21 145.17 790.76 1138.22 845.04 773.59 580.96 52.16 932.95 496.35 242.01 865.70 215.91 1161.36 1083.04 818.18 981.41 70.73 1122.77 743.78 749.92 935.88 757.95 130.74 899.54 833.50 695.49 989.64 818.16 70.26 913.69 42.62 188.31 271.61 965.79 900.66 947.23 979.24 944.05 447.57 816.80 857.89 613.28 1011.26 475.57 358.01 1187.06 479.48 840.39 1116.76 634.06 858.53 1159.20 844.74 158.22 646.60 1065.50 697.36 233.10 930.04 811.41 591.83 1061.35 802.75 50.57 783.99 187.28 969.47 1002.98 98.82 849.92 880.53
662.43 682.22 850.67 830.49 112.81 540.56 671.57 914.93 604.25 468.30 518.47 833.75 629.12 819.21 567.99 474.20 853.61 1004.93 186.85 895.26 764.53 880.65 896.51 366.84 218.18 894.15 829.31 362.40 858.26 579.66 854.81 341.97 637.89 961.53 307.29 910.40 733.00 238.88 670.34 172.83 320.82 245.04 198.24 769.74 820.80 814.96 964.02 632.91 951.09 783.63 926.48 232.31 494.81 839.50 209.28 460.09 885.12 798.85 736.83 991.04 261.81 861.81 859.58 244.67 922.75 883.88 803.68 500.08 234.20 947.58 210.17 827.69 600.48 329.71 596.02 646.36 664.75 841.15 815.25 699.60 197.40 828.08 0.00 786.31 92.71 862.46 819.67 310.58 921.56 898.21 839.16 787.59 907.81 348.76 493.85 814.45 748.86 853.25 305.84 918.15 835.63 418.81 871.32 858.60 815.59 923.57 885.56 758.34 825.95 629.42 608.41 412.32 204.73 417.46 760.36 873.94 289.39 236.76 365.19 878.29 148.20 942.35 841.31 1073.96 889.80 461.01 625.30 384.59 863.66 254.14 915.96 164.10 598.26 217.01 409.54 742.39 826.11 261.82 817.26 932.42 235.71 925.01 702.51 651.24 191.52 307.55 779.83 564.16 365.93 317.52 920.87 389.41 844.74 331.17 219.25 791.14 313.26 168.01 809.05 835.59 864.01 912.63 755.84 584.08 251.47 272.34 1012.29 555.66 829.51 393.24 210.68 842.59 697.63 848.72 886.50 688.45 855.80 211.06 585.90 907.14 155.76 703.39 165.74 939.36 1006.64 611.28 714.70 947.11 931.74 308.70 807.85 655.73 176.09 831.71 354.78 939.60 933.86 618.56 825.80 337.89 270.37
456.26 651.27 146.87 613.22 739.26 792.01 688.86 456.95 794.18 522.02 379.18 165.10 621.66 602.22 784.49 684.56 67.30 513.85 722.49 166.96 524.84 148.43 406.87 531.14 814.15 200.24 423.20 574.93 117.61 668.90 553.41 554.50 736.41 235.27 825.46 148.69 715.02 681.27 623.26 676.94 768.54 800.44 776.65 139.86 620.30 624.67 222.83 750.81 187.41 546.27 387.67 783.03 589.34 564.22 730.78 573.42 572.83 104.01 796.13 402.59 579.00 156.02 216.20 821.59 227.91 177.52 360.02 409.52 806.94 444.88 765.57 121.17 722.36 531.67 650.83 690.22 718.31 54.84 347.26 766.08 782.25 590.72 786.31 0.00 706.63 437.01 113.62 600.86 140.61 408.57 638.72 80.56 494.27 513.06 739.06 180.04 878.48 602.76 614.60 578.68 586.25 571.51 532.10 516.62 608.07 433.93 618.48 142.30 84.76 669.50 656.93 530.90 756.76 500.42 91.71 580.91 629.25 715.17 580.83 190.27 723.50 378.75 351.67 457.82 585.58 462.59 716.17 523.45 630.47 642.20 573.98 805.78 737.04 767.20 541.88 43.92 589.17 786.98 102.97 482.15 796.62 620.79 675.27 691.39 792.38 817.29 595.39 820.11 549.50 481.82 431.23 521.75 577.10 629.74 646.52 138.37 787.53 681.76 612.06 466.89 630.15 593.97 407.86 560.86 838.78 793.81 508.94 591.57 187.47 578.41 748.19 116.63 580.71 211.11 270.19 791.62 172.28 874.37 755.48 187.38 710.01 704.24 696.48 499.89 221.74 687.64 188.18 533.57 416.90 552.68 31.72 639.67 793.79 571.95 532.43 600.25 444.22 632.22 596.08 608.13 884.29
569.72 625.93 792.02 838.56 63.85 510.78 578.86 822.22 523.00 458.83 472.56 772.88 610.71 831.75 475.28 381.49 773.93 998.74 168.69 802.55 717.23 819.10 811.09 274.13 174.64 801.44 823.12 297.72 765.55 563.62 891.95 283.60 545.18 902.17 243.48 817.69 641.38 146.17 631.51 80.12 272.40 181.05 128.12 677.03 854.01 850.92 888.32 540.20 870.99 838.00 867.25 154.89 488.62 830.43 144.52 367.38 872.15 706.14 646.55 950.25 169.10 769.10 766.87 179.67 830.04 791.17 811.90 407.37 177.71 860.81 177.03 734.98 534.77 240.39 549.87 566.02 572.04 755.31 767.95 606.89 151.10 831.91 92.71 706.63 0.00 769.75 726.96 217.87 841.34 844.29 826.27 731.06 900.33 256.05 404.95 721.74 667.61 814.82 231.08 835.21 742.92 412.62 879.19 863.71 842.09 903.79 831.17 665.63 750.25 579.26 582.23 319.61 114.46 337.78 700.20 879.03 200.59 184.39 272.48 785.58 55.49 884.79 856.30 1040.93 864.96 400.61 532.59 292.20 770.95 175.32 894.97 100.31 505.55 134.44 343.87 750.55 831.71 184.99 724.55 853.39 170.46 875.87 609.80 558.53 115.30 236.56 844.31 515.74 273.22 224.81 865.02 323.74 859.72 260.25 148.33 736.91 254.43 75.30 823.68 742.88 807.44 819.92 829.43 519.16 209.53 221.56 930.33 516.31 765.72 345.94 135.75 823.26 604.92 756.01 798.90 595.74 763.09 232.55 504.29 857.15 137.60 610.68 73.03 897.57 928.37 592.51 703.41 861.03 847.74 261.40 716.38 610.25 112.30 789.92 308.87 916.25 848.30 612.37 733.09 245.18 177.66
348.66 465.75 449.36 914.15 816.63 584.10 547.31 86.36 556.72 546.27 566.28 523.59 440.12 886.26 586.88 624.76 369.71 268.25 743.14 479.95 294.37 451.78 41.34 495.62 855.11 520.97 163.24 587.32 455.09 435.47 882.48 566.89 563.67 562.56 817.90 495.27 569.96 726.84 392.05 744.82 733.09 765.90 809.97 461.42 965.23 942.49 548.30 571.23 499.13 811.30 138.04 794.22 542.53 895.63 760.02 507.26 927.54 454.34 633.14 201.13 635.35 496.57 554.27 850.83 567.24 494.80 704.95 623.00 840.43 123.91 794.81 486.79 524.36 578.79 437.21 521.14 541.11 433.50 100.66 603.63 811.49 855.75 862.46 437.01 769.75 0.00 439.09 647.98 385.10 74.54 951.42 441.47 804.00 542.30 640.81 534.37 684.73 892.86 677.72 918.91 960.93 523.96 925.70 928.20 961.40 153.39 913.23 425.18 410.23 523.03 404.85 576.49 790.08 604.92 459.52 892.91 658.49 771.52 582.77 537.85 781.74 141.67 96.54 312.90 955.03 528.92 552.15 569.90 916.71 698.55 939.57 844.98 569.57 804.09 565.67 424.08 907.91 784.30 441.04 858.47 872.64 990.15 570.22 529.45 846.55 812.46 925.64 568.03 574.87 544.94 103.86 557.68 922.13 628.00 696.74 309.55 782.70 740.00 924.80 57.94 898.37 934.20 752.79 453.26 880.76 825.23 239.04 483.97 488.08 522.67 786.47 355.82 391.05 552.03 577.64 614.42 480.67 985.03 591.14 488.14 760.23 541.25 713.42 825.36 556.81 504.89 350.54 843.30 126.41 557.78 416.20 483.22 846.38 859.38 530.36 982.18 136.57 449.12 954.57 555.47 930.77
533.49 713.81 89.85 539.89 746.06 824.73 763.10 524.94 842.26 599.25 481.49 90.07 698.89 528.17 827.51 693.10 114.89 531.58 706.05 92.65 539.99 97.71 480.43 484.33 799.35 137.03 500.43 576.03 58.55 676.10 498.81 555.60 798.95 184.35 853.34 110.92 769.18 654.41 700.49 685.33 780.81 784.92 759.42 146.52 544.08 538.24 166.93 792.05 176.41 482.93 409.55 778.36 620.38 490.17 728.48 637.18 494.02 20.82 850.29 448.86 624.06 111.62 134.14 819.29 144.72 118.46 315.63 398.52 788.63 466.76 756.22 76.78 729.16 567.50 658.03 744.38 797.49 69.99 338.43 820.24 767.96 524.52 819.67 113.62 726.96 439.09 0.00 636.69 162.49 466.96 562.44 43.13 444.61 531.01 738.66 130.38 925.36 539.53 660.87 553.86 599.51 591.94 507.28 491.80 538.87 508.17 574.08 145.94 28.86 723.66 690.39 502.44 751.83 540.33 98.51 469.87 647.20 755.96 616.66 156.44 700.09 435.25 425.91 479.70 540.63 469.39 770.33 558.61 574.79 687.26 510.11 772.08 791.20 753.92 554.38 98.08 548.25 781.02 31.03 485.15 816.88 575.84 729.43 745.55 798.08 834.71 503.11 838.67 563.58 533.65 496.28 535.92 552.28 636.91 685.45 212.61 814.21 680.51 532.33 458.06 566.21 569.15 329.50 630.58 843.67 793.29 527.26 599.87 106.67 585.21 729.88 162.90 657.94 125.54 191.41 854.18 86.35 937.79 809.64 135.76 674.96 758.40 653.93 386.27 229.46 741.80 250.72 461.15 491.14 546.49 108.95 693.83 784.07 493.92 519.07 543.09 486.59 709.45 593.21 624.82 850.44
476.08 492.61 670.25 838.80 238.97 416.01 461.54 701.28 449.12 306.59 268.49 628.26 439.51 835.22 405.05 281.92 668.16 850.58 213.02 705.31 546.03 728.83 662.10 152.36 310.80 709.23 674.96 131.26 656.96 393.37 897.39 112.40 454.62 804.24 307.67 710.60 531.08 124.92 483.07 147.39 260.18 258.62 249.86 548.37 864.87 844.99 786.82 449.64 737.20 826.21 706.24 279.17 324.51 845.29 247.39 219.22 861.71 615.87 555.99 786.83 69.53 684.29 685.86 302.47 739.77 669.34 713.24 303.30 287.74 739.87 257.03 699.08 383.33 69.19 378.67 430.55 481.48 655.70 596.75 508.66 254.00 824.09 310.58 600.86 217.87 647.98 636.69 0.00 677.54 722.52 834.52 640.79 853.75 129.98 206.62 648.90 593.73 859.78 110.87 910.50 844.21 264.46 902.75 895.00 862.78 757.02 827.03 584.61 659.98 427.50 411.03 181.92 247.29 261.66 591.54 853.94 161.19 171.23 118.35 659.93 184.31 686.18 674.76 898.69 940.25 260.38 463.98 190.28 853.06 97.64 887.34 238.61 414.99 236.83 145.26 620.68 822.45 261.05 653.33 741.42 304.89 951.16 514.59 451.38 249.73 289.99 846.58 426.51 154.97 161.22 744.08 158.97 882.05 137.01 149.25 617.26 260.23 142.57 817.36 621.94 781.47 895.21 708.40 377.30 314.24 246.23 759.13 346.59 665.07 174.74 256.35 649.22 521.67 696.72 694.39 505.18 659.02 381.90 434.06 749.74 212.74 515.55 169.15 813.79 785.07 409.36 558.43 888.67 725.97 90.20 616.81 456.68 234.30 852.99 154.15 957.57 727.36 450.07 854.04 124.24 387.98
554.50 669.95 152.96 648.17 820.92 861.32 680.91 362.45 826.52 662.63 476.92 210.92 689.93 629.29 815.62 715.89 73.31 373.24 804.30 183.55 549.22 155.38 343.76 603.48 920.66 227.93 459.90 616.42 158.69 712.69 623.91 611.65 742.48 246.90 847.02 201.82 776.00 789.09 721.50 796.85 817.42 860.51 861.36 248.46 686.22 661.05 229.48 792.22 202.73 621.39 247.06 873.27 638.66 649.44 830.42 701.76 634.09 141.67 857.11 332.67 679.64 200.17 256.39 857.36 237.89 166.78 443.17 500.46 883.62 304.27 858.16 210.06 763.47 608.35 694.62 718.78 769.34 137.10 339.31 800.41 869.90 645.37 921.56 140.61 841.34 385.10 162.49 677.54 0.00 353.64 673.67 145.07 583.07 632.85 765.59 268.84 900.72 660.21 671.83 678.69 682.40 667.82 631.86 647.34 683.52 347.93 662.63 221.82 185.15 701.84 725.20 618.28 853.77 599.17 210.00 623.63 717.67 815.81 657.51 276.07 819.72 272.76 326.31 317.21 685.15 580.88 738.41 549.14 695.58 742.84 643.17 879.51 782.11 855.86 533.43 184.53 624.12 842.11 169.49 608.95 927.75 720.36 736.25 725.72 888.65 797.57 665.60 860.06 594.11 622.43 355.20 553.56 676.12 696.03 764.33 130.42 767.81 792.03 651.80 398.16 665.10 693.98 449.49 549.39 891.15 832.16 397.39 580.10 226.30 606.52 824.87 113.48 678.95 245.53 315.86 832.36 225.44 975.54 786.61 193.39 776.90 765.22 768.31 548.76 278.58 683.70 206.86 591.61 341.95 629.36 172.33 710.41 873.22 656.41 588.48 693.88 324.10 690.17 692.23 675.83 952.38
423.20 530.43 488.99 978.58 876.84 658.64 586.33 107.55 631.26 510.56 591.72 530.55 511.32 960.80 651.77 600.97 426.95 221.29 817.68 458.62 311.41 470.74 74.78 570.16 929.65 503.00 158.25 609.70 481.35 510.01 923.33 630.13 598.20 528.14 878.24 476.89 628.84 781.76 466.59 818.54 807.63 840.44 884.51 513.33 968.89 963.05 510.72 630.62 469.81 885.84 133.34 868.76 490.73 944.66 834.56 559.17 909.16 461.99 651.95 169.94 709.89 530.82 518.50 925.37 549.27 514.82 738.39 645.94 888.03 49.37 869.35 507.54 598.90 653.33 511.75 580.59 606.73 418.58 152.57 602.30 886.03 930.29 898.21 408.57 844.29 74.54 466.96 722.52 353.64 0.00 987.25 456.61 855.19 616.84 670.11 542.26 680.57 966.49 667.58 952.58 927.35 560.05 940.67 925.19 963.68 78.85 967.19 477.09 438.10 578.97 479.39 651.03 864.62 639.53 489.46 926.35 733.03 846.06 657.31 544.43 855.34 115.95 56.90 238.36 988.70 603.46 547.16 644.44 955.38 735.51 954.71 915.02 637.83 878.63 586.40 384.73 958.87 858.84 468.91 822.96 947.18 1023.82 617.84 573.10 921.09 851.52 927.92 642.57 649.41 619.48 29.32 606.53 966.67 698.97 771.28 270.20 857.24 814.54 957.14 132.48 972.91 967.87 711.60 453.91 955.30 899.77 167.57 423.20 521.52 560.09 861.01 399.35 410.96 507.64 611.08 659.99 537.16 1059.57 622.76 425.86 817.66 588.87 787.96 853.23 534.81 579.43 309.79 887.65 87.05 632.32 376.85 557.76 920.92 932.64 604.90 1008.82 62.03 521.88 917.52 630.01 993.14
928.60 1093.40 582.28 51.55 829.95 1137.29 1132.78 1036.12 1172.43 968.96 746.00 530.12 1040.30 72.75 1160.70 938.22 600.36 1046.91 883.98 552.58 1097.25 636.56 961.41 777.04 875.52 525.04 1036.13 843.26 564.48 1051.18 129.07 832.92 1159.23 622.82 1002.24 553.59 1185.89 862.82 1086.81 817.34 983.99 924.98 843.41 592.22 44.04 26.06 605.40 1153.24 643.34 140.12 920.73 910.17 972.19 101.27 890.97 950.14 121.32 583.26 1243.84 920.86 850.69 560.02 490.47 881.76 554.25 558.36 322.46 663.03 880.30 977.94 920.68 528.00 1126.82 860.21 1052.92 1103.03 1156.82 627.25 900.87 1185.10 860.68 95.67 839.16 638.72 826.27 951.42 562.44 834.52 673.67 987.25 0.00 592.99 222.67 808.37 1000.10 536.90 1198.77 102.95 723.65 154.70 85.19 919.47 130.53 122.10 48.53 1017.76 98.61 602.97 591.30 1082.31 1020.56 750.68 860.91 667.74 573.78 166.60 815.58 899.68 878.82 512.45 770.78 941.44 951.52 990.88 118.58 821.20 1128.98 762.52 74.32 846.64 168.73 801.19 1167.39 850.51 801.30 623.69 49.55 933.52 573.75 280.68 863.09 153.79 1182.88 1110.41 828.61 991.84 59.33 1106.72 799.98 821.81 957.93 811.05 79.54 945.82 843.93 738.22 988.68 812.52 30.11 999.73 53.05 163.62 324.92 962.75 905.25 957.66 1071.06 993.46 524.41 873.42 868.32 666.59 1053.05 479.61 449.77 1212.83 556.32 823.79 1168.29 651.16 852.89 1180.74 839.10 205.17 655.34 1100.45 748.32 225.66 1015.62 839.20 670.44 1121.24 813.18 103.88 811.78 177.59 997.77 1029.74 93.18 902.67 873.62
536.82 682.81 119.50 583.02 712.48 806.16 736.90 504.99 822.14 586.35 438.36 94.17 702.22 565.05 802.75 659.52 71.76 518.31 662.92 121.73 544.09 128.73 454.91 488.43 800.21 153.22 503.76 570.41 84.73 680.20 497.23 559.70 767.95 215.37 810.21 136.87 742.98 672.09 693.63 689.43 737.68 741.79 716.29 103.39 587.21 581.37 197.95 783.34 199.29 490.09 392.13 735.23 586.80 533.30 685.35 606.76 537.15 24.92 824.09 452.96 596.03 99.84 169.39 776.16 148.82 98.13 303.84 355.39 745.50 449.34 713.09 64.99 695.58 571.60 662.13 718.18 754.36 74.09 369.45 794.04 724.83 528.62 787.59 80.56 731.06 441.47 43.13 640.79 145.07 456.61 592.99 0.00 438.09 526.49 748.47 123.86 906.44 571.65 654.22 553.00 591.25 561.52 525.14 534.93 582.00 481.97 562.30 115.52 59.88 697.46 694.49 476.77 708.70 497.20 64.93 506.88 613.18 712.83 610.65 160.01 710.45 417.83 399.71 462.28 583.76 435.81 744.13 543.05 589.58 659.23 498.10 740.19 765.00 710.79 512.92 71.88 580.78 737.89 43.73 463.88 782.68 618.97 703.23 719.35 767.61 791.58 546.24 805.09 531.81 537.75 479.27 492.79 587.29 635.26 689.55 186.41 787.29 684.61 575.46 489.08 571.24 568.29 351.68 600.16 800.54 750.16 542.46 569.45 110.24 551.63 686.75 167.00 638.64 168.67 189.63 827.67 92.34 895.53 783.44 155.34 631.83 732.20 658.03 429.40 250.49 715.60 219.72 477.39 464.94 550.59 112.28 667.63 752.18 537.05 523.17 577.13 467.40 694.35 581.42 591.24 807.31
941.86 1076.19 450.22 171.12 899.73 1162.42 1125.96 890.36 1160.70 967.27 591.88 375.59 1033.48 197.09 1159.01 965.21 509.76 914.13 924.05 416.76 947.59 498.45 810.72 780.84 950.84 379.80 881.23 845.24 446.33 1048.77 178.55 824.81 1157.59 499.64 964.26 413.85 1142.86 882.05 997.32 893.84 1003.22 921.62 889.61 453.70 215.93 215.07 482.22 1183.22 505.46 221.74 815.53 908.89 970.85 169.91 921.54 893.93 154.19 444.84 1190.67 828.24 869.92 393.20 336.69 985.64 426.07 426.30 199.81 659.83 932.37 876.80 886.75 373.10 1079.63 843.86 1050.51 1118.06 1154.41 489.59 703.34 1193.92 919.82 224.23 907.81 494.27 900.33 804.00 444.61 853.75 583.07 855.19 222.67 438.09 0.00 787.83 955.56 314.23 1269.27 192.36 742.88 114.91 273.32 917.78 121.70 137.18 203.70 881.85 226.74 471.78 444.39 1097.34 1018.15 756.29 909.50 671.54 448.98 137.74 811.12 928.87 882.62 362.62 931.27 790.19 799.59 900.28 151.03 819.86 1144.01 734.71 238.73 865.87 174.86 909.10 1163.06 908.38 810.62 471.76 195.17 940.02 413.58 196.79 933.31 186.15 1103.11 1119.23 912.54 990.56 179.94 1155.31 803.78 756.59 825.87 790.49 185.42 923.74 863.16 586.29 1013.27 891.20 192.56 822.97 218.84 130.20 151.97 956.42 975.47 948.92 920.38 925.71 363.98 830.53 926.97 544.95 1038.52 347.55 327.12 1227.72 367.93 948.13 1153.38 497.38 892.96 1132.08 908.70 66.01 508.58 1110.25 633.54 39.30 864.82 824.69 517.32 1067.51 897.11 173.66 755.57 218.51 879.54 1022.92 276.59 885.19 926.37
346.10 461.24 564.57 767.98 310.20 410.76 456.29 628.66 401.85 272.42 245.11 534.95 411.99 735.62 400.84 265.49 580.36 809.05 267.87 598.63 498.76 617.87 583.64 46.68 312.81 643.01 616.15 81.38 548.99 346.10 807.18 68.50 456.04 704.51 349.63 603.24 506.12 192.95 436.78 241.48 300.81 287.38 267.67 481.22 815.97 801.98 687.09 462.34 670.95 736.00 670.57 269.97 275.70 773.62 217.72 197.37 731.73 510.19 556.30 743.43 135.23 594.08 615.92 308.53 634.09 597.60 628.54 213.09 298.13 657.97 252.51 574.79 378.08 63.94 364.17 400.63 472.97 559.36 549.48 488.28 269.19 780.45 348.76 513.06 256.05 542.30 531.01 129.98 632.85 616.84 808.37 526.49 787.83 0.00 263.26 558.69 546.46 785.57 164.02 810.80 738.53 222.93 786.48 787.94 810.76 695.69 760.85 512.15 549.02 414.64 376.72 126.04 247.78 155.98 461.56 777.01 116.19 243.28 113.10 604.05 278.40 652.87 638.84 827.97 846.77 187.65 434.06 118.64 782.75 198.43 782.95 307.50 474.35 261.79 111.95 556.98 772.81 273.92 529.04 685.54 330.34 881.98 509.34 423.27 304.25 333.41 775.00 441.33 38.74 31.24 646.16 91.82 782.45 160.69 203.07 502.43 332.28 236.66 780.41 600.24 789.37 826.09 635.86 342.34 342.32 314.68 753.88 311.63 585.16 127.47 280.46 615.91 470.55 626.78 586.17 495.13 568.81 446.91 421.90 655.92 266.56 485.63 242.88 769.97 734.80 415.40 514.53 827.13 620.29 42.93 544.78 430.11 304.08 781.16 81.42 871.57 665.53 422.55 748.36 140.40 388.47
320.80 320.48 797.85 974.60 381.04 219.97 305.06 700.42 283.66 239.29 441.62 756.93 271.23 987.74 282.22 93.53 748.01 775.92 311.17 776.98 479.73 777.81 679.35 279.96 377.09 795.25 590.85 188.26 746.99 205.34 1022.38 208.69 318.76 861.24 262.01 758.71 344.73 258.78 294.18 350.13 177.20 316.12 375.40 655.28 1012.65 987.48 843.82 328.16 816.79 951.20 685.20 312.42 265.80 976.02 340.83 196.81 981.86 733.39 395.31 786.31 242.21 741.87 811.42 361.66 841.52 799.97 851.43 428.29 308.39 698.71 331.51 753.38 240.80 250.33 223.41 239.24 295.66 684.22 603.41 336.57 345.19 995.65 493.85 739.06 404.95 640.81 738.66 206.62 765.59 670.11 1000.10 748.47 955.56 263.26 0.00 755.72 428.27 1009.69 315.81 1044.57 946.33 189.80 1036.61 1023.10 1009.95 718.84 957.56 635.80 737.66 259.96 235.96 344.80 370.89 363.78 683.54 1027.14 366.34 288.94 262.27 810.89 359.54 710.90 636.58 844.95 1080.69 345.81 272.67 354.24 990.55 239.71 1033.08 378.74 328.89 370.88 275.99 756.45 950.55 301.11 707.63 892.17 394.62 1064.55 349.88 261.88 353.97 235.08 996.83 241.90 251.87 281.37 699.43 265.88 1026.89 222.03 291.32 674.26 226.81 345.31 978.23 621.08 978.70 1059.86 803.59 216.20 377.23 269.34 807.56 246.91 768.58 257.48 345.16 774.12 371.59 822.28 825.12 359.61 736.67 554.64 311.23 844.56 342.26 324.24 331.92 986.92 872.61 274.32 626.33 994.86 690.48 241.96 729.59 289.35 369.40 999.28 277.93 1085.67 718.54 281.79 956.16 247.67 493.10
627.63 761.96 159.35 485.35 753.17 875.98 822.55 590.64 855.79 656.17 428.57 61.36 739.19 510.89 872.57 710.91 195.53 599.90 740.97 131.45 648.81 184.22 496.49 527.49 789.49 113.14 567.00 567.46 132.10 734.54 460.01 547.03 843.36 221.59 845.38 147.83 828.63 710.52 683.09 724.76 803.23 819.84 759.58 173.96 530.16 529.30 221.83 868.99 192.02 452.87 501.30 820.86 656.62 472.89 776.41 676.58 468.42 130.61 909.74 514.01 601.07 78.97 89.77 795.73 148.39 113.91 266.62 345.60 794.27 573.11 805.44 58.87 765.40 579.71 736.28 803.83 840.18 179.78 439.73 879.69 774.65 495.81 814.45 180.04 721.74 534.37 130.38 648.90 268.84 542.26 536.90 123.86 314.23 558.69 755.72 0.00 983.80 506.59 603.95 429.14 565.47 631.34 435.93 451.41 517.93 567.62 459.88 185.34 130.16 783.11 703.92 466.98 774.88 487.41 134.75 451.97 603.39 737.24 600.86 63.84 761.68 475.96 485.36 586.05 465.26 505.63 829.78 533.26 544.72 664.27 489.09 715.16 850.65 769.44 551.83 157.53 509.40 815.94 99.35 444.69 797.33 500.38 788.88 805.00 742.58 783.47 494.17 867.10 522.02 528.16 562.79 536.19 499.65 609.51 715.88 272.06 809.60 719.94 506.79 559.36 505.44 444.43 304.59 669.98 825.06 828.21 606.15 639.27 49.75 595.04 765.75 242.33 724.29 100.63 139.31 913.49 53.70 927.64 866.04 186.32 754.03 817.85 740.53 380.24 261.66 801.25 319.31 353.53 550.59 568.01 203.09 753.28 727.15 487.89 562.23 532.74 577.91 740.16 557.96 625.61 882.87
465.44 255.65 942.45 1167.26 684.55 208.30 219.81 606.47 144.61 385.88 677.39 948.61 301.74 1199.62 192.33 408.54 862.80 853.14 562.01 956.65 450.72 944.87 644.22 548.11 668.18 991.47 522.32 506.49 907.01 249.26 1214.05 516.71 166.61 1025.43 456.74 940.54 211.53 561.64 331.14 625.98 458.72 575.36 638.60 887.59 1197.88 1172.71 1042.85 193.14 975.01 1207.20 740.92 568.71 411.21 1178.09 588.65 375.34 1177.34 904.54 102.54 769.75 527.85 959.78 999.37 648.90 993.07 909.76 1093.40 684.29 599.48 664.65 553.86 924.93 244.57 524.54 267.33 195.74 174.11 912.32 691.02 147.26 630.15 1203.06 748.86 878.48 667.61 684.73 925.36 593.73 900.72 680.57 1198.77 906.44 1269.27 546.46 428.27 983.80 0.00 1227.45 633.21 1253.46 1225.89 410.11 1216.38 1231.86 1195.18 716.84 1214.98 856.11 918.12 208.98 279.88 562.91 618.71 647.58 875.22 1167.57 610.97 570.60 500.99 1007.96 658.59 748.21 699.42 853.64 1276.67 536.42 162.31 622.39 1228.07 591.05 1228.56 657.79 183.44 632.72 478.06 834.56 1191.31 582.63 936.25 1122.41 655.72 1311.88 223.40 188.25 635.49 518.65 1207.84 215.38 542.46 577.40 709.89 498.19 1246.22 499.89 564.66 770.30 508.33 621.16 1188.70 663.46 1232.29 1268.75 1117.30 395.65 662.38 533.17 764.19 420.79 978.11 497.97 605.34 908.31 353.85 988.51 966.09 135.69 960.53 817.84 198.01 982.88 593.10 194.43 594.58 1222.69 1052.06 222.23 714.84 1266.01 646.52 503.53 874.12 239.97 645.80 1216.43 513.70 1315.49 680.31 299.86 1216.06 482.14 759.40
964.67 1082.85 507.25 82.31 792.85 1140.41 1103.70 979.22 1106.97 945.26 687.44 509.44 1029.75 49.95 1129.46 931.85 586.90 1007.04 930.08 507.87 1037.80 555.21 919.24 786.36 864.55 502.13 1014.79 844.50 543.85 1056.62 77.13 824.07 1100.03 591.26 1027.50 489.60 1129.27 888.08 1076.26 846.26 994.26 950.24 870.87 539.59 72.37 97.54 607.56 1050.29 571.53 81.56 907.27 935.43 962.36 49.36 916.23 917.72 57.33 560.35 1156.64 860.99 859.94 502.35 478.76 907.02 471.66 530.86 267.81 604.47 905.56 964.48 945.94 506.66 1080.36 838.58 1070.39 1069.06 1082.79 583.45 866.37 1121.11 885.94 85.84 853.25 602.76 814.82 892.86 539.53 859.78 660.21 966.49 102.95 571.65 192.36 785.57 1009.69 506.59 1227.45 0.00 748.91 95.06 138.78 895.77 70.66 86.14 84.60 957.81 123.87 572.46 564.27 1077.83 1049.61 725.85 886.17 721.33 521.87 84.01 844.37 951.50 859.73 452.83 826.21 918.64 943.88 977.42 123.77 811.37 1072.36 729.49 146.80 871.90 80.15 826.45 1084.94 880.73 749.39 616.05 87.14 968.64 533.46 203.10 847.02 138.34 1149.57 1046.42 853.87 1017.10 73.42 1127.98 780.89 757.82 957.02 769.52 44.90 911.99 869.19 730.58 1005.85 851.08 72.84 950.80 78.31 110.35 274.74 1023.94 889.18 956.20 1046.53 1026.39 472.50 826.96 893.58 629.49 1089.12 478.70 395.12 1133.78 504.41 800.99 1100.45 615.48 898.99 1122.58 877.66 153.26 636.37 1088.24 734.86 182.45 973.08 828.50 634.48 1098.14 838.44 66.78 793.86 148.84 984.31 1019.19 148.61 868.28 926.86
468.57 497.11 666.37 735.63 240.17 474.21 536.80 711.76 488.60 372.08 376.40 609.02 500.63 724.35 440.88 339.43 681.90 861.15 181.17 658.86 636.75 730.28 680.42 182.10 308.64 650.21 738.62 168.08 679.76 484.09 804.81 147.65 515.91 726.80 328.46 654.40 581.12 139.17 563.11 150.96 260.34 260.04 234.54 568.49 767.69 748.51 709.38 520.05 701.48 757.67 710.39 253.48 362.40 762.35 203.60 289.02 787.96 645.61 626.40 774.95 127.04 596.83 629.90 294.41 688.52 688.01 707.52 298.83 263.75 716.95 231.34 631.68 474.32 169.42 478.90 521.54 542.77 636.69 646.58 567.43 243.08 713.22 305.84 614.60 231.08 677.72 660.87 110.87 671.83 667.58 723.65 654.22 742.88 164.02 315.81 603.95 633.21 748.91 0.00 843.97 739.57 329.01 799.61 784.13 763.37 707.48 716.16 591.43 685.17 516.82 507.61 208.61 226.95 157.02 602.22 758.33 96.21 202.59 209.34 603.97 188.39 712.64 625.22 869.46 842.23 303.54 538.50 122.69 742.19 122.99 811.74 247.44 521.09 229.04 171.72 613.52 711.58 256.14 655.42 665.82 291.11 877.44 570.12 530.85 274.86 309.83 754.78 484.02 190.83 132.78 696.90 191.85 771.18 226.45 120.28 654.08 285.90 155.78 725.56 683.20 670.60 830.23 719.54 434.42 318.79 268.41 796.20 429.93 554.20 224.57 205.00 675.68 498.85 628.86 643.76 581.88 586.11 403.42 469.89 745.43 150.08 541.15 182.36 791.39 771.91 520.23 593.68 782.18 715.65 180.92 646.32 537.57 259.43 757.48 216.84 846.70 717.77 511.19 744.95 185.50 325.56
1001.18 1104.54 547.61 154.58 861.92 1145.05 1125.44 987.54 1108.85 949.90 680.89 490.50 1051.44 122.22 1141.64 1015.76 605.38 911.98 985.99 517.91 1037.38 605.40 925.63 821.88 936.82 490.37 996.14 872.67 561.24 1056.40 118.77 852.24 1119.16 593.14 1053.27 511.34 1151.01 961.69 1097.95 887.81 1035.90 1016.26 953.54 561.33 141.06 151.30 587.37 1145.35 560.21 144.85 925.75 990.10 976.41 144.42 979.73 945.65 79.07 559.75 1201.59 837.16 923.23 478.52 451.60 995.24 473.54 523.69 266.82 667.76 1000.62 974.19 986.34 488.01 1100.54 870.64 1058.14 1090.80 1145.64 601.21 818.25 1142.85 981.00 173.02 918.15 578.68 835.21 918.91 553.86 910.50 678.69 952.58 154.70 553.00 114.91 810.80 1044.57 429.14 1253.46 95.06 843.97 0.00 211.05 900.41 46.83 62.06 128.83 983.09 209.34 561.23 559.30 1099.57 1025.78 774.25 949.67 786.45 563.89 85.89 749.31 1019.60 897.46 452.41 890.70 905.10 914.50 980.02 36.12 898.55 1094.10 798.56 206.07 923.83 68.83 921.51 1158.79 969.65 844.45 586.67 134.61 1020.20 528.49 214.75 919.29 71.24 1171.31 1068.16 948.93 1071.77 138.32 1115.02 844.18 779.56 923.26 841.04 91.27 942.69 964.25 701.20 1053.09 882.99 154.87 937.88 173.37 15.29 240.98 1035.59 961.45 1038.74 1035.29 1006.42 478.89 847.14 970.96 655.52 1125.63 444.94 394.13 1202.13 482.84 873.26 1162.25 604.16 954.90 1144.32 908.24 167.59 623.49 1092.88 748.45 128.75 979.73 853.43 610.40 1107.22 933.50 135.85 840.23 108.44 976.93 1040.88 220.88 870.16 998.86
979.24 1010.05 616.20 102.20 778.82 1078.92 1049.43 999.54 1112.93 883.77 727.97 539.63 956.95 88.83 1075.51 902.42 639.60 1044.61 800.63 557.18 1097.86 655.96 925.65 691.85 828.64 558.96 1009.45 758.07 603.72 995.13 170.89 747.73 1085.53 662.06 940.22 575.45 1144.52 799.31 1003.46 733.99 928.21 846.54 760.06 599.76 111.40 108.00 644.64 1133.91 684.62 149.63 929.46 858.28 910.28 126.83 810.01 864.95 170.37 578.69 1190.89 954.55 831.58 550.29 524.39 834.88 590.38 592.28 335.88 645.00 827.07 976.72 844.80 526.26 1054.95 775.02 1011.49 1050.51 1112.39 627.86 912.39 1143.46 790.27 105.18 835.63 586.25 742.92 960.93 599.51 844.21 682.40 927.35 85.19 591.25 273.32 738.53 946.33 565.47 1225.89 138.78 739.57 211.05 0.00 834.28 164.22 161.34 99.17 952.71 105.59 626.25 602.82 1044.89 992.22 686.42 779.95 582.55 599.34 202.73 761.52 816.33 793.63 550.32 687.43 954.23 870.45 999.61 203.77 785.69 1083.92 677.33 44.22 807.26 217.38 754.31 1125.16 767.16 747.83 630.17 88.79 850.17 572.01 279.53 836.48 238.98 1104.77 1068.77 781.73 925.70 101.39 1092.52 714.79 741.17 950.01 727.70 135.66 860.63 808.43 724.62 905.33 729.17 80.76 961.91 78.15 220.34 309.57 960.61 864.21 884.92 1041.43 971.13 549.97 801.55 797.42 695.26 1057.31 513.53 463.19 1170.88 575.56 839.87 1097.95 679.84 769.54 1125.09 755.75 230.73 696.28 1026.75 774.43 254.64 960.88 754.01 617.97 1050.51 766.30 132.55 726.59 223.91 963.00 946.39 9.83 817.48 914.46
262.56 263.41 655.49 912.22 436.00 244.64 288.92 553.28 288.95 49.49 347.29 569.98 210.31 923.11 241.23 161.53 594.51 586.12 390.96 629.92 390.99 614.07 489.55 218.34 476.30 640.03 410.50 176.39 601.91 160.85 925.77 181.36 251.25 739.54 406.27 611.65 314.19 314.96 251.53 370.99 363.38 396.19 386.21 482.24 942.03 942.28 722.12 299.63 705.33 860.16 586.25 413.13 76.00 888.80 403.64 45.24 894.56 574.53 367.92 649.34 262.34 605.24 650.95 460.87 686.30 617.94 808.94 337.25 407.60 597.19 401.42 606.66 249.74 201.01 177.21 227.55 278.11 596.04 451.84 309.18 416.42 904.61 418.81 571.51 412.62 523.96 591.94 264.46 667.82 560.05 919.47 561.52 917.78 222.93 189.80 631.34 410.11 895.77 329.01 900.41 834.28 0.00 853.83 838.35 929.80 610.88 856.60 446.00 584.05 210.61 189.60 273.62 388.11 251.73 496.59 902.64 339.12 391.61 170.89 654.19 407.91 583.65 544.75 655.15 907.31 192.13 252.39 292.62 878.50 319.25 895.71 415.98 290.88 383.95 188.77 566.65 910.90 401.36 560.91 833.12 486.41 942.52 329.60 234.49 431.25 356.82 917.12 275.21 197.45 253.87 589.37 208.90 898.83 204.19 316.11 611.46 327.06 366.17 915.04 571.47 902.16 915.70 787.20 165.27 476.44 391.41 699.60 136.85 611.88 159.79 348.85 684.66 310.67 661.81 681.63 341.13 579.97 565.45 270.24 690.95 379.60 309.04 339.59 883.17 770.30 192.47 555.01 878.48 559.51 180.00 539.79 236.92 415.82 908.24 183.60 921.98 596.50 199.75 844.11 185.76 528.80
962.07 1067.32 531.81 107.75 815.34 1098.47 1101.12 942.02 1071.77 903.32 666.31 497.29 1014.22 75.39 1095.06 990.67 558.55 941.06 955.11 499.51 990.80 589.85 884.91 804.56 889.99 455.13 955.30 848.35 518.10 1009.57 71.94 827.92 1100.79 556.06 1038.87 487.02 1126.69 938.78 1061.63 868.12 989.07 976.62 921.57 521.94 94.23 104.47 545.96 1120.95 544.54 137.35 878.92 963.89 929.83 108.18 966.93 899.07 54.75 528.10 1177.27 790.33 904.85 431.69 431.76 948.41 436.46 516.76 221.30 660.26 956.26 936.13 941.75 460.15 1098.46 833.56 1011.31 1066.48 1115.21 577.27 825.04 1118.53 936.64 139.84 871.32 532.10 879.19 925.70 507.28 902.75 631.86 940.67 130.53 525.14 121.70 786.48 1036.61 435.93 1216.38 70.66 799.61 46.83 164.22 853.83 0.00 15.48 82.00 937.09 163.37 558.18 536.14 1064.44 978.95 758.58 936.87 746.77 561.77 48.81 796.14 980.55 860.38 405.83 851.65 890.98 883.77 942.94 60.29 865.37 1069.78 751.98 159.49 922.60 53.16 877.15 1140.42 931.38 808.21 576.02 88.03 995.02 505.90 199.08 872.46 95.50 1146.99 1043.84 904.57 1030.26 91.49 1129.04 822.92 755.24 916.33 825.37 75.96 905.61 919.89 670.47 1028.34 872.94 110.92 941.02 129.01 62.12 269.14 1019.10 914.62 1003.92 1021.17 990.68 438.17 885.78 944.28 620.28 1086.52 438.01 348.61 1165.05 456.96 826.43 1124.07 588.49 933.76 1120.00 899.52 121.01 601.17 1046.30 706.51 138.62 949.00 829.11 563.82 1060.39 889.14 89.27 824.92 99.11 942.78 1024.78 174.05 833.08 952.03
971.52 1082.80 516.33 96.60 799.86 1082.99 1102.58 957.50 1087.25 887.84 650.83 512.77 1029.70 90.87 1079.58 979.06 574.03 956.54 939.63 484.03 975.32 587.60 886.86 806.02 903.62 439.65 939.82 849.81 529.72 999.20 87.42 829.38 1089.60 548.10 1023.39 483.02 1128.15 923.30 1077.11 877.57 1004.55 961.14 906.09 506.46 103.68 108.05 548.34 1136.43 548.74 121.87 894.40 948.41 914.35 96.57 951.45 883.59 56.21 512.62 1178.73 805.81 900.25 447.17 416.28 942.24 451.94 505.89 236.78 644.78 940.78 951.61 926.27 475.63 1088.09 849.04 1015.56 1065.90 1114.40 561.79 830.23 1118.97 921.16 124.36 858.60 516.62 863.71 928.20 491.80 895.00 647.34 925.19 122.10 534.93 137.18 787.94 1023.10 451.41 1231.86 86.14 784.13 62.06 161.34 838.35 15.48 0.00 91.45 950.55 151.64 542.70 520.66 1048.96 994.43 762.78 921.39 743.89 563.72 64.29 811.37 977.67 875.86 390.35 848.77 895.37 868.29 958.42 68.96 849.89 1071.24 736.50 144.01 907.12 57.36 861.67 1129.23 915.95 796.60 560.54 72.55 979.54 521.38 203.28 886.09 104.17 1148.45 1045.30 889.09 1030.08 78.77 1113.56 821.20 756.70 905.46 816.73 60.48 921.09 904.41 654.99 1012.86 882.39 95.44 925.54 113.53 77.35 284.62 1003.62 928.25 988.44 1019.06 975.20 440.12 874.17 928.80 604.80 1095.97 427.14 364.09 1179.48 464.57 841.91 1108.59 576.97 930.88 1121.46 908.97 105.53 588.17 1030.82 704.80 154.10 933.52 830.57 548.34 1075.27 873.66 73.79 809.44 83.63 958.26 1026.20 171.17 848.56 955.61
880.07 1089.86 558.71 52.35 833.16 1138.09 1148.60 1024.02 1153.77 979.29 715.78 540.94 1056.12 75.14 1171.03 949.07 610.21 1023.06 893.94 529.01 1066.77 616.50 936.46 791.02 889.74 501.47 1031.27 857.24 574.33 1083.52 153.94 844.83 1155.64 609.93 992.35 544.06 1182.30 877.47 1047.07 786.12 1012.73 945.71 859.23 571.41 12.23 22.47 610.16 1134.89 612.73 150.10 930.58 949.89 948.48 66.58 909.18 934.94 128.19 559.69 1241.24 872.33 890.41 513.69 466.90 921.48 518.46 534.79 303.30 673.01 920.02 985.29 943.97 542.15 1097.58 872.77 1087.61 1099.44 1155.73 608.86 877.30 1184.82 889.44 106.49 815.59 608.07 842.09 961.40 538.87 862.78 683.52 963.68 48.53 582.00 203.70 810.76 1009.95 517.93 1195.18 84.60 763.37 128.83 99.17 929.80 82.00 91.45 0.00 994.19 107.97 589.68 567.73 1078.72 1060.95 760.04 879.12 681.72 539.09 130.81 811.99 915.50 892.80 481.80 786.60 943.83 959.74 1000.73 122.78 832.02 1125.39 769.80 119.36 886.36 121.35 840.91 1163.80 866.33 766.61 633.27 59.40 949.34 565.09 267.27 872.21 157.99 1202.60 1110.13 867.37 1017.44 35.76 1107.52 813.96 828.68 934.36 786.74 82.39 929.21 872.64 746.44 1004.50 790.94 45.42 976.16 92.77 144.12 328.13 984.67 914.37 946.69 1066.13 1015.38 489.72 844.18 896.59 666.62 1004.52 456.04 430.61 1209.24 521.63 826.18 1164.70 627.59 862.85 1177.15 817.52 170.48 638.79 1096.86 758.17 220.62 990.30 853.18 639.79 1122.40 852.90 107.09 821.66 129.06 988.03 1045.56 109.00 915.08 870.03
470.43 542.98 450.56 996.10 930.45 737.49 616.84 110.37 693.93 589.41 617.08 541.17 556.06 977.22 677.13 657.37 421.24 153.67 846.11 511.98 294.18 503.31 128.39 649.01 949.32 545.84 200.38 688.55 504.92 588.86 933.73 689.98 642.94 558.65 921.04 516.57 660.60 829.98 498.82 849.93 836.23 869.04 859.23 489.35 999.40 993.56 541.23 633.44 527.30 955.86 100.87 886.15 569.58 971.84 891.19 610.23 948.84 487.35 654.77 146.76 739.50 548.10 549.01 933.89 585.82 496.00 770.51 648.90 880.62 52.19 874.44 546.43 643.29 721.30 590.60 616.02 642.16 480.23 231.42 605.12 889.44 975.62 923.57 433.93 903.79 153.39 508.17 757.02 347.93 78.85 1017.76 481.97 881.85 695.69 718.84 567.62 716.84 957.81 707.48 983.09 952.71 610.88 937.09 950.55 994.19 0.00 997.70 507.88 493.65 604.33 558.24 696.61 861.13 665.11 514.82 957.82 803.69 855.91 685.91 574.94 895.87 126.57 82.26 161.98 997.38 586.50 582.59 723.29 980.74 789.12 980.07 889.00 668.09 856.97 611.76 410.09 972.05 887.44 511.78 848.32 959.43 1032.59 659.80 608.53 904.27 907.92 958.43 721.42 689.13 698.33 59.83 631.89 1002.71 731.14 820.89 295.56 885.84 854.75 987.65 160.91 1013.03 998.38 742.11 502.64 949.46 928.37 88.72 502.05 553.64 638.94 821.87 432.72 455.70 538.15 643.20 704.73 571.87 1038.47 648.12 504.71 857.56 631.00 866.81 890.28 603.76 608.59 312.75 920.83 84.87 711.17 402.21 583.44 888.84 963.15 666.81 1024.13 71.12 555.89 942.88 658.61 1001.82
988.04 1074.32 562.22 55.62 803.91 1101.24 1111.87 999.59 1135.25 906.09 691.60 491.93 1021.22 87.98 1097.83 913.04 589.32 1035.87 888.88 532.52 1080.35 620.01 951.79 714.17 835.89 504.98 1005.44 780.39 548.87 1008.49 97.02 770.05 1106.17 613.44 979.31 541.10 1163.16 855.33 1067.73 822.24 951.59 915.56 830.09 568.44 120.20 104.69 601.98 1146.44 611.29 101.93 909.69 887.24 932.60 94.95 861.35 887.27 146.14 561.18 1202.80 942.89 836.09 462.46 470.41 874.27 531.15 538.30 288.18 624.84 855.29 966.90 896.14 497.31 1028.21 764.80 1026.56 1084.15 1113.94 610.35 868.56 1155.00 818.49 57.48 885.56 618.48 831.17 913.23 574.08 827.03 662.63 967.19 98.61 562.30 226.74 760.85 957.56 459.88 1214.98 123.87 716.16 209.34 105.59 856.60 163.37 151.64 107.97 997.70 0.00 595.48 573.87 1067.21 1039.11 652.07 849.12 604.87 565.32 143.50 783.84 904.58 813.96 496.34 775.68 906.53 945.24 979.84 173.22 783.01 1054.37 699.65 84.84 826.17 162.48 793.70 1124.48 832.54 736.92 617.41 79.09 903.20 543.06 184.53 829.98 208.43 1131.58 1080.31 774.82 968.91 106.28 1103.14 737.11 746.87 937.87 738.32 134.81 862.87 836.44 731.94 977.50 817.42 77.06 971.17 45.56 216.64 255.59 1003.75 872.14 915.47 1036.72 993.45 505.05 774.81 857.22 670.13 1068.74 459.55 415.49 1187.25 487.73 839.02 1120.27 631.10 857.79 1132.46 844.00 198.85 639.17 1049.07 737.28 241.94 987.52 776.33 641.53 1092.50 790.25 108.05 748.91 214.21 986.73 1010.66 98.08 839.80 915.11
566.01 642.49 209.49 569.78 698.14 690.64 681.87 511.54 734.95 495.49 388.87 123.98 589.39 537.42 687.23 600.36 148.51 553.25 693.33 183.92 568.39 168.07 423.67 487.70 778.86 194.03 532.95 503.26 155.91 606.85 549.71 508.98 697.25 293.54 791.74 165.65 730.94 657.75 632.08 585.51 740.29 746.72 697.62 36.24 601.91 599.27 276.12 725.93 259.33 502.75 411.57 718.40 521.46 523.10 715.76 491.24 518.50 128.53 782.86 469.00 561.37 159.24 204.95 750.23 240.30 171.94 362.94 305.90 747.08 523.63 740.54 160.66 681.24 515.42 615.79 673.55 724.11 150.04 324.52 755.18 725.21 547.20 758.34 142.30 665.63 425.18 145.94 584.61 221.82 477.09 602.97 115.52 471.78 512.15 635.80 185.34 856.11 572.46 591.43 561.23 626.25 446.00 558.18 542.70 589.68 507.88 595.48 0.00 138.05 656.61 624.66 425.07 704.57 434.41 50.59 520.77 563.69 697.11 561.16 208.19 632.07 385.87 448.48 526.13 591.53 421.47 698.39 493.56 608.16 624.57 561.01 714.35 691.28 684.59 445.77 120.65 562.34 759.09 114.91 433.45 772.95 626.19 697.17 680.49 717.79 799.66 576.80 721.21 482.32 488.46 472.70 425.64 578.60 568.11 670.03 235.18 769.90 590.33 582.21 444.15 549.92 576.52 410.78 484.64 762.00 746.08 516.06 453.93 165.88 505.15 696.62 242.95 629.01 215.81 235.63 781.47 133.97 837.97 716.24 244.95 662.24 690.97 616.91 437.17 324.30 638.47 232.68 432.48 501.80 506.35 141.47 682.92 702.36 544.82 460.56 593.99 526.37 578.83 624.27 562.67 837.72
517.55 701.13 71.44 568.75 735.01 828.69 748.58 496.59 833.82 606.78 456.42 113.36 706.42 557.03 824.13 682.05 117.23 509.20 722.80 95.51 523.44 68.85 451.57 507.62 799.13 139.89 507.96 587.92 45.87 699.39 508.80 578.89 783.90 155.49 845.62 85.04 754.66 625.55 684.55 708.62 760.81 780.08 772.50 147.60 572.94 567.10 138.07 795.02 147.55 482.71 432.21 795.11 609.33 519.03 745.23 629.29 517.31 44.11 835.77 432.31 618.56 111.41 144.04 836.04 167.36 104.55 315.41 415.27 791.43 487.47 772.97 76.56 718.11 590.79 681.32 729.86 790.47 53.44 309.57 805.72 754.63 527.16 825.95 84.76 750.25 410.23 28.86 659.98 185.15 438.10 591.30 59.88 444.39 549.02 737.66 130.16 918.12 564.27 685.17 559.30 602.82 584.05 536.14 520.66 567.73 493.65 573.87 138.05 0.00 709.14 713.68 502.22 768.58 533.11 87.46 498.73 665.21 742.61 634.82 169.97 699.87 438.47 411.39 502.36 569.49 458.34 755.81 566.99 588.12 671.80 538.97 781.34 776.68 770.67 530.43 83.56 560.80 761.68 30.81 484.93 816.66 604.70 714.91 731.03 798.30 831.29 531.97 827.62 556.12 556.94 467.42 510.30 553.80 652.77 660.30 198.09 801.53 703.80 561.19 429.20 569.78 574.59 358.36 619.81 852.34 793.54 556.12 591.98 130.97 574.16 746.63 146.35 642.00 154.40 212.05 839.66 99.06 951.74 795.12 106.90 691.71 743.88 677.22 415.13 200.60 725.12 238.04 483.69 476.62 569.78 116.48 679.31 793.33 522.78 542.36 571.95 500.13 716.88 592.99 613.77 867.19
283.07 73.28 756.30 1105.32 572.52 177.24 78.31 560.43 124.68 234.44 557.90 763.75 115.06 1102.04 114.99 251.70 684.33 659.50 467.58 778.18 322.08 766.40 557.48 428.95 604.24 822.56 435.58 387.00 728.54 87.56 1097.15 391.97 76.92 864.63 487.58 780.29 103.58 446.00 134.85 537.35 402.77 501.07 547.33 692.85 1081.42 1056.25 847.21 113.83 813.75 1070.77 565.95 523.36 207.12 1099.41 517.73 255.85 1020.50 702.84 164.84 619.85 450.51 789.51 844.26 571.56 824.09 788.45 985.14 547.86 563.07 579.54 530.94 762.45 102.41 382.08 105.63 20.72 81.33 724.34 525.25 106.10 564.08 1083.64 629.42 669.50 579.26 523.03 723.66 427.50 701.84 578.97 1082.31 697.46 1097.34 414.64 259.96 783.11 208.98 1077.83 516.82 1099.57 1044.89 210.61 1064.44 1048.96 1078.72 604.33 1067.21 656.61 709.14 0.00 118.18 468.83 527.44 462.34 690.36 1065.78 511.49 514.65 332.92 818.90 557.88 573.19 522.07 728.53 1117.92 358.11 46.67 446.66 1066.37 491.99 1071.72 574.93 85.08 546.01 399.38 625.58 1093.18 482.67 727.27 942.19 621.77 1153.13 123.88 31.41 578.47 482.14 1091.38 159.43 375.90 421.92 601.63 402.89 1109.44 376.93 452.63 571.42 452.38 532.53 1083.88 481.09 1112.77 1114.86 992.01 235.40 605.20 468.77 693.05 220.40 769.13 355.81 510.91 709.43 192.75 843.79 858.69 130.52 764.24 700.65 85.98 790.33 498.67 98.43 517.24 1093.78 891.24 18.14 536.37 1089.09 541.86 390.61 678.07 43.68 577.88 1068.47 394.21 1132.59 586.51 116.06 1052.62 360.22 668.13
230.10 88.37 748.83 1072.11 580.25 179.25 148.87 491.21 151.87 161.17 528.91 735.60 35.27 1043.78 182.03 219.91 699.42 673.10 504.50 717.63 287.32 774.75 446.19 395.95 575.99 733.28 390.95 339.53 731.80 30.62 1026.92 359.96 158.82 782.40 438.41 722.48 192.69 458.99 82.68 548.81 406.52 455.59 498.53 660.90 1064.60 1046.62 799.82 166.38 774.32 1046.32 542.89 483.91 145.21 1038.75 525.25 226.86 1033.70 669.57 251.70 605.98 413.13 679.90 749.45 531.11 779.55 720.19 883.90 526.85 519.92 528.76 490.46 645.05 119.51 341.84 32.36 116.29 136.26 694.21 411.14 198.78 528.74 1021.73 608.41 656.93 582.23 404.85 690.39 411.03 725.20 479.39 1020.56 694.49 1018.15 376.72 235.96 703.92 279.88 1049.61 507.61 1025.78 992.22 189.60 978.95 994.43 1060.95 558.24 1039.11 624.66 713.68 118.18 0.00 422.40 500.43 441.33 667.08 1027.76 482.19 518.40 314.92 744.21 558.75 542.95 501.39 717.75 1039.24 296.20 149.72 437.15 1009.43 438.92 1017.88 501.66 164.72 496.27 353.36 678.83 1052.57 473.99 690.80 871.96 583.83 1074.45 198.01 124.60 529.08 470.46 1070.44 163.18 387.05 389.80 508.71 373.49 1054.91 350.37 462.29 620.03 453.74 544.70 1050.67 462.79 1056.74 1041.07 931.74 177.59 564.90 485.87 643.89 194.22 722.53 349.39 461.17 666.30 135.63 755.52 812.09 209.57 704.82 677.77 186.29 730.37 516.09 169.04 520.78 1025.33 827.51 100.04 551.46 1057.14 531.26 333.79 625.21 100.68 513.65 998.24 365.22 1078.06 531.72 45.83 982.39 342.22 641.12
405.59 490.48 552.86 707.69 357.70 459.55 499.97 658.61 492.66 261.23 204.35 500.33 437.38 719.25 476.00 260.97 548.53 781.37 327.51 524.68 580.88 571.07 617.83 80.87 407.16 527.31 675.64 156.54 475.04 408.11 715.47 136.11 493.78 635.76 433.74 529.29 525.90 293.47 498.79 295.67 349.60 384.33 366.61 391.04 772.27 756.76 630.74 524.06 597.00 644.29 651.47 356.01 328.55 712.78 343.76 246.28 756.64 501.69 550.73 630.64 184.02 502.37 503.94 421.06 562.56 534.95 692.10 121.38 388.00 692.16 378.15 517.16 415.82 112.73 390.04 474.09 502.04 520.53 502.73 542.61 395.23 688.74 412.32 530.90 319.61 576.49 502.44 181.92 618.28 651.03 750.68 476.77 756.29 126.04 344.80 466.98 562.91 725.85 208.61 774.25 686.42 273.62 758.58 762.78 760.04 696.61 652.07 425.07 502.22 468.83 422.40 0.00 361.78 103.87 475.66 761.95 242.23 320.19 161.89 478.01 332.59 625.77 614.35 828.31 807.40 212.46 442.47 85.92 730.64 247.22 705.42 396.38 512.09 364.35 84.85 491.07 731.16 374.08 471.41 559.50 424.69 837.42 519.68 468.41 397.40 422.31 758.35 451.07 92.93 94.80 680.35 86.25 763.17 210.80 268.71 533.97 392.55 290.85 729.13 622.36 697.63 785.82 644.26 357.11 454.85 374.87 755.96 348.59 509.01 162.42 329.25 588.81 489.63 514.80 574.24 575.35 477.10 533.70 476.09 609.12 315.05 520.56 291.67 745.39 675.83 466.09 457.53 795.59 654.48 133.74 556.53 468.05 396.22 692.37 107.92 817.32 699.72 447.94 696.25 189.19 490.53
576.30 588.80 812.35 872.89 178.31 413.57 575.42 824.40 477.26 437.60 467.94 772.38 535.70 861.61 475.82 390.15 780.46 963.94 59.86 789.00 672.79 837.43 831.42 294.46 115.22 821.14 794.33 306.38 793.24 507.89 931.18 288.11 522.90 901.30 161.97 807.27 597.81 165.72 583.11 119.06 193.83 66.59 19.89 702.89 891.35 885.77 906.65 517.92 884.79 894.93 875.91 82.24 464.11 899.61 30.06 388.46 925.22 733.62 609.84 977.09 177.76 767.76 796.15 103.59 857.52 806.83 805.37 433.23 63.25 862.99 64.85 773.69 473.46 249.05 489.82 548.16 545.79 781.88 764.12 584.61 36.64 850.48 204.73 756.76 114.46 790.08 751.83 247.29 853.77 864.62 860.91 708.70 909.50 247.78 370.89 774.88 618.71 886.17 226.95 949.67 779.95 388.11 936.87 921.39 879.12 861.13 849.12 704.57 768.58 527.44 500.43 361.78 0.00 376.72 708.86 966.49 224.12 108.29 283.67 774.90 92.52 883.00 852.17 1023.01 979.42 420.49 533.96 306.00 807.98 179.81 966.32 59.72 483.27 19.98 342.08 770.02 848.84 84.99 752.43 882.67 129.46 990.33 586.81 558.85 74.30 145.75 881.34 437.17 282.99 279.02 867.20 338.28 908.44 252.28 140.36 746.68 159.29 114.24 860.71 745.06 807.86 934.38 757.53 539.04 118.66 107.10 938.99 524.96 725.13 342.11 39.26 846.04 570.54 785.29 769.28 570.54 757.04 199.13 481.68 864.04 76.87 557.84 102.31 885.59 946.41 545.58 734.14 948.80 864.45 257.57 725.04 567.83 59.73 894.74 323.14 983.96 850.48 546.26 770.12 265.06 140.69
425.44 515.14 604.55 660.49 328.92 496.37 540.65 554.74 530.38 301.22 219.38 503.88 462.04 671.38 492.96 346.08 525.86 801.41 338.19 553.75 627.29 573.26 646.26 109.30 451.01 574.27 662.23 175.52 542.44 412.58 701.89 165.18 502.98 678.34 473.05 572.02 565.92 296.19 503.26 267.30 412.55 417.06 369.77 411.47 693.95 690.55 671.18 551.36 612.24 664.72 669.03 410.50 327.73 699.82 360.62 282.40 749.27 522.12 619.65 734.51 249.03 520.89 577.18 422.38 620.54 595.33 707.13 141.81 419.23 612.92 388.36 546.28 472.40 192.47 428.94 479.28 529.84 479.67 606.60 560.91 397.36 662.35 417.46 500.42 337.78 604.92 540.33 261.66 599.17 639.53 667.74 497.20 671.54 155.98 363.78 487.41 647.58 721.33 157.02 786.45 582.55 251.73 746.77 743.89 681.72 665.11 604.87 434.41 533.11 462.34 441.33 103.87 376.72 0.00 485.00 725.12 178.97 359.61 211.08 551.25 299.15 694.73 683.83 801.91 778.09 203.14 504.12 94.78 626.77 280.01 765.36 386.50 542.61 356.74 169.52 456.50 671.34 413.16 537.92 663.37 445.10 813.30 581.33 486.22 389.94 466.85 683.94 526.94 132.24 158.62 610.21 171.36 718.21 278.08 277.30 554.40 442.92 262.48 663.31 634.08 650.43 801.74 659.29 417.00 434.15 418.23 694.70 388.58 527.53 219.00 362.02 572.58 549.89 588.04 612.16 592.86 495.62 519.76 515.40 621.25 307.10 560.77 289.06 641.52 696.42 444.20 477.96 710.84 594.79 171.46 521.96 488.65 374.51 712.80 144.04 798.34 628.58 451.48 592.38 234.93 482.58
547.97 693.08 158.90 522.23 647.55 741.23 732.46 491.26 773.83 521.42 439.46 73.39 639.98 510.51 737.82 594.59 136.69 568.03 674.59 145.48 569.45 156.31 474.26 508.24 774.37 189.86 514.91 542.94 108.48 657.44 533.86 530.06 708.61 242.95 788.74 160.62 775.83 607.16 682.67 636.10 703.93 736.74 728.75 86.83 551.32 561.56 225.53 758.35 230.44 519.38 457.06 731.53 521.87 472.51 679.28 541.83 569.09 87.07 833.45 478.32 531.10 146.59 154.36 770.09 210.97 163.06 340.47 356.49 759.69 488.89 714.07 113.23 630.65 525.50 650.23 711.08 735.47 99.45 375.11 770.32 730.75 507.84 760.36 91.71 700.20 459.52 98.51 591.54 210.00 489.46 573.78 64.93 448.98 461.56 683.54 134.75 875.22 521.87 602.22 563.89 599.34 496.59 561.77 563.72 539.09 514.82 565.32 50.59 87.46 690.36 667.08 475.66 708.86 485.00 0.00 565.50 577.75 667.27 547.36 173.37 682.66 436.46 432.56 527.21 595.02 370.88 737.03 479.53 568.80 594.30 544.87 762.95 726.92 723.35 496.36 104.73 540.09 735.48 67.48 398.95 791.90 630.23 736.08 721.77 744.48 769.39 532.18 740.16 500.30 492.80 512.12 476.23 540.64 598.84 641.91 219.26 739.63 640.92 543.67 448.53 550.46 579.18 369.18 535.23 803.88 761.83 537.87 504.52 123.60 486.70 717.92 192.36 671.49 165.22 213.16 808.78 121.32 880.78 731.29 194.36 696.76 741.56 667.50 481.90 288.06 689.06 244.03 483.07 451.21 504.49 123.43 700.48 752.95 513.02 477.11 556.35 496.45 629.42 606.66 526.31 849.55
994.63 1091.23 529.20 144.47 815.18 1086.65 1091.65 945.75 1022.96 952.13 628.90 513.33 1038.13 124.20 1070.68 983.55 578.64 963.16 939.50 478.30 1001.13 547.69 851.57 791.53 938.80 433.92 961.57 838.88 509.14 1058.38 46.48 818.45 1091.32 507.25 1001.46 477.55 1117.22 897.50 1084.64 909.29 961.89 939.21 946.60 484.53 143.04 153.28 523.55 1083.45 515.45 117.66 870.69 926.48 978.64 129.62 939.13 924.79 45.28 481.96 1167.80 839.14 856.04 480.50 451.43 990.11 387.65 503.61 225.03 640.57 949.96 927.90 904.34 463.88 1076.55 784.75 1060.12 1057.01 1111.85 531.13 808.30 1109.06 961.99 139.23 873.94 580.91 879.03 892.91 469.87 853.94 623.63 926.35 166.60 506.88 137.74 777.01 1027.14 451.97 1167.57 84.01 758.33 85.89 202.73 902.64 48.81 64.29 130.81 957.82 143.50 520.77 498.73 1065.78 1027.76 761.95 966.49 725.12 565.50 0.00 835.20 960.92 811.57 448.57 873.97 896.39 887.05 894.13 109.10 864.76 1060.31 717.25 158.51 881.32 78.01 909.54 1097.67 953.70 827.48 559.22 120.42 957.61 500.90 223.93 921.27 144.31 1137.52 1034.37 918.32 1004.80 134.17 1093.73 813.45 745.77 918.89 827.51 104.42 856.80 878.61 673.75 1011.50 914.11 136.49 927.93 161.40 101.18 236.61 1005.41 963.43 966.51 997.13 974.70 441.90 867.55 956.91 599.07 1089.91 440.57 352.34 1116.24 473.81 875.24 1076.36 559.40 908.41 1110.53 936.42 83.60 552.36 1076.39 675.37 98.44 952.28 805.76 570.09 1086.09 921.53 89.11 792.59 147.92 947.73 1027.57 196.37 784.27 1000.84
462.29 500.02 680.76 831.84 264.44 489.09 534.62 733.71 518.04 379.67 340.76 636.74 446.92 820.56 497.54 363.41 684.94 923.63 236.68 669.73 614.95 731.76 699.83 162.87 292.33 692.16 732.34 178.08 662.36 462.29 804.70 184.69 534.37 701.58 334.15 688.00 562.93 212.38 509.40 138.50 333.63 271.90 204.23 527.45 814.69 789.52 719.00 555.11 747.32 780.70 779.32 259.17 372.40 856.64 254.18 309.23 828.38 626.38 613.51 856.90 179.63 638.78 690.01 293.58 738.43 711.31 611.31 257.79 271.24 774.16 237.03 662.26 456.41 142.27 451.75 502.72 557.56 656.94 624.44 524.49 234.44 809.43 289.39 629.25 200.59 658.49 647.20 161.19 717.67 733.03 815.58 613.18 811.12 116.19 366.34 603.39 610.97 844.37 96.21 749.31 761.52 339.12 796.14 811.37 811.99 803.69 783.84 563.69 665.21 511.49 482.19 242.23 224.12 178.97 577.75 835.20 0.00 276.84 191.43 667.23 175.42 756.25 721.43 944.16 779.06 303.84 506.02 168.53 805.74 217.93 814.42 248.65 520.46 223.00 228.14 635.11 807.79 290.30 645.23 762.03 309.86 789.97 583.23 480.08 259.50 333.54 824.65 519.66 154.93 147.43 762.35 208.01 840.58 240.34 216.49 618.62 303.78 133.68 817.15 677.69 766.81 734.02 659.15 444.42 305.35 289.43 832.21 427.82 645.42 243.66 241.59 732.10 533.71 679.15 702.36 610.65 613.51 383.47 526.55 768.52 205.59 556.24 160.26 752.74 746.69 522.10 593.94 827.62 736.48 159.12 660.97 529.76 244.07 828.78 197.61 815.95 781.72 457.48 771.35 179.99 358.73
589.38 586.85 793.79 911.97 189.68 385.79 545.93 792.83 425.99 427.10 439.72 740.66 553.67 905.16 448.04 348.56 782.47 977.73 49.91 803.58 684.30 811.46 794.65 275.90 185.21 809.38 759.64 264.79 759.53 494.28 967.56 250.67 488.08 898.10 168.21 813.78 541.96 117.06 583.12 138.70 111.88 87.39 128.18 660.87 912.59 924.33 880.68 478.83 875.47 914.55 834.32 115.71 459.11 943.16 100.06 346.37 975.01 737.75 528.42 933.17 136.17 756.00 800.88 169.78 855.65 810.96 851.51 391.64 116.51 808.72 114.38 777.82 461.94 207.46 505.43 528.18 463.84 761.47 733.93 526.36 144.93 905.32 236.76 715.17 184.39 771.52 755.96 171.23 815.81 846.06 899.68 712.83 928.87 243.28 288.94 737.24 570.60 951.50 202.59 1019.60 816.33 391.61 980.55 977.67 915.50 855.91 904.58 697.11 742.61 514.65 518.40 320.19 108.29 359.61 667.27 960.92 276.84 0.00 255.80 774.95 128.90 832.52 821.10 997.71 1018.26 383.93 516.39 305.07 844.36 133.92 1014.33 154.82 481.56 128.27 291.60 748.91 905.12 101.23 734.75 868.41 202.74 1053.47 581.71 525.97 169.05 118.76 917.72 355.22 249.28 274.52 839.35 271.47 951.99 187.42 82.31 686.18 89.00 143.16 897.09 726.20 873.19 1004.31 865.82 495.48 185.35 137.15 897.40 495.30 756.79 311.92 93.24 795.56 600.26 811.74 765.97 496.76 730.73 307.42 428.67 849.51 81.00 581.93 157.61 935.12 936.91 531.58 696.70 968.17 771.04 228.47 683.45 546.39 160.21 915.75 297.59 1040.24 816.28 564.23 806.50 228.50 248.98
398.78 401.71 650.22 869.58 298.71 338.92 343.19 604.34 402.61 188.24 302.98 608.23 350.19 848.72 393.47 171.98 648.13 757.01 232.50 638.73 526.00 703.11 616.13 132.33 351.73 652.67 581.39 74.01 589.09 321.89 849.35 92.37 342.94 746.99 289.73 643.34 417.69 144.07 397.60 235.42 204.92 237.73 282.46 524.92 905.03 901.63 729.57 392.68 711.05 778.17 676.10 266.05 246.89 846.25 282.65 125.65 844.53 595.84 468.27 748.90 119.63 614.75 665.83 347.30 698.94 649.00 693.21 255.26 309.95 642.93 272.60 649.25 264.98 49.16 317.05 312.20 369.80 635.67 532.25 404.65 273.15 822.62 365.19 580.83 272.48 582.77 616.66 118.35 657.51 657.31 878.82 610.65 882.62 113.10 262.27 600.86 500.99 859.73 209.34 897.46 793.63 170.89 860.38 875.86 892.80 685.91 813.96 561.16 634.82 332.92 314.92 161.89 283.67 211.08 547.36 811.57 191.43 255.80 0.00 639.90 255.95 664.06 671.33 816.80 920.67 176.48 345.63 175.31 837.85 182.83 867.31 299.86 361.25 263.69 146.22 600.65 874.78 256.13 614.84 721.39 369.26 948.23 398.53 334.84 316.82 284.29 888.10 366.16 78.84 144.04 647.14 136.08 888.25 99.83 178.82 542.53 254.53 230.60 874.39 525.00 859.52 912.75 741.05 301.28 362.37 297.06 739.10 274.58 621.39 143.23 265.68 650.18 449.66 676.69 695.35 432.57 589.48 461.70 365.62 725.01 242.31 397.20 217.21 834.64 792.10 347.28 538.40 901.14 644.39 70.17 612.55 361.25 305.98 826.25 139.29 959.49 630.42 360.75 803.46 27.30 364.87
644.71 782.48 125.98 486.95 817.01 898.83 858.34 614.53 896.08 694.79 475.96 125.20 766.09 481.22 865.80 738.98 203.92 642.51 782.27 93.68 584.97 197.25 496.51 558.88 789.51 49.30 607.29 631.30 139.37 774.83 411.30 610.87 879.77 157.75 909.22 92.67 864.42 743.14 703.61 751.17 827.61 838.97 759.60 196.07 494.03 492.20 157.99 904.78 174.96 409.79 523.13 824.16 695.24 468.87 804.96 699.43 446.56 177.26 945.53 491.78 638.78 92.40 25.93 795.75 84.55 115.54 223.54 409.44 794.29 566.04 834.67 99.16 804.02 590.74 776.57 839.62 880.47 186.52 469.61 915.48 774.67 454.24 878.29 190.27 785.58 537.85 156.44 659.93 276.07 544.43 512.45 160.01 362.62 604.05 810.89 63.84 1007.96 452.83 603.97 452.41 550.32 654.19 405.83 390.35 481.80 574.94 496.34 208.19 169.97 818.90 744.21 478.01 774.90 551.25 173.37 448.57 667.23 774.95 639.90 0.00 788.09 539.80 521.15 591.03 459.31 544.25 862.99 547.41 506.10 701.98 447.71 715.18 879.96 769.46 562.86 193.32 462.90 852.09 143.53 380.85 797.35 494.52 824.67 840.79 742.60 847.31 457.07 907.39 570.94 572.81 515.11 564.26 450.83 673.35 724.25 307.85 832.66 746.35 485.79 535.19 496.86 467.70 240.75 637.56 825.08 852.88 661.59 662.12 49.77 604.47 782.31 214.45 760.08 36.79 96.23 872.27 74.22 927.66 894.81 186.62 754.05 853.64 719.77 364.97 197.82 837.04 331.54 401.92 583.42 611.75 221.99 789.07 727.17 457.87 585.93 473.98 568.78 760.68 543.96 667.20 882.89
536.16 604.55 771.31 783.07 91.39 466.91 568.71 814.92 518.29 425.27 452.80 756.05 594.02 776.26 470.57 366.49 765.24 994.03 113.20 747.06 720.93 768.72 780.56 318.91 179.12 791.44 806.21 278.93 710.06 528.13 838.66 282.84 545.60 855.36 252.79 762.20 620.00 111.88 616.51 46.56 240.78 159.11 72.63 668.31 798.83 795.43 837.94 537.81 832.02 820.87 862.55 170.85 473.25 814.26 122.58 362.67 851.87 701.43 644.16 940.35 183.03 749.66 762.16 163.34 825.33 769.97 786.73 416.08 139.64 853.51 157.37 714.81 507.44 247.26 546.20 544.64 570.31 750.60 769.27 607.31 102.84 776.42 148.20 723.50 55.49 781.74 700.09 184.31 819.72 855.34 770.78 710.45 931.27 278.40 359.54 761.68 658.59 826.21 188.39 890.70 687.43 407.91 851.65 848.77 786.60 895.87 775.68 632.07 699.87 557.88 558.75 332.59 92.52 299.15 682.66 873.97 175.42 128.90 255.95 788.09 0.00 852.18 813.61 1037.56 889.36 397.53 511.21 270.58 715.46 119.83 903.09 117.05 540.54 79.73 311.26 714.92 776.22 162.74 669.06 848.68 183.06 924.57 588.42 537.15 127.90 238.27 788.82 484.12 239.66 271.60 857.72 296.90 823.09 232.92 121.00 703.35 217.90 41.74 768.19 735.58 751.95 875.41 810.27 490.30 178.41 197.49 937.20 511.60 742.59 348.15 109.99 815.22 575.94 751.30 812.83 611.57 738.37 251.87 487.65 806.77 82.11 589.30 68.32 916.93 900.47 571.13 669.85 916.52 854.97 265.10 691.78 588.87 112.47 809.28 299.58 911.34 841.00 600.07 677.60 275.36 227.03
395.74 582.90 425.72 901.05 919.64 722.20 618.29 195.19 692.94 577.42 580.66 414.60 578.22 868.69 681.48 666.99 346.07 167.38 823.14 456.31 379.52 377.06 122.40 610.97 957.21 500.69 226.36 623.04 431.45 573.57 896.67 619.14 632.06 519.66 925.86 474.58 657.96 796.63 533.72 815.26 850.41 883.22 899.38 422.11 949.04 933.81 502.24 652.88 468.32 888.62 25.70 895.48 583.97 905.64 870.59 538.41 904.37 414.43 708.54 100.65 722.12 472.93 529.15 954.64 510.65 439.54 714.54 579.83 901.37 137.76 887.61 482.82 657.61 650.83 575.31 552.47 624.81 409.86 131.81 649.80 919.64 849.05 942.35 378.75 884.79 141.67 435.25 686.18 272.76 115.95 941.44 417.83 790.19 652.87 710.90 475.96 748.21 918.64 712.64 905.10 954.23 583.65 890.98 895.37 943.83 126.57 906.53 385.87 438.47 573.19 542.95 625.77 883.00 694.73 436.46 896.39 756.25 832.52 664.06 539.80 852.18 0.00 110.87 218.15 941.22 558.34 585.90 685.25 910.01 783.13 915.93 892.70 618.23 897.12 540.92 354.91 896.88 898.11 442.25 793.14 951.30 976.34 663.11 575.11 896.14 905.52 908.07 706.13 618.29 660.29 86.83 561.05 915.52 692.70 802.04 240.38 875.76 810.44 913.48 175.09 891.67 920.39 722.25 494.70 960.76 910.38 130.19 525.41 497.67 553.82 862.02 378.39 481.68 518.29 587.23 672.84 475.96 1049.45 659.17 444.94 854.23 637.47 811.76 821.52 543.50 573.51 243.68 817.77 155.14 638.36 347.03 606.35 880.71 865.13 587.57 897.56 140.50 588.78 947.87 672.79 1023.69
420.53 551.89 477.21 926.02 857.26 657.12 600.38 129.09 619.26 538.45 534.82 474.34 525.06 932.52 594.87 628.86 399.62 235.93 806.39 506.90 330.26 424.64 55.20 592.16 933.86 516.46 177.10 627.25 457.26 532.01 881.64 607.72 598.99 558.05 858.66 491.82 625.65 762.18 488.59 776.18 813.78 854.46 859.76 484.72 951.27 938.90 549.46 583.82 481.70 874.50 85.17 878.70 509.65 894.52 828.82 570.83 919.93 405.09 686.91 149.73 710.70 499.02 530.69 919.63 528.99 457.92 688.25 617.79 888.97 106.27 856.56 464.17 620.90 639.41 533.75 542.79 603.40 397.97 164.23 628.17 868.30 908.79 841.31 351.67 856.30 96.54 425.91 674.76 326.31 56.90 951.52 399.71 799.59 638.84 636.58 485.36 699.42 943.88 625.22 914.50 870.45 544.75 883.77 868.29 959.74 82.26 945.24 448.48 411.39 522.07 501.39 614.35 852.17 683.83 432.56 887.05 721.43 821.10 671.33 521.15 813.61 110.87 0.00 244.24 937.25 617.81 566.01 666.44 898.48 715.93 897.81 872.66 607.15 854.26 529.50 327.83 901.97 872.86 429.52 766.06 916.33 972.46 636.69 553.48 884.72 871.66 929.02 639.31 606.87 641.48 79.56 549.63 928.77 692.10 745.50 213.30 863.39 781.00 929.65 146.33 934.97 929.79 723.79 420.38 944.01 893.63 170.98 451.09 471.38 570.60 830.22 351.31 432.42 519.83 560.94 652.59 489.61 1028.64 565.86 482.76 775.30 607.72 800.34 812.18 552.30 540.21 289.74 838.89 90.43 630.34 319.95 565.75 869.29 914.02 584.55 951.92 92.55 535.62 860.62 644.03 950.78
576.90 701.24 470.17 965.38 1059.35 882.71 754.13 247.17 819.02 704.64 709.25 528.13 705.27 946.50 839.11 794.17 390.52 69.03 992.12 500.76 456.16 472.59 275.49 781.29 1009.78 545.14 362.36 819.68 475.90 748.37 940.61 815.79 793.52 465.21 1055.92 519.03 806.19 955.61 660.80 991.00 973.37 1006.18 1003.98 562.37 1003.43 978.26 447.79 770.24 490.52 938.60 192.45 1034.50 729.09 966.65 1035.24 700.39 939.41 458.88 791.57 219.76 888.08 517.38 573.60 1056.70 506.48 483.99 760.38 792.22 1029.18 188.99 1036.42 527.27 780.09 829.50 750.11 738.73 802.74 454.31 349.96 741.92 992.38 962.58 1073.96 457.82 1040.93 312.90 479.70 898.69 317.21 238.36 990.88 462.28 900.28 827.97 844.95 586.05 853.64 977.42 869.46 980.02 999.61 655.15 942.94 958.42 1000.73 161.98 979.84 526.13 502.36 728.53 717.75 828.31 1023.01 801.91 527.21 894.13 944.16 997.71 816.80 591.03 1037.56 218.15 244.24 0.00 1002.36 640.32 744.57 855.57 1012.79 918.02 960.38 976.13 804.89 1006.43 759.07 501.74 941.33 1023.33 486.70 926.16 1003.87 1037.57 793.88 736.57 948.71 1006.47 982.81 876.02 799.30 830.61 221.81 742.06 993.33 859.34 957.69 447.63 976.71 995.82 969.01 306.92 982.31 995.31 766.70 661.45 1046.03 1041.06 196.18 661.56 543.51 756.14 983.85 430.69 617.68 562.74 633.07 848.75 542.65 1164.63 810.10 446.57 1019.54 790.23 992.77 865.97 510.32 740.26 461.83 908.82 226.67 815.67 489.54 684.85 964.14 973.62 746.55 1011.09 208.82 715.83 1009.44 795.75 1089.00
1002.85 1127.61 583.73 159.17 868.82 1151.95 1161.41 1002.31 1132.06 956.80 699.66 526.62 1074.51 135.68 1148.54 1005.00 611.84 948.10 999.42 552.99 1044.28 638.34 945.20 858.00 950.28 508.61 1008.78 908.64 526.46 1068.16 132.23 888.21 1155.28 616.35 1072.22 547.31 1186.98 959.09 1121.92 908.90 1049.36 1009.97 961.99 555.29 135.01 144.64 606.25 1174.06 593.36 180.97 932.21 997.24 983.31 122.51 1009.48 952.55 115.04 561.45 1237.56 850.62 958.69 491.98 485.24 1000.34 496.75 559.81 281.59 703.88 998.88 989.42 975.10 520.44 1136.66 893.85 1071.60 1126.77 1175.50 589.23 854.37 1178.82 979.26 180.70 889.80 585.58 864.96 955.03 540.63 940.25 685.15 988.70 118.58 583.76 151.03 846.77 1080.69 465.26 1276.67 123.77 842.23 36.12 203.77 907.31 60.29 68.96 122.78 997.38 173.22 591.53 569.49 1117.92 1039.24 807.40 979.42 778.09 595.02 109.10 779.06 1018.26 920.67 459.31 889.36 941.22 937.25 1002.36 0.00 906.23 1130.07 805.46 192.90 959.95 101.98 919.77 1194.91 969.09 822.54 622.79 135.12 1028.37 564.61 247.90 932.75 35.21 1207.28 1104.13 947.19 1078.91 109.97 1144.77 880.30 815.53 959.38 842.67 95.17 965.90 962.51 723.95 1081.82 912.74 139.19 974.00 171.63 45.04 277.10 1001.01 974.91 1037.27 1067.89 970.30 498.46 883.26 986.90 664.91 1127.30 481.06 408.90 1225.34 517.25 886.72 1177.55 637.31 971.47 1180.29 937.99 154.36 657.13 1099.78 718.63 164.87 1002.48 889.40 617.30 1120.68 931.76 142.75 844.13 114.14 1003.07 1074.03 211.76 893.37 992.20
222.30 338.40 529.78 793.29 419.03 420.53 396.71 602.54 444.63 150.54 257.28 444.27 311.95 814.88 416.84 252.28 507.57 709.35 360.63 516.36 499.96 527.19 570.26 140.97 500.46 560.74 492.35 185.04 479.36 297.42 841.16 175.47 398.75 613.83 417.86 531.50 437.65 315.29 353.79 359.25 333.05 365.86 440.38 457.71 837.23 812.27 596.41 413.37 601.32 769.98 532.64 394.18 150.99 805.21 399.31 237.37 819.48 457.95 502.22 633.82 247.76 517.47 525.24 490.12 581.85 533.94 711.35 316.80 446.35 554.23 400.73 484.11 369.22 196.36 279.35 375.05 425.61 470.33 537.83 443.48 444.37 725.53 461.01 462.59 400.61 528.92 469.39 260.38 580.88 603.46 821.20 435.81 819.86 187.65 345.81 505.63 536.42 811.37 303.54 898.55 785.69 192.13 865.37 849.89 832.02 586.50 783.01 421.47 458.34 358.11 296.20 212.46 420.49 203.14 370.88 864.76 303.84 383.93 176.48 544.25 397.53 558.34 617.81 640.32 906.23 0.00 374.11 215.25 786.49 277.70 870.70 462.55 414.20 439.06 131.82 475.61 777.69 384.26 438.36 752.50 502.59 941.44 442.05 368.79 461.14 412.42 796.26 431.48 183.45 190.29 605.16 126.21 855.19 227.96 329.31 550.92 382.66 364.07 795.79 523.20 768.15 913.84 697.19 240.26 495.05 425.19 675.22 218.52 494.48 115.82 403.96 563.24 346.75 536.10 584.04 467.64 492.20 568.11 391.23 565.24 391.72 444.95 375.30 802.58 658.94 339.97 474.48 853.95 591.91 175.35 446.71 335.82 470.93 776.10 106.23 912.81 574.06 308.00 795.52 155.43 541.35
303.13 93.34 784.04 1109.99 553.97 194.56 57.50 531.69 149.11 223.57 554.83 810.42 139.43 1096.57 132.31 246.23 704.39 693.48 514.25 796.50 288.41 786.46 510.81 418.28 606.99 829.16 388.91 419.64 748.60 129.34 1106.01 433.75 82.89 899.57 496.34 778.23 108.79 399.33 168.83 490.68 411.53 524.37 532.06 734.63 1128.09 1102.92 882.57 92.07 812.70 1069.72 607.51 546.66 248.90 1076.38 551.09 297.63 1015.03 749.51 159.37 636.34 458.62 823.49 837.06 588.88 844.15 747.45 1026.92 546.81 553.45 575.60 547.27 794.77 138.57 394.79 147.41 33.43 59.57 758.41 559.23 100.63 528.41 1099.64 625.30 716.17 532.59 552.15 770.33 463.98 738.41 547.16 1128.98 744.13 1144.01 434.06 272.67 829.78 162.31 1072.36 538.50 1094.10 1083.92 252.39 1069.78 1071.24 1125.39 582.59 1054.37 698.39 755.81 46.67 149.72 442.47 533.96 504.12 737.03 1060.31 506.02 516.39 345.63 862.99 511.21 585.90 566.01 744.57 1130.07 374.11 0.00 488.44 1108.15 445.58 1066.25 555.12 122.52 529.80 376.35 672.25 1100.13 505.97 773.94 963.68 624.52 1165.28 77.21 25.94 572.08 490.90 1120.32 168.19 413.46 465.30 576.48 356.22 1116.95 413.09 434.08 607.99 461.14 485.86 1106.24 501.15 1099.93 1109.39 994.74 233.34 622.29 503.67 671.31 262.18 815.80 377.95 494.70 746.00 212.81 826.20 905.36 132.88 798.22 711.30 132.65 822.09 497.57 78.09 472.47 1100.13 889.75 59.92 556.43 1130.87 537.92 415.80 713.87 77.66 561.67 1089.96 391.14 1154.87 583.16 137.55 1074.09 371.29 673.05
430.75 498.39 592.17 740.61 271.78 472.97 518.50 649.52 495.36 275.98 270.63 552.92 452.13 708.25 485.44 311.06 590.75 838.15 255.16 583.59 592.27 635.84 611.24 74.28 394.33 556.05 700.80 165.98 560.96 422.86 763.73 145.55 487.30 664.51 407.51 598.64 550.24 261.86 513.54 250.57 339.09 334.03 313.59 457.32 773.19 753.97 664.74 508.02 578.79 710.57 698.17 332.53 310.98 703.22 282.65 247.38 762.53 537.79 600.82 716.56 197.44 568.65 521.48 335.14 601.90 589.37 684.70 187.66 342.80 685.57 310.39 592.13 437.38 126.15 404.79 463.60 514.16 574.45 588.65 545.23 322.13 713.28 384.59 523.45 292.20 569.90 558.61 190.28 549.14 644.44 762.52 543.05 734.71 118.64 354.24 533.26 622.39 729.49 122.69 798.56 677.33 292.62 751.98 736.50 769.80 723.29 699.65 493.56 566.99 446.66 437.15 85.92 306.00 94.78 479.53 717.25 168.53 305.07 175.31 547.41 270.58 685.25 666.44 855.57 805.46 215.25 488.44 0.00 721.55 245.68 791.34 330.37 501.94 308.09 144.33 551.28 717.04 330.13 547.01 645.42 379.98 840.67 565.65 470.54 357.79 388.88 747.63 501.16 153.53 87.40 673.76 136.34 755.08 224.22 242.97 600.25 381.57 245.75 737.89 627.84 745.21 813.85 692.02 394.05 368.93 342.40 789.48 363.34 543.49 183.98 284.05 640.08 538.42 510.62 633.05 564.80 543.38 492.83 514.45 622.74 229.13 545.09 219.17 668.70 662.97 428.52 523.81 743.58 647.89 136.44 555.17 482.80 342.36 662.71 109.02 820.13 693.13 462.69 687.16 161.47 404.61
999.43 1038.08 571.98 67.61 806.85 1123.14 1077.46 1003.07 1146.95 927.99 705.26 495.41 984.98 99.97 1119.73 930.45 622.27 1000.39 828.66 542.28 1083.83 626.50 953.68 736.07 872.86 514.74 1038.64 802.29 566.15 978.81 176.59 791.95 1107.01 623.20 968.25 557.33 1148.31 798.02 1031.49 762.02 933.28 874.57 788.09 571.92 108.81 96.89 611.74 1117.59 640.40 105.41 935.71 886.31 937.48 117.33 838.04 909.17 136.41 564.66 1218.92 942.49 869.23 547.30 480.17 878.80 546.16 548.06 291.66 628.32 855.10 998.56 872.83 530.51 1067.70 819.24 996.88 1078.54 1120.19 613.83 897.69 1164.94 818.30 60.96 863.66 630.47 770.95 916.71 574.79 853.06 695.58 955.38 74.32 589.58 238.73 782.75 990.55 544.72 1228.07 146.80 742.19 206.07 44.22 878.50 159.49 144.01 119.36 980.74 84.84 608.16 588.12 1066.37 1009.43 730.64 807.98 626.77 568.80 158.51 805.74 844.36 837.85 506.10 715.46 910.01 898.48 1012.79 192.90 786.49 1108.15 721.55 0.00 835.29 187.63 798.53 1127.96 795.19 775.86 641.92 71.46 878.20 557.31 235.31 880.70 228.11 1108.56 1090.25 825.95 953.73 117.74 1120.55 759.01 785.39 947.63 755.73 146.80 898.20 832.77 725.00 933.36 757.20 89.05 974.65 71.59 221.36 265.35 1004.83 893.87 912.95 1040.20 1005.01 508.53 835.24 825.45 656.53 1072.22 469.31 418.97 1193.50 540.44 851.01 1134.48 640.86 797.57 1137.53 783.78 201.47 652.06 1048.23 758.32 254.60 988.91 798.23 652.79 1062.82 810.52 93.82 770.81 206.58 991.03 974.42 37.86 861.70 941.49
500.00 523.44 720.82 858.62 141.33 406.65 472.96 732.57 446.44 368.74 360.77 667.69 474.19 847.34 398.72 275.59 709.50 887.64 120.61 730.61 611.33 740.65 660.73 202.93 253.91 751.28 729.75 191.82 702.78 408.30 912.76 177.70 467.54 827.29 259.61 748.88 540.52 46.25 498.98 137.60 181.51 199.48 191.06 588.33 890.68 871.50 809.87 464.51 802.50 841.58 757.43 200.50 386.14 885.34 149.75 274.01 910.95 666.44 570.86 820.52 63.20 699.66 727.91 240.56 786.53 753.62 778.54 318.67 212.13 771.16 184.54 707.53 389.58 134.49 426.37 478.95 494.40 688.50 662.05 529.25 175.33 836.21 254.14 642.20 175.32 698.55 687.26 97.64 742.84 735.51 846.64 659.23 865.87 198.43 239.71 664.27 591.05 871.90 122.99 923.83 807.26 319.25 922.60 907.12 886.36 789.12 826.17 624.57 671.80 491.99 438.92 247.22 179.81 280.01 594.30 881.32 217.93 133.92 182.83 701.98 119.83 783.13 715.93 918.02 959.95 277.70 445.58 245.68 835.29 0.00 934.73 202.04 471.15 172.29 242.90 675.94 834.57 182.38 661.78 788.81 258.47 995.07 522.79 471.52 219.00 252.68 877.77 420.18 220.27 229.37 764.83 224.27 894.17 115.06 51.61 677.82 222.92 132.78 848.55 653.23 793.59 939.12 800.68 424.67 258.23 207.85 824.43 422.94 677.19 240.04 163.94 746.86 527.90 738.77 693.00 539.72 674.39 370.30 418.26 778.70 115.10 523.67 119.39 906.07 863.94 473.85 623.73 905.17 772.62 155.50 610.48 485.85 214.03 867.40 197.08 969.69 758.65 484.75 797.43 155.53 290.58
1001.42 1035.71 549.50 153.96 857.22 1140.35 1075.09 974.75 1100.97 945.20 669.14 550.45 982.61 128.55 1136.94 946.93 569.86 975.68 992.91 501.76 1032.68 582.64 928.88 786.29 943.15 475.32 997.18 844.82 537.74 1048.50 124.49 824.39 1097.26 585.26 1041.70 483.49 1123.16 950.91 1029.12 907.47 1039.90 979.45 951.02 524.77 133.58 143.82 584.01 1130.44 491.38 161.71 890.23 966.72 971.71 129.51 979.37 940.95 51.22 523.02 1173.74 843.49 889.44 484.85 473.64 987.17 465.66 524.75 265.27 672.86 985.71 947.44 944.58 504.12 1085.71 818.15 1043.45 1062.95 1117.79 572.19 848.54 1115.00 966.09 145.17 915.96 573.98 894.97 939.57 510.11 887.34 643.17 954.71 168.73 498.10 174.86 782.95 1033.08 489.09 1228.56 80.15 811.74 68.83 217.38 895.71 53.16 57.36 121.35 980.07 162.48 561.01 538.97 1071.72 1017.88 705.42 966.32 765.36 544.87 78.01 814.42 1014.33 867.31 447.71 903.09 915.93 897.81 960.38 101.98 870.70 1066.25 791.34 187.63 934.73 0.00 906.60 1136.89 960.88 790.27 569.98 129.91 997.85 541.14 145.92 925.62 132.00 1130.43 1040.31 934.02 1048.39 136.13 1137.03 798.35 751.71 962.28 772.21 89.19 914.68 932.02 684.51 1070.22 912.29 142.43 968.17 158.46 80.40 309.81 966.76 967.78 1006.75 1037.37 997.47 482.14 851.72 973.73 640.47 1082.97 484.50 392.58 1183.32 510.12 879.59 1132.83 535.33 961.82 1116.47 926.28 123.84 575.56 1069.97 717.82 139.95 963.04 825.58 605.70 1076.17 918.59 131.15 807.13 111.90 965.50 972.05 225.49 862.28 991.38
605.53 583.24 777.58 813.17 157.52 464.17 593.51 875.00 515.65 465.47 507.10 748.48 530.14 801.89 526.42 388.96 811.95 1002.10 110.46 770.07 697.32 850.19 862.77 349.36 74.33 761.42 826.48 340.90 767.39 487.37 890.72 320.47 557.20 841.58 201.05 765.61 625.68 155.79 578.05 128.84 201.54 123.79 44.42 710.14 845.23 826.05 859.00 552.22 887.08 835.21 918.40 108.98 491.98 839.89 89.78 415.39 865.50 765.11 658.57 993.35 237.48 708.04 741.11 80.57 799.73 804.21 829.90 487.28 79.11 913.59 119.49 742.89 522.83 283.65 469.30 588.55 553.50 814.28 793.75 616.02 59.49 790.76 164.10 805.78 100.31 844.98 772.08 238.61 879.51 915.02 801.19 740.19 909.10 307.50 378.74 715.16 657.79 826.45 247.44 921.51 754.31 415.98 877.15 861.67 840.91 889.00 793.70 714.35 781.34 574.93 501.66 396.38 59.72 386.50 762.95 909.54 248.65 154.82 299.86 715.18 117.05 892.70 872.66 976.13 919.77 462.55 555.12 330.37 798.53 202.04 906.60 0.00 517.57 54.28 351.78 808.96 789.12 142.19 766.63 913.26 82.17 954.98 614.68 581.06 27.42 190.65 832.32 444.88 310.86 325.12 917.80 367.91 848.72 280.25 171.85 767.80 214.44 124.02 803.10 795.66 748.14 920.23 782.06 534.21 109.90 156.47 973.59 552.83 665.41 371.74 67.13 855.74 630.26 740.07 722.40 607.76 697.32 212.48 518.33 859.06 108.36 585.71 150.60 933.48 886.69 556.79 752.13 925.17 905.13 287.20 774.06 547.31 11.99 835.02 356.32 924.24 901.08 540.70 764.14 315.66 167.71
346.65 158.36 815.47 1167.25 539.43 138.40 139.03 557.72 74.71 296.03 588.32 800.31 199.34 1134.89 80.21 297.63 735.82 744.58 492.11 828.71 384.29 817.89 587.78 459.37 582.08 871.31 482.19 399.67 779.07 149.15 1144.15 419.05 39.63 913.31 410.96 812.95 135.83 454.29 179.65 506.06 369.68 452.37 482.06 727.52 1157.31 1141.33 914.75 34.65 865.24 1093.77 643.93 480.69 263.21 1127.27 505.78 336.12 1085.67 770.38 141.00 704.93 415.73 834.31 854.03 536.78 875.58 838.98 1046.73 570.86 525.78 615.90 487.24 809.77 96.27 410.41 167.22 89.65 66.49 779.72 575.36 101.34 503.91 1138.22 598.26 737.04 505.55 569.57 791.20 414.99 782.11 637.83 1167.39 765.00 1163.06 474.35 328.89 850.65 183.44 1084.94 521.09 1158.79 1125.16 290.88 1140.42 1129.23 1163.80 668.09 1124.48 691.28 776.68 85.08 164.72 512.09 483.27 542.61 726.92 1097.67 520.46 481.56 361.25 879.96 540.54 618.23 607.15 804.89 1194.91 414.20 122.52 501.94 1127.96 471.15 1136.89 517.57 0.00 463.29 427.24 693.12 1170.77 449.58 794.40 1019.90 576.17 1223.28 115.98 96.58 521.01 436.54 1158.36 126.34 436.05 491.73 666.08 429.18 1129.84 361.87 419.54 651.69 406.78 509.04 1157.78 566.17 1163.25 1174.08 1028.23 268.06 561.97 461.82 715.44 237.35 836.67 349.67 498.39 789.70 226.87 843.17 926.23 90.19 809.04 661.30 52.89 855.90 483.03 141.92 482.46 1128.45 924.47 98.41 587.86 1123.76 597.77 431.42 747.14 128.76 505.58 1141.85 424.63 1212.86 631.56 193.77 1130.33 340.47 623.96
573.50 584.64 826.36 862.80 171.12 432.14 587.30 831.20 495.83 433.44 487.92 752.40 531.54 855.99 494.39 410.04 782.55 970.07 78.43 803.01 671.67 839.52 833.02 308.47 118.79 815.70 794.45 313.69 789.08 504.23 918.39 294.83 502.92 895.86 175.98 819.89 593.65 155.43 578.95 99.08 203.06 86.57 18.77 720.83 872.97 875.16 908.74 497.94 886.88 889.49 888.67 95.01 459.95 893.99 44.07 389.34 919.78 735.71 604.29 989.85 197.74 762.32 795.39 83.61 854.01 808.92 803.79 453.21 62.49 881.56 78.86 775.78 493.44 251.62 509.80 552.94 529.78 761.90 779.18 564.63 40.62 845.04 217.01 767.20 134.44 804.09 753.92 236.83 855.86 878.63 850.51 710.79 908.38 261.79 370.88 769.44 632.72 880.73 229.04 969.65 767.16 383.95 931.38 915.95 866.33 856.97 832.54 684.59 770.67 546.01 496.27 364.35 19.98 356.74 723.35 953.70 223.00 128.27 263.69 769.46 79.73 897.12 854.26 1006.43 969.09 439.06 529.80 308.09 795.19 172.29 960.88 54.28 463.29 0.00 356.20 782.67 843.40 100.27 748.79 894.86 112.88 1004.30 579.27 555.74 57.72 159.76 868.55 446.40 278.83 293.03 885.77 336.07 902.82 232.60 120.68 742.52 174.57 94.26 847.92 763.63 802.42 954.36 756.41 533.85 98.68 127.08 941.56 520.80 719.69 357.17 35.10 854.81 590.52 794.35 752.70 553.48 751.60 198.01 487.33 853.20 78.96 553.68 120.84 899.60 940.97 561.70 722.37 947.68 871.25 272.63 744.30 587.81 42.29 889.01 337.15 978.52 869.05 542.10 757.33 283.63 160.67
354.12 434.94 569.52 749.75 384.23 409.16 433.85 652.03 449.36 238.26 218.74 540.31 381.84 738.03 417.21 182.46 584.68 708.30 282.22 580.39 556.67 599.28 584.70 70.05 416.29 605.79 599.27 97.75 544.44 339.07 800.32 78.22 408.93 676.20 414.05 565.34 447.39 263.83 429.75 274.34 334.42 361.09 358.46 409.53 778.84 789.08 659.20 454.95 666.40 729.14 566.62 354.56 264.77 700.03 329.67 168.33 806.72 533.56 484.61 641.57 181.20 556.65 588.79 420.48 633.23 524.08 676.44 206.23 376.08 635.77 346.69 577.91 330.97 109.91 321.00 409.78 435.79 539.02 499.58 470.64 378.72 773.59 409.54 541.88 343.87 565.67 554.38 145.26 533.43 586.40 801.30 512.92 810.62 111.95 275.99 551.83 478.06 749.39 171.72 844.45 747.83 188.77 808.21 796.60 766.61 611.76 736.92 445.77 530.43 399.38 353.36 84.85 342.08 169.52 496.36 827.48 228.14 291.60 146.22 562.86 311.26 540.92 529.50 759.07 822.54 131.82 376.35 144.33 775.86 242.90 790.27 351.78 427.24 356.20 0.00 516.84 767.61 357.19 535.98 644.35 410.38 857.75 453.56 402.29 355.22 364.60 759.70 378.59 77.37 119.37 609.06 20.13 768.16 162.60 264.52 541.06 334.84 269.52 771.19 617.96 782.48 859.74 658.65 306.51 419.84 369.46 671.11 293.84 563.29 77.57 321.10 503.96 468.92 599.65 549.13 509.10 531.38 516.93 431.61 637.33 313.31 454.44 270.84 764.04 676.44 381.24 510.59 838.92 619.93 100.84 573.60 399.01 339.79 738.37 55.05 872.10 622.05 388.52 738.00 156.80 482.77
490.00 624.87 155.00 598.19 752.28 802.82 665.02 433.11 750.26 555.76 421.17 146.51 655.40 604.69 740.57 694.58 111.22 522.29 734.80 179.07 568.76 146.90 383.03 530.11 847.89 223.45 456.94 585.04 129.43 679.76 553.81 564.61 702.50 239.05 859.20 168.60 671.10 704.43 621.75 706.16 788.36 809.62 787.55 156.89 623.44 611.07 221.63 711.46 208.70 546.67 380.61 792.21 623.08 566.69 739.96 611.89 592.10 77.26 752.21 446.51 612.74 171.72 219.25 830.77 201.16 170.01 360.42 377.32 817.38 430.74 774.75 136.87 692.02 551.49 673.76 646.30 706.91 98.76 323.42 722.16 796.71 580.96 742.39 43.92 750.55 424.08 98.08 620.68 184.53 384.73 623.69 71.88 471.76 556.98 756.45 157.53 834.56 616.05 613.52 586.67 630.17 566.65 576.02 560.54 633.27 410.09 617.41 120.65 83.56 625.58 678.83 491.07 770.02 456.50 104.73 559.22 635.11 748.91 600.65 193.32 714.92 354.91 327.83 501.74 622.79 475.61 672.25 551.28 641.92 675.94 569.98 808.96 693.12 782.67 516.84 0.00 574.14 796.16 101.69 438.23 830.36 657.91 631.35 647.47 826.12 851.03 601.19 785.01 553.74 525.74 407.39 530.29 621.02 637.20 690.44 114.53 821.27 710.98 601.82 443.05 615.12 601.96 408.26 594.60 864.56 813.63 485.10 574.58 143.55 570.33 758.63 160.55 566.76 218.21 233.11 756.10 164.22 908.11 711.56 164.75 703.71 660.32 710.37 484.35 265.66 643.72 161.78 511.06 393.06 564.49 65.46 595.75 820.95 592.00 495.37 629.47 420.38 665.96 640.00 626.79 879.19
939.47 1070.40 569.23 24.05 780.40 1109.79 1109.78 986.57 1143.38 928.23 702.49 486.61 1017.30 37.19 1152.13 926.15 550.81 997.36 889.42 535.64 1047.70 587.01 925.85 780.64 831.07 511.99 1005.21 846.86 514.93 1050.27 144.22 836.52 1131.14 573.27 990.17 517.37 1157.04 850.75 1063.81 822.78 971.92 912.91 833.54 556.66 62.10 36.93 555.85 1137.43 621.29 96.61 871.18 898.10 928.68 67.58 878.90 935.94 85.10 555.86 1207.62 878.36 838.62 519.72 477.42 869.69 508.07 545.31 282.86 619.52 868.23 928.39 908.61 521.71 1098.58 836.75 1057.04 1096.83 1151.67 577.70 870.37 1148.88 848.61 52.16 826.11 589.17 831.71 907.91 548.25 822.45 624.12 958.87 49.55 580.78 195.17 772.81 950.55 509.40 1191.31 87.14 711.58 134.61 88.79 910.90 88.03 72.55 59.40 972.05 79.09 562.34 560.80 1093.18 1052.57 731.16 848.84 671.34 540.09 120.42 807.79 905.12 874.78 462.90 776.22 896.88 901.97 941.33 135.12 777.69 1100.13 717.04 71.46 834.57 129.91 789.12 1170.77 843.40 767.61 574.14 0.00 931.31 548.51 234.20 813.54 170.33 1165.12 1074.19 816.54 979.77 46.28 1079.22 795.94 785.59 944.88 787.74 84.02 930.21 831.86 688.67 993.40 817.96 27.68 965.85 40.98 149.90 275.37 1012.30 855.70 945.59 1021.51 996.21 490.72 845.18 856.25 617.04 1063.42 466.56 410.17 1217.20 522.63 788.23 1152.67 638.11 858.33 1150.35 844.54 161.98 618.38 1103.37 698.77 183.14 966.07 815.74 620.89 1110.86 801.11 54.33 815.38 135.12 948.22 1006.74 98.62 878.51 884.49
528.11 555.57 833.12 945.81 214.74 390.72 533.87 805.87 438.02 444.37 508.88 808.87 502.47 939.00 425.70 343.60 809.65 981.98 74.97 815.14 754.26 830.53 817.66 320.60 138.81 854.20 746.14 288.24 807.55 459.70 986.55 303.22 456.10 917.17 129.93 833.41 553.99 136.13 550.38 182.79 123.91 18.40 104.88 722.85 956.68 958.17 899.75 446.85 908.92 977.40 877.63 40.69 477.36 977.00 56.20 369.35 977.57 762.81 532.84 977.45 218.46 837.35 847.85 133.67 886.71 836.02 855.85 473.93 80.40 844.46 53.27 802.88 419.86 289.75 441.63 502.67 475.87 811.98 775.95 517.81 95.68 932.95 261.82 786.98 184.99 784.30 781.02 261.05 842.11 858.84 933.52 737.89 940.02 273.92 301.11 815.94 582.63 968.64 256.14 1020.20 850.17 401.36 995.02 979.54 949.34 887.44 903.20 759.09 761.68 482.67 473.99 374.08 84.99 413.16 735.48 957.61 290.30 101.23 256.13 852.09 162.74 898.11 872.86 1023.33 1028.37 384.26 505.97 330.13 878.20 182.38 997.85 142.19 449.58 100.27 357.19 796.16 931.31 0.00 781.62 921.96 155.13 1060.86 553.13 480.03 128.38 93.05 951.56 367.25 312.66 305.16 848.67 365.74 979.22 279.63 167.71 774.24 74.30 177.97 930.93 726.53 890.33 1004.91 842.52 502.81 141.56 53.50 956.74 518.28 807.60 357.46 104.97 832.25 602.83 836.99 823.36 529.97 829.65 284.12 396.69 868.58 106.06 556.19 154.01 874.01 962.28 499.60 749.25 948.89 845.92 298.43 765.74 516.13 137.68 940.81 345.19 1030.83 831.95 513.03 840.34 228.83 225.68
548.36 696.26 102.25 548.23 715.03 805.55 766.71 527.40 834.90 588.90 479.08 111.54 704.30 526.86 802.14 662.07 96.18 500.55 706.65 78.00 554.25 99.66 482.38 505.80 768.32 122.38 521.90 593.47 41.00 697.57 477.99 577.07 776.09 186.30 853.94 93.14 772.79 656.36 698.70 700.42 771.41 785.52 741.69 126.45 575.11 569.27 168.88 813.15 162.96 451.90 416.55 778.96 589.35 498.51 729.08 606.15 525.05 42.29 853.90 435.02 598.58 80.60 130.12 819.89 162.49 100.91 284.60 396.11 789.23 473.76 756.82 45.75 698.13 584.14 679.50 747.99 798.09 84.25 340.38 823.85 768.56 496.35 817.26 102.97 724.55 441.04 31.03 653.33 169.49 468.91 573.75 43.73 413.58 529.04 707.63 99.35 936.25 533.46 655.42 528.49 572.01 560.91 505.90 521.38 565.09 511.78 543.06 114.91 30.81 727.27 690.80 471.41 752.43 537.92 67.48 500.90 645.23 734.75 614.84 143.53 669.06 442.25 429.52 486.70 564.61 438.36 773.94 547.01 557.31 661.78 541.14 766.63 794.40 748.79 535.98 101.69 548.51 781.62 0.00 454.12 785.85 599.73 733.04 749.16 794.05 826.42 534.14 807.64 551.25 555.12 498.23 515.85 566.64 658.32 691.11 216.22 796.66 701.98 563.36 460.01 538.97 543.78 332.44 599.55 828.01 793.89 558.29 568.84 101.22 554.18 730.48 177.16 668.45 140.98 190.78 857.79 69.31 920.93 798.77 137.71 675.56 762.01 675.40 417.30 231.41 745.41 233.17 452.88 494.75 567.96 130.42 697.44 778.62 499.98 540.54 574.12 493.59 693.74 562.18 593.79 851.04
925.44 889.79 468.45 240.15 838.83 1019.05 929.17 871.34 1023.83 820.73 616.49 471.83 836.69 207.93 1015.92 801.01 535.64 954.67 846.99 434.99 965.82 526.24 821.26 640.37 955.52 398.03 895.17 703.91 470.64 902.58 270.41 695.61 982.83 516.35 988.87 432.08 1024.26 804.99 883.20 811.76 909.10 915.97 900.36 469.69 275.47 271.13 506.72 1031.55 523.69 226.82 818.84 915.51 888.05 245.93 869.42 799.57 197.14 486.02 1070.63 849.14 743.52 424.47 354.92 960.23 444.30 444.53 189.11 548.14 929.57 868.97 897.16 408.37 939.79 672.23 897.53 930.25 1002.59 498.40 757.97 1027.58 908.90 242.01 932.42 482.15 853.39 858.47 485.15 741.42 608.95 822.96 280.68 463.88 196.79 685.54 892.17 444.69 1122.41 203.10 665.82 214.75 279.53 833.12 199.08 203.28 267.27 848.32 184.53 433.45 484.93 942.19 871.96 559.50 882.67 663.37 398.95 223.93 762.03 868.41 721.39 380.85 848.68 793.14 766.06 926.16 247.90 752.50 963.68 645.42 235.31 788.81 145.92 913.26 1019.90 894.86 644.35 438.23 234.20 921.96 454.12 0.00 956.93 277.92 984.51 952.89 924.51 975.65 247.31 991.11 652.43 654.30 844.10 626.29 235.11 768.76 786.10 552.76 951.72 806.94 252.72 847.48 230.09 226.32 176.58 820.84 978.61 934.23 923.33 851.55 398.01 705.80 870.82 563.18 937.05 365.78 316.42 1050.62 410.47 758.84 986.91 515.61 815.90 1004.83 780.36 195.52 526.81 924.05 600.01 236.09 831.29 693.24 503.69 930.25 918.97 253.47 661.21 257.82 858.61 826.13 273.17 748.69 884.71
646.44 633.09 859.75 829.43 204.24 505.84 617.18 917.38 546.04 454.90 488.93 830.65 579.99 797.07 532.52 436.16 854.44 1072.53 166.33 852.24 763.33 885.51 913.98 377.02 17.53 843.59 864.47 364.56 825.99 569.54 904.10 383.04 595.32 923.75 198.98 847.78 662.01 225.19 568.11 187.44 231.93 136.73 110.43 768.74 875.64 850.47 941.17 597.81 947.95 872.03 966.69 124.00 522.22 835.07 126.51 451.06 878.61 796.52 668.88 1051.95 268.54 790.21 823.28 75.95 881.90 880.81 877.45 507.89 86.23 962.79 101.86 825.06 519.36 339.83 551.47 624.50 583.89 842.92 853.00 646.41 96.11 865.70 235.71 796.62 170.46 872.64 816.88 304.89 927.75 947.18 863.09 782.68 933.31 330.34 394.62 797.33 655.72 847.02 291.11 919.29 836.48 486.41 872.46 886.09 872.21 959.43 829.98 772.95 816.66 621.77 583.83 424.69 129.46 445.10 791.90 921.27 309.86 202.74 369.26 797.35 183.06 951.30 916.33 1003.87 932.75 502.59 624.52 379.98 880.70 258.47 925.62 82.17 576.17 112.88 410.38 830.36 813.54 155.13 785.85 956.93 0.00 967.96 672.52 635.16 55.16 205.67 836.45 475.27 369.08 361.58 967.00 422.16 843.90 292.11 206.86 826.40 228.38 182.62 841.22 844.86 830.31 934.58 848.07 572.97 42.16 164.03 1018.21 542.26 747.58 430.99 137.56 909.77 646.64 822.24 750.14 639.32 779.49 244.12 547.65 923.56 150.85 652.86 192.69 922.60 968.86 603.63 810.73 894.01 950.63 360.84 764.90 615.63 70.59 842.61 411.76 947.84 950.28 569.43 846.31 347.16 118.25
1038.06 1162.82 618.85 194.38 904.03 1186.25 1196.62 1037.52 1167.27 992.01 734.87 561.74 1109.72 170.89 1183.75 1040.21 647.05 983.22 1026.65 588.20 1079.49 673.55 980.41 893.12 985.49 543.82 1043.99 876.29 561.67 1103.37 167.44 855.86 1190.40 651.56 1107.43 582.52 1222.19 994.30 1157.13 928.47 1084.57 1045.18 994.20 590.50 170.22 179.85 641.46 1188.63 623.38 216.09 967.42 1030.76 1018.52 157.72 1020.39 987.76 150.25 596.66 1272.77 885.83 969.60 527.19 520.45 1035.55 531.96 594.93 316.80 739.00 1034.09 1024.63 1010.31 555.65 1171.78 899.07 1106.81 1161.98 1210.71 624.44 889.49 1214.03 1014.47 215.91 925.01 620.79 875.87 990.15 575.84 951.16 720.36 1023.82 153.79 618.97 186.15 881.98 1064.55 500.38 1311.88 138.34 877.44 71.24 238.98 942.52 95.50 104.17 157.99 1032.59 208.43 626.19 604.70 1153.13 1074.45 837.42 990.33 813.30 630.23 144.31 789.97 1053.47 948.23 494.52 924.57 976.34 972.46 1037.57 35.21 941.44 1165.28 840.67 228.11 995.07 132.00 954.98 1223.28 1004.30 857.75 657.91 170.33 1060.86 599.73 277.92 967.96 0.00 1242.49 1139.34 982.40 1112.43 145.18 1155.68 899.04 850.74 994.50 877.88 130.38 968.76 997.72 759.16 1093.75 923.65 173.65 1009.12 206.84 55.95 312.22 1036.22 1010.12 1072.48 1103.10 1005.51 533.67 918.38 1011.62 700.12 1162.51 516.18 444.11 1260.55 552.46 921.93 1212.76 623.01 995.56 1215.50 948.90 189.57 692.34 1134.99 753.84 193.71 1037.69 889.13 652.51 1155.89 966.97 177.96 879.34 85.40 1038.28 1104.05 246.97 928.58 1027.41
346.69 136.90 786.35 1176.17 631.18 243.10 55.34 591.62 179.41 300.78 632.04 777.86 168.94 1156.33 196.19 304.68 742.57 724.85 590.88 810.42 365.62 778.25 581.49 495.49 675.00 854.80 459.59 472.54 760.78 193.04 1139.47 488.61 131.26 870.40 526.94 799.95 39.75 476.54 200.20 567.89 469.83 568.35 584.91 733.41 1205.30 1180.13 852.98 118.92 840.05 1138.21 663.38 548.52 291.06 1151.30 600.77 374.84 1092.24 708.61 120.86 685.20 465.10 803.07 850.60 652.76 832.51 801.36 991.77 624.02 606.30 630.21 570.66 768.22 205.30 445.40 179.55 110.64 117.87 730.11 590.60 94.43 605.62 1161.36 702.51 675.27 609.80 570.22 729.43 514.59 736.25 617.84 1182.88 703.23 1103.11 509.34 349.88 788.88 223.40 1149.57 570.12 1171.31 1104.77 329.60 1146.99 1148.45 1202.60 659.80 1131.58 697.17 714.91 123.88 198.01 519.68 586.81 581.33 736.08 1137.52 583.23 581.71 398.53 824.67 588.42 663.11 636.69 793.88 1207.28 442.05 77.21 565.65 1108.56 522.79 1130.43 614.68 115.98 579.27 453.56 631.35 1165.12 553.13 733.04 984.51 672.52 1242.49 0.00 103.15 626.67 535.56 1195.71 226.49 477.37 491.37 612.35 433.43 1194.16 446.29 511.29 605.83 519.44 563.07 1183.45 512.28 1169.29 1186.60 1039.61 273.95 649.39 561.97 657.44 243.24 774.90 455.16 547.55 743.84 241.02 849.56 864.46 137.62 795.57 764.15 168.87 796.10 574.78 28.97 549.68 1115.70 897.01 137.13 599.99 1129.65 608.60 466.41 696.81 109.03 611.24 1110.79 468.35 1232.08 617.70 158.38 1094.94 425.83 727.50
301.97 92.18 780.18 1094.18 579.91 168.62 57.28 557.63 154.09 249.51 580.77 793.98 137.32 1070.63 106.37 220.29 703.23 667.54 498.99 797.08 314.35 780.40 536.75 444.22 618.84 841.46 414.85 404.76 747.44 111.44 1080.07 415.85 56.95 886.52 471.00 799.19 82.85 425.27 142.89 516.62 414.09 498.43 558.00 716.73 1105.05 1087.66 869.10 106.69 786.76 1094.65 589.83 520.72 231.00 1095.78 536.23 279.73 989.09 724.73 133.43 627.89 432.68 797.55 863.00 562.94 842.99 773.39 1007.89 571.74 560.43 601.54 533.30 769.65 126.29 384.00 129.51 22.64 77.48 746.23 533.29 74.69 554.35 1083.04 651.24 691.39 558.53 529.45 745.55 451.38 725.72 573.10 1110.41 719.35 1119.23 423.27 261.88 805.00 188.25 1046.42 530.85 1068.16 1068.77 234.49 1043.84 1045.30 1110.13 608.53 1080.31 680.49 731.03 31.41 124.60 468.41 558.85 486.22 721.77 1034.37 480.08 525.97 334.84 840.79 537.15 575.11 553.48 736.57 1104.13 368.79 25.94 470.54 1090.25 471.52 1040.31 581.06 96.58 555.74 402.29 647.47 1074.19 480.03 749.16 952.89 635.16 1139.34 103.15 0.00 590.86 470.84 1094.38 178.11 407.31 453.33 602.42 382.16 1091.01 400.81 460.02 595.30 463.70 511.80 1080.30 499.99 1105.46 1083.45 993.93 254.30 596.73 492.65 697.25 244.28 791.02 352.01 520.64 733.31 211.65 852.14 880.58 143.01 772.28 724.53 116.36 811.30 523.51 76.16 498.41 1096.84 870.94 42.02 555.27 1112.97 563.86 405.01 701.95 51.72 587.61 1079.17 417.08 1128.93 604.77 126.76 1063.32 345.35 698.99
620.80 610.66 805.00 830.44 149.08 450.68 605.60 882.75 490.88 480.74 518.22 775.90 557.56 829.31 512.93 392.40 839.37 1017.37 125.73 797.49 708.17 867.15 877.58 350.93 61.07 788.84 841.75 342.00 770.83 514.79 871.84 327.88 551.90 869.00 204.49 793.03 606.85 172.75 605.47 132.28 176.77 140.74 55.27 713.58 872.65 853.47 886.42 542.65 892.79 862.63 911.53 112.42 507.25 867.31 86.53 438.50 892.92 777.26 634.24 996.79 213.38 735.46 768.53 107.99 827.15 830.74 822.29 468.85 80.47 921.34 121.32 770.31 507.01 284.67 496.72 593.21 528.73 819.62 812.23 591.25 43.67 818.18 191.52 792.38 115.30 846.55 798.08 249.73 888.65 921.09 828.61 767.61 912.54 304.25 353.97 742.58 635.49 853.87 274.86 948.93 781.73 431.25 904.57 889.09 867.37 904.27 774.82 717.79 798.30 578.47 529.08 397.40 74.30 389.94 744.48 918.32 259.50 169.05 316.82 742.60 127.90 896.14 884.72 948.71 947.19 461.14 572.08 357.79 825.95 219.00 934.02 27.42 521.01 57.72 355.22 826.12 816.54 128.38 794.05 924.51 55.16 982.40 626.67 590.86 0.00 194.09 859.74 420.11 325.38 335.49 925.55 374.45 876.14 290.32 178.40 771.24 202.68 127.46 830.52 803.41 775.56 935.22 792.91 551.17 97.32 140.65 974.61 568.10 692.83 390.22 82.40 859.18 644.84 767.49 694.98 584.16 724.74 215.92 492.49 886.48 135.78 597.70 144.15 929.20 914.11 584.21 755.57 949.17 922.80 305.68 760.66 574.73 15.43 862.44 374.80 951.66 908.83 568.12 791.56 305.71 140.29
555.88 518.43 863.24 1003.82 273.49 346.18 528.12 834.03 393.48 406.31 531.30 842.78 465.33 992.54 408.43 250.55 863.34 937.44 149.91 835.06 705.21 838.21 845.82 378.02 216.93 879.44 767.32 316.40 785.42 440.42 958.32 335.57 455.57 948.04 61.91 839.67 495.81 214.63 500.57 231.32 79.37 89.03 165.64 763.42 1005.21 1016.70 941.12 446.32 907.38 1016.67 905.79 81.67 432.82 1009.34 115.69 379.13 1018.55 816.50 488.30 1002.38 238.29 841.83 873.24 173.34 851.45 845.33 922.04 493.76 148.23 855.73 103.81 842.34 432.22 309.58 438.10 474.32 431.33 848.19 785.73 493.85 167.73 981.41 307.55 817.29 236.56 812.46 834.71 289.99 797.57 851.52 991.84 791.58 990.56 333.41 235.08 783.47 518.65 1017.10 309.83 1071.77 925.70 356.82 1030.26 1030.08 1017.44 907.92 968.91 799.66 831.29 482.14 470.46 422.31 145.75 466.85 769.39 1004.80 333.54 118.76 284.29 847.31 238.27 905.52 871.66 1006.47 1078.91 412.42 490.90 388.88 953.73 252.68 1048.39 190.65 436.54 159.76 364.60 851.03 979.77 93.05 826.42 975.65 205.67 1112.43 535.56 470.84 194.09 0.00 1022.97 322.71 363.13 364.65 876.83 384.73 1039.37 306.18 201.07 802.40 29.76 226.50 993.75 754.69 938.79 1056.48 874.20 451.28 182.54 70.75 984.90 428.32 812.65 385.62 145.95 868.56 565.69 884.10 868.09 486.76 816.56 344.88 396.16 921.34 159.75 535.78 224.64 924.55 991.56 499.07 781.60 999.43 874.08 330.59 785.57 513.88 178.66 968.83 367.61 1081.37 860.11 454.77 915.87 256.99 286.44
915.83 1100.99 522.95 50.66 810.99 1136.40 1140.37 1006.96 1157.13 946.80 708.87 505.18 1047.89 39.38 1158.35 942.16 595.36 1032.55 902.02 493.25 1042.04 580.74 928.04 793.24 853.98 465.71 1003.54 856.38 542.89 1077.97 139.42 837.92 1151.33 574.17 1021.09 508.30 1177.23 849.12 1082.83 814.86 984.38 947.93 861.45 558.85 40.97 35.13 574.40 1123.71 591.37 114.34 912.66 941.30 947.25 59.67 911.40 928.03 105.29 523.93 1227.81 881.82 881.82 500.69 431.14 912.40 511.56 499.03 300.59 637.25 911.43 949.53 938.31 530.75 1090.67 838.94 1075.61 1112.10 1156.21 573.10 841.54 1169.07 891.66 70.73 779.83 595.39 844.31 925.64 503.11 846.58 665.60 927.92 59.33 546.24 179.94 775.00 996.83 494.17 1207.84 73.42 754.78 138.32 101.39 917.12 91.49 78.77 35.76 958.43 106.28 576.80 531.97 1091.38 1070.44 758.35 881.34 683.94 532.18 134.17 824.65 917.72 888.10 457.07 788.82 908.07 929.02 982.81 109.97 796.26 1120.32 747.63 117.74 877.77 136.13 832.32 1158.36 868.55 759.70 601.19 46.28 951.56 534.14 247.31 836.45 145.18 1195.71 1094.38 859.74 1022.97 0.00 1105.83 813.67 805.78 898.60 779.83 64.91 922.30 875.06 715.72 1006.72 819.68 29.22 940.40 84.18 146.11 305.96 1020.43 878.61 975.43 1030.37 1014.78 482.81 837.27 898.81 630.86 1040.28 420.28 427.90 1207.20 514.72 790.42 1173.87 591.83 870.93 1170.54 846.26 163.57 603.03 1109.52 735.06 211.03 966.91 817.93 612.06 1132.08 844.31 84.92 813.87 159.77 952.27 1037.33 111.22 909.10 882.69
393.28 231.63 802.09 1055.17 479.87 30.57 208.59 646.68 70.77 300.56 563.43 813.55 198.45 1087.53 92.82 196.13 799.67 806.99 377.31 841.95 450.50 881.74 609.37 426.88 481.18 886.33 554.13 401.34 792.31 179.20 1140.21 392.61 132.86 919.57 328.15 846.56 186.74 378.60 245.86 469.95 243.34 382.26 448.66 754.22 1119.75 1104.24 936.99 123.61 914.27 1078.32 706.07 378.56 280.49 1078.62 423.45 320.45 1139.01 822.11 214.13 767.34 356.98 843.08 894.52 496.05 913.80 847.53 1021.44 555.41 443.27 691.94 397.65 808.23 109.51 377.39 195.54 180.15 108.62 839.61 574.32 171.14 432.46 1122.77 564.16 820.11 515.74 568.03 838.67 426.51 860.06 642.57 1106.72 805.09 1155.31 441.33 241.90 867.10 215.38 1127.98 484.02 1115.02 1092.52 275.21 1129.04 1113.56 1107.52 721.42 1103.14 721.21 827.62 159.43 163.18 451.07 437.17 526.94 740.16 1093.73 519.66 355.22 366.16 907.39 484.12 706.13 639.31 876.02 1144.77 431.48 168.19 501.16 1120.55 420.18 1137.03 444.88 126.34 446.40 378.59 785.01 1079.22 367.25 807.64 991.11 475.27 1155.68 226.49 178.11 420.11 322.71 1105.83 0.00 422.06 462.26 671.89 364.82 1134.36 322.16 397.19 729.64 292.95 465.13 1076.61 613.73 1081.30 1099.73 1003.34 322.28 479.43 335.48 804.40 306.88 863.76 362.91 411.30 829.48 298.81 904.76 927.72 164.05 855.18 627.90 73.45 893.55 408.40 226.71 442.71 1108.73 964.68 176.36 681.09 1153.69 686.73 398.40 788.39 191.17 435.54 1116.96 399.74 1196.06 694.90 209.01 1082.69 365.75 559.24
384.84 445.34 588.07 792.73 331.05 405.22 422.03 661.23 430.79 246.94 242.33 555.37 407.76 774.29 383.07 226.75 595.63 783.57 271.43 559.89 532.28 624.27 616.21 79.25 351.55 604.27 607.95 63.61 510.25 358.30 770.51 43.18 421.78 672.87 340.81 564.50 479.48 222.91 448.98 202.74 283.76 316.57 281.09 446.08 826.19 822.79 665.95 433.32 632.21 699.33 643.99 308.01 257.93 777.40 256.46 167.12 768.17 542.76 521.72 718.94 157.07 557.41 596.87 347.27 631.74 570.16 664.98 176.42 302.48 690.54 291.25 580.89 343.82 85.78 374.66 391.04 448.64 573.02 542.11 449.68 307.93 743.78 365.93 549.50 273.22 574.87 563.58 154.97 594.11 649.41 799.98 531.81 803.78 38.74 251.87 522.02 542.46 780.89 190.83 844.18 714.79 197.45 822.92 821.20 813.96 689.13 737.11 482.32 556.12 375.90 387.05 92.93 282.99 132.24 500.30 813.45 154.93 249.28 78.84 570.94 239.66 618.29 606.87 799.30 880.30 183.45 413.46 153.53 759.01 220.27 798.35 310.86 436.05 278.83 77.37 553.74 795.94 312.66 551.25 652.43 369.08 899.04 477.37 407.31 325.38 363.13 813.67 422.06 0.00 67.68 678.73 57.24 818.21 156.08 240.13 463.69 333.37 197.92 795.55 603.84 782.67 859.47 672.30 303.60 369.59 347.92 748.48 272.89 564.05 120.10 243.73 581.33 447.97 607.73 624.91 506.42 532.14 452.32 383.16 646.17 269.83 474.33 218.51 773.76 716.39 389.92 489.21 843.08 652.86 76.45 538.35 419.58 309.95 747.41 78.64 904.83 698.10 397.20 724.62 106.14 423.68
377.34 466.35 567.21 799.22 279.21 434.72 487.23 631.30 432.79 297.11 247.75 561.51 413.25 766.86 412.57 274.00 549.12 813.19 267.27 594.50 529.70 625.79 586.28 49.32 344.05 616.93 647.39 93.11 569.84 377.04 776.65 72.68 480.96 712.43 376.09 607.62 502.37 224.19 467.72 234.68 291.28 318.62 298.91 452.22 816.45 817.61 695.01 491.74 666.19 705.47 673.21 301.21 287.43 789.80 248.96 214.05 700.49 512.83 554.29 725.44 166.17 563.55 598.74 339.77 636.73 566.36 597.30 182.56 329.37 660.61 283.75 587.03 403.00 94.88 395.11 431.87 503.25 536.66 571.61 492.46 300.43 749.92 317.52 481.82 224.81 544.94 533.65 161.22 622.43 619.48 821.81 537.75 756.59 31.24 281.37 528.16 577.40 757.82 132.78 779.56 741.17 253.87 755.24 756.70 828.68 698.33 746.87 488.46 556.94 421.92 389.80 94.80 279.02 158.62 492.80 745.77 147.43 274.52 144.04 572.81 271.60 660.29 641.48 830.61 815.53 190.29 465.30 87.40 785.39 229.37 751.71 325.12 491.73 293.03 119.37 525.74 785.59 305.16 555.12 654.30 361.58 850.74 491.37 453.33 335.49 364.65 805.78 462.26 67.68 0.00 648.80 111.38 802.41 185.58 234.31 531.37 340.89 229.86 791.70 602.88 792.43 794.85 604.62 359.45 373.56 345.92 777.55 340.57 570.19 149.60 310.60 598.45 501.79 598.02 617.41 526.07 538.28 457.36 441.58 663.84 282.86 462.40 214.66 738.73 703.56 440.06 518.71 795.89 622.93 73.87 513.54 461.05 335.32 750.11 84.06 840.33 668.17 423.81 751.00 151.26 402.47
452.52 529.95 459.67 949.26 906.16 687.96 557.01 108.36 660.58 539.88 614.38 501.43 540.64 937.98 674.43 630.29 428.51 191.97 807.34 487.94 299.79 463.89 104.10 599.48 958.97 486.96 187.57 639.02 496.23 539.33 923.51 659.45 627.52 498.82 882.27 506.21 645.42 791.21 495.91 811.16 797.46 830.27 887.09 508.94 939.57 933.73 481.40 631.43 499.13 912.58 112.53 858.59 520.05 943.83 857.49 588.49 922.10 484.65 653.51 187.48 712.17 540.34 489.18 948.30 533.23 505.11 730.12 640.21 909.42 50.93 865.14 536.86 628.22 682.65 541.07 609.91 636.05 447.90 181.89 603.86 903.84 935.88 920.87 431.23 865.02 103.86 496.28 744.08 355.20 29.32 957.93 479.27 825.87 646.16 699.43 562.79 709.89 957.02 696.90 923.26 950.01 589.37 916.33 905.46 934.36 59.83 937.87 472.70 467.42 601.63 508.71 680.35 867.20 610.21 512.12 918.89 762.35 839.35 647.14 515.11 857.72 86.83 79.56 221.81 959.38 605.16 576.48 673.76 947.63 764.83 962.28 917.80 666.08 885.77 609.06 407.39 944.88 848.67 498.23 844.10 967.00 994.50 612.35 602.42 925.55 876.83 898.60 671.89 678.73 648.80 0.00 629.19 947.79 692.37 800.60 292.86 847.07 815.98 927.82 122.14 978.50 938.55 682.28 483.23 944.96 889.60 148.55 452.52 550.84 589.41 850.67 428.67 440.28 478.32 605.88 689.31 562.79 1061.85 645.42 455.18 838.43 605.45 817.28 871.55 543.93 592.03 304.06 865.17 68.31 661.64 399.51 570.41 917.64 903.32 634.22 984.39 53.67 551.20 940.18 619.84 1007.89
348.51 449.56 579.95 769.88 364.28 395.39 413.72 644.04 435.59 258.39 198.61 520.18 401.97 758.16 397.08 174.72 564.55 728.43 302.35 573.95 536.54 579.15 599.02 62.06 404.63 589.90 618.56 77.62 524.31 357.18 784.68 83.34 410.87 656.27 398.05 578.56 439.65 243.98 424.74 259.98 314.65 347.46 338.33 389.40 798.97 809.21 648.37 448.29 646.27 713.50 586.75 361.79 271.94 720.16 309.54 173.28 811.87 517.71 464.48 661.70 161.07 536.52 590.19 400.35 613.10 544.21 686.36 190.59 355.95 655.90 344.33 557.78 332.91 89.78 341.13 389.65 415.79 518.89 501.52 456.85 361.01 757.95 389.41 521.75 323.74 557.68 535.92 158.97 553.56 606.53 811.05 492.79 790.49 91.82 265.88 536.19 498.19 769.52 191.85 841.04 727.70 208.90 825.37 816.73 786.74 631.89 738.32 425.64 510.30 402.89 373.49 86.25 338.28 171.36 476.23 827.51 208.01 271.47 136.08 564.26 296.90 561.05 549.63 742.06 842.67 126.21 356.22 136.34 755.73 224.27 772.21 367.91 429.18 336.07 20.13 530.29 787.74 365.74 515.85 626.29 422.16 877.88 433.43 382.16 374.45 384.73 779.83 364.82 57.24 111.38 629.19 0.00 783.88 142.47 244.39 520.93 354.97 255.16 791.32 615.62 783.88 852.61 638.52 305.71 424.79 351.92 691.24 275.81 543.16 79.51 300.97 524.09 450.89 601.05 569.26 489.10 511.25 496.80 426.09 617.20 307.88 434.31 250.71 743.91 696.57 401.37 490.46 818.79 635.67 80.71 553.47 419.14 359.92 758.50 34.92 884.11 642.18 408.65 717.87 137.03 478.97
962.46 1108.44 552.15 79.19 818.44 1143.47 1147.82 1004.57 1127.38 948.32 705.42 542.90 1055.34 46.83 1140.06 950.62 602.81 1003.25 904.25 508.05 1035.80 600.11 935.49 783.70 861.43 463.67 1000.30 838.63 557.69 1059.68 122.03 818.20 1144.93 589.78 1042.88 522.03 1173.86 910.35 1101.85 844.05 1031.52 972.51 893.14 566.30 70.16 88.47 572.36 1095.19 580.57 118.88 923.18 957.70 974.83 68.13 938.50 887.32 101.92 573.10 1201.54 866.29 897.26 507.65 476.76 919.85 492.07 545.38 283.85 641.79 927.83 980.39 945.76 522.70 1077.32 839.09 1076.04 1113.65 1127.69 607.24 821.47 1165.70 908.21 130.74 844.74 577.10 859.72 922.13 552.28 882.05 676.12 966.67 79.54 587.29 185.42 782.45 1026.89 499.65 1246.22 44.90 771.18 91.27 135.66 898.83 75.96 60.48 82.39 1002.71 134.81 578.60 553.80 1109.44 1054.91 763.17 908.44 718.21 540.64 104.42 840.58 951.99 888.25 450.83 823.09 915.52 928.77 993.33 95.17 855.19 1116.95 755.08 146.80 894.17 89.19 848.72 1129.84 902.82 768.16 621.02 84.02 979.22 566.64 235.11 843.90 130.38 1194.16 1091.01 876.14 1039.37 64.91 1134.36 818.21 802.41 947.79 783.88 0.00 926.35 891.46 715.47 1030.66 848.87 91.62 941.10 100.58 106.56 265.51 1042.29 886.06 991.49 1045.71 1032.53 491.27 823.92 915.85 628.82 1086.91 469.47 411.16 1178.68 523.18 797.87 1145.35 624.52 905.20 1167.17 875.45 166.01 634.89 1091.30 749.86 146.12 991.85 818.08 608.82 1135.75 860.71 92.37 748.96 103.94 1000.22 1044.78 145.49 880.38 923.74
406.44 411.25 699.13 912.35 231.81 291.59 440.07 649.57 355.28 253.68 341.08 657.14 378.85 896.31 337.99 185.94 672.09 790.31 204.66 664.03 574.91 721.62 661.36 181.24 309.64 691.67 614.69 128.45 666.33 336.08 903.28 112.90 352.48 798.74 334.96 682.30 450.87 146.67 426.76 198.44 250.15 274.81 251.37 531.87 941.44 951.68 784.01 349.45 766.08 855.09 718.40 278.81 280.19 862.63 228.93 158.95 886.07 616.09 455.80 782.20 99.41 678.99 648.56 272.95 737.94 686.68 742.12 332.18 254.92 688.16 256.67 668.38 274.52 98.07 318.01 379.66 379.34 661.36 560.89 414.19 268.41 899.54 331.17 629.74 260.25 628.00 636.91 137.01 696.03 698.97 945.82 635.26 923.74 160.69 222.03 609.51 499.89 911.99 226.45 942.69 860.63 204.19 905.61 921.09 929.21 731.14 862.87 568.11 652.77 376.93 350.37 210.80 252.28 278.08 598.84 856.80 240.34 187.42 99.83 673.35 232.92 692.70 692.10 859.34 965.90 227.96 413.09 224.22 898.20 115.06 914.68 280.25 361.87 232.60 162.60 637.20 930.21 279.63 658.32 768.76 292.11 968.76 446.29 400.81 290.32 306.18 922.30 322.16 156.08 185.58 692.37 142.47 926.35 0.00 111.92 614.45 276.42 203.26 933.79 570.23 897.05 957.98 780.99 338.59 306.74 287.09 788.01 307.88 659.26 138.88 230.33 666.56 412.84 659.42 711.73 432.94 653.72 430.61 308.98 759.67 175.41 440.28 187.22 883.55 820.45 358.79 558.93 955.24 689.62 119.08 646.69 370.79 274.89 886.93 177.39 1004.72 675.65 388.18 860.34 72.53 350.89
517.77 511.94 719.01 855.91 119.89 399.36 491.58 710.52 420.05 365.60 396.49 701.74 490.77 844.63 395.66 289.36 713.82 902.23 92.74 755.81 619.51 729.15 712.34 201.12 224.39 770.49 726.61 217.38 706.17 448.00 925.09 196.95 426.06 815.79 238.66 745.34 527.43 34.75 538.68 86.52 153.85 169.70 139.45 633.79 860.41 868.79 798.37 416.81 807.85 877.95 793.03 166.89 392.11 882.63 117.01 270.87 908.24 664.63 523.16 872.13 114.81 717.11 750.18 204.29 788.53 761.80 800.03 370.28 177.16 768.70 144.75 736.86 386.44 155.98 429.93 467.51 449.31 701.36 670.23 487.77 156.49 833.50 219.25 646.52 148.33 696.74 685.45 149.25 764.33 771.28 843.93 689.55 863.16 203.07 291.32 715.88 564.66 869.19 120.28 964.25 808.43 316.11 919.89 904.41 872.64 820.89 836.44 670.03 660.30 452.63 462.29 268.71 140.36 277.30 641.91 878.61 216.49 82.31 178.82 724.25 121.00 802.04 745.50 957.69 962.51 329.31 434.08 242.97 832.77 51.61 932.02 171.85 419.54 120.68 264.52 690.44 831.86 167.71 691.11 786.10 206.86 997.72 511.29 460.02 178.40 201.07 875.06 397.19 240.13 234.31 800.60 244.39 891.46 111.92 0.00 692.30 171.31 91.34 845.84 682.15 790.88 950.51 832.03 413.17 219.36 179.98 845.92 419.80 674.48 248.22 118.41 763.15 524.76 749.14 743.23 500.30 706.39 318.69 366.65 767.20 63.49 512.17 75.30 911.67 860.90 469.56 642.98 902.46 750.57 163.68 662.09 471.48 162.97 845.96 232.80 966.98 784.36 500.10 798.60 184.45 238.97
496.41 539.53 263.91 712.72 752.40 747.45 550.49 318.58 696.10 596.95 456.79 261.04 592.63 719.22 685.20 609.24 203.73 407.76 734.68 293.60 489.05 211.34 268.50 542.94 815.24 303.16 382.88 486.00 243.96 602.33 668.34 506.43 612.06 344.75 804.50 278.52 645.58 686.60 618.40 666.43 723.03 755.84 744.78 271.42 737.97 725.60 336.16 661.80 268.40 661.20 266.08 771.70 535.46 681.22 720.15 615.49 706.63 191.79 726.69 341.03 614.62 285.72 317.39 810.96 315.69 244.62 474.95 412.59 764.33 316.21 754.94 250.87 637.55 548.07 620.40 588.36 638.92 184.67 208.89 669.99 771.62 695.49 791.14 138.37 736.91 309.55 212.61 617.26 130.42 270.20 738.22 186.41 586.29 502.43 674.26 272.06 770.30 730.58 654.08 701.20 724.62 611.46 670.47 654.99 746.44 295.56 731.94 235.18 198.09 571.42 620.03 533.97 746.68 554.40 219.26 673.75 618.62 686.18 542.53 307.85 703.35 240.38 213.30 447.63 723.95 550.92 607.99 600.25 725.00 677.82 684.51 767.80 651.69 742.52 541.06 114.53 688.67 774.24 216.22 552.76 826.40 759.16 605.83 595.30 771.24 802.40 715.72 729.64 463.69 531.37 292.86 520.93 715.47 614.45 692.30 0.00 772.64 661.61 716.35 328.52 729.65 716.49 510.49 601.01 833.17 810.21 370.57 602.99 258.08 555.22 707.42 138.01 620.86 306.53 347.64 701.94 276.31 845.12 656.19 279.28 733.52 634.80 682.20 598.88 339.00 553.28 76.44 625.59 278.53 539.70 106.65 579.99 755.81 700.72 542.33 738.62 305.85 596.87 734.45 545.41 887.37
547.61 524.58 833.48 1000.97 266.18 316.42 501.54 804.27 363.72 376.55 510.18 813.02 482.22 984.61 378.67 280.31 841.04 907.68 126.41 805.30 706.54 808.45 816.06 348.26 213.11 849.68 737.56 286.64 755.66 432.15 966.74 305.81 425.81 918.28 79.21 809.91 479.69 184.87 520.99 224.92 49.61 92.70 179.18 733.66 998.81 1013.33 911.36 416.56 877.62 986.91 876.03 105.46 403.06 979.58 130.50 367.75 1041.38 811.77 458.54 975.85 208.53 825.52 858.59 203.10 821.69 815.57 915.09 464.00 154.70 842.86 126.52 842.41 402.46 279.82 421.38 466.05 401.57 818.43 774.35 464.09 161.33 989.64 313.26 787.53 254.43 782.70 814.21 260.23 767.81 857.24 988.68 787.29 1013.27 332.28 226.81 809.60 508.33 1005.85 285.90 1053.09 905.33 327.06 1028.34 1012.86 1004.50 885.84 977.50 769.90 801.53 452.38 453.74 392.55 159.29 442.92 739.63 1011.50 303.78 89.00 254.53 832.66 217.90 875.76 863.39 976.71 1081.82 382.66 461.14 381.57 933.36 222.92 1070.22 214.44 406.78 174.57 334.84 821.27 993.40 74.30 796.66 951.72 228.38 1093.75 519.44 463.70 202.68 29.76 1006.72 292.95 333.37 340.89 847.07 354.97 1030.66 276.42 171.31 772.64 0.00 220.10 986.09 724.93 956.50 1037.80 891.50 443.01 206.33 64.35 955.14 458.08 782.89 355.86 162.07 838.80 582.58 857.55 838.33 457.00 814.80 358.42 366.40 891.58 157.50 519.66 228.31 947.26 961.80 469.31 751.84 1022.14 844.32 300.83 755.81 484.12 202.45 939.07 346.49 1096.49 830.35 484.53 895.50 227.23 266.29
494.42 579.20 770.36 824.81 133.13 451.14 543.36 773.18 476.55 383.53 411.06 714.31 559.68 818.00 428.83 341.14 738.84 952.29 103.00 757.81 682.36 758.40 781.34 277.17 188.53 754.99 764.47 241.32 708.17 517.17 880.40 241.10 503.86 835.26 211.05 755.98 594.65 86.53 591.16 4.82 221.79 162.19 107.29 626.57 778.71 803.88 841.87 508.00 824.54 862.61 820.81 175.31 435.64 856.00 125.43 320.93 893.61 659.69 614.35 911.09 181.92 722.65 720.42 159.90 783.59 758.30 744.99 374.34 156.75 811.77 153.17 747.73 477.78 205.52 512.34 519.29 530.72 708.86 727.53 565.57 134.88 818.16 168.01 681.76 75.30 740.00 680.51 142.57 792.03 814.54 812.52 684.61 891.20 236.66 345.31 719.94 621.16 851.08 155.78 882.99 729.17 366.17 872.94 882.39 790.94 854.75 817.42 590.33 703.80 532.53 544.70 290.85 114.24 262.48 640.92 914.11 133.68 143.16 230.60 746.35 41.74 810.44 781.00 995.82 912.74 364.07 485.86 245.75 757.20 132.78 912.29 124.02 509.04 94.26 269.52 710.98 817.96 177.97 701.98 806.94 182.62 923.65 563.07 511.80 127.46 226.50 819.68 465.13 197.92 229.86 815.98 255.16 848.87 203.26 91.34 661.61 220.10 0.00 809.93 693.84 793.69 867.70 783.31 464.95 171.67 155.75 895.46 469.86 709.98 310.54 115.93 773.48 558.47 709.56 795.01 569.83 724.30 257.28 457.84 810.70 71.91 563.95 26.58 886.42 880.37 535.13 628.11 930.50 813.23 226.53 650.04 562.82 112.03 839.64 257.84 920.00 799.26 565.92 719.34 257.90 247.39
925.49 1090.81 552.17 21.44 801.25 1107.18 1130.19 1011.16 1147.38 946.33 719.38 504.71 1037.71 44.79 1156.27 940.13 578.49 1025.04 881.39 522.47 1070.76 607.86 933.45 772.61 858.75 494.93 1032.76 838.83 542.61 1067.86 149.97 828.49 1137.25 600.95 1004.15 523.48 1163.15 864.73 1084.22 814.75 985.90 926.89 840.82 564.26 47.51 27.63 583.53 1123.13 620.59 113.50 898.86 912.08 946.78 71.16 890.77 936.16 91.21 553.15 1213.73 901.25 852.60 529.91 460.36 883.67 524.14 528.25 299.75 636.41 882.21 956.07 922.59 538.60 1102.16 841.86 1075.14 1102.94 1155.63 602.32 870.76 1154.99 862.59 70.26 809.05 612.06 823.68 924.80 532.33 817.36 651.80 957.14 30.11 575.46 192.56 780.41 978.23 506.79 1188.70 72.84 725.56 154.87 80.76 915.04 110.92 95.44 45.42 987.65 77.06 582.21 561.19 1083.88 1050.67 729.13 860.71 663.31 543.67 136.49 817.15 897.09 874.39 485.79 768.19 913.48 929.65 969.01 139.19 795.79 1106.24 737.89 89.05 848.55 142.43 803.10 1157.78 847.92 771.19 601.82 27.68 930.93 563.36 252.72 841.22 173.65 1183.45 1080.30 830.52 993.75 29.22 1076.61 795.55 791.70 927.82 791.32 91.62 933.79 845.84 716.35 986.09 809.93 0.00 969.62 54.96 139.58 296.22 992.86 883.38 959.57 1043.67 1014.31 494.30 848.76 870.23 637.89 1049.94 449.50 427.06 1206.62 526.21 795.83 1150.06 621.05 850.30 1156.46 836.51 175.06 625.23 1102.02 726.45 210.82 993.75 823.34 641.28 1127.56 815.09 75.18 807.35 162.80 975.90 1027.15 90.59 898.24 875.19
406.60 407.81 498.86 970.76 794.56 631.54 489.37 79.34 582.84 565.24 616.07 521.92 446.30 944.20 569.29 654.81 427.65 314.11 685.20 524.71 261.96 491.00 91.13 553.56 855.98 539.94 167.23 557.11 475.07 493.41 938.00 576.28 539.57 581.53 760.13 514.24 523.28 669.07 449.99 689.02 675.32 708.13 764.95 480.39 981.37 975.53 567.27 563.98 551.03 869.24 151.10 736.45 572.69 921.04 735.35 526.23 946.51 473.31 575.20 250.92 590.03 525.73 509.26 826.16 586.21 533.75 744.61 680.94 787.28 117.93 743.00 505.76 544.54 574.16 495.15 501.81 560.08 467.70 119.63 555.89 781.70 913.69 835.59 466.89 742.88 57.94 458.06 621.94 398.16 132.48 999.73 489.08 822.97 600.24 621.08 559.36 663.46 950.80 683.20 937.88 961.91 571.47 941.02 925.54 976.16 160.91 971.17 444.15 429.20 481.09 462.79 622.36 745.06 634.08 448.53 927.93 677.69 726.20 525.00 535.19 735.58 175.09 146.33 306.92 974.00 523.20 501.15 627.84 974.65 653.23 968.17 795.66 566.17 763.63 617.96 443.05 965.85 726.53 460.01 847.48 844.86 1009.12 512.28 499.99 803.41 754.69 940.40 613.73 603.84 602.88 122.14 615.62 941.10 570.23 682.15 328.52 724.93 693.84 969.62 0.00 956.31 953.17 724.08 489.30 822.82 767.46 230.21 520.01 537.87 541.64 728.53 374.79 422.55 520.12 625.96 591.96 528.26 939.71 540.28 536.10 716.29 483.31 720.42 844.33 575.78 480.79 394.44 862.27 119.39 595.17 435.17 448.27 795.50 917.32 588.30 1001.15 105.42 435.74 952.08 497.70 885.75
972.84 1074.57 585.56 65.03 812.95 1111.87 1113.95 984.73 1152.07 918.69 692.95 477.07 1021.47 53.75 1111.48 885.17 591.79 1038.34 851.77 563.76 1065.49 619.56 936.93 759.73 822.47 545.95 1020.30 825.95 547.81 1050.40 142.58 815.61 1143.17 614.25 949.19 545.49 1150.10 809.77 1067.98 798.51 930.94 871.93 792.56 553.58 97.09 77.91 596.83 1128.60 649.84 87.07 912.16 857.12 919.14 91.75 837.92 932.83 117.36 546.32 1234.95 919.34 797.64 508.02 515.32 828.71 549.05 583.21 273.32 609.98 827.25 969.37 867.63 512.17 1073.77 810.36 1047.50 1115.03 1159.50 595.49 874.44 1173.43 807.63 42.62 864.01 630.15 807.44 898.37 566.21 781.47 665.10 972.91 53.05 571.24 218.84 789.37 978.70 505.44 1232.29 78.31 670.60 173.37 78.15 902.16 129.01 113.53 92.77 1013.03 45.56 549.92 569.78 1112.77 1056.74 697.63 807.86 650.43 550.46 161.40 766.81 873.19 859.52 496.86 751.95 891.67 934.97 982.31 171.63 768.15 1099.93 745.21 71.59 793.59 158.46 748.14 1163.25 802.42 782.48 615.12 40.98 890.33 538.97 230.09 830.31 206.84 1169.29 1105.46 775.56 938.79 84.18 1081.30 782.67 792.43 978.50 783.88 100.58 897.05 790.88 729.65 956.50 793.69 54.96 956.31 0.00 188.66 301.15 1008.41 858.04 904.61 1021.86 986.67 490.19 820.37 815.27 649.59 1053.88 504.46 400.63 1212.09 522.10 804.79 1140.49 676.01 820.68 1178.02 820.27 185.34 659.36 1094.63 739.75 224.12 972.66 821.89 634.45 1103.97 760.13 86.88 794.47 176.10 989.20 1010.91 74.35 856.10 915.85
1016.47 1116.11 562.90 161.02 877.21 1130.30 1140.73 1002.83 1124.14 965.19 696.18 505.79 1063.01 137.51 1156.93 1027.33 620.67 927.27 970.70 533.20 1052.67 620.69 940.92 837.17 952.11 505.66 1011.43 887.96 571.50 1071.69 134.06 867.53 1134.45 608.43 1063.40 526.63 1166.30 946.40 1109.52 872.52 1051.19 1000.97 938.25 576.62 142.55 162.44 602.66 1160.64 571.78 160.14 941.04 974.81 991.70 159.71 964.44 960.94 94.36 575.04 1216.88 852.45 913.65 493.81 466.89 999.59 488.83 538.98 282.11 683.05 997.63 989.48 971.05 503.30 1115.83 876.29 1073.43 1106.09 1160.93 616.50 833.54 1158.14 968.46 188.31 912.63 593.97 819.92 934.20 569.15 895.21 693.98 967.87 163.62 568.29 130.20 826.09 1059.86 444.43 1268.75 110.35 830.23 15.29 220.34 915.70 62.12 77.35 144.12 998.38 216.64 576.52 574.59 1114.86 1041.07 785.82 934.38 801.74 579.18 101.18 734.02 1004.31 912.75 467.70 875.41 920.39 929.79 995.31 45.04 913.84 1109.39 813.85 221.36 939.12 80.40 920.23 1174.08 954.36 859.74 601.96 149.90 1004.91 543.78 226.32 934.58 55.95 1186.60 1083.45 935.22 1056.48 146.11 1099.73 859.47 794.85 938.55 852.61 106.56 957.98 950.51 716.49 1037.80 867.70 139.58 953.17 188.66 0.00 256.27 1046.05 976.74 1023.45 1050.58 1015.34 494.18 862.43 955.67 670.81 1140.92 460.23 409.42 1217.42 498.13 888.55 1173.18 615.73 939.61 1159.61 892.95 182.88 638.78 1108.17 763.67 144.04 995.02 868.72 625.69 1122.51 932.22 151.14 855.52 96.33 992.22 1052.45 230.17 885.45 997.58
824.34 979.11 306.63 298.94 868.65 1023.56 1037.11 768.56 1031.64 836.69 439.91 347.78 967.01 266.58 1012.73 813.24 386.28 822.73 817.39 276.93 825.72 364.42 711.45 638.34 844.13 249.39 794.82 693.27 323.85 938.20 241.23 672.84 1009.92 357.85 812.29 291.98 1076.78 812.66 926.01 788.13 895.90 824.12 737.64 418.47 331.52 312.30 346.39 1055.94 375.05 230.30 696.55 839.28 844.97 261.55 787.59 741.96 281.89 349.71 1038.70 700.50 763.18 284.37 214.82 840.02 295.24 282.71 47.84 522.88 804.65 733.21 822.38 286.69 931.96 691.89 927.35 971.29 1036.78 360.23 667.93 1068.62 767.85 271.61 755.84 407.86 829.43 752.79 329.50 708.40 449.49 711.60 324.92 351.68 151.97 635.86 803.59 304.59 1117.30 274.74 719.54 240.98 309.57 787.20 269.14 284.62 328.13 742.11 255.59 410.78 358.36 992.01 931.74 644.26 757.53 659.29 369.18 236.61 659.15 865.82 741.05 240.75 810.27 722.25 723.79 766.70 277.10 697.19 994.74 692.02 265.35 800.68 309.81 782.06 1028.23 756.41 658.65 408.26 275.37 842.52 332.44 176.58 848.07 312.22 1039.61 993.93 792.91 874.20 305.96 1003.34 672.30 604.62 682.28 638.52 265.51 780.99 832.03 510.49 891.50 783.31 296.22 724.08 301.15 256.27 0.00 831.25 855.09 864.63 830.83 861.96 264.71 678.56 775.00 414.54 910.90 203.96 175.15 1087.84 296.62 847.09 1032.60 375.51 822.10 1052.22 756.73 189.27 386.71 979.67 516.02 191.27 750.59 672.72 430.91 1004.01 777.48 221.04 603.60 346.09 735.95 972.03 303.21 735.02 892.14
104.60 162.12 610.90 1014.30 533.06 311.93 243.68 510.88 329.46 118.07 467.59 608.62 151.34 1022.06 307.50 208.48 585.79 656.31 479.18 563.16 353.16 652.71 475.58 338.64 555.44 603.25 374.65 266.34 599.14 163.30 991.33 286.77 286.71 701.52 478.21 544.89 307.72 378.42 197.85 469.77 393.40 484.41 537.71 520.88 996.90 988.81 687.50 279.25 700.38 987.39 469.00 512.73 89.27 1001.23 529.33 179.64 977.16 613.17 359.64 570.11 366.31 635.36 622.05 577.86 649.52 586.15 817.06 478.38 524.59 503.28 519.28 633.85 247.36 328.41 145.23 244.90 292.91 568.71 490.83 289.54 507.50 965.79 584.08 560.86 519.16 453.26 630.58 377.30 549.39 453.91 962.75 600.16 956.42 342.34 216.20 669.98 395.65 1023.94 434.42 1035.59 960.61 165.27 1019.10 1003.62 984.67 502.64 1003.75 484.64 619.81 235.40 177.59 357.11 539.04 417.00 535.23 1005.41 444.42 495.48 301.28 637.56 490.30 494.70 420.38 661.45 1001.01 240.26 233.34 394.05 1004.83 424.67 966.76 534.21 268.06 533.85 306.51 594.60 1012.30 502.81 599.55 820.84 572.97 1036.22 273.95 254.30 551.17 451.28 1020.43 322.28 303.60 359.45 483.23 305.71 1042.29 338.59 413.17 601.01 443.01 464.95 992.86 489.30 1008.41 1046.05 831.25 0.00 593.43 485.54 591.36 30.71 645.09 228.94 514.12 661.62 200.12 632.91 689.75 358.25 618.61 715.99 278.49 689.11 476.66 267.75 451.56 921.81 656.41 227.93 524.57 917.12 474.28 313.48 529.14 202.58 546.20 1016.36 303.90 1078.63 512.93 140.78 970.44 273.98 652.14
638.90 649.42 887.48 871.59 246.40 491.33 594.05 902.16 524.97 497.06 531.09 851.08 600.17 839.23 490.36 394.00 817.84 1062.56 137.62 879.97 770.35 899.91 913.95 389.00 59.69 871.32 856.93 347.17 868.15 534.28 946.26 365.87 553.16 951.48 205.64 875.51 658.14 226.79 610.27 176.49 236.09 129.19 117.45 783.03 917.80 892.63 968.90 569.53 947.26 914.19 973.92 100.87 541.49 877.23 124.60 465.69 920.77 825.46 664.87 1061.41 281.11 817.94 851.01 33.79 909.63 898.67 902.47 536.58 68.84 940.75 114.46 852.79 524.64 344.11 552.35 616.47 580.02 860.58 838.40 614.87 97.71 900.66 251.47 838.78 209.53 880.76 843.67 314.24 891.15 955.30 905.25 800.54 975.47 342.32 377.23 825.06 662.38 889.18 318.79 961.45 864.21 476.44 914.62 928.25 914.37 949.46 872.14 762.00 852.34 605.20 564.90 454.85 118.66 434.15 803.88 963.43 305.35 185.35 362.37 825.08 178.41 960.76 944.01 1046.03 974.91 495.05 622.29 368.93 893.87 258.23 967.78 109.90 561.97 98.68 419.84 864.56 855.70 141.56 828.01 978.61 42.16 1010.12 649.39 596.73 97.32 182.54 878.61 479.43 369.59 373.56 944.96 424.79 886.06 306.74 219.36 833.17 206.33 171.67 883.38 822.82 858.04 976.74 855.09 593.43 0.00 158.28 1030.81 571.77 775.31 416.39 127.59 923.80 688.80 849.97 792.30 618.25 807.22 286.28 519.37 937.92 168.71 646.17 198.25 935.20 996.59 603.70 786.53 936.17 942.21 365.12 807.06 618.29 112.75 884.77 417.68 990.00 928.24 610.73 856.01 339.62 160.41
581.61 503.09 861.42 969.64 227.01 366.05 531.91 846.80 406.25 440.90 473.26 819.43 490.58 958.36 428.30 321.30 821.92 972.03 87.24 855.90 737.20 850.98 855.05 343.53 175.56 893.08 799.64 324.21 820.01 455.25 995.45 305.35 444.32 949.03 76.43 874.17 522.22 167.99 537.09 160.57 92.14 71.90 126.99 741.32 934.46 959.63 931.61 459.09 921.19 991.68 899.19 84.31 467.41 986.81 96.96 410.28 990.66 775.08 522.89 1000.37 230.73 846.25 858.51 161.06 886.04 848.29 891.66 486.20 107.79 885.39 62.17 813.18 366.36 262.14 468.49 471.50 444.10 824.25 787.92 506.03 96.98 947.23 272.34 793.81 221.56 825.23 793.29 246.23 832.16 899.77 957.66 750.16 948.92 314.68 269.34 828.21 533.17 956.20 268.41 1038.74 884.92 391.41 1003.92 988.44 946.69 928.37 915.47 746.08 793.54 468.77 485.87 374.87 107.10 418.23 761.83 966.51 289.43 137.15 297.06 852.88 197.49 910.38 893.63 1041.06 1037.27 425.19 503.67 342.40 912.95 207.85 1006.75 156.47 461.82 127.08 369.46 813.63 945.59 53.50 793.89 934.23 164.03 1072.48 561.97 492.65 140.65 70.75 975.43 335.48 347.92 345.92 889.60 351.92 991.49 287.09 179.98 810.21 64.35 155.75 959.57 767.46 904.61 1023.45 864.63 485.54 158.28 0.00 952.08 499.07 821.88 365.91 114.74 873.42 590.94 847.65 835.63 476.47 841.92 306.23 408.93 900.44 118.33 546.61 164.67 882.91 989.84 450.63 751.38 957.79 886.85 281.37 778.01 462.63 156.08 953.08 350.49 1039.73 872.88 480.02 875.09 269.76 247.79
525.93 631.70 539.28 1031.24 965.76 804.97 705.56 157.72 741.28 671.25 705.29 544.79 644.78 998.88 754.19 746.09 470.70 145.01 904.72 580.94 382.90 507.25 211.52 734.66 1030.67 625.32 289.10 752.01 556.08 674.51 994.67 733.15 679.16 577.46 990.34 599.21 697.19 870.68 587.54 900.28 905.53 938.34 943.82 552.30 1071.34 1058.44 594.88 680.79 598.51 987.53 150.33 938.49 658.30 1010.38 951.14 668.60 1021.28 539.06 743.49 230.84 761.23 597.28 637.73 1015.24 635.28 564.17 801.28 710.02 961.97 140.91 916.35 562.43 732.01 689.94 676.25 682.66 706.02 534.49 262.00 693.84 974.03 979.24 1012.29 508.94 930.33 239.04 527.26 759.13 397.39 167.57 1071.06 542.46 920.38 753.88 807.56 606.15 764.19 1046.53 796.20 1035.29 1041.43 699.60 1021.17 1019.06 1066.13 88.72 1036.72 516.06 556.12 693.05 643.89 755.96 938.99 694.70 537.87 997.13 832.21 897.40 739.10 661.59 937.20 130.19 170.98 196.18 1067.89 675.22 671.31 789.48 1040.20 824.43 1037.37 973.59 715.44 941.56 671.11 485.10 1021.51 956.74 558.29 923.33 1018.21 1103.10 657.44 697.25 974.61 984.90 1030.37 804.40 748.48 777.55 148.55 691.24 1045.71 788.01 845.92 370.57 955.14 895.46 1043.67 230.21 1021.86 1050.58 830.83 591.36 1030.81 952.08 0.00 590.77 623.69 684.01 906.46 485.43 544.42 626.87 713.25 764.28 606.15 1110.91 730.95 569.57 909.41 686.41 868.88 913.53 622.57 697.31 373.87 947.96 173.59 710.95 477.22 672.16 973.43 995.32 717.76 1018.37 157.92 644.61 1031.60 727.91 1079.68
135.31 192.83 641.61 1011.81 539.69 328.56 274.39 530.75 312.06 87.36 450.98 577.91 174.09 991.35 317.56 177.77 576.97 644.49 488.57 593.87 322.45 622.00 497.98 322.03 524.73 633.96 405.36 261.85 609.84 179.93 1003.64 282.28 261.04 732.23 456.84 575.60 277.01 409.13 178.15 474.68 424.11 499.88 523.06 490.17 1027.61 1019.52 718.21 272.00 706.39 956.68 499.71 509.99 67.53 977.03 507.33 148.93 972.43 582.46 328.93 593.14 381.78 613.17 652.76 580.83 680.23 616.86 816.87 449.31 540.18 472.57 532.13 614.59 263.99 322.85 161.86 237.34 287.90 599.42 520.59 309.62 538.21 944.05 555.66 591.57 516.31 483.97 599.87 346.59 580.10 423.20 993.46 569.45 925.71 311.63 246.91 639.27 420.79 1026.39 429.93 1006.42 971.13 136.85 990.68 975.20 1015.38 502.05 993.45 453.93 591.98 220.40 194.22 348.59 524.96 388.58 504.52 974.70 427.82 495.30 274.58 662.12 511.60 525.41 451.09 661.56 970.30 218.52 262.18 363.34 1005.01 422.94 997.47 552.83 237.35 520.80 293.84 574.58 996.21 518.28 568.84 851.55 542.26 1005.51 243.24 244.28 568.10 428.32 1014.78 306.88 272.89 340.57 452.52 275.81 1032.53 307.88 419.80 602.99 458.08 469.86 1014.31 520.01 986.67 1015.34 861.96 30.71 571.77 499.07 590.77 0.00 619.81 259.65 485.70 692.33 175.08 663.62 689.56 327.54 587.90 702.30 290.24 697.05 483.29 237.04 443.28 891.10 687.12 202.26 546.54 886.41 504.99 303.37 559.85 233.29 552.67 994.62 287.29 1047.92 485.23 171.49 980.96 289.45 639.45
626.11 733.65 112.17 472.86 771.15 856.52 808.57 574.44 874.40 645.02 426.19 83.07 723.78 461.14 853.11 690.97 169.49 599.54 735.37 104.66 634.74 198.00 446.74 558.89 739.74 96.01 568.64 617.21 129.04 751.98 410.26 596.78 832.21 176.17 862.10 100.20 814.65 693.37 661.30 705.16 814.54 789.20 709.83 153.76 501.95 512.19 193.59 855.01 221.67 403.12 473.36 774.39 645.47 423.14 755.19 657.12 466.05 127.49 895.76 464.26 643.10 42.63 75.70 745.98 134.32 138.80 216.87 387.63 744.52 530.57 784.90 77.48 754.25 621.74 754.89 789.85 850.46 176.66 440.54 865.71 724.90 447.57 829.51 187.47 765.72 488.08 106.67 665.07 226.30 521.52 524.41 110.24 363.98 585.16 768.58 49.75 978.11 472.50 554.20 478.89 549.97 611.88 438.17 440.12 489.72 553.64 505.05 165.88 130.97 769.13 722.53 509.01 725.13 527.53 123.60 441.90 645.42 756.79 621.39 49.77 742.59 497.67 471.38 543.51 498.46 494.48 815.80 543.49 508.53 677.19 482.14 665.41 836.67 719.69 563.29 143.55 490.72 807.60 101.22 398.01 747.58 533.67 774.90 791.02 692.83 812.65 482.81 863.76 564.05 570.19 550.84 543.16 491.27 659.26 674.48 258.08 782.89 709.98 494.30 537.87 490.19 494.18 264.71 645.09 775.31 821.88 623.69 619.81 0.00 554.70 732.54 238.07 710.31 74.66 89.56 899.65 31.91 877.89 854.89 193.65 704.28 803.87 736.56 358.30 221.28 787.27 305.33 403.28 536.61 617.76 201.57 739.30 677.40 451.20 578.08 515.12 550.40 718.37 546.39 648.69 833.12
333.54 388.35 612.86 827.32 368.11 393.48 409.29 609.03 396.58 207.83 238.65 560.09 370.10 815.60 383.05 254.23 533.21 721.20 305.17 632.18 540.37 615.28 564.01 109.70 416.25 650.71 570.29 69.22 595.18 320.64 843.53 76.92 331.36 729.65 391.06 642.91 434.86 278.09 411.32 305.72 306.25 339.06 359.43 468.91 856.41 866.65 712.23 377.38 662.63 772.35 579.52 367.38 235.79 777.60 345.19 175.64 850.09 573.21 473.66 654.47 176.84 597.33 630.40 400.82 689.02 601.65 726.40 249.44 347.55 609.46 369.64 599.93 253.40 105.55 336.64 358.54 358.22 586.15 422.01 393.07 378.75 816.80 393.24 578.41 345.94 522.67 585.21 174.74 606.52 560.09 873.42 551.63 830.53 127.47 257.48 595.04 497.97 826.96 224.57 847.14 801.55 159.79 885.78 874.17 844.18 638.94 774.81 505.15 574.16 355.81 349.39 162.42 342.11 219.00 486.70 867.55 243.66 311.92 143.23 604.47 348.15 553.82 570.60 756.14 883.26 115.82 377.95 183.98 835.24 240.04 851.72 371.74 349.67 357.17 77.57 570.33 845.18 357.46 554.18 705.80 430.99 918.38 455.16 352.01 390.22 385.62 837.27 362.91 120.10 149.60 589.41 79.51 823.92 138.88 248.22 555.22 355.86 310.54 848.76 541.64 820.37 862.43 678.56 228.94 416.39 365.91 684.01 259.65 554.70 0.00 322.07 581.53 429.06 629.36 626.70 431.53 586.61 514.54 354.04 653.29 311.71 428.17 284.49 783.95 746.81 337.67 522.95 858.83 647.14 84.54 562.53 349.67 383.73 815.94 74.96 927.86 622.12 359.54 797.38 128.63 482.80
538.40 549.54 806.25 880.30 151.81 397.04 552.20 807.87 460.73 398.34 470.34 775.59 496.44 869.02 459.29 375.54 758.51 934.97 43.33 803.62 690.26 815.48 809.43 299.69 127.45 828.55 759.35 278.59 753.98 491.79 948.65 259.73 534.32 902.12 149.69 808.23 558.55 141.04 543.85 111.11 167.96 87.44 37.36 689.81 885.00 893.18 884.70 521.22 862.84 902.34 853.57 64.28 424.85 907.02 69.32 389.05 932.63 711.67 593.14 954.75 186.82 775.17 805.53 112.02 835.57 784.88 822.84 420.15 58.75 846.46 52.57 751.74 481.10 216.52 493.53 528.13 519.92 760.84 744.08 582.44 67.57 857.89 210.68 748.19 135.75 786.47 729.88 256.35 824.87 861.01 868.32 686.75 926.97 280.46 345.16 765.75 605.34 893.58 205.00 970.96 797.42 348.85 944.28 928.80 896.59 821.87 857.22 696.62 746.63 510.91 461.17 329.25 39.26 362.02 717.92 956.91 241.59 93.24 265.68 782.31 109.99 862.02 830.22 983.85 986.90 403.96 494.70 284.05 825.45 163.94 973.73 67.13 498.39 35.10 321.10 758.63 856.25 104.97 730.48 870.82 137.56 1011.62 547.55 520.64 82.40 145.95 898.81 411.30 243.73 310.60 850.67 300.97 915.85 230.33 118.41 707.42 162.07 115.93 870.23 728.53 815.27 955.67 775.00 514.12 127.59 114.74 906.46 485.70 732.54 322.07 0.00 825.06 596.80 794.67 777.38 554.01 764.45 216.60 484.75 842.09 54.92 518.58 133.29 873.31 937.24 529.05 705.76 948.19 847.92 237.53 734.10 554.59 66.97 877.88 306.65 991.37 833.95 507.00 787.59 248.53 179.95
557.02 677.54 125.90 640.61 839.91 845.55 688.50 442.18 818.17 635.17 495.81 180.97 701.57 608.25 823.21 686.42 142.30 436.69 786.18 187.32 535.32 116.21 324.57 574.01 920.25 165.15 446.47 585.86 138.45 696.92 609.07 582.18 750.07 206.74 907.70 186.76 783.59 767.79 724.02 778.30 822.89 850.65 862.42 222.40 671.83 653.97 224.16 799.81 199.51 610.79 360.54 858.52 673.47 603.22 833.63 661.76 619.03 142.08 864.70 285.96 685.16 218.53 208.26 917.46 211.42 171.34 437.78 492.06 864.19 417.75 850.65 221.86 775.56 613.87 698.66 726.37 776.93 92.91 255.16 808.00 882.68 613.28 842.59 116.63 823.26 355.82 162.90 649.22 113.48 399.35 666.59 167.00 544.95 615.91 774.12 242.33 908.31 629.49 675.68 655.52 695.26 684.66 620.28 604.80 666.62 432.72 670.13 242.95 146.35 709.43 666.30 588.81 846.04 572.58 192.36 599.07 732.10 795.56 650.18 214.45 815.22 378.39 351.31 430.69 664.91 563.24 746.00 640.08 656.53 746.86 640.47 855.74 789.70 854.81 503.96 160.55 617.04 832.25 177.16 563.18 909.77 700.12 743.84 733.31 859.18 868.56 630.86 829.48 581.33 598.45 428.67 524.09 628.82 666.56 763.15 138.01 838.80 773.48 637.89 374.79 649.59 670.81 414.54 661.62 923.80 873.42 485.43 692.33 238.07 581.53 825.06 0.00 681.47 210.58 310.68 839.95 242.33 983.13 794.20 204.86 798.83 772.81 774.80 549.17 200.99 691.29 214.45 549.80 416.54 604.80 144.87 718.00 843.75 562.71 559.01 663.93 431.52 712.13 694.39 645.27 974.31
124.45 119.47 643.18 1056.87 644.65 314.88 201.03 398.10 287.50 262.44 516.31 706.37 100.36 1079.66 262.27 328.55 605.64 604.13 617.50 700.68 248.70 682.15 377.22 487.72 662.82 738.46 255.32 436.93 651.33 166.25 1092.01 457.36 187.24 797.49 574.04 682.41 252.02 559.51 78.53 563.29 542.15 584.43 590.43 605.38 1016.75 1026.99 780.07 236.98 721.13 1055.71 473.92 612.75 242.61 1071.10 600.60 324.01 1087.64 637.12 303.94 502.75 512.25 728.06 755.69 666.74 761.02 688.62 927.18 565.62 633.79 442.01 619.30 693.21 224.58 470.68 161.20 213.47 214.10 588.56 483.36 248.95 607.18 1011.26 697.63 580.71 604.92 391.05 657.94 521.67 678.95 410.96 1053.05 638.64 1038.52 470.55 371.59 724.29 353.85 1089.12 498.85 1125.63 1057.31 310.67 1086.52 1095.97 1004.52 455.70 1068.74 629.01 642.00 192.75 135.63 489.63 570.54 549.89 671.49 1089.91 533.71 600.26 449.66 760.08 575.94 481.68 432.42 617.68 1127.30 346.75 212.81 538.42 1072.22 527.90 1082.97 630.26 226.87 590.52 468.92 566.76 1063.42 602.83 668.45 937.05 646.64 1162.51 241.02 211.65 644.84 565.69 1040.28 298.81 447.97 501.79 440.28 450.89 1086.91 412.84 524.76 620.86 582.58 558.47 1049.94 422.55 1053.88 1140.92 910.90 200.12 688.80 590.94 544.42 175.08 710.31 429.06 596.80 681.47 0.00 744.83 799.87 249.03 707.92 769.67 246.65 725.72 588.25 212.05 531.89 1006.31 802.45 184.24 544.42 1061.49 404.33 469.42 548.99 159.93 630.27 1061.83 452.98 1133.58 449.57 110.92 1047.48 464.53 711.23
620.38 777.87 102.67 470.94 782.40 906.45 857.02 586.68 898.45 686.64 500.85 157.73 763.67 459.66 850.73 728.75 182.32 618.77 765.78 72.97 621.76 160.46 521.40 584.90 814.40 45.43 618.60 668.09 122.61 786.14 445.19 647.66 863.01 153.89 918.13 88.02 889.31 756.12 727.15 714.38 848.42 818.59 784.49 219.61 461.25 455.41 154.12 877.82 171.09 434.26 492.59 843.15 687.09 465.51 793.27 707.05 483.35 146.36 966.05 496.54 675.57 80.41 10.86 820.64 91.28 78.75 251.80 446.23 819.18 529.25 821.01 110.47 795.87 627.53 778.14 856.73 885.77 156.27 463.97 922.45 799.56 475.57 848.72 211.11 756.01 552.03 125.54 696.72 245.53 507.64 479.61 168.67 347.55 626.78 822.28 100.63 988.51 478.70 628.86 444.94 513.53 661.81 438.01 427.14 456.04 538.15 459.55 215.81 154.40 843.79 755.52 514.80 785.29 588.04 165.22 440.57 679.15 811.74 676.69 36.79 751.30 518.29 519.83 562.74 481.06 536.10 826.20 510.62 469.31 738.77 484.50 740.07 843.17 794.35 599.65 218.21 466.56 836.99 140.98 365.78 822.24 516.18 849.56 852.14 767.49 884.10 420.28 904.76 607.73 598.02 478.32 601.05 469.47 659.42 749.14 306.53 857.55 709.56 449.50 520.12 504.46 460.23 203.96 632.91 849.97 847.65 626.87 663.62 74.66 629.36 794.67 210.58 744.83 0.00 127.56 909.06 97.76 952.55 879.74 171.55 739.75 878.53 682.98 393.23 182.75 840.83 314.78 386.85 546.63 647.06 234.29 813.96 752.06 425.00 619.64 510.77 531.99 773.69 507.17 670.80 907.78
693.91 823.21 201.73 416.41 834.33 926.27 898.13 593.41 963.46 731.12 515.75 172.63 813.34 388.52 922.86 731.59 259.05 689.10 773.29 163.13 681.20 267.83 536.30 619.18 756.05 145.53 658.20 646.88 199.11 836.52 320.70 627.35 917.58 253.98 899.47 144.86 904.21 708.48 750.86 794.72 843.74 835.72 750.25 243.32 442.84 444.75 254.22 944.57 271.19 313.56 562.92 807.40 669.82 372.64 781.51 717.46 376.49 181.24 863.55 553.82 629.80 132.19 116.70 802.97 180.78 186.12 127.31 470.35 775.45 620.13 816.30 167.04 843.81 650.11 818.45 879.41 940.02 230.41 521.62 955.27 738.65 358.01 886.50 270.19 798.90 577.64 191.41 694.39 315.86 611.08 449.77 189.63 327.12 586.17 825.12 139.31 966.09 395.12 643.76 394.13 463.19 681.63 348.61 364.09 430.61 643.20 415.49 235.63 212.05 858.69 812.09 574.24 769.28 612.16 213.16 352.34 702.36 765.97 695.35 96.23 812.83 587.23 560.94 633.07 408.90 584.04 905.36 633.05 418.97 693.00 392.58 722.40 926.23 752.70 549.13 233.11 410.17 823.36 190.78 316.42 750.14 444.11 864.46 880.58 694.98 868.09 427.90 927.72 624.91 617.41 605.88 569.26 411.16 711.73 743.23 347.64 838.33 795.01 427.06 625.96 400.63 409.42 175.15 689.75 792.30 835.63 713.25 689.56 89.56 626.70 777.38 310.68 799.87 127.56 0.00 949.96 121.47 910.90 910.06 277.39 793.84 893.43 781.62 268.74 288.59 858.80 391.28 322.95 626.17 629.10 269.37 828.86 710.41 361.64 604.18 425.56 639.96 807.93 456.83 705.93 835.27
372.58 203.80 876.01 1216.09 620.19 156.97 173.28 606.56 93.28 346.32 647.93 882.17 235.05 1183.73 141.00 358.17 796.36 790.02 510.68 890.21 421.29 878.43 626.25 514.36 642.63 903.65 504.35 460.46 840.57 214.69 1162.72 480.89 100.17 974.10 492.20 894.82 105.58 521.58 265.37 574.65 407.39 542.56 572.25 817.71 1206.15 1186.77 977.73 83.49 925.78 1142.61 696.47 517.38 316.65 1183.14 560.83 345.88 1132.10 833.36 86.41 750.37 476.52 889.47 898.20 597.57 857.38 880.33 1077.27 619.70 573.93 659.76 538.64 854.62 178.13 473.21 217.51 120.37 73.31 836.69 620.71 106.83 573.45 1187.06 688.45 791.62 595.74 614.42 854.18 505.18 832.36 659.99 1212.83 827.67 1227.72 495.13 359.61 913.49 135.69 1133.78 581.88 1202.13 1170.88 341.13 1165.05 1179.48 1209.24 704.73 1187.25 781.47 839.66 130.52 209.57 575.35 570.54 592.86 808.78 1116.24 610.65 496.76 432.57 872.27 611.57 672.84 652.59 848.75 1225.34 467.64 132.88 564.80 1193.50 539.72 1183.32 607.76 90.19 553.48 509.10 756.10 1217.20 529.97 857.79 1050.62 639.32 1260.55 137.62 143.01 584.16 486.76 1207.20 164.05 506.42 526.07 689.31 489.10 1178.68 432.94 500.30 701.94 457.00 569.83 1206.62 591.96 1212.09 1217.42 1087.84 358.25 618.25 476.47 764.28 327.54 899.65 431.53 554.01 839.95 249.03 909.06 949.96 0.00 894.76 751.49 133.65 909.03 541.77 108.65 543.25 1193.23 1009.96 148.66 648.40 1213.95 646.61 452.20 797.12 174.20 595.77 1176.90 484.24 1263.11 679.59 224.49 1161.05 430.66 711.23
594.20 708.26 144.08 504.77 763.29 824.61 789.50 567.03 856.69 629.46 438.69 61.36 691.87 493.05 821.20 673.61 152.13 569.86 754.68 97.47 622.50 167.91 478.65 537.61 771.65 78.65 561.14 588.87 110.31 720.07 442.17 575.32 829.23 204.76 872.95 115.74 807.30 720.64 629.39 719.48 794.40 818.12 741.74 121.85 533.86 544.10 187.34 836.27 204.31 435.03 472.50 804.01 643.19 455.05 777.69 625.21 497.96 107.17 905.71 496.17 611.19 25.27 94.82 777.89 124.92 121.44 248.78 355.72 776.43 529.71 805.43 59.77 751.97 589.83 737.18 774.44 841.08 152.50 408.63 846.97 756.81 479.48 855.80 172.28 763.09 480.67 86.35 659.02 225.44 537.16 556.32 92.34 367.93 568.81 736.67 53.70 960.53 504.41 586.11 482.84 575.56 579.97 456.96 464.57 521.63 571.87 487.73 133.97 99.06 764.24 704.82 477.10 757.04 495.62 121.32 473.81 613.51 730.73 589.48 74.22 738.37 475.96 489.61 542.65 517.25 492.20 798.22 543.38 540.44 674.39 510.12 697.32 809.04 751.60 531.38 164.22 522.63 829.65 69.31 410.47 779.49 552.46 795.57 772.28 724.74 816.56 514.72 855.18 532.14 538.28 562.79 511.25 523.18 653.72 706.39 276.31 814.80 724.30 526.21 528.26 522.10 498.13 296.62 618.61 807.22 841.92 606.15 587.90 31.91 586.61 764.45 242.33 707.92 97.76 121.47 894.76 0.00 909.80 847.24 161.74 724.17 824.54 721.34 390.21 249.87 772.44 300.09 407.23 554.84 591.96 169.66 720.56 709.31 483.11 546.17 544.32 549.54 686.46 576.20 616.78 865.03
751.70 734.97 990.06 783.40 294.03 612.70 759.44 1019.05 676.39 614.94 625.57 950.41 713.04 751.04 674.95 562.07 941.67 1151.57 258.99 982.55 832.14 1006.04 1013.88 489.41 261.65 973.90 975.95 478.30 955.89 687.13 858.07 464.18 676.20 1054.06 361.10 978.09 775.15 338.53 760.45 252.46 384.56 265.72 179.24 874.21 831.39 817.40 1071.48 695.95 1050.22 826.00 1047.83 280.88 641.45 789.04 229.19 578.21 832.58 916.97 802.30 1149.01 349.68 920.52 953.59 260.96 1012.21 993.66 894.93 605.15 246.25 1057.64 263.98 955.37 598.24 420.97 681.78 703.38 703.06 920.67 936.55 737.91 209.45 840.39 211.06 874.37 232.55 985.03 937.79 381.90 975.54 1059.57 823.79 895.53 948.13 446.91 554.64 927.64 817.84 800.99 403.42 873.26 839.87 565.45 826.43 841.91 826.18 1038.47 839.02 837.97 951.74 700.65 677.77 533.70 199.13 519.76 880.78 875.24 383.47 307.42 461.70 927.66 251.87 1049.45 1028.64 1164.63 886.72 568.11 711.30 492.83 851.01 370.30 879.59 212.48 661.30 198.01 516.93 908.11 788.23 284.12 920.93 758.84 244.12 921.93 764.15 724.53 215.92 344.88 790.42 627.90 452.32 457.36 1061.85 496.80 797.87 430.61 318.69 845.12 358.42 257.28 795.83 939.71 804.79 888.55 847.09 715.99 286.28 306.23 1110.91 702.30 877.89 514.54 216.60 983.13 769.67 952.55 910.90 751.49 909.80 0.00 680.81 1006.27 263.70 735.18 283.86 892.94 1096.11 682.51 875.75 943.99 1059.10 441.98 842.65 694.51 200.49 796.58 461.88 901.81 1045.13 711.90 849.70 442.01 125.87
369.05 159.26 835.25 1128.62 486.54 91.26 160.07 573.23 53.40 302.55 592.69 804.68 171.34 1150.40 29.01 269.58 755.60 745.48 444.97 833.08 408.06 837.67 621.06 440.17 535.50 877.46 501.97 348.47 783.44 155.67 1122.84 368.90 59.41 862.11 401.60 823.38 160.78 401.40 217.85 453.17 316.79 415.09 501.57 752.48 1167.40 1142.23 879.53 50.16 885.02 1082.49 650.72 437.38 240.24 1131.64 452.89 315.48 1105.45 788.82 156.51 705.83 364.53 866.19 868.88 485.58 895.36 843.35 1024.65 559.58 477.09 631.41 449.96 831.34 100.64 407.05 173.74 106.70 82.66 810.32 597.43 121.12 492.37 1116.76 585.90 755.48 504.29 591.14 809.64 434.06 786.61 622.76 1168.29 783.44 1153.38 421.90 311.23 866.04 198.01 1100.45 469.89 1162.25 1097.95 270.24 1124.07 1108.59 1164.70 648.12 1120.27 716.24 795.12 85.98 186.29 476.09 481.68 515.40 731.29 1076.36 526.55 428.67 365.62 894.81 487.65 659.17 565.86 810.10 1177.55 391.23 132.65 514.45 1134.48 418.26 1132.83 518.33 52.89 487.33 431.61 711.56 1152.67 396.69 798.77 986.91 547.65 1212.76 168.87 116.36 492.49 396.16 1173.87 73.45 383.16 441.58 645.42 426.09 1145.35 308.98 366.65 656.19 366.40 457.84 1150.06 540.28 1140.49 1173.18 1032.60 278.49 519.37 408.93 730.95 290.24 854.89 354.04 484.75 794.20 246.65 879.74 910.06 133.65 847.24 680.81 0.00 845.32 430.14 161.70 431.26 1137.99 907.22 102.91 607.64 1114.08 613.28 402.17 761.28 129.66 507.92 1113.19 429.00 1192.22 645.70 160.78 1097.34 381.51 605.62
601.27 731.13 123.66 642.49 841.91 909.62 787.58 533.41 882.24 709.40 481.25 206.66 695.10 631.21 874.33 788.95 120.08 515.60 818.26 162.49 630.34 88.65 446.80 614.52 906.03 169.61 568.70 694.82 135.92 760.99 558.22 685.79 816.27 107.63 932.30 144.22 835.85 732.45 741.61 815.52 847.49 886.98 871.63 254.50 632.80 626.96 90.21 866.01 43.95 589.61 419.24 890.57 716.23 616.79 840.69 736.19 576.49 151.01 916.96 490.82 725.46 187.01 160.69 904.13 171.75 128.35 404.70 510.73 898.33 475.23 868.43 183.46 798.20 697.69 755.94 788.66 843.13 160.34 416.47 877.98 861.53 634.06 907.14 187.38 857.15 488.14 135.76 749.74 193.39 425.86 651.16 155.34 497.38 655.92 844.56 186.32 982.88 615.48 745.43 604.16 679.84 690.95 588.49 576.97 627.59 504.71 631.10 244.95 106.90 790.33 730.37 609.12 864.04 621.25 194.36 559.40 768.52 849.51 725.01 186.62 806.77 444.94 482.76 446.57 637.31 565.24 822.09 622.74 640.86 778.70 535.33 859.06 855.90 853.20 637.33 164.75 638.11 868.58 137.71 515.61 923.56 623.01 796.10 811.30 886.48 921.34 591.83 893.55 646.17 663.84 455.18 617.20 624.52 759.67 767.20 279.28 891.58 810.70 621.05 536.10 676.01 615.73 375.51 689.11 937.92 900.44 569.57 697.05 193.65 653.29 842.09 204.86 725.72 171.55 277.39 909.03 161.74 1006.27 845.32 0.00 787.17 825.07 784.12 522.03 108.95 782.46 268.04 536.68 512.91 676.68 219.10 760.50 871.05 596.55 644.94 647.23 487.89 684.54 670.01 720.67 962.65
566.33 555.64 751.33 865.18 157.61 384.80 555.07 774.01 448.49 429.09 459.98 726.00 551.36 858.37 447.05 352.85 703.59 965.72 31.09 753.56 683.00 760.56 775.83 264.61 168.38 785.05 790.10 279.77 716.56 511.49 920.77 259.34 489.55 847.20 178.38 768.70 590.92 98.24 598.77 76.73 165.06 109.96 84.46 686.45 850.62 868.38 829.78 480.30 807.92 902.98 856.52 103.40 455.60 896.37 53.52 334.36 933.98 656.75 581.07 925.03 174.58 731.67 750.61 144.33 780.65 729.96 816.90 416.79 113.67 832.19 81.26 696.82 449.93 219.47 493.42 519.39 512.80 705.92 733.72 551.26 93.00 858.53 155.76 710.01 137.60 760.23 674.96 212.74 776.90 817.66 852.89 631.83 892.96 266.56 342.26 754.03 593.10 898.99 150.08 954.90 769.54 379.60 933.76 930.88 862.85 857.56 857.79 662.24 691.71 498.67 516.09 315.05 76.87 307.10 696.76 908.41 205.59 81.00 242.31 754.05 82.11 854.23 775.30 1019.54 971.47 391.72 497.57 229.13 797.57 115.10 961.82 108.36 483.03 78.96 313.31 703.71 858.33 106.06 675.56 815.90 150.85 995.56 574.78 523.51 135.78 159.75 870.93 408.40 269.83 282.86 838.43 307.88 905.20 175.41 63.49 733.52 157.50 71.91 850.30 716.29 820.68 939.61 822.10 476.66 168.71 118.33 909.41 483.29 704.28 311.71 54.92 798.83 588.25 739.75 793.84 541.77 724.17 263.70 430.14 787.17 0.00 573.50 98.49 897.83 882.32 516.81 700.02 932.26 814.06 227.17 721.86 534.97 120.35 883.68 296.29 991.91 821.71 561.92 759.71 236.29 175.48
332.53 122.74 813.44 1170.34 632.06 239.57 84.31 562.65 194.56 301.66 632.92 806.83 168.14 1146.79 177.32 296.45 733.79 743.70 561.91 827.64 366.50 807.22 552.52 496.37 646.03 871.00 430.62 471.21 778.00 185.99 1156.23 489.57 102.29 899.37 516.34 812.64 39.97 477.42 201.61 568.77 470.05 574.59 555.94 727.21 1179.85 1154.68 881.95 147.89 862.92 1138.43 634.41 577.49 304.57 1154.47 587.90 354.28 1065.25 737.58 91.89 678.05 494.07 832.04 879.57 630.60 861.48 825.54 1020.74 624.90 577.33 601.24 571.15 797.19 180.25 446.36 191.75 85.00 118.09 759.08 580.18 72.58 586.15 1159.20 703.39 704.24 610.68 541.25 758.40 515.55 765.22 588.87 1180.74 732.20 1132.08 485.63 324.24 817.85 194.43 1122.58 541.15 1144.32 1125.09 309.04 1120.00 1121.46 1177.15 631.00 1132.46 690.97 743.88 98.43 169.04 520.56 557.84 560.77 741.56 1110.53 556.24 581.93 397.20 853.64 589.30 637.47 607.72 790.23 1180.29 444.95 78.09 545.09 1137.53 523.67 1116.47 585.71 141.92 553.68 454.44 660.32 1150.35 556.19 762.01 1004.83 652.86 1215.50 28.97 76.16 597.70 535.78 1170.54 226.71 474.33 462.40 605.45 434.31 1167.17 440.28 512.17 634.80 519.66 563.95 1156.46 483.31 1178.02 1159.61 1052.22 267.75 646.17 546.61 686.41 237.04 803.87 428.17 518.58 772.81 212.05 878.53 893.43 108.65 824.54 735.18 161.70 825.07 573.50 0.00 550.56 1128.14 924.16 116.57 585.83 1123.45 579.63 467.37 725.78 127.88 582.27 1131.11 469.23 1205.09 588.73 178.70 1115.26 421.51 698.53
521.00 565.81 743.78 851.39 136.88 437.75 529.97 785.82 449.97 389.08 432.76 699.85 549.26 844.58 402.25 327.75 729.79 925.71 114.32 746.58 655.78 746.07 754.76 252.35 175.16 728.41 750.09 241.01 712.48 490.59 906.98 222.15 477.28 832.71 237.63 762.26 581.26 73.14 577.77 31.40 199.37 135.61 122.20 640.11 805.29 830.46 815.29 481.42 797.96 889.19 815.99 163.93 415.59 882.58 132.37 294.35 915.15 633.11 587.77 912.41 155.34 696.07 693.84 186.48 757.01 731.72 771.57 394.93 165.56 837.33 167.16 721.15 461.74 178.94 488.42 505.90 504.14 682.28 700.95 538.99 138.95 844.74 165.74 696.48 73.03 713.42 653.93 169.15 768.31 787.96 839.10 658.03 908.70 242.88 331.92 740.53 594.58 877.66 182.36 908.24 755.75 339.59 899.52 908.97 817.52 866.81 844.00 616.91 677.22 517.24 520.78 291.67 102.31 289.06 667.50 936.42 160.26 157.61 217.21 719.77 68.32 811.76 800.34 992.77 937.99 375.30 472.47 219.17 783.78 119.39 926.28 150.60 482.46 120.84 270.84 710.37 844.54 154.01 675.40 780.36 192.69 948.90 549.68 498.41 144.15 224.64 846.26 442.71 218.51 214.66 817.28 250.71 875.45 187.22 75.30 682.20 228.31 26.58 836.51 720.42 820.27 892.95 756.73 451.56 198.25 164.67 868.88 443.28 736.56 284.49 133.29 774.80 531.89 682.98 781.62 543.25 721.34 283.86 431.26 784.12 98.49 550.56 0.00 887.87 865.73 532.06 654.69 934.06 825.87 199.95 676.62 546.78 138.61 862.95 269.07 946.58 825.84 539.34 745.92 244.51 243.00
919.76 1079.66 470.47 153.62 833.72 1127.81 1119.04 862.15 1106.56 932.66 545.30 437.76 1026.56 141.90 1118.12 918.63 501.16 917.85 885.21 431.87 926.26 483.98 805.04 742.98 935.06 414.06 886.70 798.66 444.82 1039.01 112.54 778.23 1115.31 488.73 917.86 413.60 1155.45 918.05 1019.60 891.24 975.05 855.61 905.48 400.93 182.71 192.95 471.31 1154.96 501.02 155.73 795.82 842.88 938.56 103.90 855.53 847.35 107.75 407.09 1132.29 816.81 856.77 400.93 385.44 919.63 430.10 454.86 141.43 628.27 866.36 853.03 820.74 380.28 1037.35 785.48 1020.94 1110.72 1142.17 456.26 724.70 1171.53 903.16 158.22 939.36 499.89 897.57 825.36 386.27 813.79 548.76 853.23 205.17 429.40 66.01 769.97 986.92 380.24 1222.69 153.26 791.39 167.59 230.73 883.17 121.01 105.53 170.48 890.28 198.85 437.17 415.13 1093.78 1025.33 745.39 885.59 641.52 481.90 83.60 752.74 935.12 834.64 364.97 916.93 821.52 812.18 865.97 154.36 802.58 1100.13 668.70 201.47 906.07 123.84 933.48 1128.45 899.60 764.04 484.35 161.98 874.01 417.30 195.52 922.60 189.57 1115.70 1096.84 929.20 924.55 163.57 1108.73 773.76 738.73 871.55 743.91 166.01 883.55 911.67 598.88 947.26 886.42 175.06 844.33 185.34 182.88 189.27 921.81 935.20 882.91 913.53 891.10 358.30 783.95 873.31 549.17 1006.31 393.23 268.74 1193.23 390.21 892.94 1137.99 522.03 897.83 1128.14 887.87 0.00 533.84 1075.64 636.99 74.88 877.41 778.11 495.22 1080.10 928.24 107.65 708.99 156.82 872.86 1016.00 239.33 830.17 992.38
678.00 818.53 197.80 603.79 934.75 940.46 889.49 596.95 925.93 743.76 516.58 276.88 804.05 636.15 878.21 858.90 213.60 568.48 913.41 179.65 686.75 175.44 525.56 708.22 961.02 171.22 644.94 718.09 206.14 819.71 598.45 738.52 909.79 45.11 999.45 161.38 928.26 826.15 845.00 885.19 914.64 980.68 931.11 311.98 644.00 638.16 62.53 935.66 84.18 602.15 517.80 963.32 745.68 637.74 935.84 795.16 593.65 244.71 1004.37 486.95 800.74 224.60 171.89 967.26 164.71 152.36 415.90 581.64 965.80 582.85 963.58 229.68 888.94 752.19 801.64 893.58 936.65 216.75 456.15 945.63 946.18 646.60 1006.64 221.74 928.37 556.81 229.46 785.07 278.58 534.81 655.34 250.49 508.58 734.80 872.61 261.66 1052.06 636.37 771.91 623.49 696.28 770.30 601.17 588.17 638.79 603.76 639.17 324.30 200.60 891.24 827.51 675.83 946.41 696.42 288.06 552.36 746.69 936.91 792.10 197.82 900.47 543.50 552.30 510.32 657.13 658.94 889.75 662.97 652.06 863.94 575.56 886.69 924.47 940.97 676.44 265.66 618.38 962.28 231.41 526.81 968.86 692.34 897.01 870.94 914.11 991.56 603.03 964.68 716.39 703.56 543.93 696.57 634.89 820.45 860.90 339.00 961.80 880.37 625.23 575.78 659.36 638.78 386.71 656.41 996.59 989.84 622.57 687.12 221.28 746.81 937.24 200.99 802.45 182.75 288.59 1009.96 249.87 1096.11 907.22 108.95 882.32 924.16 865.73 533.84 0.00 884.34 361.56 533.25 612.24 731.18 253.46 858.99 898.68 607.75 680.27 671.80 596.84 793.49 689.92 777.50 1026.86
301.21 91.42 738.16 1104.69 589.45 194.17 96.45 560.13 142.82 216.30 539.76 762.45 108.48 1095.87 131.92 262.31 702.47 677.64 485.72 791.09 340.22 764.62 546.23 410.81 586.10 831.18 439.56 368.86 746.68 69.42 1079.01 373.83 58.78 880.61 472.83 772.82 121.72 459.25 152.99 539.95 419.70 490.15 565.47 674.71 1099.56 1074.39 863.19 108.52 821.68 1052.63 547.81 518.47 188.98 1081.27 535.87 237.71 1031.11 720.98 175.45 637.99 454.81 779.94 843.42 569.91 842.23 783.60 967.00 529.72 558.42 561.40 512.80 745.09 84.27 393.48 87.49 35.08 85.64 737.95 511.18 116.71 547.61 1065.50 611.28 687.64 592.51 504.89 741.80 409.36 683.70 579.43 1100.45 715.60 1110.25 415.40 274.32 801.25 222.23 1088.24 520.23 1092.88 1026.75 192.47 1046.30 1030.82 1096.86 608.59 1049.07 638.47 725.12 18.14 100.04 466.09 545.58 444.20 689.06 1076.39 522.10 531.58 347.28 837.04 571.13 573.51 540.21 740.26 1099.78 339.97 59.92 428.52 1048.23 473.85 1069.97 556.79 98.41 561.70 381.24 643.72 1103.37 499.60 745.41 924.05 603.63 1134.99 137.13 42.02 584.21 499.07 1109.52 176.36 389.92 440.06 592.03 401.37 1091.30 358.79 469.56 553.28 469.31 535.13 1102.02 480.79 1094.63 1108.17 979.67 227.93 603.70 450.63 697.31 202.26 787.27 337.67 529.05 691.29 184.24 840.83 858.80 148.66 772.44 682.51 102.91 782.46 516.81 116.57 532.06 1075.64 884.34 0.00 554.51 1070.95 523.72 372.47 659.93 61.82 568.78 1050.33 376.07 1114.45 568.96 97.92 1034.48 374.58 686.27
419.97 463.09 227.61 722.82 675.96 685.51 544.65 395.02 638.12 546.33 380.35 262.91 516.19 703.94 623.26 532.80 147.96 411.06 674.28 241.81 459.60 230.03 312.35 517.30 813.49 286.19 306.44 466.46 192.17 578.04 692.86 446.03 548.23 352.37 787.04 246.42 625.80 664.28 541.96 623.29 702.23 735.04 735.40 268.92 760.87 735.70 334.95 597.97 277.38 685.07 269.38 754.17 479.01 716.54 724.43 587.40 678.69 239.04 677.72 298.37 560.53 274.82 307.89 752.74 287.72 252.08 517.77 336.15 744.79 354.99 738.75 278.92 599.82 489.24 559.97 557.09 575.09 211.75 283.23 609.94 762.99 697.36 714.70 188.18 703.41 350.54 250.72 558.43 206.86 309.79 748.32 219.72 633.54 514.53 626.33 319.31 714.84 734.86 593.68 748.45 774.43 555.01 706.51 704.80 758.17 312.75 737.28 232.68 238.04 536.37 551.46 457.53 734.14 477.96 244.03 675.37 593.94 696.70 538.40 331.54 669.85 243.68 289.74 461.83 718.63 474.48 556.43 523.81 758.32 623.73 717.82 752.13 587.86 722.37 510.59 161.78 698.77 749.25 233.17 600.01 810.73 753.84 599.99 555.27 755.57 781.60 735.06 681.09 489.21 518.71 304.06 490.46 749.86 558.93 642.98 76.44 751.84 628.11 726.45 394.44 739.75 763.67 516.02 524.57 786.53 751.38 373.87 546.54 305.33 522.95 705.76 214.45 544.42 314.78 391.28 648.40 300.09 875.75 607.64 268.04 700.02 585.83 654.69 636.99 361.56 554.51 0.00 665.16 354.97 479.30 159.28 503.55 740.14 713.44 515.27 745.87 357.73 520.43 784.26 524.61 874.83
981.16 1074.97 470.27 207.19 893.41 1123.12 1114.35 916.36 1121.40 927.97 620.18 414.89 1021.87 192.95 1119.71 993.51 539.27 953.43 960.09 429.03 986.89 506.54 850.02 817.86 911.54 384.65 920.53 873.54 478.67 1039.33 144.92 853.11 1129.73 510.76 992.74 443.01 1163.42 921.35 1036.62 933.14 1042.52 930.49 928.91 468.72 216.28 220.07 493.34 1158.41 510.31 216.10 838.67 917.76 953.94 178.78 930.41 922.23 143.72 473.79 1186.50 835.76 909.22 432.50 375.99 969.96 430.92 424.83 216.31 699.13 941.24 895.88 895.62 412.40 1112.23 860.36 1048.27 1106.03 1156.59 522.96 742.64 1187.66 959.12 233.10 947.11 533.57 861.03 843.30 461.15 888.67 591.61 887.65 225.66 477.39 39.30 827.13 994.86 353.53 1266.01 182.45 782.18 128.75 254.64 878.48 138.62 154.10 220.62 920.83 241.94 432.48 483.69 1089.09 1057.14 795.59 948.80 710.84 483.07 98.44 827.62 968.17 901.14 401.92 916.52 817.77 838.89 908.82 164.87 853.95 1130.87 743.58 254.60 905.17 139.95 925.17 1123.76 947.68 838.92 511.06 183.14 948.89 452.88 236.09 894.01 193.71 1129.65 1112.97 949.17 999.43 211.03 1153.69 843.08 795.89 865.17 818.79 146.12 955.24 902.46 625.59 1022.14 930.50 210.82 862.27 224.12 144.04 191.27 917.12 936.17 957.79 947.96 886.41 403.28 858.83 948.19 549.80 1061.49 386.85 322.95 1213.95 407.23 943.99 1114.08 536.68 932.26 1123.45 934.06 74.88 533.25 1070.95 665.16 0.00 904.12 852.99 556.62 1106.81 936.41 182.53 783.87 179.21 915.71 1011.31 264.47 882.71 965.67
419.06 523.80 494.91 973.44 870.46 687.30 595.42 40.05 623.61 592.35 625.25 495.59 504.69 961.72 642.29 642.86 415.26 238.54 804.59 525.50 302.17 489.87 114.50 573.61 933.10 555.27 149.01 665.31 500.64 561.88 946.87 644.88 582.50 567.13 879.52 543.77 619.60 785.32 482.86 808.41 794.71 827.52 884.34 538.04 1002.53 1002.04 549.71 563.12 544.68 937.71 169.89 855.84 563.55 923.72 838.01 595.72 976.04 470.32 640.26 176.79 709.42 542.12 557.49 928.82 579.84 508.73 753.48 691.12 887.55 37.68 862.39 529.40 607.99 656.78 563.62 558.80 595.62 463.20 227.07 590.61 889.48 930.04 931.74 416.90 847.74 126.41 491.14 725.97 341.95 87.05 1015.62 464.94 864.82 620.29 690.48 550.59 646.52 973.08 715.65 979.73 960.88 559.51 949.00 933.52 990.30 84.87 987.52 501.80 476.62 541.86 531.26 654.48 864.45 594.79 451.21 952.28 736.48 771.04 644.39 583.42 854.97 155.14 90.43 226.67 1002.48 591.91 537.92 647.89 988.91 772.62 963.04 905.13 597.77 871.25 619.93 393.06 966.07 845.92 494.75 831.29 950.63 1037.69 608.60 563.86 922.80 874.08 966.91 686.73 652.86 622.93 68.31 635.67 991.85 689.62 750.57 278.53 844.32 813.23 993.75 119.39 972.66 995.02 750.59 474.28 942.21 886.85 173.59 504.99 536.61 647.14 847.92 416.54 404.33 546.63 626.17 646.61 554.84 1059.10 613.28 512.91 814.06 579.63 825.87 877.41 612.24 523.72 354.97 904.12 0.00 635.77 385.18 539.44 913.54 946.12 608.35 978.55 45.24 515.25 951.05 617.09 989.54
389.03 418.31 580.05 810.91 283.57 367.83 413.36 644.14 358.92 229.49 232.81 538.06 369.06 778.55 373.16 234.59 617.75 766.12 235.79 636.34 455.83 638.63 599.12 62.16 355.74 661.05 590.50 53.70 586.70 303.17 838.14 33.27 413.11 725.27 342.69 639.38 480.05 193.55 393.85 231.35 257.88 307.90 274.89 470.11 858.90 844.91 707.85 419.41 647.00 766.96 658.06 301.81 248.02 800.87 260.65 154.44 774.36 525.67 525.76 739.01 92.30 617.23 637.68 349.55 649.57 598.12 665.06 244.05 296.28 673.45 290.10 613.71 335.15 21.01 321.24 382.37 439.97 574.84 506.55 453.05 294.21 811.41 308.70 552.68 261.40 557.78 546.49 90.20 629.36 632.32 839.20 550.59 824.69 42.93 241.96 568.01 503.53 828.50 180.92 853.43 754.01 180.00 829.11 830.57 853.18 711.17 776.33 506.35 569.78 390.61 333.79 133.74 257.57 171.46 504.49 805.76 159.12 228.47 70.17 611.75 265.10 638.36 630.34 815.67 889.40 175.35 415.80 136.44 798.23 155.50 825.58 287.20 431.42 272.63 100.84 564.49 815.74 298.43 567.96 693.24 360.84 889.13 466.41 405.01 305.68 330.59 817.93 398.40 76.45 73.87 661.64 80.71 818.08 119.08 163.68 539.70 300.83 226.53 823.34 595.17 821.89 868.72 672.72 313.48 365.12 281.37 710.95 303.37 617.76 84.54 237.53 604.80 469.42 647.06 629.10 452.20 591.96 441.98 402.17 676.68 227.17 467.37 199.95 778.11 731.18 372.47 479.30 852.99 635.77 0.00 584.40 387.18 299.19 799.15 69.12 914.20 681.01 379.62 763.84 97.47 398.26
424.54 622.37 178.59 644.94 751.81 760.29 657.14 425.23 777.08 490.30 410.90 157.38 589.94 633.94 781.02 652.84 99.02 514.41 690.77 190.14 544.64 171.61 375.15 551.64 782.43 228.75 391.48 592.65 140.79 637.18 576.46 581.53 707.51 262.37 793.74 171.87 736.56 656.73 591.54 645.22 779.76 769.64 744.93 171.58 652.02 647.19 244.95 753.13 210.59 569.32 372.73 770.66 557.62 595.94 740.92 585.03 602.97 88.13 817.67 387.11 547.28 179.07 243.09 809.94 212.03 186.74 383.07 441.24 788.29 422.86 755.24 144.22 714.16 563.39 619.11 695.01 723.81 78.02 315.54 769.22 761.68 591.83 807.85 31.72 716.38 416.20 108.95 616.81 172.33 376.85 670.44 112.28 517.32 544.78 729.59 203.09 874.12 634.48 646.32 610.40 617.97 539.79 563.82 548.34 639.79 402.21 641.53 141.47 116.48 678.07 625.21 556.53 725.04 521.96 123.43 570.09 660.97 683.45 612.55 221.99 691.78 347.03 319.95 489.54 617.30 446.71 713.87 555.17 652.79 610.48 605.70 774.06 747.14 744.30 573.60 65.46 620.89 765.74 130.42 503.69 764.90 652.51 696.81 701.95 760.66 785.57 612.06 788.39 538.35 513.54 399.51 553.47 608.82 646.69 662.09 106.65 755.81 650.04 641.28 435.17 634.45 625.69 430.91 529.14 807.06 778.01 477.22 559.85 201.57 562.53 734.10 144.87 548.99 234.29 269.37 797.12 169.66 842.65 761.28 219.10 721.86 725.78 676.62 495.22 253.46 659.93 159.28 556.62 385.18 584.40 0.00 661.21 762.07 602.87 552.94 631.97 412.50 600.50 627.80 602.14 865.73
250.25 40.46 731.16 1129.11 591.37 220.34 69.28 527.61 168.36 206.82 579.66 742.26 93.56 1102.07 158.09 265.56 651.51 615.82 511.26 745.36 289.26 730.36 524.56 449.34 598.10 789.74 415.25 411.40 695.72 84.01 1085.21 418.28 108.67 834.80 491.80 747.47 134.57 476.99 91.17 558.00 434.51 501.24 587.72 719.16 1125.10 1099.93 817.38 115.71 780.93 1097.08 599.37 529.56 227.87 1097.04 559.59 280.25 1040.81 673.01 185.15 576.17 458.78 745.83 811.44 584.50 791.27 755.63 956.17 574.17 570.42 552.71 524.80 732.62 96.27 387.49 78.01 53.88 125.01 694.51 481.57 126.41 559.61 1061.35 655.73 639.67 610.25 483.22 693.83 456.68 710.41 557.76 1121.24 667.63 1067.51 430.11 289.35 753.28 239.97 1098.14 537.57 1107.22 1050.51 236.92 1060.39 1075.27 1122.40 583.44 1092.50 682.92 679.31 43.68 100.68 468.05 567.83 488.65 700.48 1086.09 529.76 546.39 361.25 789.07 588.87 606.35 565.75 684.85 1120.68 335.82 77.66 482.80 1062.82 485.85 1076.17 547.31 128.76 587.81 399.01 595.75 1110.86 516.13 697.44 930.25 615.63 1155.89 109.03 51.72 574.73 513.88 1132.08 191.17 419.58 461.05 570.41 419.14 1135.75 370.79 471.48 579.99 484.12 562.82 1127.56 448.27 1103.97 1122.51 1004.01 202.58 618.29 462.63 672.16 233.29 739.30 349.67 554.59 718.00 159.93 813.96 828.86 174.20 720.56 694.51 129.66 760.50 534.97 127.88 546.78 1080.10 858.99 61.82 503.55 1106.81 539.44 387.18 661.21 0.00 559.30 1056.53 418.61 1158.90 553.69 104.12 1040.68 373.35 679.83
605.37 595.23 789.57 825.16 145.53 464.01 590.17 873.49 506.31 465.31 502.79 760.47 542.13 813.88 526.26 376.97 823.94 1001.94 110.30 782.06 692.74 862.18 874.76 350.76 76.50 773.41 826.32 345.56 755.40 499.36 887.27 326.70 545.21 853.57 189.06 777.60 622.24 167.78 590.04 116.85 192.20 125.31 39.84 698.15 857.22 838.04 870.99 540.23 877.36 847.20 906.41 96.99 491.82 851.88 86.36 427.38 877.49 771.72 646.58 981.36 228.81 720.03 753.10 92.56 811.72 815.31 825.32 484.28 74.71 913.43 107.50 754.88 522.44 283.49 481.29 595.10 544.16 804.19 805.74 606.68 59.10 802.75 176.09 793.79 112.30 846.38 784.07 234.30 873.22 920.92 813.18 752.18 897.11 304.08 369.40 727.15 645.80 838.44 259.43 933.50 766.30 415.82 889.14 873.66 852.90 888.84 790.25 702.36 793.33 577.88 513.65 396.22 59.73 374.51 752.95 921.53 244.07 160.21 305.98 727.17 112.47 880.71 869.29 964.14 931.76 470.93 561.67 342.36 810.52 214.03 918.59 11.99 505.58 42.29 339.79 820.95 801.11 137.68 778.62 918.97 70.59 966.97 611.24 587.61 15.43 178.66 844.31 435.54 309.95 335.32 917.64 359.92 860.71 274.89 162.97 755.81 202.45 112.03 815.09 795.50 760.13 932.22 777.48 546.20 112.75 156.08 973.43 552.67 677.40 383.73 66.97 843.75 630.27 752.06 710.41 595.77 709.31 200.49 507.92 871.05 120.35 582.27 138.61 928.24 898.68 568.78 740.14 936.41 913.54 299.19 762.07 559.30 0.00 847.01 368.31 936.23 900.92 552.69 776.13 315.50 155.72
987.16 1016.07 527.67 77.90 726.07 1135.68 1055.45 945.74 1112.07 926.64 652.95 450.53 962.97 45.54 1130.48 920.83 596.16 999.40 865.84 497.97 1003.90 532.68 887.28 736.99 860.14 470.43 981.31 811.02 521.27 1028.86 109.01 790.59 1109.11 578.89 992.87 497.57 1146.54 880.71 1009.48 834.82 962.60 930.62 879.44 508.58 110.48 91.26 567.43 1107.20 596.09 48.08 890.83 917.89 927.09 40.51 915.99 906.70 115.91 514.74 1196.91 848.67 826.46 493.83 435.86 915.59 476.76 503.75 234.33 570.99 914.13 954.25 895.75 473.18 1066.07 788.86 1023.81 1056.53 1128.87 533.90 817.87 1153.86 894.51 50.57 831.71 571.95 789.92 859.38 493.92 852.99 656.41 932.64 103.88 537.05 173.66 781.16 999.28 487.89 1216.43 66.78 757.48 135.85 132.55 908.24 89.27 73.79 107.09 963.15 108.05 544.82 522.78 1068.47 998.24 692.37 894.74 712.80 513.02 89.11 828.78 915.75 826.25 457.87 809.28 865.13 914.02 973.62 142.75 776.10 1089.96 662.71 93.82 867.40 131.15 835.02 1141.85 889.01 738.37 592.00 54.33 940.81 499.98 253.47 842.61 177.96 1110.79 1079.17 862.44 968.83 84.92 1116.96 747.41 750.11 903.32 758.50 92.37 886.93 845.96 700.72 939.07 839.64 75.18 917.32 86.88 151.14 221.04 1016.36 884.77 953.08 995.32 994.62 451.20 815.94 877.88 562.71 1061.83 425.00 361.64 1176.90 483.11 796.58 1113.19 596.55 883.68 1131.11 862.95 107.65 607.75 1050.33 713.44 182.53 946.12 799.15 602.87 1056.53 847.01 0.00 771.73 157.42 956.99 952.41 131.68 824.18 922.45
328.53 444.63 552.63 804.53 338.41 428.24 448.64 616.72 428.04 233.09 163.69 550.50 393.91 793.08 409.13 209.64 567.30 754.95 297.49 600.51 524.95 611.21 571.70 34.74 394.23 624.82 594.10 89.67 559.23 334.60 810.72 69.24 406.32 691.19 393.85 613.48 474.57 209.06 425.28 253.02 309.04 341.85 343.03 424.32 819.12 834.59 673.89 452.34 666.36 739.54 589.15 345.33 257.22 755.08 293.08 138.36 784.55 498.25 499.40 688.22 161.42 571.44 611.86 383.89 622.15 579.13 651.44 216.63 365.40 646.03 327.87 586.29 328.36 90.13 352.67 411.15 433.18 547.42 496.97 468.03 338.14 783.99 354.78 532.43 308.87 530.36 519.07 154.15 588.48 604.90 811.78 523.17 755.57 81.42 277.93 562.23 513.70 793.86 216.84 840.23 726.59 183.60 824.92 809.44 821.66 666.81 748.91 460.56 542.36 394.21 365.22 107.92 323.14 144.04 477.11 792.59 197.61 297.59 139.29 585.93 299.58 587.57 584.55 746.55 844.13 106.23 391.14 109.02 770.81 197.08 807.13 356.32 424.63 337.15 55.05 495.37 815.38 345.19 540.54 661.21 411.76 879.34 468.35 417.08 374.80 367.61 813.87 399.74 78.64 84.06 634.22 34.92 748.96 177.39 232.80 542.33 346.49 257.84 807.35 588.30 794.47 855.52 603.60 303.90 417.68 350.49 717.76 287.29 578.08 74.96 306.65 559.01 452.98 619.64 604.18 484.24 546.17 461.88 429.00 644.94 296.29 469.23 269.07 708.99 680.27 376.07 515.27 783.87 608.35 69.12 552.94 418.61 368.31 771.73 0.00 852.90 653.59 383.35 736.42 131.42 463.83
1009.13 1147.61 585.01 159.17 883.49 1166.62 1186.21 1018.60 1170.88 971.47 702.12 482.96 1094.51 150.77 1163.21 1054.56 639.08 1020.42 1008.19 567.66 1058.95 640.80 961.86 887.64 965.37 523.28 1023.45 933.44 553.70 1082.83 151.30 913.01 1173.23 631.73 1074.68 566.65 1211.78 985.87 1141.02 915.18 1068.43 1012.43 968.66 557.75 141.29 151.53 628.13 1199.13 603.28 205.50 923.26 999.70 997.98 172.07 1012.35 967.22 139.84 552.21 1262.36 889.44 973.74 530.80 499.91 1004.81 535.57 589.52 298.25 728.41 1003.35 998.15 977.56 537.10 1171.72 930.05 1099.19 1149.53 1198.03 601.38 881.52 1202.60 983.73 187.28 939.60 600.25 916.25 982.18 543.09 957.57 693.88 1008.82 177.59 577.13 218.51 871.57 1085.67 532.74 1315.49 148.84 846.70 108.44 223.91 921.98 99.11 83.63 129.06 1024.13 214.21 593.99 571.95 1132.59 1078.06 817.32 983.96 798.34 556.35 147.92 815.95 1040.24 959.49 473.98 911.34 897.56 951.92 1011.09 114.14 912.81 1154.87 820.13 206.58 969.69 111.90 924.24 1212.86 978.52 872.10 629.47 135.12 1030.83 574.12 257.82 947.84 85.40 1232.08 1128.93 951.66 1081.37 159.77 1196.06 904.83 840.33 984.39 884.11 103.94 1004.72 966.98 738.62 1096.49 920.00 162.80 1001.15 176.10 96.33 346.09 1078.63 990.00 1039.73 1018.37 1047.92 515.12 927.86 991.37 663.93 1133.58 510.77 425.56 1263.11 544.32 901.81 1192.22 647.23 991.91 1205.09 946.58 156.82 671.80 1114.45 745.87 179.21 978.55 914.20 631.97 1158.90 936.23 157.42 852.90 0.00 1017.98 1083.95 233.74 932.19 999.09
464.30 513.23 477.06 972.27 899.98 710.97 594.79 73.84 657.40 572.59 627.37 535.02 496.45 953.39 674.71 625.01 397.41 224.79 790.62 507.65 307.53 479.48 106.95 618.85 961.40 540.63 194.25 662.53 482.79 562.34 948.01 681.70 627.74 552.49 865.55 525.92 628.70 774.49 512.17 794.44 780.74 813.55 870.37 560.47 993.24 985.15 535.07 596.91 526.83 945.49 152.04 841.87 552.76 968.96 840.77 577.87 958.19 465.77 622.41 152.45 695.45 524.27 542.85 931.58 561.99 490.88 767.27 693.88 892.70 19.83 848.42 532.39 610.93 679.58 557.29 599.64 629.41 461.20 214.60 572.76 887.12 969.47 933.86 444.22 848.30 136.57 486.59 727.36 324.10 62.03 997.77 467.40 879.54 665.53 718.54 577.91 680.31 984.31 717.77 976.93 963.00 596.50 942.78 958.26 988.03 71.12 986.73 526.37 500.13 586.51 531.72 699.72 850.48 628.58 496.45 947.73 781.72 816.28 630.42 568.78 841.00 140.50 92.55 208.82 1003.07 574.06 583.16 693.13 991.03 758.65 965.50 901.08 631.56 869.05 622.05 420.38 948.22 831.95 493.59 858.61 950.28 1038.28 617.70 604.77 908.83 860.11 952.27 694.90 698.10 668.17 53.67 642.18 1000.22 675.65 784.36 305.85 830.35 799.26 975.90 105.42 989.20 992.22 735.95 512.93 928.24 872.88 157.92 485.23 550.40 622.12 833.95 431.52 449.57 531.99 639.96 679.59 549.54 1045.13 645.70 487.89 821.71 588.73 825.84 872.86 596.84 568.96 357.73 915.71 45.24 681.01 412.50 553.69 900.92 956.99 653.59 1017.98 0.00 507.01 953.17 603.12 991.17
224.07 63.66 740.92 1030.31 619.99 225.08 103.04 509.02 197.70 186.71 547.04 702.81 10.56 997.95 189.79 258.95 668.39 707.33 542.80 703.94 261.71 746.90 480.42 418.09 551.90 744.03 366.24 351.33 712.60 76.45 981.09 371.76 156.70 792.17 484.24 685.67 198.13 488.19 57.07 570.74 452.35 494.63 544.36 615.07 1057.79 1043.67 774.75 205.42 728.49 1000.49 566.82 522.95 157.01 992.92 564.29 244.99 1023.27 688.63 244.50 613.67 452.17 711.73 762.83 576.94 790.30 695.48 929.73 531.77 565.75 526.84 529.50 690.88 113.66 380.88 71.40 104.12 176.46 678.52 456.97 201.45 574.57 1002.98 618.56 632.22 612.37 449.12 709.45 450.07 690.17 521.88 1029.74 694.35 1022.92 422.55 281.79 740.16 299.86 1019.19 511.19 1040.88 946.39 199.75 1024.78 1026.20 1045.56 555.89 1010.66 578.83 716.88 116.06 45.83 447.94 546.26 451.48 629.42 1027.57 457.48 564.23 360.75 760.68 600.07 588.78 535.62 715.83 1074.03 308.00 137.55 462.69 974.42 484.75 972.05 540.70 193.77 542.10 388.52 665.96 1006.74 513.03 693.74 826.13 569.43 1104.05 158.38 126.76 568.12 454.77 1037.33 209.01 397.20 423.81 551.20 408.65 1044.78 388.18 500.10 596.87 484.53 565.92 1027.15 435.74 1010.91 1052.45 972.03 140.78 610.73 480.02 644.61 171.49 718.37 359.54 507.00 712.13 110.92 773.69 807.93 224.49 686.46 711.90 160.78 684.54 561.92 178.70 539.34 1016.00 793.49 97.92 520.43 1011.31 515.25 379.62 600.50 104.12 552.69 952.41 383.35 1083.95 507.01 0.00 936.56 385.51 686.95
989.07 1000.22 608.77 105.47 768.99 1088.75 1039.60 989.71 1122.76 893.60 737.80 533.27 947.12 98.66 1085.34 892.59 649.43 1038.25 790.80 547.35 1107.69 646.13 915.82 701.68 838.47 552.60 1004.74 767.90 596.99 1004.96 161.06 757.56 1093.26 661.06 930.39 565.62 1134.69 789.48 993.63 724.16 918.38 836.71 750.23 589.93 121.23 117.83 649.60 1141.98 675.33 143.27 939.29 848.45 920.11 136.66 800.18 874.78 174.27 588.52 1181.06 964.38 841.41 551.28 518.03 840.94 584.02 585.92 329.52 654.83 817.24 966.89 834.97 516.43 1050.22 784.85 1007.96 1040.68 1113.02 637.69 902.56 1138.01 780.44 98.82 825.80 596.08 733.09 954.57 593.21 854.04 692.23 917.52 93.18 581.42 276.59 748.36 956.16 557.96 1216.06 148.61 744.95 220.88 9.83 844.11 174.05 171.17 109.00 942.88 98.08 624.27 592.99 1052.62 982.39 696.25 770.12 592.38 606.66 196.37 771.35 806.50 803.46 543.96 677.60 947.87 860.62 1009.44 211.76 795.52 1074.09 687.16 37.86 797.43 225.49 764.14 1130.33 757.33 738.00 640.00 98.62 840.34 562.18 273.17 846.31 246.97 1094.94 1063.32 791.56 915.87 111.22 1082.69 724.62 751.00 940.18 717.87 145.49 860.34 798.60 734.45 895.50 719.34 90.59 952.08 74.35 230.17 303.21 970.44 856.01 875.09 1031.60 980.96 546.39 797.38 787.59 694.39 1047.48 507.17 456.83 1161.05 576.20 849.70 1097.34 670.01 759.71 1115.26 745.92 239.33 689.92 1034.48 784.26 264.47 951.05 763.84 627.80 1040.68 776.13 131.68 736.42 233.74 953.17 936.56 0.00 827.31 904.63
377.73 413.81 665.57 895.42 296.86 349.17 370.49 577.04 387.28 215.54 295.11 599.70 377.49 869.72 378.87 199.28 661.84 771.88 205.20 666.03 553.30 682.62 588.83 147.68 359.62 625.37 596.26 59.41 616.39 336.76 830.75 78.58 370.24 732.39 262.43 670.64 428.20 171.37 424.90 262.72 177.62 210.43 284.95 526.43 927.31 915.44 714.97 375.12 738.35 805.47 648.80 238.75 253.73 856.83 255.35 140.52 829.55 611.19 478.78 748.62 92.33 642.05 668.48 344.19 671.64 676.30 720.51 282.56 290.92 615.63 245.30 639.54 292.28 76.46 344.35 339.50 397.10 625.76 547.12 384.42 300.45 849.92 337.89 608.13 245.18 555.47 624.82 124.24 675.83 630.01 902.67 591.24 885.19 140.40 247.67 625.61 482.14 868.28 185.50 870.16 817.48 185.76 833.08 848.56 915.08 658.61 839.80 562.67 613.77 360.22 342.22 189.19 265.06 234.93 526.31 784.27 179.99 228.50 27.30 667.20 275.36 672.79 644.03 795.75 893.37 155.43 371.29 161.47 861.70 155.53 862.28 315.66 340.47 283.63 156.80 626.79 878.51 228.83 593.79 748.69 347.16 928.58 425.83 345.35 305.71 256.99 909.10 365.75 106.14 151.26 619.84 137.03 880.38 72.53 184.45 545.41 227.23 257.90 898.24 497.70 856.10 885.45 735.02 273.98 339.62 269.76 727.91 289.45 648.69 128.63 248.53 645.27 464.53 670.80 705.93 430.66 616.78 442.01 381.51 720.67 236.29 421.51 244.51 830.17 777.50 374.58 524.61 882.71 617.09 97.47 602.14 373.35 315.50 824.18 131.42 932.19 603.12 385.51 827.31 0.00 392.17
716.99 639.37 926.81 896.63 241.51 554.26 708.06 949.49 617.95 553.11 510.28 901.48 676.39 876.91 616.51 528.33 879.07 1104.63 200.55 929.04 807.40 936.04 951.31 435.15 135.78 929.13 935.02 438.88 892.04 648.58 983.94 428.80 663.59 1009.29 302.66 933.32 738.50 273.72 686.36 252.21 315.90 207.28 154.50 843.58 872.73 847.56 1005.26 655.78 983.40 924.98 1016.60 222.93 604.80 914.91 170.75 490.52 958.45 832.23 724.83 1100.51 318.45 875.75 908.82 194.20 956.13 905.44 939.98 573.92 203.94 1003.68 205.54 872.30 614.15 389.74 630.51 677.07 667.86 881.40 897.12 725.30 177.33 880.53 270.37 884.29 177.66 930.77 850.44 387.98 952.38 993.14 873.62 807.31 926.37 388.47 493.10 882.87 759.40 926.86 325.56 998.86 914.46 528.80 952.03 955.61 870.03 1001.82 915.11 837.72 867.19 668.13 641.12 490.53 140.69 482.58 849.55 1000.84 358.73 248.98 364.87 882.89 227.03 1023.69 950.78 1089.00 992.20 541.35 673.05 404.61 941.49 290.58 991.38 167.71 623.96 160.67 482.77 879.19 884.49 225.68 851.04 884.71 118.25 1027.41 727.50 698.99 140.29 286.44 882.69 559.24 423.68 402.47 1007.89 478.97 923.74 350.89 238.97 887.37 266.29 247.39 875.19 885.75 915.85 997.58 892.14 652.14 160.41 247.79 1079.68 639.45 833.12 482.80 179.95 974.31 711.23 907.78 835.27 711.23 865.03 125.87 605.62 962.65 175.48 698.53 243.00 992.38 1026.86 686.27 874.83 965.67 989.54 398.26 865.73 679.83 155.72 922.45 463.83 999.09 991.17 686.95 904.63 392.17 0.00
DEMAND_SECTION
1 0
2 28
3 81
4 4
5 15
6 6
7 99
8 100
9 72
10 48
11 13
12 12
13 62
14 47
15 5
16 28
17 56
18 20
19 47
20 99
21 78
22 39
23 38
24 60
25 14
26 15
27 4
28 87
29 5
30 10
31 41
32 34
33 59
34 14
35 34
36 97
37 58
38 63
39 10
40 27
41 17
42 75
43 43
44 58
45 62
46 9
47 41
48 86
49 35
50 48
51 69
52 70
53 49
54 6
55 82
56 76
57 98
58 36
59 78
60 14
61 53
62 57
63 46
64 97
65 19
66 35
67 30
68 9
69 2
70 55
71 81
72 6
73 83
74 84
75 39
76 86
77 97
78 65
79 30
80 64
81 33
82 54
83 37
84 45
85 7
86 11
87 33
88 8
89 45
90 62
91 60
92 95
93 24
94 61
95 65
96 86
97 29
98 20
99 19
100 5
101 81
102 2
103 96
104 75
105 19
106 68
107 95
108 80
109 93
110 46
111 47
112 80
113 43
114 9
115 78
116 51
117 29
118 87
119 3
120 26
121 54
122 78
123 42
124 33
125 43
126 6
127 6
128 97
129 89
130 7
131 51
132 31
133 18
134 13
135 78
136 18
137 30
138 67
139 16
140 74
141 1
142 58
143 63
144 5
145 13
146 43
147 10
148 69
149 90
150 76
151 48
152 36
153 16
154 60
155 91
156 71
157 7
158 27
159 74
160 81
161 48
162 85
163 42
164 64
165 16
166 86
167 60
168 97
169 84
170 86
171 99
172 92
173 26
174 67
175 24
176 55
177 100
178 95
179 45
180 22
181 48
182 52
183 75
184 77
185 87
186 33
187 31
188 48
189 23
190 28
191 37
192 63
193 24
194 24
195 98
196 43
197 85
198 28
199 74
200 52
201 96
DEPOT_SECTION
1
-1
EOF
