NAME: LDG200_3364_rain_200_0179
COMMENT: CVRP with travel times.  rootPos=3,custPos=3,demandType=6,avgRouteSizeIndex=4,weather=rain,lambda_cluster=1,lambda_random=4, T1=300,T2=700,beta=1, alpha(i,j) ~ U(0.8,1.2)
TYPE: CVRP
DIMENSION: 201
EDGE_WEIGHT_TYPE: EXPLICIT
EDGE_WEIGHT_FORMAT: FULL_MATRIX
CAPACITY: 809
NODE_COORD_SECTION
1 0 0
2 900 796
3 373 733
4 790 938
5 875 909
6 124 581
7 409 889
8 43 859
9 520 669
10 365 666
11 943 742
12 779 206
13 293 211
14 441 572
15 549 491
16 409 570
17 626 270
18 526 455
19 525 194
20 794 876
21 304 395
22 917 90
23 201 606
24 949 102
25 498 222
26 683 350
27 391 347
28 431 546
29 513 299
30 272 475
31 630 744
32 322 598
33 388 638
34 720 538
35 911 898
36 503 453
37 155 831
38 466 634
39 453 350
40 429 246
41 833 884
42 579 772
43 514 300
44 974 129
45 504 342
46 952 529
47 666 177
48 469 652
49 942 460
50 836 526
51 820 989
52 787 801
53 939 810
54 769 3
55 528 636
56 340 134
57 276 377
58 510 597
59 942 43
60 34 836
61 274 297
62 20 404
63 424 317
64 213 597
65 809 325
66 130 878
67 121 488
68 496 535
69 7 224
70 871 990
71 475 680
72 491 167
73 205 806
74 556 556
75 802 159
76 517 300
77 503 665
78 458 512
79 237 152
80 391 708
81 767 677
82 597 317
83 431 713
84 567 808
85 162 893
86 714 753
87 952 471
88 769 740
89 591 746
90 746 1000
91 836 972
92 45 452
93 837 917
94 603 567
95 397 531
96 129 113
97 398 725
98 805 824
99 488 455
100 449 630
101 412 123
102 852 936
103 376 699
104 408 705
105 819 974
106 851 896
107 353 871
108 381 568
109 349 164
110 416 311
111 184 970
112 281 326
113 527 655
114 168 557
115 947 879
116 101 373
117 106 842
118 410 716
119 400 500
120 378 689
121 458 632
122 410 293
123 499 524
124 705 203
125 548 290
126 454 681
127 152 314
128 391 873
129 469 566
130 902 843
131 82 277
132 906 952
133 426 648
134 151 651
135 556 711
136 469 225
137 349 641
138 98 330
139 874 969
140 724 946
141 388 747
142 320 354
143 427 411
144 580 173
145 153 208
146 918 943
147 537 616
148 465 556
149 425 274
150 133 127
151 305 941
152 183 965
153 410 225
154 413 623
155 614 219
156 107 792
157 373 104
158 166 804
159 998 482
160 665 319
161 550 980
162 574 45
163 508 645
164 79 186
165 298 159
166 907 948
167 78 961
168 464 568
169 577 849
170 338 876
171 826 957
172 737 119
173 786 109
174 218 343
175 386 650
176 653 136
177 303 477
178 607 694
179 612 17
180 602 589
181 534 773
182 642 772
183 558 601
184 269 104
185 805 405
186 104 40
187 435 641
188 298 454
189 476 375
190 503 627
191 561 150
192 470 328
193 458 388
194 490 426
195 893 375
196 442 196
197 610 658
198 506 609
199 915 982
200 898 459
201 817 967
EDGE_WEIGHT_SECTION
0.00 1127.03 801.31 1154.73 1208.37 538.13 968.73 886.49 793.79 725.87 1166.36 824.01 454.17 703.47 770.47 663.90 704.52 711.69 626.31 1116.29 556.42 999.26 667.18 1015.81 583.48 803.43 593.55 700.73 616.07 560.40 912.78 660.17 760.06 948.88 1247.98 737.42 843.70 726.34 623.13 548.60 1145.62 908.94 622.39 1053.79 668.66 1109.39 741.44 753.12 1057.44 1034.94 1217.65 1088.93 1211.84 760.81 768.34 430.79 506.76 722.25 983.10 882.54 445.93 444.62 568.12 659.78 922.49 894.79 500.92 706.16 302.25 1246.82 785.43 581.64 810.20 767.69 890.83 624.32 760.90 721.98 351.07 791.94 1010.48 702.06 806.98 945.52 901.06 1012.33 1064.68 1022.04 906.40 1150.51 1193.06 491.28 1174.18 800.95 661.48 250.34 808.15 1090.26 724.87 753.28 470.86 1211.22 769.38 803.02 1202.35 1165.60 924.45 704.05 452.61 588.39 979.90 488.66 791.78 595.99 1241.32 427.60 864.34 808.38 661.67 757.01 739.74 578.39 725.82 783.64 673.25 784.62 312.72 961.88 656.43 1195.53 390.14 1251.64 737.90 630.62 839.69 533.57 742.52 333.75 1213.10 1114.71 823.75 533.92 648.32 629.69 284.14 1227.89 759.30 671.16 564.01 281.79 984.55 988.87 574.34 744.82 707.26 775.15 404.59 790.42 1145.83 776.71 1067.58 657.84 769.16 314.72 373.23 1248.56 965.67 665.41 988.25 901.05 1169.79 808.13 895.94 417.44 763.37 733.56 539.79 858.48 705.39 800.22 904.58 944.05 781.81 331.63 950.76 189.88 760.70 505.83 619.78 760.04 629.81 605.85 670.67 693.99 1004.88 566.23 830.23 743.56 1265.90 970.52 1194.33
1127.03 0.00 594.12 233.10 173.47 832.14 601.39 918.38 470.12 583.57 81.17 608.22 848.87 569.35 522.78 603.98 712.65 597.58 739.26 191.45 703.07 764.52 761.94 757.17 735.37 659.14 669.61 596.59 656.06 678.98 344.63 656.66 532.66 443.64 164.08 576.29 826.85 482.21 637.91 715.00 156.62 422.57 656.04 716.30 649.25 386.40 737.07 508.99 417.83 306.73 222.69 145.72 84.81 861.12 504.24 854.93 709.65 504.28 764.42 873.40 817.61 976.98 665.59 740.25 501.31 865.75 818.61 535.33 1016.79 193.23 523.92 752.90 753.92 482.99 686.35 650.12 503.01 575.50 908.18 571.08 199.85 615.49 550.89 418.97 830.06 285.06 399.02 221.38 402.28 302.29 213.46 871.81 135.85 434.56 626.82 1041.64 536.76 206.03 602.56 509.15 850.38 172.89 579.22 572.23 219.50 130.70 638.66 599.24 861.45 645.32 800.60 790.45 495.36 774.28 114.29 908.26 868.77 567.07 643.29 587.70 495.61 685.15 553.19 642.38 682.22 534.64 832.41 604.51 552.12 87.55 945.81 154.86 526.22 792.16 433.50 738.56 621.09 879.77 187.11 268.62 569.66 763.50 590.46 772.37 959.01 162.14 479.84 564.35 699.69 1010.19 720.63 791.63 760.40 557.79 749.57 868.21 901.02 831.69 392.04 640.46 423.27 887.20 474.26 1020.12 890.37 141.47 936.59 553.00 420.58 641.30 190.19 720.07 746.90 814.49 563.28 776.30 655.16 403.44 853.94 464.59 469.97 383.23 444.72 977.21 488.85 1069.37 524.65 621.20 663.92 514.42 814.46 586.44 640.16 589.71 500.30 740.57 388.69 525.36 187.72 422.01 214.73
801.31 594.12 0.00 497.40 542.94 340.27 198.12 358.67 193.69 75.44 623.49 646.15 521.62 205.12 295.26 189.10 543.97 325.61 556.61 439.42 390.84 834.84 253.81 836.22 530.39 468.73 436.70 190.62 465.08 309.07 275.28 161.79 117.61 396.02 584.67 310.97 298.48 124.87 401.70 497.93 488.22 240.79 462.75 877.09 409.53 611.56 649.71 151.65 681.38 532.93 528.91 474.19 613.03 820.96 200.87 625.42 372.09 179.38 880.95 393.23 469.09 477.31 456.99 232.12 644.47 271.63 419.67 260.35 645.28 565.89 161.58 561.65 253.21 253.85 716.48 456.83 178.12 235.86 612.34 40.88 394.27 477.01 91.20 238.89 317.80 397.33 656.36 423.77 259.79 477.72 556.65 500.46 496.63 300.12 199.70 626.29 57.36 471.41 312.02 144.29 615.88 520.37 50.60 47.68 555.76 500.17 166.84 208.63 602.05 470.34 377.11 426.36 192.99 287.53 608.95 498.93 328.84 63.81 251.52 62.97 138.27 453.97 249.26 657.69 481.93 129.28 522.15 179.10 194.78 575.77 586.78 544.37 120.18 256.77 210.78 539.22 126.95 535.72 532.17 450.27 34.95 365.81 337.52 603.65 620.73 570.45 216.43 209.51 458.82 657.74 267.86 368.14 521.23 145.44 550.64 377.22 670.86 304.42 659.26 530.49 314.08 734.21 170.89 688.01 607.07 557.76 390.64 195.66 222.75 190.24 539.96 688.74 743.29 455.84 112.94 666.73 313.09 244.72 735.51 284.03 206.47 324.08 238.94 669.92 553.99 716.18 126.41 316.13 384.74 196.24 621.17 418.58 354.44 321.20 647.40 548.86 243.65 200.06 598.44 609.76 556.36
1154.73 233.10 497.40 0.00 104.59 808.40 385.81 783.04 426.72 557.35 314.27 763.29 885.03 515.34 562.94 564.39 734.73 566.77 819.11 99.02 735.61 893.51 731.89 847.23 745.19 675.20 742.53 534.29 729.47 711.59 329.72 617.20 538.35 459.10 148.96 597.79 702.32 455.99 705.33 804.73 76.48 297.33 727.14 866.81 702.75 464.78 762.52 434.42 550.62 450.93 97.38 167.80 240.89 980.48 441.19 937.82 785.85 459.31 927.24 794.26 788.45 972.55 766.11 710.20 670.93 708.61 838.51 544.67 1092.38 125.47 458.60 811.34 602.58 514.49 758.79 721.22 393.83 579.53 967.06 526.34 280.13 748.13 470.39 314.44 663.07 259.57 525.60 210.63 332.55 121.25 81.94 904.64 105.94 456.92 572.81 1039.49 505.10 107.49 618.76 471.94 915.97 116.05 541.17 513.91 70.53 102.40 471.27 571.42 890.05 745.84 567.50 773.24 424.71 779.97 197.58 921.60 711.37 512.50 604.65 531.10 467.79 733.70 547.61 780.06 761.86 454.24 911.83 437.52 498.30 164.03 948.57 179.41 488.66 723.53 366.58 795.10 592.61 938.24 139.65 92.92 501.84 753.22 669.24 820.00 948.38 185.84 452.44 513.03 767.06 1051.78 505.05 558.53 829.47 503.13 818.42 726.59 972.59 680.35 551.76 662.54 264.02 886.43 424.25 1042.18 957.84 166.02 721.01 507.28 274.65 447.87 85.75 864.48 819.34 834.62 534.29 809.79 684.09 384.55 968.51 453.84 355.12 267.69 487.56 968.57 569.21 1110.94 494.93 700.62 679.61 452.75 859.70 744.91 672.48 621.96 584.58 806.16 374.85 475.35 185.47 561.41 61.21
1208.37 173.47 542.94 104.59 0.00 836.86 490.40 887.63 485.98 590.70 254.64 744.01 930.13 560.60 503.31 597.14 743.65 571.27 804.94 103.52 770.50 881.23 768.96 854.23 776.09 640.05 744.81 592.08 703.08 732.81 347.81 662.92 605.52 457.29 44.37 588.84 799.62 509.93 648.18 794.02 68.69 383.27 696.76 814.22 693.80 473.29 754.73 501.59 504.72 367.81 130.49 198.87 171.70 959.02 477.01 918.25 808.10 492.06 879.55 898.46 849.68 975.05 727.22 747.27 651.65 804.98 873.99 566.47 1101.76 101.43 496.69 842.24 695.89 500.43 737.33 702.68 477.45 587.92 952.09 539.32 238.39 731.65 516.11 351.51 758.81 257.83 529.74 194.15 362.08 207.44 105.49 958.58 64.60 440.44 618.07 1081.05 542.17 141.56 601.72 536.87 886.03 54.13 562.29 513.55 103.64 42.77 575.86 588.19 870.48 730.09 672.09 831.03 483.35 814.62 101.28 938.79 810.74 549.81 649.28 559.56 523.33 717.22 562.68 738.32 750.50 528.99 919.91 533.26 551.94 94.94 1007.21 95.61 550.39 775.69 429.62 785.58 597.20 959.46 67.71 197.51 570.81 776.00 667.50 808.87 987.17 102.89 511.73 548.65 750.58 1049.85 609.64 663.12 812.99 570.30 788.11 819.90 936.86 745.25 469.17 693.61 353.26 907.14 447.03 1080.97 941.36 82.22 825.60 551.62 351.75 552.46 104.83 847.76 797.88 859.35 591.78 802.00 685.69 384.01 951.85 437.36 400.84 326.98 483.26 973.07 549.93 1113.28 532.41 719.65 684.11 501.00 855.18 699.65 643.03 626.46 591.58 776.22 408.92 498.13 128.47 483.09 92.02
538.13 832.14 340.27 808.40 836.86 0.00 430.60 348.36 451.77 278.33 865.18 717.91 483.26 348.50 390.74 337.31 588.20 452.01 546.04 779.69 298.62 940.33 130.65 909.71 540.60 601.82 394.03 317.02 462.84 248.04 544.27 230.06 299.48 611.25 847.31 438.33 305.57 379.69 419.48 505.44 785.43 511.07 462.82 922.41 456.03 844.57 665.15 388.32 846.81 748.16 788.12 726.19 884.79 893.37 433.88 536.74 305.20 421.36 987.90 365.36 380.36 265.36 437.51 121.65 788.18 356.66 116.68 400.43 453.34 865.68 378.18 559.68 324.10 459.32 758.48 456.90 422.19 362.26 541.65 312.64 663.66 548.83 338.01 517.41 402.83 611.66 871.83 675.34 510.08 775.01 815.86 160.19 772.26 505.59 316.54 503.90 326.75 743.17 438.42 376.31 566.13 809.30 289.67 323.31 814.97 809.72 386.32 296.45 488.97 417.24 441.77 401.77 437.01 57.86 902.47 264.84 326.21 328.67 361.28 277.30 393.09 457.07 387.99 642.43 511.47 387.31 304.88 442.40 369.59 846.09 384.86 860.37 361.46 92.49 442.54 493.96 275.47 326.33 843.30 748.05 356.86 359.05 355.30 616.06 431.48 859.47 438.95 375.80 471.61 472.45 446.42 450.74 481.55 347.30 617.79 237.02 571.51 353.19 863.01 623.40 635.99 724.98 425.45 470.44 507.69 846.98 427.54 360.61 563.02 362.92 826.60 733.63 819.03 291.90 315.83 652.98 250.71 503.93 791.75 507.19 453.28 557.00 474.07 567.01 701.74 572.41 361.35 216.75 415.13 405.85 600.75 393.22 359.31 419.16 817.59 513.47 513.14 436.32 892.58 803.86 826.59
968.73 601.39 198.12 385.81 490.40 430.60 0.00 411.11 300.59 254.38 578.30 777.64 694.37 329.62 421.82 356.83 672.34 453.09 652.67 484.83 541.60 1000.11 404.21 953.83 623.82 617.23 556.62 345.10 550.81 447.50 282.25 331.97 285.74 513.63 534.77 428.58 331.10 242.48 543.01 644.50 444.77 214.70 544.49 993.33 533.54 718.96 738.71 269.26 754.48 558.17 483.19 459.91 595.83 938.57 332.16 744.16 559.70 296.99 998.56 416.91 616.95 675.43 587.52 382.52 762.08 323.43 505.87 379.80 815.46 511.28 301.57 689.97 216.77 374.62 843.96 550.41 300.59 370.02 766.82 195.36 445.39 594.62 246.87 186.66 277.26 383.75 740.34 397.76 241.41 507.06 467.75 590.79 491.75 373.83 345.43 824.41 196.07 454.21 435.59 269.42 741.01 501.86 218.33 220.43 456.34 470.69 100.58 356.17 764.81 567.25 329.28 584.05 325.83 436.21 565.87 607.23 331.62 205.21 397.25 230.70 255.88 588.51 366.87 766.60 598.23 278.09 676.63 51.71 312.39 532.32 737.18 562.70 263.62 338.11 227.26 633.31 265.38 674.15 525.46 447.04 163.17 514.70 492.00 722.69 709.74 571.65 334.04 327.12 620.34 813.14 119.24 320.31 668.42 299.90 668.25 340.78 804.16 294.54 737.27 629.07 371.81 831.49 302.18 803.54 774.63 551.83 335.20 313.27 261.97 77.18 471.56 840.67 860.90 594.55 291.88 753.10 467.12 288.65 884.25 386.84 156.91 305.19 356.55 827.61 680.02 897.35 252.97 486.31 521.08 313.85 702.91 539.64 498.34 448.94 721.11 679.88 297.86 317.67 508.63 673.45 447.02
886.49 918.38 358.67 783.04 887.63 348.36 411.11 0.00 527.26 434.11 930.36 980.10 728.74 522.55 628.83 527.93 873.03 659.18 847.94 798.09 529.06 1184.31 357.60 1156.74 819.09 802.30 690.54 524.19 746.08 499.73 603.63 431.85 423.52 754.69 911.27 634.56 136.68 483.54 711.86 750.02 828.18 590.07 739.76 1197.61 694.43 950.11 960.08 497.16 996.79 884.51 826.15 772.66 882.89 1143.49 545.99 799.31 547.54 499.90 1203.04 44.98 604.80 482.90 680.16 377.05 996.46 115.79 423.63 585.26 760.29 860.74 482.14 831.72 194.34 577.53 1050.05 741.73 517.32 569.43 762.64 374.45 745.68 811.61 430.40 538.72 161.96 678.47 971.77 742.15 611.20 745.71 835.61 457.56 827.93 620.64 551.30 800.01 408.77 804.98 645.59 490.12 796.57 864.01 397.42 400.22 821.05 854.10 326.38 508.67 756.58 683.67 223.36 647.53 545.53 353.97 947.88 571.79 79.49 397.38 540.99 409.79 492.04 695.33 588.20 957.92 770.07 478.32 611.83 382.46 546.77 862.47 676.93 903.04 459.27 255.87 544.35 806.46 427.01 605.21 868.18 731.48 393.62 589.49 671.09 881.50 738.43 925.64 536.95 532.04 726.52 768.56 334.74 224.51 740.25 456.15 883.35 168.68 835.22 192.99 992.83 844.62 571.14 990.91 524.66 766.55 776.37 913.82 144.14 550.53 581.42 349.78 853.61 1019.82 1078.76 608.49 413.64 948.37 495.29 597.26 1033.96 629.28 545.67 642.60 559.46 848.93 912.66 868.52 459.98 529.25 703.65 537.69 893.11 741.58 688.01 653.86 967.92 785.26 577.22 521.21 906.58 930.28 832.67
793.79 470.12 193.69 426.72 485.98 451.77 300.59 527.26 0.00 177.74 504.50 566.63 524.09 152.52 210.81 178.90 462.92 233.77 470.95 394.17 371.87 766.40 351.81 740.55 458.67 430.39 381.59 173.35 385.66 348.77 149.88 250.83 176.32 228.52 527.98 258.85 444.38 76.38 329.73 459.43 442.97 155.29 379.34 730.14 335.77 462.09 514.67 73.48 531.91 365.43 480.76 348.79 435.34 760.05 51.40 576.88 411.18 83.71 802.78 536.84 455.03 596.95 406.14 330.12 503.19 465.32 462.29 169.07 696.27 523.80 97.87 507.65 369.27 142.26 624.64 381.08 32.89 175.27 615.75 152.81 270.27 399.76 114.96 195.45 480.26 292.33 506.89 291.83 128.39 481.33 493.33 525.03 425.87 145.38 209.99 678.55 168.42 372.11 235.96 103.32 574.91 462.91 175.78 158.48 477.48 454.92 318.76 193.41 529.11 411.64 506.12 412.30 25.24 406.54 512.11 573.45 484.12 157.07 200.95 174.50 89.78 409.99 172.01 566.82 386.26 93.30 548.18 275.00 137.36 490.31 549.10 523.25 120.39 362.59 86.04 468.16 216.02 575.42 496.91 404.51 198.66 367.92 320.25 530.22 579.76 497.68 78.72 148.60 425.59 683.16 396.13 515.09 455.14 142.19 490.04 489.93 576.33 428.57 545.44 425.05 355.30 651.62 38.95 673.56 599.60 509.86 584.33 143.54 221.71 295.36 480.21 616.63 680.69 473.68 163.64 561.94 320.35 145.63 706.04 156.63 143.68 194.16 89.49 635.57 401.47 748.12 118.82 336.97 332.32 45.92 523.04 375.47 303.59 260.55 492.66 485.02 113.68 77.60 556.11 479.72 465.86
725.87 583.57 75.44 557.35 590.70 278.33 254.38 434.11 177.74 0.00 597.89 607.69 521.22 146.41 251.87 157.27 512.14 270.72 501.72 514.86 333.81 815.31 178.37 799.49 477.46 476.11 393.25 173.21 391.81 240.13 298.11 104.76 68.12 372.51 601.15 258.42 357.64 101.36 379.68 465.34 539.27 264.91 398.13 840.36 363.38 592.71 618.45 128.14 647.32 509.42 604.35 477.69 613.08 788.09 182.02 586.48 347.55 155.87 847.64 459.01 419.60 486.09 411.84 156.68 586.90 347.07 344.63 184.91 588.25 630.86 132.02 543.61 286.67 233.50 661.59 400.06 163.52 180.97 593.17 66.07 419.19 432.32 91.85 272.94 393.24 365.50 637.51 417.14 284.71 525.53 603.71 438.52 526.10 275.72 186.61 643.12 82.28 496.60 264.10 113.98 583.16 563.14 43.51 77.15 608.14 563.56 201.76 148.50 554.61 401.40 431.60 376.87 158.68 251.16 653.73 441.90 396.85 82.51 214.08 31.14 114.76 388.54 204.57 613.00 439.02 120.47 466.27 236.01 170.92 599.93 511.34 615.90 83.13 269.69 218.29 474.31 58.01 466.78 597.14 492.12 97.88 345.02 320.11 548.76 579.53 613.31 192.92 176.64 421.90 650.22 302.78 422.63 484.31 80.01 526.78 330.67 604.67 324.30 584.68 483.05 377.01 683.75 164.26 638.52 550.04 602.51 466.08 172.15 298.19 225.16 580.44 676.26 718.59 408.32 37.50 594.10 261.08 262.38 718.10 283.45 207.12 316.99 215.43 620.43 542.53 727.67 83.02 259.10 344.06 172.73 555.17 407.59 309.29 298.46 623.00 486.65 268.84 159.75 646.42 586.25 604.98
1166.36 81.17 623.49 314.27 254.64 865.18 578.30 930.36 504.50 597.89 0.00 527.05 927.36 524.30 590.32 549.19 685.77 614.59 785.18 234.50 747.24 722.28 765.51 676.00 799.40 604.16 750.78 555.78 713.75 720.55 354.62 635.12 591.01 363.46 218.59 629.48 850.35 498.62 690.13 796.17 237.79 441.26 720.07 635.13 690.61 343.30 655.90 525.40 435.52 387.90 303.86 226.89 102.50 779.95 490.20 933.78 790.82 444.11 778.51 940.01 837.46 957.35 746.76 743.82 582.48 859.24 847.47 529.47 1097.96 252.45 552.99 814.74 736.02 521.74 605.18 722.00 509.59 572.35 989.35 607.99 260.13 696.64 560.88 391.64 813.07 314.13 422.97 250.45 418.33 330.86 294.63 947.27 217.02 496.74 581.77 1051.20 582.30 244.12 606.61 525.56 871.34 254.06 612.15 582.22 300.67 211.87 643.60 588.10 886.01 726.49 873.44 794.73 525.74 814.94 179.27 948.82 850.87 602.99 606.32 601.69 512.02 766.32 532.41 561.21 714.19 559.12 913.58 587.52 509.93 168.72 1013.42 236.03 542.63 818.96 457.98 796.25 618.71 947.20 268.28 334.48 615.20 796.02 671.63 715.16 982.21 243.31 475.00 524.66 780.86 1071.11 697.54 864.47 815.54 517.88 696.45 860.03 937.61 813.79 430.28 665.92 504.44 839.60 503.33 1070.59 954.53 222.64 913.50 518.91 466.95 655.48 271.36 638.90 665.73 876.89 560.39 698.01 695.72 440.31 772.77 493.66 479.96 412.30 503.67 955.05 527.02 1119.90 541.06 702.37 692.72 481.90 774.19 667.61 695.42 635.57 470.41 761.53 448.97 465.42 266.29 361.92 295.90
824.01 608.22 646.15 763.29 744.01 717.91 777.64 980.10 566.63 607.69 527.05 0.00 499.76 520.61 355.82 529.10 237.04 424.99 264.34 684.87 480.28 238.08 687.70 191.80 334.42 257.43 407.86 492.27 261.41 589.18 630.98 619.25 556.58 367.03 745.64 413.27 858.17 544.69 356.32 380.80 733.09 650.98 255.09 232.67 308.31 389.12 141.70 517.91 338.10 376.20 808.17 618.50 629.55 252.90 544.39 449.10 533.23 502.03 271.49 979.35 514.13 798.56 370.49 709.39 210.25 912.58 676.14 440.96 773.21 779.50 550.22 293.90 811.77 424.40 78.13 261.01 556.95 480.54 559.07 610.20 550.22 293.16 591.59 686.98 910.27 616.34 360.05 552.66 654.17 843.35 808.68 722.29 744.07 503.65 518.14 667.40 634.32 655.80 414.62 545.08 375.92 760.96 595.55 624.45 817.97 707.17 753.80 565.87 442.56 371.32 909.47 551.23 571.94 714.59 706.32 693.91 915.36 604.84 528.05 583.18 532.29 393.74 421.30 112.48 308.83 564.81 625.89 758.34 505.93 695.77 731.72 763.08 547.47 753.47 616.05 319.20 623.79 695.11 768.30 776.69 647.92 499.58 408.34 194.32 637.28 770.36 507.76 505.00 382.94 635.95 843.90 918.44 385.37 559.43 240.77 892.13 442.19 834.42 423.55 195.67 865.96 312.55 535.62 696.18 502.31 749.69 1031.59 507.49 732.37 771.99 785.41 111.85 138.68 602.59 587.20 170.96 565.09 564.30 326.01 487.47 667.83 692.51 477.14 559.68 194.08 701.20 524.67 550.83 368.48 531.16 253.35 324.69 378.28 411.95 200.85 326.37 564.04 499.48 793.34 309.34 809.54
454.17 848.87 521.62 885.03 930.13 483.26 694.37 728.74 524.09 521.22 927.36 499.76 0.00 414.78 429.88 420.13 373.79 382.62 293.06 850.37 262.68 683.73 428.07 691.56 272.01 467.90 276.91 383.30 288.45 298.08 669.58 476.70 453.10 604.00 891.85 382.93 691.80 482.55 285.46 243.73 899.17 651.55 285.11 730.52 303.61 761.86 400.74 509.33 759.10 707.32 965.17 847.45 928.81 579.02 529.34 103.80 248.53 483.25 690.26 754.87 123.94 423.51 223.82 449.76 585.04 742.94 424.26 433.91 345.93 982.11 541.64 205.86 681.67 492.30 574.59 280.20 491.20 355.01 157.21 499.71 691.74 374.44 517.46 701.34 728.18 734.80 784.12 752.01 641.03 906.72 952.10 460.16 878.33 505.72 421.96 203.83 510.68 855.15 380.56 505.18 187.97 915.37 511.90 473.94 955.56 890.42 670.15 448.19 132.12 203.55 825.83 144.35 522.08 500.86 948.76 323.56 685.73 510.20 370.14 499.53 488.52 243.38 414.25 459.39 338.85 526.18 236.06 663.70 435.87 902.89 349.46 946.81 516.29 485.79 599.10 287.19 480.20 305.28 949.37 894.15 531.20 202.25 339.86 305.44 175.68 972.89 505.23 426.76 217.22 235.28 749.26 834.80 173.66 476.50 383.01 667.98 160.72 707.63 848.84 445.69 810.33 370.83 521.62 269.48 88.61 960.20 821.37 426.89 718.55 684.08 928.83 464.16 551.97 191.36 483.72 409.31 343.71 604.91 378.40 541.76 632.73 689.98 485.79 175.45 623.14 318.40 493.49 332.03 311.12 521.04 303.11 262.43 290.16 350.01 656.77 234.79 598.40 502.60 998.51 712.72 946.24
703.47 569.35 205.12 515.34 560.60 348.50 329.62 522.55 152.52 146.41 524.30 520.61 414.78 0.00 164.79 64.29 382.99 160.99 397.47 482.90 263.97 733.71 274.05 712.41 373.77 346.85 277.56 31.48 310.13 196.25 287.37 176.92 139.53 325.71 604.97 155.31 424.47 87.14 242.56 375.96 503.56 273.32 311.04 735.72 260.27 531.98 488.15 107.11 564.22 447.72 575.59 446.87 585.34 649.22 121.29 472.49 299.54 80.19 778.64 520.80 313.16 517.90 297.85 252.36 496.73 476.75 323.17 101.81 606.68 612.77 139.42 417.41 366.35 146.27 551.86 307.57 143.99 76.72 508.81 164.24 384.62 320.45 179.26 297.28 464.31 370.27 576.78 366.45 268.77 511.31 551.00 439.66 557.44 167.56 57.47 536.68 189.19 447.71 152.88 91.97 513.53 574.06 162.37 164.16 560.29 529.48 320.83 63.80 474.72 318.12 533.72 270.43 149.89 290.64 624.66 432.26 481.20 158.88 89.31 150.21 73.74 299.16 102.45 501.13 311.05 140.84 413.38 312.38 47.04 553.47 489.12 598.38 101.51 348.99 204.07 392.63 137.31 422.90 591.73 505.32 201.96 288.08 178.38 431.63 495.32 572.30 117.24 37.77 327.04 568.13 397.94 535.15 389.45 66.40 389.08 464.87 511.72 388.46 614.43 371.83 458.19 598.04 113.57 589.12 499.82 592.97 572.54 40.00 346.36 344.23 527.73 560.80 612.41 368.64 108.91 505.17 179.16 211.02 576.37 190.83 258.84 301.99 139.75 513.99 467.30 595.60 78.71 213.12 197.65 117.98 469.46 277.03 195.30 159.59 485.87 415.46 220.84 101.50 637.74 510.57 552.27
770.47 522.78 295.26 562.94 503.31 390.74 421.82 628.83 210.81 251.87 590.32 355.82 429.88 164.79 0.00 173.28 334.68 74.80 329.75 521.29 285.36 593.90 396.10 547.62 301.58 276.94 252.52 136.45 215.93 318.30 311.69 263.43 229.51 253.56 547.68 96.55 514.61 188.87 211.01 319.02 486.46 329.48 222.25 588.49 194.45 516.58 432.38 162.09 459.95 388.80 561.54 480.72 593.75 608.72 188.57 416.91 352.41 146.21 627.31 623.53 372.31 592.31 242.27 374.41 412.72 556.76 482.88 85.14 642.63 588.96 194.40 361.37 456.49 68.58 433.95 224.18 201.13 124.72 495.06 254.38 366.19 282.64 235.77 363.12 554.45 352.98 484.97 374.86 298.35 561.93 563.15 536.08 498.78 147.83 179.52 595.83 279.33 475.58 98.41 189.26 456.59 514.33 252.51 268.63 582.43 460.54 430.02 214.14 414.79 253.87 553.65 329.58 216.12 395.61 569.32 538.14 571.34 249.02 192.51 264.88 176.47 268.50 65.48 428.28 270.09 208.99 473.77 402.52 150.11 527.94 558.66 570.49 191.65 446.75 260.23 298.43 267.97 525.47 560.57 548.66 292.10 286.70 189.42 320.63 486.33 569.33 151.94 149.18 266.66 589.73 488.08 562.62 329.07 203.61 359.48 565.06 433.55 478.60 551.08 262.49 527.50 498.56 179.80 580.13 457.44 557.10 675.77 151.67 397.66 416.17 553.12 467.67 494.50 424.34 237.28 418.22 298.12 240.44 518.64 131.65 322.71 336.69 121.32 476.60 311.00 656.25 168.85 285.47 187.64 175.34 379.66 246.96 139.72 129.99 426.85 350.83 208.22 143.66 597.60 430.47 571.23
663.90 603.98 189.10 564.39 597.14 337.31 356.83 527.93 178.90 157.27 549.19 529.10 420.13 64.29 173.28 0.00 424.27 171.82 402.82 524.18 223.15 744.54 284.22 720.90 397.93 388.93 282.91 36.83 330.16 215.85 317.19 114.21 104.41 331.06 611.94 184.50 426.22 121.77 247.91 384.75 528.45 293.18 323.84 746.55 289.46 561.86 512.79 139.12 542.98 467.97 600.48 471.76 614.24 690.50 151.17 477.84 246.52 105.08 794.09 504.55 318.51 495.54 303.20 262.53 525.68 455.72 355.48 120.24 553.66 637.66 137.43 448.82 351.72 181.24 562.69 329.76 170.56 82.07 517.34 161.47 409.51 335.55 177.77 334.54 462.71 376.29 568.00 427.91 282.97 534.26 575.89 408.68 580.45 208.84 86.87 542.03 177.27 504.03 158.23 94.83 490.66 603.32 138.50 172.14 585.18 554.37 296.75 40.86 451.06 323.47 522.47 275.78 153.66 292.33 649.55 445.13 466.57 175.82 116.90 126.13 108.45 312.26 107.80 516.23 347.43 122.79 369.28 329.32 75.99 578.36 482.68 613.23 125.68 320.39 223.93 412.66 108.71 416.64 612.61 534.27 205.69 283.58 183.73 414.85 495.88 587.15 142.13 79.05 332.39 564.08 397.77 517.62 394.80 113.87 413.72 430.50 517.07 366.28 647.98 377.18 482.65 592.78 175.53 556.99 448.74 607.82 550.09 80.42 350.13 320.15 552.62 574.97 610.95 351.36 124.33 518.72 192.03 238.05 581.72 219.78 272.17 326.88 164.64 519.34 482.77 659.89 111.02 158.07 232.85 142.87 473.88 299.38 200.65 197.39 527.15 420.81 248.11 126.39 652.59 523.67 577.16
704.52 712.65 543.97 734.73 743.65 588.20 672.34 873.03 462.92 512.14 685.77 237.04 373.79 382.99 334.68 424.27 0.00 293.95 183.62 665.57 362.41 422.46 565.84 419.49 212.55 133.95 278.15 389.03 139.55 424.55 506.19 503.47 453.74 374.65 749.06 283.56 740.30 429.86 226.61 177.88 714.37 520.62 137.22 404.54 178.60 479.93 174.76 456.64 436.15 444.15 796.47 566.93 703.94 324.34 411.52 317.81 415.36 425.77 403.45 871.83 370.84 658.31 252.03 583.32 240.69 815.60 546.43 359.81 651.35 780.37 481.95 245.89 708.93 369.36 240.61 131.30 458.88 343.79 421.85 516.34 530.71 112.40 524.25 561.54 801.54 556.21 452.80 549.50 485.40 791.78 768.73 628.49 745.84 342.33 388.43 547.70 532.14 627.24 291.14 456.80 315.45 719.87 493.37 517.90 777.05 723.58 651.62 439.37 363.83 249.46 868.91 382.54 443.98 596.72 763.14 572.05 793.54 508.63 366.94 481.00 442.38 249.03 340.15 124.56 179.13 469.27 504.05 662.13 359.95 776.84 581.69 731.09 461.27 635.60 465.87 208.68 472.13 573.27 764.03 725.12 555.37 354.87 286.48 146.31 502.23 757.17 411.23 345.22 215.67 555.70 747.69 872.49 252.19 449.39 94.48 789.29 299.93 738.22 498.10 72.19 721.50 311.41 441.50 578.31 353.25 744.48 913.51 363.90 587.91 675.02 766.11 249.76 301.16 459.30 484.36 210.57 432.61 459.76 300.27 306.29 536.22 551.17 376.11 417.42 323.06 583.04 460.53 428.97 245.81 446.21 182.83 194.98 260.41 273.26 366.37 246.12 395.27 424.22 785.16 431.88 765.43
711.69 597.58 325.61 566.77 571.27 452.01 453.09 659.18 233.77 270.72 614.59 424.99 382.62 160.99 74.80 171.82 293.95 0.00 277.40 467.75 210.56 572.72 388.17 615.60 249.23 238.50 186.99 134.99 163.58 318.09 346.19 286.03 261.56 251.13 613.00 31.02 576.30 210.61 165.74 267.90 516.55 357.88 169.90 574.73 135.98 557.26 383.75 236.89 504.28 388.04 615.61 498.22 642.15 606.98 207.76 392.23 277.61 206.52 640.55 671.07 316.05 517.51 199.34 384.32 444.35 597.24 450.92 136.23 580.96 645.27 269.20 286.57 500.88 143.38 390.87 171.83 245.17 89.75 429.53 284.73 405.08 216.05 310.57 398.80 582.29 427.78 515.73 440.52 322.66 634.78 591.56 476.64 548.02 213.09 189.43 543.26 319.05 532.71 57.04 237.55 405.47 582.29 305.61 286.73 600.53 528.50 463.86 212.68 395.20 179.07 628.45 293.25 242.55 394.15 637.28 463.34 615.73 299.48 157.54 293.24 224.01 218.90 131.24 388.02 197.49 260.88 398.97 452.98 140.70 602.74 483.86 638.45 240.90 482.71 319.81 246.08 280.53 455.10 619.06 567.85 341.35 211.90 141.21 344.69 477.00 637.29 171.13 155.43 233.44 558.43 538.54 637.42 295.85 209.43 284.68 597.11 420.11 538.10 476.28 275.99 546.69 445.03 237.74 570.80 424.22 625.06 708.55 146.33 416.85 484.14 568.29 447.24 451.42 349.54 251.94 365.87 274.43 289.26 500.68 197.31 375.94 355.88 196.12 401.80 355.33 590.72 237.98 283.70 112.84 227.65 316.45 188.80 115.04 55.19 471.18 298.48 265.35 203.77 665.56 421.57 592.83
626.31 739.26 556.61 819.11 804.94 546.04 652.67 847.94 470.95 501.72 785.18 264.34 293.06 397.47 329.75 402.82 183.62 277.40 0.00 745.15 333.37 502.36 540.11 456.14 73.92 236.19 235.99 365.99 113.82 415.63 571.70 490.68 492.29 464.11 849.31 266.36 711.26 448.29 204.29 154.72 793.95 547.14 108.18 497.01 161.40 582.17 173.23 475.07 519.86 532.69 872.29 669.17 792.68 408.20 449.90 242.40 359.23 403.81 460.77 857.59 294.91 547.90 223.58 558.06 321.10 790.10 529.23 371.82 574.75 882.61 507.38 87.20 728.19 398.33 340.02 114.10 469.29 320.75 328.96 515.73 626.33 181.19 543.96 608.12 788.83 665.06 544.88 657.70 568.11 811.90 850.65 599.45 806.14 440.81 371.23 427.78 545.20 711.62 292.63 444.70 155.45 805.75 520.80 517.73 845.44 790.29 699.20 418.96 211.23 211.70 864.06 286.89 485.44 567.68 853.55 515.57 768.45 534.82 381.14 528.58 461.69 210.10 366.83 223.97 114.46 491.92 428.12 688.32 388.36 798.56 517.67 886.21 466.21 606.56 540.40 114.94 491.37 477.42 851.99 796.36 566.66 315.94 260.75 70.02 421.63 874.96 416.58 386.18 178.30 396.33 768.48 866.24 134.71 444.77 122.93 780.02 221.72 721.02 599.72 174.43 788.83 247.95 462.98 514.04 279.75 877.75 858.81 381.67 656.23 719.48 827.38 248.46 336.27 383.37 468.13 173.89 368.51 500.58 248.01 451.28 582.85 601.33 381.46 339.21 422.82 490.15 468.98 392.15 214.55 441.60 129.05 152.82 231.37 264.36 459.66 86.75 501.86 419.57 889.71 534.12 851.92
1116.29 191.45 439.42 99.02 103.52 779.69 484.83 798.09 394.17 514.86 234.50 684.87 850.37 482.90 521.29 524.18 665.57 467.75 745.15 0.00 678.31 825.22 670.56 778.94 710.81 576.18 654.74 503.91 631.33 658.36 244.29 590.76 544.81 424.72 145.25 498.77 696.84 464.58 633.49 705.71 48.80 296.70 637.65 798.52 603.73 430.40 734.84 461.81 451.60 432.56 147.86 98.64 214.73 907.21 437.23 845.64 742.38 456.40 888.98 826.32 783.80 916.73 667.09 671.54 592.51 711.05 806.07 509.17 998.24 177.52 451.24 754.32 653.58 480.11 694.40 639.58 427.06 516.88 897.28 480.30 195.46 677.55 443.95 323.68 707.37 225.19 426.58 176.25 308.00 201.89 123.81 912.40 80.27 408.15 540.37 1009.11 488.63 73.11 524.79 491.52 843.28 114.54 490.02 471.89 133.10 60.75 518.44 546.70 861.09 646.82 666.52 742.86 416.40 726.95 169.53 887.22 754.03 486.06 549.17 502.39 477.98 686.65 528.83 695.39 665.24 448.79 866.72 481.82 459.86 136.35 935.31 170.70 507.55 696.19 347.65 713.83 555.54 885.01 151.31 191.94 474.37 679.65 608.96 750.84 902.68 169.54 419.35 445.13 701.19 1006.08 603.80 657.55 763.60 529.27 745.18 720.12 887.86 731.35 517.38 593.38 311.16 906.99 407.25 996.48 881.08 157.31 819.76 463.81 298.54 541.84 100.54 796.72 754.95 817.29 545.08 782.11 640.62 320.88 908.92 419.46 328.68 307.09 440.00 869.55 490.79 1058.47 484.75 674.58 580.59 434.27 784.20 656.55 582.79 522.94 516.29 766.23 340.47 458.35 197.81 507.91 125.08
556.42 703.07 390.84 735.61 770.50 298.62 541.60 529.06 371.87 333.81 747.24 480.28 262.68 263.97 285.36 223.15 362.41 210.56 333.37 678.31 0.00 718.36 240.59 672.08 304.52 418.87 162.80 250.73 231.51 131.93 475.70 229.05 298.18 454.48 808.88 241.58 443.42 299.12 227.74 243.07 726.50 471.86 225.19 712.95 251.10 728.57 434.52 325.90 710.16 591.39 798.53 669.81 787.88 674.99 349.22 270.25 81.79 303.13 751.20 574.04 165.40 366.04 151.10 262.28 556.47 522.26 279.28 282.20 388.93 832.69 358.21 302.66 466.56 334.60 558.41 231.11 341.78 205.49 345.64 384.62 555.50 317.50 375.86 518.30 568.43 573.23 721.42 585.80 469.32 723.29 773.94 266.08 728.81 376.80 206.50 388.92 369.84 667.06 259.24 315.49 267.51 765.85 361.65 384.22 783.23 727.73 467.81 207.16 227.91 154.61 575.67 122.67 357.71 313.38 817.36 271.18 500.61 381.48 237.71 349.28 310.79 166.27 264.73 447.30 278.93 345.94 243.70 501.45 237.31 753.37 273.30 817.73 311.16 273.19 402.61 277.86 300.57 244.54 799.85 695.59 390.99 60.43 163.56 352.44 325.53 791.65 340.18 247.01 197.46 409.87 568.83 584.64 211.19 291.71 389.34 471.31 310.45 474.21 686.84 385.77 648.46 467.71 332.92 419.33 307.29 812.32 636.25 228.33 554.18 491.21 750.67 528.68 590.39 138.98 318.16 433.80 84.81 421.40 504.90 381.10 472.96 515.16 336.27 366.23 565.89 443.08 310.36 81.87 251.69 340.92 364.05 213.49 213.26 249.58 649.69 256.20 411.11 324.44 846.78 632.13 775.21
999.26 764.52 834.84 893.51 881.23 940.33 1000.11 1184.31 766.40 815.31 722.28 238.08 683.73 733.71 593.90 744.54 422.46 572.72 502.36 825.22 718.36 0.00 916.53 46.28 517.25 487.91 645.94 707.71 499.49 791.17 820.07 838.88 794.66 537.88 836.86 603.74 1078.00 757.63 564.12 571.13 874.02 813.37 493.17 87.15 546.39 451.50 379.78 755.99 376.51 532.70 933.16 726.58 709.53 238.45 749.21 655.19 761.29 703.12 67.83 1180.06 737.13 936.56 608.57 911.12 263.21 1106.47 914.22 679.04 940.77 937.85 788.30 499.99 1011.25 662.48 181.85 499.09 768.60 662.47 765.11 812.93 680.79 478.58 829.67 874.35 1122.24 770.91 401.53 723.51 815.42 951.43 905.42 960.37 890.21 656.21 737.72 865.08 823.90 786.89 629.76 783.16 580.07 924.30 814.89 787.16 929.24 878.02 985.32 760.67 651.39 609.40 1147.55 754.22 752.14 952.67 786.30 899.21 1126.10 823.42 685.90 821.26 770.37 604.67 659.38 297.90 478.26 787.23 863.97 976.92 712.90 791.48 911.86 881.59 785.55 968.98 807.27 509.53 757.30 926.68 921.82 884.77 844.42 710.51 628.30 432.40 857.87 855.51 740.17 727.63 571.31 847.46 1062.48 1156.52 591.46 782.15 379.43 1098.42 616.33 1018.06 485.01 433.75 1031.86 426.46 773.57 922.55 707.89 876.18 1198.68 719.05 934.03 977.49 922.00 278.39 190.58 775.90 815.62 377.11 780.93 766.98 433.41 692.25 871.16 807.76 715.22 723.62 364.93 907.29 762.75 770.79 606.56 740.91 402.74 562.77 616.36 608.92 308.93 537.88 747.09 724.43 868.86 417.42 917.62
667.18 761.94 253.81 731.89 768.96 130.65 404.21 357.60 351.81 178.37 765.51 687.70 428.07 274.05 396.10 284.22 565.84 388.17 540.11 670.56 240.59 916.53 0.00 879.50 511.94 613.10 361.57 271.02 426.29 275.88 476.48 265.89 229.45 547.41 779.52 407.81 274.00 279.73 403.68 441.84 706.91 443.28 432.61 920.37 426.41 744.61 652.93 306.51 800.93 684.32 757.74 656.06 787.15 864.46 333.92 510.84 322.38 321.40 958.75 358.22 375.27 364.54 391.69 21.69 753.54 352.84 166.26 347.08 502.92 791.77 310.39 537.11 309.09 374.90 765.83 434.54 341.89 298.42 559.63 243.39 563.70 512.28 270.22 417.45 390.20 543.87 789.41 583.84 429.22 703.90 730.00 282.75 704.47 430.27 216.58 518.83 226.79 667.05 389.52 284.62 508.10 741.51 220.42 255.52 757.26 730.30 364.54 250.57 468.50 395.20 409.50 332.54 337.05 72.79 828.01 314.42 324.87 257.10 230.63 209.51 289.77 365.04 331.97 650.73 454.97 298.84 354.46 352.50 310.82 778.30 376.35 760.41 261.50 101.73 396.66 464.81 175.51 341.24 775.51 670.49 259.69 259.20 339.50 589.69 423.86 767.69 358.45 311.82 398.40 487.38 461.35 418.47 451.78 258.38 590.28 239.91 551.04 279.56 763.05 586.37 538.82 699.90 337.99 485.37 516.68 747.02 426.23 301.84 476.56 365.02 748.58 704.72 783.77 379.57 215.87 628.58 281.27 393.98 745.49 407.23 385.49 493.90 380.47 576.10 707.10 587.34 252.61 293.81 438.59 305.89 571.60 440.97 389.20 364.38 734.64 488.39 413.95 337.57 793.27 751.78 758.81
1015.81 757.17 836.22 847.23 854.23 909.71 953.83 1156.74 740.55 799.49 676.00 191.80 691.56 712.41 547.62 720.90 419.49 615.60 456.14 778.94 672.08 46.28 879.50 0.00 526.22 449.23 599.66 684.07 453.21 744.89 773.79 811.05 748.38 551.45 810.72 605.07 1049.97 711.35 548.12 572.60 827.74 832.64 446.89 40.87 500.11 450.92 333.50 709.71 399.90 486.42 909.81 680.30 683.39 284.73 702.93 640.90 725.03 656.84 110.04 1171.15 702.67 979.49 562.29 901.19 309.49 1104.38 867.94 632.76 965.01 893.74 742.02 485.70 1003.57 616.20 224.73 452.81 722.32 672.34 750.87 802.00 683.59 475.61 783.39 873.56 1102.07 786.20 421.85 731.12 797.42 905.15 882.10 914.09 843.93 609.93 709.94 859.20 826.12 740.61 606.42 736.88 567.72 880.97 787.35 816.25 882.96 836.95 945.60 757.67 634.36 563.12 1101.27 719.76 738.47 906.39 760.16 885.71 1107.16 796.64 719.85 774.98 724.09 570.21 613.10 294.93 500.63 756.61 817.69 950.14 697.73 759.68 890.89 855.45 739.27 945.27 777.89 511.00 803.58 886.91 895.68 838.49 839.72 676.05 600.14 386.12 823.41 829.37 693.89 696.80 536.85 827.75 1035.70 1110.24 577.17 751.23 358.46 1083.93 633.99 1026.22 438.73 387.47 1009.59 400.74 727.29 887.98 694.11 850.04 1223.39 699.29 918.07 931.21 879.48 285.48 236.86 789.90 779.00 362.76 756.89 756.10 479.69 645.97 826.85 833.30 668.94 726.95 378.50 890.26 716.47 742.63 560.28 694.63 445.15 516.49 570.08 587.95 262.65 518.17 707.29 678.15 894.81 371.14 871.34
583.48 735.37 530.39 745.19 776.09 540.60 623.82 819.09 458.67 477.46 799.40 334.42 272.01 373.77 301.58 397.93 212.55 249.23 73.92 710.81 304.52 517.25 511.94 526.22 0.00 267.48 178.41 361.10 85.65 381.63 560.76 461.83 466.53 435.94 804.25 237.51 682.41 423.61 180.56 81.20 729.21 518.29 79.33 541.92 132.55 597.69 243.84 450.39 563.76 504.52 827.45 698.01 763.83 454.60 421.05 221.13 321.61 374.96 501.66 828.74 269.13 559.34 157.53 493.03 389.63 761.25 500.38 325.45 528.45 825.52 480.42 66.15 699.34 370.16 391.35 85.25 440.44 315.86 303.18 502.76 613.95 166.11 514.74 579.27 769.16 642.25 588.78 629.53 553.51 783.05 799.71 567.98 783.09 418.08 342.38 402.00 516.35 637.70 246.26 415.85 170.78 777.58 479.79 509.71 807.52 745.10 638.04 390.11 185.45 171.07 798.01 285.86 456.59 538.83 840.60 474.02 739.60 505.97 352.29 467.42 428.02 150.06 320.46 297.89 99.38 472.03 402.34 657.44 361.80 787.07 485.01 829.34 438.04 577.71 523.86 49.91 463.20 471.56 823.82 767.51 538.49 255.90 232.58 143.94 395.85 853.89 412.01 358.01 116.70 370.55 730.05 806.98 157.62 415.92 196.85 718.39 237.05 658.52 658.67 232.76 759.98 243.09 434.13 488.26 253.97 841.66 837.70 352.82 627.07 661.44 793.98 308.49 396.30 357.59 439.96 247.81 335.93 486.20 274.93 424.87 565.16 596.76 407.25 340.81 414.81 464.37 444.23 323.85 176.12 412.75 114.51 148.93 202.52 236.19 503.83 60.97 502.58 390.72 882.16 557.78 806.40
803.43 659.14 468.73 675.20 640.05 601.82 617.23 802.30 430.39 476.11 604.16 257.43 467.90 346.85 276.94 388.93 133.95 238.50 236.19 576.18 418.87 487.91 613.10 449.23 267.48 0.00 340.15 352.10 187.36 443.05 479.33 479.08 463.85 240.70 677.45 269.52 719.42 374.75 287.18 303.04 624.98 511.12 193.68 426.06 242.91 345.98 247.18 394.72 338.06 361.85 665.86 556.50 647.57 412.50 391.88 442.97 455.59 365.76 491.07 808.41 416.50 693.32 282.75 591.41 232.46 740.36 610.74 300.79 678.11 665.88 427.03 312.20 686.15 288.13 306.06 195.61 420.68 328.25 510.06 427.85 459.29 101.37 483.80 511.74 784.11 527.41 363.08 503.84 480.88 751.71 638.12 684.95 622.96 315.47 396.52 605.59 462.17 592.31 280.71 379.58 378.20 585.92 450.82 453.62 665.38 636.93 632.57 410.65 421.48 297.27 819.03 432.37 427.42 611.26 724.34 611.53 776.61 450.78 396.04 463.19 361.35 284.04 281.13 227.55 168.10 429.78 538.15 604.28 376.30 642.89 651.55 666.38 410.43 657.11 450.45 269.86 446.32 607.37 632.16 663.76 491.67 389.88 292.21 219.22 537.24 665.65 371.49 363.03 250.68 612.08 689.84 810.06 313.09 413.25 217.64 764.97 433.88 708.26 432.96 61.76 688.80 386.42 421.26 631.04 441.46 657.92 859.37 367.32 555.21 644.73 636.62 252.76 340.57 503.73 455.76 239.52 431.20 389.06 373.76 351.20 520.80 468.34 351.11 480.55 189.11 671.25 398.51 434.70 292.06 403.55 278.25 256.98 242.51 262.23 237.29 322.26 427.77 375.86 704.17 297.93 661.16
593.55 669.61 436.70 742.53 744.81 394.03 556.62 690.54 381.59 393.25 750.78 407.86 276.91 277.56 252.52 282.91 278.15 186.99 235.99 654.74 162.80 645.94 361.57 599.66 178.41 340.15 0.00 246.08 152.79 210.00 500.58 331.62 325.13 430.99 744.50 155.97 553.86 314.14 109.28 114.96 701.11 496.74 152.77 640.53 121.52 598.25 355.10 340.92 616.39 467.60 752.55 657.38 754.42 584.20 356.14 214.04 168.08 310.05 638.05 700.19 152.97 407.98 89.50 383.26 473.37 632.70 374.69 261.43 475.22 817.77 373.23 237.36 569.13 309.42 479.09 146.85 348.70 212.48 242.54 395.82 532.41 238.78 422.39 533.32 678.87 508.85 639.71 572.53 466.65 738.31 756.70 427.89 713.01 338.04 247.52 430.46 430.14 660.93 182.24 341.08 252.53 750.05 392.54 397.82 774.36 702.04 550.79 273.75 260.86 76.22 671.08 188.91 379.58 413.09 783.90 353.81 611.05 406.36 195.70 380.17 327.54 84.56 256.44 363.04 174.71 372.42 280.83 559.86 244.23 751.73 394.23 799.46 344.64 435.99 427.49 144.11 367.16 350.05 784.05 702.51 445.09 102.37 99.18 268.99 367.47 810.83 347.10 258.96 117.92 405.93 645.42 680.05 156.27 334.38 309.80 601.48 274.04 583.69 598.42 302.67 655.38 379.48 356.96 443.18 271.60 798.60 726.71 253.21 563.05 574.19 741.98 424.46 512.27 233.22 355.75 355.08 195.25 414.21 441.90 359.05 492.38 531.85 334.63 328.83 476.43 403.73 349.84 177.28 140.63 347.84 250.90 83.17 147.86 185.20 565.43 183.20 418.03 331.36 839.10 582.88 766.52
700.73 596.59 190.62 534.29 592.08 317.02 345.10 524.19 173.35 173.21 555.78 492.27 383.30 31.48 136.45 36.83 389.03 134.99 365.99 503.91 250.73 707.71 271.02 684.07 361.10 352.10 246.08 0.00 293.33 193.22 290.96 151.04 126.57 294.23 623.72 147.67 441.31 114.38 211.08 347.92 535.04 287.12 287.01 709.72 252.63 563.46 475.96 138.59 545.82 431.14 593.39 478.35 608.69 670.23 152.77 441.01 283.35 111.67 757.26 541.38 281.68 514.87 266.37 249.33 502.26 462.25 354.65 83.41 590.49 630.57 170.90 414.00 365.89 144.41 525.86 292.93 140.46 45.24 488.62 149.74 401.92 298.72 195.26 325.29 476.88 388.07 570.84 397.93 273.46 538.55 568.80 445.51 568.56 188.57 54.44 505.20 184.06 479.19 121.40 121.88 485.49 595.75 172.71 151.74 578.09 560.96 333.58 77.69 443.24 286.64 540.92 238.95 171.34 259.16 630.21 429.23 480.74 172.67 80.07 162.96 105.22 275.43 70.97 479.40 310.60 159.62 406.11 326.17 52.57 558.16 469.73 624.68 132.99 347.72 217.87 375.83 145.54 419.87 609.53 510.85 209.00 285.05 146.90 413.03 467.86 598.60 121.93 58.78 295.56 536.65 411.73 531.95 357.97 93.20 376.89 462.12 480.24 403.11 611.15 340.35 463.72 574.01 145.05 561.66 468.34 619.27 581.26 43.59 367.65 356.98 545.53 538.14 586.41 339.73 135.71 490.37 176.13 236.66 544.89 196.36 284.14 306.68 157.05 482.51 445.94 627.08 110.19 194.90 196.02 149.46 445.43 262.55 163.82 160.56 506.88 383.98 226.37 119.30 662.04 486.84 570.07
616.07 656.06 465.08 729.47 703.08 462.84 550.81 746.08 385.66 391.81 713.75 261.41 288.45 310.13 215.93 330.16 139.55 163.58 113.82 631.33 231.51 499.49 426.29 453.21 85.65 187.36 152.79 293.33 0.00 336.42 487.75 384.83 380.88 350.29 747.45 160.51 609.40 346.61 103.56 144.10 680.13 445.28 6.32 494.08 55.55 524.68 226.64 373.39 483.64 418.87 766.44 649.74 690.82 463.89 348.04 284.03 284.46 301.95 532.90 755.73 261.37 554.25 112.48 447.98 337.60 688.24 423.38 265.97 511.80 771.89 405.70 151.80 622.34 284.51 339.54 8.25 367.43 253.33 334.03 443.07 536.95 85.99 430.14 506.26 705.63 556.60 508.66 543.88 480.50 706.05 744.13 497.59 711.60 342.58 265.38 460.94 439.35 621.98 186.78 342.84 244.71 691.93 432.51 424.06 739.59 676.47 592.43 316.32 250.53 109.91 752.96 304.10 383.58 465.82 767.59 432.50 666.59 428.97 275.29 421.81 360.01 144.97 253.70 224.44 60.06 395.03 367.88 582.47 284.80 710.07 478.96 772.39 352.39 504.70 446.86 82.50 377.55 437.10 738.17 694.50 452.84 248.94 146.93 181.11 408.09 771.66 334.71 272.36 121.53 444.48 668.03 760.39 171.62 338.92 172.22 666.20 256.53 615.17 585.08 166.90 686.97 293.32 357.13 447.41 265.43 763.93 774.46 275.82 554.37 610.54 725.52 309.81 396.69 349.83 354.31 202.29 316.32 400.55 355.74 347.58 502.40 519.46 321.60 346.44 334.69 495.22 372.45 289.42 119.71 339.74 164.74 69.62 129.51 150.54 424.65 134.90 424.15 313.72 810.18 480.78 750.06
560.40 678.98 309.07 711.59 732.81 248.04 447.50 499.73 348.77 240.13 720.55 589.18 298.08 196.25 318.30 215.85 424.55 318.09 415.63 658.36 131.93 791.17 275.88 744.89 381.63 443.05 210.00 193.22 336.42 0.00 463.97 178.62 199.66 477.23 767.10 322.22 405.73 279.41 263.93 301.85 699.81 462.98 334.09 785.76 280.87 728.23 554.41 291.50 720.26 614.14 766.32 643.12 754.88 748.89 317.54 393.80 138.84 276.44 828.00 544.71 196.46 358.60 278.54 297.57 632.72 484.57 209.25 257.85 445.98 803.50 292.59 428.24 416.13 330.20 660.41 328.17 330.92 238.46 410.53 281.44 517.81 422.41 306.81 471.55 527.12 531.45 735.55 562.70 454.42 689.42 741.73 254.04 714.72 343.02 138.78 411.16 297.24 643.96 295.95 256.85 399.44 743.83 258.47 265.77 751.02 690.04 416.72 175.04 359.84 258.27 551.58 153.73 346.14 203.09 790.22 261.22 462.92 297.47 190.60 246.10 269.99 282.96 254.17 544.36 356.51 295.68 268.99 442.89 226.45 728.74 298.37 794.63 237.26 301.19 396.34 334.99 182.12 226.65 782.46 648.23 319.79 192.36 200.27 459.87 339.40 768.55 313.11 213.23 312.64 410.09 517.74 560.55 343.12 245.38 462.76 485.06 426.88 430.69 794.15 462.02 581.46 570.36 309.82 433.20 348.72 786.60 598.56 223.93 531.82 440.12 718.46 606.26 694.07 243.68 230.28 538.71 47.12 407.27 602.01 370.24 422.08 483.50 336.00 397.29 629.30 492.35 248.03 57.78 305.79 314.23 441.78 293.17 249.97 286.29 661.33 370.09 400.25 292.23 827.10 680.06 743.00
912.78 344.63 275.28 329.72 347.81 544.27 282.25 603.63 149.88 298.11 354.62 630.98 669.58 287.37 311.69 317.19 506.19 346.19 571.70 244.29 475.70 820.07 476.48 773.79 560.76 479.33 500.58 290.96 487.75 463.97 0.00 353.07 300.52 311.52 388.78 345.93 523.62 220.29 450.71 551.24 293.09 86.64 481.43 783.36 450.89 471.56 557.67 223.36 484.79 413.43 330.88 198.91 363.85 819.37 201.28 656.61 525.94 212.11 883.83 613.28 572.64 689.10 481.97 454.79 586.19 546.91 610.54 294.95 833.08 406.93 225.54 618.31 409.29 245.39 674.64 487.35 182.77 325.15 743.12 253.37 175.70 436.24 206.26 112.71 520.28 153.17 470.65 189.62 63.71 331.45 358.62 668.94 324.56 163.86 344.84 796.16 259.72 222.23 348.79 247.23 672.22 358.83 272.90 227.60 351.99 305.04 366.57 337.32 673.73 502.24 570.29 529.91 172.11 536.88 395.12 669.95 524.14 248.37 350.83 266.97 233.69 508.20 286.10 616.92 502.97 204.50 651.07 310.49 256.35 380.64 695.97 406.22 264.30 503.69 103.36 570.25 311.25 690.62 395.60 283.09 284.86 510.78 429.12 632.32 723.60 390.89 175.06 266.05 528.33 824.78 389.98 561.32 583.54 292.07 600.67 533.30 716.61 487.06 538.56 541.09 275.76 751.84 188.83 770.65 714.17 401.60 605.94 247.37 184.36 359.43 344.83 659.63 735.19 614.68 300.79 604.94 416.85 96.75 776.43 199.90 125.34 71.12 210.18 747.99 484.47 882.97 262.73 450.81 435.24 195.80 639.85 451.85 379.42 381.24 511.14 592.84 114.63 216.44 419.45 488.15 340.37
660.17 656.66 161.79 617.20 662.92 230.06 331.97 431.85 250.83 104.76 635.12 619.25 476.70 176.92 263.43 114.21 503.47 286.03 490.68 590.76 229.05 838.88 265.89 811.05 461.83 479.08 331.62 151.04 384.83 178.62 353.07 0.00 137.31 445.27 667.95 295.65 312.01 174.45 328.19 416.18 594.23 319.87 382.50 830.69 329.28 634.40 582.65 185.95 657.19 578.68 676.00 551.98 681.74 786.03 223.71 499.30 242.79 219.29 890.74 441.50 362.43 381.33 375.10 256.42 627.69 341.51 311.62 217.61 483.49 703.16 193.44 481.40 237.51 289.26 657.03 376.58 226.54 196.28 513.88 158.23 509.48 425.70 146.81 356.66 348.50 432.30 679.20 488.03 340.61 590.27 659.03 390.25 630.86 318.89 119.45 589.78 187.04 569.29 272.15 155.83 496.56 649.01 148.27 181.91 663.10 620.15 306.52 129.02 456.96 354.83 411.46 332.35 245.09 251.53 715.33 337.14 352.36 174.79 171.27 135.90 174.06 392.54 197.95 550.71 376.54 201.79 365.55 312.95 178.00 654.89 476.99 659.73 146.48 242.44 291.38 431.55 126.95 405.27 691.61 561.31 168.80 289.48 264.01 490.27 492.15 674.73 229.49 189.10 409.20 560.35 407.54 420.43 424.77 117.24 526.50 361.52 536.84 252.07 689.44 491.10 447.93 666.92 235.15 553.26 445.28 673.12 460.52 186.98 384.54 322.76 635.76 626.29 699.11 347.63 106.69 587.12 161.45 323.80 688.28 321.79 262.08 381.63 264.61 532.12 574.43 660.31 164.17 154.34 327.74 217.10 538.34 379.66 303.78 301.11 637.20 483.95 335.47 235.85 713.80 637.88 660.30
760.06 532.66 117.61 538.35 605.52 299.48 285.74 423.52 176.32 68.12 591.01 556.58 453.10 139.53 229.51 104.41 453.74 261.56 492.29 544.81 298.18 794.66 229.45 748.38 466.53 463.85 325.13 126.57 380.88 199.66 300.52 137.31 0.00 382.33 602.83 242.51 356.53 111.18 337.65 440.09 553.71 266.41 387.20 789.25 339.27 590.29 558.90 103.93 634.67 519.24 610.88 495.66 611.66 719.97 179.60 539.17 338.50 165.69 779.52 459.18 351.48 518.64 381.16 218.74 572.94 389.24 388.62 172.56 620.80 619.56 128.32 488.16 255.19 225.09 634.71 386.57 144.52 171.81 565.55 90.38 430.81 391.20 115.75 296.84 366.18 367.18 635.09 411.37 264.70 525.15 606.70 432.10 545.62 238.31 141.96 575.00 106.18 492.63 246.45 98.02 565.69 582.66 67.41 96.67 584.90 579.63 225.66 91.02 526.09 398.35 455.50 308.75 169.02 241.62 629.28 460.88 370.04 106.41 169.07 55.04 116.25 369.91 182.72 571.88 381.80 96.02 468.65 259.91 123.25 601.43 498.03 634.37 67.17 300.11 197.16 463.38 88.43 426.31 585.84 448.57 134.60 276.90 273.47 519.26 539.06 609.61 186.21 108.52 403.27 606.45 326.68 446.53 465.68 73.13 459.83 335.55 581.90 332.96 650.38 465.40 381.80 636.19 158.49 570.40 538.14 620.98 505.68 127.20 340.36 249.06 591.65 631.55 661.11 415.04 30.62 575.92 246.71 258.55 671.46 258.98 231.02 311.62 189.16 552.31 496.27 659.55 84.98 257.44 304.55 151.66 545.62 339.47 278.61 230.34 556.62 479.77 248.38 175.60 667.23 547.75 573.28
948.88 443.64 396.02 459.10 457.29 611.25 513.63 754.69 228.52 372.51 363.46 367.03 604.00 325.71 253.56 331.06 374.65 251.13 464.11 424.72 454.48 537.88 547.41 551.45 435.94 240.70 430.99 294.23 350.29 477.23 311.52 445.27 382.33 0.00 478.72 282.15 648.28 271.15 399.29 476.38 443.12 327.54 356.61 571.03 387.11 329.39 487.88 297.93 321.90 136.91 538.36 369.00 436.36 589.37 276.00 616.31 527.01 262.61 599.58 731.61 567.18 768.64 426.97 529.19 274.67 667.65 648.88 306.97 782.77 537.84 326.39 502.09 597.79 184.98 425.98 358.54 261.41 248.99 669.56 381.33 298.50 342.07 343.48 351.78 699.19 294.66 341.25 263.14 313.08 517.39 513.62 719.80 485.64 205.42 348.67 713.70 396.72 351.61 308.17 298.09 595.00 501.19 397.25 387.00 521.43 447.40 547.28 371.92 600.82 406.70 713.22 533.18 253.76 553.39 487.60 685.73 705.47 385.59 316.78 403.02 284.55 446.53 287.31 435.53 408.80 321.82 650.10 503.52 296.24 402.19 727.78 481.58 315.16 591.11 290.49 432.79 384.37 699.02 521.81 423.06 415.61 463.03 392.34 436.83 728.13 455.50 255.54 309.93 461.07 745.15 624.65 722.19 521.78 346.73 435.97 703.18 606.82 623.34 316.92 302.46 560.68 614.76 267.47 797.70 615.72 476.17 786.66 291.25 427.09 523.88 507.84 478.05 486.53 553.53 360.79 480.22 468.06 229.10 547.84 170.77 360.84 367.76 220.42 652.93 172.95 759.00 313.59 472.62 351.40 274.44 495.86 347.82 366.17 306.32 288.80 485.19 222.95 277.01 520.94 251.20 520.31
1247.98 164.08 584.67 148.96 44.37 847.31 534.77 911.27 527.98 601.15 218.59 745.64 891.85 604.97 547.68 611.94 749.06 613.00 849.31 145.25 808.88 836.86 779.52 810.72 804.25 677.45 744.50 623.72 747.45 767.10 388.78 667.95 602.83 478.72 0.00 633.21 777.44 523.07 692.55 824.04 113.06 411.55 741.13 769.85 731.05 428.92 799.10 506.82 460.35 412.18 148.45 210.97 127.33 998.54 518.53 957.48 822.59 525.73 891.38 920.92 880.88 1013.50 771.59 757.83 665.39 831.91 918.36 584.24 1129.73 118.94 474.51 870.40 740.26 535.89 781.70 747.05 521.82 624.41 987.04 577.77 282.76 776.02 525.52 395.88 785.74 235.65 485.37 238.52 399.59 217.35 148.86 971.72 103.05 484.81 662.44 1062.64 578.98 166.55 646.09 550.01 930.40 98.50 582.38 552.00 121.60 87.14 584.89 626.20 914.85 774.46 716.46 838.15 522.80 844.45 56.91 980.66 831.78 567.63 612.36 570.01 536.47 761.59 574.75 779.80 794.73 506.81 964.28 560.19 591.55 76.53 1014.26 54.96 554.16 803.19 448.28 829.95 633.99 993.75 112.08 241.88 603.77 820.37 645.32 853.24 1026.45 81.04 503.18 583.42 771.68 1065.05 654.01 707.49 834.09 575.53 783.31 864.27 978.66 763.21 440.03 705.71 397.63 951.51 491.40 1098.77 962.46 68.35 869.97 593.86 376.58 596.83 149.20 857.49 842.25 903.72 599.79 846.37 730.06 412.18 991.36 481.73 445.21 333.82 493.63 1014.80 594.30 1148.23 565.51 764.02 689.98 527.71 872.61 744.02 680.29 634.71 573.56 820.59 433.91 504.42 109.03 488.44 133.22
737.42 576.29 310.97 597.79 588.84 438.33 428.58 634.56 258.85 258.42 629.48 413.27 382.93 155.31 96.55 184.50 283.56 31.02 266.36 498.77 241.58 603.74 407.81 605.07 237.51 269.52 155.97 147.67 160.51 322.22 345.93 295.65 242.51 282.15 633.21 0.00 557.70 186.10 152.97 270.93 547.57 356.57 158.18 605.75 104.96 588.28 371.99 212.88 535.30 419.06 646.63 529.24 613.51 590.09 231.46 369.96 299.44 185.37 662.99 646.56 304.29 548.53 195.32 395.46 415.92 582.60 420.15 105.46 606.58 674.49 245.19 303.66 495.47 165.13 421.89 152.26 228.76 120.77 398.51 291.39 376.44 186.09 289.50 380.92 565.88 434.77 546.75 428.36 350.06 610.27 622.58 507.66 579.04 182.07 202.11 528.71 298.77 531.50 26.27 213.04 376.26 599.86 274.59 276.17 631.55 546.07 432.84 219.11 385.97 210.09 605.55 262.48 236.99 380.47 647.98 483.67 610.32 268.46 185.16 262.22 199.50 209.67 100.47 366.77 180.60 234.52 424.70 421.96 124.29 595.76 493.26 656.02 212.68 478.57 289.59 243.01 279.24 486.12 646.10 582.57 313.13 242.92 121.95 325.12 491.96 654.86 200.00 133.99 230.31 541.68 507.52 614.52 286.45 178.41 272.92 576.88 417.04 521.69 507.30 245.22 535.44 445.18 219.90 585.76 417.29 642.63 677.78 115.31 407.08 453.12 599.31 430.35 482.44 351.47 220.92 362.80 275.11 258.24 488.92 203.08 345.17 384.75 178.66 432.82 386.35 559.70 211.94 264.44 117.64 223.16 316.60 167.77 92.77 43.43 470.77 289.69 292.06 206.68 683.13 452.59 623.85
843.70 826.85 298.48 702.32 799.62 305.57 331.10 136.68 444.38 357.64 850.35 858.17 691.80 424.47 514.61 426.22 740.30 576.30 711.26 696.84 443.42 1078.00 274.00 1049.97 682.41 719.42 553.86 441.31 609.40 405.73 523.62 312.01 356.53 648.28 777.44 557.70 0.00 377.13 575.42 613.34 734.05 510.98 603.08 1090.84 623.43 855.45 823.40 397.10 860.11 773.46 719.53 690.32 818.52 1064.64 444.76 713.67 481.02 431.64 1126.40 146.33 588.90 465.22 594.52 295.69 896.73 78.84 380.84 483.56 717.50 756.49 367.79 746.08 114.33 506.03 936.30 609.00 432.77 486.55 719.85 291.57 644.40 695.39 347.52 458.71 125.01 541.79 835.09 605.47 528.32 723.41 728.81 435.26 755.79 546.95 431.46 747.33 325.89 693.87 545.49 377.77 710.93 768.68 314.54 317.34 701.55 757.59 231.05 390.59 671.33 593.06 196.99 557.97 444.78 301.29 834.35 529.00 57.19 314.50 468.64 326.91 363.73 609.69 474.72 825.19 656.82 395.44 569.04 287.13 447.04 782.46 588.33 793.96 368.56 213.08 461.47 669.78 368.28 516.61 771.43 682.46 333.43 503.85 535.06 781.28 686.45 820.04 460.34 460.89 640.88 715.88 239.43 188.02 654.61 392.69 781.62 112.72 753.87 59.94 909.95 763.66 534.19 854.23 431.14 713.87 683.51 800.18 192.83 442.39 503.09 254.45 734.11 906.57 960.68 500.44 387.15 811.69 358.61 498.15 948.32 549.99 462.79 547.27 491.20 770.35 821.23 806.75 345.76 392.57 613.87 422.57 761.50 626.89 578.18 577.88 894.23 681.58 494.34 425.52 811.25 862.02 713.17
726.34 482.21 124.87 455.99 509.93 379.69 242.48 483.54 76.38 101.36 498.62 544.69 482.55 87.14 188.87 121.77 429.86 210.61 448.29 464.58 299.12 757.63 279.73 711.35 423.61 374.75 314.14 114.38 346.61 279.41 220.29 174.45 111.18 271.15 523.07 186.10 377.13 0.00 300.53 402.02 477.88 186.18 344.28 752.22 291.06 503.57 524.84 26.78 559.21 408.06 531.12 384.48 511.72 696.09 92.88 501.68 349.36 54.51 756.08 460.46 396.06 553.82 358.41 258.04 519.60 396.50 410.31 137.32 654.11 549.93 59.09 464.28 330.08 132.14 601.48 338.36 62.16 127.54 556.68 127.97 346.65 352.14 121.76 219.18 428.04 287.42 548.37 315.78 184.47 424.17 524.69 448.65 481.95 175.25 144.61 619.58 125.57 397.04 193.11 26.94 498.53 515.32 126.10 123.55 526.52 500.04 285.36 117.03 522.33 371.88 467.34 353.33 93.04 352.52 579.98 500.70 434.32 122.61 166.53 132.50 13.40 346.03 124.39 532.82 357.06 73.68 481.82 276.11 69.91 521.20 541.43 547.71 44.01 320.34 116.93 429.11 139.64 506.06 552.99 420.37 144.46 347.90 261.28 482.60 503.38 521.63 91.56 84.64 377.86 606.78 361.67 473.46 425.94 75.58 425.77 432.03 561.68 352.19 588.07 412.06 412.18 631.28 62.90 597.18 532.15 540.75 515.51 70.79 289.51 302.16 501.42 604.81 618.42 423.82 89.64 541.86 247.60 172.86 641.77 183.89 187.28 231.39 114.07 596.89 444.10 682.74 42.44 276.08 280.67 71.37 502.70 345.20 255.86 206.46 522.53 437.40 187.53 75.19 585.12 484.89 517.20
623.13 637.91 401.70 705.33 648.18 419.48 543.01 711.86 329.73 379.68 690.13 356.32 285.46 242.56 211.01 247.91 226.61 165.74 204.29 633.49 227.74 564.12 403.68 548.12 180.56 287.18 109.28 211.08 103.56 263.93 450.71 328.19 337.65 399.29 692.55 152.97 575.42 300.53 0.00 151.09 631.33 451.48 101.23 588.99 48.01 566.55 321.55 327.31 516.10 522.43 706.41 612.70 722.72 528.57 292.11 291.02 263.67 246.02 627.81 721.75 225.06 487.48 79.04 381.99 399.86 654.26 404.08 232.87 483.80 733.83 349.19 217.93 565.70 272.99 427.55 95.31 311.50 198.71 344.77 360.82 516.97 185.81 398.42 507.79 676.69 473.85 541.12 533.14 431.65 724.70 708.02 457.28 643.65 286.85 231.80 473.84 395.14 625.93 159.86 292.13 288.66 659.20 383.79 362.82 726.12 605.41 544.66 258.88 262.71 81.91 700.47 261.15 327.65 419.27 714.19 424.52 632.61 383.75 223.25 374.04 310.36 92.60 213.21 311.50 119.08 369.88 334.44 537.25 263.65 699.58 447.84 715.36 322.98 491.38 400.47 186.06 352.29 403.66 705.44 679.79 420.08 198.44 64.18 268.17 338.99 714.20 283.07 248.93 125.40 442.39 606.83 709.44 184.74 304.28 275.78 643.59 337.61 580.26 617.54 229.16 631.04 388.23 316.47 432.79 316.18 701.97 691.71 254.67 524.12 568.06 693.56 368.83 456.64 312.29 346.79 305.85 216.81 411.21 450.65 322.89 455.18 467.82 298.17 403.02 367.15 505.96 321.01 206.67 52.90 283.81 259.65 51.47 71.29 127.11 483.00 185.36 389.05 267.33 742.47 531.85 718.10
548.60 715.00 497.93 804.73 794.02 505.44 644.50 750.02 459.43 465.34 796.17 380.80 243.73 375.96 319.02 384.75 177.88 267.90 154.72 705.71 243.07 571.13 441.84 572.60 81.20 303.04 114.96 347.92 144.10 301.85 551.24 416.18 440.09 476.38 824.04 270.93 613.34 402.02 151.09 0.00 754.51 517.13 150.42 582.42 177.46 643.64 287.47 421.99 593.53 562.97 853.57 705.73 799.81 502.22 421.81 139.93 248.35 375.72 555.54 759.67 192.96 486.08 98.72 463.53 418.57 692.18 469.74 307.08 508.62 883.23 454.30 142.92 653.69 387.60 418.49 152.35 441.20 302.68 243.97 470.30 640.76 219.73 491.23 578.11 687.96 615.00 615.48 599.87 515.42 826.19 829.52 494.72 785.98 409.66 333.84 369.82 489.79 703.01 295.98 382.63 137.57 810.29 447.33 479.24 838.81 756.50 630.32 384.78 185.95 106.73 739.20 204.66 457.35 504.94 829.29 408.72 670.53 462.65 310.66 459.70 388.62 76.80 287.42 302.44 172.96 457.05 326.17 616.15 352.92 785.64 403.81 866.45 413.48 516.26 447.88 61.60 445.79 395.39 856.53 766.35 513.93 182.64 205.33 186.48 338.92 865.29 412.77 338.19 52.36 377.82 701.71 748.17 89.81 385.33 244.24 668.02 199.93 577.32 675.98 250.07 760.74 279.75 427.55 415.12 175.37 853.06 756.50 356.87 636.07 653.72 806.25 362.37 450.18 281.42 427.84 274.79 254.73 509.27 356.13 445.70 518.23 562.34 395.89 262.21 468.43 405.16 414.64 288.69 184.86 413.51 168.39 128.56 201.27 259.07 456.28 68.24 480.92 397.03 893.56 564.77 830.79
1145.62 156.62 488.22 76.48 68.69 785.43 444.77 828.18 442.97 539.27 237.79 733.09 899.17 503.56 486.46 528.45 714.37 516.55 793.95 48.80 726.50 874.02 706.91 827.74 729.21 624.98 701.11 535.04 680.13 699.81 293.09 594.23 553.71 443.12 113.06 547.57 734.05 477.88 631.33 754.51 0.00 345.50 686.45 812.02 652.53 448.80 686.04 463.43 500.40 434.78 123.90 147.44 169.50 947.74 455.63 894.44 774.97 423.37 911.26 837.83 816.72 936.61 710.37 685.22 640.73 759.85 826.73 508.73 1047.04 128.72 431.12 795.36 633.84 498.51 743.20 688.38 456.07 551.61 943.65 503.37 244.26 726.35 447.42 289.46 722.03 192.26 475.38 194.65 324.06 197.73 96.16 926.53 53.88 427.93 561.03 1040.24 480.12 91.51 573.59 504.82 892.08 77.31 520.50 490.94 123.42 25.92 545.35 567.36 894.02 695.62 643.98 773.99 461.97 775.75 121.10 905.62 748.69 489.53 585.58 508.13 491.28 717.72 511.67 744.19 714.04 463.42 897.73 496.48 489.19 87.55 970.87 135.87 510.77 735.52 372.75 762.63 572.11 926.46 123.55 169.40 513.02 728.45 601.93 792.02 951.48 134.71 443.04 493.93 749.99 1013.97 564.01 635.01 794.80 532.14 785.11 757.85 920.01 711.61 509.04 642.18 340.50 858.19 425.65 1038.63 929.88 122.48 779.97 498.17 336.09 521.95 108.22 788.00 803.75 842.50 523.09 733.31 668.84 368.79 909.46 437.86 332.15 258.29 475.86 918.35 539.01 1099.16 511.03 686.52 629.39 452.67 829.22 682.80 626.18 571.74 565.09 790.18 358.87 444.68 162.98 526.67 132.76
908.94 422.57 240.79 297.33 383.27 511.07 214.70 590.07 155.29 264.91 441.26 650.98 651.55 273.32 329.48 293.18 520.62 357.88 547.14 296.70 471.86 813.37 443.28 832.64 518.29 511.12 496.74 287.12 445.28 462.98 86.64 319.87 266.41 327.54 411.55 356.57 510.98 186.18 451.48 517.13 345.50 0.00 438.96 852.22 460.56 530.11 568.39 200.94 571.43 464.45 394.71 285.55 416.97 765.18 179.37 657.06 522.10 205.46 881.20 589.05 568.80 678.08 501.38 421.59 602.21 495.57 580.05 281.36 803.36 409.10 197.05 584.44 397.16 260.90 729.11 444.88 160.35 313.72 720.09 229.01 262.34 508.62 173.06 60.98 449.40 199.16 557.29 216.12 35.22 343.55 379.27 634.83 332.70 250.37 330.79 792.32 217.74 280.69 360.48 213.12 654.70 329.14 246.14 216.58 367.86 357.45 279.93 303.21 656.57 521.65 509.77 526.07 180.53 504.02 420.43 657.01 510.58 215.17 348.36 233.77 199.58 511.14 293.76 621.10 492.70 170.39 654.56 223.85 252.51 335.02 704.39 409.60 230.19 473.14 69.25 527.78 297.75 689.63 375.38 249.22 250.64 509.59 402.69 612.77 689.56 408.87 186.75 249.75 544.50 792.96 333.94 500.80 576.89 261.76 569.10 521.17 701.81 474.93 596.50 455.31 254.25 725.96 180.62 782.34 692.50 401.14 549.90 243.53 120.66 291.88 379.84 670.35 758.16 601.14 266.68 615.66 420.34 122.06 785.10 214.33 57.79 100.99 220.42 759.68 500.49 868.92 228.62 451.25 445.78 193.33 597.38 497.22 431.42 371.57 569.99 579.26 125.35 202.39 447.39 574.79 358.54
622.39 656.04 462.75 727.14 696.76 462.82 544.49 739.76 379.34 398.13 720.07 255.09 285.11 311.04 222.25 323.84 137.22 169.90 108.18 637.65 225.19 493.17 432.61 446.89 79.33 193.68 152.77 287.01 6.32 334.09 481.43 382.50 387.20 356.61 741.13 158.18 603.08 344.28 101.23 150.42 686.45 438.96 0.00 487.76 53.22 518.36 220.32 371.06 489.96 425.19 764.11 655.32 684.50 461.56 341.72 290.35 278.14 295.63 526.58 749.41 259.04 547.93 115.40 454.30 331.28 681.92 421.05 263.64 518.12 778.21 401.09 145.48 620.01 290.83 333.22 5.92 361.11 251.51 327.71 436.75 534.62 92.31 436.46 499.94 705.61 562.92 514.98 550.20 474.18 703.72 742.47 491.27 717.92 338.75 263.05 454.62 437.02 619.65 184.45 336.52 250.11 698.25 432.77 430.38 737.26 682.79 591.02 310.78 256.85 116.23 755.88 301.77 377.26 459.50 761.27 438.82 660.27 426.64 272.96 420.40 354.75 138.65 258.65 222.11 53.74 392.70 370.80 580.14 282.47 707.74 476.63 778.71 358.71 498.38 444.53 88.82 383.87 440.02 744.49 688.18 459.16 244.49 153.25 178.20 414.41 777.98 332.68 278.68 127.85 449.88 663.73 758.06 169.29 336.59 178.54 672.52 262.85 612.84 586.49 160.58 680.65 287.00 354.80 441.09 259.11 770.25 780.78 273.49 548.05 611.30 719.20 303.49 391.30 347.50 360.63 208.61 310.00 406.87 349.42 353.90 496.75 517.43 327.92 345.95 341.01 488.90 368.53 295.74 113.39 333.42 158.42 69.60 123.19 156.86 424.50 140.30 423.25 311.39 816.50 478.45 743.74
1053.79 716.30 877.09 866.81 814.22 922.41 993.33 1197.61 730.14 840.36 635.13 232.67 730.52 735.72 588.49 746.55 404.54 574.73 497.01 798.52 712.95 87.15 920.37 40.87 541.92 426.06 640.53 709.72 494.08 785.76 783.36 830.69 789.25 571.03 769.85 605.75 1090.84 752.22 588.99 582.42 812.02 852.22 487.76 0.00 540.98 470.50 374.37 750.58 419.48 506.00 918.30 699.88 642.52 325.60 743.80 679.86 765.90 697.71 143.38 1212.02 733.83 1010.65 603.16 942.06 350.36 1145.25 908.81 673.63 942.78 870.84 782.89 524.66 1014.04 657.07 183.86 493.68 759.88 664.48 764.66 842.87 682.80 460.66 824.26 893.14 1125.03 785.41 441.43 750.70 817.00 924.73 893.25 954.96 849.50 619.50 750.81 880.92 866.99 760.19 631.77 777.75 582.93 857.29 828.22 857.12 891.45 828.07 986.47 787.41 646.93 603.99 1142.14 760.63 755.38 947.26 719.29 926.58 1128.89 837.51 732.27 815.85 764.96 601.37 653.97 279.98 500.19 789.24 858.56 991.01 715.43 724.47 931.76 814.58 780.14 986.14 797.47 534.20 844.45 927.78 854.81 858.07 880.59 707.21 641.01 426.99 864.28 788.50 734.76 730.16 577.72 849.47 1076.57 1151.11 616.13 779.21 399.33 1124.80 649.20 1067.09 409.53 428.34 1029.17 428.64 768.16 904.63 726.31 809.17 1244.54 721.06 937.16 972.08 886.22 290.51 243.86 800.57 819.87 379.12 797.76 791.36 486.69 655.54 836.42 842.87 709.81 743.06 398.08 918.16 757.34 783.50 601.15 735.50 427.41 557.36 610.95 621.52 282.23 539.89 726.87 719.02 853.94 390.72 885.02
668.66 649.25 409.53 702.75 693.80 456.03 533.54 694.43 335.77 363.38 690.61 308.31 303.61 260.27 194.45 289.46 178.60 135.98 161.40 603.73 251.10 546.39 426.41 500.11 132.55 242.91 121.52 252.63 55.55 280.87 450.89 329.28 339.27 387.11 731.05 104.96 623.43 291.06 48.01 177.46 652.53 460.56 53.22 540.98 0.00 571.58 273.54 317.84 516.15 474.42 710.89 634.20 707.98 485.13 319.84 317.39 272.84 279.48 579.80 704.08 237.17 501.79 127.05 404.72 351.85 670.79 452.09 210.42 523.58 738.98 350.15 198.70 566.79 263.03 379.54 47.30 333.72 225.73 364.06 391.87 481.40 141.54 394.46 485.88 670.84 521.86 541.17 533.32 455.02 715.23 707.67 505.29 684.00 287.03 209.83 480.26 383.80 636.46 131.23 291.56 271.30 704.82 379.55 381.13 684.04 651.03 537.80 260.77 281.01 121.69 710.51 279.90 339.47 433.58 739.93 436.63 614.94 373.42 261.65 367.18 304.46 104.71 205.43 263.49 75.64 339.48 370.38 526.92 229.25 654.52 423.41 760.98 317.64 514.99 391.31 138.05 354.18 439.60 748.40 687.53 416.70 210.55 112.19 220.16 387.00 759.82 304.49 230.75 125.35 490.40 612.48 719.48 187.76 283.37 227.77 666.32 312.08 581.35 607.06 181.15 640.40 340.22 309.27 480.80 312.33 747.59 739.72 220.27 512.04 558.08 684.40 325.39 413.20 324.40 325.88 257.84 264.82 363.20 402.64 308.04 450.13 489.24 279.99 390.46 367.20 525.25 316.90 254.68 67.21 289.85 211.64 62.81 112.66 108.93 465.88 184.73 370.03 258.17 788.09 483.84 695.66
1109.39 386.40 611.56 464.78 473.29 844.57 718.96 950.11 462.09 592.71 343.30 389.12 761.86 531.98 516.58 561.86 479.93 557.26 582.17 430.40 728.57 451.50 744.61 450.92 597.69 345.98 598.25 563.46 524.68 728.23 471.56 634.40 590.29 329.39 428.92 588.28 855.45 503.57 566.55 643.64 448.80 530.11 518.36 470.50 571.58 0.00 530.82 495.23 133.22 217.26 547.04 417.60 301.59 622.00 410.69 783.57 766.33 456.78 462.46 944.31 746.25 970.02 594.23 722.92 278.57 883.19 821.58 542.14 975.85 529.91 513.36 645.73 770.99 448.75 467.25 524.28 458.05 578.38 836.82 595.22 295.86 447.35 544.97 554.59 881.98 398.47 132.05 365.36 535.27 545.20 519.30 917.12 502.68 512.55 589.45 951.57 586.17 357.29 614.30 506.65 724.18 515.57 593.35 585.75 527.11 464.69 723.33 587.09 748.09 573.96 921.61 742.65 446.23 808.26 378.36 944.11 870.62 577.96 600.41 600.97 497.25 613.79 544.38 439.43 514.08 504.15 849.63 667.25 522.60 383.54 937.57 473.65 532.49 787.59 529.51 607.18 617.99 918.85 513.88 545.11 609.00 700.62 630.73 565.20 883.22 447.57 447.32 537.33 596.66 953.32 794.00 930.58 659.07 517.16 530.39 895.00 747.49 819.44 86.98 407.74 707.50 700.46 440.67 959.45 777.47 468.24 1002.20 531.58 573.91 725.37 504.11 500.97 525.53 831.47 559.67 553.56 708.39 481.97 652.96 476.51 585.94 489.51 482.44 826.53 205.58 998.01 509.69 719.93 594.46 445.38 624.23 515.08 588.49 603.66 188.27 658.66 484.70 472.36 513.01 138.87 525.99
741.44 737.07 649.71 762.52 754.73 665.15 738.71 960.08 514.67 618.45 655.90 141.70 400.74 488.15 432.38 512.79 174.76 383.75 173.23 734.84 434.52 379.78 652.93 333.50 243.84 247.18 355.10 475.96 226.64 554.41 557.67 582.65 558.90 487.88 799.10 371.99 823.40 524.84 321.55 287.47 686.04 568.39 220.32 374.37 273.54 530.82 0.00 551.62 479.80 517.90 809.94 680.16 758.40 261.70 524.97 350.08 465.33 503.10 413.19 969.73 427.39 699.54 283.42 674.62 254.37 892.18 641.37 434.46 705.58 814.76 569.51 194.88 814.09 433.91 210.74 226.24 520.31 469.41 461.44 625.70 594.62 187.05 607.23 609.31 892.66 670.97 501.75 664.12 533.17 870.18 782.20 700.60 739.92 515.44 483.37 560.26 638.82 710.40 371.18 538.58 293.35 763.35 618.29 602.08 809.46 711.96 784.56 531.10 343.71 303.69 923.90 460.12 489.43 672.37 807.14 637.99 880.59 613.79 482.81 613.94 525.79 306.07 414.80 94.69 206.11 580.72 538.82 763.76 454.93 773.59 631.50 750.97 561.28 707.71 513.64 236.63 604.19 599.83 783.22 810.91 659.34 411.91 361.56 111.75 545.13 758.25 517.27 450.38 288.35 528.81 852.85 932.87 286.35 550.40 99.07 852.72 359.62 833.16 532.99 185.42 787.41 194.17 503.60 638.93 403.29 737.58 950.46 463.91 653.82 787.63 794.26 101.96 189.77 515.85 580.95 47.27 519.33 507.53 223.42 481.05 581.80 598.94 496.89 426.09 335.78 602.18 552.81 504.05 333.71 540.89 150.66 271.93 343.51 328.56 342.55 219.23 443.04 524.41 783.83 451.04 818.80
753.12 508.99 151.65 434.42 501.59 388.32 269.26 497.16 73.48 128.14 525.40 517.91 509.33 107.11 162.09 139.12 456.64 236.89 475.07 461.81 325.90 755.99 306.51 709.71 450.39 394.72 340.92 138.59 373.39 291.50 223.36 185.95 103.93 297.93 506.82 212.88 397.10 26.78 327.31 421.99 463.43 200.94 371.06 750.58 317.84 495.23 551.62 0.00 532.43 418.42 514.87 411.26 508.82 722.87 84.54 521.65 374.76 81.29 729.30 480.43 420.27 567.28 385.19 284.82 532.93 423.28 430.28 133.84 669.44 523.15 32.31 491.06 320.11 142.52 596.04 365.14 40.59 154.32 583.46 132.31 343.75 372.11 101.88 224.12 431.10 271.17 540.03 307.44 190.42 429.14 516.36 475.43 487.90 182.53 162.36 643.79 128.92 388.70 213.03 44.29 515.88 512.82 137.43 106.54 504.95 489.35 267.93 137.00 536.81 390.59 440.56 377.54 71.47 345.55 563.73 523.09 417.67 123.15 193.31 125.06 33.37 372.81 144.36 552.79 383.84 46.90 497.52 276.65 96.69 520.72 568.21 539.37 54.24 323.93 143.71 451.48 158.19 518.15 536.72 435.19 154.69 371.64 285.49 482.72 520.73 513.29 108.68 111.42 404.64 624.13 362.21 449.53 452.72 68.71 452.55 439.48 581.65 370.26 582.21 424.58 385.40 658.06 54.56 614.53 542.43 533.96 542.29 97.57 267.94 276.29 500.99 624.78 645.20 400.20 99.87 563.76 274.38 162.67 668.55 188.01 184.27 223.22 132.73 621.10 458.68 702.71 60.51 286.31 304.67 58.15 529.48 371.78 282.64 233.24 529.81 457.37 166.21 74.76 578.73 511.67 495.63
1057.44 417.83 681.38 550.62 504.72 846.81 754.48 996.79 531.91 647.32 435.52 338.10 759.10 564.22 459.95 542.98 436.15 504.28 519.86 451.60 710.16 376.51 800.93 399.90 563.76 338.06 616.39 545.82 483.64 720.26 484.79 657.19 634.67 321.90 460.35 535.30 860.11 559.21 516.10 593.53 500.40 571.43 489.96 419.48 516.15 133.22 479.80 532.43 0.00 202.20 556.65 390.41 333.02 540.76 480.51 733.46 751.19 509.43 444.34 1006.44 712.63 989.45 575.82 787.80 250.67 938.95 860.15 462.41 957.44 561.34 564.74 593.78 840.81 483.81 416.23 491.89 527.87 541.31 809.19 664.74 309.09 397.65 614.79 567.82 951.80 411.70 25.02 378.59 548.50 615.26 528.91 913.35 531.87 454.76 592.91 919.93 646.00 450.72 541.60 576.47 674.48 547.79 663.17 638.97 556.17 512.35 800.36 550.36 691.46 555.55 972.99 747.93 516.05 804.98 409.79 890.66 917.30 647.78 605.44 657.49 565.80 580.17 482.07 392.25 464.38 573.97 831.22 762.88 537.92 414.97 880.94 505.08 586.67 844.65 542.74 566.14 643.77 900.44 545.31 548.60 667.99 686.01 580.28 521.42 851.58 479.00 517.14 526.45 565.02 908.36 873.72 981.96 621.27 586.98 501.35 905.77 695.54 881.01 116.31 363.96 655.35 618.17 510.49 930.63 749.07 499.67 1052.94 528.94 587.14 786.38 552.14 417.47 476.78 799.86 629.49 507.06 696.70 537.92 578.53 420.74 610.13 502.74 489.68 813.03 148.95 919.07 579.51 662.74 569.00 515.20 580.45 553.26 580.57 532.00 137.25 606.61 473.43 530.74 544.44 86.92 566.21
1034.94 306.73 532.93 450.93 367.81 748.16 558.17 884.51 365.43 509.42 387.90 376.20 707.32 447.72 388.80 467.97 444.15 388.04 532.69 432.56 591.39 532.70 684.32 486.42 504.52 361.85 467.60 431.14 418.87 614.14 413.43 578.68 519.24 136.91 412.18 419.06 773.46 408.06 522.43 562.97 434.78 464.45 425.19 506.00 474.42 217.26 517.90 418.42 202.20 0.00 498.30 393.44 391.54 598.54 412.91 681.64 606.73 394.18 522.18 839.53 620.57 846.63 531.35 666.10 283.84 804.56 770.89 443.88 913.87 469.24 450.73 565.22 724.80 321.89 454.33 427.12 398.32 385.90 710.14 518.24 237.73 430.82 480.39 452.84 835.43 340.34 209.44 307.23 445.67 564.33 473.30 856.71 432.41 342.33 485.58 825.81 533.63 410.37 445.08 435.00 647.24 421.94 534.16 523.91 471.45 410.58 658.75 498.95 669.40 528.78 820.58 627.56 390.67 690.30 421.02 762.79 830.65 521.13 453.69 539.93 421.46 552.16 424.22 444.70 478.93 458.73 735.31 609.88 400.68 394.28 771.61 461.59 452.07 728.02 427.40 501.37 521.28 781.37 435.52 470.00 552.52 541.02 529.25 465.64 806.12 452.64 392.45 415.41 520.75 794.36 677.41 829.55 576.40 483.64 535.66 840.09 675.40 760.25 260.72 423.61 579.39 580.47 404.38 839.80 684.30 448.20 893.37 409.66 445.80 635.35 472.64 488.05 514.88 630.59 497.70 535.42 586.47 366.01 624.96 307.68 439.42 392.68 357.33 765.31 182.12 871.33 450.50 609.53 488.31 397.59 524.67 484.73 503.08 443.23 223.77 553.77 359.86 413.92 494.45 115.28 459.83
1217.65 222.69 528.91 97.38 130.49 788.12 483.19 826.15 480.76 604.35 303.86 808.17 965.17 575.59 561.54 600.48 796.47 615.61 872.29 147.86 798.53 933.16 757.74 909.81 827.45 665.86 752.55 593.39 766.44 766.32 330.88 676.00 610.88 538.36 148.45 646.63 719.53 531.12 706.41 853.57 123.90 394.71 764.11 918.30 710.89 547.04 809.94 514.87 556.65 498.30 0.00 229.54 275.78 1030.51 528.51 965.53 822.63 495.40 987.11 781.17 875.07 978.34 785.45 761.03 715.81 737.16 898.76 552.99 1129.77 77.56 482.56 893.60 669.01 559.14 842.26 758.19 491.21 610.16 944.32 561.56 343.32 731.11 537.14 378.99 690.99 243.70 531.63 285.26 384.32 132.07 27.74 948.31 86.84 494.74 633.06 1098.59 569.65 189.75 632.18 554.11 957.70 79.94 579.51 535.79 26.85 101.00 521.52 614.98 958.20 788.32 651.66 832.34 502.99 816.44 200.40 987.02 768.41 572.05 657.13 578.06 535.88 781.90 572.65 843.25 778.52 514.86 964.53 465.44 561.22 211.45 1022.31 123.91 562.21 785.68 434.24 811.97 619.44 992.97 64.88 163.18 563.86 786.86 653.37 853.84 1010.64 131.19 505.94 553.09 815.26 1073.10 592.19 642.69 866.83 566.38 776.27 784.63 986.71 668.46 562.54 724.28 330.33 965.37 498.53 1101.53 1006.04 110.52 808.15 570.20 372.03 544.92 47.86 876.70 902.81 912.96 607.84 857.21 743.92 420.23 992.27 496.07 427.87 339.67 518.29 1017.41 614.09 1105.51 573.04 753.32 728.45 505.77 880.66 757.88 688.34 670.80 647.16 855.95 445.51 474.09 135.03 538.67 38.47
1088.93 145.72 474.19 167.80 198.87 726.19 459.91 772.66 348.79 477.69 226.89 618.50 847.45 446.87 480.72 471.76 566.93 498.22 669.17 98.64 669.81 726.58 656.06 680.30 698.01 556.50 657.38 478.35 649.74 643.12 198.91 551.98 495.66 369.00 210.97 529.24 690.32 384.48 612.70 705.73 147.44 285.55 655.32 699.88 634.20 417.60 680.16 411.26 390.41 393.44 229.54 0.00 201.93 846.85 388.72 844.90 718.28 366.68 790.34 727.68 760.03 879.92 670.26 634.37 532.15 745.82 729.65 452.04 1025.42 213.44 387.39 751.78 608.20 412.14 654.65 657.99 381.68 494.92 863.80 452.28 155.71 635.15 405.17 273.25 719.19 148.53 415.43 105.86 262.62 224.85 201.80 833.13 178.91 352.15 504.34 983.55 458.63 60.31 527.68 411.42 797.51 202.19 471.81 426.51 210.12 156.65 492.94 501.51 805.23 668.76 719.72 717.30 371.02 668.33 196.21 868.86 723.05 447.28 528.89 465.88 397.88 628.93 454.98 655.64 669.23 403.41 841.04 506.84 432.50 233.27 894.88 249.16 428.49 702.60 302.27 732.24 510.16 869.77 247.16 158.19 483.77 687.71 558.20 652.20 887.86 223.08 369.73 447.23 662.29 961.56 579.15 710.75 724.70 460.06 650.62 732.21 863.78 685.97 504.58 494.74 329.29 830.13 358.74 965.32 853.07 243.75 795.11 441.48 274.86 516.34 199.18 730.35 715.20 799.46 474.12 727.43 615.76 295.66 850.21 349.07 324.25 246.70 400.58 900.02 430.43 1024.99 426.92 629.83 611.06 394.71 711.23 640.14 567.71 545.57 417.65 752.28 313.54 387.99 220.54 468.16 198.50
1211.84 84.81 613.03 240.89 171.70 884.79 595.83 882.89 435.34 613.08 102.50 629.55 928.81 585.34 593.75 614.24 703.94 642.15 792.68 214.73 787.88 709.53 787.15 683.39 763.83 647.57 754.42 608.69 690.82 754.88 363.85 681.74 611.66 436.36 127.33 613.51 818.52 511.72 722.72 799.81 169.50 416.97 684.50 642.52 707.98 301.59 758.40 508.82 333.02 391.54 275.78 201.93 0.00 873.78 486.74 936.09 794.46 519.05 764.05 837.91 859.91 1032.29 750.40 765.46 580.16 883.83 897.63 572.55 1101.60 228.32 521.43 829.98 750.08 525.17 707.68 690.42 468.23 610.61 976.83 572.15 237.07 663.77 550.30 429.99 837.66 282.57 358.04 218.89 399.79 329.53 250.73 956.62 206.98 465.18 642.81 1068.06 573.98 141.62 639.78 538.66 934.61 214.77 595.12 591.45 248.93 185.55 653.50 628.75 902.70 730.13 808.39 847.64 460.58 839.36 76.77 955.73 864.93 592.41 636.29 607.49 525.12 741.96 580.17 663.71 730.50 528.64 917.22 612.11 572.70 81.95 984.44 172.06 555.73 797.93 456.86 773.32 643.33 964.58 212.29 329.44 606.88 798.70 675.27 789.21 1015.10 145.98 514.06 583.94 775.32 1074.59 672.31 799.42 810.03 564.50 786.79 874.09 947.35 827.85 339.54 631.75 500.54 942.10 471.77 1104.93 943.61 166.65 888.27 576.36 432.06 640.47 243.70 741.40 733.17 899.30 585.01 795.68 707.76 395.47 875.27 462.10 462.44 351.97 481.94 1030.45 481.97 1138.02 554.16 706.01 673.26 481.26 842.92 671.25 658.90 599.05 470.27 824.80 408.98 512.94 211.42 419.94 242.50
760.81 861.12 820.96 980.48 959.02 893.37 938.57 1143.49 760.05 788.09 779.95 252.90 579.02 649.22 608.72 690.50 324.34 606.98 408.20 907.21 674.99 238.45 864.46 284.73 454.60 412.50 584.20 670.23 463.89 748.89 819.37 786.03 719.97 589.37 998.54 590.09 1064.64 696.09 528.57 502.22 947.74 765.18 461.56 325.60 485.13 622.00 261.70 722.87 540.76 598.54 1030.51 846.85 873.78 0.00 735.86 475.22 680.27 692.00 306.28 1155.67 656.30 916.01 545.12 886.15 424.56 1092.59 870.77 659.82 793.02 1024.36 748.18 411.35 965.72 677.30 221.69 455.64 730.65 662.38 601.38 797.79 720.63 436.74 757.28 826.16 1067.77 823.24 565.78 775.00 794.87 1032.20 1031.02 941.07 962.41 666.67 694.96 659.81 805.17 878.14 603.77 723.03 438.01 983.30 787.38 784.13 1040.31 929.51 945.63 713.02 522.99 565.39 1156.43 695.09 751.13 904.64 947.62 842.28 1080.57 774.86 686.19 775.01 708.61 560.64 640.16 263.70 409.49 749.34 726.12 928.36 626.18 948.67 836.70 1012.67 727.50 948.18 775.34 446.88 786.53 795.34 990.64 937.87 827.95 614.56 583.76 338.18 673.25 1016.83 711.33 611.45 527.28 628.36 1013.92 1153.06 502.82 715.62 360.77 1055.52 496.00 1036.51 592.24 396.53 1018.93 236.63 734.72 746.07 532.78 999.28 1153.84 630.13 885.34 937.68 1007.75 159.74 161.14 713.25 750.59 284.38 735.72 769.23 200.62 630.63 822.97 860.64 700.45 549.36 416.42 725.53 726.76 724.09 539.74 722.13 340.09 519.32 534.06 590.26 453.75 448.14 704.74 690.45 1030.21 562.24 1032.29
768.34 504.24 200.87 441.19 477.01 433.88 332.16 545.99 51.40 182.02 490.20 544.39 529.34 121.29 188.57 151.17 411.52 207.76 449.90 437.23 349.22 749.21 333.92 702.93 421.05 391.88 356.14 152.77 348.04 317.54 201.28 223.71 179.60 276.00 518.53 231.46 444.76 92.88 292.11 421.81 455.63 179.37 341.72 743.80 319.84 410.69 524.97 84.54 480.51 412.91 528.51 388.72 486.74 735.86 0.00 554.58 382.86 46.09 808.28 533.62 434.45 559.33 371.15 312.23 524.47 472.50 410.89 131.45 685.04 538.27 102.67 470.03 360.30 119.99 598.63 343.46 47.36 174.33 598.68 184.53 315.66 362.14 134.28 216.56 471.29 316.47 455.49 282.86 179.79 499.50 511.17 527.38 455.26 132.44 178.76 657.97 175.48 364.12 208.59 95.96 553.04 492.30 182.66 175.06 501.66 467.12 338.08 176.40 543.58 374.02 510.92 391.72 35.54 397.57 533.96 550.80 475.15 167.27 189.72 190.28 86.56 384.71 134.39 536.08 348.64 93.46 520.45 290.14 111.91 472.86 559.40 514.79 121.80 376.90 137.44 430.54 207.30 544.19 526.30 428.59 198.31 358.95 269.71 492.60 572.40 488.71 36.63 126.64 417.51 675.80 400.27 519.89 417.52 106.47 467.04 484.31 603.05 408.75 497.67 427.54 338.93 615.82 29.98 632.22 574.15 509.38 591.51 120.89 232.01 314.68 487.90 598.39 638.60 478.00 148.98 547.22 297.70 139.94 683.04 105.23 175.25 221.38 71.75 609.56 422.75 716.89 99.00 309.24 294.70 34.69 500.14 337.85 289.01 237.55 479.72 447.40 126.82 61.67 554.15 476.47 490.04
430.79 854.93 625.42 937.82 918.25 536.74 744.16 799.31 576.88 586.48 933.78 449.10 103.80 472.49 416.91 477.84 317.81 392.23 242.40 845.64 270.25 655.19 510.84 640.90 221.13 442.97 214.04 441.01 284.03 393.80 656.61 499.30 539.17 616.31 957.48 369.96 713.67 501.68 291.02 139.93 894.44 657.06 290.35 679.86 317.39 783.57 350.08 521.65 733.46 681.64 965.53 844.90 936.09 475.22 554.58 0.00 285.87 508.49 638.51 844.29 225.03 515.86 238.65 532.53 558.50 792.51 479.96 425.18 376.85 1005.71 534.86 155.20 736.55 476.11 500.90 292.28 543.99 405.51 126.16 590.75 713.40 359.66 605.25 718.04 823.90 721.83 755.41 739.04 655.35 925.85 969.45 469.54 915.69 492.75 461.56 229.89 614.48 842.18 345.99 506.51 126.27 925.75 587.26 577.74 978.74 877.45 738.06 464.78 47.77 246.66 842.30 240.07 556.71 478.88 967.70 427.36 770.86 602.58 409.74 594.21 488.28 216.73 420.19 408.73 299.30 556.71 323.73 756.08 458.27 918.41 361.48 984.34 537.36 543.44 587.81 201.53 558.19 374.66 971.99 901.43 635.00 306.05 313.22 254.78 206.60 986.24 519.72 458.86 192.29 240.54 839.08 851.27 143.55 525.26 332.35 741.56 60.00 717.25 812.46 390.00 860.39 319.37 555.36 297.31 57.56 974.01 890.47 467.25 726.80 743.76 946.18 390.47 478.28 295.16 564.88 348.72 355.06 627.22 274.60 513.33 658.16 702.27 508.10 144.40 590.28 287.35 525.44 348.50 324.79 546.28 252.45 268.49 277.19 337.04 596.21 172.25 602.31 526.66 1014.51 662.06 970.72
506.76 709.65 372.09 785.85 808.10 305.20 559.70 547.54 411.18 347.55 790.82 533.23 248.53 299.54 352.41 246.52 415.36 277.61 359.23 742.38 81.79 761.29 322.38 725.03 321.61 455.59 168.08 283.35 284.46 138.84 525.94 242.79 338.50 527.01 822.59 299.44 481.02 349.36 263.67 248.35 774.97 522.10 278.14 765.90 272.84 766.33 465.33 374.76 751.19 606.73 822.63 718.28 794.46 680.27 382.86 285.87 0.00 351.60 745.70 592.52 146.91 326.89 219.61 344.07 609.42 555.84 221.39 288.78 307.14 853.75 383.95 343.62 480.30 384.84 608.99 284.06 392.02 278.02 307.06 365.98 593.10 370.45 388.27 556.67 553.06 609.16 726.70 636.04 515.76 771.14 798.04 290.61 801.34 427.04 244.10 370.43 385.47 705.89 295.17 341.35 317.57 801.12 343.01 391.75 798.81 765.33 526.00 286.67 309.70 204.88 582.25 104.18 400.18 274.30 823.94 236.23 534.97 382.01 210.23 355.38 354.97 171.55 308.44 492.94 331.88 369.31 194.04 507.99 287.55 796.49 307.44 859.75 320.52 291.67 452.85 285.31 314.36 255.62 838.77 745.83 407.04 65.71 199.49 405.11 307.74 833.67 388.65 297.25 204.91 375.73 621.07 591.22 267.32 341.33 396.79 489.79 345.87 494.86 753.89 438.72 686.17 483.99 383.16 381.75 333.50 851.12 670.61 278.57 594.84 528.52 774.77 552.53 640.34 104.84 349.48 486.75 122.41 471.64 549.55 431.03 503.54 565.40 379.39 347.74 619.15 448.36 343.32 88.45 256.97 365.26 358.55 251.25 249.19 256.01 683.35 272.48 438.53 348.54 897.02 699.18 787.19
722.25 504.28 179.38 459.31 492.06 421.36 296.99 499.90 83.71 155.87 444.11 502.03 483.25 80.19 146.21 105.08 425.77 206.52 403.81 456.40 303.13 703.12 321.40 656.84 374.96 365.76 310.05 111.67 301.95 276.44 212.11 219.29 165.69 262.61 525.73 185.37 431.64 54.51 246.02 375.72 423.37 205.46 295.63 697.71 279.48 456.78 503.10 81.29 509.43 394.18 495.40 366.68 519.05 692.00 46.09 508.49 351.60 0.00 762.19 514.97 393.35 513.24 325.06 299.71 515.51 451.01 403.36 85.36 658.74 532.58 113.60 423.94 384.59 77.63 580.16 297.37 65.48 128.24 552.59 171.14 304.43 316.05 152.40 262.65 482.55 290.08 501.58 323.33 188.58 478.68 470.81 503.16 477.25 120.74 137.66 616.87 180.08 398.95 162.50 81.45 506.95 498.24 168.04 178.06 480.10 449.29 339.87 143.99 505.97 327.93 521.85 350.62 81.63 370.83 544.47 504.71 488.83 177.12 162.21 180.41 67.91 338.62 88.30 496.73 302.55 125.89 474.36 330.61 65.82 473.28 569.31 539.80 98.52 374.85 154.45 384.45 194.15 503.09 511.54 433.77 198.97 351.91 258.18 446.51 538.10 513.72 37.05 80.55 371.42 641.50 416.18 527.97 371.43 128.61 420.95 486.54 558.48 406.70 543.76 381.45 385.02 582.63 70.45 631.90 528.06 534.39 570.02 74.80 278.10 332.80 447.54 552.30 639.02 432.78 144.15 504.24 251.61 178.68 636.95 129.38 209.16 221.80 59.56 594.18 430.90 675.79 96.95 263.15 248.61 37.79 454.05 291.76 251.31 191.46 468.02 401.31 143.03 21.31 578.10 430.38 472.08
983.10 764.42 880.95 927.24 879.55 987.90 998.56 1203.04 802.78 847.64 778.51 271.49 690.26 778.64 627.31 794.09 403.45 640.55 460.77 888.98 751.20 67.83 958.75 110.04 501.66 491.07 638.05 757.26 532.90 828.00 883.83 890.74 779.52 599.58 891.38 662.99 1126.40 756.08 627.81 555.54 911.26 881.20 526.58 143.38 579.80 462.46 413.19 729.30 444.34 522.18 987.11 790.34 764.05 306.28 808.28 638.51 745.70 762.19 0.00 1209.73 740.16 989.06 620.70 937.06 324.91 1152.58 947.63 676.83 990.95 957.65 761.61 484.40 1034.71 695.89 249.68 532.50 769.89 712.02 720.37 861.61 748.62 515.85 831.18 942.18 1145.70 832.61 469.36 785.21 883.25 1007.66 973.25 993.78 900.27 719.97 789.63 837.46 858.22 819.75 648.26 773.59 512.24 933.68 846.93 835.84 983.19 895.12 997.23 812.75 607.53 628.71 1169.86 747.66 800.77 986.08 840.82 892.51 1145.08 852.45 753.73 834.56 762.67 607.70 692.79 365.73 546.09 776.20 818.57 1005.95 752.34 846.00 931.97 919.28 783.54 1024.39 868.97 493.94 825.13 887.79 947.26 948.53 883.99 713.54 674.78 446.18 820.70 910.03 779.25 740.87 574.34 855.92 1091.51 1178.83 575.87 798.01 412.29 1115.07 578.51 1085.89 548.77 429.31 1099.60 453.20 783.86 909.82 670.07 905.89 1266.51 743.36 966.01 1005.59 954.61 321.41 242.66 760.31 810.14 442.45 805.11 828.68 426.91 709.74 901.47 869.46 748.63 696.00 426.63 881.56 789.81 771.15 639.97 787.45 387.15 596.18 649.77 619.56 372.69 546.34 798.72 770.97 930.56 481.18 971.57
882.54 873.40 393.23 794.26 898.46 365.36 416.91 44.98 536.84 459.01 940.01 979.35 754.87 520.80 623.53 504.55 871.83 671.07 857.59 826.32 574.04 1180.06 358.22 1171.15 828.74 808.41 700.19 541.38 755.73 544.71 613.28 441.50 459.18 731.61 920.92 646.56 146.33 460.46 721.75 759.67 837.83 589.05 749.41 1212.02 704.08 944.31 969.73 480.43 1006.44 839.53 781.17 727.68 837.91 1155.67 533.62 844.29 592.52 514.97 1209.73 0.00 649.78 437.92 697.64 379.91 970.34 127.29 468.61 577.71 718.70 858.73 491.79 876.58 203.99 589.36 1057.48 751.38 521.02 586.62 807.62 419.43 787.50 785.80 463.42 548.37 173.46 688.12 981.42 751.80 624.27 755.36 808.91 467.21 833.86 630.28 514.63 797.43 450.59 787.99 628.82 465.29 841.55 861.11 442.40 419.90 803.79 863.75 336.03 463.69 801.56 717.91 228.87 690.76 528.11 384.07 914.68 581.46 89.14 442.36 541.74 454.77 447.06 723.26 558.05 965.43 764.94 501.50 651.27 365.20 530.37 872.12 660.70 905.08 496.14 300.85 577.39 816.11 422.76 613.46 846.05 742.98 428.18 617.42 681.39 916.26 759.47 912.36 552.02 544.22 744.00 798.66 346.24 235.73 785.23 501.13 886.23 128.34 880.20 202.64 985.11 799.64 582.64 1000.56 523.36 745.38 811.65 891.69 189.12 531.25 604.89 359.43 829.03 1014.69 1033.78 563.51 458.62 939.24 504.94 616.94 1078.94 638.85 573.82 615.90 574.53 838.62 904.56 879.12 484.22 538.90 707.10 505.90 907.83 758.58 651.28 661.21 977.56 827.91 622.20 508.85 916.20 945.35 815.41
445.93 817.61 469.09 788.45 849.68 380.36 616.95 604.80 455.03 419.60 837.46 514.13 123.94 313.16 372.31 318.51 370.84 316.05 294.91 783.80 165.40 737.13 375.27 702.67 269.13 416.50 152.97 281.68 261.37 196.46 572.64 362.43 351.48 567.18 880.88 304.29 588.90 396.06 225.06 192.96 816.72 568.80 259.04 733.83 237.17 746.25 427.39 420.27 712.63 620.57 875.07 760.03 859.91 656.30 434.45 225.03 146.91 393.35 740.16 649.78 0.00 320.61 180.52 396.96 551.18 619.00 321.41 358.13 339.67 912.25 452.58 282.84 599.94 426.09 564.19 253.12 422.14 322.26 266.47 431.42 650.72 333.19 453.85 606.97 626.56 652.39 687.61 655.53 555.14 820.23 850.48 357.26 845.58 448.15 320.34 308.98 442.05 758.67 278.94 403.56 272.55 870.47 418.89 433.42 858.98 830.47 577.14 346.57 177.26 172.29 701.89 42.73 453.02 381.45 900.65 220.66 561.79 411.74 268.52 406.52 386.90 132.46 352.65 453.85 312.78 441.30 133.21 565.24 334.25 839.84 246.61 906.36 414.67 438.58 499.55 246.22 378.58 202.43 891.21 792.53 467.09 129.27 242.72 364.93 243.67 880.28 403.61 340.46 165.82 328.01 650.80 710.86 228.23 374.88 357.70 615.18 230.42 614.50 751.39 418.32 733.28 419.67 426.73 290.21 212.55 900.95 697.43 325.27 649.33 600.54 827.21 529.35 617.16 88.46 382.10 463.66 242.05 518.34 499.63 457.55 565.82 588.36 431.92 254.54 581.89 427.66 391.87 208.09 277.96 423.55 353.01 231.17 232.59 260.86 649.24 208.16 508.05 400.98 943.72 714.43 849.66
444.62 976.98 477.31 972.55 975.05 265.36 675.43 482.90 596.95 486.09 957.35 798.56 423.51 517.90 592.31 495.54 658.31 517.51 547.90 916.73 366.04 936.56 364.54 979.49 559.34 693.32 407.98 514.87 554.25 358.60 689.10 381.33 518.64 768.64 1013.50 548.53 465.22 553.82 487.48 486.08 936.61 678.08 547.93 1010.65 501.79 970.02 699.54 567.28 989.45 846.63 978.34 879.92 1032.29 916.01 559.33 515.86 326.89 513.24 989.06 437.92 320.61 0.00 457.34 386.23 807.63 532.34 202.38 556.11 289.52 1006.43 574.77 504.66 469.45 590.87 846.72 547.55 578.72 536.69 424.04 487.27 809.43 610.01 505.02 688.90 486.17 803.32 964.43 836.57 698.82 955.03 975.77 105.17 910.45 633.98 460.43 400.84 498.24 911.33 547.88 537.16 548.71 947.49 508.69 461.50 951.49 947.91 626.07 457.38 468.09 449.11 621.51 347.49 594.87 291.75 1040.66 143.54 483.24 497.76 506.56 496.32 543.99 409.28 571.38 730.67 564.83 543.10 213.35 651.26 524.53 986.52 222.78 1021.68 527.81 357.85 644.24 523.04 432.34 175.54 981.49 893.86 512.26 305.61 491.74 604.24 339.95 1017.85 550.29 527.18 442.64 369.39 658.30 612.54 413.19 498.57 634.52 502.38 550.43 405.28 993.79 682.94 791.39 716.67 583.69 307.46 492.64 1015.00 614.41 515.55 700.06 628.28 960.78 762.96 850.77 232.15 488.02 708.11 338.74 658.54 738.85 629.21 620.29 735.04 572.80 432.94 854.63 441.20 545.50 355.78 434.58 551.03 601.91 491.15 490.40 505.26 930.61 509.87 656.27 534.55 1061.25 939.08 963.11
568.12 665.59 456.99 766.11 727.22 437.51 587.52 680.16 406.14 411.84 746.76 370.49 223.82 297.85 242.27 303.20 252.03 199.34 223.58 667.09 151.10 608.57 391.69 562.29 157.53 282.75 89.50 266.37 112.48 278.54 481.97 375.10 381.16 426.97 771.59 195.32 594.52 358.41 79.04 98.72 710.37 501.38 115.40 603.16 127.05 594.23 283.42 385.19 575.82 531.35 785.45 670.26 750.40 545.12 371.15 238.65 219.61 325.06 620.70 697.64 180.52 457.34 0.00 413.38 422.34 673.36 418.17 276.45 422.16 812.87 380.45 197.17 612.61 310.85 448.62 120.73 390.54 230.87 283.13 416.11 552.26 198.47 441.87 534.01 715.16 547.19 600.84 564.40 506.46 742.08 787.06 417.18 722.69 318.11 310.84 401.27 450.43 667.54 197.26 366.57 236.29 738.24 439.08 418.11 799.87 684.45 598.26 290.14 224.36 20.27 640.48 214.74 406.69 463.44 779.88 371.56 651.71 439.04 285.20 427.64 371.59 48.06 265.56 336.92 169.14 402.04 255.40 592.54 298.95 750.56 368.80 794.40 394.14 424.29 474.90 126.76 363.66 324.62 784.48 738.94 475.37 153.90 143.22 251.64 332.92 793.24 354.93 284.22 46.36 391.21 678.10 649.45 105.70 356.59 238.24 569.30 268.30 620.79 675.62 251.64 710.08 349.42 395.51 426.60 237.14 781.01 759.82 300.62 578.07 621.66 767.63 385.38 439.29 267.75 399.10 314.77 235.91 452.58 424.55 354.15 516.16 539.68 333.46 323.98 446.19 444.32 376.56 220.76 129.93 362.85 233.55 79.15 102.55 162.40 520.04 137.91 437.27 346.37 821.51 580.68 792.17
659.78 740.25 232.12 710.20 747.27 121.65 382.52 377.05 330.12 156.68 743.82 709.39 449.76 252.36 374.41 262.53 583.32 384.32 558.06 671.54 262.28 911.12 21.69 901.19 493.03 591.41 383.26 249.33 447.98 297.57 454.79 256.42 218.74 529.19 757.83 395.46 295.69 258.04 381.99 463.53 685.22 421.59 454.30 942.06 404.72 722.92 674.62 284.82 787.80 666.10 761.03 634.37 765.46 886.15 312.23 532.53 344.07 299.71 937.06 379.91 396.96 386.23 413.38 0.00 735.38 374.53 187.95 325.39 524.61 787.54 288.70 536.37 330.78 353.21 775.19 452.02 320.20 294.57 581.32 222.75 542.01 533.97 248.53 395.76 368.51 522.18 767.72 573.82 407.53 682.21 750.16 281.84 682.78 408.58 194.89 540.52 205.10 645.36 370.73 270.66 529.79 719.82 200.19 233.83 748.74 708.61 358.44 245.83 490.19 398.49 431.19 354.23 315.36 94.48 806.32 336.11 346.56 235.41 246.71 187.82 271.44 386.73 310.28 668.21 476.66 277.15 376.15 330.81 289.13 756.61 354.66 738.72 239.81 123.42 374.97 443.12 153.82 362.93 753.82 648.80 238.00 280.89 317.81 568.00 445.55 746.00 336.76 290.13 420.09 509.07 457.56 440.16 473.47 236.69 580.30 261.60 572.73 257.87 741.36 564.68 517.13 678.49 320.94 507.06 538.37 725.33 404.54 280.15 454.87 381.84 726.89 726.41 762.08 382.21 194.18 650.27 259.58 415.67 740.91 385.54 363.80 473.30 358.78 597.79 685.41 573.08 239.70 293.54 423.33 284.20 549.91 433.46 367.51 386.07 738.23 495.52 425.52 315.88 771.58 730.09 737.12
922.49 501.31 644.47 670.93 651.65 788.18 762.08 996.46 503.19 586.90 582.48 210.25 585.04 496.73 412.72 525.68 240.69 444.35 321.10 592.51 556.47 263.21 753.54 309.49 389.63 232.46 473.37 502.26 337.60 632.72 586.19 627.69 572.94 274.67 665.39 415.92 896.73 519.60 399.86 418.57 640.73 602.21 331.28 350.36 351.85 278.57 254.37 532.93 250.67 283.84 715.81 532.15 580.16 424.56 524.47 558.50 609.42 515.51 324.91 970.34 551.18 807.63 422.34 735.38 0.00 916.10 752.33 437.76 794.00 690.85 565.24 408.30 828.13 459.65 260.51 337.20 519.81 516.66 649.21 634.75 457.86 259.62 606.73 626.45 891.28 507.70 275.69 460.30 574.01 751.35 712.94 822.55 637.16 428.23 554.20 732.32 639.55 563.44 389.65 546.54 476.55 668.60 630.41 634.24 720.81 614.81 761.66 547.96 531.48 442.61 941.57 593.91 488.93 739.42 615.60 720.47 942.98 611.82 548.54 618.04 533.00 456.56 457.42 160.86 326.35 577.88 677.74 764.91 449.69 588.86 775.26 656.17 556.04 815.36 544.06 420.10 628.00 746.96 675.94 690.34 620.76 562.40 464.04 314.81 713.55 663.45 530.21 464.42 426.99 717.43 850.88 932.60 438.30 563.13 251.82 908.49 540.62 865.05 278.62 170.70 808.15 421.89 525.25 772.37 590.39 642.78 1035.11 458.67 674.56 785.06 691.50 297.20 321.06 639.64 583.11 274.99 616.67 503.77 374.39 445.44 614.41 544.55 495.09 590.86 101.72 807.66 555.30 606.53 373.05 540.82 373.84 400.88 428.87 389.16 138.56 407.85 483.88 536.82 605.65 247.05 716.04
894.79 865.75 271.63 708.61 804.98 356.66 323.43 115.79 465.32 347.07 859.24 912.58 742.94 476.75 556.76 455.72 815.60 597.24 790.10 711.05 522.26 1106.47 352.84 1104.38 761.25 740.36 632.70 462.25 688.24 484.57 546.91 341.51 389.24 667.65 831.91 582.60 78.84 396.50 654.26 692.18 759.85 495.57 681.92 1145.25 670.79 883.19 892.18 423.28 938.95 804.56 737.16 745.82 883.83 1092.59 472.50 792.51 555.84 451.01 1152.58 127.29 619.00 532.34 673.36 374.53 916.10 0.00 431.93 531.98 759.13 765.25 429.46 822.91 157.07 525.48 988.11 687.84 449.75 507.49 735.70 312.51 665.90 724.48 362.83 501.45 46.17 620.63 913.93 684.31 530.79 667.76 737.57 435.28 740.38 571.75 460.96 791.32 328.99 743.04 583.65 415.92 789.77 754.48 322.23 319.31 710.31 771.80 304.10 469.43 747.59 671.90 181.51 630.00 464.62 362.27 870.59 490.13 57.21 335.44 512.78 334.60 409.90 688.53 520.89 892.22 718.05 400.91 606.29 271.72 466.41 825.20 630.81 816.00 391.81 264.17 482.41 748.62 398.58 583.98 780.19 615.69 306.58 582.69 605.52 827.38 727.54 829.61 488.06 481.14 719.72 776.86 218.95 172.54 733.45 417.07 793.11 146.40 830.13 138.78 930.89 792.25 455.35 933.07 442.52 711.75 762.35 808.94 119.01 467.29 494.38 287.46 742.87 960.37 1014.92 579.28 384.57 890.53 437.45 516.35 1007.14 555.66 467.53 531.86 510.57 821.99 825.62 849.23 398.04 471.41 637.83 467.87 840.34 682.18 594.93 563.62 919.03 760.42 515.28 471.69 832.06 881.39 721.93
500.92 818.61 419.67 838.51 873.99 116.68 505.87 423.63 462.29 344.63 847.47 676.14 424.26 323.17 482.88 355.48 546.43 450.92 529.23 806.07 279.28 914.22 166.26 867.94 500.38 610.74 374.69 354.65 423.38 209.25 610.54 311.62 388.62 648.88 918.36 420.15 380.84 410.31 404.08 469.74 826.73 580.05 421.05 908.81 452.09 821.58 641.37 430.28 860.15 770.89 898.76 729.65 897.63 870.77 410.89 479.96 221.39 403.36 947.63 468.61 321.41 202.38 418.17 187.95 752.33 431.93 0.00 397.74 336.66 935.94 462.59 556.82 410.29 469.44 747.37 415.13 458.25 399.89 424.97 396.63 699.22 509.37 415.77 552.97 478.10 693.44 866.38 689.62 564.74 834.48 874.17 116.49 848.00 490.73 348.03 414.45 362.31 770.88 393.88 415.14 491.41 868.61 386.68 399.05 883.46 831.22 503.00 384.29 491.79 397.90 554.93 325.57 446.43 148.42 925.86 148.16 411.06 392.62 353.25 375.77 396.91 392.94 417.40 631.32 474.79 444.33 188.20 518.76 370.21 876.64 281.37 892.61 403.63 167.76 527.24 474.62 341.77 209.65 913.69 798.51 395.21 287.10 339.90 587.99 314.80 895.47 440.41 360.94 426.30 383.00 530.81 563.90 488.71 389.57 595.60 353.70 539.96 408.31 908.56 581.63 674.34 696.72 436.74 369.78 482.64 882.54 544.22 363.17 570.99 479.60 850.90 724.54 733.81 280.36 358.00 625.67 231.37 534.19 713.70 514.00 522.26 625.16 462.92 511.26 758.07 482.96 401.88 197.41 445.42 435.95 579.47 412.80 389.60 425.92 809.04 493.87 537.71 424.67 928.79 833.74 875.44
706.16 535.33 260.35 544.67 566.47 400.43 379.80 585.26 169.07 184.91 529.47 440.96 433.91 101.81 85.14 120.24 359.81 136.23 371.82 509.17 282.20 679.04 347.08 632.76 325.45 300.79 261.43 83.41 265.97 257.85 294.95 217.61 172.56 306.97 584.24 105.46 483.56 137.32 232.87 307.08 508.73 281.36 263.64 673.63 210.42 542.14 434.46 133.84 462.41 443.88 552.99 452.04 572.55 659.82 131.45 425.18 288.78 85.36 676.83 577.71 358.13 556.11 276.45 325.39 437.76 531.98 397.74 0.00 595.92 592.30 166.15 391.60 425.44 121.99 519.09 257.72 150.84 78.90 503.97 223.33 335.48 247.41 226.47 332.41 517.10 370.25 487.43 383.06 271.42 522.38 550.98 450.94 549.38 141.90 130.50 581.65 236.47 464.32 79.19 143.44 442.48 512.34 221.46 221.12 560.27 534.65 376.06 161.10 457.15 258.64 574.40 315.40 166.50 342.57 578.90 458.80 540.29 217.97 143.03 216.05 130.65 289.95 19.66 428.09 286.06 178.07 411.54 371.47 75.51 507.71 512.05 592.80 148.72 415.70 234.62 326.78 228.95 440.33 558.58 516.61 249.17 321.46 174.87 377.87 521.59 584.11 119.89 64.04 313.01 594.60 457.03 580.35 375.42 155.91 351.30 508.11 485.18 447.55 578.72 298.14 470.38 544.18 130.18 599.25 482.45 584.34 650.99 66.53 362.97 399.46 527.71 500.08 579.64 383.44 194.35 439.06 234.29 209.73 567.30 142.25 275.45 304.64 90.61 538.03 396.14 665.16 137.80 200.33 179.97 123.15 422.06 259.35 173.90 121.81 441.06 332.67 213.16 101.48 630.59 515.61 552.25
302.25 1016.79 645.28 1092.38 1101.76 453.34 815.46 760.29 696.27 588.25 1097.96 773.21 345.93 606.68 642.63 553.66 651.35 580.96 574.75 998.24 388.93 940.77 502.92 965.01 528.45 678.11 475.22 590.49 511.80 445.98 833.08 483.49 620.80 782.77 1129.73 606.58 717.50 654.11 483.80 508.62 1047.04 803.36 518.12 942.78 523.58 975.85 705.58 669.44 957.44 913.87 1129.77 1025.42 1101.60 793.02 685.04 376.85 307.14 658.74 990.95 718.70 339.67 289.52 422.16 524.61 794.00 759.13 336.66 595.92 0.00 1140.56 676.93 532.05 721.00 661.92 758.92 520.05 699.16 564.99 321.19 641.72 900.24 576.74 630.30 840.15 775.69 904.36 982.46 929.77 822.90 1073.76 1105.18 323.85 1078.51 683.48 551.24 204.45 670.53 1011.51 597.06 627.17 478.71 1108.26 631.76 654.23 1105.95 1058.99 790.01 593.81 395.14 401.89 845.79 382.40 702.24 485.08 1131.08 322.62 701.92 658.28 517.37 619.39 645.40 441.72 615.58 735.49 510.01 676.45 206.46 796.44 594.69 1103.63 199.14 1143.22 627.66 504.42 759.99 536.66 570.58 251.41 1106.84 1036.66 652.29 372.85 501.38 613.21 170.25 1140.81 695.79 604.39 456.26 197.48 867.47 854.76 518.67 600.73 648.14 690.36 436.85 673.13 1049.21 623.30 931.42 606.87 690.30 110.84 350.59 1152.48 816.32 585.71 868.03 806.25 1081.91 759.76 819.47 307.04 590.18 696.09 429.55 778.78 592.40 719.52 745.57 824.69 686.53 345.91 825.44 268.54 647.66 395.59 513.52 650.35 629.30 460.77 524.71 563.15 915.40 505.13 745.67 655.68 1196.05 976.04 1094.33
1246.82 193.23 565.89 125.47 101.43 865.68 511.28 860.74 523.80 630.86 252.45 779.50 982.11 612.77 588.96 637.66 780.37 645.27 882.61 177.52 832.69 937.85 791.77 893.74 825.52 665.88 817.77 630.57 771.89 803.50 406.93 703.16 619.56 537.84 118.94 674.49 756.49 549.93 733.83 883.23 128.72 409.10 778.21 870.84 738.98 529.91 814.76 523.15 561.34 469.24 77.56 213.44 228.32 1024.36 538.27 1005.71 853.75 532.58 957.65 858.73 912.25 1006.43 812.87 787.54 690.85 765.25 935.94 592.30 1140.56 0.00 532.73 891.67 703.04 594.82 838.76 772.70 490.91 628.08 972.41 579.48 339.82 767.25 556.35 407.92 719.08 318.17 565.66 290.96 402.18 160.16 61.77 998.58 104.76 537.25 670.24 1135.77 590.45 187.82 671.49 567.44 985.79 79.96 602.45 553.71 54.94 128.42 534.36 652.16 971.91 815.74 685.69 869.52 521.79 853.42 151.55 1001.93 781.25 586.76 650.27 599.72 556.52 814.03 611.96 813.66 796.44 523.54 934.10 493.53 595.38 185.61 1033.88 92.75 577.39 820.61 456.28 840.06 637.36 1003.32 33.72 191.27 600.84 814.95 718.59 865.64 1043.88 82.34 526.57 590.27 847.39 1128.90 603.31 676.72 904.01 591.86 853.83 812.72 1022.51 696.55 558.97 708.18 328.54 986.91 521.33 1121.81 983.33 79.36 819.27 604.36 376.42 557.76 85.04 891.35 899.31 905.45 619.83 862.03 771.34 426.20 1025.22 534.17 441.08 341.82 545.32 1047.07 607.94 1133.60 583.66 792.63 758.11 542.95 924.67 779.67 728.68 700.46 631.09 877.65 455.18 511.27 85.20 566.76 66.56
785.43 523.92 161.58 458.60 496.69 378.18 301.57 482.14 97.87 132.02 552.99 550.22 541.64 139.42 194.40 137.43 481.95 269.20 507.38 451.24 358.21 788.30 310.39 742.02 480.42 427.03 373.23 170.90 405.70 292.59 225.54 193.44 128.32 326.39 474.51 245.19 367.79 59.09 349.19 454.30 431.12 197.05 401.09 782.89 350.15 513.36 569.51 32.31 564.74 450.73 482.56 387.39 521.43 748.18 102.67 534.86 383.95 113.60 761.61 491.79 452.58 574.77 380.45 288.70 565.24 429.46 462.59 166.15 676.93 532.73 0.00 516.37 287.80 174.83 628.35 397.45 64.98 186.63 615.77 124.59 341.47 404.42 70.39 237.97 398.79 238.86 558.16 302.54 161.83 396.83 495.26 507.74 459.31 200.20 194.67 676.10 114.32 390.94 245.34 76.60 548.19 496.35 113.25 113.90 487.85 457.04 271.50 151.69 561.18 400.72 408.25 409.85 80.08 369.94 531.42 530.58 402.65 101.66 225.62 100.88 65.68 384.88 176.67 561.27 410.01 32.30 506.71 255.16 129.00 518.67 539.75 507.37 79.65 328.68 130.78 483.79 164.86 519.24 522.12 402.88 147.22 376.84 317.80 515.03 553.04 481.29 139.30 136.73 418.24 656.44 340.72 417.22 480.65 101.02 484.86 411.81 594.86 365.57 600.34 420.50 392.16 666.90 78.49 646.84 574.74 501.96 538.29 129.88 276.55 250.79 471.99 652.22 677.51 432.51 125.28 596.07 306.69 130.36 700.86 195.28 185.66 190.91 159.85 653.41 467.29 735.02 92.82 295.50 332.76 85.27 559.51 390.79 277.90 258.55 547.48 489.68 190.60 107.07 546.73 543.98 476.23
581.64 752.90 561.65 811.34 842.24 559.68 689.97 831.72 507.65 543.61 814.74 293.90 205.86 417.41 361.37 448.82 245.89 286.57 87.20 754.32 302.66 499.99 537.11 485.70 66.15 312.20 237.36 414.00 151.80 428.24 618.31 481.40 488.16 502.09 870.40 303.66 746.08 464.28 217.93 142.92 795.36 584.44 145.48 524.66 198.70 645.73 194.88 491.06 593.78 565.22 893.60 751.78 829.98 411.35 470.03 155.20 343.62 423.94 484.40 876.58 282.84 504.66 197.17 536.37 408.30 822.91 556.82 391.60 532.05 891.67 516.37 0.00 718.91 403.05 368.73 151.40 489.42 376.32 269.13 543.99 675.26 210.83 572.51 645.42 792.61 655.54 601.02 695.14 596.67 849.20 865.86 568.74 834.59 454.45 361.95 385.09 571.90 703.85 312.41 480.02 139.33 843.73 534.44 552.32 873.67 811.25 704.19 412.89 151.40 180.72 837.65 324.65 505.57 582.51 867.19 503.50 803.27 543.05 400.63 533.57 476.80 172.07 386.61 253.53 144.10 517.53 416.05 696.55 394.37 840.45 456.38 895.49 495.69 575.85 572.60 93.25 506.30 485.27 889.97 833.66 596.14 277.91 282.11 99.58 361.80 915.04 457.70 379.64 150.98 384.26 782.11 846.62 91.47 468.55 177.15 766.47 182.06 720.24 682.17 257.04 805.52 212.68 494.39 448.16 208.41 894.37 888.45 398.32 677.69 727.59 854.86 258.30 346.11 371.30 506.11 203.45 387.47 552.35 288.25 466.12 631.31 642.45 440.57 295.25 459.53 407.30 494.95 370.46 242.27 461.73 97.25 166.46 250.18 302.34 494.75 74.68 506.54 445.25 940.62 506.86 872.55
810.20 753.92 253.21 602.58 695.89 324.10 216.77 194.34 369.27 286.67 736.02 811.77 681.67 366.35 456.49 351.72 708.93 500.88 728.19 653.58 466.56 1011.25 309.09 1003.57 699.34 686.15 569.13 365.89 622.34 416.13 409.29 237.51 255.19 597.79 740.26 495.47 114.33 330.08 565.70 653.69 633.84 397.16 620.01 1014.04 566.79 770.99 814.09 320.11 840.81 724.80 669.01 608.20 750.08 965.72 360.30 736.55 480.30 384.59 1034.71 203.99 599.94 469.45 612.61 330.78 828.13 157.07 410.29 425.44 721.00 703.04 287.80 718.91 0.00 453.34 889.90 614.09 352.78 411.13 730.62 284.96 584.99 646.39 327.92 344.38 110.99 526.66 815.79 555.48 420.52 684.63 641.27 484.29 665.90 488.00 356.96 762.34 277.12 631.52 487.29 319.65 734.07 693.47 303.81 300.89 668.53 659.76 208.33 346.21 688.78 592.34 207.29 563.94 366.64 340.63 753.54 554.09 114.85 299.57 379.13 310.23 324.80 622.94 425.65 788.22 614.05 320.10 598.49 264.41 378.44 668.13 586.57 738.74 310.44 242.53 418.58 669.06 253.95 534.44 700.89 646.38 244.22 526.99 501.52 727.78 704.28 746.02 396.93 363.71 646.71 755.22 188.85 208.37 662.28 317.06 715.02 124.01 771.32 77.77 857.97 706.24 498.01 879.69 330.32 753.21 682.79 725.35 250.49 382.39 419.69 231.73 664.54 863.80 916.30 585.14 279.32 824.63 398.96 418.16 910.78 465.53 373.68 478.71 425.84 769.63 751.46 804.99 287.64 391.85 555.75 373.07 751.11 594.66 529.71 485.53 811.81 721.46 461.80 381.42 725.40 802.94 663.79
767.69 482.99 253.85 514.49 500.43 459.32 374.62 577.53 142.26 233.50 521.74 424.40 492.30 146.27 68.58 181.24 369.36 143.38 398.33 480.11 334.60 662.48 374.90 616.20 370.16 288.13 309.42 144.41 284.51 330.20 245.39 289.26 225.09 184.98 535.89 165.13 506.03 132.14 272.99 387.60 498.51 260.90 290.83 657.07 263.03 448.75 433.91 142.52 483.81 321.89 559.14 412.14 525.17 677.30 119.99 476.11 384.84 77.63 695.89 589.36 426.09 590.87 310.85 353.21 459.65 525.48 469.44 121.99 661.92 594.82 174.83 403.05 453.34 0.00 502.53 292.76 132.55 137.29 546.07 248.77 307.85 319.64 219.47 304.78 552.85 315.44 458.79 306.28 229.77 544.75 548.44 567.65 522.87 81.53 198.85 649.61 257.71 407.00 166.99 159.08 510.33 538.42 244.55 233.96 557.73 484.63 410.45 209.53 428.34 322.45 555.78 383.36 154.78 403.57 544.77 536.18 560.19 247.82 205.08 256.92 142.30 337.08 102.33 493.92 338.67 189.42 517.30 401.32 111.26 459.36 604.41 534.08 176.15 411.07 191.65 348.12 199.39 556.85 568.14 480.08 276.60 355.28 210.24 389.21 554.91 556.48 83.36 124.95 335.24 629.97 486.88 564.75 397.65 206.24 382.19 540.51 502.13 478.29 501.90 331.07 458.92 567.14 147.91 648.71 507.72 547.47 640.77 106.27 329.08 399.87 525.17 535.87 563.08 441.83 215.60 481.18 283.08 182.10 587.22 63.07 262.00 268.11 62.98 545.18 357.93 707.26 168.54 317.04 220.09 115.42 441.46 299.47 208.30 198.57 414.06 400.52 139.64 98.94 588.15 436.18 549.71
890.83 686.35 716.48 758.79 737.33 758.48 843.96 1050.05 624.64 661.59 605.18 78.13 574.59 551.86 433.95 562.69 240.61 390.87 340.02 694.40 558.41 181.85 765.83 224.73 391.35 306.06 479.09 525.86 339.54 660.41 674.64 657.03 634.71 425.98 781.70 421.89 936.30 601.48 427.55 418.49 743.20 729.11 333.22 183.86 379.54 467.25 210.74 596.04 416.23 454.33 842.26 654.65 707.68 221.69 598.63 500.90 608.99 580.16 249.68 1057.48 564.19 846.72 448.62 775.19 260.51 988.11 747.37 519.09 758.92 838.76 628.35 368.73 889.90 502.53 0.00 332.24 635.08 480.62 598.24 675.60 498.94 296.73 660.36 757.67 973.16 601.55 438.18 568.44 713.53 859.49 818.21 800.42 774.67 555.90 580.30 697.06 687.40 671.58 447.91 623.21 450.09 791.46 673.68 677.60 827.50 752.70 831.93 603.55 480.51 449.45 987.60 606.92 633.42 785.02 784.45 769.36 993.49 682.97 548.41 661.31 610.42 437.44 499.43 116.05 316.33 605.38 697.40 836.47 531.57 773.90 783.72 826.11 625.60 831.60 694.18 394.88 671.40 766.62 805.04 812.84 720.30 543.28 486.47 270.00 681.40 840.22 562.00 546.30 443.17 665.61 922.03 996.57 452.71 600.30 251.29 970.26 504.15 909.10 421.49 273.80 910.58 244.78 613.75 740.70 549.03 819.55 1060.68 537.20 776.99 834.77 794.94 110.43 60.55 652.65 642.81 195.26 643.22 642.43 303.38 546.90 745.96 692.59 555.27 559.20 272.21 734.30 602.80 628.96 446.58 586.29 304.41 395.92 456.41 446.06 278.98 356.03 635.88 577.61 865.80 387.47 819.48
624.32 650.12 456.83 721.22 702.68 456.90 550.41 741.73 381.08 400.06 722.00 261.01 280.20 307.57 224.18 329.76 131.30 171.83 114.10 639.58 231.11 499.09 434.54 452.81 85.25 195.61 146.85 292.93 8.25 328.17 487.35 376.58 386.57 358.54 747.05 152.26 609.00 338.36 95.31 152.35 688.38 444.88 5.92 493.68 47.30 524.28 226.24 365.14 491.89 427.12 758.19 657.99 690.42 455.64 343.46 292.28 284.06 297.37 532.50 751.38 253.12 547.55 120.73 452.02 337.20 687.84 415.13 257.72 520.05 772.70 397.45 151.40 614.09 292.76 332.24 0.00 362.85 257.43 333.63 439.17 528.70 94.24 438.39 505.86 699.69 564.85 516.91 552.13 480.10 697.80 744.94 497.19 719.85 334.33 257.13 460.54 431.10 613.73 178.53 338.86 247.24 692.74 426.85 428.43 731.34 684.72 585.10 308.07 258.78 118.16 757.81 295.85 379.00 465.42 764.41 440.75 662.24 420.72 267.04 414.48 351.76 144.57 252.73 216.19 59.66 386.78 376.13 574.22 276.55 701.82 470.71 773.20 360.64 504.30 438.61 90.75 385.80 445.35 738.98 694.10 461.09 241.94 155.18 172.86 416.34 772.47 334.42 278.05 129.78 447.01 659.78 752.14 163.37 330.67 180.47 674.45 264.78 606.92 592.41 166.50 682.39 292.92 348.88 447.01 265.03 764.74 782.71 267.57 553.97 605.38 725.12 309.41 388.44 341.58 362.56 210.54 312.12 408.80 355.34 355.34 494.15 519.17 327.29 343.16 342.94 494.82 364.20 297.67 114.51 335.16 164.34 63.68 129.11 156.23 418.58 137.43 417.33 305.47 810.99 472.53 742.96
760.90 503.01 178.12 393.83 477.45 422.19 300.59 517.32 32.89 163.52 509.59 556.95 491.20 143.99 201.13 170.56 458.88 245.17 469.29 427.06 341.78 768.60 341.89 722.32 440.44 420.68 348.70 140.46 367.43 330.92 182.77 226.54 144.52 261.41 521.82 228.76 432.77 62.16 311.50 441.20 456.07 160.35 361.11 759.88 333.72 458.05 520.31 40.59 527.87 398.32 491.21 381.68 468.23 730.65 47.36 543.99 392.02 65.48 769.89 521.02 422.14 578.72 390.54 320.20 519.81 449.75 458.25 150.84 699.16 490.91 64.98 489.42 352.78 132.55 635.08 362.85 0.00 185.70 591.24 142.87 303.16 381.53 86.92 221.33 463.30 303.84 502.85 283.30 149.83 461.81 475.77 510.81 447.31 163.90 194.90 645.66 140.38 364.56 227.67 78.11 549.70 484.35 158.05 130.44 464.36 467.56 290.72 177.59 496.22 393.41 473.23 379.41 30.88 386.14 545.00 543.36 458.26 129.03 213.95 147.63 73.96 380.59 153.78 533.93 368.03 60.41 518.00 282.53 104.47 480.13 554.74 515.23 94.83 329.70 107.90 449.93 198.78 557.57 518.35 409.57 170.62 359.39 287.36 511.99 554.55 489.15 83.99 119.20 413.95 657.95 368.09 482.20 436.91 109.30 460.33 465.55 578.76 410.85 545.03 430.69 360.94 648.11 30.42 648.35 566.71 509.82 568.76 113.45 227.35 267.32 479.58 617.78 680.58 440.79 140.46 567.58 290.26 140.38 676.33 152.59 143.68 215.60 114.28 622.97 418.09 739.59 101.10 306.79 314.09 58.92 519.53 357.24 300.87 241.02 511.18 466.79 125.62 81.52 548.58 495.86 455.04
721.98 575.50 235.86 579.53 587.92 362.26 370.02 569.43 175.27 180.97 572.35 480.54 355.01 76.72 124.72 82.07 343.79 89.75 320.75 516.88 205.49 662.47 298.42 672.34 315.86 328.25 212.48 45.24 253.33 238.46 325.15 196.28 171.81 248.99 624.41 120.77 486.55 127.54 198.71 302.68 551.61 313.72 251.51 664.48 225.73 578.38 469.41 154.32 541.31 385.90 610.16 494.92 610.61 662.38 174.33 405.51 278.02 128.24 712.02 586.62 322.26 536.69 230.87 294.57 516.66 507.49 399.89 78.90 564.99 628.08 186.63 376.32 411.13 137.29 480.62 257.43 185.70 0.00 455.02 194.98 375.65 286.99 226.15 346.72 522.12 414.38 566.33 427.77 303.66 551.71 598.14 471.57 523.32 181.48 99.68 550.44 229.30 520.10 133.44 154.48 440.25 560.36 217.95 196.98 606.97 561.56 378.82 122.93 433.40 251.14 575.31 284.19 200.51 304.40 618.48 436.74 525.98 217.91 67.79 208.20 140.94 257.10 59.24 467.67 265.36 171.17 409.26 371.41 86.48 547.88 478.79 640.82 171.03 392.96 244.47 330.72 190.78 450.03 594.36 544.76 254.24 254.82 161.99 367.79 507.44 623.23 165.29 71.75 250.32 575.43 456.97 577.19 312.73 138.44 370.34 507.36 465.51 448.35 565.91 352.39 497.63 534.78 190.29 596.97 441.10 627.87 626.50 88.83 396.98 400.56 574.87 502.64 541.17 304.54 180.95 455.62 221.37 249.90 565.80 200.36 314.82 350.04 130.78 491.55 421.94 616.21 148.23 223.63 184.14 166.03 406.20 241.21 128.32 140.85 519.85 341.87 252.74 148.64 643.50 500.19 599.41
351.07 908.18 612.34 967.06 952.09 541.65 766.82 762.64 615.75 593.17 989.35 559.07 157.21 508.81 495.06 517.34 421.85 429.53 328.96 897.28 345.64 765.11 559.63 750.87 303.18 510.06 242.54 488.62 334.03 410.53 743.12 513.88 565.55 669.56 987.04 398.51 719.85 556.68 344.77 243.97 943.65 720.09 327.71 764.66 364.06 836.82 461.44 583.46 809.19 710.14 944.32 863.80 976.83 601.38 598.68 126.16 307.06 552.59 720.37 807.62 266.47 424.04 283.13 581.32 649.21 735.70 424.97 503.97 321.19 972.41 615.77 269.13 730.62 546.07 598.24 333.63 591.24 455.02 0.00 571.46 774.95 420.02 547.03 756.88 781.87 751.39 830.41 757.94 709.19 980.85 943.15 449.97 955.55 580.58 451.34 187.92 600.49 861.08 424.78 569.41 208.13 981.09 594.43 590.55 917.47 942.20 750.83 502.28 117.73 262.86 853.34 256.80 622.12 486.84 1022.47 342.35 750.07 589.14 438.24 606.80 570.08 289.70 498.98 488.35 381.45 602.01 236.77 742.64 486.77 994.27 235.32 1029.49 587.18 506.77 670.03 283.66 592.65 248.50 984.29 945.05 630.73 340.85 341.72 364.75 157.71 1030.48 589.64 501.50 259.38 163.39 828.20 862.31 264.45 557.94 442.32 704.89 157.58 705.17 840.96 488.29 893.28 412.50 599.50 210.35 68.60 1016.10 854.71 495.75 799.93 727.43 930.39 492.98 574.53 341.49 596.17 418.68 393.50 656.75 400.76 601.59 662.30 774.39 577.17 86.29 660.24 161.19 587.52 359.54 383.17 590.38 366.38 321.74 385.68 427.74 700.25 242.21 660.57 573.90 1040.58 766.20 905.85
791.94 571.08 40.88 526.34 539.32 312.64 195.36 374.45 152.81 66.07 607.99 610.20 499.71 164.24 254.38 161.47 516.34 284.73 515.73 480.30 384.62 812.93 243.39 802.00 502.76 427.85 395.82 149.74 443.07 281.44 253.37 158.23 90.38 381.33 577.77 291.39 291.57 127.97 360.82 470.30 503.37 229.01 436.75 842.87 391.87 595.22 625.70 132.31 664.74 518.24 561.56 452.28 572.15 797.79 184.53 590.75 365.98 171.14 861.61 419.43 431.42 487.27 416.11 222.75 634.75 312.51 396.63 223.33 641.72 579.48 124.59 543.99 284.96 248.77 675.60 439.17 142.87 194.98 571.46 0.00 371.23 448.46 55.95 224.98 358.68 363.45 640.02 401.49 236.75 518.60 552.33 472.83 474.72 291.88 182.04 654.94 34.32 430.53 271.14 117.54 589.13 511.76 22.97 25.77 558.37 512.18 204.72 181.40 574.42 436.38 391.18 388.69 171.08 311.78 604.93 495.37 348.76 22.93 229.81 35.34 122.69 425.17 220.71 629.14 459.62 103.87 481.27 176.43 185.06 564.03 577.41 567.94 108.06 250.32 169.90 525.57 99.32 508.09 545.76 458.13 63.82 367.28 296.64 562.77 593.98 575.22 200.11 186.34 445.30 676.07 261.99 382.21 507.71 119.15 526.63 337.12 629.98 328.50 618.38 489.61 342.95 711.17 160.22 660.78 588.32 554.55 431.52 176.08 263.63 216.88 529.06 653.49 736.15 432.80 101.17 640.11 303.73 222.81 694.63 266.85 171.22 284.36 229.67 632.25 554.28 732.65 85.53 312.57 345.76 178.81 595.17 390.95 313.56 299.29 631.94 521.23 202.77 184.48 586.84 601.52 553.60
1010.48 199.85 394.27 280.13 238.39 663.66 445.39 745.68 270.27 419.19 260.13 550.22 691.74 384.62 366.19 409.51 530.71 405.08 626.33 195.46 555.50 680.79 563.70 683.59 613.95 459.29 532.41 401.92 536.95 517.81 175.70 509.48 430.81 298.50 282.76 376.44 644.40 346.65 516.97 640.76 244.26 262.34 534.62 682.80 481.40 295.86 594.62 343.75 309.09 237.73 343.32 155.71 237.07 720.63 315.66 713.40 593.10 304.43 748.62 787.50 650.72 809.43 552.26 542.01 457.86 665.90 699.22 335.48 900.24 339.82 341.47 675.26 584.99 307.85 498.94 528.70 303.16 375.65 774.95 371.23 0.00 550.72 381.96 258.73 679.34 102.61 294.95 69.50 239.41 360.55 319.27 755.26 275.73 313.86 442.09 895.57 336.91 172.64 402.71 368.18 710.39 292.52 379.37 373.65 328.56 253.76 500.69 448.42 665.63 572.53 693.77 638.92 295.51 636.49 287.45 723.79 699.84 367.22 443.44 388.05 360.05 575.61 353.34 499.93 557.04 334.79 704.91 453.79 362.64 283.95 816.18 334.00 390.66 592.31 233.65 619.45 452.03 744.46 306.10 313.90 369.81 584.99 475.88 615.98 817.93 341.28 279.99 374.51 598.62 891.46 564.63 684.80 657.96 412.46 549.72 708.35 748.17 662.76 379.90 458.52 411.64 741.61 309.22 875.58 745.01 320.61 780.59 371.62 278.05 477.29 296.00 609.37 559.49 680.19 431.08 594.71 470.69 253.33 713.46 277.82 301.04 193.65 244.87 806.88 356.14 936.14 389.09 504.65 464.07 314.57 675.01 534.28 449.71 389.86 420.94 600.58 188.84 325.74 366.86 312.45 320.54
702.06 615.49 477.01 748.13 731.65 548.83 594.62 811.61 399.76 432.32 696.64 293.16 374.44 320.45 282.64 335.55 112.40 216.05 181.19 677.55 317.50 478.58 512.28 475.61 166.11 101.37 238.78 298.72 85.99 422.41 436.24 425.70 391.20 342.07 776.02 186.09 695.39 352.14 185.81 219.73 726.35 508.62 92.31 460.66 141.54 447.35 187.05 372.11 397.65 430.82 731.11 635.15 663.77 436.74 362.14 359.66 370.45 316.05 515.85 785.80 333.19 610.01 198.47 533.97 259.62 724.48 509.37 247.41 576.74 767.25 404.42 210.83 646.39 319.64 296.73 94.24 381.53 286.99 420.02 448.46 550.72 0.00 460.13 515.04 739.00 546.66 422.67 537.50 473.40 755.01 739.49 583.58 724.33 330.33 343.14 522.28 470.13 640.64 203.48 351.53 276.83 687.29 431.24 434.38 757.96 721.76 614.23 376.41 320.11 195.90 791.64 350.28 397.68 551.81 729.78 518.49 752.58 445.93 343.43 443.61 338.74 200.73 227.75 180.68 66.73 407.17 453.87 599.43 297.41 703.04 564.95 765.30 382.38 555.74 453.75 168.49 444.26 510.61 733.53 719.33 482.83 306.57 229.17 251.21 453.93 767.02 353.10 282.68 167.37 510.71 684.99 788.44 229.78 364.50 206.88 726.75 342.52 675.51 499.09 158.25 701.07 334.82 367.88 532.98 351.42 756.96 811.08 301.36 575.91 636.56 737.99 289.01 357.28 420.42 407.01 191.65 399.56 392.36 340.19 294.29 513.15 507.36 331.92 432.43 248.70 581.21 365.76 365.60 196.98 353.84 206.24 155.61 215.50 160.86 338.66 220.89 383.27 337.36 803.21 399.30 762.53
806.98 550.89 91.20 470.39 516.11 338.01 246.87 430.40 114.96 91.85 560.88 591.59 517.46 179.26 235.77 177.77 524.25 310.57 543.96 443.95 375.86 829.67 270.22 783.39 514.74 483.80 422.39 195.26 430.14 306.81 206.26 146.81 115.75 343.48 525.52 289.50 347.52 121.76 398.42 491.23 447.42 173.06 436.46 824.26 394.46 544.97 607.23 101.88 614.79 480.39 537.14 405.17 550.30 757.28 134.28 605.25 388.27 152.40 831.18 463.42 453.85 505.02 441.87 248.53 606.73 362.83 415.77 226.47 630.30 556.35 70.39 572.51 327.92 219.47 660.36 438.39 86.92 226.15 547.03 55.95 381.96 460.13 0.00 209.85 409.00 309.25 589.77 370.22 193.80 467.22 543.55 498.20 491.28 250.82 226.07 690.75 53.46 428.49 268.48 108.60 580.19 502.20 73.08 43.52 516.29 473.34 203.80 181.75 583.14 454.90 410.32 424.50 117.80 330.96 568.52 483.95 404.71 42.11 226.69 60.71 123.41 428.00 232.38 588.87 454.95 54.98 512.36 195.61 183.17 508.08 603.19 554.93 77.75 306.27 156.12 512.64 124.69 533.46 544.80 422.28 83.70 392.65 339.91 556.40 585.04 551.68 170.91 192.87 461.36 688.44 281.17 401.35 521.17 119.47 539.03 393.07 646.46 353.87 631.95 487.43 346.25 723.46 117.34 678.84 587.39 541.54 481.84 174.19 252.90 180.40 526.63 597.54 685.35 451.94 108.20 632.43 308.26 200.75 740.15 217.96 115.27 234.82 201.20 633.32 505.01 708.22 100.55 301.15 367.74 145.84 594.88 436.09 348.29 311.10 598.10 545.39 212.54 168.44 587.79 582.78 527.91
945.52 418.97 238.89 314.44 351.51 517.41 186.66 538.72 195.45 272.94 391.64 686.98 701.34 297.28 363.12 334.54 561.54 398.80 608.12 323.68 518.30 874.35 417.45 873.56 579.27 511.74 533.32 325.29 506.26 471.55 112.71 356.66 296.84 351.78 395.88 380.92 458.71 219.18 507.79 578.11 289.46 60.98 499.94 893.14 485.88 554.59 609.31 224.12 567.82 452.84 378.99 273.25 429.99 826.16 216.56 718.04 556.67 262.65 942.18 548.37 606.97 688.90 534.01 395.76 626.45 501.45 552.97 332.41 840.15 407.92 237.97 645.42 344.38 304.78 757.67 505.86 221.33 346.72 756.88 224.98 258.73 515.04 209.85 0.00 455.37 197.09 553.68 211.10 76.14 397.16 354.40 667.83 321.52 276.57 354.75 815.55 190.66 314.24 392.80 246.12 715.68 358.56 233.12 227.40 352.98 315.38 287.24 326.72 717.55 554.28 496.48 564.24 207.03 490.24 410.56 693.80 459.23 220.97 385.71 241.80 232.58 545.68 318.60 682.08 553.68 231.37 679.43 238.37 289.09 377.01 730.89 396.93 241.89 446.06 130.23 588.76 305.78 684.41 392.56 302.83 223.56 539.08 443.61 673.75 722.56 423.01 227.67 284.29 579.04 825.96 305.90 494.88 634.08 259.09 630.08 468.39 762.79 422.15 637.42 516.29 208.90 786.94 210.11 816.36 751.33 410.32 521.86 289.97 75.31 263.84 331.13 711.27 799.08 589.14 287.52 656.58 466.78 122.68 832.73 255.25 94.58 138.07 241.80 800.60 524.73 829.60 223.52 468.22 478.91 241.37 658.36 548.69 465.96 406.11 610.91 631.61 166.27 261.21 451.00 568.12 341.36
901.06 830.06 317.80 663.07 758.81 402.83 277.26 161.96 480.26 393.24 813.07 910.27 728.18 464.31 554.45 462.71 801.54 582.29 788.83 707.37 568.43 1122.24 390.20 1102.07 769.16 784.11 678.87 476.88 705.63 527.12 520.28 348.50 366.18 699.19 785.74 565.88 125.01 428.04 676.69 687.96 722.03 449.40 705.61 1125.03 670.84 881.98 892.66 431.10 951.80 835.43 690.99 719.19 837.66 1067.77 471.29 823.90 553.06 482.55 1145.70 173.46 626.56 486.17 715.16 368.51 891.28 46.17 478.10 517.10 775.69 719.08 398.79 792.61 110.99 552.85 973.16 699.69 463.30 522.12 781.87 358.68 679.34 739.00 409.00 455.37 0.00 583.86 926.78 647.54 484.62 621.59 691.40 468.53 694.21 586.11 467.95 837.49 375.16 730.09 564.79 417.61 825.53 708.31 368.40 365.48 664.14 732.45 281.63 441.29 793.76 694.89 135.34 583.83 477.63 408.44 824.42 536.30 90.46 374.43 490.12 380.77 422.76 717.71 523.61 899.21 725.04 402.89 636.53 225.55 441.59 779.12 639.03 776.16 408.40 310.34 504.03 749.56 364.94 567.31 734.02 580.28 352.75 618.77 612.51 822.45 737.15 783.44 500.18 456.32 731.73 823.03 257.63 126.37 765.02 428.01 797.45 174.60 856.98 110.64 968.96 746.08 409.18 967.71 441.31 757.92 793.78 762.77 144.23 450.57 465.24 265.53 696.70 974.79 1011.38 625.45 390.31 907.92 483.62 529.15 1013.45 557.91 434.17 485.69 533.00 827.39 862.45 857.45 385.60 502.84 652.35 478.88 856.35 636.01 628.88 578.14 904.42 756.20 561.45 484.55 785.89 898.18 675.76
1012.33 285.06 397.33 259.57 257.83 611.66 383.75 678.47 292.33 365.50 314.13 616.34 734.80 370.27 352.98 376.29 556.21 427.78 665.06 225.19 573.23 770.91 543.87 786.20 642.25 527.41 508.85 388.07 556.60 531.45 153.17 432.30 367.18 294.66 235.65 434.77 541.79 287.42 473.85 615.00 192.26 199.16 562.92 785.41 521.86 398.47 670.97 271.17 411.70 340.34 243.70 148.53 282.57 823.24 316.47 721.83 609.16 290.08 832.61 688.12 652.39 803.32 547.19 522.18 507.70 620.63 693.44 370.25 904.36 318.17 238.86 655.54 526.66 315.44 601.55 564.85 303.84 414.38 751.39 363.45 102.61 546.66 309.25 197.09 583.86 0.00 397.56 63.68 163.94 275.65 256.40 736.07 246.14 288.41 427.74 860.85 353.18 152.08 430.98 314.36 722.06 269.57 346.73 352.76 265.69 218.18 398.08 390.55 714.50 555.76 627.92 609.66 287.15 608.80 292.56 769.44 598.98 340.52 451.81 334.36 300.82 538.20 357.39 602.54 592.63 271.16 745.57 358.31 355.90 279.81 778.61 290.61 318.51 567.54 212.63 639.10 398.34 758.10 297.13 277.09 386.08 611.22 409.67 672.13 790.80 316.69 282.92 347.77 571.56 829.40 470.92 618.95 633.97 339.88 650.69 650.67 743.01 601.73 482.51 561.13 335.43 765.54 286.49 878.51 762.34 304.00 686.88 358.21 228.18 374.68 233.13 711.98 662.10 669.26 364.14 697.32 535.02 176.53 816.07 252.37 246.45 98.17 283.60 802.12 422.26 912.58 329.86 534.36 500.46 300.45 636.96 525.32 444.64 454.66 523.55 612.25 227.93 268.77 344.68 415.06 257.67
1064.68 399.02 656.36 525.60 529.74 871.83 740.34 971.77 506.89 637.51 422.97 360.05 784.12 576.78 484.97 568.00 452.80 515.73 544.88 426.58 721.42 401.53 789.41 421.85 588.78 363.08 639.71 570.84 508.66 735.55 470.65 679.20 635.09 341.25 485.37 546.75 835.09 548.37 541.12 615.48 475.38 557.29 514.98 441.43 541.17 132.05 501.75 540.03 25.02 209.44 531.63 415.43 358.04 565.78 455.49 755.41 726.70 501.58 469.36 981.42 687.61 964.43 600.84 767.72 275.69 913.93 866.38 487.43 982.46 565.66 558.16 601.02 815.79 458.79 438.18 516.91 502.85 566.33 830.41 640.02 294.95 422.67 589.77 553.68 926.78 397.56 0.00 364.45 532.75 604.10 503.89 928.38 506.85 429.74 617.93 925.94 630.97 467.59 566.62 551.45 699.50 541.12 638.15 630.55 531.15 487.33 785.70 575.38 713.09 580.57 958.34 730.34 491.03 830.00 434.81 887.07 892.28 622.76 618.94 645.77 542.05 555.15 507.09 417.27 489.40 548.95 820.82 745.63 539.51 439.99 905.96 530.10 577.29 819.63 528.60 591.16 627.44 890.04 563.51 573.62 644.80 660.99 605.30 538.07 857.59 504.02 492.12 551.47 571.03 933.38 855.76 967.31 633.44 561.96 476.33 880.75 696.79 864.24 102.03 380.61 680.37 620.40 485.47 951.39 761.81 524.69 1027.92 548.49 573.00 770.17 527.12 442.49 498.73 774.84 604.47 514.30 711.73 535.30 553.51 395.72 595.99 488.60 465.54 814.28 173.97 894.05 554.49 677.77 594.02 490.18 597.10 578.28 587.81 527.96 159.20 631.63 470.81 517.16 569.46 94.16 541.19
1022.04 221.38 423.77 210.63 194.15 675.34 397.76 742.15 291.83 417.14 250.45 552.66 752.01 366.45 374.86 427.91 549.50 440.52 657.70 176.25 585.80 723.51 583.84 731.12 629.53 503.84 572.53 397.93 543.88 562.70 189.62 488.03 411.37 263.14 238.52 428.36 605.47 315.78 533.14 599.87 194.65 216.12 550.20 750.70 533.32 365.36 664.12 307.44 378.59 307.23 285.26 105.86 218.89 775.00 282.86 739.04 636.04 323.33 785.21 751.80 655.53 836.57 564.40 573.82 460.30 684.31 689.62 383.06 929.77 290.96 302.54 695.14 555.48 306.28 568.44 552.13 283.30 427.77 757.94 401.49 69.50 537.50 370.22 211.10 647.54 63.68 364.45 0.00 180.90 291.05 265.15 764.43 222.50 246.29 423.92 887.15 383.33 103.14 421.82 342.72 737.44 238.05 410.41 386.90 272.96 184.26 461.76 425.81 699.37 562.90 691.60 636.88 289.20 620.47 293.04 787.38 662.66 390.17 455.13 398.04 329.18 523.07 368.53 569.43 603.94 334.84 768.50 421.99 365.61 282.20 813.06 289.76 356.24 613.00 248.44 626.38 455.42 789.35 261.86 264.05 416.23 581.85 473.35 685.48 819.16 293.05 319.49 376.08 556.43 855.70 517.00 682.63 618.84 376.15 619.22 679.49 778.37 633.25 449.40 528.02 399.11 811.11 252.88 912.96 747.21 276.37 732.96 357.47 274.77 438.36 244.70 664.51 628.99 707.64 401.87 664.21 534.28 189.86 757.88 243.21 265.40 161.85 308.98 834.05 358.58 919.13 338.26 568.24 517.67 306.85 700.64 534.28 461.85 459.36 468.47 646.42 254.35 303.98 321.32 380.47 269.24
906.40 402.28 259.79 332.55 362.08 510.08 241.41 611.20 128.39 284.71 418.33 654.17 641.03 268.77 298.35 282.97 485.40 322.66 568.11 308.00 469.32 815.42 429.22 797.42 553.51 480.88 466.65 273.46 480.50 454.42 63.71 340.61 264.70 313.08 399.59 350.06 528.32 184.47 431.65 515.42 324.06 35.22 474.18 817.00 455.02 535.27 533.17 190.42 548.50 445.67 384.32 262.62 399.79 794.87 179.79 655.35 515.76 188.58 883.25 624.27 555.14 698.82 506.46 407.53 574.01 530.79 564.74 271.42 822.90 402.18 161.83 596.67 420.52 229.77 713.53 480.10 149.83 303.66 709.19 236.75 239.41 473.40 193.80 76.14 484.62 163.94 532.75 180.90 0.00 372.07 364.94 633.12 297.48 215.15 326.24 778.66 202.43 264.99 325.26 211.41 647.72 334.52 244.89 237.32 381.13 335.72 315.15 301.50 646.05 501.73 544.99 512.41 153.63 473.17 427.69 670.90 535.37 214.51 329.34 253.57 197.87 496.00 276.88 609.96 478.10 168.68 640.60 259.07 249.97 370.24 677.49 400.87 228.48 457.83 67.54 563.00 283.00 681.07 368.52 277.74 235.33 486.28 367.47 618.98 687.85 404.88 151.53 251.41 529.36 787.20 360.65 536.02 560.01 259.13 567.39 544.53 700.81 498.29 561.28 490.53 254.24 727.34 167.34 747.12 690.79 402.03 576.61 240.99 120.65 318.59 351.82 635.13 722.94 590.62 264.97 580.44 417.80 91.82 756.59 179.11 84.50 65.77 186.65 724.46 472.29 864.37 226.91 439.36 431.92 174.31 632.60 480.34 403.91 357.71 534.77 568.34 90.13 197.85 448.28 551.86 376.36
1150.51 302.29 477.72 121.25 207.44 775.01 507.06 745.71 481.33 525.53 330.86 843.35 906.72 511.31 561.93 534.26 791.78 634.78 811.90 201.89 723.29 951.43 703.90 905.15 783.05 751.71 738.31 538.55 706.05 689.42 331.45 590.27 525.15 517.39 217.35 610.27 723.41 424.17 724.70 826.19 197.73 343.55 703.72 924.73 715.23 545.20 870.18 429.14 615.26 564.33 132.07 224.85 329.53 1032.20 499.50 925.85 771.14 478.68 1007.66 755.36 820.23 955.03 742.08 682.21 751.35 667.76 834.48 522.38 1073.76 160.16 396.83 849.20 684.63 544.75 859.49 697.80 461.81 551.71 980.85 518.60 360.55 755.01 467.22 397.16 621.59 275.65 604.10 291.05 372.07 0.00 132.48 872.82 166.44 495.31 568.78 1043.75 511.15 187.91 601.57 451.11 922.70 176.52 510.08 510.73 105.22 204.68 531.52 541.20 946.50 762.35 610.61 777.50 476.91 765.25 274.26 924.87 666.22 498.49 590.70 497.71 437.57 770.20 542.04 860.48 757.46 429.13 903.54 489.66 494.08 285.28 936.58 199.96 468.18 725.51 412.80 788.55 561.69 916.07 175.10 94.33 499.31 772.07 685.32 870.66 927.55 207.24 491.05 508.81 788.44 1030.95 529.34 601.64 847.78 497.85 803.55 755.41 962.58 732.23 632.18 719.59 220.18 940.36 472.61 1021.35 956.32 186.57 745.30 494.96 321.85 518.15 125.82 955.20 920.04 829.34 513.81 908.34 671.77 362.65 1019.55 516.12 363.45 306.30 481.77 1021.06 649.63 1106.91 466.61 692.33 702.35 482.10 862.14 761.48 674.73 630.63 642.50 835.23 427.14 499.36 201.24 617.04 116.84
1193.06 213.46 556.65 81.94 105.49 815.86 467.75 835.61 493.33 603.71 294.63 808.68 952.10 551.00 563.15 575.89 768.73 591.56 850.65 123.81 773.94 905.42 730.00 882.10 799.71 638.12 756.70 568.80 744.13 741.73 358.62 659.03 606.70 513.62 148.86 622.58 728.81 524.69 708.02 829.52 96.16 379.27 742.47 893.25 707.67 519.30 782.20 516.36 528.91 473.30 27.74 201.80 250.73 1031.02 511.17 969.45 798.04 470.81 973.25 808.91 850.48 975.77 787.06 750.16 712.94 737.57 874.17 550.98 1105.18 61.77 495.26 865.86 641.27 548.44 818.21 744.94 475.77 598.14 943.15 552.33 319.27 739.49 543.55 354.40 691.40 256.40 503.89 265.15 364.94 132.48 0.00 957.82 77.61 511.44 608.47 1074.00 545.06 162.01 630.17 529.52 958.11 52.20 575.30 526.56 27.26 102.61 521.93 590.39 962.35 770.63 623.92 807.75 506.65 802.79 173.96 962.43 756.12 562.82 632.54 572.57 511.29 786.05 559.11 819.20 761.26 510.68 945.17 465.85 536.63 183.71 1030.51 97.47 560.37 800.46 429.54 812.38 610.21 968.38 59.62 162.01 577.01 787.27 657.52 854.00 986.05 104.75 495.82 528.50 819.41 1077.25 586.99 614.95 842.24 541.79 804.01 765.28 990.86 668.87 562.95 696.54 302.59 939.39 496.15 1079.85 998.87 84.08 784.82 545.61 349.82 529.81 23.27 884.16 878.76 902.68 584.30 829.47 722.42 406.81 1005.62 508.36 428.28 315.08 490.55 993.36 614.60 1104.34 548.45 733.96 704.40 481.18 893.36 759.49 701.04 646.75 619.45 860.68 419.85 449.50 107.29 537.50 37.30
491.28 871.81 500.46 904.64 958.58 160.19 590.79 457.56 525.03 438.52 947.27 722.29 460.16 439.66 536.08 408.68 628.49 476.64 599.45 912.40 266.08 960.37 282.75 914.09 567.98 684.95 427.89 445.51 497.59 254.04 668.94 390.25 432.10 719.80 971.72 507.66 435.26 448.65 457.28 494.72 926.53 634.83 491.27 954.96 505.29 917.12 700.60 475.43 913.35 856.71 948.31 833.13 956.62 941.07 527.38 469.54 290.61 503.16 993.78 467.21 357.26 105.17 417.18 281.84 822.55 435.28 116.49 450.94 323.85 998.58 507.74 568.74 484.29 567.65 800.42 497.19 510.81 471.57 449.97 472.83 755.26 583.58 498.20 667.83 468.53 736.07 928.38 764.43 633.12 872.82 957.82 0.00 930.60 592.84 392.82 427.11 478.80 845.69 488.78 475.59 533.59 963.28 449.86 483.50 967.11 927.49 546.51 429.08 493.99 420.69 521.94 384.99 541.69 218.05 986.10 136.60 378.07 488.86 406.45 437.49 462.05 417.92 470.60 713.38 545.01 522.33 252.76 602.59 470.36 958.65 224.67 958.27 482.68 252.68 565.58 527.82 435.66 202.21 990.52 869.02 511.70 326.51 393.10 618.52 292.26 965.55 540.21 467.27 451.28 395.66 606.61 530.91 477.27 499.42 643.16 397.21 529.54 491.57 952.92 651.85 790.83 728.88 511.55 353.27 515.89 944.88 513.71 461.38 687.48 523.11 934.55 794.76 850.30 268.80 462.72 699.88 284.57 621.51 744.14 593.19 613.47 680.04 541.55 525.24 824.43 443.09 491.09 250.61 498.62 520.02 630.13 479.57 442.80 479.12 892.00 522.28 636.18 508.32 991.13 898.21 959.09
1174.18 135.85 496.63 105.94 64.60 772.26 491.75 827.93 425.87 526.10 217.02 744.07 878.33 557.44 498.78 580.45 745.84 548.02 806.14 80.27 728.81 890.21 704.47 843.93 783.09 622.96 713.01 568.56 711.60 714.72 324.56 630.86 545.62 485.64 103.05 579.04 755.79 481.95 643.65 785.98 53.88 332.70 717.92 849.50 684.00 502.68 739.92 487.90 531.87 432.41 86.84 178.91 206.98 962.41 455.26 915.69 801.34 477.25 900.27 833.86 845.58 910.45 722.69 682.78 637.16 740.38 848.00 549.38 1078.51 104.76 459.31 834.59 665.90 522.87 774.67 719.85 447.31 523.32 955.55 474.72 275.73 724.33 491.28 321.52 694.21 246.14 506.85 222.50 297.48 166.44 77.61 930.60 0.00 468.79 614.91 1065.01 485.69 145.39 597.19 508.89 901.78 37.04 497.69 448.95 83.65 38.24 524.74 598.98 906.36 725.56 673.44 807.51 451.11 769.84 130.21 934.26 771.63 485.21 591.11 494.96 495.35 736.25 564.26 775.66 691.68 466.16 915.38 468.66 517.75 132.19 974.97 117.50 525.96 725.04 365.02 794.10 532.60 941.37 71.04 196.93 506.21 759.92 613.83 804.34 982.64 107.40 449.01 525.40 765.44 1033.56 595.41 664.47 827.85 546.71 825.45 789.91 932.33 725.26 510.32 673.65 336.17 902.61 464.82 1044.60 956.22 104.55 811.37 526.73 334.66 548.14 54.34 841.88 835.22 827.86 548.47 787.19 681.16 389.30 963.34 465.71 381.98 312.17 484.13 949.82 551.33 1116.74 524.39 715.12 660.86 471.79 863.37 695.12 638.50 603.21 581.28 829.01 387.61 480.57 150.80 472.79 78.88
800.95 434.56 300.12 456.92 440.44 505.59 373.83 620.64 145.38 275.72 496.74 503.65 505.72 167.56 147.83 208.84 342.33 213.09 440.81 408.15 376.80 656.21 430.27 609.93 418.08 315.47 338.04 188.57 342.58 343.02 163.86 318.89 238.31 205.42 484.81 182.07 546.95 175.25 286.85 409.66 427.93 250.37 338.75 619.50 287.03 512.55 515.44 182.53 454.76 342.33 494.74 352.15 465.18 666.67 132.44 492.75 427.04 120.74 719.97 630.28 448.15 633.98 318.11 408.58 428.23 571.75 490.73 141.90 683.48 537.25 200.20 454.45 488.00 81.53 555.90 334.33 163.90 181.48 580.58 291.88 313.86 330.33 250.82 276.57 586.11 288.41 429.74 246.29 215.15 495.31 511.44 592.84 468.79 0.00 225.03 671.67 281.04 349.43 196.44 185.65 544.29 484.34 278.09 280.62 515.85 430.55 426.02 231.36 509.87 338.38 589.72 405.42 167.98 447.73 539.33 578.38 600.20 280.39 233.83 265.72 183.22 344.34 122.24 466.89 362.67 199.02 553.44 420.38 144.52 507.08 636.20 507.05 216.50 459.95 195.62 425.08 267.76 569.67 508.15 435.34 285.12 424.99 265.26 468.46 587.34 533.13 132.04 129.79 364.47 660.92 493.07 598.69 423.81 233.96 436.81 573.86 552.75 527.41 522.34 377.23 439.62 625.75 162.42 681.14 550.31 520.44 690.76 148.47 317.66 428.41 490.99 568.23 616.45 486.02 262.13 508.55 325.28 189.51 642.60 36.04 216.92 223.37 96.92 614.89 378.37 741.77 217.66 342.23 271.38 124.38 497.17 287.99 215.56 225.40 347.28 435.25 125.02 127.71 561.12 389.35 504.23
661.48 626.82 199.70 572.81 618.07 316.54 345.43 551.30 209.99 186.61 581.77 518.14 421.96 57.47 179.52 86.87 388.43 189.43 371.23 540.37 206.50 737.72 216.58 709.94 342.38 396.52 247.52 54.44 265.38 138.78 344.84 119.45 141.96 348.67 662.44 202.11 431.46 144.61 231.80 333.84 561.03 330.79 263.05 750.81 209.83 589.45 483.37 162.36 592.91 485.58 633.06 504.34 642.81 694.96 178.76 461.56 244.10 137.66 789.63 514.63 320.34 460.43 310.84 194.89 554.20 460.96 348.03 130.50 551.24 670.24 194.67 361.95 356.96 198.85 580.30 257.13 194.90 99.68 451.34 182.04 442.09 343.14 226.07 354.75 467.95 427.74 617.93 423.92 326.24 568.78 608.47 392.82 614.91 225.03 0.00 501.95 215.25 505.18 175.84 118.07 471.41 631.53 193.36 204.36 617.76 586.95 351.61 50.94 434.41 313.71 530.91 277.61 207.36 289.37 674.63 374.79 471.81 204.97 51.82 180.99 131.21 296.15 115.39 473.32 285.47 198.31 355.91 358.47 104.51 610.94 437.15 655.85 148.32 318.31 261.54 347.88 144.35 365.43 649.20 562.79 234.65 230.61 167.62 429.99 478.18 629.77 174.71 95.24 321.36 533.40 444.03 539.88 340.72 106.60 423.16 456.49 500.96 371.52 665.59 390.98 513.78 550.05 171.04 543.62 446.59 650.44 579.97 97.47 403.83 375.01 585.20 535.22 621.03 311.17 149.11 467.67 121.69 268.49 599.33 248.30 316.31 359.46 197.22 516.48 490.52 612.53 136.18 155.65 250.46 175.45 421.47 272.64 217.32 193.67 543.34 394.56 278.31 158.97 695.21 541.28 609.74
250.34 1041.64 626.29 1039.49 1081.05 503.90 824.41 800.01 678.55 643.12 1051.20 667.40 203.83 536.68 595.83 542.03 547.70 543.26 427.78 1009.11 388.92 865.08 518.83 859.20 402.00 605.59 430.46 505.20 460.94 411.16 796.16 589.78 575.00 713.70 1062.64 528.71 747.33 619.58 473.84 369.82 1040.24 792.32 454.62 880.92 480.26 951.57 560.26 643.79 919.93 825.81 1098.59 983.55 1068.06 659.81 657.97 229.89 370.43 616.87 837.46 797.43 308.98 400.84 401.27 540.52 732.32 791.32 414.45 581.65 204.45 1135.77 676.10 385.09 762.34 649.61 697.06 460.54 645.66 550.44 187.92 654.94 895.57 522.28 690.75 815.55 837.49 860.85 925.94 887.15 778.66 1043.75 1074.00 427.11 1065.01 671.67 501.95 0.00 681.18 984.39 502.46 611.29 325.22 1093.99 642.41 656.94 1083.29 1056.37 793.13 552.89 243.07 407.38 916.02 266.25 676.54 446.04 1071.52 301.19 772.15 672.20 492.04 630.04 610.42 388.27 576.17 613.69 501.38 654.16 226.25 805.39 557.77 986.11 267.81 1113.60 614.83 544.14 723.07 393.43 593.28 295.47 1114.73 1016.05 661.24 352.79 451.18 484.67 134.85 1103.80 627.13 563.98 354.91 31.45 834.60 924.99 373.44 598.40 546.79 740.92 258.95 752.14 1002.44 602.21 940.37 467.67 650.25 149.16 195.51 1124.47 857.63 548.79 849.04 816.53 1050.73 618.32 706.13 295.23 605.62 544.02 458.28 741.86 504.49 656.33 789.34 811.88 662.25 141.46 770.98 131.41 592.03 437.46 505.40 647.07 462.34 466.26 456.11 515.96 826.10 341.03 731.57 624.50 1148.03 867.57 1075.27
808.15 536.76 57.36 505.10 542.17 326.75 196.07 408.77 168.42 82.28 582.30 634.32 510.68 189.19 279.33 177.27 532.14 319.05 545.20 488.63 369.84 823.90 226.79 826.12 516.35 462.17 430.14 184.06 439.35 297.24 259.72 187.04 106.18 396.72 578.98 298.77 325.89 125.57 395.14 489.79 480.12 217.74 437.02 866.99 383.80 586.17 638.82 128.92 646.00 533.63 569.65 458.63 573.98 805.17 175.48 614.48 385.47 180.08 858.22 450.59 442.05 498.24 450.43 205.10 639.55 328.99 362.31 236.47 670.53 590.45 114.32 571.90 277.12 257.71 687.40 431.10 140.38 229.30 600.49 34.32 336.91 470.13 53.46 190.66 375.16 353.18 630.97 383.33 202.43 511.15 545.06 478.80 485.69 281.04 215.25 681.18 0.00 464.85 305.46 118.60 590.19 522.73 42.46 36.74 543.64 503.51 173.80 164.31 593.91 458.51 356.86 414.93 150.62 299.58 601.22 510.47 366.80 30.31 236.69 51.14 136.83 438.00 242.38 615.91 459.44 82.02 503.20 177.05 192.44 552.76 559.76 533.62 87.75 255.40 177.28 521.85 115.12 522.16 556.73 466.96 32.90 383.08 330.96 592.12 595.04 540.90 206.79 193.72 471.36 669.37 269.37 347.89 533.77 129.47 539.75 371.44 656.46 344.30 625.76 523.93 312.03 676.85 149.28 676.58 599.29 520.23 448.00 183.46 260.09 197.20 521.79 651.00 734.40 398.48 106.10 641.64 285.03 233.78 728.95 245.00 159.95 268.20 205.67 658.49 537.83 761.68 110.48 318.99 373.80 179.87 595.44 405.44 347.88 310.26 628.32 537.03 237.09 175.37 566.48 610.46 532.02
1090.26 206.03 471.41 107.49 141.56 743.17 454.21 804.98 372.11 496.60 244.12 655.80 855.15 447.71 475.58 504.03 627.24 532.71 711.62 73.11 667.06 786.89 667.05 740.61 637.70 592.31 660.93 479.19 621.98 643.96 222.23 569.29 492.63 351.61 166.55 531.50 693.87 397.04 625.93 703.01 91.51 280.69 619.65 760.19 636.46 357.29 710.40 388.70 450.72 410.37 189.75 60.31 141.62 878.14 364.12 842.18 705.89 398.95 819.75 787.99 758.67 911.33 667.54 645.36 563.44 743.04 770.88 464.32 1011.51 187.82 390.94 703.85 631.52 407.00 671.58 613.73 364.56 520.10 861.08 430.53 172.64 640.64 428.49 314.24 730.09 152.08 467.59 103.14 264.99 187.91 162.01 845.69 145.39 349.43 505.18 984.39 464.85 0.00 524.96 422.43 808.48 158.28 453.50 449.83 169.82 107.40 522.25 507.07 802.51 666.04 674.99 718.14 370.46 701.73 212.61 814.11 746.37 453.46 516.19 465.87 410.44 626.21 460.86 672.57 673.39 423.24 817.83 504.54 433.83 179.06 894.32 191.64 437.50 680.85 325.59 687.61 529.85 870.61 204.52 187.82 494.35 663.11 561.75 712.51 898.87 216.19 373.34 448.56 659.57 958.84 530.69 666.02 721.98 457.41 710.93 755.53 874.75 709.29 444.27 555.05 358.92 880.79 334.14 968.93 850.35 203.96 746.65 438.73 290.44 498.85 156.28 767.65 732.13 788.90 483.13 757.67 615.54 293.00 861.02 346.35 320.82 247.94 395.06 934.51 461.72 1022.27 419.52 649.50 620.81 361.16 752.21 637.42 564.99 562.50 477.96 698.67 267.36 385.24 244.46 456.53 168.70
724.87 602.56 312.02 618.76 601.72 438.42 435.59 645.59 235.96 264.10 606.61 414.62 380.56 152.88 98.41 158.23 291.14 57.04 292.63 524.79 259.24 629.76 389.52 606.42 246.26 280.71 182.24 121.40 186.78 295.95 348.79 272.15 246.45 308.17 646.09 26.27 545.49 193.11 159.86 295.98 573.59 360.48 184.45 631.77 131.23 614.30 371.18 213.03 541.60 445.08 632.18 527.68 639.78 603.77 208.59 345.99 295.17 162.50 648.26 628.82 278.94 547.88 197.26 370.73 389.65 583.65 393.88 79.19 597.06 671.49 245.34 312.41 487.29 166.99 447.91 178.53 227.67 133.44 424.78 271.14 402.71 203.48 268.48 392.80 564.79 430.98 566.62 421.82 325.26 601.57 630.17 488.78 597.19 196.44 175.84 502.46 305.46 524.96 0.00 197.98 390.34 591.53 294.11 273.14 639.46 558.95 454.98 199.09 393.76 217.53 631.82 236.21 210.72 380.56 621.71 482.86 602.14 285.33 158.89 284.36 181.76 223.49 74.20 384.16 206.87 250.19 412.15 411.18 123.20 572.42 466.99 649.62 227.91 469.12 306.46 269.28 266.94 469.42 637.77 570.45 328.36 242.27 95.68 349.68 498.85 650.40 173.73 137.93 243.62 515.41 524.39 634.89 302.96 204.68 272.11 582.00 405.99 521.96 533.32 218.95 514.40 471.45 209.37 569.15 403.55 655.51 651.51 132.18 380.81 448.88 606.90 456.62 508.46 350.66 247.19 388.20 272.13 284.51 488.11 178.61 318.90 358.48 169.80 458.84 409.41 585.97 212.21 238.17 116.83 200.29 342.87 187.04 94.71 42.62 469.96 307.23 267.59 180.67 696.01 478.61 631.44
753.28 509.15 144.29 471.94 536.87 376.31 269.42 490.12 103.32 113.98 525.56 545.08 505.18 91.97 189.26 94.83 456.80 237.55 444.70 491.52 315.49 783.16 284.62 736.88 415.85 379.58 341.08 121.88 342.84 256.85 247.23 155.83 98.02 298.09 550.01 213.04 377.77 26.94 292.13 382.63 504.82 213.12 336.52 777.75 291.56 506.65 538.58 44.29 576.47 435.00 554.11 411.42 538.66 723.03 95.96 506.51 341.35 81.45 773.59 465.29 403.56 537.16 366.57 270.66 546.54 415.92 415.14 143.44 627.17 567.44 76.60 480.02 319.65 159.08 623.21 338.86 78.11 154.48 569.41 117.54 368.18 351.53 108.60 246.12 417.61 314.36 551.45 342.72 211.41 451.11 529.52 475.59 508.89 185.65 118.07 611.29 118.60 422.43 197.98 0.00 471.59 542.26 115.67 96.61 538.81 526.98 272.20 119.64 533.47 346.30 473.46 360.83 99.28 339.64 606.92 488.25 434.50 112.18 169.89 128.04 18.23 357.17 123.78 532.21 367.20 86.66 464.11 265.68 96.85 524.42 555.22 574.65 30.85 309.91 143.87 425.34 132.09 483.50 570.25 447.31 131.30 348.68 268.78 481.99 476.44 548.57 88.19 111.58 390.53 579.84 351.24 464.49 445.56 48.64 452.71 424.02 537.86 341.76 593.63 416.93 410.43 623.52 89.84 570.24 543.57 562.62 534.93 97.73 295.75 289.00 506.25 604.20 645.36 420.17 76.48 543.18 235.15 199.80 666.77 193.13 214.22 258.33 123.31 604.39 471.04 679.80 32.01 252.90 284.09 61.27 494.94 327.49 282.80 226.94 532.93 436.79 194.17 80.02 608.87 511.83 530.79
470.86 850.38 615.88 915.97 886.03 566.13 741.01 796.57 574.91 583.16 871.34 375.92 187.97 513.53 456.59 490.66 315.45 405.47 155.45 843.28 267.51 580.07 508.10 567.72 170.78 378.20 252.53 485.49 244.71 399.44 672.22 496.56 565.69 595.00 930.40 376.26 710.93 498.53 288.66 137.57 892.08 654.70 250.11 582.93 271.30 724.18 293.35 515.88 674.48 647.24 957.70 797.51 934.61 438.01 553.04 126.27 317.57 506.95 512.24 841.55 272.55 548.71 236.29 529.79 476.55 789.77 491.41 442.48 478.71 985.79 548.19 139.33 734.07 510.33 450.09 247.24 549.70 440.25 208.13 589.13 710.39 276.83 580.19 715.68 825.53 722.06 699.50 737.44 647.72 922.70 958.11 533.59 901.78 544.29 471.41 325.22 590.19 808.48 390.34 471.59 0.00 936.64 572.89 568.20 930.85 894.07 735.32 474.67 95.29 244.30 843.18 287.62 570.87 526.40 964.67 447.49 768.12 583.77 448.23 585.26 489.82 214.37 422.82 335.55 210.10 558.25 398.88 737.27 490.49 921.04 443.45 975.43 502.44 540.70 585.45 162.21 568.08 456.63 953.74 903.92 602.89 320.21 342.90 181.60 308.46 982.71 544.00 475.76 189.93 356.67 822.83 852.15 135.52 503.15 259.17 738.82 66.27 714.89 755.17 329.88 882.02 205.31 561.43 397.58 157.83 962.04 894.07 491.57 767.34 758.72 943.82 360.04 447.85 361.01 545.66 285.47 352.32 622.08 237.39 560.25 655.80 699.91 531.29 183.76 525.53 369.32 503.60 349.38 322.43 532.86 186.60 263.94 328.73 380.23 576.77 109.81 557.59 526.49 1008.29 646.19 942.47
1211.22 172.89 520.37 116.05 54.13 809.30 501.86 864.01 462.91 563.14 254.06 760.96 915.37 574.06 514.33 603.32 719.87 582.29 805.75 114.54 765.85 924.30 741.51 880.97 777.58 585.92 750.05 595.75 691.93 743.83 358.83 649.01 582.66 501.19 98.50 599.86 768.68 515.32 659.20 810.29 77.31 329.14 698.25 857.29 704.82 515.57 763.35 512.82 547.79 421.94 79.94 202.19 214.77 983.30 492.30 925.75 801.12 498.24 933.68 861.11 870.47 947.49 738.24 719.82 668.60 754.48 868.61 512.34 1108.26 79.96 496.35 843.73 693.47 538.42 791.46 692.74 484.35 560.36 981.09 511.76 292.52 687.29 502.20 358.56 708.31 269.57 541.12 238.05 334.52 176.52 52.20 963.28 37.04 484.34 631.53 1093.99 522.73 158.28 591.53 542.26 936.64 0.00 534.73 485.99 79.46 53.79 537.63 617.82 921.91 741.11 676.12 827.74 488.15 806.88 148.94 949.81 784.52 522.25 628.15 532.00 528.72 751.80 532.00 792.45 728.72 499.53 919.71 505.70 554.79 132.82 1012.01 80.46 559.33 762.08 398.39 774.43 569.64 952.67 46.24 159.89 524.81 794.19 650.87 805.14 998.19 79.73 486.05 555.93 780.99 1070.60 608.29 667.15 843.40 569.22 803.56 817.48 947.88 721.07 523.30 647.68 299.13 918.16 490.93 1081.64 957.36 72.00 824.25 563.77 297.62 561.03 50.70 838.68 852.01 864.90 585.51 810.62 696.71 397.51 959.68 481.26 386.93 335.60 516.63 984.09 566.88 1142.28 557.76 712.67 692.31 508.61 856.67 710.67 654.05 634.15 618.32 826.83 424.65 476.93 118.25 509.83 75.24
769.38 579.22 50.60 541.17 562.29 289.67 218.33 397.42 175.78 43.51 612.15 595.55 511.90 162.37 252.51 138.50 493.37 305.61 520.80 490.02 361.65 814.89 220.42 787.35 479.79 450.82 392.54 172.71 432.51 258.47 272.90 148.27 67.41 397.25 582.38 274.59 314.54 126.10 383.79 447.33 520.50 246.14 432.77 828.22 379.55 593.35 618.29 137.43 663.17 534.16 579.51 471.81 595.12 787.38 182.66 587.26 343.01 168.04 846.93 442.40 418.89 508.69 439.08 200.19 630.41 322.23 386.68 221.46 631.76 602.45 113.25 534.44 303.81 244.55 673.68 426.85 158.05 217.95 594.43 22.97 379.37 431.24 73.08 233.12 368.40 346.73 638.15 410.41 244.89 510.08 575.30 449.86 497.69 278.09 193.36 642.41 42.46 453.50 294.11 115.67 572.89 534.73 0.00 48.74 581.34 535.15 182.99 158.43 551.45 419.74 399.32 376.16 188.93 293.21 627.90 485.41 371.73 39.00 219.58 12.37 120.82 404.71 221.67 611.92 449.21 97.64 504.24 192.50 189.27 581.16 554.85 576.08 106.46 273.29 185.97 508.93 76.35 485.12 568.73 481.10 75.36 344.31 319.61 553.35 592.11 583.36 198.24 175.93 438.07 668.56 278.06 390.35 500.48 96.18 527.24 360.09 633.99 305.53 628.19 512.58 354.49 689.24 169.04 637.81 587.24 562.69 441.24 180.29 273.35 206.39 552.03 670.62 728.52 410.96 78.20 622.89 295.06 241.90 717.60 252.01 188.35 273.48 227.60 619.72 563.36 726.96 83.66 296.57 351.77 176.94 573.51 367.98 336.53 297.75 624.03 498.26 225.74 182.61 602.91 598.42 574.48
803.02 572.23 47.68 513.91 513.55 323.31 220.43 400.22 158.48 77.15 582.22 624.45 473.94 164.16 268.63 172.14 517.90 286.73 517.73 471.89 384.22 787.16 255.52 816.25 509.71 453.62 397.82 151.74 424.06 265.77 227.60 181.91 96.67 387.00 552.00 276.17 317.34 123.55 362.82 479.24 490.94 216.58 430.38 857.12 381.13 585.75 602.08 106.54 638.97 523.91 535.79 426.51 591.45 784.13 175.06 577.74 391.75 178.06 835.84 419.90 433.42 461.50 418.11 233.83 634.24 319.31 399.05 221.12 654.23 553.71 113.90 552.32 300.89 233.96 677.60 428.43 130.44 196.98 590.55 25.77 373.65 434.38 43.52 227.40 365.48 352.76 630.55 386.90 237.32 510.73 526.56 483.50 448.95 280.62 204.36 656.94 36.74 449.83 273.14 96.61 568.20 485.99 48.74 0.00 532.60 486.41 198.16 177.06 582.59 427.04 393.60 390.69 145.31 320.89 579.16 519.05 374.53 36.26 206.77 46.01 114.84 406.29 220.39 615.06 445.96 81.60 507.04 189.76 187.41 551.60 564.14 566.45 98.84 276.09 182.74 506.56 83.65 492.42 519.99 432.36 57.26 373.57 298.64 564.77 573.05 556.35 177.76 172.68 439.65 675.86 275.32 384.63 502.06 97.76 503.01 362.89 631.98 339.17 631.71 492.09 336.39 709.39 160.86 666.85 562.55 553.50 438.32 189.41 270.43 210.14 503.29 641.06 728.87 433.96 99.52 619.10 312.89 197.04 696.63 244.58 158.79 278.34 212.88 634.25 532.52 751.74 111.30 311.51 337.06 157.88 580.81 414.29 315.56 273.52 606.17 529.64 228.54 173.31 599.75 608.44 527.83
1202.35 219.50 555.76 70.53 103.64 814.97 456.34 821.05 477.48 608.14 300.67 817.97 955.56 560.29 582.43 585.18 777.05 600.53 845.44 133.10 783.23 929.24 757.26 882.96 807.52 665.38 774.36 578.09 739.59 751.02 351.99 663.10 584.90 521.43 121.60 631.55 701.55 526.52 726.12 838.81 123.42 367.86 737.26 891.45 684.04 527.11 809.46 504.95 556.17 471.45 26.85 210.12 248.93 1040.31 501.66 978.74 798.81 480.10 983.19 803.79 858.98 951.49 799.87 748.74 720.81 710.31 883.46 560.27 1105.95 54.94 487.85 873.67 668.53 557.73 827.50 731.34 464.36 606.97 917.47 558.37 328.56 757.96 516.29 352.98 664.14 265.69 531.15 272.96 381.13 105.22 27.26 967.11 83.65 515.85 617.76 1083.29 543.64 169.82 639.46 538.81 930.85 79.46 581.34 532.60 0.00 121.89 494.67 599.68 953.15 779.60 638.03 817.04 495.24 826.52 178.51 971.72 741.56 558.40 641.83 577.00 520.58 788.75 568.40 828.49 759.68 520.15 954.46 438.59 545.92 191.06 1019.10 112.02 559.19 794.06 437.11 785.12 616.25 977.67 69.88 136.33 572.37 760.01 675.36 862.32 995.34 119.30 491.76 537.79 809.39 1080.86 565.34 629.06 851.53 551.08 803.12 757.78 995.60 641.61 535.69 704.86 307.43 956.96 471.68 1087.35 986.07 98.63 781.30 554.90 345.18 518.07 32.56 903.55 888.05 898.15 590.95 856.73 731.71 418.16 1019.12 516.04 401.02 324.37 517.81 1002.33 623.89 1078.66 557.06 743.25 713.37 490.47 891.91 746.85 710.33 655.72 620.31 837.52 437.18 458.79 134.55 511.82 11.62
1165.60 130.70 500.17 102.40 42.77 809.72 470.69 854.10 454.92 563.56 211.87 707.17 890.42 529.48 460.54 554.37 723.58 528.50 790.29 60.75 727.73 878.02 730.30 836.95 745.10 636.93 702.04 560.96 676.47 690.04 305.04 620.15 579.63 447.40 87.14 546.07 757.59 500.04 605.41 756.50 25.92 357.45 682.79 828.07 651.03 464.69 711.96 489.35 512.35 410.58 101.00 156.65 185.55 929.51 467.12 877.45 765.33 449.29 895.12 863.75 830.47 947.91 684.45 708.61 614.81 771.80 831.22 534.65 1058.99 128.42 457.04 811.25 659.76 484.63 752.70 684.72 467.56 561.56 942.20 512.18 253.76 721.76 473.34 315.38 732.45 218.18 487.33 184.26 335.72 204.68 102.61 927.49 38.24 430.55 586.95 1056.37 503.51 107.40 558.95 526.98 894.07 53.79 535.15 486.41 121.89 0.00 562.98 593.28 868.12 687.32 669.90 790.12 473.46 787.70 108.78 896.02 774.61 515.45 609.92 532.42 513.44 698.01 526.02 753.69 724.49 489.34 877.14 506.90 509.17 113.47 988.41 109.95 536.69 756.94 398.67 758.97 570.06 916.69 100.03 195.32 535.12 740.40 627.85 766.10 944.40 108.79 468.96 505.88 727.20 1039.89 589.93 660.93 789.61 558.06 803.48 780.87 894.09 737.53 511.94 651.39 352.92 864.37 437.14 1038.20 917.98 96.56 805.89 518.15 351.41 547.87 92.58 813.92 813.25 816.58 549.01 759.23 642.92 374.12 935.38 427.47 358.07 284.21 493.24 930.30 513.09 1103.39 522.52 676.88 641.34 468.56 825.13 656.88 600.26 583.69 574.30 790.77 374.76 470.60 137.06 511.03 114.60
924.45 638.66 166.84 471.27 575.86 386.32 100.58 326.38 318.76 201.76 643.60 753.80 670.15 320.83 430.02 296.75 651.62 463.86 699.20 518.44 467.81 985.32 364.54 945.60 638.04 632.57 550.79 333.58 592.43 416.72 366.57 306.52 225.66 547.28 584.89 432.84 231.05 285.36 544.66 630.32 545.35 279.93 591.02 986.47 537.80 723.33 784.56 267.93 800.36 658.75 521.52 492.94 653.50 945.63 338.08 738.06 526.00 339.87 997.23 336.03 577.14 626.07 598.26 358.44 761.66 304.10 503.00 376.06 790.01 534.36 271.50 704.19 208.33 410.45 831.93 585.10 290.72 378.82 750.83 204.72 500.69 614.23 203.80 287.24 281.63 398.08 785.70 461.76 315.15 531.52 521.93 546.51 524.74 426.02 351.61 793.13 173.80 522.25 454.98 272.20 735.32 537.63 182.99 198.16 494.67 562.98 0.00 316.68 695.72 577.99 229.84 534.41 321.60 437.33 641.80 611.60 246.89 196.25 390.29 170.62 276.35 562.96 387.34 776.18 607.46 252.79 666.03 56.08 347.70 614.95 713.10 593.66 241.35 423.61 327.36 674.93 234.60 643.37 541.80 451.41 140.90 502.56 480.48 711.60 696.84 608.11 360.39 334.18 596.32 800.24 101.02 220.87 658.73 254.43 685.49 327.72 778.26 220.79 786.44 643.20 311.34 850.65 309.23 776.85 745.49 587.44 316.98 338.72 272.04 23.40 527.23 801.34 886.77 569.21 238.12 740.48 447.08 388.75 878.47 389.98 257.49 316.22 379.47 777.97 659.94 883.02 264.15 454.82 518.48 317.81 731.76 550.97 497.40 456.00 773.30 656.51 397.96 338.14 580.20 770.25 506.29
704.05 599.24 208.63 571.42 588.19 296.45 356.17 508.67 193.41 148.50 588.10 565.87 448.19 63.80 214.14 40.86 439.37 212.68 418.96 546.70 207.16 760.67 250.57 757.67 390.11 410.65 273.75 77.69 316.32 175.04 337.32 129.02 91.02 371.92 626.20 219.11 390.59 117.03 258.88 384.78 567.36 303.21 310.78 787.41 260.77 587.09 531.10 137.00 550.36 498.95 614.98 501.51 628.75 713.02 176.40 464.78 286.67 143.99 812.75 463.69 346.57 457.38 290.14 245.83 547.96 469.43 384.29 161.10 593.81 652.16 151.69 412.89 346.21 209.53 603.55 308.07 177.59 122.93 502.28 181.40 448.42 376.41 181.75 326.72 441.29 390.55 575.38 425.81 301.50 541.20 590.39 429.08 598.98 231.36 50.94 552.89 164.31 507.07 199.09 119.64 474.67 617.82 158.43 177.06 599.68 593.28 316.68 0.00 435.07 310.41 507.17 303.84 183.14 266.59 683.11 417.36 444.15 183.37 78.05 146.06 103.63 316.37 148.66 524.26 336.41 163.65 398.48 336.87 98.27 617.27 473.41 654.09 104.00 305.09 233.96 385.43 93.41 401.69 631.12 537.40 197.21 267.59 218.56 455.71 514.44 628.01 181.04 101.57 336.50 543.86 417.70 512.20 391.66 84.55 452.88 426.57 517.61 330.65 661.80 418.04 472.82 597.78 172.93 586.19 489.16 648.02 534.79 103.80 379.61 340.08 567.12 561.91 570.09 346.14 111.00 518.61 164.26 274.82 622.58 242.06 297.02 342.60 203.55 547.40 523.63 643.82 103.20 198.22 243.41 148.69 469.20 300.48 187.59 223.39 549.67 396.82 272.07 140.89 693.45 564.53 591.66
452.61 861.45 602.05 890.05 870.48 488.97 764.81 756.58 529.11 554.61 886.01 442.56 132.12 474.72 414.79 451.06 363.83 395.20 211.23 861.09 227.91 651.39 468.50 634.36 185.45 421.48 260.86 443.24 250.53 359.84 673.73 456.96 526.09 600.82 914.85 385.97 671.33 522.33 262.71 185.95 894.02 656.57 256.85 646.93 281.01 748.09 343.71 536.81 691.46 669.40 958.20 805.23 902.70 522.99 543.58 47.77 309.70 505.97 607.53 801.56 177.26 468.09 224.36 490.19 531.48 747.59 491.79 457.15 395.14 971.91 561.18 151.40 688.78 428.34 480.51 258.78 496.22 433.40 117.73 574.42 665.63 320.11 583.14 717.55 793.76 714.50 713.09 699.37 646.05 946.50 962.35 493.99 906.36 509.87 434.41 243.07 593.91 802.51 393.76 533.47 95.29 921.91 551.45 582.59 953.15 868.12 695.72 435.07 0.00 216.13 803.58 219.99 527.10 431.11 953.08 397.92 728.52 589.00 398.69 563.82 534.85 176.30 437.49 370.62 284.83 556.63 303.59 729.36 452.42 887.70 353.05 962.42 526.55 500.71 604.12 168.03 528.48 366.23 938.19 905.79 618.90 282.14 304.83 248.24 254.37 973.37 511.70 437.69 198.32 274.52 796.74 812.55 146.72 484.83 325.81 698.83 82.54 702.12 792.90 385.66 857.16 300.60 526.64 319.13 79.38 952.70 842.70 456.24 723.57 719.12 942.92 375.25 463.06 265.72 517.11 300.95 312.72 610.44 322.37 491.41 639.90 696.45 491.32 166.22 542.51 278.92 531.76 309.78 315.61 543.76 248.65 275.01 305.08 362.05 642.23 124.48 567.98 516.69 998.95 658.26 951.26
588.39 645.32 470.34 745.84 730.09 417.24 567.25 683.67 411.64 401.40 726.49 371.32 203.55 318.12 253.87 323.47 249.46 179.07 211.70 646.82 154.61 609.40 395.20 563.12 171.07 297.27 76.22 286.64 109.91 258.27 502.24 354.83 398.35 406.70 774.46 210.09 593.06 371.88 81.91 106.73 695.62 521.65 116.23 603.99 121.69 573.96 303.69 390.59 555.55 528.78 788.32 668.76 730.13 565.39 374.02 246.66 204.88 327.93 628.71 717.91 172.29 449.11 20.27 398.49 442.61 671.90 397.90 258.64 401.89 815.74 400.72 180.72 592.34 322.45 449.45 118.16 393.41 251.14 262.86 436.38 572.53 195.90 454.90 554.28 694.89 555.76 580.57 562.90 501.73 762.35 770.63 420.69 725.56 338.38 313.71 407.38 458.51 666.04 217.53 346.30 244.30 741.11 419.74 427.04 779.60 687.32 577.99 310.41 216.13 0.00 660.75 194.47 409.56 461.36 759.61 370.15 650.25 458.48 271.92 407.37 358.48 39.83 278.30 334.35 169.97 422.31 275.67 604.16 315.95 732.87 389.07 797.27 377.15 427.80 476.67 134.77 343.39 344.89 787.35 746.92 477.60 145.67 146.09 259.65 340.93 796.11 350.20 301.22 54.37 379.36 679.01 669.72 116.78 348.36 246.25 589.57 255.70 606.90 655.35 271.91 703.70 351.62 388.82 406.33 245.15 783.88 773.62 319.90 570.11 601.39 747.36 405.65 459.56 259.52 390.87 312.20 234.45 468.33 432.56 370.07 534.09 534.95 349.25 331.99 433.04 424.05 378.31 200.49 134.81 365.72 241.56 58.88 122.82 182.67 534.56 140.73 417.00 343.53 824.38 590.69 771.90
979.90 800.60 377.11 567.50 672.09 441.77 329.28 223.36 506.12 431.60 873.44 909.47 825.83 533.72 553.65 522.47 868.91 628.45 864.06 666.52 575.67 1147.55 409.50 1101.27 798.01 819.03 671.08 540.92 752.96 551.58 570.29 411.46 455.50 713.22 716.46 605.55 196.99 467.34 700.47 739.20 643.98 509.77 755.88 1142.14 710.51 921.61 923.90 440.56 972.99 820.58 651.66 719.72 808.39 1156.43 510.92 842.30 582.25 521.85 1169.86 228.87 701.89 621.51 640.48 431.19 941.57 181.51 554.93 574.40 845.79 685.69 408.25 837.65 207.29 555.78 987.60 757.81 473.23 575.31 853.34 391.18 693.77 791.64 410.32 496.48 135.34 627.92 958.34 691.60 544.99 610.61 623.92 521.94 673.44 589.72 530.91 916.02 356.86 674.99 631.82 473.46 843.18 676.12 399.32 393.60 638.03 669.90 229.84 507.17 803.58 660.75 0.00 686.43 488.33 469.98 765.08 644.81 143.87 387.17 507.52 400.46 471.59 688.54 569.66 962.17 784.22 438.88 705.01 285.92 537.25 731.53 746.61 721.39 442.61 387.17 506.40 767.24 413.76 702.65 683.54 561.53 342.16 636.10 636.29 874.28 814.20 710.10 527.92 544.98 686.84 884.57 210.04 8.97 746.18 467.32 878.47 204.75 876.30 245.98 982.62 816.14 390.43 989.90 486.74 866.43 784.74 708.00 160.90 538.13 501.88 253.24 639.43 1007.86 1048.15 687.09 462.96 955.25 527.76 538.61 1065.03 562.62 486.19 546.06 492.80 857.86 861.20 955.30 465.41 493.80 723.19 493.52 874.03 719.63 685.99 648.98 937.00 778.39 534.20 515.32 731.21 935.86 628.71
488.66 790.45 426.36 773.24 831.03 401.77 584.05 647.53 412.30 376.87 794.73 551.23 144.35 270.43 329.58 275.78 382.54 293.25 286.89 742.86 122.67 754.22 332.54 719.76 285.86 432.37 188.91 238.95 304.10 153.73 529.91 332.35 308.75 533.18 838.15 262.48 557.97 353.33 261.15 204.66 773.99 526.07 301.77 760.63 279.90 742.65 460.12 377.54 747.93 627.56 832.34 717.30 847.64 695.09 391.72 240.07 104.18 350.62 747.66 690.76 42.73 347.49 214.74 354.23 593.91 630.00 325.57 315.40 382.40 869.52 409.85 324.65 563.94 383.36 606.92 295.85 379.41 284.19 256.80 388.69 638.92 350.28 424.50 564.24 583.83 609.66 730.34 636.88 512.41 777.50 807.75 384.99 807.51 405.42 277.61 266.25 414.93 718.14 236.21 360.83 287.62 827.74 376.16 390.69 817.04 790.12 534.41 303.84 219.99 194.47 686.43 0.00 410.29 356.82 857.92 263.39 604.52 411.62 225.79 363.79 344.17 175.19 309.92 496.58 353.82 398.57 175.94 565.12 291.52 797.11 230.78 863.63 371.94 395.85 456.82 263.31 335.85 233.21 848.48 749.80 443.35 86.54 199.99 356.91 286.40 837.55 360.88 297.73 182.91 297.70 635.43 695.40 233.18 332.15 374.79 572.45 273.15 584.42 769.53 454.73 690.55 462.40 384.00 332.94 229.39 858.22 728.06 282.54 606.60 557.81 784.48 535.35 623.16 131.19 339.37 438.76 199.36 475.61 514.67 414.82 523.09 545.63 396.00 243.56 598.98 395.46 349.14 192.63 245.68 380.82 370.10 253.35 189.86 249.71 616.25 250.89 465.32 358.25 900.99 714.82 809.02
791.78 495.36 192.99 424.71 483.35 437.01 325.83 545.53 25.24 158.68 525.74 571.94 522.08 149.89 216.12 153.66 443.98 242.55 485.44 416.40 357.71 752.14 337.05 738.47 456.59 427.42 379.58 171.34 383.58 346.14 172.11 245.09 169.02 253.76 522.80 236.99 444.78 93.04 327.65 457.35 461.97 180.53 377.26 755.38 339.47 446.23 489.43 71.47 516.05 390.67 502.99 371.02 460.58 751.13 35.54 556.71 400.18 81.63 800.77 528.11 453.02 594.87 406.69 315.36 488.93 464.62 446.43 166.50 702.24 521.79 80.08 505.57 366.64 154.78 633.42 379.00 30.88 200.51 622.12 171.08 295.51 397.68 117.80 207.03 477.63 287.15 491.03 289.20 153.63 476.91 506.65 541.69 451.11 167.98 207.36 676.54 150.62 370.46 210.72 99.28 570.87 488.15 188.93 145.31 495.24 473.46 321.60 183.14 527.10 409.56 488.33 410.29 0.00 403.91 537.35 559.29 473.62 156.75 206.92 178.51 81.05 409.45 169.93 564.81 384.18 91.29 522.94 280.44 135.35 494.98 523.86 518.09 125.71 360.58 111.28 466.08 196.72 570.30 522.15 423.84 183.52 365.29 305.25 528.14 575.72 495.05 71.42 148.06 442.81 679.12 395.81 497.30 453.06 140.18 482.83 489.35 577.34 427.96 533.21 399.81 330.06 650.61 36.32 667.01 597.59 515.72 583.63 129.38 196.47 298.20 503.68 591.39 673.39 471.67 138.40 536.70 306.19 146.28 698.83 137.69 168.92 211.87 106.54 644.35 387.21 742.28 118.21 311.73 327.55 51.89 529.01 373.39 305.43 253.34 500.45 482.94 121.66 81.30 560.49 502.70 485.92
595.99 774.28 287.53 779.97 814.62 57.86 436.21 353.97 406.54 251.16 814.94 714.59 500.86 290.64 395.61 292.33 596.72 394.15 567.68 726.95 313.38 952.67 72.79 906.39 538.83 611.26 413.09 259.16 465.82 203.09 536.88 251.53 241.62 553.39 844.45 380.47 301.29 352.52 419.27 504.94 775.75 504.02 459.50 947.26 433.58 808.26 672.37 345.55 804.98 690.30 816.44 668.33 839.36 904.64 397.57 478.88 274.30 370.83 986.08 384.07 381.45 291.75 463.44 94.48 739.42 362.27 148.42 342.57 485.08 853.42 369.94 582.51 340.63 403.57 785.02 465.42 386.14 304.40 486.84 311.78 636.49 551.81 330.96 490.24 408.44 608.80 830.00 620.47 473.17 765.25 802.79 218.05 769.84 447.73 289.37 446.04 299.58 701.73 380.56 339.64 526.40 806.88 293.21 320.89 826.52 787.70 437.33 266.59 431.11 461.36 469.98 356.82 403.91 0.00 864.54 296.58 326.11 288.85 303.42 282.30 357.87 437.83 330.13 681.61 496.62 337.64 336.62 425.29 311.73 817.32 346.24 831.90 308.79 98.10 435.82 537.60 237.24 358.07 819.70 690.19 322.48 331.99 403.36 600.35 463.22 826.32 381.09 317.94 471.19 414.59 388.56 478.95 524.57 314.75 627.52 294.88 513.65 352.35 835.84 599.51 601.61 668.01 367.59 412.58 510.49 819.81 411.59 302.75 510.28 420.78 804.69 746.37 834.18 349.76 272.24 668.11 250.21 466.77 753.48 455.52 446.23 538.94 416.21 573.13 705.10 514.55 325.40 260.87 366.37 378.68 617.92 445.75 417.17 419.72 766.04 546.78 485.53 378.46 852.76 746.00 814.90
1241.32 114.29 608.95 197.58 101.28 902.47 565.87 947.88 512.11 653.73 179.27 706.32 948.76 624.66 569.32 649.55 763.14 637.28 853.55 169.53 817.36 786.30 828.01 760.16 840.60 724.34 783.90 630.21 767.59 790.22 395.12 715.33 629.28 487.60 56.91 647.98 834.35 579.98 714.19 829.29 121.10 420.43 761.27 719.29 739.93 378.36 807.14 563.73 409.79 421.02 200.40 196.21 76.77 947.62 533.96 967.70 823.94 544.47 840.82 914.68 900.65 1040.66 779.88 806.32 615.60 870.59 925.86 578.90 1131.08 151.55 531.42 867.19 753.54 544.77 784.45 764.41 545.00 618.48 1022.47 604.93 287.45 729.78 568.52 410.56 824.42 292.56 434.81 293.04 427.69 274.26 173.96 986.10 130.21 539.33 674.63 1071.52 601.22 212.61 621.71 606.92 964.67 148.94 627.90 579.16 178.51 108.78 641.80 683.11 953.08 759.61 765.08 857.92 537.35 864.54 0.00 996.20 868.39 610.63 669.27 625.17 593.38 799.44 559.24 740.48 796.51 533.26 946.70 598.87 610.29 85.41 1060.10 95.29 611.07 855.25 488.85 850.09 662.81 994.06 135.52 290.50 634.12 849.18 702.23 848.41 1053.18 69.21 521.64 614.66 813.98 1102.97 685.11 756.11 874.69 632.44 792.19 877.55 1002.87 820.12 416.31 690.95 448.07 973.15 527.94 1117.23 1004.66 89.88 901.07 619.27 416.91 633.37 166.93 818.17 809.94 923.02 629.55 854.41 743.10 469.09 952.04 536.25 453.25 374.39 502.51 1039.08 558.74 1183.66 595.39 735.49 719.55 558.03 907.44 700.73 709.04 662.40 547.04 854.86 476.29 561.33 134.65 496.71 190.13
427.60 908.26 498.93 921.60 938.79 264.84 607.23 571.79 573.45 441.90 948.82 693.91 323.56 432.26 538.14 445.13 572.05 463.34 515.57 887.22 271.18 899.21 314.42 885.71 474.02 611.53 353.81 429.23 432.50 261.22 669.95 337.14 460.88 685.73 980.66 483.67 529.00 500.70 424.52 408.72 905.62 657.01 438.82 926.58 436.63 944.11 637.99 523.09 890.66 762.79 987.02 868.86 955.73 842.28 550.80 427.36 236.23 504.71 892.51 581.46 220.66 143.54 371.56 336.11 720.47 490.13 148.16 458.80 322.62 1001.93 530.58 503.50 554.09 536.18 769.36 440.75 543.36 436.74 342.35 495.37 723.79 518.49 483.95 693.80 536.30 769.44 887.07 787.38 670.90 924.87 962.43 136.60 934.26 578.38 374.79 301.19 510.47 814.11 482.86 488.25 447.49 949.81 485.41 519.05 971.72 896.02 611.60 417.36 397.92 370.15 644.81 263.39 559.29 296.58 996.20 0.00 514.67 511.93 420.92 473.04 506.00 331.92 478.46 653.31 492.56 538.93 116.16 555.52 438.89 966.51 140.68 996.87 483.62 315.92 604.19 424.11 443.34 93.85 996.05 897.17 505.94 251.44 391.79 548.99 242.76 993.23 541.76 448.59 365.28 310.96 678.97 635.84 427.69 454.38 557.16 501.86 451.08 548.82 939.62 549.77 785.07 633.94 534.50 221.62 407.69 992.58 609.14 429.91 719.15 627.76 939.16 699.34 787.15 132.20 443.83 634.79 253.10 622.98 641.66 582.68 599.22 716.74 549.41 407.31 767.19 359.10 501.31 287.06 423.22 542.50 505.36 429.03 441.49 440.24 838.80 428.82 612.69 512.93 1033.08 878.07 963.70
864.34 868.77 328.84 711.37 810.74 326.21 331.62 79.49 484.12 396.85 850.87 915.36 685.73 481.20 571.34 466.57 793.54 615.73 768.45 754.03 500.61 1126.10 324.87 1107.16 739.60 776.61 611.05 480.74 666.59 462.92 524.14 352.36 370.04 705.47 831.78 610.32 57.19 434.32 632.61 670.53 748.69 510.58 660.27 1128.89 614.94 870.62 880.59 417.67 917.30 830.65 768.41 723.05 864.93 1080.57 475.15 770.86 534.97 488.83 1145.08 89.14 561.79 483.24 651.71 346.56 942.98 57.21 411.06 540.29 701.92 781.25 402.65 803.27 114.85 560.19 993.49 662.24 458.26 525.98 750.07 348.76 699.84 752.58 404.71 459.23 90.46 598.98 892.28 662.66 535.37 666.22 756.12 378.07 771.63 600.20 471.81 772.15 366.80 746.37 602.14 434.50 768.12 784.52 371.73 374.53 741.56 774.61 246.89 444.15 728.52 650.25 143.87 604.52 473.62 326.11 868.39 514.67 0.00 371.69 493.98 384.10 420.92 666.88 531.91 878.43 690.58 434.95 599.26 302.97 493.29 782.98 602.74 840.55 425.29 243.30 518.66 726.97 368.80 570.17 788.69 670.74 359.07 561.04 592.25 835.10 670.33 853.97 511.78 478.56 698.07 740.70 276.16 152.84 711.80 431.91 829.87 89.19 792.21 113.50 957.60 796.09 499.64 911.42 445.17 731.34 740.70 834.33 135.64 497.24 518.93 270.29 774.12 940.33 1014.24 557.63 394.17 868.88 415.80 533.01 1005.51 580.38 488.53 563.11 540.69 816.33 860.83 821.16 402.49 449.76 670.60 475.82 818.69 677.75 617.18 600.38 926.66 738.77 551.53 482.71 827.09 917.79 753.18
808.38 567.07 63.81 512.50 549.81 328.67 205.21 397.38 157.07 82.51 602.99 604.84 510.20 158.88 249.02 175.82 508.63 299.48 534.82 486.06 381.48 823.42 257.10 796.64 505.97 450.78 406.36 172.67 428.97 297.47 248.37 174.79 106.41 385.59 567.63 268.46 314.50 122.61 383.75 462.65 489.53 215.17 426.64 837.51 373.42 577.96 613.79 123.15 647.78 521.13 572.05 447.28 592.41 774.86 167.27 602.58 382.01 177.12 852.45 442.36 411.74 497.76 439.04 235.41 611.82 335.44 392.62 217.97 658.28 586.76 101.66 543.05 299.57 247.82 682.97 420.72 129.03 217.91 589.14 22.93 367.22 445.93 42.11 220.97 374.43 340.52 622.76 390.17 214.51 498.49 562.82 488.86 485.21 280.39 204.97 672.20 30.31 453.46 285.33 112.18 583.77 522.25 39.00 36.26 558.40 515.45 196.25 183.37 589.00 458.48 387.17 411.62 156.75 288.85 610.63 511.93 371.69 0.00 243.03 51.37 117.33 424.80 218.18 615.26 436.69 81.37 504.20 153.50 162.13 550.19 590.07 563.93 102.97 273.25 146.97 511.47 115.35 524.12 556.25 462.28 55.35 383.31 319.57 569.65 588.62 571.21 180.96 163.41 458.16 692.02 239.06 378.20 520.57 127.10 514.72 360.05 642.16 344.53 595.45 504.28 334.48 707.16 137.29 676.81 598.81 550.54 454.45 153.15 282.54 218.66 539.55 639.65 727.46 428.79 108.36 630.81 297.04 208.36 717.56 244.35 157.38 261.43 206.74 655.18 543.96 750.33 80.17 318.26 348.28 166.53 585.06 406.98 336.49 285.23 611.51 530.89 217.57 179.12 563.91 607.50 562.33
661.67 643.29 251.52 604.65 649.28 361.28 397.25 540.99 200.95 214.08 606.32 528.05 370.14 89.31 192.51 116.90 366.94 157.54 381.14 549.17 237.71 685.90 230.63 719.85 352.29 396.04 195.70 80.07 275.29 190.60 350.83 171.27 169.07 316.78 612.36 185.16 468.64 166.53 223.25 310.66 585.58 348.36 272.96 732.27 261.65 600.41 482.81 193.31 605.44 453.69 657.13 528.89 636.29 686.19 189.72 409.74 210.23 162.21 753.73 541.74 268.52 506.56 285.20 246.71 548.54 512.78 353.25 143.03 517.37 650.27 225.62 400.63 379.13 205.08 548.41 267.04 213.95 67.79 438.24 229.81 443.44 343.43 226.69 385.71 490.12 451.81 618.94 455.13 329.34 590.70 632.54 406.45 591.11 233.83 51.82 492.04 236.69 516.19 158.89 169.89 448.23 628.15 219.58 206.77 641.83 609.92 390.29 78.05 398.69 271.92 507.52 225.79 206.92 303.42 669.27 420.92 493.98 243.03 0.00 224.11 163.05 264.43 127.03 483.23 276.70 223.96 367.05 393.54 118.77 615.67 456.57 667.32 148.94 332.36 283.46 307.38 171.46 405.91 662.15 577.05 249.39 228.95 219.44 432.26 493.65 660.98 199.26 104.04 297.79 523.49 474.95 516.49 351.97 155.71 415.35 470.54 469.74 408.70 633.70 377.84 528.52 542.75 202.25 554.76 446.78 680.71 612.84 122.72 403.39 407.09 609.27 526.45 608.96 296.63 182.41 466.42 167.82 300.33 605.17 223.22 335.96 384.01 198.57 469.35 489.73 599.43 168.02 155.84 226.36 155.03 414.17 254.06 196.11 185.86 504.01 359.66 292.57 183.04 711.29 566.91 633.81
757.01 587.70 62.97 531.10 559.56 277.30 230.70 409.79 174.50 31.14 601.69 583.18 499.53 150.21 264.88 126.13 481.00 293.24 528.58 502.39 349.28 821.26 209.51 774.98 467.42 463.19 380.17 162.96 421.81 246.10 266.97 135.90 55.04 403.02 570.01 262.22 326.91 132.50 374.04 459.70 508.13 233.77 420.40 815.85 367.18 600.97 613.94 125.06 657.49 539.93 578.06 465.88 607.49 775.01 190.28 594.21 355.38 180.41 834.56 454.77 406.52 496.32 427.64 187.82 618.04 334.60 375.77 216.05 619.39 599.72 100.88 533.57 310.23 256.92 661.31 414.48 147.63 208.20 606.80 35.34 388.05 443.61 60.71 241.80 380.77 334.36 645.77 398.04 253.57 497.71 572.57 437.49 494.96 265.72 180.99 630.04 51.14 465.87 284.36 128.04 585.26 532.00 12.37 46.01 577.00 532.42 170.62 146.06 563.82 407.37 400.46 363.79 178.51 282.30 625.17 473.04 384.10 51.37 224.11 0.00 133.19 392.34 221.94 605.56 436.84 110.01 495.41 204.87 178.29 568.79 542.48 584.76 113.13 275.66 198.34 504.31 63.98 472.75 566.00 478.37 79.56 331.94 309.86 540.98 585.50 582.17 210.61 163.56 425.70 656.19 271.64 391.49 488.11 83.81 514.87 351.21 635.81 293.16 615.82 503.31 358.69 689.72 178.05 625.44 574.87 571.37 453.61 182.24 285.72 194.02 549.30 658.25 716.15 398.59 67.50 624.10 292.22 231.24 707.85 264.38 175.98 285.85 239.97 607.35 551.31 714.59 96.03 284.20 347.86 182.71 561.14 380.35 326.78 285.38 611.66 485.89 238.11 180.06 615.28 602.79 573.84
739.74 495.61 138.27 467.79 523.33 393.09 255.88 492.04 89.78 114.76 512.02 532.29 488.52 73.74 176.47 108.45 442.38 224.01 461.69 477.98 310.79 770.37 289.77 724.09 428.02 361.35 327.54 105.22 360.01 269.99 233.69 174.06 116.25 284.55 536.47 199.50 363.73 13.40 310.36 388.62 491.28 199.58 354.75 764.96 304.46 497.25 525.79 33.37 565.80 421.46 535.88 397.88 525.12 708.61 86.56 488.28 354.97 67.91 762.67 447.06 386.90 543.99 371.59 271.44 533.00 409.90 396.91 130.65 645.40 556.52 65.68 476.80 324.80 142.30 610.42 351.76 73.96 140.94 570.08 122.69 360.05 338.74 123.41 232.58 422.76 300.82 542.05 329.18 197.87 437.57 511.29 462.05 495.35 183.22 131.21 610.42 136.83 410.44 181.76 18.23 489.82 528.72 120.82 114.84 520.58 513.44 276.35 103.63 534.85 358.48 471.59 344.17 81.05 357.87 593.38 506.00 420.92 117.33 163.05 133.19 0.00 358.55 110.99 519.42 370.44 68.43 477.73 270.83 83.31 534.60 554.83 557.78 49.08 315.06 130.33 418.11 126.24 496.64 552.02 433.77 149.53 360.21 252.12 469.20 494.67 535.03 104.96 97.16 391.26 598.07 356.39 462.62 439.34 66.87 439.17 442.25 548.28 346.91 584.23 400.71 411.11 635.51 76.30 588.47 545.55 544.39 528.91 84.19 277.52 297.82 488.02 591.41 631.82 415.08 94.71 530.39 252.90 186.26 650.11 191.79 196.82 244.79 127.47 587.73 457.50 669.34 37.16 266.52 271.30 58.84 513.17 345.72 269.04 214.15 530.50 424.00 199.58 61.79 590.64 498.29 512.56
578.39 685.15 453.97 733.70 717.22 457.07 588.51 695.33 409.99 388.54 766.32 393.74 243.38 299.16 268.50 312.26 249.03 218.90 210.10 686.65 166.27 604.67 365.04 570.21 150.06 284.04 84.56 275.43 144.97 282.96 508.20 392.54 369.91 446.53 761.59 209.67 609.69 346.03 92.60 76.80 717.72 511.14 138.65 601.37 104.71 613.79 306.07 372.81 580.17 552.16 781.90 628.93 741.96 560.64 384.71 216.73 171.55 338.62 607.70 723.26 132.46 409.28 48.06 386.73 456.56 688.53 392.94 289.95 441.72 814.03 384.88 172.07 622.94 337.08 437.44 144.57 380.59 257.10 289.70 425.17 575.61 200.73 428.00 545.68 717.71 538.20 555.15 523.07 496.00 770.20 786.05 417.92 736.25 344.34 296.15 388.27 438.00 626.21 223.49 357.17 214.37 751.80 404.71 406.29 788.75 698.01 562.96 316.37 176.30 39.83 688.54 175.19 409.45 437.83 799.44 331.92 666.88 424.80 264.43 392.34 358.55 0.00 288.91 321.39 180.35 399.28 265.67 578.30 276.12 759.23 379.07 807.96 350.25 439.46 454.35 113.76 368.99 334.89 784.93 734.40 450.70 105.84 128.53 238.64 319.92 806.80 361.27 261.39 33.36 419.19 663.86 697.51 95.77 308.53 225.24 604.95 255.30 640.48 657.18 285.86 687.27 334.86 384.66 413.72 224.14 794.57 756.06 280.07 571.68 586.36 766.62 408.03 487.35 219.69 351.04 341.33 251.08 467.91 411.55 380.38 524.27 546.02 356.81 310.98 449.43 450.89 355.46 240.32 145.50 372.07 220.55 98.71 128.78 185.75 521.33 123.35 449.92 340.39 835.07 581.97 791.16
725.82 553.19 249.26 547.61 562.68 387.99 366.87 588.20 172.01 204.57 532.41 421.30 414.25 102.45 65.48 107.80 340.15 131.24 366.83 528.83 264.73 659.38 331.97 613.10 320.46 281.13 256.44 70.97 253.70 254.17 286.10 197.95 182.72 287.31 574.75 100.47 474.72 124.39 213.21 287.42 511.67 293.76 258.65 653.97 205.43 544.38 414.80 144.36 482.07 424.22 572.65 454.98 580.17 640.16 134.39 420.19 308.44 88.30 692.79 558.05 352.65 571.38 265.56 310.28 457.42 520.89 417.40 19.66 615.58 611.96 176.67 386.61 425.65 102.33 499.43 252.73 153.78 59.24 498.98 220.71 353.34 227.75 232.38 318.60 523.61 357.39 507.09 368.53 276.88 542.04 559.11 470.60 564.26 122.24 115.39 576.17 242.38 460.86 74.20 123.78 422.82 532.00 221.67 220.39 568.40 526.02 387.34 148.66 437.49 278.30 569.66 309.92 169.93 330.13 559.24 478.46 531.91 218.18 127.03 221.94 110.99 288.91 0.00 408.43 281.07 179.42 431.20 371.68 95.17 498.22 531.71 612.46 154.63 415.91 241.32 307.12 216.51 459.99 578.24 522.07 255.08 302.81 169.88 358.21 538.83 598.86 125.35 83.70 309.56 589.61 457.24 560.69 358.82 138.13 332.65 518.27 480.19 447.76 593.31 293.15 473.32 524.52 140.13 613.05 462.79 604.00 639.90 86.19 366.40 408.81 535.84 480.42 559.98 363.78 180.64 419.40 232.64 227.59 548.65 158.28 285.40 310.10 108.47 533.04 376.48 660.17 138.01 219.99 160.31 126.09 413.91 239.69 163.01 103.16 460.72 313.01 193.50 109.61 650.25 495.95 560.38
783.64 642.38 657.69 780.06 738.32 642.43 766.60 957.92 566.82 613.00 561.21 112.48 459.39 501.13 428.28 516.23 124.56 388.02 223.97 695.39 447.30 297.90 650.73 294.93 297.89 227.55 363.04 479.40 224.44 544.36 616.92 550.71 571.88 435.53 779.80 366.77 825.19 532.82 311.50 302.44 744.19 621.10 222.11 279.98 263.49 439.43 94.69 552.79 392.25 444.70 843.25 655.64 663.71 263.70 536.08 408.73 492.94 496.73 365.73 965.43 453.85 730.67 336.92 668.21 160.86 892.22 631.32 428.09 735.49 813.66 561.27 253.53 788.22 493.92 116.05 216.19 533.93 467.67 488.35 629.14 499.93 180.68 588.87 682.08 899.21 602.54 417.27 569.43 609.96 860.48 819.20 713.38 775.66 466.89 473.32 613.69 615.91 672.57 384.16 532.21 335.55 792.45 611.92 615.06 828.49 753.69 776.18 524.26 370.62 334.35 962.17 496.58 564.81 681.61 740.48 653.31 878.43 615.26 483.23 605.56 519.42 321.39 408.43 0.00 247.41 533.89 587.06 768.76 478.09 729.93 667.67 797.24 545.70 720.49 590.43 278.83 596.69 656.28 806.03 813.83 646.15 427.23 371.37 153.95 596.91 804.52 533.78 463.36 327.12 620.30 854.32 963.80 345.00 545.18 135.24 879.45 401.82 802.78 439.48 165.79 836.08 288.86 548.56 624.65 450.00 783.85 991.76 482.04 702.49 763.28 795.93 136.34 176.60 541.08 578.75 141.96 528.31 573.04 213.53 430.85 637.95 675.73 500.67 519.31 262.58 649.54 546.44 513.86 330.70 534.52 212.98 279.87 345.30 341.54 299.42 310.72 519.83 518.04 766.51 398.12 820.47
673.25 682.22 481.93 761.86 750.50 511.47 598.23 770.07 386.26 439.02 714.19 308.83 338.85 311.05 270.09 347.43 179.13 197.49 114.46 665.24 278.93 478.26 454.97 500.63 99.38 168.10 174.71 310.60 60.06 356.51 502.97 376.54 381.80 408.80 794.73 180.60 656.82 357.06 119.08 172.96 714.04 492.70 53.74 500.19 75.64 514.08 206.11 383.84 464.38 478.93 778.52 669.23 730.50 409.49 348.64 299.30 331.88 302.55 546.09 764.94 312.78 564.83 169.14 476.66 326.35 718.05 474.79 286.06 510.01 796.44 410.01 144.10 614.05 338.67 316.33 59.66 368.03 265.36 381.45 459.62 557.04 66.73 454.95 553.68 725.04 592.63 489.40 603.94 478.10 757.46 761.26 545.01 691.68 362.67 285.47 501.38 459.44 673.39 206.87 367.20 210.10 728.72 449.21 445.96 759.68 724.49 607.46 336.41 284.83 169.97 784.22 353.82 384.18 496.62 796.51 492.56 690.58 436.69 276.70 436.84 370.44 180.35 281.07 247.41 0.00 411.17 424.54 590.19 288.01 730.16 499.05 809.18 389.33 552.12 457.00 139.68 429.82 493.76 762.72 736.32 489.78 277.08 183.26 184.48 457.47 799.08 339.60 273.28 170.91 469.93 674.63 793.19 196.28 359.01 231.14 694.88 276.37 628.61 565.82 214.32 687.57 340.74 373.00 494.83 312.85 796.23 744.35 291.96 580.65 629.77 746.02 249.75 337.56 400.04 401.52 253.38 335.89 438.84 362.47 361.02 511.71 524.35 355.63 393.86 315.43 542.64 388.59 325.75 130.25 340.34 212.16 118.25 176.93 184.57 405.39 160.35 445.58 323.86 842.48 466.03 770.56
784.62 534.64 129.28 454.24 528.99 387.31 278.09 478.32 93.30 120.47 559.12 564.81 526.18 140.84 208.99 122.79 469.27 260.88 491.92 448.79 345.94 787.23 298.84 756.61 472.03 429.78 372.42 159.62 395.03 295.68 204.50 201.79 96.02 321.82 506.81 234.52 395.44 73.68 369.88 457.05 463.42 170.39 392.70 789.24 339.48 504.15 580.72 46.90 573.97 458.73 514.86 403.41 528.64 749.34 93.46 556.71 369.31 125.89 776.20 501.50 441.30 543.10 402.04 277.15 577.88 400.91 444.33 178.07 676.45 523.54 32.30 517.53 320.10 189.42 605.38 386.78 60.41 171.17 602.01 103.87 334.79 407.17 54.98 231.37 402.89 271.16 548.95 334.84 168.68 429.13 510.68 522.33 466.16 199.02 198.31 654.16 82.02 423.24 250.19 86.66 558.25 499.53 97.64 81.60 520.15 489.34 252.79 163.65 556.63 422.31 438.88 398.57 91.29 337.64 533.26 538.93 434.95 81.37 223.96 110.01 68.43 399.28 179.42 533.89 411.17 0.00 492.07 234.87 128.19 505.41 572.05 538.35 79.57 337.42 101.14 477.53 154.61 522.33 489.82 419.61 114.92 372.92 306.52 529.62 563.10 513.59 130.09 137.89 421.49 666.50 320.43 429.91 466.19 109.06 484.05 431.57 616.71 371.88 591.13 452.80 359.86 679.70 90.83 656.90 571.53 524.96 519.92 119.21 272.04 229.39 504.29 652.52 665.93 447.10 96.29 597.32 296.02 162.53 700.05 162.98 170.25 215.60 165.21 642.13 478.50 736.44 62.13 280.86 330.24 105.05 551.12 393.62 299.49 259.71 546.30 492.43 171.74 121.66 571.21 556.27 508.53
312.72 832.41 522.15 911.83 919.91 304.88 676.63 611.83 548.18 466.27 913.58 625.89 236.06 413.38 473.77 369.28 504.05 398.97 428.12 866.72 243.70 863.97 354.46 817.69 402.34 538.15 280.83 406.11 367.88 268.99 651.07 365.55 468.65 650.10 964.28 424.70 569.04 481.82 334.44 326.17 897.73 654.56 370.80 858.56 370.38 849.63 538.82 497.52 831.22 735.31 964.53 841.04 917.22 726.12 520.45 323.73 194.04 474.36 818.57 651.27 133.21 213.35 255.40 376.15 677.74 606.29 188.20 411.54 206.46 934.10 506.71 416.05 598.49 517.30 697.40 376.13 518.00 409.26 236.77 481.27 704.91 453.87 512.36 679.43 636.53 745.57 820.82 768.50 640.60 903.54 945.17 252.76 915.38 553.44 355.91 226.25 503.20 817.83 412.15 464.11 398.88 919.71 504.24 507.04 954.46 877.14 666.03 398.48 303.59 275.67 705.01 175.94 522.94 336.62 946.70 116.16 599.26 504.20 367.05 495.41 477.73 265.67 431.20 587.06 424.54 492.07 0.00 657.70 420.01 919.25 113.40 959.41 443.28 355.96 585.31 379.43 448.73 69.22 900.38 878.29 534.35 221.20 353.70 498.14 126.60 956.43 511.41 429.71 299.03 194.80 719.01 713.98 342.67 432.10 490.91 541.90 363.63 525.89 875.25 507.04 813.48 552.88 515.62 187.71 294.44 946.02 707.99 411.03 719.41 667.80 921.90 640.78 694.69 104.72 472.24 570.17 234.22 604.10 525.50 553.79 627.63 696.16 502.15 323.06 701.59 294.76 466.08 211.21 307.06 503.33 477.88 334.55 357.95 381.27 775.44 341.37 550.47 495.67 992.27 820.54 946.44
961.88 604.51 179.10 437.52 533.26 442.40 51.71 382.46 275.00 236.01 587.52 758.34 663.70 312.38 402.52 329.32 662.13 452.98 688.32 481.82 501.45 976.92 352.50 950.14 657.44 604.28 559.86 326.17 582.47 442.89 310.49 312.95 259.91 503.52 560.19 421.96 287.13 276.11 537.25 616.15 496.48 223.85 580.14 991.01 526.92 667.25 763.76 276.65 762.88 609.88 465.44 506.84 612.11 928.36 290.14 756.08 507.99 330.61 1005.95 365.20 565.24 651.26 592.54 330.81 764.91 271.72 518.76 371.47 796.44 493.53 255.16 696.55 264.41 401.32 836.47 574.22 282.53 371.41 742.64 176.43 453.79 599.43 195.61 238.37 225.55 358.31 745.63 421.99 259.07 489.66 465.85 602.59 468.66 420.38 358.47 805.39 177.05 504.54 411.18 265.68 737.27 505.70 192.50 189.76 438.59 506.90 56.08 336.87 729.36 604.16 285.92 565.12 280.44 425.29 598.87 555.52 302.97 153.50 393.54 204.87 270.83 578.30 371.68 768.76 590.19 234.87 657.70 0.00 315.63 558.87 685.47 550.61 244.60 389.82 278.97 664.97 260.77 649.37 508.47 395.33 144.15 536.81 473.07 723.15 742.12 557.89 326.77 316.91 611.66 836.84 126.75 276.95 674.07 280.60 668.22 383.80 795.66 276.87 748.95 630.13 320.10 853.90 260.16 777.14 752.31 537.22 342.71 306.65 239.69 79.48 471.15 793.15 880.96 575.53 261.86 784.31 450.33 340.36 871.06 393.23 208.62 260.14 355.68 808.68 663.19 895.28 233.67 467.29 501.78 314.13 738.56 560.48 489.99 438.73 765.01 673.39 349.20 311.26 560.34 725.16 450.21
656.43 552.12 194.78 498.30 551.94 369.59 312.39 546.77 137.36 170.92 509.93 505.93 435.87 47.04 150.11 75.99 359.95 140.70 388.36 459.86 237.31 712.90 310.82 697.73 361.80 376.30 244.23 52.57 284.80 226.45 256.35 178.00 123.25 296.24 591.55 124.29 447.04 69.91 263.65 352.92 489.19 252.51 282.47 715.43 229.25 522.60 454.93 96.69 537.92 400.68 561.22 432.50 572.70 626.18 111.91 458.27 287.55 65.82 752.34 530.37 334.25 524.53 298.95 289.13 449.69 466.41 370.21 75.51 594.69 595.38 129.00 394.37 378.44 111.26 531.57 276.55 104.47 86.48 486.77 185.06 362.64 297.41 183.17 289.09 441.59 355.90 539.51 365.61 249.97 494.08 536.63 470.36 517.75 144.52 104.51 557.77 192.44 433.83 123.20 96.85 490.49 554.79 189.27 187.41 545.92 509.17 347.70 98.27 452.42 315.95 537.25 291.52 135.35 311.73 610.29 438.89 493.29 162.13 118.77 178.29 83.31 276.12 95.17 478.09 288.01 128.19 420.01 315.63 0.00 539.10 507.12 595.21 106.35 383.51 183.26 367.30 178.31 453.10 577.36 458.28 206.80 286.09 199.47 433.43 472.28 571.46 102.87 14.73 309.48 575.68 401.19 539.99 371.89 113.44 355.86 458.80 518.27 415.36 583.41 342.15 411.15 569.47 112.73 566.08 462.24 592.13 585.42 8.98 331.82 346.79 513.36 537.76 592.12 376.29 133.42 471.95 185.79 202.05 571.86 143.79 248.15 287.62 125.38 528.36 461.11 642.64 105.61 219.75 210.76 103.61 440.89 280.97 196.40 136.55 462.83 399.47 173.80 87.13 609.47 496.20 537.90
1195.53 87.55 575.77 164.03 94.94 846.09 532.32 862.47 490.31 599.93 168.72 695.77 902.89 553.47 527.94 578.36 776.84 602.74 798.56 136.35 753.37 791.48 778.30 759.68 787.07 642.89 751.73 558.16 710.07 728.74 380.64 654.89 601.43 402.19 76.53 595.76 782.46 521.20 699.58 785.64 87.55 335.02 707.74 724.47 654.52 383.54 773.59 520.72 414.97 394.28 211.45 233.27 81.95 948.67 472.86 918.41 796.49 473.28 846.00 872.12 839.84 986.52 750.56 756.61 588.86 825.20 876.64 507.71 1103.63 185.61 518.67 840.45 668.13 459.36 773.90 701.82 480.13 547.88 994.27 564.03 283.95 703.04 508.08 377.01 779.12 279.81 439.99 282.20 370.24 285.28 183.71 958.65 132.19 507.08 610.94 986.11 552.76 179.06 572.42 524.42 921.04 132.82 581.16 551.60 191.06 113.47 614.95 617.27 887.70 732.87 731.53 797.11 494.98 817.32 85.41 966.51 782.98 550.19 615.67 568.79 534.60 759.23 498.22 729.93 730.16 505.41 919.25 558.87 539.10 0.00 1018.84 127.49 555.27 808.16 404.27 792.57 632.77 948.04 162.65 256.95 585.66 787.81 668.10 784.35 990.16 153.57 436.23 536.11 779.87 1017.56 651.56 722.56 842.28 571.16 706.78 792.14 961.49 745.90 421.49 704.65 428.05 941.75 502.84 1031.82 954.88 140.88 867.52 545.67 423.64 609.50 183.52 807.62 815.12 852.42 581.18 820.86 722.48 446.15 922.78 471.04 392.81 345.84 417.10 1004.54 563.92 1117.52 550.81 708.04 658.53 491.68 841.68 673.99 648.01 588.16 497.03 811.23 446.42 482.55 161.92 501.89 179.44
390.14 945.81 586.78 948.57 1007.21 384.86 737.18 676.93 549.10 511.34 1013.42 731.72 349.46 489.12 558.66 482.68 581.69 483.86 517.67 935.31 273.30 911.86 376.35 890.89 485.01 651.55 394.23 469.73 478.96 298.37 695.97 476.99 498.03 727.78 1014.26 493.26 588.33 541.43 447.84 403.81 970.87 704.39 476.63 931.76 423.41 937.57 631.50 568.21 880.94 771.61 1022.31 894.88 984.44 836.70 559.40 361.48 307.44 569.31 931.97 660.70 246.61 222.78 368.80 354.66 775.26 630.81 281.37 512.05 199.14 1033.88 539.75 456.38 586.57 604.41 783.72 470.71 554.74 478.79 235.32 577.41 816.18 564.95 603.19 730.89 639.03 778.61 905.96 813.06 677.49 936.58 1030.51 224.67 974.97 636.20 437.15 267.81 559.76 894.32 466.99 555.22 443.45 1012.01 554.85 564.14 1019.10 988.41 713.10 473.41 353.05 389.07 746.61 230.78 523.86 346.24 1060.10 140.68 602.74 590.07 456.57 542.48 554.83 379.07 531.71 667.67 499.05 572.05 113.40 685.47 507.12 1018.84 0.00 1041.95 535.63 421.06 635.14 465.41 480.49 71.72 1013.78 942.63 592.66 316.91 430.77 555.96 205.38 1018.91 591.66 511.60 412.43 236.36 734.80 755.58 456.07 543.75 532.43 616.26 392.90 528.39 960.14 604.56 853.92 642.00 560.18 168.62 303.92 1039.58 737.52 498.14 720.33 736.50 1009.92 714.68 802.49 218.12 528.65 648.52 345.49 670.11 636.08 645.60 692.78 730.66 602.66 321.61 731.99 218.42 546.40 324.61 420.46 575.75 553.63 433.25 420.64 480.49 847.03 454.77 645.52 583.69 1084.35 886.89 1009.78
1251.64 154.86 544.37 179.41 95.61 860.37 562.70 903.04 523.25 615.90 236.03 763.08 946.81 598.38 570.49 613.23 731.09 638.45 886.21 170.70 817.73 881.59 760.41 855.45 829.34 666.38 799.46 624.68 772.39 794.63 406.22 659.73 634.37 481.58 54.96 656.02 793.96 547.71 715.36 866.45 135.87 409.60 778.71 814.58 760.98 473.65 750.97 539.37 505.08 461.59 123.91 249.16 172.06 1012.67 514.79 984.34 859.75 539.80 919.28 905.08 906.36 1021.68 794.40 738.72 656.17 816.00 892.61 592.80 1143.22 92.75 507.37 895.49 738.74 534.08 826.11 773.20 515.23 640.82 1029.49 567.94 334.00 765.30 554.93 396.93 776.16 290.61 530.10 289.76 400.87 199.96 97.47 958.27 117.50 507.05 655.85 1113.60 533.62 191.64 649.62 574.65 975.43 80.46 576.08 566.45 112.02 109.95 593.66 654.09 962.42 797.27 721.39 863.63 518.09 831.90 95.29 996.87 840.55 563.93 667.32 584.76 557.78 807.96 612.46 797.24 809.18 538.35 959.41 550.61 595.21 127.49 1041.95 0.00 587.02 789.02 437.21 854.89 642.03 1021.28 59.03 226.96 548.81 813.78 700.28 862.72 1051.09 26.08 502.75 602.63 826.64 1095.89 628.62 712.42 889.05 608.08 825.57 850.19 1004.04 734.02 494.99 728.14 379.59 945.14 484.81 1098.34 1008.64 13.39 844.58 589.40 321.62 617.06 120.74 852.93 886.66 926.53 632.65 798.24 752.87 451.51 974.39 471.01 439.66 335.10 519.58 1040.25 623.04 1190.68 570.19 771.30 744.94 538.78 901.63 741.30 710.21 689.67 615.41 865.62 459.00 535.91 54.07 506.92 123.64
737.90 526.22 120.18 488.66 550.39 361.46 263.62 459.27 120.39 83.13 542.63 547.47 516.29 101.51 191.65 125.68 461.27 240.90 466.21 507.55 311.16 785.55 261.50 739.27 438.04 410.43 344.64 132.99 352.39 237.26 264.30 146.48 67.17 315.16 554.16 212.68 368.56 44.01 322.98 413.48 510.77 230.19 358.71 780.14 317.64 532.49 561.28 54.24 586.67 452.07 562.21 428.49 555.73 727.50 121.80 537.36 320.52 98.52 783.54 496.14 414.67 527.81 394.14 239.81 556.04 391.81 403.63 148.72 627.66 577.39 79.65 495.69 310.44 176.15 625.60 360.64 94.83 171.03 587.18 108.06 390.66 382.38 77.75 241.89 408.40 318.51 577.29 356.24 228.48 468.18 560.37 482.68 525.96 216.50 148.32 614.83 87.75 437.50 227.91 30.85 502.44 559.33 106.46 98.84 559.19 536.69 241.35 104.00 526.55 377.15 442.61 371.94 125.71 308.79 611.07 483.62 425.29 102.97 148.94 113.13 49.08 350.25 154.63 545.70 389.33 79.57 443.28 244.60 106.35 555.27 535.63 587.02 0.00 300.70 160.94 434.89 103.95 463.91 569.39 464.38 100.45 344.07 279.89 512.28 507.29 560.94 119.04 116.05 383.61 610.69 342.03 433.64 446.02 41.72 462.21 393.17 568.71 332.55 618.97 446.86 379.58 645.71 103.36 601.09 523.01 581.61 510.82 97.37 294.69 258.15 537.10 593.13 662.43 413.25 45.63 554.68 248.26 210.01 677.88 223.98 193.02 270.56 154.16 609.85 459.40 697.11 22.80 232.07 290.91 92.12 517.13 358.34 291.59 237.87 563.78 467.64 220.45 110.87 626.38 528.90 549.87
630.62 792.16 256.77 723.53 775.69 92.49 338.11 255.87 362.59 269.69 818.96 753.47 485.79 348.99 446.75 320.39 635.60 482.71 606.56 696.19 273.19 968.98 101.73 945.27 577.71 657.11 435.99 347.72 504.70 301.19 503.69 242.44 300.11 591.11 803.19 478.57 213.08 320.34 491.38 516.26 735.52 473.14 498.38 986.14 514.99 787.59 707.71 323.93 844.65 728.02 785.68 702.60 797.93 948.18 376.90 543.44 291.67 374.85 1024.39 300.85 438.58 357.85 424.29 123.42 815.36 264.17 167.76 415.70 504.42 820.61 328.68 575.85 242.53 411.07 831.60 504.30 329.70 392.96 506.77 250.32 592.31 555.74 306.27 446.06 310.34 567.54 819.63 613.00 457.83 725.51 800.46 252.68 725.04 459.95 318.31 544.14 255.40 680.85 469.12 309.91 540.70 762.08 273.29 276.09 794.06 756.94 423.61 305.09 500.71 427.80 387.17 395.85 360.58 98.10 855.25 315.92 243.30 273.25 332.36 275.66 315.06 439.46 415.91 720.49 552.12 337.42 355.96 389.82 383.51 808.16 421.06 789.02 300.70 0.00 420.22 551.05 211.68 349.34 788.94 707.04 287.66 333.62 436.75 625.63 482.56 796.30 392.48 386.76 470.65 512.69 431.38 396.14 484.38 312.51 662.53 198.12 583.25 273.02 854.37 658.96 566.79 740.90 360.12 510.68 520.50 775.63 378.94 374.53 479.52 415.29 777.19 801.87 863.58 384.39 270.00 706.99 274.57 459.04 778.09 423.91 415.35 519.59 427.60 593.06 747.79 612.65 277.90 308.53 447.78 371.18 637.24 485.71 451.80 466.11 807.23 529.39 453.09 376.85 821.88 805.23 784.74
839.69 433.50 210.78 366.58 429.62 442.54 227.26 544.35 86.04 218.29 457.98 616.05 599.10 204.07 260.23 223.93 465.87 319.81 540.40 347.65 402.61 807.27 396.66 777.89 523.86 450.45 427.49 217.87 446.86 396.34 103.36 291.38 197.16 290.49 448.28 289.59 461.47 116.93 400.47 447.88 372.75 69.25 444.53 797.47 391.31 529.51 513.64 143.71 542.74 427.40 434.24 302.27 456.86 775.34 137.44 587.81 452.85 154.45 868.97 577.39 499.55 644.24 474.90 374.97 544.06 482.41 527.24 234.62 759.99 456.28 130.78 572.60 418.58 191.65 694.18 438.61 107.90 244.47 670.03 169.90 233.65 453.75 156.12 130.23 504.03 212.63 528.60 248.44 67.54 412.80 429.54 565.58 365.02 195.62 261.54 723.07 177.28 325.59 306.46 143.87 585.45 398.39 185.97 182.74 437.11 398.67 327.36 233.96 604.12 476.67 506.40 456.82 111.28 435.82 488.85 604.19 518.66 146.97 283.46 198.34 130.33 454.35 241.32 590.43 457.00 101.14 585.31 278.97 183.26 404.27 635.14 437.21 160.94 420.22 0.00 509.48 248.17 622.99 436.06 318.47 202.32 451.39 364.77 577.42 620.31 444.49 153.97 192.96 483.64 723.71 346.50 515.37 525.88 192.51 499.85 507.02 647.81 469.12 607.41 511.09 321.78 707.81 124.99 714.11 623.25 423.82 562.46 174.28 188.19 304.44 406.27 615.60 703.41 540.75 197.43 560.91 351.09 61.39 715.85 159.58 70.35 114.46 158.94 700.38 452.76 799.67 159.37 382.00 388.99 131.96 602.95 446.21 372.79 314.78 515.24 516.12 70.60 133.14 470.07 532.81 427.79
533.57 738.56 539.22 795.10 785.58 493.96 633.31 806.46 468.16 474.31 796.25 319.20 287.19 392.63 298.43 412.66 208.68 246.08 114.94 713.83 277.86 509.53 464.81 511.00 49.91 269.86 144.11 375.83 82.50 334.99 570.25 431.55 463.38 432.79 829.95 243.01 669.78 429.11 186.06 61.60 762.63 527.78 88.82 534.20 138.05 607.18 236.63 451.48 566.14 501.37 811.97 732.24 773.32 446.88 430.54 201.53 285.31 384.45 493.94 816.11 246.22 523.04 126.76 443.12 420.10 748.62 474.62 326.78 536.66 840.06 483.79 93.25 669.06 348.12 394.88 90.75 449.93 330.72 283.66 525.57 619.45 168.49 512.64 588.76 749.56 639.10 591.16 626.38 563.00 788.55 812.38 527.82 794.10 425.08 347.88 393.43 521.85 687.61 269.28 425.34 162.21 774.43 508.93 506.56 785.12 758.97 674.93 385.43 168.03 134.77 767.24 263.31 466.08 537.60 850.09 424.11 726.97 511.47 307.38 504.31 418.11 113.76 307.12 278.83 139.68 477.53 379.43 664.97 367.30 792.57 465.41 854.89 434.89 551.05 509.48 0.00 460.05 448.65 820.67 777.00 535.34 219.60 229.43 124.88 366.96 854.16 417.21 354.86 80.40 361.98 750.53 776.21 128.61 421.42 202.45 696.06 210.48 638.92 667.58 249.40 769.47 235.37 439.63 454.81 215.06 846.43 818.10 358.32 636.87 693.04 808.02 300.77 388.58 333.45 436.81 228.75 311.17 483.05 297.79 398.04 579.83 601.96 404.10 294.43 417.19 444.85 445.13 277.21 202.21 422.24 106.79 152.12 212.01 233.04 507.15 52.40 487.02 396.22 892.68 563.28 796.74
742.52 621.09 126.95 592.61 597.20 275.47 265.38 427.01 216.02 58.01 618.71 623.79 480.20 137.31 267.97 108.71 472.13 280.53 491.37 555.54 300.57 757.30 175.51 803.58 463.20 446.32 367.16 145.54 377.55 182.12 311.25 126.95 88.43 384.37 633.99 279.24 368.28 139.64 352.29 445.79 572.11 297.75 383.87 844.45 354.18 617.99 604.19 158.19 643.77 521.28 619.44 510.16 643.33 786.53 207.30 558.19 314.36 194.15 825.13 422.76 378.58 432.34 363.66 153.82 628.00 398.58 341.77 228.95 570.58 637.36 164.86 506.30 253.95 199.39 671.40 385.80 198.78 190.78 592.65 99.32 452.03 444.26 124.69 305.78 364.94 398.34 627.44 455.42 283.00 561.69 610.21 435.66 532.60 267.76 144.35 593.28 115.12 529.85 266.94 132.09 568.08 569.64 76.35 83.65 616.25 570.06 234.60 93.41 528.48 343.39 413.76 335.85 196.72 237.24 662.81 443.34 368.80 115.35 171.46 63.98 126.24 368.99 216.51 596.69 429.82 154.61 448.73 260.77 178.31 632.77 480.49 642.03 103.95 211.68 248.17 460.05 0.00 408.77 603.64 512.94 137.67 361.00 292.44 523.56 521.52 615.95 220.28 175.08 397.76 592.21 335.62 422.73 460.17 100.83 522.43 341.12 599.09 331.72 642.69 485.89 416.80 625.74 202.54 615.32 530.84 635.35 441.38 177.31 349.70 258.00 586.94 655.32 663.50 350.31 58.32 579.84 229.24 280.69 688.16 231.72 239.96 348.77 253.71 579.41 557.32 674.47 126.75 239.90 334.96 185.08 497.16 393.89 281.00 296.90 613.45 484.12 302.09 188.03 679.26 624.53 611.48
333.75 879.77 535.72 938.24 959.46 326.33 674.15 605.21 575.42 466.78 947.20 695.11 305.28 422.90 525.47 416.64 573.27 455.10 477.42 885.01 244.54 926.68 341.24 886.91 471.56 607.37 350.05 419.87 437.10 226.65 690.62 405.27 426.31 699.02 993.75 486.12 516.61 506.06 403.66 395.39 926.46 689.63 440.02 927.78 439.60 918.85 599.83 518.15 900.44 781.37 992.97 869.77 964.58 795.34 544.19 374.66 255.62 503.09 887.79 613.46 202.43 175.54 324.62 362.93 746.96 583.98 209.65 440.33 251.41 1003.32 519.24 485.27 534.44 556.85 766.62 445.35 557.57 450.03 248.50 508.09 744.46 510.61 533.46 684.41 567.31 758.10 890.04 789.35 681.07 916.07 968.38 202.21 941.37 569.67 365.43 295.47 522.16 870.61 469.42 483.50 456.63 952.67 485.12 492.42 977.67 916.69 643.37 401.69 366.23 344.89 702.65 233.21 570.30 358.07 994.06 93.85 570.17 524.12 405.91 472.75 496.64 334.89 459.99 656.28 493.76 522.33 69.22 649.37 453.10 948.04 71.72 1021.28 463.91 349.34 622.99 448.65 408.77 0.00 969.60 874.88 546.44 288.92 401.06 547.44 169.84 995.20 539.76 439.88 368.25 264.02 723.29 693.68 411.89 472.03 560.13 547.46 406.08 456.67 931.38 576.26 808.11 582.06 536.47 240.34 317.10 1013.25 665.80 450.58 758.47 666.77 945.11 701.79 763.91 150.78 456.93 590.44 273.77 633.92 594.72 582.58 648.73 710.15 530.94 334.79 759.31 290.14 474.68 258.57 376.28 540.88 523.94 403.77 423.07 450.49 844.66 410.59 619.69 518.88 1053.75 876.67 969.65
1213.10 187.11 532.17 139.65 67.71 843.30 525.46 868.18 496.91 597.14 268.28 768.30 949.37 591.73 560.57 612.61 764.03 619.06 851.99 151.31 799.85 921.82 775.51 895.68 823.82 632.16 784.05 609.53 738.17 782.46 395.60 691.61 585.84 521.81 112.08 646.10 771.43 552.99 705.44 856.53 123.55 375.38 744.49 854.81 748.40 513.88 783.22 536.72 545.31 435.52 64.88 247.16 212.29 990.64 526.30 971.99 838.77 511.54 947.26 846.05 891.21 981.49 784.48 753.82 675.94 780.19 913.69 558.58 1106.84 33.72 522.12 889.97 700.89 568.14 805.04 738.98 518.35 594.36 984.29 545.76 306.10 733.53 544.80 392.56 734.02 297.13 563.51 261.86 368.52 175.10 59.62 990.52 71.04 508.15 649.20 1114.73 556.73 204.52 637.77 570.25 953.74 46.24 568.73 519.99 69.88 100.03 541.80 631.12 938.19 787.35 683.54 848.48 522.15 819.70 135.52 996.05 788.69 556.25 662.15 566.00 552.02 784.93 578.24 806.03 762.72 489.82 900.38 508.47 577.36 162.65 1013.78 59.03 569.39 788.94 436.06 820.67 603.64 969.60 0.00 189.74 567.12 829.89 684.87 849.30 1026.78 66.31 520.05 569.23 818.29 1095.18 569.59 674.57 880.70 582.52 841.15 824.90 994.12 711.49 536.88 691.84 345.37 964.40 502.44 1088.09 949.61 45.64 785.55 585.55 342.70 565.20 64.00 880.15 865.59 871.73 586.11 830.49 742.95 392.48 1005.92 505.07 433.17 355.81 511.60 1020.86 574.22 1145.48 551.95 758.91 731.90 521.91 902.91 756.91 700.29 674.25 647.66 843.93 456.97 490.23 91.89 539.17 78.44
1114.71 268.62 450.27 92.92 197.51 748.05 447.04 731.48 404.51 492.12 334.48 776.69 894.15 505.32 548.66 534.27 725.12 567.85 796.36 191.94 695.59 884.77 670.49 838.49 767.51 663.76 702.51 510.85 694.50 648.23 283.09 561.31 448.57 423.06 241.88 582.57 682.46 420.37 679.79 766.35 169.40 249.22 688.18 858.07 687.53 545.11 810.91 435.19 548.60 470.00 163.18 158.19 329.44 937.87 428.59 901.43 745.83 433.77 948.53 742.98 792.53 893.86 738.94 648.80 690.34 615.69 798.51 516.61 1036.66 191.27 402.88 833.66 646.38 480.08 812.84 694.10 409.57 544.76 945.05 458.13 313.90 719.33 422.28 302.83 580.28 277.09 573.62 264.05 277.74 94.33 162.01 869.02 196.93 435.34 562.79 1016.05 466.96 187.82 570.45 447.31 903.92 159.89 481.10 432.36 136.33 195.32 451.41 537.40 905.79 746.92 561.53 749.80 423.84 690.19 290.50 897.17 670.74 462.28 577.05 478.37 433.77 734.40 522.07 813.83 736.32 419.61 878.29 395.33 458.28 256.95 942.63 226.96 464.38 707.04 318.47 777.00 512.94 874.88 189.74 0.00 450.23 725.47 645.21 810.39 923.75 239.62 396.72 473.01 767.76 1027.15 472.93 552.56 805.20 490.86 808.81 748.29 951.03 672.20 552.36 652.93 171.10 975.18 429.84 992.31 920.52 231.89 688.89 467.26 227.52 474.81 149.25 888.54 873.39 834.57 454.62 858.18 644.07 350.63 970.90 456.85 307.01 211.97 431.84 969.65 588.62 1100.92 443.93 678.03 669.04 442.55 846.60 723.33 636.39 594.83 575.84 828.48 367.87 434.05 259.44 585.28 124.71
823.75 569.66 34.95 501.84 570.81 356.86 163.17 393.62 198.66 97.88 615.20 647.92 531.20 201.96 292.10 205.69 555.37 341.35 566.66 474.37 390.99 844.42 259.69 839.72 538.49 491.67 445.09 209.00 452.84 319.79 284.86 168.80 134.60 415.61 603.77 313.13 333.43 144.46 420.08 513.93 513.02 250.64 459.16 880.59 416.70 609.00 659.34 154.69 667.99 552.52 563.86 483.77 606.88 827.95 198.31 635.00 407.04 198.97 883.99 428.18 467.09 512.26 475.37 238.00 620.76 306.58 395.21 249.17 652.29 600.84 147.22 596.14 244.22 276.60 720.30 461.09 170.62 254.24 630.73 63.82 369.81 482.83 83.70 223.56 352.75 386.08 644.80 416.23 235.33 499.31 577.01 511.70 506.21 285.12 234.65 661.24 32.90 494.35 328.36 131.30 602.89 524.81 75.36 57.26 572.37 535.12 140.90 197.21 618.90 477.60 342.16 443.35 183.52 322.48 634.12 505.94 359.07 55.35 249.39 79.56 149.53 450.70 255.08 646.15 489.78 114.92 534.35 144.15 206.80 585.66 592.66 548.81 100.45 287.66 202.32 535.34 137.67 546.44 567.12 450.23 0.00 400.76 355.90 612.73 607.74 573.80 219.49 216.50 484.06 692.69 241.92 333.19 546.47 142.17 560.27 368.23 669.16 321.99 650.80 536.34 279.13 709.75 168.33 701.54 614.08 553.13 425.59 197.82 227.19 164.30 554.69 681.24 762.88 431.38 135.38 655.13 306.18 254.30 753.89 249.08 192.85 301.10 238.57 686.91 519.04 751.13 123.25 323.14 391.36 192.57 617.58 438.34 372.82 330.78 632.40 558.72 266.59 208.27 599.38 629.35 560.80
533.92 763.50 365.81 753.22 776.00 359.05 514.70 589.49 367.92 345.02 796.02 499.58 202.25 288.08 286.70 283.58 354.87 211.90 315.94 679.65 60.43 710.51 259.20 676.05 255.90 389.88 102.37 285.05 248.94 192.36 510.78 289.48 276.90 463.03 820.37 242.92 503.85 347.90 198.44 182.64 728.45 509.59 244.49 707.21 210.55 700.62 411.91 371.64 686.01 541.02 786.86 687.71 798.70 614.56 358.95 306.05 65.71 351.91 713.54 617.42 129.27 305.61 153.90 280.89 562.40 582.69 287.10 321.46 372.85 814.95 376.84 277.91 526.99 355.28 543.28 241.94 359.39 254.82 340.85 367.28 584.99 306.57 392.65 539.08 618.77 611.22 660.99 581.85 486.28 772.07 787.27 326.51 759.92 424.99 230.61 352.79 383.08 663.11 242.27 348.68 320.21 794.19 344.31 373.57 760.01 740.40 502.56 267.59 282.14 145.67 636.10 86.54 365.29 331.99 849.18 251.44 561.04 383.31 228.95 331.94 360.21 105.84 302.81 427.23 277.08 372.92 221.20 536.81 286.09 787.81 316.91 813.78 344.07 333.62 451.39 219.60 361.00 288.92 829.89 725.47 400.76 0.00 201.55 344.48 265.10 787.70 383.03 295.79 139.20 368.50 603.58 645.07 201.61 302.93 331.08 499.11 359.69 534.64 688.18 391.70 658.70 440.70 328.97 358.90 272.25 808.37 685.43 277.11 561.76 525.96 776.09 513.87 593.19 138.14 307.52 447.17 145.24 438.93 517.39 409.21 474.24 552.05 370.71 330.10 555.27 382.65 349.86 142.30 191.26 381.54 326.39 185.54 219.77 199.65 626.99 229.19 396.15 349.86 853.14 633.47 771.63
648.32 590.46 337.52 669.24 667.50 355.30 492.00 671.09 320.25 320.11 671.63 408.34 339.86 178.38 189.42 183.73 286.48 141.21 260.75 608.96 163.56 628.30 339.50 600.14 232.58 292.21 99.18 146.90 146.93 200.27 429.12 264.01 273.47 392.34 645.32 121.95 535.06 261.28 64.18 205.33 601.93 402.69 153.25 641.01 112.19 630.73 361.56 285.49 580.28 529.25 653.37 558.20 675.27 583.76 269.71 313.22 199.49 258.18 674.78 681.39 242.72 491.74 143.22 317.81 464.04 605.52 339.90 174.87 501.38 718.59 317.80 282.11 501.52 210.24 486.47 155.18 287.36 161.99 341.72 296.64 475.88 229.17 339.91 443.61 612.51 409.67 605.30 473.35 367.47 685.32 657.52 393.10 613.83 265.26 167.62 451.18 330.96 561.75 95.68 268.78 342.90 650.87 319.61 298.64 675.36 627.85 480.48 218.56 304.83 146.09 636.29 199.99 305.25 403.36 702.23 391.79 592.25 319.57 219.44 309.86 252.12 128.53 169.88 371.37 183.26 306.52 353.70 473.07 199.47 668.10 430.77 700.28 279.89 436.75 364.77 229.43 292.44 401.06 684.87 645.21 355.90 201.55 0.00 328.04 403.17 721.23 268.83 205.68 161.89 419.73 558.63 645.26 224.30 240.10 262.49 579.41 333.34 516.08 617.49 293.34 608.64 440.25 291.95 496.97 352.67 713.67 627.53 190.49 476.49 503.88 642.80 424.02 511.83 259.59 282.61 349.22 176.45 376.20 446.65 273.31 414.58 433.24 257.08 392.45 431.33 502.91 257.09 142.49 105.52 278.71 311.67 115.65 49.70 86.02 513.36 249.54 346.12 266.20 754.35 562.78 667.34
629.69 772.37 603.65 820.00 808.87 616.06 722.69 881.50 530.22 548.76 715.16 194.32 305.44 431.63 320.63 414.85 146.31 344.69 70.02 750.84 352.44 432.40 589.69 386.12 143.94 219.22 268.99 413.03 181.11 459.87 632.32 490.27 519.26 436.83 853.24 325.12 781.28 482.60 268.17 186.48 792.02 612.77 178.20 426.99 220.16 565.20 111.75 482.72 521.42 465.64 853.84 652.20 789.21 338.18 492.60 254.78 405.11 446.51 446.18 916.26 364.93 604.24 251.64 568.00 314.81 827.38 587.99 377.87 613.21 865.64 515.03 99.58 727.78 389.21 270.00 172.86 511.99 367.79 364.75 562.77 615.98 251.21 556.40 673.75 822.45 672.13 538.07 685.48 618.98 870.66 854.00 618.52 804.34 468.46 429.99 484.67 592.12 712.51 349.68 481.99 181.60 805.14 553.35 564.77 862.32 766.10 711.60 455.71 248.24 259.65 874.28 356.91 528.14 600.35 848.41 548.99 835.10 569.65 432.26 540.98 469.20 238.64 358.21 153.95 184.48 529.62 498.14 723.15 433.43 784.35 555.96 862.72 512.28 625.63 577.42 124.88 523.56 547.44 849.30 810.39 612.73 344.48 328.04 0.00 442.96 870.00 472.57 428.88 205.28 466.35 787.91 883.25 191.05 496.34 77.57 820.94 247.87 742.34 583.37 157.46 827.75 177.93 498.34 536.76 307.99 849.33 928.83 440.43 694.16 735.00 851.38 178.44 266.25 432.19 535.42 103.87 436.05 561.07 198.01 452.28 629.62 657.32 441.95 365.36 388.40 506.88 489.48 402.09 233.98 484.30 59.03 222.84 289.80 307.06 395.17 156.77 528.85 464.29 872.74 503.66 850.70
284.14 959.01 620.73 948.38 987.17 431.48 709.74 738.43 579.76 579.53 982.21 637.28 175.68 495.32 486.33 495.88 502.23 477.00 421.63 902.68 325.53 857.87 423.86 823.41 395.85 537.24 367.47 467.86 408.09 339.40 723.60 492.15 539.06 728.13 1026.45 491.96 686.45 503.38 338.99 338.92 951.48 689.56 414.41 864.28 387.00 883.22 545.13 520.73 851.58 806.12 1010.64 887.86 1015.10 673.25 572.40 206.60 307.74 538.10 820.70 759.47 243.67 339.95 332.92 445.55 713.55 727.54 314.80 521.59 170.25 1043.88 553.04 361.80 704.28 554.91 681.40 416.34 554.55 507.44 157.71 593.98 817.93 453.93 585.04 722.56 737.15 790.80 857.59 819.16 687.85 927.55 986.05 292.26 982.64 587.34 478.18 134.85 595.04 898.87 498.85 476.44 308.46 998.19 592.11 573.05 995.34 944.40 696.84 514.44 254.37 340.93 814.20 286.40 575.72 463.22 1053.18 242.76 670.33 588.62 493.65 585.50 494.67 319.92 538.83 596.91 457.47 563.10 126.60 742.12 472.28 990.16 205.38 1051.09 507.29 482.56 620.31 366.96 521.52 169.84 1026.78 923.75 607.74 265.10 403.17 442.96 0.00 1025.01 557.43 457.55 286.56 103.40 797.86 823.17 348.97 525.08 478.44 663.77 266.60 626.51 934.09 568.15 883.43 436.62 566.28 93.80 226.31 1039.06 805.97 476.23 772.19 720.24 962.78 597.07 684.88 202.90 552.92 546.83 360.82 669.30 481.20 616.07 690.66 734.77 573.06 232.98 702.63 203.36 508.45 337.81 391.89 537.71 459.05 390.46 410.28 464.75 774.53 334.88 646.08 536.55 1081.46 835.17 987.32
1227.89 162.14 570.45 185.84 102.89 859.47 571.65 925.64 497.68 613.31 243.31 770.36 972.89 572.30 569.33 587.15 757.17 637.29 874.96 169.54 791.65 855.51 767.69 829.37 853.89 665.65 810.83 598.60 771.66 768.55 390.89 674.73 609.61 455.50 81.04 654.86 820.04 521.63 714.20 865.29 134.71 408.87 777.98 788.50 759.82 447.57 758.25 513.29 479.00 452.64 131.19 223.08 145.98 1016.83 488.71 986.24 833.67 513.72 910.03 912.36 880.28 1017.85 793.24 746.00 663.45 829.61 895.47 584.11 1140.81 82.34 481.29 915.04 746.02 556.48 840.22 772.47 489.15 623.23 1030.48 575.22 341.28 767.02 551.68 423.01 783.44 316.69 504.02 293.05 404.88 207.24 104.75 965.55 107.40 533.13 629.77 1103.80 540.90 216.19 650.40 548.57 982.71 79.73 583.36 556.35 119.30 108.79 608.11 628.01 973.37 796.11 710.10 837.55 495.05 826.32 69.21 993.23 853.97 571.21 660.98 582.17 535.03 806.80 598.86 804.52 799.08 513.59 956.43 557.89 571.46 153.57 1018.91 26.08 560.94 796.30 444.49 854.16 615.95 995.20 66.31 239.62 573.80 787.70 721.23 870.00 1025.01 0.00 476.67 576.55 835.99 1121.97 635.90 701.13 885.15 582.00 834.19 870.03 1002.88 760.10 485.52 717.82 378.86 952.42 458.73 1072.26 1015.92 20.67 851.86 563.32 347.70 631.51 128.02 860.21 879.15 913.49 606.57 805.52 740.13 458.79 981.67 497.09 446.94 361.18 493.50 1039.09 621.88 1167.90 544.11 745.22 738.77 512.70 908.91 748.58 709.05 664.56 616.25 872.90 482.97 509.83 65.44 514.20 124.63
759.30 479.84 216.43 452.44 511.73 438.95 334.04 536.95 78.72 192.92 475.00 507.76 505.23 117.24 151.94 142.13 411.23 171.13 416.58 419.35 340.18 740.17 358.45 693.89 412.01 371.49 347.10 121.93 334.71 313.11 175.06 229.49 186.21 255.54 503.18 200.00 460.34 91.56 283.07 412.77 443.04 186.75 332.68 734.76 304.49 447.32 517.27 108.68 517.14 392.45 505.94 369.73 514.06 711.33 36.63 519.72 388.65 37.05 779.25 552.02 403.61 550.29 354.93 336.76 530.21 488.06 440.41 119.89 695.79 526.57 139.30 457.70 396.93 83.36 562.00 334.42 83.99 165.29 589.64 200.11 279.99 353.10 170.91 227.67 500.18 282.92 492.12 319.49 151.53 491.05 495.82 540.21 449.01 132.04 174.71 627.13 206.79 373.34 173.73 88.19 544.00 486.05 198.24 177.76 491.76 468.96 360.39 181.04 511.70 350.20 527.92 360.88 71.42 381.09 521.64 541.76 511.78 180.96 199.26 210.61 104.96 361.27 125.35 533.78 339.60 130.09 511.41 326.77 102.87 436.23 591.66 502.75 119.04 392.48 153.97 417.21 220.28 539.76 520.05 396.72 219.49 383.03 268.83 472.57 557.43 476.67 0.00 99.88 394.63 658.58 420.02 536.89 408.48 134.93 435.67 512.21 579.72 424.33 534.30 391.59 375.56 579.19 66.61 595.59 565.11 497.34 607.07 111.85 245.72 351.31 472.55 589.35 601.97 461.66 164.67 510.59 288.66 154.24 651.67 104.94 211.88 184.75 35.12 572.93 428.49 712.84 114.58 300.20 280.39 56.52 487.58 328.81 252.38 206.18 479.32 438.36 105.98 46.32 542.11 467.43 480.14
671.16 564.35 209.51 513.03 548.65 375.80 327.12 532.04 148.60 176.64 524.66 505.00 426.76 37.77 149.18 79.05 345.22 155.43 386.18 445.13 247.01 727.63 311.82 696.80 358.01 363.03 258.96 58.78 272.36 213.23 266.05 189.10 108.52 309.93 583.42 133.99 460.89 84.64 248.93 338.19 493.93 249.75 278.68 730.16 230.75 537.33 450.38 111.42 526.45 415.41 553.09 447.23 583.94 611.45 126.64 458.86 297.25 80.55 740.87 544.22 340.46 527.18 284.22 290.13 464.42 481.14 360.94 64.04 604.39 590.27 136.73 379.64 363.71 124.95 546.30 278.05 119.20 71.75 501.50 186.34 374.51 282.68 192.87 284.29 456.32 347.77 551.47 376.08 251.41 508.81 528.50 467.27 525.40 129.79 95.24 563.98 193.72 448.56 137.93 111.58 475.76 555.93 175.93 172.68 537.79 505.88 334.18 101.57 437.69 301.22 544.98 297.73 148.06 317.94 614.66 448.59 478.56 163.41 104.04 163.56 97.16 261.39 83.70 463.36 273.28 137.89 429.71 316.91 14.73 536.11 511.60 602.63 116.05 386.76 192.96 354.86 175.08 439.88 569.23 473.01 216.50 295.79 205.68 428.88 457.55 576.55 99.88 0.00 294.75 560.95 402.47 541.61 357.16 104.17 351.31 444.07 513.73 425.06 593.11 356.88 425.88 565.68 123.27 551.35 476.97 597.22 600.15 18.68 344.53 356.49 505.23 523.03 606.85 376.29 139.14 467.40 195.49 211.75 567.31 158.52 262.88 284.63 129.64 541.29 460.18 633.37 115.31 229.45 196.03 110.68 437.10 266.24 181.67 121.82 448.10 384.74 188.53 79.00 624.20 510.93 529.77
564.01 699.69 458.82 767.06 750.58 471.61 620.34 726.52 425.59 421.90 780.86 382.94 217.22 327.04 266.66 332.39 215.67 233.44 178.30 701.19 197.46 571.31 398.40 536.85 116.70 250.68 117.92 295.56 121.53 312.64 528.33 409.20 403.27 461.07 771.68 230.31 640.88 377.86 125.40 52.36 749.99 544.50 127.85 577.72 125.35 596.66 288.35 404.64 565.02 520.75 815.26 662.29 775.32 527.28 417.51 192.29 204.91 371.42 574.34 744.00 165.82 442.64 46.36 420.09 426.99 719.72 426.30 313.01 456.26 847.39 418.24 150.98 646.71 335.24 443.17 129.78 413.95 250.32 259.38 445.30 598.62 167.37 461.36 579.04 731.73 571.56 571.03 556.43 529.36 788.44 819.41 451.28 765.44 364.47 321.36 354.91 471.36 659.57 243.62 390.53 189.93 780.99 438.07 439.65 809.39 727.20 596.32 336.50 198.32 54.37 686.84 182.91 442.81 471.19 813.98 365.28 698.07 458.16 297.79 425.70 391.26 33.36 309.56 327.12 170.91 421.49 299.03 611.66 309.48 779.87 412.43 826.64 383.61 470.65 483.64 80.40 397.76 368.25 818.29 767.76 484.06 139.20 161.89 205.28 286.56 835.99 394.63 294.75 0.00 386.36 697.22 695.81 62.41 341.89 191.88 615.66 221.94 621.09 647.53 287.86 720.63 303.06 418.02 380.36 190.78 823.76 789.42 313.43 605.04 619.72 799.98 381.17 468.98 253.05 384.40 307.97 282.27 488.55 378.19 398.31 553.99 579.38 379.82 277.62 416.07 420.57 388.82 254.86 150.49 405.43 187.19 113.25 148.91 208.76 487.97 91.55 471.37 373.75 864.26 548.61 821.01
281.79 1010.19 657.74 1051.78 1049.85 472.45 813.14 768.56 683.16 650.22 1071.11 635.95 235.28 568.13 589.73 564.08 555.70 558.43 396.33 1006.08 409.87 847.46 487.38 827.75 370.55 612.08 405.93 536.65 444.48 410.09 824.78 560.35 606.45 745.15 1065.05 541.68 715.88 606.78 442.39 377.82 1013.97 792.96 449.88 849.47 490.40 953.32 528.81 624.13 908.36 794.36 1073.10 961.56 1074.59 628.36 675.80 240.54 375.73 641.50 855.92 798.66 328.01 369.39 391.21 509.07 717.43 776.86 383.00 594.60 197.48 1128.90 656.44 384.26 755.22 629.97 665.61 447.01 657.95 575.43 163.39 676.07 891.46 510.71 688.44 825.96 823.03 829.40 933.38 855.70 787.20 1030.95 1077.25 395.66 1033.56 660.92 533.40 31.45 669.37 958.84 515.41 579.84 356.67 1070.60 668.56 675.86 1080.86 1039.89 800.24 543.86 274.52 379.36 884.57 297.70 679.12 414.59 1102.97 310.96 740.70 692.02 523.49 656.19 598.07 419.19 589.61 620.30 469.93 666.50 194.80 836.84 575.68 1017.56 236.36 1095.89 610.69 512.69 723.71 361.98 592.21 264.02 1095.18 1027.15 692.69 368.50 419.73 466.35 103.40 1121.97 658.58 560.95 386.36 0.00 803.15 893.54 384.09 626.90 519.26 709.47 290.40 720.69 996.05 570.76 971.82 499.12 669.68 117.71 218.41 1109.28 826.18 579.63 875.59 823.64 1062.53 630.77 718.58 270.89 637.07 534.22 429.02 772.70 515.14 624.88 794.06 838.17 676.46 172.91 759.41 99.96 611.85 406.01 495.29 641.11 468.77 438.24 469.43 505.75 834.10 309.58 713.86 639.95 1149.96 891.12 1069.24
984.55 720.63 267.86 505.05 609.64 446.42 119.24 334.74 396.13 302.78 697.54 843.90 749.26 397.94 488.08 397.77 747.69 538.54 768.48 603.80 568.83 1062.48 461.35 1035.70 730.05 689.84 645.42 411.73 668.03 517.74 389.98 407.54 326.68 624.65 654.01 507.52 239.43 361.67 606.83 701.71 564.01 333.94 663.73 1076.57 612.48 794.00 852.85 362.21 873.72 677.41 592.19 579.15 672.31 1013.92 400.27 839.08 621.07 416.18 1091.51 346.24 650.80 658.30 678.10 457.56 850.88 218.95 530.81 457.03 867.47 603.31 340.72 782.11 188.85 486.88 922.03 659.78 368.09 456.97 828.20 261.99 564.63 684.99 281.17 305.90 257.63 470.92 855.76 517.00 360.65 529.34 586.99 606.61 595.41 493.07 444.03 834.60 269.37 530.69 524.39 351.24 822.83 608.29 278.06 275.32 565.34 589.93 101.02 417.70 796.74 679.01 210.04 635.43 395.81 388.56 685.11 678.97 276.16 239.06 474.95 271.64 356.39 663.86 457.24 854.32 674.63 320.43 719.01 126.75 401.19 651.56 734.80 628.62 342.03 431.38 346.50 750.53 335.62 723.29 569.59 472.93 241.92 603.58 558.63 787.91 797.86 635.90 420.02 402.47 697.22 803.15 0.00 201.07 752.44 355.45 753.78 275.36 879.28 266.62 834.51 743.34 309.16 946.22 370.29 801.14 837.87 615.23 215.96 392.21 366.44 109.22 590.80 878.71 966.52 667.85 339.14 841.50 536.10 407.89 956.62 483.41 276.15 386.89 445.80 878.99 760.96 903.11 319.23 555.84 553.93 405.59 822.15 633.31 575.55 524.29 802.44 757.53 417.10 418.18 627.87 792.69 566.26
988.87 791.63 368.14 558.53 663.12 450.74 320.31 224.51 515.09 422.63 864.47 918.44 834.80 535.15 562.62 517.62 872.49 637.42 866.24 657.55 584.64 1156.52 418.47 1110.24 806.98 810.06 680.05 531.95 760.39 560.55 561.32 420.43 446.53 722.19 707.49 614.52 188.02 473.46 709.44 748.17 635.01 500.80 758.06 1151.11 719.48 930.58 932.87 449.53 981.96 829.55 642.69 710.75 799.42 1153.06 519.89 851.27 591.22 527.97 1178.83 235.73 710.86 612.54 649.45 440.16 932.60 172.54 563.90 580.35 854.76 676.72 417.22 846.62 208.37 564.75 996.57 752.14 482.20 577.19 862.31 382.21 684.80 788.44 401.35 494.88 126.37 618.95 967.31 682.63 536.02 601.64 614.95 530.91 664.47 598.69 539.88 924.99 347.89 666.02 634.89 464.49 852.15 667.15 390.35 384.63 629.06 660.93 220.87 512.20 812.55 669.72 8.97 695.40 497.30 478.95 756.11 635.84 152.84 378.20 516.49 391.49 462.62 697.51 560.69 963.80 793.19 429.91 713.98 276.95 539.99 722.56 755.58 712.42 433.64 396.14 515.37 776.21 422.73 693.68 674.57 552.56 333.19 645.07 645.26 883.25 823.17 701.13 536.89 541.61 695.81 893.54 201.07 0.00 755.15 475.30 887.44 213.72 885.27 237.01 973.65 825.11 381.46 998.87 495.71 857.46 793.71 699.03 169.87 531.01 492.91 244.27 638.22 998.89 1057.12 688.46 453.99 961.35 536.73 547.58 1074.00 571.59 477.22 537.09 501.77 848.89 852.23 964.27 456.44 502.77 719.76 502.49 883.00 728.60 694.96 657.95 945.97 787.36 525.23 523.26 722.24 944.83 619.74
574.34 760.40 521.23 829.47 812.99 481.55 668.42 740.25 455.14 484.31 815.54 385.37 173.66 389.45 329.07 394.80 252.19 295.85 134.71 763.60 211.19 591.46 451.78 577.17 157.62 313.09 156.27 357.97 171.62 343.12 583.54 424.77 465.68 521.78 834.09 286.45 654.61 425.94 184.74 89.81 794.80 576.89 169.29 616.13 187.76 659.07 286.35 452.72 621.27 576.40 866.83 724.70 810.03 502.82 417.52 143.55 267.32 371.43 575.87 785.23 228.23 413.19 105.70 473.47 438.30 733.45 488.71 375.42 518.67 904.01 480.65 91.47 662.28 397.65 452.71 163.37 436.91 312.73 264.45 507.71 657.96 229.78 521.17 634.08 765.02 633.97 633.44 618.84 560.01 847.78 842.24 477.27 827.85 423.81 340.72 373.44 533.77 721.98 302.96 445.56 135.52 843.40 500.48 502.06 851.53 789.61 658.73 391.66 146.72 116.78 746.18 233.18 453.06 524.57 874.69 427.69 711.80 520.57 351.97 488.11 439.34 95.77 358.82 345.00 196.28 466.19 342.67 674.07 371.89 842.28 456.07 889.05 446.02 484.38 525.88 128.61 460.17 411.89 880.70 805.20 546.47 201.61 224.30 191.05 348.97 885.15 408.48 357.16 62.41 384.09 752.44 755.15 0.00 404.30 254.29 675.00 201.79 667.13 709.94 309.14 756.45 303.48 441.88 439.10 201.11 886.17 846.31 375.84 649.53 682.13 818.97 349.77 437.58 315.46 446.81 294.92 296.00 544.69 345.91 436.96 580.59 593.23 430.99 287.95 478.48 425.64 451.23 293.06 198.51 409.22 188.72 173.96 208.25 268.10 546.09 96.68 514.46 392.74 926.67 598.33 843.51
744.82 557.79 145.44 503.13 570.30 347.30 299.90 456.15 142.19 80.01 517.88 559.43 476.50 66.40 203.61 113.87 449.39 209.43 444.77 529.27 291.71 782.15 258.38 751.23 415.92 413.25 334.38 93.20 338.92 245.38 292.07 117.24 73.13 346.73 575.53 178.41 392.69 75.58 304.28 385.33 532.14 261.76 336.59 779.21 283.37 517.16 550.40 68.71 586.98 483.64 566.38 460.06 564.50 715.62 106.47 525.26 341.33 128.61 798.01 501.13 374.88 498.57 356.59 236.69 563.13 417.07 389.57 155.91 600.73 591.86 101.02 468.55 317.06 206.24 600.30 330.67 109.30 138.44 557.94 119.15 412.46 364.50 119.47 259.09 428.01 339.88 561.96 376.15 259.13 497.85 541.79 499.42 546.71 233.96 106.60 598.40 129.47 457.41 204.68 48.64 503.15 569.22 96.18 97.76 551.08 558.06 254.43 84.55 484.83 348.36 467.32 332.15 140.18 314.75 632.44 454.38 431.91 127.10 155.71 83.81 66.87 308.53 138.13 545.18 359.01 109.06 432.10 280.60 113.44 571.16 543.75 608.08 41.72 312.51 192.51 421.42 100.83 472.03 582.52 490.86 142.17 302.93 240.10 496.34 525.08 582.00 134.93 104.17 341.89 626.90 355.45 475.30 404.30 0.00 451.33 398.47 563.83 356.68 577.25 423.63 421.30 623.59 123.27 618.88 532.67 602.67 506.14 106.40 334.40 277.83 518.52 608.76 654.64 371.53 42.51 541.21 218.92 208.39 638.09 206.79 234.74 291.93 170.05 575.71 501.12 662.00 46.93 252.88 264.05 109.91 495.01 343.43 257.02 221.84 552.27 431.88 233.29 128.66 647.44 558.99 543.06
707.26 749.57 550.64 818.42 788.11 617.79 668.25 883.35 490.04 526.78 696.45 240.77 383.01 389.08 359.48 413.72 94.48 284.68 122.93 745.18 389.34 379.43 590.28 358.46 196.85 217.64 309.80 376.89 172.22 462.76 600.67 526.50 459.83 435.97 783.31 272.92 781.62 425.77 275.78 244.24 785.11 569.10 178.54 399.33 227.77 530.39 99.07 452.55 501.35 535.66 776.27 650.62 786.79 360.77 467.04 332.35 396.79 420.95 412.29 886.23 357.70 634.52 238.24 580.30 251.82 793.11 595.60 351.30 648.14 853.83 484.86 177.15 715.02 382.19 251.29 180.47 460.33 370.34 442.32 526.63 549.72 206.88 539.03 630.08 797.45 650.69 476.33 619.22 567.39 803.55 804.01 643.16 825.45 436.81 423.16 546.79 539.75 710.93 272.11 452.71 259.17 803.56 527.24 503.01 803.12 803.48 685.49 452.88 325.81 246.25 878.47 374.79 482.83 627.52 792.19 557.16 829.87 514.72 415.35 514.87 439.17 225.24 332.65 135.24 231.14 484.05 490.91 668.22 355.86 706.78 532.43 825.57 462.21 662.53 499.85 202.45 522.43 560.13 841.15 808.81 560.27 331.08 262.49 77.57 478.44 834.19 435.67 351.31 191.88 519.26 753.78 887.44 254.29 451.33 0.00 795.38 307.75 771.22 530.44 155.88 767.01 234.97 468.59 572.24 382.66 813.52 890.02 364.84 652.92 702.65 821.81 201.03 288.84 444.93 489.28 116.09 438.94 519.67 216.00 400.77 570.20 614.31 400.55 425.24 353.54 584.45 461.47 404.98 261.15 458.74 134.90 241.84 289.34 229.49 370.76 209.68 489.75 430.31 857.47 479.25 814.74
775.15 868.21 377.22 726.59 819.90 237.02 340.78 168.68 489.93 330.67 860.03 892.13 667.98 464.87 565.06 430.50 789.29 597.11 780.02 720.12 471.31 1098.42 239.91 1083.93 718.39 764.97 601.48 462.12 666.20 485.06 533.30 361.52 335.55 703.18 864.27 576.88 112.72 432.03 643.59 668.02 757.85 521.17 672.52 1124.80 666.32 895.00 852.72 439.48 905.77 840.09 784.63 732.21 874.09 1055.52 484.31 741.56 489.79 486.54 1115.07 128.34 615.18 502.38 569.30 261.60 908.49 146.40 353.70 508.11 690.36 812.72 411.81 766.47 124.01 540.51 970.26 674.45 465.55 507.36 704.89 337.12 708.35 726.75 393.07 468.39 174.60 650.67 880.75 679.49 544.53 755.41 765.28 397.21 789.91 573.86 456.49 740.92 371.44 755.53 582.00 424.02 738.82 817.48 360.09 362.89 757.78 780.87 327.72 426.57 698.83 589.57 204.75 572.45 489.35 294.88 877.55 501.86 89.19 360.05 470.54 351.21 442.25 604.95 518.27 879.45 694.88 431.57 541.90 383.80 458.80 792.14 616.26 850.19 393.17 198.12 507.02 696.06 341.12 547.46 824.90 748.29 368.23 499.11 579.41 820.94 663.77 870.03 512.21 444.07 615.66 709.47 275.36 213.72 675.00 398.47 795.38 0.00 781.37 116.17 915.35 800.95 583.78 872.95 454.33 707.46 718.62 849.36 190.52 462.75 543.70 351.12 788.55 944.63 996.66 528.92 355.96 868.49 471.33 542.17 967.06 572.84 497.69 602.72 524.71 791.18 831.82 809.43 411.65 453.77 611.91 485.29 802.85 630.24 596.33 565.89 892.17 707.21 539.89 490.42 849.41 883.30 769.40
404.59 901.02 670.86 972.59 936.86 571.51 804.16 835.22 576.33 604.67 937.61 442.19 160.72 511.72 433.55 517.07 299.93 420.11 221.72 887.86 310.45 616.33 551.04 633.99 237.05 433.88 274.04 480.24 256.53 426.88 716.61 536.84 581.90 606.82 978.66 417.04 753.87 561.68 337.61 199.93 920.01 701.81 262.85 649.20 312.08 747.49 359.62 581.65 695.54 675.40 986.71 863.78 947.35 496.00 603.05 60.00 345.87 558.48 578.51 880.20 230.42 550.43 268.30 572.73 540.62 830.13 539.96 485.18 436.85 1022.51 594.86 182.06 771.32 502.13 504.15 264.78 578.76 465.51 157.58 629.98 748.17 342.52 646.46 762.79 856.98 743.01 696.79 778.37 700.81 962.58 990.86 529.54 932.33 552.75 500.96 258.95 656.46 874.75 405.99 537.86 66.27 947.88 633.99 631.98 995.60 894.09 778.26 517.61 82.54 255.70 876.30 273.15 577.34 513.65 1002.87 451.08 792.21 642.16 469.74 635.81 548.28 255.30 480.19 401.82 276.37 616.71 363.63 795.66 518.27 961.49 392.90 1004.04 568.71 583.25 647.81 210.48 599.09 406.08 994.12 951.03 669.16 359.69 333.34 247.87 266.60 1002.88 579.72 513.73 221.94 290.40 879.28 885.27 201.79 563.83 307.75 781.37 0.00 777.25 783.93 372.12 907.40 259.37 609.18 331.31 91.56 990.65 925.24 523.83 773.81 801.66 976.14 426.31 514.12 318.88 599.65 332.98 395.26 657.08 303.66 565.20 718.16 762.27 554.87 117.49 591.22 318.77 569.87 382.50 372.43 596.27 252.87 314.58 337.19 391.91 643.04 176.08 623.86 570.25 1031.15 608.62 1000.68
790.42 831.69 304.42 680.35 745.25 353.19 294.54 192.99 428.57 324.30 813.79 834.42 707.63 388.46 478.60 366.28 738.22 538.10 721.02 731.35 474.21 1018.06 279.56 1026.22 658.52 708.26 583.69 403.11 615.17 430.69 487.06 252.07 332.96 623.34 763.21 521.69 59.94 352.19 580.26 577.32 711.61 474.93 612.84 1067.09 581.35 819.44 833.16 370.26 881.01 760.25 668.46 685.97 827.85 1036.51 408.75 717.25 494.86 406.70 1085.89 202.64 614.50 405.28 620.79 257.87 865.05 138.78 408.31 447.55 673.13 696.55 365.57 720.24 77.77 478.29 909.10 606.92 410.85 448.35 705.17 328.50 662.76 675.51 353.87 422.15 110.64 601.73 864.24 633.25 498.29 732.23 668.87 491.57 725.26 527.41 371.52 752.14 344.30 709.29 521.96 341.76 714.89 721.07 305.53 339.17 641.61 737.53 220.79 330.65 702.12 606.90 245.98 584.42 427.96 352.35 820.12 548.82 113.50 344.53 408.70 293.16 346.91 640.48 447.76 802.78 628.61 371.88 525.89 276.87 415.36 745.90 528.39 734.02 332.55 273.02 469.12 638.92 331.72 456.67 711.49 672.20 321.99 534.64 516.08 742.34 626.51 760.10 424.33 425.06 621.09 720.69 266.62 237.01 667.13 356.68 771.22 116.17 777.25 0.00 906.42 740.91 519.82 857.07 395.13 697.01 697.35 740.24 209.13 406.38 492.83 244.19 674.17 878.36 900.74 560.38 357.09 817.46 413.52 495.93 933.45 513.98 451.45 537.01 459.45 784.19 771.60 746.81 309.75 406.41 574.06 403.03 745.71 631.13 518.24 546.88 873.16 645.56 530.31 408.70 776.16 815.02 653.23
1145.83 392.04 659.26 551.76 469.17 863.01 737.27 992.83 545.44 584.68 430.28 423.55 848.84 614.43 551.08 647.98 498.10 476.28 599.72 517.38 686.84 485.01 763.05 438.73 658.67 432.96 598.42 611.15 585.08 794.15 538.56 689.44 650.38 316.92 440.03 507.30 909.95 588.07 617.54 675.98 509.04 596.50 586.49 409.53 607.06 86.98 532.99 582.21 116.31 260.72 562.54 504.58 339.54 592.24 497.67 812.46 753.89 543.76 548.77 985.11 751.39 993.79 675.62 741.36 278.62 930.89 908.56 578.72 1049.21 558.97 600.34 682.17 857.97 501.90 421.49 592.41 545.03 565.91 840.96 618.38 379.90 499.09 631.95 637.42 968.96 482.51 102.03 449.40 561.28 632.18 562.95 952.92 510.32 522.34 665.59 1002.44 625.76 444.27 533.32 593.63 755.17 523.30 628.19 631.71 535.69 511.94 786.44 661.80 792.90 655.35 982.62 769.53 533.21 835.84 416.31 939.62 957.60 595.45 633.70 615.82 584.23 657.18 593.31 439.48 565.82 591.13 875.25 748.95 583.41 421.49 960.14 494.99 618.97 854.37 607.41 667.58 642.69 931.38 536.88 552.36 650.80 688.18 617.49 583.37 934.09 485.52 534.30 593.11 647.53 996.05 834.51 973.65 709.94 577.25 530.44 915.35 783.93 906.42 0.00 425.91 723.46 633.20 527.65 1027.58 838.31 497.93 1049.90 574.43 657.95 803.21 564.66 432.50 482.04 825.82 619.76 553.61 750.71 546.02 653.01 487.69 580.36 573.55 524.41 869.48 250.39 996.08 596.67 759.98 589.12 532.36 626.48 602.06 591.32 531.47 222.70 686.47 539.87 559.34 544.18 175.31 547.31
776.71 640.46 530.49 662.54 693.61 623.40 629.07 844.62 425.05 483.05 665.92 195.67 445.69 371.83 262.49 377.18 72.19 275.99 174.43 593.38 385.77 433.75 586.37 387.47 232.76 61.76 302.67 340.35 166.90 462.02 541.09 491.10 465.40 302.46 705.71 245.22 763.66 412.06 229.16 250.07 642.18 455.31 160.58 428.34 181.15 407.74 185.42 424.58 363.96 423.61 724.28 494.74 631.75 396.53 427.54 390.00 438.72 381.45 429.31 799.64 418.32 682.94 251.64 564.68 170.70 792.25 581.63 298.14 623.30 708.18 420.50 257.04 706.24 331.07 273.80 166.50 430.69 352.39 488.29 489.61 458.52 158.25 487.43 516.29 746.08 561.13 380.61 528.02 490.53 719.59 696.54 651.85 673.65 377.23 390.98 602.21 523.93 555.05 218.95 416.93 329.88 647.68 512.58 492.09 704.86 651.39 643.20 418.04 385.66 271.91 816.14 454.73 399.81 599.51 690.95 549.77 796.09 504.28 377.84 503.31 400.71 285.86 293.15 165.79 214.32 452.80 507.04 630.13 342.15 704.65 604.56 728.14 446.86 658.96 511.09 249.40 485.89 576.26 691.84 652.93 536.34 391.70 293.34 157.46 568.15 717.82 391.59 356.88 287.86 570.76 743.34 825.11 309.14 423.63 155.88 800.95 372.12 740.91 425.91 0.00 670.29 335.39 428.32 601.67 419.69 719.68 870.46 351.13 536.70 666.60 693.92 281.24 317.70 505.55 466.14 232.69 445.97 450.82 355.47 378.48 472.16 530.10 356.47 489.61 250.87 649.48 431.16 435.83 248.36 419.24 216.49 230.18 283.77 261.57 294.18 261.18 467.46 399.62 715.28 359.69 693.24
1067.58 423.27 314.08 264.02 353.26 635.99 371.81 571.14 355.30 377.01 504.44 865.96 810.33 458.19 527.50 482.65 721.50 546.69 788.83 311.16 648.46 1031.86 538.82 1009.59 759.98 688.80 655.38 463.72 686.97 581.46 275.76 447.93 381.80 560.68 397.63 535.44 534.19 412.18 631.04 760.74 340.50 254.25 680.65 1029.17 640.40 707.50 787.41 385.40 655.35 579.39 330.33 329.29 500.54 1018.93 338.93 860.39 686.17 385.02 1099.60 582.64 733.28 791.39 710.08 517.13 808.15 455.35 674.34 470.38 931.42 328.54 392.16 805.52 498.01 458.92 910.58 682.39 360.94 497.63 893.28 342.95 411.64 701.07 346.25 208.90 409.18 335.43 680.37 399.11 254.24 220.18 302.59 790.83 336.17 439.62 513.78 940.37 312.03 358.92 514.40 410.43 882.02 299.13 354.49 336.39 307.43 352.92 311.34 472.82 857.16 703.70 390.43 690.55 330.06 601.61 448.07 785.07 499.64 334.48 528.52 358.69 411.11 687.27 473.32 836.08 687.57 359.86 813.48 320.10 411.15 428.05 853.92 379.59 379.58 566.79 321.78 769.47 416.80 808.11 345.37 171.10 279.13 658.70 608.64 827.75 883.43 378.86 375.56 425.88 720.63 971.82 309.16 381.46 756.45 421.30 767.01 583.78 907.40 519.82 723.46 670.29 0.00 954.75 366.38 952.20 873.39 371.13 525.12 420.13 133.59 334.74 320.35 859.19 947.00 710.51 388.75 834.68 585.31 331.58 983.01 415.21 271.22 263.60 410.68 934.11 717.27 1030.26 402.38 602.27 621.91 373.62 839.07 644.82 607.55 547.70 746.94 786.33 344.37 400.60 409.88 694.67 295.81
657.84 887.20 734.21 886.43 907.14 724.98 831.49 990.91 651.62 683.75 839.60 312.55 370.83 598.04 498.56 592.78 311.41 445.03 247.95 906.99 467.71 426.46 699.90 400.74 243.09 386.42 379.48 574.01 293.32 570.36 751.84 666.92 636.19 614.76 951.51 445.18 854.23 631.28 388.23 279.75 858.19 725.96 287.00 428.64 340.22 700.46 194.17 658.06 618.17 580.47 965.37 830.13 942.10 236.63 615.82 319.37 483.99 582.63 453.20 1000.56 419.67 716.67 349.42 678.49 421.89 933.07 696.72 544.18 606.87 986.91 666.90 212.68 879.69 567.14 244.78 292.92 648.11 534.78 412.50 711.17 741.61 334.82 723.46 786.94 967.71 765.54 620.40 811.11 727.34 940.36 939.39 728.88 902.61 625.75 550.05 467.67 676.85 880.79 471.45 623.52 205.31 918.16 689.24 709.39 956.96 864.37 850.65 597.78 300.60 351.62 989.90 462.40 650.61 668.01 973.15 633.94 911.42 707.16 542.75 689.72 635.51 334.86 524.52 288.86 340.74 679.70 552.88 853.90 569.47 941.75 642.00 945.14 645.71 740.90 707.81 235.37 625.74 582.06 964.40 975.18 709.75 440.70 440.25 177.93 436.62 952.42 579.19 565.68 303.06 499.12 946.22 998.87 303.48 623.59 234.97 872.95 259.37 857.07 633.20 335.39 954.75 0.00 641.80 530.42 350.93 931.75 1036.25 560.49 824.91 874.05 956.95 200.70 260.28 501.74 647.63 146.90 527.16 693.87 94.11 617.70 775.97 763.94 614.31 326.21 506.63 489.52 655.53 512.58 400.39 605.70 128.58 356.60 410.19 443.86 513.40 211.51 637.21 598.39 978.00 567.04 947.64
769.16 474.26 170.89 424.25 447.03 425.45 302.18 524.66 38.95 164.26 503.33 535.62 521.62 113.57 179.80 175.53 441.50 237.74 462.98 407.25 332.92 773.57 337.99 727.29 434.13 421.26 356.96 145.05 357.13 309.82 188.83 235.15 158.49 267.47 491.40 219.90 431.14 62.90 316.47 427.55 425.65 180.62 354.80 768.16 309.27 440.67 503.60 54.56 510.49 404.38 498.53 358.74 471.77 734.72 29.98 555.36 383.16 70.45 783.86 523.36 426.73 583.69 395.51 320.94 525.25 442.52 436.74 130.18 690.30 521.33 78.49 494.39 330.32 147.91 613.75 348.88 30.42 190.29 599.50 160.22 309.22 367.88 117.34 210.11 441.31 286.49 485.47 252.88 167.34 472.61 496.15 511.55 464.82 162.42 171.04 650.25 149.28 334.14 209.37 89.84 561.43 490.93 169.04 160.86 471.68 437.14 309.23 172.93 526.64 388.82 486.74 384.00 36.32 367.59 527.94 534.50 445.17 137.29 202.25 178.05 76.30 384.66 140.13 548.56 373.00 90.83 515.62 260.16 112.73 502.84 560.18 484.81 103.36 360.12 124.99 439.63 202.54 536.47 502.44 429.84 168.33 328.97 291.95 498.34 566.28 458.73 66.61 123.27 418.02 669.68 370.29 495.71 441.88 123.27 468.59 454.33 609.18 395.13 527.65 428.32 366.38 641.80 0.00 660.08 574.97 479.40 561.53 104.59 232.79 297.74 477.33 605.56 668.58 454.76 148.99 550.87 281.40 109.96 684.59 135.21 145.27 233.11 95.52 627.56 423.53 709.17 85.38 315.36 300.44 53.97 513.22 362.21 303.14 243.29 509.70 453.14 137.46 51.10 524.17 500.83 460.06
314.72 1020.12 688.01 1042.18 1080.97 470.44 803.54 766.55 673.56 638.52 1070.59 696.18 269.48 589.12 580.13 556.99 578.31 570.80 514.04 996.48 419.33 922.55 485.37 887.98 488.26 631.04 443.18 561.66 447.41 433.20 770.65 553.26 570.40 797.70 1098.77 585.76 713.87 597.18 432.79 415.12 1038.63 782.34 441.09 904.63 480.80 959.45 638.93 614.53 930.63 839.80 1101.53 965.32 1104.93 746.07 632.22 297.31 381.75 631.90 909.82 745.38 290.21 307.46 426.60 507.06 772.37 711.75 369.78 599.25 110.84 1121.81 646.84 448.16 753.21 648.71 740.70 447.01 648.35 596.97 210.35 660.78 875.58 532.98 678.84 816.36 757.92 878.51 951.39 912.96 747.12 1021.35 1079.85 353.27 1044.60 681.14 543.62 149.16 676.58 968.93 569.15 570.24 397.58 1081.64 637.81 666.85 1087.35 1038.20 776.85 586.19 319.13 406.33 866.43 332.94 667.01 412.58 1117.23 221.62 731.34 676.81 554.76 625.44 588.47 413.72 613.05 624.65 494.83 656.90 187.71 777.14 566.08 1031.82 168.62 1098.34 601.09 510.68 714.11 454.81 615.32 240.34 1088.09 992.31 701.54 358.90 496.97 536.76 93.80 1072.26 595.59 551.35 380.36 117.71 801.14 857.46 439.10 618.88 572.24 707.46 331.31 697.01 1027.58 601.67 952.20 530.42 660.08 0.00 239.75 1092.93 824.17 570.03 841.31 753.45 1056.58 684.39 736.89 292.43 601.02 605.91 421.93 749.83 571.91 700.53 784.46 780.34 630.71 290.62 781.68 157.70 602.25 398.92 485.69 631.51 545.41 465.21 504.08 551.07 865.59 427.29 701.57 630.35 1137.70 919.54 1075.73
373.23 890.37 607.07 957.84 941.36 507.69 774.63 776.37 599.60 550.04 954.53 502.31 88.61 499.82 457.44 448.74 353.25 424.22 279.75 881.08 307.29 707.89 516.68 694.11 253.97 441.46 271.60 468.34 265.43 348.72 714.17 445.28 538.14 615.72 962.46 417.29 683.51 532.15 316.18 175.37 929.88 692.50 259.11 726.31 312.33 777.47 403.29 542.43 749.07 684.30 1006.04 853.07 943.61 532.78 574.15 57.56 333.50 528.06 670.07 811.65 212.55 492.64 237.14 538.37 590.39 762.35 482.64 482.45 350.59 983.33 574.74 208.41 682.79 507.72 549.03 265.03 566.71 441.10 68.60 588.32 745.01 351.42 587.39 751.33 793.78 762.34 761.81 747.21 690.79 956.32 998.87 515.89 956.22 550.31 446.59 195.51 599.29 850.35 403.55 543.57 157.83 957.36 587.24 562.55 986.07 917.98 745.49 489.16 79.38 245.15 784.74 229.39 597.59 510.49 1004.66 407.69 740.70 598.81 446.78 574.87 545.55 224.14 462.79 450.00 312.85 571.53 294.44 752.31 462.24 954.88 303.92 1008.64 523.01 520.50 623.25 215.06 530.84 317.10 949.61 920.52 614.08 272.25 352.67 307.99 226.31 1015.92 565.11 476.97 190.78 218.41 837.87 793.71 201.11 532.67 382.66 718.62 91.56 697.35 838.31 419.69 873.39 350.93 574.97 239.75 0.00 995.25 876.34 471.22 784.36 767.79 975.60 448.03 535.84 275.49 551.97 380.33 324.90 664.29 332.16 570.79 693.60 737.71 565.66 86.84 600.12 229.79 545.81 290.94 341.27 554.59 305.66 303.93 334.75 394.60 631.65 193.00 636.04 549.37 1041.50 700.18 974.45
1248.56 141.47 557.76 166.02 82.22 846.98 551.83 913.82 509.86 602.51 222.64 749.69 960.20 592.97 557.10 607.82 744.48 625.06 877.75 157.31 812.32 876.18 747.02 850.04 841.66 657.92 798.60 619.27 763.93 786.60 401.60 673.12 620.98 476.17 68.35 642.63 800.18 540.75 701.97 853.06 122.48 401.14 770.25 809.17 747.59 468.24 737.58 533.96 499.67 448.20 110.52 243.75 166.65 999.28 509.38 974.01 851.12 534.39 905.89 891.69 900.95 1015.00 781.01 725.33 642.78 808.94 882.54 584.34 1152.48 79.36 501.96 894.37 725.35 547.47 819.55 764.74 509.82 627.87 1016.10 554.55 320.61 756.96 541.54 410.32 762.77 304.00 524.69 276.37 402.03 186.57 84.08 944.88 104.55 520.44 650.44 1124.47 520.23 203.96 655.51 562.62 962.04 72.00 562.69 553.50 98.63 96.56 587.44 648.02 952.70 783.88 708.00 858.22 515.72 819.81 89.88 992.58 834.33 550.54 680.71 571.37 544.39 794.57 604.00 783.85 796.23 524.96 946.02 537.22 592.13 140.88 1039.58 13.39 581.61 775.63 423.82 846.43 635.35 1013.25 45.64 231.89 553.13 808.37 713.67 849.33 1039.06 20.67 497.34 597.22 823.76 1109.28 615.23 699.03 886.17 602.67 813.52 849.36 990.65 740.24 497.93 719.68 371.13 931.75 479.40 1092.93 995.25 0.00 831.19 583.99 335.01 610.84 107.35 839.54 880.10 913.14 621.25 784.85 739.48 438.12 961.00 484.40 426.27 348.49 514.17 1026.86 609.65 1177.29 564.78 762.67 737.90 533.37 888.24 727.91 696.82 680.25 602.02 852.23 462.30 530.50 46.25 493.53 110.25
965.67 936.59 390.64 721.01 825.60 427.54 335.20 144.14 584.33 466.08 913.50 1031.59 821.37 572.54 675.77 550.09 913.51 708.55 858.81 819.76 636.25 1198.68 426.23 1223.39 837.70 859.37 726.71 581.26 774.46 598.56 605.94 460.52 505.68 786.66 869.97 677.78 192.83 515.51 691.71 756.50 779.97 549.90 780.78 1244.54 739.72 1002.20 950.46 542.29 1052.94 893.37 808.15 795.11 888.27 1153.84 591.51 890.47 670.61 570.02 1266.51 189.12 697.43 614.41 759.82 404.54 1035.11 119.01 544.22 650.99 816.32 819.27 538.29 888.45 250.49 640.77 1060.68 782.71 568.76 626.50 854.71 431.52 780.59 811.08 481.84 521.86 144.23 686.88 1027.92 732.96 576.61 745.30 784.82 513.71 811.37 690.76 579.97 857.63 448.00 746.65 651.51 534.93 894.07 824.25 441.24 438.32 781.30 805.89 316.98 534.79 842.70 773.62 160.90 728.06 583.63 411.59 901.07 609.14 135.64 454.45 612.84 453.61 528.91 756.06 639.90 991.76 744.35 519.92 707.99 342.71 585.42 867.52 737.52 844.58 510.82 378.94 562.46 818.10 441.38 665.80 785.55 688.89 425.59 685.43 627.53 928.83 805.97 851.86 607.07 600.15 789.42 826.18 215.96 169.87 846.31 506.14 890.02 190.52 925.24 209.13 1049.90 870.46 525.12 1036.25 561.53 824.17 876.34 831.19 0.00 586.30 582.40 325.18 800.33 994.10 1081.91 693.27 499.70 976.75 551.44 623.85 1074.18 673.10 492.11 602.85 629.58 941.00 939.82 926.14 517.05 585.40 733.05 586.88 924.89 743.18 677.23 682.63 1018.40 824.74 633.06 590.70 843.83 1000.40 782.22
665.41 553.00 195.66 507.28 551.62 360.61 313.27 550.53 143.54 172.15 518.91 507.49 426.89 40.00 151.67 80.42 363.90 146.33 381.67 463.81 228.33 719.05 301.84 699.29 352.82 367.32 253.21 43.59 275.82 223.93 247.37 186.98 127.20 291.25 593.86 115.31 442.39 70.79 254.67 356.87 498.17 243.53 273.49 721.06 220.27 531.58 463.91 97.57 528.94 409.66 570.20 441.48 576.36 630.13 120.89 467.25 278.57 74.80 743.36 531.25 325.27 515.55 300.62 280.15 458.67 467.29 363.17 66.53 585.71 604.36 129.88 398.32 382.39 106.27 537.20 267.57 113.45 88.83 495.75 176.08 371.62 301.36 174.19 289.97 450.57 358.21 548.49 357.47 240.99 494.96 545.61 461.38 526.73 148.47 97.47 548.79 183.46 438.73 132.18 97.73 491.57 563.77 180.29 189.41 554.90 518.15 338.72 103.80 456.24 319.90 538.13 282.54 129.38 302.75 619.27 429.91 497.24 153.15 122.72 182.24 84.19 280.07 86.19 482.04 291.96 119.21 411.03 306.65 8.98 545.67 498.14 589.40 97.37 374.53 174.28 358.32 177.31 450.58 585.55 467.26 197.82 277.11 190.49 440.43 476.23 563.32 111.85 18.68 313.43 579.63 392.21 531.01 375.84 106.40 364.84 462.75 523.83 406.38 574.43 351.13 420.13 560.49 104.59 570.03 471.22 583.99 586.30 0.00 325.85 337.81 522.34 541.71 597.75 367.31 142.40 478.11 176.81 193.07 580.84 152.77 244.63 286.83 128.57 526.10 462.67 635.60 96.63 210.77 214.71 112.59 431.91 274.41 200.35 140.50 466.78 399.20 182.78 96.11 618.45 505.18 546.88
988.25 420.58 222.75 274.65 351.75 563.02 261.97 581.42 221.71 298.19 466.95 732.37 718.55 346.36 397.66 350.13 587.91 416.85 656.23 298.54 554.18 934.03 476.56 918.07 627.07 555.21 563.05 367.65 554.37 531.82 184.36 384.54 340.36 427.09 376.58 407.08 503.09 289.51 524.12 636.07 336.09 120.66 548.05 937.16 512.04 573.91 653.82 267.94 587.14 445.80 372.03 274.86 432.06 885.34 232.01 726.80 594.84 278.10 966.01 604.89 649.33 700.06 578.07 454.87 674.56 494.38 570.99 362.97 868.03 376.42 276.55 677.69 419.69 329.08 776.99 553.97 227.35 396.98 799.93 263.63 278.05 575.91 252.90 75.31 465.24 228.18 573.00 274.77 120.65 321.85 349.82 687.48 334.66 317.66 403.83 849.04 260.09 290.44 380.81 295.75 767.34 297.62 273.35 270.43 345.18 351.41 272.04 379.61 723.57 570.11 501.88 606.60 196.47 510.28 416.91 719.15 518.93 282.54 403.39 285.72 277.52 571.68 366.40 702.49 580.65 272.04 719.41 239.69 331.82 423.64 720.33 321.62 294.69 479.52 188.19 636.87 349.70 758.47 342.70 227.52 227.19 561.76 476.49 694.16 772.19 347.70 245.72 344.53 605.04 875.59 366.44 492.91 649.53 334.40 652.92 543.70 773.81 492.83 657.95 536.70 133.59 824.91 232.79 841.31 784.36 335.01 582.40 325.85 0.00 295.44 348.32 725.60 813.41 658.57 315.37 701.09 502.66 197.99 868.92 281.62 137.63 130.01 280.84 818.65 583.68 904.91 289.76 508.20 497.64 248.36 706.47 511.23 475.52 423.43 655.42 665.36 210.78 277.77 375.69 561.08 333.61
901.05 641.30 190.24 447.87 552.46 362.92 77.18 349.78 295.36 225.16 655.48 771.99 684.08 344.23 416.17 320.15 675.02 484.14 719.48 541.84 491.21 977.49 365.02 931.21 661.44 644.73 574.19 356.98 610.54 440.12 359.43 322.76 249.06 523.88 596.83 453.12 254.45 302.16 568.06 653.72 521.95 291.88 611.30 972.08 558.08 725.37 787.63 276.29 786.38 635.35 544.92 516.34 640.47 937.68 314.68 743.76 528.52 332.80 1005.59 359.43 600.54 628.28 621.66 381.84 785.06 287.46 479.60 399.46 806.25 557.76 250.79 727.59 231.73 399.87 834.77 605.38 267.32 400.56 727.43 216.88 477.29 636.56 180.40 263.84 265.53 374.68 770.17 438.36 318.59 518.15 529.81 523.11 548.14 428.41 375.01 816.53 197.20 498.85 448.88 289.00 758.72 561.03 206.39 210.14 518.07 547.87 23.40 340.08 719.12 601.39 253.24 557.81 298.20 420.78 633.37 627.76 270.29 218.66 407.09 194.02 297.82 586.36 408.81 763.28 629.77 229.39 667.80 79.48 346.79 609.50 736.50 617.06 258.15 415.29 304.44 693.04 258.00 666.77 565.20 474.81 164.30 525.96 503.88 735.00 720.24 631.51 351.31 356.49 619.72 823.64 109.22 244.27 682.13 277.83 702.65 351.12 801.66 244.19 803.21 666.60 334.74 874.05 297.74 753.45 767.79 610.84 325.18 337.81 295.44 0.00 533.62 777.94 865.75 592.61 261.52 763.88 470.48 365.83 901.87 392.37 234.09 339.62 381.60 801.37 683.34 888.62 280.95 477.10 541.88 326.24 755.16 574.37 520.80 478.31 775.69 679.91 375.04 348.84 585.81 750.63 509.08
1169.79 190.19 539.96 85.75 104.83 826.60 471.56 853.61 480.21 580.44 271.36 785.41 928.83 527.73 553.12 552.62 766.11 568.29 827.38 100.54 750.67 922.00 748.58 879.48 793.98 636.62 741.98 545.53 725.52 718.46 344.83 635.76 591.65 507.84 149.20 599.31 734.11 501.42 693.56 806.25 108.22 379.84 719.20 886.22 684.40 504.11 794.26 500.99 552.14 472.64 47.86 199.18 243.70 1007.75 487.90 946.18 774.77 447.54 954.61 829.03 827.21 960.78 767.63 726.89 691.50 742.87 850.90 527.71 1081.91 85.04 471.99 854.86 664.54 525.17 794.94 725.12 479.58 574.87 930.39 529.06 296.00 737.99 526.63 331.13 696.70 233.13 527.12 244.70 351.82 125.82 23.27 934.55 54.34 490.99 585.20 1050.73 521.79 156.28 606.90 506.25 943.82 50.70 552.03 503.29 32.56 92.58 527.23 567.12 942.92 747.36 639.43 784.48 503.68 804.69 166.93 939.16 774.12 539.55 609.27 549.30 488.02 766.62 535.84 795.93 746.02 504.29 921.90 471.15 513.36 183.52 1009.92 120.74 537.10 777.19 406.27 808.02 586.94 945.11 64.00 149.25 554.69 776.09 642.80 851.38 962.78 128.02 472.55 505.23 799.98 1062.53 590.80 638.22 818.97 518.52 821.81 788.55 976.14 674.17 564.66 693.92 320.35 956.95 477.33 1056.58 975.60 107.35 800.33 522.34 348.32 533.62 0.00 889.38 855.49 879.41 561.03 841.53 699.15 409.66 1002.58 485.50 425.71 291.81 507.10 970.09 591.33 1091.58 525.18 710.69 681.13 457.91 870.09 739.30 677.77 623.48 616.83 842.91 423.64 426.23 130.56 524.74 24.54
808.13 720.07 688.74 864.48 847.76 733.63 840.67 1019.82 616.63 676.26 638.90 111.85 464.16 560.80 467.67 574.97 249.76 447.24 248.46 796.72 528.68 278.39 704.72 285.48 308.49 252.76 424.46 538.14 309.81 606.26 659.63 626.29 631.55 478.05 857.49 430.35 906.57 604.81 368.83 362.37 788.00 670.35 303.49 290.51 325.39 500.97 101.96 624.78 417.47 488.05 876.70 730.35 741.40 159.74 598.39 390.47 552.53 552.30 321.41 1014.69 529.35 762.96 385.38 726.41 297.20 960.37 724.54 500.08 759.76 891.35 652.22 258.30 863.80 535.87 110.43 309.41 617.78 502.64 492.98 653.49 609.37 289.01 597.54 711.27 974.79 711.98 442.49 664.51 635.13 955.20 884.16 794.76 841.88 568.23 535.22 618.32 651.00 767.65 456.62 604.20 360.04 838.68 670.62 641.06 903.55 813.92 801.34 561.91 375.25 405.65 1007.86 535.35 591.39 746.37 818.17 699.34 940.33 639.65 526.45 658.25 591.41 408.03 480.42 136.34 249.75 652.52 640.78 793.15 537.76 807.62 714.68 852.93 593.13 801.87 615.60 300.77 655.32 701.79 880.15 888.54 681.24 513.87 424.02 178.44 597.07 860.21 589.35 523.03 381.17 630.77 878.71 998.89 349.77 608.76 201.03 944.63 426.31 878.36 432.50 281.24 859.19 200.70 605.56 684.39 448.03 839.54 994.10 541.71 725.60 777.94 889.38 0.00 87.81 567.14 638.76 124.64 575.98 609.49 294.81 556.05 683.76 700.90 588.89 514.86 305.93 654.17 615.93 566.51 380.00 590.09 193.98 368.00 374.32 430.52 312.70 321.19 545.00 573.61 885.79 420.57 913.92
895.94 746.90 743.29 819.34 797.88 819.03 860.90 1078.76 680.69 718.59 665.73 138.68 551.97 612.41 494.50 610.95 301.16 451.42 336.27 754.95 590.39 190.58 783.77 236.86 396.30 340.57 512.27 586.41 396.69 694.07 735.19 699.11 661.11 486.53 842.25 482.44 960.68 618.42 456.64 450.18 803.75 758.16 391.30 243.86 413.20 525.53 189.77 645.20 476.78 514.88 902.81 715.20 733.17 161.14 638.60 478.28 640.34 639.02 242.66 1033.78 617.16 850.77 439.29 762.08 321.06 1014.92 733.81 579.64 819.47 899.31 677.51 346.11 916.30 563.08 60.55 388.44 680.58 541.17 574.53 736.15 559.49 357.28 685.35 799.08 1011.38 662.10 498.73 628.99 722.94 920.04 878.76 850.30 835.22 616.45 621.03 706.13 734.40 732.13 508.46 645.36 447.85 852.01 728.52 728.87 888.05 813.25 886.77 570.09 463.06 459.56 1048.15 623.16 673.39 834.18 809.94 787.15 1014.24 727.46 608.96 716.15 631.82 487.35 559.98 176.60 337.56 665.93 694.69 880.96 592.12 815.12 802.49 886.66 662.43 863.58 703.41 388.58 663.50 763.91 865.59 873.39 762.88 593.19 511.83 266.25 684.88 879.15 601.97 606.85 468.98 718.58 966.52 1057.12 437.58 654.64 288.84 996.66 514.12 900.74 482.04 317.70 947.00 260.28 668.58 736.89 535.84 880.10 1081.91 597.75 813.41 865.75 855.49 87.81 0.00 654.95 681.09 212.45 663.79 697.30 242.83 607.45 771.57 753.14 615.82 586.49 332.76 735.72 660.86 654.32 467.81 646.84 281.79 452.12 462.13 506.61 339.53 409.00 632.81 638.16 926.35 439.68 880.03
417.44 814.49 455.84 834.62 859.35 291.90 594.55 608.49 473.68 408.32 876.89 602.59 191.36 368.64 424.34 351.36 459.30 349.54 383.37 817.29 138.98 775.90 379.57 789.90 357.59 503.73 233.22 339.73 349.83 243.68 614.68 347.63 415.04 553.53 903.72 351.47 500.44 423.82 312.29 281.42 842.50 601.14 347.50 800.57 324.40 831.47 515.85 400.20 799.86 630.59 912.96 799.46 899.30 713.25 478.00 295.16 104.84 432.78 760.31 563.51 88.46 232.15 267.75 382.21 639.64 579.28 280.36 383.44 307.04 905.45 432.51 371.30 585.14 441.83 652.65 341.58 440.79 304.54 341.49 432.80 680.19 420.42 451.94 589.14 625.45 669.26 774.84 707.64 590.62 829.34 902.68 268.80 827.86 486.02 311.17 295.23 398.48 788.90 350.66 420.17 361.01 864.90 410.96 433.96 898.15 816.58 569.21 346.14 265.72 259.52 687.09 131.19 471.67 349.76 923.02 132.20 557.63 428.79 296.63 398.59 415.08 219.69 363.78 541.08 400.04 447.10 104.72 575.53 376.29 852.42 218.12 926.53 413.25 384.39 540.75 333.45 350.31 150.78 871.73 834.57 431.38 138.14 259.59 432.19 202.90 913.49 461.66 376.29 253.05 270.89 667.85 688.46 315.46 371.53 444.93 528.92 318.88 560.38 825.82 505.55 710.51 501.74 454.76 292.43 275.49 913.14 693.27 367.31 658.57 592.61 879.41 567.14 654.95 0.00 408.63 515.92 223.79 554.44 532.52 479.61 558.43 623.42 435.32 275.11 669.12 370.85 418.46 193.29 329.40 451.66 373.16 316.39 309.29 308.04 706.60 296.62 534.29 453.18 948.04 745.87 892.03
763.37 563.28 112.94 534.29 591.78 315.83 291.88 413.64 163.64 37.50 560.39 587.20 483.72 108.91 237.28 124.33 484.36 251.94 468.13 545.08 318.16 815.62 215.87 779.00 439.96 455.76 355.75 135.71 354.31 230.28 300.79 106.69 30.62 360.79 599.79 220.92 387.15 89.64 346.79 427.84 523.09 266.68 360.63 819.87 325.88 559.67 580.95 99.87 629.49 497.70 607.84 474.12 585.01 750.59 148.98 564.88 349.48 144.15 810.14 458.62 382.10 488.02 399.10 194.18 583.11 384.57 358.00 194.35 590.18 619.83 125.28 506.11 279.32 215.60 642.81 362.56 140.46 180.95 596.17 101.17 431.08 407.01 108.20 287.52 390.31 364.14 604.47 401.87 264.97 513.81 584.30 462.72 548.47 262.13 149.11 605.62 106.10 483.13 247.19 76.48 545.66 585.51 78.20 99.52 590.95 549.01 238.12 111.00 517.11 390.87 462.96 339.37 138.40 272.24 629.55 443.83 394.17 108.36 182.41 67.50 94.71 351.04 180.64 578.75 401.52 96.29 472.24 261.86 133.42 581.18 528.65 632.65 45.63 270.00 197.43 436.81 58.32 456.93 586.11 454.62 135.38 307.52 282.61 535.42 552.92 606.57 164.67 139.14 384.40 637.07 339.14 453.99 446.81 42.51 489.28 355.96 599.65 357.09 619.76 466.14 388.75 647.63 148.99 601.02 551.97 621.25 499.70 142.40 315.37 261.52 561.03 638.76 681.09 408.63 0.00 556.60 261.43 244.12 680.60 249.30 223.47 311.89 199.79 582.93 505.03 690.17 68.43 261.03 306.56 137.75 519.05 370.09 298.59 260.96 587.24 449.15 260.06 144.98 667.50 574.53 579.33
733.56 776.30 666.73 809.79 802.00 652.98 753.10 948.37 561.94 594.10 698.01 170.96 409.31 505.17 418.22 518.72 210.57 365.87 173.89 782.11 433.80 377.11 628.58 362.76 247.81 239.52 355.08 490.37 202.29 538.71 604.94 587.12 575.92 480.22 846.37 362.80 811.69 541.86 305.85 274.79 733.31 615.66 208.61 379.12 257.84 553.56 47.27 563.76 507.06 535.42 857.21 727.43 795.68 284.38 547.22 348.72 486.75 504.24 442.45 939.24 463.66 708.11 314.77 650.27 274.99 890.53 625.67 439.06 696.09 862.03 596.07 203.45 824.63 481.18 195.26 210.54 567.58 455.62 418.68 640.11 594.71 191.65 632.43 656.58 907.92 697.32 514.30 664.21 580.44 908.34 829.47 699.88 787.19 508.55 467.67 544.02 641.64 757.67 388.20 543.18 285.47 810.62 622.89 619.10 856.73 759.23 740.48 518.61 300.95 312.20 955.25 438.76 536.70 668.11 854.41 634.79 868.88 630.81 466.42 624.10 530.39 341.33 419.40 141.96 253.38 597.32 570.17 784.31 471.95 820.86 648.52 798.24 554.68 706.99 560.91 228.75 579.84 590.44 830.49 858.18 655.13 447.17 349.22 103.87 546.83 805.52 510.59 467.40 307.97 534.22 841.50 961.35 294.92 541.21 116.09 868.49 332.98 817.46 553.61 232.69 834.68 146.90 550.87 605.91 380.33 784.85 976.75 478.11 701.09 763.88 841.53 124.64 212.45 515.92 556.60 0.00 518.61 554.80 176.15 485.94 629.07 646.21 475.47 450.47 365.04 579.87 557.41 491.71 322.00 542.03 142.76 271.91 331.80 345.58 371.81 260.64 490.31 516.01 831.10 420.14 866.07
539.79 655.16 313.09 684.09 685.69 250.71 467.12 495.29 320.35 261.08 695.72 565.09 343.71 179.16 298.12 192.03 432.61 274.43 368.51 640.62 84.81 780.93 281.27 756.89 335.93 431.20 195.25 176.13 316.32 47.12 416.85 161.45 246.71 468.06 730.06 275.11 358.61 247.60 216.81 254.73 668.84 420.34 310.00 797.76 264.82 708.39 519.33 274.38 696.70 586.47 743.92 615.76 707.76 735.72 297.70 355.06 122.41 251.61 805.11 504.94 242.05 338.74 235.91 259.58 616.67 437.45 231.37 234.29 429.55 771.34 306.69 387.47 398.96 283.08 643.22 312.12 290.26 221.37 393.50 303.73 470.69 399.56 308.26 466.78 483.62 535.02 711.73 534.28 417.80 671.77 722.42 284.57 681.16 325.28 121.69 458.28 285.03 615.54 272.13 235.15 352.32 696.71 295.06 312.89 731.71 642.92 447.08 164.26 312.72 234.45 527.76 199.36 306.19 250.21 743.10 253.10 415.80 297.04 167.82 292.22 252.90 251.08 232.64 528.31 335.89 296.02 234.22 450.33 185.79 722.48 345.49 752.87 248.26 274.57 351.09 311.17 229.24 273.77 742.95 644.07 306.18 145.24 176.45 436.05 360.82 740.13 288.66 195.49 282.27 429.02 536.10 536.73 296.00 218.92 438.94 471.33 395.26 413.52 750.71 445.97 585.31 527.16 281.40 421.93 324.90 739.48 551.44 176.81 502.66 470.48 699.15 575.98 663.79 223.79 261.43 518.61 0.00 369.88 589.71 329.58 421.44 463.64 305.38 411.74 583.96 527.89 257.87 33.96 269.71 289.40 417.96 268.28 226.15 262.47 643.59 322.97 359.59 272.92 779.98 662.97 723.69
858.48 403.44 244.72 384.55 384.01 503.93 288.65 597.26 145.63 262.38 440.31 564.30 604.91 211.02 240.44 238.05 459.76 289.26 500.58 320.88 421.40 766.98 393.98 756.10 486.20 389.06 414.21 236.66 400.55 407.27 96.75 323.80 258.55 229.10 412.18 258.24 498.15 172.86 411.21 509.27 368.79 122.06 406.87 791.36 363.20 481.97 507.53 162.67 537.92 366.01 420.23 295.66 395.47 769.23 139.94 627.22 471.64 178.68 828.68 616.94 518.34 658.54 452.58 415.67 503.77 516.35 534.19 209.73 778.78 426.20 130.36 552.35 418.16 182.10 642.43 408.80 140.38 249.90 656.75 222.81 253.33 392.36 200.75 122.68 529.15 176.53 535.30 189.86 91.82 362.65 406.81 621.51 389.30 189.51 268.49 741.86 233.78 293.00 284.51 199.80 622.08 397.51 241.90 197.04 418.16 374.12 388.75 274.82 610.44 468.33 538.61 475.61 146.28 466.77 469.09 622.98 533.01 208.36 300.33 231.24 186.26 467.91 227.59 573.04 438.84 162.53 604.10 340.36 202.05 446.15 670.11 451.51 210.01 459.04 61.39 483.05 280.69 633.92 392.48 350.63 254.30 438.93 376.20 561.07 669.30 458.79 154.24 211.75 488.55 772.70 407.89 547.58 544.69 208.39 519.67 542.17 657.08 495.93 546.02 450.82 331.58 693.87 109.96 749.83 664.29 438.12 623.85 193.07 197.99 365.83 409.66 609.49 697.30 554.44 244.12 554.80 369.88 0.00 730.95 153.47 131.74 138.66 119.12 691.06 402.05 806.62 195.34 396.12 364.39 163.93 565.29 426.01 350.03 290.18 509.13 535.45 64.49 161.06 484.37 480.30 406.54
705.39 853.94 735.51 968.51 951.85 791.75 884.25 1033.96 706.04 718.10 772.77 326.01 378.40 576.37 518.64 581.72 300.27 500.68 248.01 908.92 504.90 433.41 745.49 479.69 274.93 373.76 441.90 544.89 355.74 602.01 776.43 688.28 671.46 547.84 991.36 488.92 948.32 641.77 450.65 356.13 909.46 785.10 349.42 486.69 402.64 652.96 223.42 668.55 578.53 624.96 992.27 850.21 875.27 200.62 683.04 274.60 549.55 636.95 426.91 1078.94 499.63 738.85 424.55 740.91 374.39 1007.14 713.70 567.30 592.40 1025.22 700.86 288.25 910.78 587.22 303.38 355.34 676.33 565.80 400.76 694.63 713.46 340.19 740.15 832.73 1013.45 816.07 553.51 757.88 756.59 1019.55 1005.62 744.14 963.34 642.60 599.33 504.49 728.95 861.02 488.11 666.77 237.39 959.68 717.60 696.63 1019.12 935.38 878.47 622.58 322.37 432.56 1065.03 514.67 698.83 753.48 952.04 641.66 1005.51 717.56 605.17 707.85 650.11 411.55 548.65 213.53 362.47 700.05 525.50 871.06 571.86 922.78 636.08 974.39 677.88 778.09 715.85 297.79 688.16 594.72 1005.92 970.90 753.89 517.39 446.65 198.01 481.20 981.67 651.67 567.31 378.19 515.14 956.62 1074.00 345.91 638.09 216.00 967.06 303.66 933.45 653.01 355.47 983.01 94.11 684.59 571.91 332.16 961.00 1074.18 580.84 868.92 901.87 1002.58 294.81 242.83 532.52 680.60 176.15 589.71 730.95 0.00 606.56 786.20 822.36 616.55 419.00 476.11 561.95 655.08 575.00 431.99 668.12 191.00 400.83 472.61 445.49 512.95 305.62 666.46 646.31 980.04 596.29 1027.12
800.22 464.59 284.03 453.84 437.36 507.19 386.84 629.28 156.63 283.45 493.66 487.47 541.76 190.83 131.65 219.78 306.29 197.31 451.28 419.46 381.10 692.25 407.23 645.97 424.87 351.20 359.05 196.36 347.58 370.24 199.90 321.79 258.98 170.77 481.73 203.08 549.99 183.89 322.89 445.70 437.86 214.33 353.90 655.54 308.04 476.51 481.05 188.01 420.74 307.68 496.07 349.07 462.10 630.63 105.23 513.33 431.03 129.38 709.74 638.85 457.55 629.21 354.15 385.54 445.44 555.66 514.00 142.25 719.52 534.17 195.28 466.12 465.53 63.07 546.90 355.34 152.59 200.36 601.59 266.85 277.82 294.29 217.96 255.25 557.91 252.37 395.72 243.21 179.11 516.12 508.36 593.19 465.71 36.04 248.30 656.33 245.00 346.35 178.61 193.13 560.25 481.26 252.01 244.58 516.04 427.47 389.98 242.06 491.41 370.07 562.62 414.82 137.69 455.52 536.25 582.68 580.38 244.35 223.22 264.38 191.79 380.38 158.28 430.85 361.02 162.98 553.79 393.23 143.79 471.04 645.60 471.01 223.98 423.91 159.58 398.04 231.72 582.58 505.07 456.85 249.08 409.21 273.31 452.28 616.07 497.09 104.94 158.52 398.31 624.88 483.41 571.59 436.96 206.79 400.77 572.84 565.20 513.98 487.69 378.48 415.21 617.70 135.21 700.53 570.79 484.40 673.10 152.77 281.62 392.37 485.50 556.05 607.45 479.61 249.30 485.94 329.58 153.47 606.56 0.00 229.93 244.88 69.82 599.11 343.72 724.84 204.23 342.58 283.16 139.92 489.12 324.03 251.60 221.23 383.32 450.44 88.98 150.69 525.08 421.97 510.04
904.58 469.97 206.47 355.12 400.84 453.28 156.91 545.67 143.68 207.12 479.96 667.83 632.73 258.84 322.71 272.17 536.22 375.94 582.85 328.68 472.96 871.16 385.49 826.85 565.16 520.80 492.38 284.14 502.40 422.08 125.34 262.08 231.02 360.84 445.21 345.17 462.79 187.28 455.18 518.23 332.15 57.79 496.75 836.42 450.13 585.94 581.80 184.27 610.13 439.42 427.87 324.25 462.44 822.97 175.25 658.16 503.54 209.16 901.47 573.82 565.82 620.29 516.16 363.80 614.41 467.53 522.26 275.45 745.57 441.08 185.66 631.31 373.68 262.00 745.96 494.15 143.68 314.82 662.30 171.22 301.04 513.15 115.27 94.58 434.17 246.45 595.99 265.40 84.50 363.45 428.28 613.47 381.98 216.92 316.31 789.34 159.95 320.82 318.90 214.22 655.80 386.93 188.35 158.79 401.02 358.07 257.49 297.02 639.90 534.09 486.19 523.09 168.92 446.23 453.25 599.22 488.53 157.38 335.96 175.98 196.82 524.27 285.40 637.95 511.71 170.25 627.63 208.62 248.15 392.81 692.78 439.66 193.02 415.35 70.35 579.83 239.96 648.73 433.17 307.01 192.85 474.24 414.58 629.62 690.66 446.94 211.88 262.88 553.99 794.06 276.15 477.22 580.59 234.74 570.20 497.69 718.16 451.45 580.36 472.16 271.22 775.97 145.27 784.46 693.60 426.27 492.11 244.63 137.63 234.09 425.71 683.76 771.57 558.43 223.47 629.07 421.44 131.74 786.20 229.93 0.00 148.28 201.39 748.59 523.11 823.49 215.82 416.42 435.73 180.93 655.17 500.92 413.61 361.52 564.20 586.47 140.95 196.37 472.52 554.70 412.64
944.05 383.23 324.08 267.69 326.98 557.00 305.19 642.60 194.16 316.99 412.30 692.51 689.98 301.99 336.69 326.88 551.17 355.88 601.33 307.09 515.16 807.76 493.90 833.30 596.76 468.34 531.85 306.68 519.46 483.50 71.12 381.63 311.62 367.76 333.82 384.75 547.27 231.39 467.82 562.34 258.29 100.99 517.43 842.87 489.24 489.51 598.94 223.22 502.74 392.68 339.67 246.70 351.97 860.64 221.38 702.27 565.40 221.80 869.46 615.90 588.36 735.04 539.68 473.30 544.55 531.86 625.16 304.64 824.69 341.82 190.91 642.45 478.71 268.11 692.59 519.17 215.60 350.04 774.39 284.36 193.65 507.36 234.82 138.07 485.69 98.17 488.60 161.85 65.77 306.30 315.08 680.04 312.17 223.37 359.46 811.88 268.20 247.94 358.48 258.33 699.91 335.60 273.48 278.34 324.37 284.21 316.22 342.60 696.45 534.95 546.06 545.63 211.87 538.94 374.39 716.74 563.11 261.43 384.01 285.85 244.79 546.02 310.10 675.73 524.35 215.60 696.16 260.14 287.62 345.84 730.66 335.10 270.56 519.59 114.46 601.96 348.77 710.15 355.81 211.97 301.10 552.05 433.24 657.32 734.77 361.18 184.75 284.63 579.38 838.17 386.89 537.09 593.23 291.93 614.31 602.72 762.27 537.01 573.55 530.10 263.60 763.94 233.11 780.34 737.71 348.49 602.85 286.83 130.01 339.62 291.81 700.90 753.14 623.42 311.89 646.21 463.64 138.66 822.36 244.88 148.28 0.00 219.87 757.68 520.43 897.59 273.83 484.95 465.14 240.08 672.33 511.36 437.13 390.93 570.65 623.11 155.90 231.07 389.17 506.10 316.35
781.81 444.72 238.94 487.56 483.26 474.07 356.55 559.46 89.49 215.43 503.67 477.14 485.79 139.75 121.32 164.64 376.11 196.12 381.46 440.00 336.27 715.22 380.47 668.94 407.25 351.11 334.63 157.05 321.60 336.00 210.18 264.61 189.16 220.42 493.63 178.66 491.20 114.07 298.17 395.89 475.86 220.42 327.92 709.81 279.99 482.44 496.89 132.73 489.68 357.33 518.29 400.58 481.94 700.45 71.75 508.10 379.39 59.56 748.63 574.53 431.92 572.80 333.46 358.78 495.09 510.57 462.92 90.61 686.53 545.32 159.85 440.57 425.84 62.98 555.27 327.29 114.28 130.78 577.17 229.67 244.87 331.92 201.20 241.80 533.00 283.60 465.54 308.98 186.65 481.77 490.55 541.55 484.13 96.92 197.22 662.25 205.67 395.06 169.80 123.31 531.29 516.63 227.60 212.88 517.81 493.24 379.47 203.55 491.32 349.25 492.80 396.00 106.54 416.21 502.51 549.41 540.69 206.74 198.57 239.97 127.47 356.81 108.47 500.67 355.63 165.21 502.15 355.68 125.38 417.10 602.66 519.58 154.16 427.60 158.94 404.10 253.71 530.94 511.60 431.84 238.57 370.71 257.08 441.95 573.06 493.50 35.12 129.64 379.82 676.46 445.80 501.77 430.99 170.05 400.55 524.71 554.87 459.45 524.41 356.47 410.68 614.31 95.52 630.71 565.66 514.17 629.58 128.57 280.84 381.60 507.10 588.89 615.82 435.32 199.79 475.47 305.38 119.12 616.55 69.82 201.39 219.87 0.00 597.92 393.37 735.35 149.70 290.94 245.27 74.58 486.34 315.48 230.91 171.06 444.20 421.48 127.70 80.87 558.94 471.62 515.26
331.63 977.21 669.92 968.57 973.07 567.01 827.61 848.93 635.57 620.43 955.05 559.68 175.45 513.99 476.60 519.34 417.42 401.80 339.21 869.55 366.23 723.62 576.10 726.95 340.81 480.55 328.83 482.51 346.44 397.29 747.99 532.12 552.31 652.93 1014.80 432.82 770.35 596.89 403.02 262.21 918.35 759.68 345.95 743.06 390.46 826.53 426.09 621.10 813.03 765.31 1017.41 900.02 1030.45 549.36 609.56 144.40 347.74 594.18 696.00 838.62 254.54 432.94 323.98 597.79 590.86 821.99 511.26 538.03 345.91 1047.07 653.41 295.25 769.63 545.18 559.20 343.16 622.97 491.55 86.29 632.25 806.88 432.43 633.32 800.60 827.39 802.12 814.28 834.05 724.46 1021.06 993.36 525.24 949.82 614.89 516.48 141.46 658.49 934.51 458.84 604.39 183.76 984.09 619.72 634.25 1002.33 930.30 777.97 547.40 166.22 331.99 857.86 243.56 644.35 573.13 1039.08 407.31 816.33 655.18 469.35 607.35 587.73 310.98 533.04 519.31 393.86 642.13 323.06 808.68 528.36 1004.54 321.61 1040.25 609.85 593.06 700.38 294.43 579.41 334.79 1020.86 969.65 686.91 330.10 392.45 365.36 232.98 1039.09 572.93 541.29 277.62 172.91 878.99 848.89 287.95 575.71 425.24 791.18 117.49 784.19 869.48 489.61 934.11 326.21 627.56 290.62 86.84 1026.86 941.00 526.10 818.65 801.37 970.09 514.86 586.49 275.11 582.93 450.47 411.74 691.06 419.00 599.11 748.59 757.68 597.92 0.00 669.66 232.88 592.70 377.78 428.11 624.38 320.88 390.77 421.59 456.99 717.84 279.84 667.15 601.81 1067.36 726.11 992.14
950.76 488.85 553.99 569.21 549.93 701.74 680.02 912.66 401.47 542.53 527.02 194.08 623.14 467.30 311.00 482.77 323.06 355.33 422.82 490.79 565.89 364.93 707.10 378.50 414.81 189.11 476.43 445.94 334.69 629.30 484.47 574.43 496.27 172.95 594.30 386.35 821.23 444.10 367.15 468.43 539.01 500.49 341.01 398.08 367.20 205.58 335.78 458.68 148.95 182.12 614.09 430.43 481.97 416.42 422.75 590.28 619.15 430.90 426.63 904.56 581.89 854.63 446.19 685.41 101.72 825.62 758.07 396.14 825.44 607.94 467.29 459.53 751.46 357.93 272.21 342.94 418.09 421.94 660.24 554.28 356.14 248.70 505.01 524.73 862.45 422.26 173.97 358.58 472.29 649.63 614.60 824.43 551.33 378.37 490.52 770.98 537.83 461.72 409.41 471.04 525.53 566.88 563.36 532.52 623.89 513.09 659.94 523.63 542.51 433.04 861.20 598.98 387.21 705.10 558.74 767.19 860.83 543.96 489.73 551.31 457.50 449.43 376.48 262.58 315.43 478.50 701.59 663.19 461.11 563.92 731.99 623.04 459.40 747.79 452.76 417.19 557.32 759.31 574.22 588.62 519.04 555.27 431.33 388.40 702.63 621.88 428.49 460.18 416.07 759.41 760.96 852.23 478.48 501.12 353.54 831.82 591.22 771.60 250.39 250.87 717.27 506.63 423.53 781.68 600.12 609.65 939.82 462.67 583.68 683.34 591.33 305.93 332.76 669.12 505.03 365.04 583.96 402.05 476.11 343.72 523.11 520.43 393.37 669.66 0.00 821.43 479.70 573.82 420.05 439.10 432.36 404.31 431.62 409.56 115.85 469.59 382.16 449.96 650.15 165.10 615.87
189.88 1069.37 716.18 1110.94 1113.28 572.41 897.35 868.52 748.12 727.67 1119.90 701.20 318.40 595.60 656.25 659.89 583.04 590.72 490.15 1058.47 443.08 907.29 587.34 890.26 464.37 671.25 403.73 627.08 495.22 492.35 882.97 660.31 659.55 759.00 1148.23 559.70 806.75 682.74 505.96 405.16 1099.16 868.92 488.90 918.16 525.25 998.01 602.18 702.71 919.07 871.33 1105.51 1024.99 1138.02 725.53 716.89 287.35 448.36 675.79 881.56 879.12 427.66 441.20 444.32 573.08 807.66 849.23 482.96 665.16 268.54 1133.60 735.02 407.30 804.99 707.26 734.30 494.82 739.59 616.21 161.19 732.65 936.14 581.21 708.22 829.60 857.45 912.58 894.05 919.13 864.37 1106.91 1104.34 443.09 1116.74 741.77 612.53 131.41 761.68 1022.27 585.97 679.80 369.32 1142.28 726.96 751.74 1078.66 1103.39 883.02 643.82 278.92 424.05 955.30 395.46 742.28 514.55 1183.66 359.10 821.16 750.33 599.43 714.59 669.34 450.89 660.17 649.54 542.64 736.44 294.76 895.28 642.64 1117.52 218.42 1190.68 697.11 612.65 799.67 444.85 674.47 290.14 1145.48 1100.92 751.13 382.65 502.91 506.88 203.36 1167.90 712.84 633.37 420.57 99.96 903.11 964.27 425.64 662.00 584.45 809.43 318.77 746.81 996.08 649.48 1030.26 489.52 709.17 157.70 229.79 1177.29 926.14 635.60 904.91 888.62 1091.58 654.17 735.72 370.85 690.17 579.87 527.89 806.62 561.95 724.84 823.49 897.59 735.35 232.88 821.43 0.00 674.31 505.97 544.36 713.58 504.55 482.93 546.87 582.30 861.44 403.40 778.80 697.10 1201.77 914.16 1067.04
760.70 524.65 126.41 494.93 532.41 361.35 252.97 459.98 118.82 83.02 541.06 524.67 493.49 78.71 168.85 111.02 460.53 237.98 468.98 484.75 310.36 762.75 252.61 716.47 444.23 398.51 349.84 110.19 372.45 248.03 262.73 164.17 84.98 313.59 565.51 211.94 345.76 42.44 321.01 414.64 511.03 228.62 368.53 757.34 316.90 509.69 552.81 60.51 579.51 450.50 573.04 426.92 554.16 726.76 99.00 525.44 343.32 96.95 789.81 484.22 391.87 545.50 376.56 239.70 555.30 398.04 401.88 137.80 647.66 583.66 92.82 494.95 287.64 168.54 602.80 364.20 101.10 148.23 587.52 85.53 389.09 365.76 100.55 223.52 385.60 329.86 554.49 338.26 226.91 466.61 548.45 491.09 524.39 217.66 136.18 592.03 110.48 419.52 212.21 32.01 503.60 557.76 83.66 111.30 557.06 522.52 264.15 103.20 531.76 378.31 465.41 349.14 118.21 325.40 595.39 501.31 402.49 80.17 168.02 96.03 37.16 355.46 138.01 546.44 388.59 62.13 466.08 233.67 105.61 550.81 546.40 570.19 22.80 277.90 159.37 445.13 126.75 474.68 551.95 443.93 123.25 349.86 257.09 489.48 508.45 544.11 114.58 115.31 388.82 611.85 319.23 456.44 451.23 46.93 461.47 411.65 569.87 309.75 596.67 431.16 402.38 655.53 85.38 602.25 545.81 564.78 517.05 96.63 289.76 280.95 525.18 615.93 660.86 418.46 68.43 557.41 257.87 195.34 655.08 204.23 215.82 273.83 149.70 592.70 479.70 674.31 0.00 254.87 268.11 93.28 526.95 347.49 274.01 237.13 563.41 451.02 220.56 98.95 609.55 527.33 545.44
505.83 621.20 316.13 700.62 719.65 216.75 486.31 529.25 336.97 259.10 702.37 550.83 332.03 213.12 285.47 158.07 428.97 283.70 392.15 674.58 81.87 770.79 293.81 742.63 323.85 434.70 177.28 194.90 289.42 57.78 450.81 154.34 257.44 472.62 764.02 264.44 392.57 276.08 206.67 288.69 686.52 451.25 295.74 783.50 254.68 719.93 504.05 286.31 662.74 609.53 753.32 629.83 706.01 724.09 309.24 348.50 88.45 263.15 771.15 538.90 208.09 355.78 220.76 293.54 606.53 471.41 197.41 200.33 395.59 792.63 295.50 370.46 391.85 317.04 628.96 297.67 306.79 223.63 359.54 312.57 504.65 365.60 301.15 468.22 502.84 534.36 677.77 568.24 439.36 692.33 733.96 250.61 715.12 342.23 155.65 437.46 318.99 649.50 238.17 252.90 349.38 712.67 296.57 311.51 743.25 676.88 454.82 198.22 309.78 200.49 493.80 192.63 311.73 260.87 735.49 287.06 449.76 318.26 155.84 284.20 266.52 240.32 219.99 513.86 325.75 280.86 211.21 467.29 219.75 708.04 324.61 771.30 232.07 308.53 382.00 277.21 239.90 258.57 758.91 678.03 323.14 142.30 142.49 402.09 337.81 745.22 300.20 229.45 254.86 406.01 555.84 502.77 293.06 252.88 404.98 453.77 382.50 406.41 759.98 435.83 602.27 512.58 315.36 398.92 290.94 762.67 585.40 210.77 508.20 477.10 710.69 566.51 654.32 193.29 261.03 491.71 33.96 396.12 575.00 342.58 416.42 484.95 290.94 377.78 573.82 505.97 254.87 0.00 248.01 300.94 384.00 257.91 192.19 228.51 641.39 329.61 393.55 284.46 808.92 681.74 735.23
619.78 663.92 384.74 679.61 684.11 415.13 521.08 703.65 332.32 344.06 692.72 368.48 311.12 197.65 187.64 232.85 245.81 112.84 214.55 580.59 251.69 606.56 438.59 560.28 176.12 292.06 140.63 196.02 119.71 305.79 435.24 327.74 304.55 351.40 689.98 117.64 613.87 280.67 52.90 184.86 629.39 445.78 113.39 601.15 67.21 594.46 333.71 304.67 569.00 488.31 728.45 611.06 673.26 539.74 294.70 324.79 256.97 248.61 639.97 707.10 277.96 434.58 129.93 423.33 373.05 637.83 445.42 179.97 513.52 758.11 332.76 242.27 555.75 220.09 446.58 114.51 314.09 184.14 383.17 345.76 464.07 196.98 367.74 478.91 652.35 500.46 594.02 517.67 431.92 702.35 704.40 498.62 660.86 271.38 250.46 505.40 373.80 620.81 116.83 284.09 322.43 692.31 351.77 337.06 713.37 641.34 518.48 243.41 315.61 134.81 723.19 245.68 327.55 366.37 719.55 423.22 670.60 348.28 226.36 347.86 271.30 145.50 160.31 330.70 130.25 330.24 307.06 501.78 210.76 658.53 420.46 744.94 290.91 447.78 388.99 202.21 334.96 376.28 731.90 669.04 391.36 191.26 105.52 233.98 391.89 738.77 280.39 196.03 150.49 495.29 553.93 719.76 198.51 264.05 261.15 611.91 372.43 574.06 589.12 248.36 621.91 400.39 300.44 485.69 341.27 737.90 733.05 214.71 497.64 541.88 681.13 380.00 467.81 329.40 306.56 322.00 269.71 364.39 431.99 283.16 435.73 465.14 245.27 428.11 420.05 544.36 268.11 248.01 0.00 286.40 271.81 79.38 55.82 74.21 501.55 233.51 353.81 269.92 778.40 534.41 705.67
760.04 514.42 196.24 452.75 501.00 405.85 313.85 537.69 45.92 172.73 481.90 531.16 521.04 117.98 175.34 142.87 446.21 227.65 441.60 434.27 340.92 740.91 305.89 694.63 412.75 403.55 347.84 149.46 339.74 314.23 195.80 217.10 151.66 274.44 527.71 223.16 422.57 71.37 283.81 413.51 452.67 193.33 333.42 735.50 289.85 445.38 540.89 58.15 515.20 397.59 505.77 394.71 481.26 722.13 34.69 546.28 365.26 37.79 787.45 505.90 423.55 551.03 362.85 284.20 540.82 467.87 435.95 123.15 650.35 542.95 85.27 461.73 373.07 115.42 586.29 335.16 58.92 166.03 590.38 178.81 314.57 353.84 145.84 241.37 478.88 300.45 490.18 306.85 174.31 482.10 481.18 520.02 471.79 124.38 175.45 647.07 179.87 361.16 200.29 61.27 532.86 508.61 176.94 157.88 490.47 468.56 317.81 148.69 543.76 365.72 493.52 380.82 51.89 378.68 558.03 542.50 475.82 166.53 155.03 182.71 58.84 372.07 126.09 534.52 340.34 105.05 503.33 314.13 103.61 491.68 575.75 538.78 92.12 371.18 131.96 422.24 185.08 540.88 521.91 442.55 192.57 381.54 278.71 484.30 537.71 512.70 56.52 110.68 405.43 641.11 405.59 502.49 409.22 109.91 458.74 485.29 596.27 403.03 532.36 419.24 373.62 605.70 53.97 631.51 554.59 533.37 586.88 112.59 248.36 326.24 457.91 590.09 646.84 451.66 137.75 542.03 289.40 163.93 668.12 139.92 180.93 240.08 74.58 624.38 439.10 713.58 93.28 300.94 286.40 0.00 477.12 329.55 289.10 229.25 471.66 439.10 159.60 31.68 578.14 468.17 482.45
629.81 814.46 621.17 859.70 855.18 600.75 702.91 893.11 523.04 555.17 774.19 253.35 303.11 469.46 379.66 473.88 182.83 316.45 129.05 784.20 364.05 402.74 571.60 445.15 114.51 278.25 250.90 445.43 164.74 441.78 639.85 538.34 545.62 495.86 872.61 316.60 761.50 502.70 259.65 168.39 829.22 597.38 158.42 427.41 211.64 624.23 150.66 529.48 580.45 524.67 880.66 711.23 842.92 340.09 500.14 252.45 358.55 454.05 387.15 907.83 353.01 601.91 233.55 549.91 373.84 840.34 579.47 422.06 629.30 924.67 559.51 97.25 751.11 441.46 304.41 164.34 519.53 406.20 366.38 595.17 675.01 206.24 594.88 658.36 856.35 636.96 597.10 700.64 632.60 862.14 893.36 630.13 863.37 497.17 421.47 462.34 595.44 752.21 342.87 494.94 186.60 856.67 573.51 580.81 891.91 825.13 731.76 469.20 248.65 241.56 874.03 370.10 529.01 617.92 907.44 505.36 818.69 585.06 414.17 561.14 513.17 220.55 413.91 212.98 212.16 551.12 477.88 738.56 440.89 841.68 553.63 901.63 517.13 637.24 602.95 106.79 497.16 523.94 902.91 846.60 617.58 326.39 311.67 59.03 459.05 908.91 487.58 437.10 187.19 468.77 822.15 883.00 188.72 495.01 134.90 802.85 252.87 745.71 626.48 216.49 839.07 128.58 513.22 545.41 305.66 888.24 924.89 431.91 706.47 755.16 870.09 193.98 281.79 373.16 519.05 142.76 417.96 565.29 191.00 489.12 655.17 672.33 486.34 320.88 432.36 504.55 526.95 384.00 271.81 477.12 0.00 228.02 281.61 315.28 454.20 159.19 578.10 469.81 931.77 562.69 894.63
605.85 586.44 418.58 744.91 699.65 393.22 539.64 741.58 375.47 407.59 667.61 324.69 262.43 277.03 246.96 299.38 194.98 188.80 152.82 656.55 213.49 562.77 440.97 516.49 148.93 256.98 83.17 262.55 69.62 293.17 451.85 379.66 339.47 347.82 744.02 167.77 626.89 345.20 51.47 128.56 682.80 497.22 69.60 557.36 62.81 515.08 271.93 371.78 553.26 484.73 757.88 640.14 671.25 519.32 337.85 268.49 251.25 291.76 596.18 758.58 231.17 491.15 79.15 433.46 400.88 682.18 412.80 259.35 460.77 779.67 390.79 166.46 594.66 299.47 395.92 63.68 357.24 241.21 321.74 390.95 534.28 155.61 436.09 548.69 636.01 525.32 578.28 534.28 480.34 761.48 759.49 479.57 695.12 287.99 272.64 466.26 405.44 637.42 187.04 327.49 263.94 710.67 367.98 414.29 746.85 656.88 550.97 300.48 275.01 58.88 719.63 253.35 373.39 445.75 700.73 429.03 677.75 406.98 254.06 380.35 345.72 98.71 239.69 279.87 118.25 393.62 334.55 560.48 280.97 673.99 433.25 741.30 358.34 485.71 446.21 152.12 393.89 403.77 756.91 723.33 438.34 185.54 115.65 222.84 390.46 748.58 328.81 266.24 113.25 438.24 633.31 728.60 173.96 343.43 241.84 630.24 314.58 631.13 602.06 230.18 644.82 356.60 362.21 465.21 303.93 727.91 743.18 274.41 511.23 574.37 739.30 368.00 452.12 316.39 370.09 271.91 268.28 426.01 400.83 324.03 500.92 511.36 315.48 390.77 404.31 482.93 347.49 257.91 79.38 329.55 228.02 0.00 112.89 144.42 482.26 154.13 413.01 313.07 774.16 536.21 758.47
670.67 640.16 354.44 672.48 643.03 359.31 498.34 688.01 303.59 309.29 695.42 378.28 290.16 195.30 139.72 200.65 260.41 115.04 231.37 582.79 213.26 616.36 389.20 570.08 202.52 242.51 147.86 163.82 129.51 249.97 379.42 303.78 278.61 366.17 680.29 92.77 578.18 255.86 71.29 201.27 626.18 431.42 123.19 610.95 112.66 588.49 343.51 282.64 580.57 503.08 688.34 567.71 658.90 534.06 289.01 277.19 249.19 251.31 649.77 651.28 232.59 490.40 102.55 367.51 428.87 594.93 389.60 173.90 524.71 728.68 277.90 250.18 529.71 208.30 456.41 129.11 300.87 128.32 385.68 313.56 449.71 215.50 348.29 465.96 628.88 444.64 587.81 461.85 403.91 674.73 701.04 442.80 638.50 215.56 217.32 456.11 347.88 564.99 94.71 282.80 328.73 654.05 336.53 315.56 710.33 600.26 497.40 187.59 305.08 122.82 685.99 189.86 305.43 417.17 709.04 441.49 617.18 336.49 196.11 326.78 269.04 128.78 163.01 345.30 176.93 299.49 357.95 489.99 196.40 648.01 420.64 710.21 291.59 451.80 372.79 212.01 281.00 423.07 700.29 636.39 372.82 219.77 49.70 289.80 410.28 709.05 252.38 181.67 148.91 469.43 575.55 694.96 208.25 257.02 289.34 596.33 337.19 518.24 591.32 283.77 607.55 410.19 303.14 504.08 334.75 696.82 677.23 200.35 475.52 520.80 677.77 374.32 462.13 309.29 298.59 331.80 226.15 350.03 472.61 251.60 413.61 437.13 230.91 421.59 431.62 546.87 274.01 192.19 55.82 289.10 281.61 112.89 0.00 59.85 479.80 224.12 340.58 260.67 737.32 536.61 702.31
693.99 589.71 321.20 621.96 626.46 419.16 448.94 653.86 260.55 298.46 635.57 411.95 350.01 159.59 129.99 197.39 273.26 55.19 264.36 522.94 249.58 608.92 364.38 587.95 236.19 262.23 185.20 160.56 150.54 286.29 381.24 301.11 230.34 306.32 634.71 43.43 577.88 206.46 127.11 259.07 571.74 371.57 156.86 621.52 108.93 603.66 328.56 233.24 532.00 443.23 670.80 545.57 599.05 590.26 237.55 337.04 256.01 191.46 619.56 661.21 260.86 505.26 162.40 386.07 389.16 563.62 425.92 121.81 563.15 700.46 258.55 302.34 485.53 198.57 446.06 156.23 241.02 140.85 427.74 299.29 389.86 160.86 311.10 406.11 578.14 454.66 527.96 459.36 357.71 630.63 646.75 479.12 603.21 225.40 193.67 515.96 310.26 562.50 42.62 226.94 380.23 634.15 297.75 273.52 655.72 583.69 456.00 223.39 362.05 182.67 648.98 249.71 253.34 419.72 662.40 440.24 600.38 285.23 185.86 285.38 214.15 185.75 103.16 341.54 184.57 259.71 381.27 438.73 136.55 588.16 480.49 689.67 237.87 466.11 314.78 233.04 296.90 450.49 674.25 594.83 330.78 199.65 86.02 307.06 464.75 664.56 206.18 121.82 208.76 505.75 524.29 657.95 268.10 221.84 229.49 565.89 391.91 546.88 531.47 261.57 547.70 443.86 243.29 551.07 394.60 680.25 682.63 140.50 423.43 478.31 623.48 430.52 506.61 308.04 260.96 345.58 262.47 290.18 445.49 221.23 361.52 390.93 171.06 456.99 409.56 582.30 237.13 228.51 74.21 229.25 315.28 144.42 59.85 0.00 427.34 283.97 296.66 200.82 720.75 476.76 648.02
1004.88 500.30 647.40 584.58 591.58 817.59 721.11 967.92 492.66 623.00 470.41 200.85 656.77 485.87 426.85 527.15 366.37 471.18 459.66 516.29 649.69 308.93 734.64 262.65 503.83 237.29 565.43 506.88 424.65 661.33 511.14 637.20 556.62 288.80 573.56 470.77 894.23 522.53 483.00 456.28 565.09 569.99 424.50 282.23 465.88 188.27 342.55 529.81 137.25 223.77 647.16 417.65 470.27 453.75 479.72 596.21 683.35 468.02 372.69 977.56 649.24 930.61 520.04 738.23 138.56 919.03 809.04 441.06 915.40 631.09 547.48 494.75 811.81 414.06 278.98 418.58 511.18 519.85 700.25 631.94 420.94 338.66 598.10 610.91 904.42 523.55 159.20 468.47 534.77 642.50 619.45 892.00 581.28 347.28 543.34 826.10 628.32 477.96 469.96 532.93 576.77 618.32 624.03 606.17 620.31 574.30 773.30 549.67 642.23 534.56 937.00 616.25 500.45 766.04 547.04 838.80 926.66 611.51 504.01 611.66 530.50 521.33 460.72 299.42 405.39 546.30 775.44 765.01 462.83 497.03 847.03 615.41 563.78 807.23 515.24 507.15 613.45 844.66 647.66 575.84 632.40 626.99 513.36 395.17 774.53 616.25 479.32 448.10 487.97 834.10 802.44 945.97 546.09 552.27 370.76 892.17 643.04 873.16 222.70 294.18 746.94 513.40 509.70 865.59 631.65 602.02 1018.40 466.78 655.42 775.69 616.83 312.70 339.53 706.60 587.24 371.81 643.59 509.13 512.95 383.32 564.20 570.65 444.20 717.84 115.85 861.44 563.41 641.39 501.55 471.66 454.20 482.26 479.80 427.34 0.00 524.52 444.64 474.99 638.19 108.49 608.69
566.23 740.57 548.86 806.16 776.22 513.47 679.88 785.26 485.02 486.65 761.53 326.37 234.79 415.46 350.83 420.81 246.12 298.48 86.75 766.23 256.20 537.88 488.39 518.17 60.97 322.26 183.20 383.98 134.90 370.09 592.84 483.95 479.77 485.19 820.59 289.69 681.58 437.40 185.36 68.24 790.18 579.26 140.30 539.89 184.73 658.66 219.23 457.37 606.61 553.77 855.95 752.28 824.80 448.14 447.40 172.25 272.48 401.31 546.34 827.91 208.16 509.87 137.91 495.52 407.85 760.42 493.87 332.67 505.13 877.65 489.68 74.68 721.46 400.52 356.03 137.43 466.79 341.87 242.21 521.23 600.58 220.89 545.39 631.61 756.20 612.25 631.63 646.42 568.34 835.23 860.68 522.28 829.01 435.25 394.56 341.03 537.03 698.67 307.23 436.79 109.81 826.83 498.26 529.64 837.52 790.77 656.51 396.82 124.48 140.73 778.39 250.89 482.94 546.78 854.86 428.82 738.77 530.89 359.66 485.89 424.00 123.35 313.01 310.72 160.35 492.43 341.37 673.39 399.47 811.23 454.77 865.62 467.64 529.39 516.12 52.40 484.12 410.59 843.93 828.48 558.72 229.19 249.54 156.77 334.88 872.90 438.36 384.74 91.55 309.58 757.53 787.36 96.68 431.88 209.68 707.21 176.08 645.56 686.47 261.18 786.33 211.51 453.14 427.29 193.00 852.23 824.74 399.20 665.36 679.91 842.91 321.19 409.00 296.62 449.15 260.64 322.97 535.45 305.62 450.44 586.47 623.11 421.48 279.84 469.59 403.40 451.02 329.61 233.51 439.10 159.19 154.13 224.12 283.97 524.52 0.00 478.21 416.68 898.48 581.54 849.14
830.23 388.69 243.65 374.85 408.92 513.14 297.86 577.22 113.68 268.84 448.97 564.04 598.40 220.84 208.22 248.11 395.27 265.35 501.86 340.47 411.11 747.09 413.95 707.29 502.58 427.77 418.03 226.37 424.15 400.25 114.63 335.47 248.38 222.95 433.91 292.06 494.34 187.53 389.05 480.92 358.87 125.35 423.25 726.87 370.03 484.70 443.04 166.21 473.43 359.86 445.51 313.54 408.98 704.74 126.82 602.31 438.53 143.03 798.72 622.20 508.05 656.27 437.27 425.52 483.88 515.28 537.71 213.16 745.67 455.18 190.60 506.54 461.80 139.64 635.88 417.33 125.62 252.74 660.57 202.77 188.84 383.27 212.54 166.27 561.45 227.93 470.81 254.35 90.13 427.14 419.85 636.18 387.61 125.02 278.31 731.57 237.09 267.36 267.59 194.17 557.59 424.65 225.74 228.54 437.18 374.76 397.96 272.07 567.98 417.00 534.20 465.32 121.66 485.53 476.29 612.69 551.53 217.57 292.57 238.11 199.58 449.92 193.50 519.83 445.58 171.74 550.47 349.20 173.80 446.42 645.52 459.00 220.45 453.09 70.60 487.02 302.09 619.69 456.97 367.87 266.59 396.15 346.12 528.85 646.08 482.97 105.98 188.53 471.37 713.86 417.10 525.23 514.46 233.29 489.75 539.89 623.86 530.31 539.87 467.46 344.37 637.21 137.46 701.57 636.04 462.30 633.06 182.78 210.78 375.04 423.64 545.00 632.81 534.29 260.06 490.31 359.59 64.49 666.46 88.98 140.95 155.90 127.70 667.15 382.16 778.80 220.56 393.55 353.81 159.60 578.10 413.01 340.58 296.66 444.64 478.21 0.00 152.30 508.55 462.21 436.06
743.56 525.36 200.06 475.35 498.13 436.32 317.67 521.21 77.60 159.75 465.42 499.48 502.60 101.50 143.66 126.39 424.22 203.77 419.57 458.35 324.44 724.43 337.57 678.15 390.72 375.86 331.36 119.30 313.72 292.23 216.44 235.85 175.60 277.01 504.42 206.68 425.52 75.19 267.33 397.03 444.68 202.39 311.39 719.02 258.17 472.36 524.41 74.76 530.74 413.92 474.09 387.99 512.94 690.45 61.67 526.66 348.54 21.31 770.97 508.85 400.98 534.55 346.37 315.88 536.82 471.69 424.67 101.48 655.68 511.27 107.07 445.25 381.42 98.94 577.61 305.47 81.52 148.64 573.90 184.48 325.74 337.36 168.44 261.21 484.55 268.77 517.16 303.98 197.85 499.36 449.50 508.32 480.57 127.71 158.97 624.50 175.37 385.24 180.67 80.02 526.49 476.93 182.61 173.31 458.79 470.60 338.14 140.89 516.69 343.53 515.32 358.25 81.30 378.46 561.33 512.93 482.71 179.12 183.04 180.06 61.79 340.39 109.61 518.04 323.86 121.66 495.67 311.26 87.13 482.55 583.69 535.91 110.87 376.85 133.14 396.22 188.03 518.88 490.23 434.05 208.27 349.86 266.20 464.29 536.55 509.83 46.32 79.00 373.75 639.95 418.18 523.26 392.74 128.66 430.31 490.42 570.25 408.70 559.34 399.62 400.60 598.39 51.10 630.35 549.37 530.50 590.70 96.11 277.77 348.84 426.23 573.61 638.16 453.18 144.98 516.01 272.92 161.06 646.31 150.69 196.37 231.07 80.87 601.81 449.96 697.10 98.95 284.46 269.92 31.68 469.81 313.07 260.67 200.82 474.99 416.68 152.30 0.00 556.79 451.69 450.77
1265.90 187.72 598.44 185.47 128.47 892.58 508.63 906.58 556.11 646.42 266.29 793.34 998.51 637.74 597.60 652.59 785.16 665.56 889.71 197.81 846.78 868.86 793.27 894.81 882.16 704.17 839.10 662.04 810.18 827.10 419.45 713.80 667.23 520.94 109.03 683.13 811.25 585.12 742.47 893.56 162.98 447.39 816.50 853.94 788.09 513.01 783.83 578.73 544.44 494.45 135.03 220.54 211.42 1030.21 554.15 1014.51 897.02 578.10 930.56 916.20 943.72 1061.25 821.51 771.58 605.65 832.06 928.79 630.59 1196.05 85.20 546.73 940.62 725.40 588.15 865.80 810.99 548.58 643.50 1040.58 586.84 366.86 803.21 587.79 451.00 785.89 344.68 569.46 321.32 448.28 201.24 107.29 991.13 150.80 561.12 695.21 1148.03 566.48 244.46 696.01 608.87 1008.29 118.25 602.91 599.75 134.55 137.06 580.20 693.45 998.95 824.38 731.21 900.99 560.49 852.76 134.65 1033.08 827.09 563.91 711.29 615.28 590.64 835.07 650.25 766.51 842.48 571.21 992.27 560.34 609.47 161.92 1084.35 54.07 626.38 821.88 470.07 892.68 679.26 1053.75 91.89 259.44 599.38 853.14 754.35 872.74 1081.46 65.44 542.11 624.20 864.26 1149.96 627.87 722.24 926.67 647.44 857.47 849.41 1031.15 776.16 544.18 715.28 409.88 978.00 524.17 1137.70 1041.50 46.25 843.83 618.45 375.69 585.81 130.56 885.79 926.35 948.04 667.50 831.10 779.98 484.37 980.04 525.08 472.52 389.17 558.94 1067.36 650.15 1201.77 609.55 808.92 778.40 578.14 931.77 774.16 737.32 720.75 638.19 898.48 508.55 556.79 0.00 539.78 134.73
970.52 422.01 609.76 561.41 483.09 803.86 673.45 930.28 479.72 586.25 361.92 309.34 712.72 510.57 430.47 523.67 431.88 421.57 534.12 507.91 632.13 417.42 751.78 371.14 557.78 297.93 582.88 486.84 480.78 680.06 488.15 637.88 547.75 251.20 488.44 452.59 862.02 484.89 531.85 564.77 526.67 574.79 478.45 390.72 483.84 138.87 451.04 511.67 86.92 115.28 538.67 468.16 419.94 562.24 476.47 662.06 699.18 430.38 481.18 945.35 714.43 939.08 580.68 730.09 247.05 881.39 833.74 515.61 976.04 566.76 543.98 506.86 802.94 436.18 387.47 472.53 495.86 500.19 766.20 601.52 312.45 399.30 582.78 568.12 898.18 415.06 94.16 380.47 551.86 617.04 537.50 898.21 472.79 389.35 541.28 867.57 610.46 456.53 478.61 511.83 646.19 509.83 598.42 608.44 511.82 511.03 770.25 564.53 658.26 590.69 935.86 714.82 502.70 746.00 496.71 878.07 917.79 607.50 566.91 602.79 498.29 581.97 495.95 398.12 466.03 556.27 820.54 725.16 496.20 501.89 886.89 506.92 528.90 805.23 532.81 563.28 624.53 876.67 539.17 585.28 629.35 633.47 562.78 503.66 835.17 514.20 467.43 510.93 548.61 891.12 792.69 944.83 598.33 558.99 479.25 883.30 608.62 815.02 175.31 359.69 694.67 567.04 500.83 919.54 700.18 493.53 1000.40 505.18 561.08 750.63 524.74 420.57 439.68 745.87 574.53 420.14 662.97 480.30 596.29 421.97 554.70 506.10 471.62 726.11 165.10 914.16 527.33 681.74 534.41 468.17 562.69 536.21 536.61 476.76 108.49 581.54 462.21 451.69 539.78 0.00 500.20
1194.33 214.73 556.36 61.21 92.02 826.59 447.02 832.67 465.86 604.98 295.90 809.54 946.24 552.27 571.23 577.16 765.43 592.83 851.92 125.08 775.21 917.62 758.81 871.34 806.40 661.16 766.52 570.07 750.06 743.00 340.37 660.30 573.28 520.31 133.22 623.85 713.17 517.20 718.10 830.79 132.76 358.54 743.74 885.02 695.66 525.99 818.80 495.63 566.21 459.83 38.47 198.50 242.50 1032.29 490.04 970.72 787.19 472.08 971.57 815.41 849.66 963.11 792.17 737.12 716.04 721.93 875.44 552.25 1094.33 66.56 476.23 872.55 663.79 549.71 819.48 742.96 455.04 599.41 905.85 553.60 320.54 762.53 527.91 341.36 675.76 257.67 541.19 269.24 376.36 116.84 37.30 959.09 78.88 504.23 609.74 1075.27 532.02 168.70 631.44 530.79 942.47 75.24 574.48 527.83 11.62 114.60 506.29 591.66 951.26 771.90 628.71 809.02 485.92 814.90 190.13 963.70 753.18 562.33 633.81 573.84 512.56 791.16 560.38 820.47 770.56 508.53 946.44 450.21 537.90 179.44 1009.78 123.64 549.87 784.74 427.79 796.74 611.48 969.65 78.44 124.71 560.80 771.63 667.34 850.70 987.32 124.63 480.14 529.77 821.01 1069.24 566.26 619.74 843.51 543.06 814.74 769.40 1000.68 653.23 547.31 693.24 295.81 947.64 460.06 1075.73 974.45 110.25 782.22 546.88 333.61 509.08 24.54 913.92 880.03 892.03 579.33 866.07 723.69 406.54 1027.12 510.04 412.64 316.35 515.26 992.14 615.87 1067.04 545.44 735.23 705.67 482.45 894.63 758.47 702.31 648.02 608.69 849.14 436.06 450.77 134.73 500.20 0.00
DEMAND_SECTION
1 0
2 91
3 9
4 51
5 70
6 41
7 40
8 3
9 59
10 41
11 61
12 24
13 56
14 4
15 19
16 22
17 36
18 46
19 5
20 83
21 75
22 35
23 35
24 33
25 81
26 7
27 91
28 13
29 10
30 61
31 59
32 24
33 23
34 90
35 69
36 37
37 15
38 16
39 67
40 77
41 59
42 57
43 7
44 39
45 29
46 97
47 47
48 45
49 43
50 100
51 98
52 64
53 63
54 46
55 72
56 52
57 96
58 62
59 7
60 50
61 52
62 85
63 57
64 39
65 9
66 36
67 69
68 26
69 56
70 65
71 28
72 67
73 35
74 59
75 13
76 17
77 71
78 31
79 68
80 44
81 77
82 31
83 50
84 86
85 21
86 68
87 38
88 62
89 84
90 96
91 60
92 55
93 63
94 71
95 37
96 92
97 27
98 81
99 87
100 19
101 83
102 92
103 33
104 15
105 51
106 89
107 24
108 36
109 59
110 56
111 45
112 66
113 91
114 23
115 63
116 60
117 41
118 21
119 33
120 5
121 17
122 89
123 9
124 29
125 28
126 6
127 84
128 18
129 37
130 57
131 96
132 87
133 48
134 49
135 66
136 61
137 11
138 74
139 93
140 74
141 39
142 85
143 79
144 44
145 86
146 71
147 100
148 41
149 72
150 85
151 42
152 37
153 91
154 36
155 38
156 18
157 97
158 2
159 22
160 8
161 91
162 16
163 59
164 54
165 53
166 58
167 31
168 35
169 90
170 6
171 59
172 49
173 3
174 79
175 42
176 1
177 67
178 55
179 48
180 71
181 51
182 86
183 98
184 53
185 15
186 58
187 49
188 80
189 77
190 98
191 44
192 55
193 87
194 62
195 4
196 51
197 79
198 86
199 58
200 48
201 95
DEPOT_SECTION
1
-1
EOF
