NAME: LDG200_3224_rain_200_0072
COMMENT: CVRP with travel times.  rootPos=3,custPos=2,demandType=2,avgRouteSizeIndex=4,weather=rain,lambda_cluster=1,lambda_random=4, T1=300,T2=700,beta=1, alpha(i,j) ~ U(0.8,1.2)
TYPE: CVRP
DIMENSION: 201
EDGE_WEIGHT_TYPE: EXPLICIT
EDGE_WEIGHT_FORMAT: FULL_MATRIX
CAPACITY: 74
NODE_COORD_SECTION
1 0 0
2 340 637
3 489 738
4 352 223
5 696 773
6 272 258
7 685 940
8 724 942
9 329 703
10 518 943
11 198 147
12 378 739
13 509 844
14 688 997
15 909 964
16 300 322
17 876 909
18 215 213
19 314 708
20 264 57
21 333 812
22 307 320
23 358 801
24 325 281
25 792 649
26 367 104
27 736 863
28 598 633
29 79 140
30 641 980
31 707 977
32 596 89
33 783 841
34 389 748
35 387 552
36 747 831
37 382 415
38 855 993
39 246 762
40 729 924
41 288 288
42 859 902
43 586 629
44 269 251
45 763 941
46 355 712
47 564 861
48 644 959
49 506 762
50 689 816
51 739 968
52 283 116
53 873 640
54 686 833
55 975 912
56 755 932
57 685 780
58 246 768
59 622 957
60 859 993
61 724 950
62 688 903
63 365 73
64 166 242
65 317 667
66 402 713
67 558 897
68 752 708
69 349 274
70 887 815
71 490 701
72 681 856
73 60 238
74 292 234
75 588 869
76 828 905
77 903 885
78 613 836
79 645 917
80 609 866
81 665 908
82 154 123
83 673 960
84 262 526
85 509 827
86 763 881
87 293 766
88 240 172
89 666 898
90 822 901
91 421 270
92 246 94
93 430 748
94 614 734
95 552 929
96 219 215
97 754 945
98 281 256
99 692 977
100 325 725
101 319 406
102 352 718
103 421 692
104 639 934
105 723 985
106 405 917
107 727 838
108 184 202
109 462 856
110 480 218
111 557 733
112 490 928
113 675 923
114 251 685
115 409 730
116 770 920
117 263 175
118 783 936
119 367 732
120 818 885
121 777 838
122 749 873
123 694 958
124 366 189
125 351 860
126 719 937
127 633 976
128 360 485
129 724 943
130 626 907
131 768 977
132 722 978
133 868 874
134 263 154
135 661 909
136 790 987
137 366 26
138 577 877
139 363 813
140 352 930
141 622 902
142 313 624
143 603 595
144 757 906
145 318 692
146 753 849
147 762 876
148 428 888
149 268 188
150 735 920
151 508 898
152 666 573
153 696 896
154 295 833
155 189 625
156 661 965
157 189 205
158 739 900
159 311 604
160 986 906
161 241 186
162 266 231
163 727 932
164 190 201
165 766 983
166 371 745
167 760 858
168 258 200
169 968 646
170 688 937
171 752 910
172 812 881
173 22 291
174 722 925
175 741 977
176 326 740
177 116 81
178 487 901
179 693 897
180 357 786
181 192 113
182 653 824
183 696 784
184 388 748
185 285 99
186 256 195
187 306 260
188 360 306
189 646 844
190 696 730
191 280 107
192 425 680
193 801 957
194 373 749
195 635 876
196 743 918
197 772 905
198 394 771
199 708 947
200 343 272
201 770 900
EDGE_WEIGHT_SECTION
0.00 804.56 985.31 462.82 1112.47 451.07 1183.38 1239.03 810.63 1110.80 378.74 844.24 1080.95 1235.44 1417.58 520.24 1346.52 369.66 815.68 451.90 881.90 503.10 917.72 480.36 1082.01 464.89 1210.52 956.93 180.74 1223.66 1231.60 793.28 1214.76 866.77 727.60 1154.85 650.26 1372.02 870.08 1227.14 450.80 1321.11 934.20 437.84 1255.11 822.05 1115.39 1209.15 1034.27 1170.93 1265.87 442.76 1199.37 1172.72 1414.73 1238.87 1084.71 854.43 1203.99 1373.79 1235.34 1179.64 418.02 387.23 733.84 898.16 1126.80 1145.15 488.50 1269.47 972.31 1168.40 290.08 408.77 1149.59 1285.81 1364.13 1126.66 1138.51 1110.66 1170.46 282.23 1202.30 644.55 1049.38 1229.29 871.61 396.07 1147.03 1268.17 563.44 419.81 907.94 1097.08 1140.63 375.01 1227.67 439.77 1226.38 811.90 629.74 835.95 906.95 1192.69 1255.99 1053.31 1181.57 333.94 1017.66 625.61 1046.49 1098.58 1183.17 712.41 898.85 1247.37 342.20 1281.86 859.71 1282.00 1220.42 1232.27 1211.51 519.79 987.70 1226.78 1231.30 684.09 1243.55 1150.79 1264.38 1254.66 1340.23 370.94 1163.51 1297.51 479.93 1127.65 937.56 1080.51 1164.88 789.35 938.16 1235.08 786.21 1198.24 1237.56 1054.71 371.98 1241.75 1073.93 928.94 1188.03 940.23 891.18 1183.84 331.79 1237.88 768.46 1446.28 384.82 417.77 1237.24 320.30 1276.28 862.17 1198.84 372.89 1291.05 1201.51 1240.77 1298.36 381.90 1231.31 1261.75 834.63 259.23 1071.00 1200.82 907.08 341.07 1176.61 1098.90 865.41 435.82 382.30 449.63 549.84 1144.42 1164.21 455.91 944.82 1311.15 857.37 1087.52 1232.78 1246.03 887.92 1220.33 476.75 1235.81
804.56 0.00 225.55 461.94 457.26 446.87 476.89 530.89 79.61 400.86 599.38 169.30 344.67 555.03 732.02 419.90 688.94 530.93 103.47 674.98 218.78 437.04 220.92 393.50 569.86 636.37 548.21 395.30 623.82 492.90 530.40 677.91 552.58 176.10 140.47 557.40 357.29 668.47 206.96 514.32 457.56 665.52 381.11 457.37 559.73 133.23 408.17 505.34 247.75 515.72 550.90 613.13 706.35 484.16 774.94 551.59 429.50 191.31 516.43 677.50 528.85 472.53 631.40 603.19 70.72 161.92 417.24 547.53 402.12 632.05 195.29 492.75 638.06 463.18 445.04 628.23 701.95 456.75 451.70 459.27 433.65 641.61 495.10 212.92 334.13 543.57 183.72 567.03 457.13 612.58 451.88 644.00 191.59 377.58 425.27 537.94 561.84 462.94 535.88 124.01 310.87 119.33 224.43 491.86 525.29 336.69 521.56 553.96 286.64 459.20 285.27 402.43 458.22 112.33 148.55 567.52 524.92 573.65 159.20 599.27 571.74 529.48 516.44 514.76 298.88 509.48 513.20 176.03 518.94 474.35 571.49 547.63 669.00 553.66 426.70 589.84 679.29 416.07 252.15 353.20 488.99 68.12 424.29 543.76 104.03 547.60 561.41 353.72 536.33 520.85 383.52 459.58 487.05 266.38 180.77 508.85 548.66 541.34 98.16 776.96 538.85 505.84 507.80 537.17 583.39 178.63 564.87 519.69 726.07 483.55 549.26 615.22 595.52 500.36 555.26 138.51 693.05 333.00 476.94 190.46 622.12 441.60 453.77 185.62 618.54 510.28 428.05 394.64 452.61 481.62 603.55 245.58 606.54 179.87 477.28 540.33 552.82 207.46 513.84 390.37 554.11
985.31 225.55 0.00 616.66 278.81 626.06 322.71 368.97 206.23 292.80 737.01 141.07 153.25 363.61 557.49 545.98 521.12 680.38 225.28 824.25 229.00 528.84 213.32 598.67 378.44 791.09 344.86 254.45 804.57 341.38 364.17 737.24 407.98 151.80 356.85 380.01 429.22 516.93 283.99 353.77 573.21 500.40 243.63 625.57 398.13 180.41 244.52 345.86 56.33 338.67 369.76 755.31 534.21 301.00 611.57 389.17 252.45 299.64 332.91 512.59 374.67 321.47 797.37 727.96 251.47 125.80 225.82 369.08 612.14 455.00 54.44 310.23 780.45 646.47 285.86 460.41 546.86 279.70 277.84 292.92 309.79 804.83 303.68 413.78 131.95 375.48 262.06 710.72 333.27 447.46 603.74 792.57 113.21 186.16 246.95 671.33 395.62 615.47 352.74 206.57 536.42 166.51 117.06 324.83 388.56 257.79 339.62 712.71 197.27 653.88 108.22 273.00 328.98 311.55 103.61 414.27 688.22 418.82 151.17 434.12 400.87 368.57 330.15 680.73 262.31 367.30 356.88 401.58 366.15 282.93 413.11 373.30 489.96 716.96 302.84 446.24 882.03 259.34 240.76 337.59 298.96 273.37 315.40 392.70 212.96 376.06 357.64 190.16 680.13 363.97 220.01 363.13 292.52 277.30 381.36 323.91 701.78 390.28 289.87 609.56 676.96 612.65 363.87 713.27 425.01 159.00 352.19 668.26 593.75 330.40 401.22 444.28 781.61 367.73 390.23 210.23 842.50 211.00 306.82 182.86 801.41 252.20 276.72 140.68 767.81 658.85 633.22 604.10 290.17 301.35 758.76 154.93 443.05 160.57 328.83 379.78 394.21 165.70 359.65 615.92 383.99
462.82 461.94 616.66 0.00 724.37 168.27 796.67 852.32 541.55 770.98 200.52 567.85 740.04 865.83 1012.40 168.52 941.34 178.20 565.41 237.91 668.26 164.94 640.38 95.11 716.59 174.43 833.42 619.40 307.18 844.87 858.82 364.93 803.03 590.38 357.79 825.57 187.44 1001.86 668.90 856.13 124.00 915.93 596.67 158.98 898.44 595.17 755.71 822.44 651.10 802.86 870.70 226.66 792.62 767.54 1066.11 893.40 752.13 653.25 828.99 999.27 848.63 805.05 180.71 256.11 532.66 588.84 741.55 758.32 83.32 930.42 634.88 809.79 379.71 121.20 771.37 880.63 952.40 785.50 751.80 783.25 783.75 278.15 815.59 375.50 736.42 871.21 619.19 136.39 807.23 862.99 121.15 188.89 653.29 740.95 802.81 169.15 874.17 152.20 853.97 585.95 263.91 581.27 580.15 810.23 875.39 775.13 830.90 194.20 748.58 233.68 614.02 814.67 802.94 549.69 610.49 862.12 120.62 903.89 581.01 870.27 783.87 841.15 824.80 64.07 733.54 842.87 844.59 285.91 857.14 794.44 914.05 867.95 957.11 149.36 776.80 934.56 265.37 742.40 642.46 787.98 810.47 504.91 582.03 876.28 560.00 818.38 853.37 771.41 123.04 849.02 761.68 561.93 818.78 633.18 552.11 819.32 200.67 865.18 478.15 1039.10 140.80 146.01 846.03 210.99 921.08 549.92 842.25 115.03 887.39 789.90 884.80 886.63 443.88 850.14 872.81 600.45 327.12 782.47 826.23 612.16 219.31 816.34 754.93 585.21 214.24 124.44 116.72 144.66 803.08 790.84 212.04 573.94 917.81 562.27 802.79 871.12 886.11 601.58 833.62 71.57 884.03
1112.47 457.26 278.81 724.37 0.00 774.77 210.35 197.10 441.38 308.94 783.60 357.23 221.85 253.46 359.52 751.26 288.46 746.51 434.65 907.21 442.11 734.12 422.98 738.32 212.31 891.26 144.86 312.52 931.73 246.57 224.17 911.85 148.13 379.76 562.81 101.20 661.15 318.16 502.17 164.22 786.42 263.05 307.40 780.64 190.66 412.84 191.75 224.14 222.48 78.49 215.30 868.72 357.71 101.68 403.38 200.29 27.76 517.82 230.34 309.34 192.99 179.40 844.39 849.72 467.63 381.91 229.65 90.27 698.99 224.65 313.63 111.45 948.02 727.70 203.94 227.75 297.50 127.95 198.20 174.27 188.81 873.42 222.54 568.30 253.42 175.64 456.69 808.48 165.10 210.11 787.95 899.59 335.57 92.65 263.71 737.46 215.10 758.70 238.51 396.98 634.83 407.20 356.82 232.25 238.90 366.23 106.53 802.14 246.49 783.16 171.99 299.60 190.64 531.73 357.90 188.70 794.27 214.78 389.98 215.37 154.71 160.47 223.71 788.44 422.86 181.41 246.29 499.99 191.39 190.35 248.90 237.86 286.52 823.01 195.53 275.24 983.34 196.13 394.92 485.65 177.35 513.13 251.57 181.43 449.95 126.44 165.76 319.29 790.85 149.61 276.29 303.90 173.92 457.52 597.52 240.01 794.28 186.72 521.31 409.94 782.23 782.31 171.37 792.17 237.00 375.16 145.19 756.46 314.94 208.73 189.46 231.73 919.48 178.18 243.97 425.87 908.63 326.81 159.62 426.62 872.90 119.66 30.56 378.40 887.89 765.87 761.58 718.60 124.29 66.47 873.91 318.95 250.27 376.73 181.19 171.71 164.71 388.06 194.21 710.74 174.93
451.07 446.87 626.06 168.27 774.77 0.00 830.30 862.81 511.79 791.46 152.51 522.04 696.24 912.31 1037.64 100.58 950.97 84.06 494.03 230.12 589.66 105.15 573.66 76.24 721.56 264.18 845.44 558.98 270.33 838.24 883.82 489.49 816.34 528.84 359.08 793.15 338.71 989.12 569.20 847.32 52.85 943.45 536.25 13.23 861.41 485.97 773.75 847.31 656.01 817.20 884.21 194.36 774.76 787.63 1050.25 878.19 747.01 562.19 822.66 980.09 867.77 825.94 251.93 183.35 441.60 538.62 722.68 805.24 110.84 871.52 577.10 796.86 285.57 47.07 751.58 908.15 965.71 675.59 798.12 712.71 787.06 225.50 861.91 307.56 664.67 867.59 562.72 120.16 794.38 890.51 185.78 213.92 578.01 742.24 783.94 93.11 855.30 16.07 880.34 519.66 214.61 472.07 509.00 804.85 878.70 689.43 826.25 138.84 689.21 261.20 621.88 771.66 811.63 478.54 534.97 843.25 113.64 885.02 511.94 883.58 797.18 829.98 869.85 135.29 651.62 841.06 856.50 287.20 851.94 784.62 919.65 897.51 945.36 142.38 780.11 940.26 325.55 723.53 612.33 729.68 768.59 384.61 583.32 867.01 493.97 831.69 853.41 726.59 113.68 861.93 718.67 597.10 805.63 603.41 473.94 862.26 127.91 877.63 348.71 1052.41 115.77 58.97 853.21 133.42 907.75 539.97 837.14 112.06 914.91 836.96 875.53 899.94 321.74 833.36 902.10 519.37 246.18 724.35 819.93 543.20 228.29 738.83 771.28 518.76 177.63 105.17 66.72 150.15 750.95 772.80 191.41 546.87 908.61 540.14 747.13 873.33 867.24 560.20 867.25 99.09 874.11
1183.38 476.89 322.71 796.67 210.35 830.30 0.00 55.65 483.95 215.68 977.32 412.77 226.62 94.06 273.55 777.61 232.77 908.87 475.02 976.51 424.95 781.68 389.13 794.78 349.42 971.10 144.73 394.40 1071.15 77.08 68.47 1020.91 183.17 397.04 567.56 169.42 620.59 211.63 539.76 67.40 791.88 218.63 395.23 843.53 101.77 467.04 185.22 54.65 266.38 131.86 98.93 944.28 416.99 141.72 300.32 104.67 190.12 536.50 110.64 202.60 51.96 64.52 977.38 962.29 522.08 381.93 179.63 256.65 834.11 301.36 357.85 134.27 1049.46 839.41 149.89 181.34 238.01 154.71 44.87 132.02 57.14 1008.29 51.85 650.23 246.21 133.42 472.67 933.06 80.62 165.69 892.98 985.56 379.80 259.40 177.30 899.82 103.82 846.37 79.13 475.36 718.72 453.81 434.56 67.79 92.86 317.43 158.78 963.67 276.92 800.34 259.82 239.41 47.86 567.68 401.80 117.73 905.98 119.03 429.38 174.23 164.01 142.49 45.48 860.74 431.95 71.10 76.80 639.44 60.47 87.51 132.83 88.63 233.44 934.72 50.19 149.24 1027.76 147.49 350.46 427.24 103.54 545.01 418.32 103.47 483.57 129.50 143.26 308.93 906.83 77.25 232.57 463.50 72.56 447.16 644.85 72.08 956.59 110.10 526.32 330.04 921.07 876.80 69.14 954.53 126.64 422.49 148.52 911.70 480.74 18.13 102.37 170.00 957.64 53.47 78.37 476.28 1070.99 238.61 58.26 410.97 1015.98 164.24 214.39 391.60 920.07 921.11 798.55 809.15 118.78 248.48 940.16 396.69 146.04 422.04 95.86 93.41 123.18 424.20 36.95 822.84 118.34
1239.03 530.89 368.97 852.32 197.10 862.81 55.65 0.00 487.35 248.79 964.43 439.45 277.46 83.77 225.03 775.88 218.31 895.98 492.36 1032.16 477.69 758.74 444.78 827.44 345.39 958.01 110.65 385.10 1081.20 110.19 47.85 1015.58 150.87 429.40 619.42 153.60 676.24 183.50 575.85 32.88 809.96 192.90 407.83 855.47 74.95 494.94 220.19 110.30 321.77 163.29 78.64 999.93 387.25 136.39 267.95 52.92 177.23 581.44 143.53 192.53 14.20 75.86 993.58 980.37 532.75 437.58 209.02 279.42 842.04 260.17 380.82 136.80 1066.83 857.49 178.71 157.60 234.41 196.42 100.52 150.10 100.34 1022.89 83.18 705.88 275.66 97.28 514.40 936.63 104.26 139.96 886.87 1041.21 435.45 241.84 197.78 886.93 52.33 876.94 76.06 454.69 748.17 486.17 468.11 123.44 66.61 364.93 138.19 951.61 309.58 804.23 315.47 276.17 98.85 589.44 454.54 79.97 924.06 83.47 470.20 151.29 145.43 111.63 62.85 916.39 467.89 24.51 130.49 691.30 11.95 143.16 95.07 65.90 184.92 952.80 104.19 128.20 1081.64 180.15 406.11 433.88 145.78 589.74 400.76 73.73 507.66 125.47 113.50 310.20 919.81 47.49 276.33 456.66 76.45 448.43 653.82 103.41 943.75 75.58 581.97 290.84 931.70 894.88 29.25 941.64 100.05 440.57 119.77 905.93 453.92 73.78 65.21 137.25 975.01 30.53 68.87 483.58 1058.10 287.88 81.03 466.62 1022.37 185.19 201.50 418.28 975.72 915.34 816.63 834.00 174.43 256.73 995.81 452.34 122.97 448.72 151.51 58.89 92.76 451.39 33.35 832.36 93.30
810.63 79.61 206.23 541.55 441.38 511.79 483.95 487.35 0.00 321.25 664.30 89.69 286.09 503.65 690.60 448.71 648.56 595.85 40.53 711.51 163.68 465.85 141.31 473.11 534.63 702.73 502.83 358.69 629.89 446.97 504.21 757.52 521.66 96.49 220.08 507.84 436.90 628.68 147.63 493.01 493.41 634.45 352.96 525.02 518.82 53.62 360.84 467.81 238.04 453.79 537.89 630.86 669.74 438.23 733.52 522.29 419.16 159.58 442.20 619.65 475.35 489.79 711.01 593.48 76.79 112.44 369.98 531.47 481.73 626.72 185.14 446.82 656.40 528.84 365.43 587.85 655.06 394.03 448.66 379.66 452.57 693.24 443.72 277.99 254.52 522.31 104.11 631.95 457.18 594.37 517.54 698.66 126.52 367.87 370.35 600.70 520.87 527.86 492.78 44.40 390.48 39.72 149.56 425.35 510.31 257.08 487.43 619.03 207.03 538.81 279.94 331.08 479.92 170.20 102.62 541.12 595.41 548.79 79.59 568.97 502.50 502.02 470.19 594.37 219.27 489.11 467.27 255.64 477.52 414.29 547.01 513.34 633.25 624.15 459.52 580.14 758.90 336.46 172.54 273.59 416.02 133.78 368.95 537.23 24.42 467.99 507.31 274.11 602.05 498.60 318.17 379.97 497.09 186.77 224.30 463.95 610.63 532.43 163.08 755.65 598.60 562.39 486.19 602.24 555.80 107.62 491.86 599.30 680.14 476.24 537.48 562.97 635.88 496.10 530.27 64.50 757.97 300.61 499.63 110.85 687.04 431.45 443.43 107.61 655.07 589.89 507.66 474.25 387.54 423.94 645.48 181.38 588.54 100.26 397.67 515.06 543.18 127.85 454.00 469.98 538.86
1110.80 400.86 292.80 770.98 308.94 791.46 215.68 248.79 321.25 0.00 897.21 302.48 163.62 224.75 444.29 741.11 391.08 862.80 361.78 967.93 228.90 723.97 264.72 726.99 420.94 936.64 288.09 387.59 930.06 138.60 248.40 1030.04 344.73 298.04 498.60 312.54 699.11 375.55 393.55 231.43 738.61 401.95 392.98 790.86 300.04 338.92 155.48 161.03 255.16 273.23 237.78 906.02 487.63 222.64 478.02 268.70 281.18 377.90 160.36 366.52 260.07 233.09 916.94 893.95 376.96 361.34 88.20 399.21 687.66 453.48 347.03 197.49 977.65 773.32 137.64 366.65 426.12 189.90 212.26 164.92 194.21 951.75 193.38 573.96 163.88 294.25 347.72 833.08 217.69 349.01 786.10 957.55 318.48 228.66 69.92 871.85 275.98 794.79 232.72 344.87 636.39 352.45 343.57 189.14 252.28 182.37 268.54 874.27 114.22 745.46 296.03 58.19 217.94 462.66 337.33 297.60 826.68 318.68 315.64 352.89 326.93 285.71 219.85 800.30 290.59 251.56 158.90 570.48 258.47 187.24 281.13 230.32 409.94 855.42 187.26 314.26 988.33 121.72 303.39 257.17 180.29 429.16 387.58 275.65 345.67 292.42 312.05 153.42 796.90 246.04 72.79 480.44 247.61 287.23 506.91 173.15 863.34 274.13 454.72 494.07 839.54 816.29 238.45 874.83 286.71 284.55 268.55 831.29 623.88 230.11 279.86 346.45 926.16 245.39 265.63 354.78 1024.92 123.31 237.50 292.98 952.54 205.62 289.69 308.37 911.49 827.28 738.04 752.60 242.40 343.85 891.40 377.02 311.07 296.90 185.50 257.44 291.97 266.68 249.35 699.41 294.81
378.74 599.38 737.01 200.52 783.60 152.51 977.32 964.43 664.30 897.21 0.00 656.69 846.40 1018.37 1143.12 229.49 1058.49 68.45 646.54 139.64 722.86 240.32 717.54 228.75 784.50 265.91 925.77 711.49 198.00 979.57 1007.77 535.45 931.73 654.20 479.67 884.80 387.96 1100.35 721.71 947.82 205.36 1046.65 688.76 165.74 974.26 638.48 894.84 983.58 770.64 862.09 998.90 129.27 927.27 885.28 1186.98 967.20 787.20 714.70 975.17 1092.37 968.75 938.84 241.88 137.67 594.11 611.21 875.19 873.87 232.77 1008.25 710.12 870.89 234.79 157.93 904.09 1011.35 1081.10 828.10 950.63 865.22 939.57 96.51 1006.14 396.62 815.63 958.92 701.34 64.13 924.54 993.71 321.67 134.01 678.26 852.30 927.46 77.50 995.83 168.22 1011.80 660.88 343.12 624.58 641.60 941.80 1007.14 841.94 884.06 89.16 812.87 353.94 774.39 912.22 957.86 631.05 635.22 972.30 130.09 998.38 658.66 998.97 935.62 938.04 1005.41 264.10 804.13 965.01 999.87 439.71 952.48 937.13 1032.50 1021.46 1069.86 113.14 932.62 1058.84 278.03 876.04 717.38 869.20 921.10 537.12 693.38 965.03 646.48 910.04 949.36 869.73 100.31 933.21 859.23 679.38 933.36 755.92 626.45 999.45 82.23 949.85 501.22 1190.85 97.89 146.01 954.97 72.37 1020.60 647.47 928.47 102.95 1018.05 975.01 973.06 1015.33 326.61 961.78 1027.57 631.99 145.97 851.15 919.06 687.08 99.57 879.10 811.47 665.32 153.48 99.81 198.79 297.71 883.73 850.07 143.89 679.47 1033.87 637.19 899.64 955.31 948.31 676.50 975.91 244.52 958.53
844.24 169.30 141.07 567.85 357.23 522.04 412.77 439.45 89.69 302.48 656.69 0.00 236.71 433.32 646.77 504.22 599.65 606.10 103.17 737.91 109.49 505.44 83.77 538.19 504.52 742.28 453.60 286.00 663.50 398.44 462.44 792.71 497.05 22.53 238.74 458.43 421.71 576.99 144.94 406.57 512.91 583.20 263.27 535.27 475.18 55.61 271.15 419.04 193.66 413.37 457.65 668.44 597.05 393.85 677.14 443.84 329.47 160.59 409.98 586.02 438.29 415.83 748.56 614.58 110.40 65.62 282.88 445.03 524.05 571.22 128.07 402.44 737.33 554.86 305.35 540.00 593.81 304.34 374.70 308.40 406.65 714.02 401.95 297.24 205.14 472.59 125.21 592.56 383.22 532.22 551.15 699.31 87.06 312.24 296.39 613.11 456.33 523.86 445.28 65.50 445.46 49.97 109.52 398.63 454.19 231.43 426.33 621.90 196.14 593.79 241.96 282.68 419.36 200.25 58.24 472.74 606.08 493.82 32.75 526.46 477.89 458.73 428.42 631.92 180.68 429.78 418.74 310.62 436.69 359.93 500.57 471.57 566.01 634.82 399.70 515.79 813.88 316.40 99.69 266.17 356.27 167.39 304.51 450.61 114.11 474.16 487.19 236.91 604.20 421.18 229.69 398.67 424.22 167.82 240.29 381.72 620.88 449.27 173.33 669.21 594.16 564.38 416.67 621.49 509.19 17.93 456.64 575.00 635.76 394.64 455.00 510.10 660.02 420.53 477.55 88.64 768.22 226.76 437.01 69.39 697.29 367.58 353.74 21.17 692.65 565.59 572.74 529.23 348.08 384.48 683.06 107.42 507.32 19.50 323.71 432.58 467.11 43.68 442.16 524.96 469.95
1080.95 344.67 153.25 740.04 221.85 696.24 226.62 277.46 286.09 163.62 846.40 236.71 0.00 292.30 484.78 647.86 442.02 778.75 326.62 916.67 276.73 630.72 270.66 669.29 400.11 865.88 293.44 334.83 900.21 201.64 295.09 890.49 334.60 226.89 410.26 323.05 582.47 415.00 381.65 244.58 666.22 421.21 312.10 709.47 313.19 260.27 144.64 204.04 96.92 233.04 295.66 848.32 484.57 247.13 515.15 281.85 215.56 379.80 179.66 424.03 276.30 258.34 846.18 820.97 347.11 235.19 93.55 302.95 660.32 431.88 207.69 256.39 860.30 732.87 153.59 386.41 464.63 139.32 228.31 170.27 218.11 897.84 260.93 471.44 31.57 310.60 341.92 806.71 241.82 370.23 714.14 885.58 204.06 226.75 93.70 787.31 302.95 702.62 275.73 302.21 504.08 246.37 210.07 209.30 315.32 144.38 289.98 805.72 94.17 765.31 176.69 186.93 241.72 392.32 232.34 310.75 781.23 331.83 267.82 367.80 315.44 293.71 270.11 729.54 258.90 267.79 213.50 482.14 274.70 192.59 325.58 293.36 424.78 809.97 225.06 351.92 957.39 127.07 256.34 288.88 185.64 337.81 363.24 288.80 310.51 322.84 309.61 129.80 773.14 259.19 136.96 403.72 272.23 268.03 470.97 240.70 794.79 287.28 347.53 507.22 775.67 705.66 254.68 795.69 313.68 254.64 308.29 761.27 527.62 244.75 293.01 362.68 865.05 258.54 304.99 293.67 940.87 117.50 270.48 293.83 871.49 202.56 191.29 238.01 860.82 751.86 702.83 595.38 189.79 280.46 862.94 213.40 345.33 256.21 208.71 270.59 305.12 246.63 263.57 668.47 307.96
1235.44 555.03 363.61 865.83 253.46 912.31 94.06 83.77 503.65 224.75 1018.37 433.32 292.30 0.00 256.48 834.24 223.47 955.85 499.97 1070.57 453.65 818.61 457.67 837.05 395.97 1031.60 174.82 445.95 1054.70 91.42 40.74 1075.51 201.58 455.85 617.38 212.59 678.39 211.03 557.08 89.24 866.13 184.04 455.80 900.92 123.85 488.93 224.30 90.45 307.28 214.38 84.83 1022.55 446.98 198.93 327.82 126.51 237.10 567.87 112.64 220.06 87.15 122.32 1046.54 1033.77 501.60 407.16 206.98 287.67 846.13 300.47 369.29 185.82 1057.66 908.64 175.80 216.31 266.18 236.72 119.12 206.27 125.25 1082.54 59.93 703.39 304.01 155.26 534.34 992.99 138.37 202.62 918.89 1054.72 442.86 317.26 199.36 946.80 115.17 927.90 44.91 484.69 770.94 483.29 466.07 113.79 65.13 379.10 204.74 1011.48 296.62 856.97 320.39 282.94 102.23 592.91 431.17 152.92 968.93 153.82 454.61 211.16 201.79 167.99 53.68 929.90 465.48 83.50 109.76 689.26 71.82 149.18 121.83 64.42 225.22 997.67 132.20 148.17 1102.01 189.76 425.27 426.77 154.70 558.59 469.86 133.46 528.07 176.05 169.86 330.79 967.88 103.85 262.76 503.88 129.19 469.02 673.61 51.60 1003.62 131.94 594.49 351.88 989.90 928.34 91.84 1001.51 109.93 451.25 179.50 965.80 502.82 75.93 132.25 199.84 965.84 90.40 69.07 455.80 1117.97 264.63 131.99 468.77 1056.06 227.39 243.16 449.40 1014.13 974.54 871.60 866.95 193.03 316.60 1007.93 457.27 146.79 452.82 170.11 113.76 149.78 449.08 83.18 834.38 151.37
1417.58 732.02 557.49 1012.40 359.52 1037.64 273.55 225.03 690.60 444.29 1143.12 646.77 484.78 256.48 0.00 977.01 127.83 1083.08 660.14 1140.94 667.54 959.87 631.72 968.89 449.07 1095.74 255.34 486.75 1265.97 305.69 267.14 987.94 221.30 636.72 727.30 265.84 836.89 92.51 750.18 240.20 992.88 96.47 509.48 1032.76 209.21 695.02 394.46 283.26 507.98 343.27 236.03 1060.29 515.59 301.69 143.90 225.66 364.33 734.53 325.55 101.54 229.35 275.68 1119.51 1163.29 725.13 639.44 402.81 372.66 952.58 212.90 557.63 300.93 1193.15 1011.92 386.03 147.52 135.17 393.02 308.10 375.13 304.25 1190.35 260.63 909.41 482.98 209.35 710.31 1122.79 308.29 149.41 1027.52 1128.09 598.60 452.17 398.63 1074.03 236.65 1042.92 211.57 679.72 926.67 693.49 650.41 287.06 253.94 555.07 288.58 1138.71 497.32 1004.13 508.56 479.42 289.23 776.28 637.30 209.40 1075.38 207.52 660.78 154.06 240.46 240.57 235.10 1049.55 614.82 230.43 305.41 799.18 213.08 325.15 193.85 252.31 137.65 1104.12 305.32 160.72 1209.05 375.95 597.63 616.22 334.57 775.48 547.70 204.45 689.61 255.04 227.19 513.45 1092.55 233.65 429.42 551.69 276.35 651.68 830.32 275.13 1130.85 240.25 785.50 127.53 1099.59 1066.53 230.10 1128.74 198.96 640.65 239.80 1073.82 417.64 275.64 212.97 137.70 1147.26 231.66 217.00 668.91 1245.20 465.33 262.05 649.61 1194.77 329.78 347.81 625.60 1084.50 1083.23 991.67 1013.92 337.58 367.72 1074.91 615.49 162.74 628.30 350.43 235.39 195.10 637.55 236.60 940.83 184.88
520.24 419.90 545.98 168.52 751.26 100.58 777.61 775.88 448.71 741.11 229.49 504.22 647.86 834.24 977.01 0.00 933.93 161.04 453.76 320.48 556.83 17.14 553.40 86.97 633.55 337.07 789.69 575.57 346.26 825.32 814.58 404.28 851.83 511.02 350.50 828.76 273.94 929.46 545.01 759.31 69.44 910.51 552.84 113.81 810.66 454.14 740.59 830.20 602.31 801.41 810.39 268.34 800.72 778.62 1019.93 796.58 753.02 529.36 812.68 929.34 780.20 735.12 329.72 206.41 408.77 456.96 733.41 792.91 100.44 869.72 491.54 736.37 359.61 147.65 745.82 873.22 956.97 753.72 772.03 729.30 769.44 287.95 800.90 206.98 616.29 803.20 529.89 220.74 746.05 857.57 163.61 287.61 524.01 682.63 735.26 151.99 807.28 116.65 814.21 477.26 143.78 454.25 508.09 805.74 818.59 655.00 807.30 216.67 626.89 250.80 654.20 759.85 758.15 459.43 480.97 825.48 192.58 818.64 475.66 861.84 838.38 781.10 780.56 213.08 619.79 772.21 845.62 278.62 763.93 808.20 853.74 823.70 902.49 221.32 765.40 883.95 385.87 716.85 588.33 668.46 796.41 351.78 569.68 802.77 424.29 815.13 813.35 692.79 193.16 773.92 708.15 618.59 705.05 558.03 486.99 795.36 208.81 802.01 330.89 1021.95 195.69 125.68 765.20 206.70 845.71 506.75 796.72 181.29 867.10 780.60 794.25 873.20 398.98 745.35 839.06 495.40 323.16 710.95 719.35 525.38 287.43 737.85 773.96 505.36 264.04 171.88 121.52 86.58 774.51 684.79 282.96 530.45 851.53 508.14 774.40 785.32 806.74 542.38 786.27 96.95 796.52
1346.52 688.94 521.12 941.34 288.46 950.97 232.77 218.31 648.56 391.08 1058.49 599.65 442.02 223.47 127.83 933.93 0.00 990.04 626.11 1054.13 619.98 916.79 597.69 897.83 374.60 1045.43 193.41 436.44 1175.26 257.75 216.48 949.91 170.99 578.18 676.99 220.08 773.34 188.39 691.89 197.44 942.57 58.44 459.17 961.70 165.37 640.16 366.36 256.78 478.29 281.16 183.07 973.48 475.62 259.29 166.16 173.28 271.29 707.54 278.97 197.42 204.11 227.07 1069.20 1093.25 667.93 568.16 350.73 259.33 881.52 138.43 493.92 229.87 1129.60 960.14 314.07 60.71 45.19 323.16 277.64 322.10 261.95 1114.71 238.16 825.03 440.22 145.64 636.85 1052.01 255.47 78.35 956.46 1041.28 557.49 373.86 365.69 980.99 178.41 967.04 234.46 651.02 876.36 626.26 578.29 258.40 192.09 481.61 222.30 1045.67 472.47 952.13 415.52 425.78 247.00 713.68 574.07 138.34 1004.32 135.40 615.61 103.75 176.91 168.77 225.07 973.40 573.02 215.44 276.09 748.87 207.16 251.69 176.50 189.71 63.18 1033.06 262.24 143.37 1122.24 343.04 563.54 585.02 267.72 693.49 489.38 162.10 655.58 180.57 163.48 497.12 1028.89 182.83 420.38 475.54 243.79 632.28 773.43 217.93 1037.81 158.26 727.19 179.49 1025.76 998.86 204.59 1035.70 181.61 606.62 176.09 999.99 443.68 224.48 170.62 103.67 1133.17 188.58 154.40 622.13 1152.16 442.86 230.85 593.69 1107.96 273.61 276.75 582.84 997.69 1009.40 920.61 942.86 296.47 276.29 988.10 562.48 110.32 594.27 277.00 178.50 143.46 586.73 225.46 869.77 153.68
369.66 530.93 680.38 178.20 746.51 84.06 908.87 895.98 595.85 862.80 68.45 606.10 778.75 955.85 1083.08 161.04 990.04 0.00 578.09 178.80 654.41 171.87 657.72 160.30 716.05 243.49 857.32 643.04 188.92 922.30 941.88 506.44 886.33 612.90 417.57 835.56 365.64 1032.95 653.26 910.73 136.91 994.36 620.31 97.29 937.17 570.03 847.53 915.13 736.71 804.97 960.27 161.53 858.82 838.03 1130.95 932.96 718.75 646.25 906.72 1023.92 900.30 870.39 267.31 103.21 525.66 611.69 806.74 836.78 175.14 952.22 646.27 802.44 201.51 89.48 835.64 959.06 1035.23 759.65 882.18 796.77 871.12 145.01 945.97 368.02 747.18 890.47 646.78 61.97 856.09 941.42 266.54 171.19 662.07 801.53 868.00 9.05 927.38 100.13 943.35 603.72 274.67 556.13 593.06 888.91 938.69 773.49 815.61 55.63 771.74 325.50 705.94 848.58 889.41 562.60 619.03 927.31 70.83 952.84 596.00 949.11 867.17 869.59 936.96 219.35 735.68 901.38 937.28 371.26 884.03 868.68 966.01 953.02 1001.41 99.57 864.17 999.14 282.05 807.59 696.39 813.74 852.65 468.67 659.85 906.06 578.03 872.95 890.35 810.65 97.29 896.12 795.59 639.51 864.91 687.47 558.00 931.00 47.77 881.40 432.77 1122.40 56.23 104.88 904.05 49.36 972.19 606.34 860.02 63.17 949.60 916.78 906.85 962.12 293.33 900.08 960.07 590.33 162.12 808.41 850.61 627.26 144.49 810.65 743.02 602.82 164.45 58.68 130.34 231.75 815.28 798.25 147.91 630.93 973.54 618.69 831.19 918.22 908.42 644.26 907.46 179.85 898.20
815.68 103.47 225.28 565.41 434.65 494.03 475.02 492.36 40.53 361.78 646.54 103.17 326.62 499.97 660.14 453.76 626.11 578.09 0.00 720.86 174.46 470.90 138.64 496.97 564.29 707.78 523.16 329.13 634.94 466.02 529.09 764.88 562.19 115.04 231.68 517.84 460.76 665.75 107.10 507.77 523.20 617.14 351.86 507.26 559.35 85.43 368.98 487.22 257.09 454.73 537.69 671.39 640.18 457.28 701.92 545.04 432.64 122.75 447.25 660.18 506.56 503.28 734.87 586.75 81.84 121.56 370.15 524.92 505.59 640.07 208.83 465.87 661.45 533.89 404.77 572.52 627.43 405.36 467.21 395.67 493.10 702.39 468.60 269.23 295.05 557.11 97.38 612.03 475.73 564.20 522.59 707.95 157.32 386.92 388.90 585.10 544.69 510.10 511.93 37.67 414.34 80.25 172.20 465.88 537.86 297.61 488.56 610.27 247.56 562.67 293.29 324.35 486.62 129.67 121.67 572.33 570.80 575.83 74.11 538.80 543.03 542.55 495.07 618.23 235.55 509.86 481.09 279.50 504.31 452.44 557.36 538.22 610.19 599.54 492.21 590.49 782.76 376.99 165.81 293.50 448.78 138.83 363.47 551.99 29.47 508.52 547.84 286.39 600.58 516.01 310.91 420.50 516.73 180.04 264.83 448.37 604.97 550.47 145.32 733.47 578.27 553.00 513.02 593.48 569.26 105.20 532.39 602.09 697.27 456.89 555.86 522.44 615.55 521.73 539.80 44.17 740.21 327.96 504.68 139.95 669.28 455.14 456.91 122.37 664.42 599.20 531.52 498.11 418.34 399.22 669.95 146.33 584.80 106.59 416.22 533.78 561.94 132.27 494.53 493.84 564.78
451.90 674.98 824.25 237.91 907.21 230.12 976.51 1032.16 711.51 967.93 139.64 737.91 916.67 1070.57 1140.94 320.48 1054.13 178.80 720.86 0.00 805.06 303.34 796.78 288.22 876.75 168.87 994.42 749.11 271.16 1050.22 1044.98 542.75 1021.66 727.86 565.58 962.71 406.07 1157.11 799.32 1043.91 251.04 1044.47 734.44 237.62 1078.07 716.09 950.12 1031.16 880.58 965.67 1075.44 80.65 999.15 980.58 1204.66 1046.73 879.45 789.27 1020.85 1148.08 1028.47 991.11 203.00 268.78 668.68 736.81 934.66 976.95 280.27 1069.71 775.08 963.14 356.54 216.63 964.48 993.42 1099.32 905.71 989.71 910.90 982.21 194.18 1028.36 498.27 885.10 1027.57 789.80 162.06 958.50 1011.06 338.52 49.53 780.33 903.38 993.05 169.75 1067.28 214.05 1055.64 731.20 412.59 702.19 707.19 995.20 1069.37 919.55 976.31 218.64 896.31 333.97 816.22 969.85 994.64 676.73 750.25 1055.23 150.06 1072.38 742.06 1036.46 1002.50 1019.06 1021.99 272.53 881.74 1038.25 1052.40 498.95 1036.98 953.30 1103.11 1065.14 1085.65 168.22 988.93 1111.68 207.19 935.51 815.31 842.33 969.33 611.69 795.07 1042.94 721.05 1006.10 1043.54 924.78 179.84 1051.20 916.86 766.66 999.50 833.53 656.52 1045.27 213.34 1042.10 578.83 1173.11 168.21 223.31 1045.65 201.85 1103.15 730.91 997.12 192.66 1084.34 994.64 1051.46 1037.32 432.38 1029.98 1054.88 702.31 215.72 922.33 1011.31 773.32 140.37 952.59 880.12 716.74 56.44 183.25 257.49 345.21 975.98 911.73 76.53 745.06 1095.70 735.12 956.00 1069.92 1048.44 758.43 1013.46 284.61 1043.67
881.90 218.78 229.00 668.26 442.11 589.66 424.95 477.69 163.68 228.90 722.86 109.49 276.73 453.65 667.54 556.83 619.98 654.41 174.46 805.06 0.00 573.97 35.82 605.34 582.92 782.92 491.42 388.86 701.16 367.50 475.38 879.28 489.86 99.44 316.90 524.48 504.07 604.45 185.91 460.33 599.40 618.28 366.13 602.89 524.44 151.22 277.66 389.93 260.81 451.23 466.68 756.66 696.54 451.54 706.92 493.10 438.96 194.78 389.26 595.42 476.91 440.20 829.79 702.90 148.06 149.40 304.88 512.18 602.21 617.25 195.22 426.39 774.07 600.11 323.96 579.92 634.83 382.42 410.64 348.32 423.11 778.54 414.89 349.85 294.76 513.82 118.82 665.31 407.59 571.60 588.81 789.78 159.82 390.64 298.82 663.46 504.88 591.01 460.55 153.82 505.55 137.41 209.93 413.94 481.18 190.54 497.44 690.89 195.62 671.95 317.52 279.62 443.73 260.53 125.39 526.50 658.91 533.04 113.56 546.20 470.70 502.14 441.36 714.85 108.84 473.34 387.80 388.78 481.82 386.34 510.03 459.22 617.59 687.65 416.16 522.30 890.21 325.05 74.49 202.31 376.66 205.05 396.69 504.55 188.10 505.21 495.98 196.56 629.13 474.94 260.71 474.71 448.59 58.33 307.34 402.05 685.59 503.03 240.95 722.97 664.39 634.99 467.35 674.10 515.61 118.34 497.45 663.52 702.91 430.67 508.76 529.84 701.67 463.24 494.53 130.29 816.53 210.19 461.38 66.28 764.91 425.35 463.23 88.32 752.53 666.00 639.89 607.39 398.79 457.24 756.07 184.33 539.97 105.99 367.02 486.34 520.87 115.54 461.90 603.12 523.71
503.10 437.04 528.84 164.94 734.12 105.15 781.68 758.74 465.85 723.97 240.32 505.44 630.72 818.61 959.87 17.14 916.79 171.87 470.90 303.34 573.97 0.00 565.01 69.83 616.41 319.93 806.83 558.43 353.83 808.18 797.83 421.42 839.36 509.61 333.36 835.32 263.82 912.59 562.15 742.17 52.30 893.37 535.70 96.73 803.85 471.28 723.45 813.06 585.17 784.27 793.25 265.40 783.58 769.51 1002.79 779.44 735.88 546.50 795.54 921.62 763.06 752.26 312.58 222.71 425.91 439.82 716.27 775.77 83.30 852.58 474.40 753.51 373.38 138.26 728.68 856.08 939.83 758.48 789.17 712.16 775.11 305.09 783.76 224.12 599.15 808.19 547.03 215.25 763.19 840.43 146.47 296.27 506.87 699.77 724.42 169.13 790.14 121.22 817.84 494.40 126.64 471.39 504.84 788.60 801.45 637.86 790.16 227.50 609.75 233.66 637.06 742.71 775.29 476.57 463.83 808.34 203.04 801.50 487.27 848.97 854.72 798.24 797.70 195.94 636.93 755.07 828.48 261.48 746.79 791.06 836.60 806.56 919.63 227.66 782.06 869.73 383.97 699.71 571.67 685.60 779.27 368.92 557.60 785.63 441.43 832.27 822.79 679.12 194.66 756.78 718.12 601.45 722.19 540.89 504.13 803.99 217.01 784.87 348.03 1004.81 181.49 142.82 748.06 221.01 834.95 518.36 813.86 171.96 849.96 797.74 777.11 856.06 415.28 728.21 821.92 501.90 333.99 703.33 736.49 542.52 304.57 720.71 756.82 500.90 246.90 162.55 104.38 75.26 757.37 667.65 266.99 513.31 834.39 519.75 757.26 768.18 802.71 540.97 770.31 95.05 805.20
917.72 220.92 213.32 640.38 422.98 573.66 389.13 444.78 141.31 264.72 717.54 83.77 270.66 457.67 631.72 553.40 597.69 657.72 138.64 796.78 35.82 565.01 0.00 614.42 555.70 747.10 457.70 353.04 736.98 384.62 446.48 845.21 454.04 97.27 311.27 506.29 482.56 569.32 175.09 433.97 573.76 582.46 330.31 586.89 488.62 115.40 241.84 407.05 233.59 415.41 471.12 734.87 664.09 420.31 673.50 457.28 413.24 160.11 380.67 578.35 441.09 423.32 793.97 667.08 183.88 125.19 269.06 504.07 596.58 581.43 204.97 396.09 757.67 620.73 288.14 544.10 599.01 346.60 374.82 312.50 406.77 775.55 413.18 346.42 276.75 494.58 118.38 653.41 390.71 535.78 612.74 771.84 132.21 363.42 319.02 664.73 471.35 589.73 424.73 118.00 469.73 101.59 182.05 383.88 461.59 183.63 474.27 683.43 176.49 666.32 281.70 258.86 418.40 224.71 125.30 492.22 678.61 497.22 77.74 510.38 434.88 482.34 412.46 704.45 96.91 437.52 404.92 383.15 449.60 350.52 507.79 439.50 581.77 707.35 399.82 486.48 854.39 294.99 38.67 190.38 340.84 228.98 360.87 470.96 159.75 469.39 491.21 163.63 664.95 447.97 250.65 438.89 428.63 94.15 309.61 424.44 672.50 476.67 224.95 690.11 628.57 624.17 444.07 670.67 495.89 90.46 464.13 647.53 696.93 407.26 479.48 494.02 665.85 442.60 467.50 94.47 819.84 226.75 440.85 30.46 748.91 389.53 437.51 98.07 740.34 638.12 640.38 584.90 362.97 429.63 720.25 182.16 534.72 80.35 331.20 459.98 492.66 79.72 426.08 597.49 490.53
480.36 393.50 598.67 95.11 738.32 76.24 794.78 827.44 473.11 726.99 228.75 538.19 669.29 837.05 968.89 86.97 897.83 160.30 496.97 288.22 605.34 69.83 614.42 0.00 686.24 250.10 789.91 570.19 320.97 762.00 845.26 460.04 820.28 528.14 314.28 817.67 262.47 924.75 600.46 812.00 64.06 872.42 547.46 63.87 806.50 526.73 700.44 778.64 641.25 746.87 817.26 255.46 825.40 724.03 1039.85 801.95 766.08 584.81 786.36 925.18 815.44 810.65 246.73 234.47 464.22 509.65 646.44 743.74 39.33 882.73 544.23 766.28 361.81 71.59 676.26 837.12 918.88 715.47 777.64 690.49 770.42 250.02 802.51 293.95 665.67 822.10 575.68 179.01 794.13 819.48 114.75 264.56 576.70 697.44 707.70 169.35 779.06 90.85 811.67 517.51 193.16 512.83 520.21 736.18 843.66 704.38 787.81 195.77 679.58 189.69 672.52 752.79 795.78 489.75 533.66 767.01 138.16 808.78 552.70 844.88 839.44 814.55 811.24 130.09 692.38 824.90 782.30 242.40 816.62 738.64 855.59 848.88 912.81 166.90 777.37 885.82 316.98 647.29 623.73 746.70 726.85 438.75 538.52 790.77 497.53 848.58 837.26 724.97 142.83 826.61 699.80 621.62 792.02 610.72 457.00 798.37 199.64 826.57 417.86 1034.16 166.41 112.80 817.89 188.15 847.58 535.09 836.81 159.01 843.40 808.95 799.29 861.24 397.98 798.04 825.86 532.01 322.42 722.61 806.32 583.96 290.86 772.83 761.81 517.02 231.78 159.00 34.55 73.91 781.37 737.48 243.07 530.43 853.56 547.44 735.59 807.17 791.00 558.71 794.09 28.06 801.22
1082.01 569.86 378.44 716.59 212.31 721.56 349.42 345.39 534.63 420.94 784.50 504.52 400.11 395.97 449.07 633.55 374.60 716.05 564.29 876.75 582.92 616.41 555.70 686.24 0.00 788.86 278.59 249.80 901.27 403.36 375.53 809.29 273.59 502.88 628.38 244.06 730.24 432.12 637.91 312.51 668.71 352.60 258.10 713.14 345.18 534.26 369.97 380.93 322.11 270.77 363.59 844.40 167.17 303.83 414.90 331.43 184.55 653.56 382.35 423.09 341.28 320.50 769.16 807.25 608.55 481.54 376.03 159.36 699.71 236.17 432.88 263.46 917.56 704.69 360.13 339.78 374.72 284.83 354.99 299.31 340.82 842.96 398.47 665.88 399.56 274.24 592.84 778.02 317.11 334.20 713.01 887.24 435.20 192.28 410.09 707.00 341.71 735.69 386.80 570.02 675.29 520.43 462.46 389.04 387.19 539.55 281.41 762.74 427.12 810.42 328.78 464.74 353.25 644.64 457.53 313.59 771.26 336.61 505.09 308.80 254.43 253.95 372.00 652.52 564.80 332.77 403.08 560.42 339.68 347.14 372.24 377.88 311.42 800.00 347.54 388.23 908.11 342.51 517.03 621.11 363.17 571.09 264.30 289.83 559.05 219.92 259.24 476.83 795.51 297.90 411.75 154.66 330.00 599.29 719.73 396.80 751.81 296.52 541.97 421.90 754.18 759.23 319.66 761.71 384.14 497.37 243.79 761.12 233.55 357.02 298.35 325.16 979.91 326.47 388.51 554.16 878.17 462.27 316.41 533.67 842.44 276.45 208.82 494.60 863.31 770.53 720.79 691.67 281.08 165.07 845.86 469.10 332.91 485.02 337.98 320.00 295.11 487.69 342.50 698.25 290.79
464.89 636.37 791.09 174.43 891.26 264.18 971.10 958.01 702.73 936.64 265.91 742.28 865.88 1031.60 1095.74 337.07 1045.43 243.49 707.78 168.87 782.92 319.93 747.10 250.10 788.86 0.00 1007.85 746.87 391.34 1012.10 997.15 465.09 945.08 764.81 532.22 992.46 361.87 1038.24 814.88 942.36 298.43 1020.02 769.60 273.73 936.43 740.71 921.37 996.87 825.53 969.75 953.06 136.64 956.03 941.97 1137.52 905.09 919.02 813.47 992.03 1047.27 972.16 979.48 46.87 324.77 705.78 759.75 896.54 850.41 248.98 1025.03 794.33 984.22 426.56 256.41 926.36 984.72 1063.03 928.40 926.23 882.08 958.18 306.52 990.02 544.05 862.26 962.28 790.99 221.02 977.50 967.08 277.41 180.68 820.00 798.61 957.80 234.44 939.16 257.04 1027.27 731.28 389.75 736.25 746.86 984.66 1007.02 900.97 997.79 274.63 909.76 282.08 788.45 933.79 977.37 655.08 783.76 940.03 206.05 966.40 742.13 941.68 945.43 1002.71 999.23 136.34 844.01 965.57 1019.02 460.34 969.96 968.87 970.52 984.68 1031.64 214.61 951.23 999.22 123.63 897.39 785.77 898.32 966.89 648.79 743.84 947.22 678.31 979.94 980.12 910.73 229.90 955.77 880.80 634.20 993.21 807.61 707.10 993.75 269.33 974.93 612.89 1169.07 187.26 251.27 952.46 257.84 970.44 724.35 992.73 213.03 996.31 964.33 955.74 958.04 517.34 956.32 981.73 721.36 331.35 931.32 987.44 716.64 252.38 966.15 905.30 759.64 112.43 205.07 215.55 270.50 939.23 913.80 132.52 748.37 996.72 736.70 927.18 952.79 954.51 776.01 973.38 246.00 958.53
1210.52 548.21 344.86 833.42 144.86 845.44 144.73 110.65 502.83 288.09 925.77 453.60 293.44 174.82 255.34 789.69 193.41 857.32 523.16 994.42 491.42 806.83 457.70 789.91 278.59 1007.85 0.00 350.44 1032.46 149.56 152.87 945.07 77.53 449.68 583.53 55.67 678.35 202.81 529.25 88.74 805.06 158.87 373.17 853.78 118.75 470.53 215.86 171.99 337.17 114.71 130.53 952.57 365.88 65.88 306.89 105.53 138.57 544.90 203.70 193.78 119.27 107.65 972.73 960.53 558.34 425.50 199.89 225.96 773.60 204.95 352.92 108.13 1034.61 801.75 195.34 156.38 212.31 169.85 150.86 145.20 127.07 980.18 161.84 706.03 281.44 71.45 501.85 899.84 125.64 145.95 848.54 983.44 384.24 230.38 233.95 848.27 128.72 832.75 172.88 518.93 753.95 464.39 431.63 187.41 157.66 363.41 59.66 912.95 295.80 812.42 282.80 291.27 99.72 611.25 401.49 87.16 868.32 110.18 449.05 130.09 81.92 24.64 156.02 885.50 446.61 110.11 169.86 644.85 103.00 186.93 145.81 162.15 149.01 897.06 127.42 178.94 1050.77 166.37 419.03 450.43 170.90 584.11 374.65 63.40 527.25 58.67 56.01 351.58 874.70 87.99 262.55 387.64 84.64 489.81 658.03 150.35 905.09 50.88 587.75 322.75 866.08 856.36 98.84 902.98 157.71 435.67 49.68 840.31 380.94 129.45 71.92 127.41 1064.34 102.70 128.34 504.05 1019.44 313.07 86.47 477.51 983.71 106.61 114.30 438.56 961.94 849.72 811.73 834.94 123.22 182.17 957.76 401.13 149.15 448.02 180.12 88.04 80.84 436.73 126.52 761.85 73.81
956.93 395.30 254.45 619.40 312.52 558.98 394.40 385.10 358.69 387.59 711.49 286.00 334.83 445.95 486.75 575.57 436.44 643.04 329.13 749.11 388.86 558.43 353.04 570.19 249.80 746.87 350.44 0.00 818.37 400.10 427.80 767.30 344.77 304.19 393.01 355.38 514.75 458.69 426.52 368.32 506.13 411.03 22.73 571.42 373.54 331.36 260.23 377.67 248.33 307.71 403.00 718.09 311.05 302.38 528.53 369.46 302.37 435.06 379.02 467.72 386.50 346.39 727.17 676.54 392.71 246.25 340.44 291.00 559.58 440.89 200.01 260.13 815.22 592.09 312.67 375.73 454.04 329.62 369.21 330.89 337.49 757.29 412.04 430.51 303.26 312.27 399.39 669.08 313.78 358.09 634.52 753.57 280.88 219.87 317.67 652.09 376.90 575.05 401.04 339.68 439.92 329.73 257.17 335.21 434.98 386.66 357.14 665.17 389.27 616.66 158.14 368.08 349.92 432.00 270.26 352.17 634.82 374.39 293.70 332.69 363.93 326.68 394.65 610.53 449.95 385.04 398.80 333.49 380.32 344.92 393.78 425.29 422.65 663.56 344.21 426.91 836.75 306.92 378.10 504.24 360.95 335.72 60.95 328.41 358.60 333.75 294.43 403.05 658.46 359.74 344.77 112.67 341.97 444.97 517.02 397.40 670.84 345.74 306.60 560.08 635.32 617.95 378.42 681.96 405.68 303.93 311.39 629.26 368.14 379.65 319.89 349.05 752.98 368.79 415.83 352.76 805.16 395.29 338.02 355.39 759.77 318.16 321.30 306.91 700.73 619.85 593.20 544.05 326.73 256.20 703.47 219.30 403.60 305.50 349.59 342.31 343.37 329.68 365.15 547.83 339.89
180.74 623.82 804.57 307.18 931.73 270.33 1071.15 1081.20 629.89 930.06 198.00 663.50 900.21 1054.70 1265.97 346.26 1175.26 188.92 634.94 271.16 701.16 353.83 736.98 320.97 901.27 391.34 1032.46 818.37 0.00 1042.92 1083.82 672.11 1052.86 686.03 546.86 1024.48 494.62 1218.17 689.34 1070.07 315.76 1169.50 799.16 257.10 1122.39 641.31 934.65 1041.95 853.53 990.19 1121.15 271.37 1018.63 1023.25 1266.85 1093.43 903.97 673.69 1023.25 1209.14 1085.52 1006.63 418.31 206.49 553.10 724.59 946.38 964.41 318.21 1134.43 791.57 987.66 139.47 278.40 968.85 1134.20 1202.23 945.92 1038.20 971.90 1029.60 101.49 1023.33 463.81 868.64 1065.61 690.87 215.33 1039.24 1116.56 416.65 298.13 727.20 916.34 959.89 194.27 1100.03 284.08 1066.66 631.16 463.59 655.21 735.77 1055.24 1108.21 872.57 1000.83 153.20 836.92 468.57 865.75 917.84 1041.64 667.35 718.11 1087.98 236.75 1124.64 678.97 1120.10 1039.68 1054.81 1049.80 339.05 806.96 1086.60 1057.09 503.35 1069.25 1023.43 1141.15 1092.95 1176.55 251.29 1036.55 1173.15 362.31 966.35 756.82 899.77 1019.77 608.61 757.42 1077.86 605.47 1058.17 1075.57 873.97 226.54 1071.04 893.19 748.20 1036.70 759.49 717.81 1003.10 151.05 1066.62 587.72 1294.91 204.08 240.18 1080.17 139.56 1149.34 681.43 1035.16 192.15 1110.31 1053.02 1086.38 1136.46 231.29 1082.04 1109.88 655.02 129.75 890.26 1027.81 726.34 160.33 995.87 918.16 684.67 284.97 201.56 316.61 383.15 988.22 983.47 280.19 768.87 1156.94 676.63 987.21 1085.96 1086.48 707.18 1079.30 329.96 1083.42
1223.66 492.90 341.38 844.87 246.57 838.24 77.08 110.19 446.97 138.60 979.57 398.44 201.64 91.42 305.69 825.32 257.75 922.30 466.02 1050.22 367.50 808.18 384.62 762.00 403.36 1012.10 149.56 400.10 1042.92 0.00 109.80 1060.44 227.09 381.80 525.96 205.23 697.67 236.95 465.66 138.58 823.95 275.46 422.06 825.87 178.85 421.15 192.97 22.43 285.05 192.50 123.34 991.26 478.75 184.33 377.40 163.11 218.81 481.31 54.14 227.92 124.39 115.36 1008.73 985.55 489.82 368.36 115.56 317.54 801.33 354.51 369.41 142.08 1061.94 833.59 162.25 236.89 287.52 194.15 93.07 164.09 107.70 1012.02 60.05 654.52 233.21 195.85 485.03 941.01 107.99 230.40 876.75 1026.56 387.39 279.78 107.94 928.51 161.54 852.85 94.12 461.79 705.72 407.25 374.65 64.89 113.68 320.97 209.22 950.05 252.82 848.77 308.02 196.79 80.35 554.11 344.35 188.99 900.16 181.73 391.91 242.03 231.34 174.20 86.52 892.09 376.02 123.08 20.30 597.84 122.14 99.87 160.01 91.72 295.11 928.90 101.07 186.35 1075.96 149.08 388.29 394.57 115.90 530.96 438.47 165.23 471.39 206.58 205.57 272.29 904.83 151.63 185.21 490.87 130.13 410.52 602.87 39.82 944.75 169.09 530.61 401.03 928.41 870.24 136.19 933.26 148.11 380.51 193.52 921.01 530.50 95.21 156.71 225.67 998.68 130.55 127.03 440.45 1084.42 200.21 119.15 405.40 988.04 200.11 234.28 381.42 993.78 916.44 796.55 797.02 166.98 265.72 976.64 412.52 191.87 392.86 144.06 164.59 184.40 360.13 114.03 790.06 184.21
1231.60 530.40 364.17 858.82 224.17 883.82 68.47 47.85 504.21 248.40 1007.77 462.44 295.09 40.74 267.14 814.58 216.48 941.88 529.09 1044.98 475.38 797.83 446.48 845.26 375.53 997.15 152.87 427.80 1083.82 109.80 0.00 1058.46 179.53 445.26 622.08 171.85 689.06 190.27 575.46 65.97 849.04 221.32 442.14 894.56 97.08 515.93 204.64 108.38 307.84 200.33 44.09 1012.75 423.71 179.27 313.85 100.77 223.13 578.53 117.62 199.30 46.41 121.76 1039.53 1019.45 530.72 447.90 224.83 301.81 846.69 298.64 369.85 168.54 1038.00 896.57 211.80 175.57 261.67 215.62 107.02 189.18 116.81 1068.79 60.49 718.70 308.75 115.53 534.82 966.77 122.51 172.17 921.63 1047.71 441.95 289.69 215.29 932.83 82.29 899.89 55.57 502.54 781.26 502.03 481.23 109.08 24.39 379.58 164.00 996.56 297.18 837.31 321.97 282.35 101.20 621.36 443.26 112.18 963.14 127.05 486.19 171.26 178.52 135.46 34.02 922.89 445.22 42.76 89.50 693.96 57.85 149.66 81.09 43.73 230.82 991.88 115.01 107.43 1075.98 197.97 407.81 386.03 164.03 587.71 448.61 110.19 528.63 155.61 133.37 335.77 963.99 77.63 273.42 488.49 109.53 474.00 686.91 80.72 985.63 103.67 594.79 328.61 977.60 928.90 55.87 987.54 69.19 479.65 145.98 951.83 476.05 86.60 113.06 163.87 946.18 69.62 62.08 484.92 1104.00 265.19 123.83 466.29 1068.27 226.05 247.40 451.37 988.54 960.38 855.71 858.57 180.93 279.51 1008.63 458.84 117.38 478.14 144.08 91.98 119.38 449.64 63.52 834.94 118.57
793.28 677.91 737.24 364.93 911.85 489.49 1020.91 1015.58 757.52 1030.04 535.45 792.71 890.49 1075.51 987.94 404.28 949.91 506.44 764.88 542.75 879.28 421.42 845.21 460.04 809.29 465.09 945.07 767.30 672.11 1060.44 1058.46 0.00 985.02 779.84 573.76 987.31 552.37 1080.45 854.01 1028.63 473.72 891.47 790.03 478.94 1035.70 790.85 948.48 1043.33 793.57 929.78 1045.72 490.22 976.46 879.19 1094.58 1039.34 939.61 868.08 1039.10 1081.43 1029.78 982.95 459.63 502.64 748.63 804.81 963.06 821.58 448.25 944.36 791.68 921.44 655.84 442.42 995.39 942.52 973.61 939.80 984.38 961.60 985.80 620.85 1040.92 608.45 869.19 1016.52 786.92 471.32 975.09 944.41 446.87 493.22 847.52 923.19 984.19 515.49 1044.47 473.42 1058.09 727.21 442.02 797.24 800.24 1002.47 1057.34 953.24 942.97 546.53 934.51 312.08 845.46 998.43 1001.45 790.24 826.46 1004.40 451.08 1005.73 815.16 969.81 965.86 969.71 1024.44 394.63 938.15 1038.85 1059.67 501.88 1027.53 960.57 1007.62 1052.11 932.65 479.82 992.75 1033.96 341.46 996.58 855.35 995.82 976.60 725.25 764.27 1008.47 775.97 1000.37 1001.08 903.20 472.98 1024.72 957.25 654.63 975.68 869.58 838.72 1043.04 535.60 995.95 694.12 1106.39 505.08 497.03 1025.74 547.09 995.72 794.57 994.75 479.96 1016.74 1023.33 1016.99 986.17 695.21 1035.87 1043.99 756.10 657.68 948.24 962.65 829.49 584.24 876.56 927.97 790.96 495.69 489.37 481.65 490.86 922.02 936.27 475.60 762.37 997.29 806.92 978.76 1002.62 1009.52 811.20 1026.46 436.50 1005.62
1214.76 552.58 407.98 803.03 148.13 816.34 183.17 150.87 521.66 344.73 931.73 497.05 334.60 201.58 221.30 851.83 170.99 886.33 562.19 1021.66 489.86 839.36 454.04 820.28 273.59 945.08 77.53 344.77 1052.86 227.09 179.53 985.02 0.00 505.86 506.00 59.91 615.59 220.37 561.84 130.96 850.90 128.42 367.50 829.57 139.18 514.13 290.09 237.82 366.18 151.11 162.43 959.75 346.84 143.41 263.08 123.05 167.58 577.49 248.24 224.83 155.19 143.61 898.21 973.54 576.95 482.98 263.65 238.40 791.31 128.25 416.46 159.03 971.85 805.99 253.41 110.28 149.37 230.83 196.86 219.43 183.84 984.42 212.57 706.43 317.72 68.18 565.35 928.85 176.22 92.64 878.91 991.92 447.74 240.78 289.56 877.28 132.81 832.41 203.72 540.08 712.72 503.42 464.22 197.01 193.58 420.95 92.25 930.09 352.23 825.23 311.81 334.96 171.28 664.91 479.02 112.21 872.56 130.30 526.58 67.24 19.16 76.44 190.45 828.25 473.11 140.95 230.20 577.88 138.92 191.03 181.08 194.05 157.20 901.30 179.22 214.21 1037.16 243.90 492.71 512.13 207.06 618.42 399.70 101.96 546.08 53.67 50.34 415.08 902.34 116.35 302.77 330.39 146.78 548.19 721.56 212.87 924.79 104.87 582.52 274.39 895.09 860.60 138.11 913.30 183.16 509.90 76.18 869.32 409.41 175.47 110.48 83.60 997.37 144.92 179.61 536.64 1048.45 336.13 132.48 484.50 1012.72 179.43 143.31 514.22 965.22 878.73 843.06 796.49 186.72 187.77 945.13 458.77 159.51 516.55 209.11 132.90 88.22 498.18 160.95 792.22 95.80
866.77 176.10 151.80 590.38 379.76 528.84 397.04 429.40 96.49 298.04 654.20 22.53 226.89 455.85 636.72 511.02 578.18 612.90 115.04 727.86 99.44 509.61 97.27 528.14 502.88 764.81 449.68 304.19 686.03 381.80 445.26 779.84 505.86 0.00 261.27 478.10 435.09 566.94 167.47 396.52 526.29 568.52 285.80 540.79 465.13 70.67 293.68 396.51 183.61 394.95 447.60 690.97 615.24 383.80 667.09 433.79 352.00 183.12 406.55 575.97 428.24 393.30 771.09 637.11 132.93 69.79 275.93 434.98 546.58 558.90 118.02 390.71 752.89 544.81 295.30 517.47 607.19 304.45 352.17 330.93 384.12 702.23 415.96 304.04 195.32 462.54 140.70 590.07 360.69 522.17 566.91 721.84 67.68 310.60 273.86 619.91 441.33 513.81 440.04 88.03 467.99 56.77 122.76 379.30 431.66 221.38 447.58 638.61 183.82 596.16 231.85 286.14 396.83 221.26 48.19 462.69 611.38 483.77 40.93 519.74 486.70 458.84 425.17 654.45 171.26 419.73 402.10 333.15 426.64 337.40 478.04 454.00 575.50 640.12 377.17 511.17 823.29 309.45 113.07 264.73 333.74 183.15 312.51 440.74 120.91 452.19 477.14 224.59 611.42 411.13 249.57 416.86 401.69 157.77 262.82 404.25 627.68 439.22 180.13 659.16 616.69 557.79 406.62 628.29 489.94 40.46 434.11 597.53 625.71 384.59 444.95 514.62 671.37 410.48 464.22 99.99 775.02 216.71 414.48 66.94 704.09 364.33 376.27 11.12 705.00 588.12 562.69 548.09 328.70 365.10 689.15 84.89 497.27 32.88 301.18 422.53 457.06 31.36 432.11 547.49 459.90
727.60 140.47 356.85 357.79 562.81 359.08 567.56 619.42 220.08 498.60 479.67 238.74 410.26 617.38 727.30 350.50 676.99 417.57 231.68 565.58 316.90 333.36 311.27 314.28 628.38 532.22 583.53 393.01 546.86 525.96 622.08 573.76 506.00 261.27 0.00 565.91 253.14 696.96 325.66 604.05 378.34 634.42 370.28 372.31 594.47 249.80 433.16 548.39 388.22 596.51 634.87 503.67 704.06 575.05 769.08 592.93 535.05 329.07 571.99 705.99 612.07 589.69 514.59 474.23 208.48 231.05 410.40 598.05 285.31 634.25 329.96 532.80 583.19 370.97 470.44 616.28 655.37 512.10 545.16 480.91 567.05 503.69 586.01 222.21 378.69 574.18 287.02 479.24 582.03 598.64 372.91 546.68 298.10 504.73 471.66 408.52 608.64 375.15 588.49 255.18 206.72 235.90 253.13 513.00 630.86 453.26 557.16 424.09 424.93 355.05 390.82 485.56 559.74 252.80 255.06 567.50 420.77 593.58 251.90 573.24 525.16 582.44 588.06 397.95 404.43 616.91 546.26 71.88 614.24 509.44 650.35 617.68 639.84 449.51 564.78 676.69 575.14 443.92 313.35 469.05 502.49 151.49 368.00 573.30 202.21 559.67 556.34 465.70 445.34 589.44 432.57 477.64 600.99 375.06 310.87 565.78 418.79 606.51 120.36 780.39 454.59 415.31 607.02 407.30 638.45 220.81 582.18 428.82 761.15 585.69 579.23 589.60 491.37 618.01 645.93 248.14 579.69 461.69 598.54 283.05 543.96 565.95 559.32 256.10 509.14 438.23 337.06 290.49 530.26 587.17 489.05 252.35 629.07 233.16 522.52 601.65 543.51 272.47 590.72 286.22 553.73
1154.85 557.40 380.01 825.57 101.20 793.15 169.42 153.60 507.84 312.54 884.80 458.43 323.05 212.59 265.84 828.76 220.08 835.56 517.84 962.71 524.48 835.32 506.29 817.67 244.06 992.46 55.67 355.38 1024.48 205.23 171.85 987.31 59.91 478.10 565.91 0.00 667.84 227.55 522.99 124.45 821.47 171.46 378.11 803.51 135.58 454.22 266.28 205.81 323.68 112.26 163.62 930.48 350.60 108.12 322.99 122.36 128.96 538.64 232.89 221.30 154.46 132.34 945.59 913.63 517.04 467.74 255.56 191.47 800.19 188.16 387.13 130.28 1024.10 746.08 245.69 159.37 209.28 204.06 155.70 200.87 137.65 924.51 202.31 669.50 323.68 74.44 539.88 878.61 158.77 147.91 848.17 952.41 426.48 193.85 262.06 838.66 135.87 777.08 191.86 480.17 736.03 468.12 425.37 195.86 196.24 419.08 53.40 891.19 347.69 814.95 273.19 316.76 149.96 614.92 443.73 103.99 812.65 127.01 491.18 127.15 71.41 77.42 175.84 880.50 440.92 129.09 225.53 601.19 146.44 198.34 162.64 185.54 185.38 841.39 130.70 195.77 1060.50 222.04 469.45 473.13 192.99 567.80 352.77 80.23 516.62 43.39 82.71 393.82 842.43 121.37 263.77 382.64 123.71 532.05 697.58 191.55 883.33 100.72 591.48 326.64 867.47 800.69 134.55 884.92 174.54 475.53 43.99 856.30 416.14 178.73 88.75 143.51 1020.68 137.65 182.67 495.48 997.68 314.29 111.16 483.96 974.10 140.82 131.76 479.60 906.27 846.89 786.94 819.80 165.46 167.67 926.36 420.15 156.30 477.93 176.92 111.17 91.18 477.15 164.20 804.09 80.96
650.26 357.29 429.22 187.44 661.15 338.71 620.59 676.24 436.90 699.11 387.96 421.71 582.47 678.39 836.89 273.94 773.34 365.64 460.76 406.07 504.07 263.82 482.56 262.47 730.24 361.87 678.35 514.75 494.62 697.67 689.06 552.37 615.59 435.09 253.14 667.84 0.00 814.42 564.25 668.69 292.38 744.01 492.02 326.34 714.80 468.14 673.74 675.24 485.55 693.67 683.26 344.16 775.13 684.76 878.67 705.96 681.67 548.60 701.72 815.63 671.33 648.85 368.15 443.55 428.01 478.90 655.04 570.88 253.50 742.98 483.66 694.02 525.17 308.64 715.08 712.63 764.96 702.78 665.46 705.03 659.54 456.85 652.99 298.33 561.17 683.77 510.03 323.83 668.33 708.23 278.19 376.33 487.02 615.38 676.17 356.59 702.47 339.64 666.53 481.30 185.88 454.24 413.88 675.23 700.67 596.41 672.35 381.64 593.98 321.37 537.44 679.20 632.19 469.62 469.72 723.18 308.06 739.62 434.69 682.83 596.43 653.71 655.46 251.51 573.48 655.43 697.39 181.26 672.78 708.10 726.61 698.61 772.79 336.80 659.31 759.74 452.81 688.56 482.40 600.54 721.60 404.63 477.38 700.85 455.35 630.94 665.93 583.97 289.49 661.58 626.32 587.02 678.01 445.74 421.99 673.22 388.11 698.69 373.50 851.66 328.24 304.47 658.59 398.43 733.64 414.56 654.81 302.47 776.63 602.46 701.43 699.19 517.69 674.06 685.37 471.35 514.56 638.24 670.03 452.10 406.75 672.88 682.54 432.65 349.63 311.88 297.02 188.56 627.42 727.62 329.54 451.75 730.37 402.21 684.32 683.68 703.81 441.52 649.98 259.01 701.81
1372.02 668.47 516.93 1001.86 318.16 989.12 211.63 183.50 628.68 375.55 1100.35 576.99 415.00 211.03 92.51 929.46 188.39 1032.95 665.75 1157.11 604.45 912.59 569.32 924.75 432.12 1038.24 202.81 458.69 1218.17 236.95 190.27 1080.45 220.37 566.94 696.96 227.55 814.42 0.00 702.61 170.42 964.82 188.98 481.42 985.89 127.71 632.60 327.48 259.38 465.29 301.45 159.32 1076.46 425.60 268.69 233.72 133.15 314.20 717.13 281.01 9.03 185.70 218.55 1085.11 1117.54 687.39 575.76 352.51 372.11 949.22 269.64 527.30 230.51 1188.14 973.63 302.29 163.69 175.71 313.53 256.50 329.39 234.82 1152.06 217.94 846.11 413.20 184.55 653.70 1036.22 238.74 146.05 992.83 1144.26 536.46 410.81 340.63 1023.90 155.15 1004.63 221.76 638.19 885.71 623.71 577.57 253.95 179.65 511.87 242.59 1088.58 450.91 952.19 458.43 406.01 214.46 701.24 574.71 157.74 1029.82 157.07 607.74 153.13 235.45 178.17 204.18 981.88 536.94 158.99 257.25 768.84 176.34 288.55 115.97 177.27 230.16 1058.56 241.77 82.84 1161.87 321.48 530.65 576.30 277.44 701.31 519.64 147.32 653.10 212.20 198.94 451.53 1000.04 178.65 412.02 484.02 224.41 589.76 756.15 238.17 1080.72 166.08 728.32 220.04 1042.68 1028.24 172.10 1078.61 121.08 591.11 188.65 1031.66 432.58 211.96 138.80 143.31 1116.34 184.38 141.96 629.16 1195.07 422.64 215.50 589.13 1155.68 288.54 305.65 555.82 1100.67 1038.06 959.30 973.80 297.11 346.51 1091.08 571.34 138.16 586.26 292.05 161.22 153.45 564.43 174.68 937.47 163.67
870.08 206.96 283.99 668.90 502.17 569.20 539.76 575.85 147.63 393.55 721.71 144.94 381.65 557.08 750.18 545.01 691.89 653.26 107.10 799.32 185.91 562.15 175.09 600.46 637.91 814.88 529.25 426.52 689.34 465.66 575.46 854.01 561.84 167.47 325.66 522.99 564.25 702.61 0.00 551.51 614.45 666.48 408.21 582.43 593.08 170.48 405.30 488.09 315.80 511.97 589.00 755.65 737.57 464.73 799.95 588.78 474.41 15.65 486.65 693.58 566.70 532.50 821.13 675.88 136.24 180.27 390.41 589.97 609.08 687.81 273.01 506.98 763.17 588.29 445.91 631.18 702.45 407.26 494.89 453.34 508.91 766.72 525.05 338.03 350.08 548.83 67.09 689.36 526.05 613.54 576.99 783.12 223.42 445.63 407.84 660.27 601.27 585.27 538.61 126.80 504.46 162.64 245.29 494.15 579.34 280.94 469.59 679.07 321.24 666.16 384.83 339.57 531.12 210.74 180.38 603.92 654.86 623.05 132.82 604.11 545.51 534.01 551.52 704.49 174.16 574.72 485.96 382.99 568.87 452.25 625.67 557.38 674.26 683.60 501.96 628.26 886.25 416.94 213.76 267.63 464.45 193.23 422.18 586.94 136.57 541.15 552.12 268.50 682.88 566.12 320.76 527.60 561.22 130.27 210.72 505.48 673.77 551.32 220.49 785.49 671.39 628.17 561.61 662.28 613.77 162.87 565.02 670.89 757.90 537.47 578.60 620.47 708.67 565.47 592.69 137.29 815.38 371.28 548.19 144.63 744.45 470.50 498.68 166.11 746.83 674.37 629.15 601.60 445.72 506.32 760.61 237.87 640.16 164.44 468.65 577.52 579.93 188.62 545.35 597.33 589.70
1227.14 514.32 353.77 856.13 164.22 847.32 67.40 32.88 493.01 231.43 947.82 406.57 244.58 89.24 240.20 759.31 197.44 910.73 507.77 1043.91 460.33 742.17 433.97 812.00 312.51 942.36 88.74 368.32 1070.07 138.58 65.97 1028.63 130.96 396.52 604.05 124.45 668.69 170.42 551.51 0.00 794.47 176.63 391.05 838.90 68.61 462.18 198.27 122.05 333.78 169.63 51.08 1007.57 357.74 149.44 270.57 37.27 191.98 567.16 151.40 179.45 31.72 79.02 989.23 964.88 516.97 430.03 205.87 254.49 825.47 246.40 384.96 128.31 1065.24 870.53 145.83 141.83 223.09 192.14 112.27 182.98 84.25 1022.71 98.26 682.65 242.78 66.02 523.66 903.75 102.25 125.65 888.64 1038.44 411.97 256.87 178.63 901.68 58.37 863.39 85.98 472.07 715.29 453.29 454.65 123.11 74.68 348.36 124.43 930.59 304.23 789.03 320.40 266.27 95.96 606.82 422.47 66.17 924.94 87.25 437.32 123.22 112.55 78.75 71.79 920.20 462.88 23.21 141.54 664.21 30.12 147.17 94.43 79.66 180.20 953.68 87.62 127.56 1065.99 174.80 395.30 452.00 144.48 573.96 415.79 44.22 517.43 92.59 80.62 319.14 904.16 14.61 265.71 423.78 61.25 457.37 620.94 98.76 919.66 42.70 558.74 262.64 923.66 884.99 10.10 931.15 102.62 420.69 90.26 909.94 435.05 66.23 48.43 118.10 983.95 13.96 79.75 484.98 1072.85 270.90 75.55 453.75 1023.21 173.27 183.93 385.40 987.47 904.72 846.55 817.43 178.72 230.69 998.23 456.63 100.75 415.84 139.62 26.01 60.54 418.51 42.29 837.22 63.38
450.80 457.56 573.21 124.00 786.42 52.85 791.88 809.96 493.41 738.61 205.36 512.91 666.22 866.13 992.88 69.44 942.57 136.91 523.20 251.04 599.40 52.30 573.76 64.06 668.71 298.43 805.06 506.13 315.76 823.95 849.04 473.72 850.90 526.29 378.34 821.47 292.38 964.82 614.45 794.47 0.00 917.16 483.40 65.29 856.15 523.58 720.90 817.65 629.54 810.93 831.36 218.81 798.20 770.36 997.40 831.74 763.04 598.80 769.81 973.85 815.36 797.08 281.85 170.41 478.21 485.77 710.50 752.39 103.39 818.67 526.70 766.26 323.61 85.96 720.68 881.86 955.81 706.18 747.01 659.86 778.96 264.39 810.80 276.42 651.45 818.40 585.62 162.95 764.47 864.22 178.81 262.05 529.29 714.37 742.01 145.96 842.44 68.92 843.82 525.91 178.94 523.69 456.15 787.99 853.75 690.16 828.12 175.64 662.05 253.75 618.81 718.81 788.86 425.69 509.78 831.07 152.53 853.80 525.89 838.82 850.03 829.70 820.01 165.21 664.68 807.37 803.65 306.46 799.09 760.70 874.71 858.86 892.51 181.27 772.01 907.84 348.83 703.06 573.60 737.90 744.67 421.22 555.45 834.54 493.73 825.62 800.56 673.74 166.53 809.08 665.82 618.80 774.49 593.19 521.06 814.53 164.71 837.17 400.33 1004.40 129.19 111.82 800.36 176.20 886.61 505.76 817.52 154.96 874.27 810.01 826.02 855.18 362.98 780.51 860.03 497.02 299.03 716.34 788.79 543.30 253.64 744.90 787.31 523.85 194.60 147.88 87.07 103.82 761.86 719.95 214.69 494.02 886.69 493.41 704.96 820.48 849.50 532.72 822.61 92.12 846.02
1321.11 665.52 500.40 915.93 263.05 943.45 218.63 192.90 634.45 401.95 1046.65 583.20 421.21 184.04 96.47 910.51 58.44 994.36 617.14 1044.47 618.28 893.37 582.46 872.42 352.60 1020.02 158.87 411.03 1169.50 275.46 221.32 891.47 128.42 568.52 634.42 171.46 744.01 188.98 666.48 176.63 917.16 0.00 433.76 936.29 144.23 609.87 350.59 273.28 462.27 246.80 177.23 963.82 419.12 205.22 203.11 147.87 275.61 682.13 287.21 189.96 178.70 207.92 1026.63 1085.09 682.03 558.50 358.76 317.77 856.11 116.43 481.91 204.46 1100.27 917.54 317.01 51.05 82.14 306.13 260.50 304.07 237.22 1095.97 240.61 831.35 405.13 133.63 625.54 1036.88 240.53 52.94 931.05 1031.62 507.93 355.70 335.06 985.31 153.00 948.54 217.33 647.59 841.14 603.73 555.65 261.89 221.23 499.56 196.89 1049.99 454.67 942.47 419.84 414.65 223.10 742.82 540.83 112.93 978.91 114.26 588.39 78.34 147.58 174.25 225.96 956.67 547.00 179.64 280.69 706.30 183.74 282.84 174.53 205.97 41.18 1007.65 238.82 161.14 1112.58 325.24 553.76 559.61 266.81 703.53 471.98 136.69 646.61 170.91 151.47 475.27 1003.48 163.98 401.31 458.81 215.03 613.50 748.02 235.64 1042.13 168.30 709.78 214.92 1003.12 972.15 166.53 1040.02 169.23 589.05 150.07 977.35 406.51 214.82 145.21 94.70 1107.76 165.16 183.54 625.91 1156.48 427.33 205.44 607.66 1098.30 248.20 251.34 562.03 988.03 986.76 895.20 917.45 246.91 311.11 978.44 524.82 105.82 585.30 267.34 153.09 118.05 560.42 198.72 844.36 128.27
934.20 381.11 243.63 596.67 307.40 536.25 395.23 407.83 352.96 392.98 688.76 263.27 312.10 455.80 509.48 552.84 459.17 620.31 351.86 734.44 366.13 535.70 330.31 547.46 258.10 769.60 373.17 22.73 799.16 422.06 442.14 790.03 367.50 285.80 370.28 378.11 492.02 481.42 408.21 391.05 483.40 433.76 0.00 548.69 396.27 318.88 237.50 400.40 225.60 330.44 425.73 695.36 333.78 314.33 551.26 392.19 279.64 423.86 376.33 490.45 409.23 369.12 749.90 653.81 369.98 268.98 317.71 268.99 536.85 463.62 222.74 282.86 807.01 569.36 289.94 398.46 476.77 306.89 350.36 308.16 360.22 747.79 414.15 407.78 280.53 335.00 388.48 646.35 336.51 380.82 611.79 745.45 258.15 230.97 340.40 629.36 399.63 552.32 420.39 328.77 417.19 313.24 242.48 357.94 452.26 409.39 376.50 659.04 366.54 593.93 135.41 345.35 372.65 420.64 292.72 374.90 612.09 397.12 296.02 355.42 386.66 349.41 408.12 633.26 427.22 407.77 410.17 310.76 403.05 322.19 416.51 429.92 445.38 640.83 358.47 449.64 814.02 284.19 362.96 520.69 338.22 312.99 72.05 351.14 377.38 356.48 317.16 380.32 641.87 382.47 322.04 135.40 364.70 422.24 494.29 417.88 648.11 368.47 283.87 582.81 612.59 595.22 401.15 659.60 428.41 281.20 334.12 638.36 390.87 402.38 342.62 371.78 730.25 391.52 438.56 351.91 782.43 372.56 360.75 332.66 737.04 304.62 303.91 284.44 678.00 631.28 570.47 529.37 324.47 278.93 680.74 242.03 426.33 282.77 326.86 365.04 366.10 306.95 387.88 525.10 362.62
437.84 457.37 625.57 158.98 780.64 13.23 843.53 855.47 525.02 790.86 165.74 535.27 709.47 900.92 1032.76 113.81 961.70 97.29 507.26 237.62 602.89 96.73 586.89 63.87 713.14 273.73 853.78 571.42 257.10 825.87 894.56 478.94 829.57 540.79 372.31 803.51 326.34 985.89 582.43 838.90 65.29 936.29 548.69 0.00 870.37 499.20 764.31 842.51 669.24 810.74 881.13 197.52 761.53 787.90 1062.69 865.82 752.88 575.42 835.10 989.05 859.79 839.17 265.16 191.21 454.83 536.55 710.31 807.61 103.20 883.96 571.13 810.09 298.80 57.43 740.13 900.99 978.94 688.82 811.35 725.15 800.29 224.02 866.38 320.79 677.90 877.95 575.95 128.97 807.61 883.35 178.62 200.69 591.24 755.47 771.57 106.34 842.93 26.98 875.54 532.89 223.37 485.30 521.44 800.05 891.93 702.66 839.48 131.90 702.44 253.56 608.65 784.10 824.86 490.98 548.20 830.88 124.00 872.65 525.17 896.81 810.41 843.21 875.11 148.52 664.85 851.80 846.17 300.43 843.52 797.85 919.46 903.16 957.80 130.93 793.34 949.69 318.70 711.16 625.56 742.91 781.82 397.84 596.55 854.64 507.20 843.91 865.85 739.03 122.34 853.51 731.11 607.46 818.86 616.64 460.71 862.24 135.77 881.60 361.94 1065.64 102.54 54.86 844.79 124.28 911.45 553.20 847.50 110.47 907.27 850.19 863.16 913.17 334.97 824.94 889.73 532.60 259.41 735.26 833.16 556.43 226.99 752.06 777.15 529.67 190.86 101.06 67.99 137.78 764.18 764.38 194.22 559.31 917.43 553.37 760.36 864.91 854.87 571.36 857.96 91.93 865.09
1255.11 559.73 398.13 898.44 190.66 861.41 101.77 74.95 518.82 300.04 974.26 475.18 313.19 123.85 209.21 810.66 165.37 937.17 559.35 1078.07 524.44 803.85 488.62 806.50 345.18 936.43 118.75 373.54 1122.39 178.85 97.08 1035.70 139.18 465.13 594.47 135.58 714.80 127.71 593.08 68.61 856.15 144.23 396.27 870.37 0.00 530.79 252.92 156.42 368.14 202.89 65.64 1021.70 368.87 184.63 291.61 31.34 218.42 608.73 179.20 118.68 79.27 125.31 983.30 1017.07 585.58 469.80 245.14 280.93 845.83 241.30 426.79 158.06 1098.30 878.09 200.48 108.93 190.69 185.82 146.64 212.69 126.08 1050.39 120.79 732.56 311.39 82.06 525.99 934.41 146.61 91.29 901.62 1058.88 473.83 283.31 239.28 928.12 27.44 877.48 115.55 529.64 783.90 521.90 472.86 156.24 92.47 408.66 153.64 992.80 341.05 833.39 356.91 306.82 115.27 614.06 491.08 62.90 928.01 29.97 505.93 116.69 158.34 107.16 94.32 936.59 498.32 80.35 165.79 666.35 63.00 189.00 58.24 90.09 172.77 956.75 133.03 84.58 1060.06 211.62 449.95 483.11 178.45 616.16 434.49 55.35 543.24 125.26 99.90 341.67 898.23 60.90 307.80 469.57 105.61 479.90 664.43 141.02 984.94 80.93 608.65 310.93 940.87 919.30 78.71 982.83 46.34 488.38 101.39 932.62 378.97 112.34 53.65 133.05 1006.48 75.64 54.78 524.82 1099.29 325.49 113.69 505.18 1053.87 199.42 218.39 454.01 1021.63 936.84 841.05 879.11 217.52 244.02 1029.87 443.63 70.45 476.03 167.59 69.50 50.96 436.72 64.82 834.56 61.18
822.05 133.23 180.41 595.17 412.84 485.97 467.04 494.94 53.62 338.92 638.48 55.61 260.27 488.93 695.02 454.14 640.16 570.03 85.43 716.09 151.22 471.28 115.40 526.73 534.26 740.71 470.53 331.36 641.31 421.15 515.93 790.85 514.13 70.67 249.80 454.22 468.14 632.60 170.48 462.18 523.58 609.87 318.88 499.20 530.79 0.00 326.76 442.61 212.22 418.28 513.26 651.43 642.41 404.65 719.28 499.45 385.08 173.09 439.93 641.63 493.90 463.97 737.90 612.72 88.21 85.11 319.32 500.64 535.11 600.90 182.38 421.00 683.52 508.64 360.96 579.69 639.69 359.95 422.84 344.84 451.39 687.07 457.56 258.38 228.70 528.20 109.45 606.13 431.36 562.05 497.34 688.69 119.84 342.05 344.53 577.04 511.94 502.04 483.98 63.64 416.52 13.90 107.80 422.58 502.33 231.26 461.61 595.74 251.75 592.43 254.12 319.12 467.50 198.35 76.80 502.06 575.21 543.83 37.66 573.68 525.63 495.17 484.03 621.26 165.65 485.39 441.45 309.26 492.30 388.47 540.33 507.14 602.45 603.95 447.84 571.40 786.62 352.84 146.91 259.12 404.41 113.58 327.02 506.22 62.40 497.61 517.75 270.81 576.25 476.79 266.13 433.59 472.36 182.01 243.36 437.33 584.81 504.88 137.26 724.82 575.36 508.77 472.28 582.63 552.23 54.37 498.21 564.38 654.32 448.91 510.61 557.32 612.64 476.14 521.83 41.26 732.15 282.37 485.15 85.03 661.22 423.19 409.35 76.78 663.60 554.97 549.50 527.87 380.86 416.93 666.05 145.67 562.93 66.72 371.85 488.19 522.72 99.29 496.43 523.60 525.56
1115.39 408.17 244.52 755.71 191.75 773.75 185.22 220.19 360.84 155.48 894.84 271.15 144.64 224.30 394.46 740.59 366.36 847.53 368.98 950.12 277.66 723.45 241.84 700.44 369.97 921.37 215.86 260.23 934.65 192.97 204.64 948.48 290.09 293.68 433.16 266.28 673.74 327.48 405.30 198.27 720.90 350.59 237.50 764.31 252.92 326.76 0.00 184.50 188.19 173.57 242.16 869.47 429.70 178.47 468.84 221.58 205.04 389.65 138.83 336.51 221.30 181.48 901.67 880.39 381.55 283.63 86.67 282.02 672.39 363.22 278.46 183.36 958.86 758.05 52.44 305.65 397.05 104.76 140.35 70.66 172.30 936.48 187.17 568.39 163.04 252.74 349.57 856.42 148.87 297.65 770.83 937.27 302.66 208.43 120.73 841.68 229.51 779.52 182.89 331.31 635.55 321.12 345.10 142.04 219.75 236.70 232.43 857.25 182.58 788.21 160.27 107.85 185.01 466.06 259.62 256.52 818.69 255.38 303.90 311.38 270.93 240.50 170.62 785.03 294.25 195.68 172.67 505.04 213.03 114.82 266.22 213.77 358.28 847.43 165.35 244.64 973.06 53.15 203.17 293.90 105.14 438.54 309.55 235.26 374.73 236.42 255.51 203.08 843.26 212.88 84.54 372.90 186.79 312.88 511.44 199.87 851.95 240.97 444.48 460.91 850.09 812.66 208.37 840.46 270.16 289.08 222.29 826.74 506.69 203.35 240.60 306.36 907.69 212.23 248.14 336.31 1009.65 135.06 201.09 261.65 959.14 147.69 222.31 292.32 893.68 836.15 734.98 723.65 121.13 258.22 876.13 307.23 299.02 283.36 89.36 224.28 256.96 287.16 199.95 684.14 254.83
1209.15 505.34 345.86 822.44 224.14 847.31 54.65 110.30 467.81 161.03 983.58 419.04 204.04 90.45 283.26 830.20 256.78 915.13 487.22 1031.16 389.93 813.06 407.05 778.64 380.93 996.87 171.99 377.67 1041.95 22.43 108.38 1043.33 237.82 396.51 548.39 205.81 675.24 259.38 488.09 122.05 817.65 273.28 400.40 842.51 156.42 442.61 184.50 0.00 292.15 186.51 130.79 974.15 456.32 175.83 354.97 159.32 196.38 503.74 55.99 250.35 103.05 118.17 1003.15 988.06 488.85 390.79 137.99 311.30 817.97 345.39 356.66 139.21 1042.64 850.23 145.14 235.99 265.09 171.72 70.64 157.79 85.59 1024.45 59.08 653.78 213.91 180.91 467.92 957.65 85.56 220.34 888.23 1011.33 386.40 264.45 122.65 906.08 158.47 863.38 71.69 471.94 686.42 428.71 397.08 42.46 114.06 312.68 190.93 970.76 260.78 847.80 285.59 219.22 89.48 576.54 366.78 166.56 916.80 173.68 414.34 219.60 218.66 181.42 85.55 886.51 377.87 125.75 22.15 620.27 115.12 82.76 174.14 114.15 288.09 945.54 78.64 203.89 1053.53 131.35 387.67 417.00 98.79 541.85 420.74 142.80 473.77 184.15 189.13 274.14 921.47 131.90 207.64 468.44 126.56 412.37 625.30 38.85 962.90 158.31 529.87 384.69 945.05 891.44 123.79 955.69 170.54 402.94 171.09 925.08 535.39 72.78 134.28 203.24 997.71 108.12 133.02 443.05 1077.25 214.92 112.91 424.76 965.61 189.15 220.65 403.85 974.72 934.49 813.19 799.42 144.55 243.29 959.53 417.44 200.69 415.29 121.63 148.06 170.00 382.56 91.60 806.70 162.37
1034.27 247.75 56.33 651.10 222.48 656.01 266.38 321.77 238.04 255.16 770.64 193.66 96.92 307.28 507.98 602.31 478.29 736.71 257.09 880.58 260.81 585.17 233.59 641.25 322.11 825.53 337.17 248.33 853.53 285.05 307.84 793.57 366.18 183.61 388.22 323.68 485.55 465.29 315.80 333.78 629.54 462.27 225.60 669.24 368.14 212.22 188.19 292.15 0.00 299.54 348.59 805.02 489.28 319.37 565.82 371.05 234.42 331.45 276.58 456.26 318.34 274.76 818.31 784.29 300.43 159.43 169.49 312.75 649.87 436.97 110.77 285.72 836.78 702.80 229.53 426.97 504.38 236.24 221.51 236.59 253.46 831.96 247.35 445.59 128.49 366.42 293.87 767.05 276.94 409.33 660.07 839.99 135.58 129.83 190.62 727.66 349.73 671.80 296.41 252.86 558.62 198.32 173.39 268.50 332.23 222.35 287.18 769.04 140.94 706.95 90.19 249.95 272.65 322.53 135.42 368.21 744.55 385.41 182.98 419.08 347.02 328.97 273.82 701.67 286.00 311.22 300.55 423.78 309.82 226.60 385.26 316.97 466.03 773.29 246.51 404.27 916.47 203.01 194.92 369.17 242.63 315.87 266.32 345.99 262.46 321.16 360.48 154.72 736.46 333.19 233.08 306.80 288.49 292.95 428.52 267.58 758.11 343.57 321.68 596.42 733.29 668.98 324.33 769.60 373.36 207.78 339.87 724.59 537.42 274.07 354.51 418.18 813.42 319.85 333.90 242.04 898.83 182.56 295.94 239.19 845.64 297.37 222.87 172.49 824.14 715.18 675.80 615.62 270.45 245.02 815.09 159.53 401.98 202.93 272.50 355.29 344.22 188.07 303.32 638.12 353.74
1170.93 515.72 338.67 802.86 78.49 817.20 131.86 163.29 453.79 273.23 862.09 413.37 233.04 214.38 343.27 801.41 281.16 804.97 454.73 965.67 451.23 784.27 415.41 746.87 270.77 969.75 114.71 307.71 990.19 192.50 200.33 929.78 151.11 394.95 596.51 112.26 693.67 301.45 511.97 169.63 810.93 246.80 330.44 810.74 202.89 418.28 173.57 186.51 299.54 0.00 204.83 904.30 369.93 50.59 389.22 181.16 86.22 527.62 198.04 292.42 167.61 147.05 922.88 908.18 497.08 394.32 193.29 168.76 758.31 219.81 334.23 79.15 1006.48 786.16 174.49 220.45 300.48 141.61 140.16 161.09 127.74 931.88 174.27 646.79 224.47 138.10 444.88 863.78 130.12 202.81 833.25 935.17 327.27 171.14 227.35 795.92 194.69 817.16 189.81 468.57 696.98 420.49 382.03 178.59 193.94 356.81 58.86 860.60 289.20 834.78 230.45 281.42 112.15 560.95 370.31 183.78 841.94 172.92 380.62 193.38 134.78 123.28 177.34 859.95 415.18 167.76 208.66 578.48 151.34 136.69 222.90 216.28 263.53 870.68 124.43 241.98 956.36 159.77 376.74 465.31 152.72 531.86 330.06 174.56 478.21 123.84 141.39 294.61 840.06 165.72 255.95 362.09 116.98 432.84 634.07 162.78 852.74 140.59 540.43 374.76 830.02 840.77 171.36 850.63 213.97 411.71 146.69 810.86 393.43 141.88 166.04 209.74 997.97 169.92 210.23 439.68 967.09 301.60 131.28 435.22 931.36 87.92 88.75 398.77 928.51 801.45 781.42 797.09 66.25 116.62 918.92 344.16 217.70 413.10 123.15 143.62 169.20 379.76 168.81 746.56 174.83
1265.87 550.90 369.76 870.70 215.30 884.21 98.93 78.64 537.89 237.78 998.90 457.65 295.66 84.83 236.03 810.39 183.07 960.27 537.69 1075.44 466.68 793.25 471.12 817.26 363.59 953.06 130.53 403.00 1121.15 123.34 44.09 1045.72 162.43 447.60 634.87 163.62 683.26 159.32 589.00 51.08 831.36 177.23 425.73 881.13 65.64 513.26 242.16 130.79 348.59 204.83 0.00 1027.42 405.15 166.53 316.05 72.27 241.52 593.40 161.71 157.93 64.50 127.19 999.93 1001.77 568.05 444.60 237.62 257.72 856.59 265.68 406.44 165.26 1078.75 878.89 196.91 155.90 228.26 217.82 143.80 171.50 120.03 1057.32 101.24 733.73 293.86 117.10 548.93 954.83 128.82 138.26 932.01 1059.59 463.05 266.78 229.71 951.22 38.20 898.34 85.18 523.15 766.37 504.37 486.82 121.87 53.96 393.69 161.38 981.67 337.93 840.11 326.13 284.23 92.68 587.95 467.69 84.93 945.46 95.61 488.40 163.18 163.63 127.30 74.77 934.77 489.31 58.89 133.59 706.75 76.24 163.77 43.35 31.62 214.69 974.20 124.20 76.48 1076.69 210.76 432.45 430.12 162.52 614.88 425.70 91.63 562.31 143.67 112.09 360.74 939.16 65.69 288.29 473.93 112.33 498.97 672.02 121.47 970.74 79.65 609.82 313.72 960.55 916.28 61.18 982.23 55.25 461.97 137.67 961.02 444.61 80.80 83.11 169.18 986.93 65.04 28.67 525.67 1122.39 301.28 114.66 473.64 1074.29 215.33 235.01 436.48 1019.00 955.80 838.03 814.48 209.93 265.50 1012.80 473.09 73.29 466.92 178.35 77.09 92.88 469.59 83.89 845.32 82.66
442.76 613.13 755.31 226.66 868.72 194.36 944.28 999.93 630.86 906.02 129.27 668.44 848.32 1022.55 1060.29 268.34 973.48 161.53 671.39 80.65 756.66 265.40 734.87 255.46 844.40 136.64 952.57 718.09 271.37 991.26 1012.75 490.22 959.75 690.97 503.67 930.48 344.16 1076.46 755.65 1007.57 218.81 963.82 695.36 197.52 1021.70 651.43 869.47 974.15 805.02 904.30 1027.42 0.00 959.05 926.08 1139.64 994.42 840.96 740.00 969.92 1067.43 996.24 958.88 170.77 188.56 619.41 693.61 897.34 905.95 218.36 1037.48 728.82 910.40 308.66 184.40 921.91 912.77 1018.67 869.95 934.03 878.67 949.98 169.88 996.13 417.62 849.34 985.72 726.20 123.55 926.27 930.41 306.29 67.80 711.39 822.73 924.11 153.48 1028.49 178.29 1004.97 669.29 376.83 664.89 638.25 933.29 1037.14 882.25 929.12 175.74 815.91 272.06 806.17 915.26 962.41 644.50 669.60 990.40 117.83 991.73 681.60 955.81 940.59 977.21 989.76 191.88 817.08 999.59 990.49 442.14 1002.14 891.39 1058.60 1032.91 1005.00 94.37 956.70 1031.03 148.76 902.75 743.05 810.10 907.42 562.42 738.26 1001.31 655.28 973.87 1003.56 888.71 127.53 1005.74 862.27 689.74 967.27 789.90 616.45 988.97 164.81 996.01 541.53 1140.88 106.30 142.66 1002.75 169.62 1046.70 650.51 955.27 112.26 1022.43 946.62 1009.83 962.85 381.13 993.61 1022.65 640.40 243.13 878.37 972.82 712.75 134.48 932.86 838.27 680.98 24.21 102.85 220.91 283.30 937.49 920.46 14.62 676.12 1015.05 662.86 923.77 1021.72 995.52 695.76 981.23 230.11 1005.74
1199.37 706.35 534.21 792.62 357.71 774.76 416.99 387.25 669.74 487.63 927.27 597.05 484.57 446.98 515.59 800.72 475.62 858.82 640.18 999.15 696.54 783.58 664.09 825.40 167.17 956.03 365.88 311.05 1018.63 478.75 423.71 976.46 346.84 615.24 704.06 350.60 775.13 425.60 737.57 357.74 798.20 419.12 333.78 761.53 368.87 642.41 429.70 456.32 489.28 369.93 405.15 959.05 0.00 330.81 471.70 351.21 351.72 746.11 458.93 416.57 387.75 384.75 936.33 952.74 703.76 557.30 443.77 267.44 864.73 392.39 511.06 340.04 1060.33 818.96 400.84 414.91 496.21 345.25 401.38 367.05 391.25 985.55 442.76 741.56 482.68 351.63 685.42 890.50 385.60 397.27 880.18 962.22 588.49 359.45 477.83 867.87 385.05 788.51 408.82 650.73 750.97 634.05 568.22 432.36 432.42 607.29 369.43 893.43 539.68 927.71 469.19 521.28 399.93 743.05 571.15 337.28 885.53 360.30 604.75 408.19 341.72 341.24 429.53 819.69 653.29 380.95 478.47 644.54 382.47 413.47 395.93 427.44 460.30 892.46 398.20 429.06 1057.99 410.25 632.87 711.81 429.50 646.77 372.00 313.52 669.65 307.21 346.53 555.83 883.87 361.89 502.45 321.83 414.82 694.06 828.07 450.56 897.30 349.32 617.65 440.15 864.07 816.39 367.84 885.81 407.83 614.98 331.08 872.00 154.24 421.01 322.04 414.37 1064.03 370.94 417.98 663.81 1020.94 552.97 405.93 666.44 988.52 282.01 375.99 608.22 952.39 862.59 829.52 855.10 327.47 325.84 955.75 530.35 405.08 616.55 384.21 344.46 343.31 618.34 400.03 853.46 333.09
1172.72 484.16 301.00 767.54 101.68 787.63 141.72 136.39 438.23 222.64 885.28 393.85 247.13 198.93 301.69 778.62 259.29 838.03 457.28 980.58 451.54 769.51 420.31 724.03 303.83 941.97 65.88 302.38 1023.25 184.33 179.27 879.19 143.41 383.80 575.05 108.12 684.76 268.69 464.73 149.44 770.36 205.22 314.33 787.90 184.63 404.65 178.47 175.83 319.37 50.59 166.53 926.08 330.81 0.00 372.77 165.81 119.28 480.38 161.14 259.66 150.59 103.76 937.00 940.77 492.46 359.62 187.22 191.95 707.72 270.40 295.11 42.25 1021.12 786.34 140.39 211.41 278.19 112.04 105.19 110.50 119.61 946.85 168.98 645.78 215.56 137.33 435.97 891.27 95.90 193.77 782.66 951.86 318.36 194.33 221.28 828.98 170.89 803.70 178.90 453.05 688.07 398.51 373.12 160.04 203.00 350.74 63.78 893.66 283.13 784.19 229.18 260.83 122.26 545.37 335.61 153.04 830.52 176.06 383.17 194.65 139.70 90.52 145.25 820.36 420.08 159.66 194.98 601.67 148.34 121.05 202.71 188.40 214.89 859.26 118.64 235.84 984.89 153.70 381.64 439.91 105.02 518.23 353.25 129.28 462.65 124.55 121.89 285.70 855.09 145.53 249.88 349.83 96.49 423.93 623.33 163.85 885.80 116.76 521.87 379.68 863.79 825.06 146.55 883.69 214.61 400.97 115.56 838.02 416.62 144.14 137.80 193.29 1012.07 163.40 194.22 440.69 1000.15 292.69 83.46 417.04 964.42 48.80 112.01 372.68 924.14 847.43 746.81 769.06 57.34 167.21 911.46 335.25 201.77 403.12 114.24 123.43 136.65 370.85 147.27 695.97 126.43
1414.73 774.94 611.57 1066.11 403.38 1050.25 300.32 267.95 733.52 478.02 1186.98 677.14 515.15 327.82 143.90 1019.93 166.16 1130.95 701.92 1204.66 706.92 1002.79 673.50 1039.85 414.90 1137.52 306.89 528.53 1266.85 377.40 313.85 1094.58 263.08 667.09 769.08 322.99 878.67 233.72 799.95 270.57 997.40 203.11 551.26 1062.69 291.61 719.28 468.84 354.97 565.82 389.22 316.05 1139.64 471.70 372.77 0.00 294.63 421.28 807.77 399.47 242.37 272.27 319.91 1161.29 1167.81 783.76 682.25 459.84 409.34 1023.54 178.73 599.41 360.27 1234.93 1069.07 416.40 226.87 120.97 422.61 345.19 418.05 349.18 1205.77 335.49 944.81 513.35 251.13 762.78 1160.35 352.52 220.37 1085.76 1207.44 665.85 496.03 444.55 1121.90 299.35 1066.32 336.12 722.64 944.10 705.38 702.33 368.11 310.66 608.98 330.36 1113.65 539.05 1059.60 525.51 522.34 347.69 831.59 693.04 280.36 1135.64 261.64 702.56 195.84 282.24 282.59 309.02 1067.42 678.51 273.35 377.12 830.56 256.00 387.83 272.70 324.99 184.27 1164.38 348.24 304.62 1261.15 426.32 650.78 691.06 394.62 832.86 534.44 280.33 731.39 296.82 268.97 556.37 1158.98 285.18 518.81 569.56 331.82 694.60 889.16 355.72 1124.58 299.09 826.64 31.55 1126.59 1109.22 276.02 1130.44 284.60 682.43 281.58 1124.59 489.88 318.45 271.81 179.48 1221.18 274.58 320.56 710.69 1155.50 536.82 341.09 703.96 1251.04 359.37 398.58 655.97 1148.22 1134.00 1062.63 1017.54 404.83 442.45 1154.26 672.47 272.03 670.08 396.18 294.23 282.23 689.08 279.52 1011.79 276.36
1238.87 551.59 389.17 893.40 200.29 878.19 104.67 52.92 522.29 268.70 967.20 443.84 281.85 126.51 225.66 796.58 173.28 932.96 545.04 1046.73 493.10 779.44 457.28 801.95 331.43 905.09 105.53 369.46 1093.43 163.11 100.77 1039.34 123.05 433.79 592.93 122.36 705.96 133.15 588.78 37.27 831.74 147.87 392.19 865.82 31.34 499.45 221.58 159.32 371.05 181.16 72.27 994.42 351.21 165.81 294.63 0.00 214.21 599.40 147.86 142.18 67.07 103.53 951.96 1002.15 554.24 467.30 229.18 280.74 841.28 236.46 405.47 149.08 1087.75 868.44 169.14 112.57 194.33 217.16 149.54 196.24 121.52 1034.25 124.26 719.92 280.05 57.19 557.33 903.07 136.14 94.93 888.40 1027.54 442.49 292.94 215.90 923.91 34.07 892.80 122.18 507.61 752.56 490.56 444.42 159.71 107.23 385.63 122.30 967.86 327.54 824.43 344.91 289.58 110.51 640.15 459.74 34.94 896.67 61.31 474.59 98.79 135.06 105.62 97.79 932.04 484.57 60.48 169.26 664.81 64.87 183.78 65.43 103.89 171.23 925.41 124.89 94.13 1028.72 198.11 418.61 484.78 172.25 600.73 430.41 42.13 546.71 111.51 75.03 340.67 866.89 50.68 294.29 446.29 96.65 478.90 642.63 134.33 956.93 69.84 596.01 291.40 909.53 914.75 47.37 968.42 65.35 457.96 87.64 901.28 410.31 103.50 50.65 115.15 1009.95 51.23 80.87 522.25 1095.08 308.17 82.35 483.23 1022.53 186.20 204.64 422.67 990.29 905.50 836.50 854.70 200.41 236.28 998.53 474.97 91.63 453.11 167.68 47.70 49.42 454.58 68.29 830.01 53.44
1084.71 429.50 252.45 752.13 27.76 747.01 190.12 177.23 419.16 281.18 787.20 329.47 215.56 237.10 364.33 753.02 271.29 718.75 432.64 879.45 438.96 735.88 413.24 766.08 184.55 919.02 138.57 302.37 903.97 218.81 223.13 939.61 167.58 352.00 535.05 128.96 681.67 314.20 474.41 191.98 763.04 275.61 279.64 752.88 218.42 385.08 205.04 196.38 234.42 86.22 241.52 840.96 351.72 119.28 421.28 214.21 0.00 490.06 202.58 305.17 181.55 151.64 872.15 821.96 439.87 378.25 201.98 118.03 726.75 252.41 285.87 83.69 920.26 699.94 176.27 240.31 316.48 100.28 170.44 146.60 161.05 845.66 232.48 596.06 247.13 171.72 440.45 780.72 137.34 222.67 815.71 871.83 357.55 120.41 236.04 709.70 208.63 730.94 224.60 394.97 662.59 379.44 329.06 204.49 219.94 359.94 96.86 774.38 274.25 810.92 144.23 296.71 170.66 529.72 356.06 211.07 766.51 234.09 362.22 230.36 148.42 150.84 218.21 795.47 450.62 182.63 218.53 527.75 165.28 162.59 247.26 234.27 282.66 795.25 167.77 280.39 980.29 168.46 387.26 466.84 178.62 485.37 274.82 187.31 443.58 154.20 171.60 324.89 763.09 177.37 257.48 297.61 146.16 463.12 569.76 212.25 766.52 162.65 502.80 403.65 754.47 754.55 185.30 764.41 253.44 347.40 141.27 728.70 342.70 198.03 188.10 243.37 947.24 183.86 241.32 418.11 880.87 308.00 131.86 398.86 845.14 91.90 24.27 350.64 860.13 738.11 740.80 746.36 96.53 79.50 846.15 291.19 254.79 348.97 153.43 199.47 189.67 373.15 188.71 738.50 179.45
854.43 191.31 299.64 653.25 517.82 562.19 536.50 581.44 159.58 377.90 714.70 160.59 379.80 567.87 734.53 529.36 707.54 646.25 122.75 789.27 194.78 546.50 160.11 584.81 653.56 813.47 544.90 435.06 673.69 481.31 578.53 868.08 577.49 183.12 329.07 538.64 548.60 717.13 15.65 567.16 598.80 682.13 423.86 575.42 608.73 173.09 389.65 503.74 331.45 527.62 593.40 740.00 746.11 480.38 807.77 599.40 490.06 0.00 492.83 709.23 569.44 532.14 814.12 689.95 120.59 188.81 374.76 605.62 593.43 703.46 287.72 522.63 747.52 572.64 430.26 646.83 686.80 422.91 492.81 444.49 493.26 751.07 540.70 322.38 348.23 564.13 82.74 682.35 516.74 629.19 561.34 776.11 239.07 461.28 392.19 653.26 604.03 578.26 522.96 140.87 488.81 159.19 253.83 490.18 565.33 287.12 485.24 663.42 336.60 650.51 398.16 323.92 515.47 216.91 196.03 602.68 639.21 625.70 148.47 619.76 561.16 549.66 556.61 697.48 189.81 569.09 501.61 367.34 571.61 464.83 620.49 573.03 689.56 667.95 486.31 634.29 870.60 401.29 198.78 283.28 448.80 177.58 437.83 578.92 135.16 556.80 567.77 274.68 668.99 570.96 305.11 539.55 546.66 136.45 226.37 521.13 658.12 566.97 213.48 801.14 677.96 621.16 560.72 646.63 608.59 178.52 580.67 655.24 773.55 543.16 587.44 635.78 707.98 559.97 603.02 152.94 803.44 355.63 536.55 160.28 737.44 486.15 514.33 181.76 732.83 664.65 613.50 585.95 461.37 521.97 752.92 251.20 655.46 180.09 479.01 593.06 595.23 204.27 548.09 581.68 598.49
1203.99 516.43 332.91 828.99 230.34 822.66 110.64 143.53 442.20 160.36 975.17 409.98 179.66 112.64 325.55 812.68 278.97 906.72 447.25 1020.85 389.26 795.54 380.67 786.36 382.35 992.03 203.70 379.02 1023.25 54.14 117.62 1039.10 248.24 406.55 571.99 232.89 701.72 281.01 486.65 151.40 769.81 287.21 376.33 835.10 179.20 439.93 138.83 55.99 276.58 198.04 161.71 969.92 458.93 161.14 399.47 147.86 202.58 492.83 0.00 282.06 141.30 130.44 1009.70 940.22 470.15 414.85 169.70 320.61 811.22 371.16 321.14 118.89 1039.96 817.34 140.91 251.91 321.01 156.27 77.19 109.95 109.14 995.77 81.27 651.10 211.23 205.05 463.69 918.85 132.62 234.27 884.00 1017.88 383.72 271.82 135.90 912.28 166.36 836.79 124.10 466.87 683.74 426.03 389.73 73.81 142.01 285.78 215.90 945.45 250.28 869.99 292.14 218.55 111.67 571.98 398.45 174.28 883.91 209.17 431.51 246.65 244.88 204.97 90.45 893.06 389.56 150.27 33.84 643.87 143.47 78.53 197.08 133.60 316.44 912.65 102.19 225.05 1055.30 139.07 342.00 417.53 94.56 517.47 428.46 168.64 417.78 216.02 219.22 218.15 884.76 158.38 222.98 484.43 143.00 356.38 605.39 61.04 934.52 187.40 527.19 414.04 899.00 854.73 141.30 946.01 186.81 400.42 192.15 900.94 545.28 99.26 160.12 249.30 1002.61 144.98 167.82 465.24 1068.84 228.17 140.08 400.48 1021.60 176.92 211.09 417.67 964.41 900.93 776.48 775.04 151.10 278.61 955.30 393.06 227.17 412.77 123.40 177.41 195.84 396.41 119.95 814.42 188.14
1373.79 677.50 512.59 999.27 309.34 980.09 202.60 192.53 619.65 366.52 1092.37 586.02 424.03 220.06 101.54 929.34 197.42 1023.92 660.18 1148.08 595.42 921.62 578.35 925.18 423.09 1047.27 193.78 467.72 1209.14 227.92 199.30 1081.43 224.83 575.97 705.99 221.30 815.63 9.03 693.58 179.45 973.85 189.96 490.45 989.05 118.68 641.63 336.51 250.35 456.26 292.42 157.93 1067.43 416.57 259.66 242.37 142.18 305.17 709.23 282.06 0.00 187.00 227.58 1089.49 1126.57 679.14 576.97 343.48 381.14 940.19 260.61 518.27 221.48 1179.11 967.38 311.32 154.66 184.74 304.50 247.47 329.43 243.85 1145.81 208.91 851.24 422.23 193.58 644.67 1045.25 247.77 137.02 1001.86 1135.23 545.49 401.99 335.86 1014.87 146.12 996.16 228.80 647.22 894.74 628.58 586.60 257.07 188.68 509.49 233.56 1079.55 441.88 952.07 449.40 408.47 223.49 710.27 565.68 166.77 1033.95 148.65 613.24 157.59 226.42 169.14 195.15 972.85 545.97 168.02 248.22 777.87 181.68 290.11 125.00 186.30 228.98 1062.69 250.80 91.87 1170.90 312.45 539.68 585.33 286.47 710.34 528.67 156.35 644.07 203.17 201.39 442.50 1009.07 175.93 408.63 474.99 224.29 580.73 765.18 229.14 1071.69 175.11 727.33 229.07 1051.71 1021.99 181.13 1069.58 130.11 600.14 197.68 1033.87 441.61 213.17 147.83 141.23 1107.31 193.41 150.99 633.34 1186.04 413.61 224.53 598.16 1150.31 279.51 308.08 564.85 1091.64 1029.03 959.73 972.41 288.08 355.54 1082.05 562.31 147.19 594.71 286.27 170.25 162.48 555.40 165.65 928.44 172.70
1235.34 528.85 374.67 848.63 192.99 867.77 51.96 14.20 475.35 260.07 968.75 438.29 276.30 87.15 229.35 780.20 204.11 900.30 506.56 1028.47 476.91 763.06 441.09 815.44 341.28 972.16 119.27 386.50 1085.52 124.39 46.41 1029.78 155.19 428.24 612.07 154.46 671.33 185.70 566.70 31.72 815.36 178.70 409.23 859.79 79.27 493.90 221.30 103.05 318.34 167.61 64.50 996.24 387.75 150.59 272.27 67.07 181.55 569.44 141.30 187.00 0.00 80.18 1007.78 985.77 546.95 432.67 201.67 283.26 846.36 264.49 366.62 126.37 1054.83 871.69 177.55 143.40 222.41 206.67 96.83 164.30 95.77 1027.21 77.32 702.19 274.50 97.74 524.63 932.52 106.46 125.76 901.07 1037.52 431.76 256.04 190.15 891.25 59.62 883.84 84.50 468.89 747.01 485.01 460.76 112.77 70.80 365.19 123.99 955.93 297.58 818.43 311.78 264.17 98.60 603.64 453.76 65.77 936.46 97.67 469.04 145.98 144.27 108.62 50.85 912.70 455.89 26.71 122.32 683.95 16.27 139.47 80.87 52.72 189.24 965.20 102.15 114.00 1079.72 168.15 402.42 432.44 147.98 596.97 414.96 74.23 499.77 121.36 109.39 298.20 933.96 43.38 264.33 455.50 90.65 436.43 652.66 97.55 948.07 74.42 578.28 294.36 936.02 905.88 21.62 945.96 92.77 452.41 120.27 910.25 458.24 68.87 76.70 129.62 963.01 34.85 73.81 497.78 1062.42 282.02 88.27 461.71 1026.69 184.40 205.82 417.12 972.03 919.66 830.83 838.32 170.74 246.50 992.12 448.65 125.77 447.56 147.82 57.73 85.13 446.24 21.35 843.50 92.15
1179.64 472.53 321.47 805.05 179.40 825.94 64.52 75.86 489.79 233.09 938.84 415.83 258.34 122.32 275.68 735.12 227.07 870.39 503.28 991.11 440.20 752.26 423.32 810.65 320.50 979.48 107.65 346.39 1006.63 115.36 121.76 982.95 143.61 393.30 589.69 132.34 648.85 218.55 532.50 79.02 797.08 207.92 369.12 839.17 125.31 463.97 181.48 118.17 274.76 147.05 127.19 958.88 384.75 103.76 319.91 103.53 151.64 532.14 130.44 227.58 80.18 0.00 963.24 941.53 516.73 410.19 179.29 219.57 811.48 266.79 340.94 86.26 1066.95 844.61 142.63 172.62 254.38 150.35 53.25 137.22 40.23 997.30 96.92 685.45 274.47 109.34 465.41 932.36 32.61 154.98 885.72 993.94 388.18 211.50 164.64 861.34 107.26 842.01 110.46 481.33 746.98 450.07 426.21 86.41 118.57 305.74 99.80 926.02 285.77 757.85 241.38 226.56 35.01 584.86 410.18 94.99 911.18 118.01 434.23 166.00 141.10 106.12 92.84 869.12 420.26 81.26 118.60 648.56 63.91 80.25 153.64 132.90 222.83 939.92 45.83 166.52 1024.02 163.36 384.65 431.17 96.28 540.65 368.49 71.23 496.39 124.56 122.85 321.79 912.03 64.41 240.95 415.49 30.07 456.41 595.74 85.64 918.16 68.81 570.69 341.66 906.11 860.80 83.93 916.05 152.07 427.69 117.27 880.34 444.24 46.39 79.75 149.64 1005.00 82.49 115.00 489.84 1032.51 230.01 21.18 422.25 996.78 136.20 157.56 404.42 934.67 889.75 803.75 821.70 127.16 219.92 954.76 388.34 162.79 426.18 92.12 86.51 101.02 423.44 83.43 799.73 90.80
418.02 631.40 797.37 180.71 844.39 251.93 977.38 993.58 711.01 916.94 241.88 748.56 846.18 1046.54 1119.51 329.72 1069.20 267.31 734.87 203.00 829.79 312.58 793.97 246.73 769.16 46.87 972.73 727.17 418.31 1008.73 1039.53 459.63 898.21 771.09 514.59 945.59 368.15 1085.11 821.13 989.23 281.85 1026.63 749.90 265.16 983.30 737.90 901.67 1003.15 818.31 922.88 999.93 170.77 936.33 937.00 1161.29 951.96 872.15 814.12 1009.70 1089.49 1007.78 963.24 0.00 341.94 693.53 745.64 893.17 830.71 229.28 1005.33 786.98 950.63 460.69 263.05 922.99 1008.49 1047.58 927.52 932.51 913.61 954.34 338.39 996.30 536.48 842.56 966.39 774.02 223.94 930.63 990.85 274.74 227.55 811.14 751.74 939.88 266.86 986.03 268.00 1034.68 714.31 370.05 724.00 738.00 982.91 1053.89 881.27 950.92 275.57 918.04 298.20 794.73 972.87 966.77 701.95 769.65 986.90 196.48 1013.27 757.96 965.45 917.37 974.65 1005.51 116.64 890.88 1010.38 1025.30 455.37 1005.53 974.68 1017.39 1031.55 1055.41 167.74 957.51 1046.09 138.95 894.02 815.16 932.45 973.58 636.54 724.14 994.09 716.80 951.88 948.55 948.90 226.26 994.00 919.88 614.50 971.63 813.89 689.82 1000.03 286.50 1003.08 600.64 1172.60 234.13 272.05 999.33 278.75 1012.36 730.63 974.39 241.08 976.61 970.61 1002.61 981.81 534.51 1003.19 1028.60 743.20 365.48 928.43 984.42 763.51 286.51 919.28 858.43 763.75 146.56 236.97 254.63 250.80 892.36 866.93 166.65 743.40 1043.59 742.98 949.26 999.66 986.43 778.91 1014.33 241.03 994.01
387.23 603.19 727.96 256.11 849.72 183.35 962.29 980.37 593.48 893.95 137.67 614.58 820.97 1033.77 1163.29 206.41 1093.25 103.21 586.75 268.78 702.90 222.71 667.08 234.47 807.25 324.77 960.53 676.54 206.49 985.55 1019.45 502.64 973.54 637.11 474.23 913.63 443.55 1117.54 675.88 964.88 170.41 1085.09 653.81 191.21 1017.07 612.72 880.39 988.06 784.29 908.18 1001.77 188.56 952.74 940.77 1167.81 1002.15 821.96 689.95 940.22 1126.57 985.77 941.53 341.94 0.00 592.97 642.51 869.99 868.80 253.21 989.08 697.11 905.65 153.20 167.55 891.09 1048.16 1122.91 858.94 917.42 830.27 949.37 155.31 981.21 391.18 819.72 982.62 608.79 119.72 934.88 1034.63 344.51 256.36 684.04 829.51 896.76 112.26 1012.85 174.84 1014.23 549.08 349.35 625.14 610.90 958.40 1024.16 822.18 918.82 66.37 800.51 386.65 789.22 835.76 959.27 596.10 666.52 993.98 174.04 1017.00 637.03 1009.23 961.50 962.33 986.97 243.44 760.02 977.78 974.06 470.55 969.50 922.44 1024.49 1029.27 1062.92 174.20 942.42 1057.62 337.32 873.47 677.22 817.69 906.41 535.98 670.59 970.22 602.05 928.30 967.62 797.80 155.90 979.49 836.23 652.59 911.46 691.45 548.71 982.17 55.44 984.61 505.03 1174.81 149.50 144.57 970.77 66.93 1036.39 632.51 952.17 145.54 1014.70 980.42 978.74 1025.59 192.57 950.92 1030.44 577.97 248.95 841.34 925.76 651.36 214.15 913.86 846.23 635.75 212.34 154.95 206.98 274.23 918.49 890.36 203.18 648.77 1057.10 634.08 875.37 990.89 1000.01 652.10 992.68 257.82 989.79
733.84 70.72 251.47 532.66 467.63 441.60 522.08 532.75 76.79 376.96 594.11 110.40 347.11 501.60 725.13 408.77 667.93 525.66 81.84 668.68 148.06 425.91 183.88 464.22 608.55 705.78 558.34 392.71 553.10 489.82 530.72 748.63 576.95 132.93 208.48 517.04 428.01 687.39 136.24 516.97 478.21 682.03 369.98 454.83 585.58 88.21 381.55 488.85 300.43 497.08 568.05 619.41 703.76 492.46 783.76 554.24 439.87 120.59 470.15 679.14 546.95 516.73 693.53 592.97 0.00 171.49 393.28 555.43 472.84 677.21 238.47 501.72 626.93 452.05 415.75 650.40 697.84 414.74 485.10 418.80 476.50 630.48 470.23 201.79 315.54 582.99 137.77 561.76 493.62 642.62 440.75 655.52 174.10 416.27 406.79 532.67 566.73 457.67 513.56 78.06 368.22 102.11 196.01 502.14 555.11 319.47 536.73 542.83 283.82 529.92 342.33 364.74 500.63 114.25 165.01 583.14 518.62 604.22 125.87 620.64 579.29 569.13 496.70 576.89 253.86 540.18 503.99 246.75 544.70 470.33 594.59 539.85 676.41 547.36 483.45 623.55 750.01 413.25 203.72 346.67 466.67 56.99 414.91 561.01 52.37 544.78 584.10 320.87 548.40 531.58 340.09 456.76 534.62 206.39 186.17 450.00 537.53 559.67 92.89 779.61 557.37 500.57 527.07 526.04 596.24 128.33 561.03 534.65 738.82 505.04 565.40 604.28 587.39 530.93 556.78 101.92 682.85 337.16 527.58 173.24 616.85 477.98 464.14 131.57 612.24 544.06 492.91 465.36 435.12 471.52 632.33 215.77 617.72 123.53 434.11 542.98 577.51 154.08 526.20 461.09 580.35
898.16 161.92 125.80 588.84 381.91 538.62 381.93 437.58 112.44 361.34 611.21 65.62 235.19 407.16 639.44 456.96 568.16 611.69 121.56 736.81 149.40 439.82 125.19 509.65 481.54 759.75 425.50 246.25 724.59 368.36 447.90 804.81 482.98 69.79 231.05 467.74 478.90 575.76 180.27 430.03 485.77 558.50 268.98 536.55 469.80 85.11 283.63 390.79 159.43 394.32 444.60 693.61 557.30 359.62 682.25 467.30 378.25 188.81 414.85 576.97 432.67 410.19 745.64 642.51 171.49 0.00 324.11 472.18 516.36 570.16 98.91 368.21 766.80 571.73 336.07 507.45 607.51 369.96 380.94 336.57 399.62 707.72 406.78 316.13 239.54 447.19 153.14 648.72 421.86 519.73 580.62 736.09 67.05 289.26 328.89 608.95 463.81 554.69 427.87 93.43 437.77 83.48 65.02 413.11 462.01 271.34 423.40 655.14 247.12 586.10 234.02 336.10 393.53 185.75 24.01 484.52 636.18 499.77 47.45 505.83 495.63 450.14 416.80 629.00 222.10 416.77 388.66 302.93 434.12 386.03 487.54 459.95 572.46 664.92 405.94 520.67 806.19 324.22 131.85 257.99 388.77 196.86 307.20 471.29 136.86 461.12 432.64 280.60 628.09 422.92 290.30 358.92 418.32 207.73 300.90 391.97 649.74 453.82 206.84 692.67 614.96 560.61 419.93 638.35 494.98 78.54 454.50 611.78 601.53 363.80 462.77 515.67 677.89 435.40 446.71 106.51 757.18 266.67 431.37 129.43 710.78 345.22 382.30 61.08 680.37 602.37 544.20 515.08 328.07 364.47 700.46 100.36 491.71 79.93 366.96 445.02 468.85 101.15 411.32 517.27 471.69
1126.80 417.24 225.82 741.55 229.65 722.68 179.63 209.02 369.98 88.20 875.19 282.88 93.55 206.98 402.81 733.41 350.73 806.74 370.15 934.66 304.88 716.27 269.06 646.44 376.03 896.54 199.89 340.44 946.38 115.56 224.83 963.06 263.65 275.93 410.40 255.56 655.04 352.51 390.41 205.87 710.50 358.76 317.71 710.31 245.14 319.32 86.67 137.99 169.49 193.29 237.62 897.34 443.77 187.22 459.84 229.18 201.98 374.76 169.70 343.48 201.67 179.29 893.17 869.99 393.28 324.11 0.00 319.92 685.77 378.25 258.83 204.60 953.85 718.03 60.04 323.60 381.38 101.70 134.76 76.72 156.65 896.46 175.61 560.20 125.12 257.57 377.76 825.45 174.67 305.96 761.19 911.00 297.06 238.59 61.26 815.79 247.19 737.29 191.24 348.38 597.63 332.70 259.09 115.75 229.24 205.60 245.87 834.49 162.95 765.45 224.04 122.64 149.34 444.30 304.91 245.97 784.60 268.99 296.04 316.21 244.49 224.53 190.81 776.53 308.11 206.51 135.86 482.28 203.84 99.04 245.73 207.28 348.90 813.34 154.38 272.07 963.42 33.52 289.84 279.01 92.09 415.40 322.91 222.21 374.83 242.48 239.73 217.87 789.27 196.20 69.65 418.13 190.59 356.10 487.31 155.38 829.19 233.31 441.08 468.51 812.85 754.68 212.51 817.70 233.83 264.95 244.20 805.45 544.59 179.07 230.73 320.51 901.77 219.83 242.59 332.67 968.86 120.17 188.14 289.84 937.30 161.76 225.26 286.26 878.22 800.88 680.99 688.93 168.28 268.84 889.51 296.96 306.62 277.30 115.16 218.30 242.13 244.57 180.32 674.50 241.78
1145.15 547.53 369.08 758.32 90.27 805.24 256.65 279.42 531.47 399.21 873.87 445.03 302.95 287.67 372.66 792.91 259.33 836.78 524.92 976.95 512.18 775.77 504.07 743.74 159.36 850.41 225.96 291.00 964.41 317.54 301.81 821.58 238.40 434.98 598.05 191.47 570.88 372.11 589.97 254.49 752.39 317.77 268.99 807.61 280.93 500.64 282.02 311.30 312.75 168.76 257.72 905.95 267.44 191.95 409.34 280.74 118.03 605.62 320.61 381.14 283.26 219.57 830.71 868.80 555.43 472.18 319.92 0.00 727.43 314.92 384.74 201.72 1022.00 766.24 294.21 316.51 297.35 218.22 272.82 264.54 250.76 916.41 299.01 640.42 334.52 259.11 546.96 877.64 252.18 298.87 697.68 947.21 425.84 182.92 353.98 827.73 295.92 797.24 314.85 487.25 661.01 491.75 447.09 305.98 311.68 447.33 196.80 824.29 336.76 809.34 262.26 389.87 237.19 622.00 448.17 278.97 832.81 305.05 475.78 273.47 235.81 250.60 288.20 714.07 513.13 271.68 298.44 526.17 281.66 280.62 280.76 289.34 322.51 861.55 248.63 313.89 964.01 286.40 485.19 575.92 267.62 581.98 230.05 271.70 540.22 216.71 256.03 409.56 860.37 239.88 366.56 216.21 212.69 547.79 681.51 278.78 813.36 276.84 552.86 431.65 863.44 820.85 261.64 824.85 292.66 459.15 228.66 837.67 224.67 265.96 279.73 274.60 945.66 268.45 286.39 516.14 977.12 417.08 198.39 473.61 963.17 209.93 111.66 423.86 920.51 847.08 766.52 713.15 214.56 156.74 900.42 409.22 282.32 454.30 271.46 261.98 254.98 465.55 265.31 715.68 265.20
488.50 402.12 612.14 83.32 698.99 110.84 834.11 842.04 481.73 687.66 232.77 524.05 660.32 846.13 952.58 100.44 881.52 175.14 505.59 280.27 602.21 83.30 596.58 39.33 699.71 248.98 773.60 559.58 318.21 801.33 846.69 448.25 791.31 546.58 285.31 800.19 253.50 949.22 609.08 825.47 103.39 856.11 536.85 103.20 845.83 535.11 672.39 817.97 649.87 758.31 856.59 218.36 864.73 707.72 1023.54 841.28 726.75 593.43 811.22 940.19 846.36 811.48 229.28 253.21 472.84 516.36 685.77 727.43 0.00 919.56 557.70 749.97 360.49 85.66 715.59 820.81 902.57 754.80 811.55 729.12 793.50 264.09 786.20 307.42 656.70 845.05 559.37 207.05 803.62 803.17 98.44 272.21 583.41 681.13 747.03 184.19 818.39 107.13 835.26 526.13 184.19 521.21 538.44 775.51 871.08 695.41 771.50 230.77 688.76 150.36 661.08 745.85 818.07 475.48 540.37 806.34 146.30 848.11 537.21 828.57 810.47 798.24 812.67 112.64 689.74 838.37 821.63 226.09 830.09 777.97 894.92 855.82 897.29 175.04 786.55 917.03 300.67 686.62 598.66 754.36 766.18 436.80 522.21 830.10 487.52 825.43 829.61 724.86 170.87 840.08 717.88 608.17 804.21 624.19 496.33 806.43 222.91 824.48 405.67 1036.87 180.12 140.27 831.36 224.50 886.91 506.12 823.28 154.35 804.07 836.73 838.62 844.93 432.58 811.51 865.19 533.45 337.26 699.15 791.18 568.36 286.75 756.52 729.55 541.41 223.83 163.76 62.59 64.94 765.06 741.80 203.74 514.12 869.50 518.47 761.75 831.15 828.82 557.78 833.42 11.75 834.15
1269.47 632.05 455.00 930.42 224.65 871.52 301.36 260.17 626.72 453.48 1008.25 571.22 431.88 300.47 212.90 869.72 138.43 952.22 640.07 1069.71 617.25 852.58 581.43 882.73 236.17 1025.03 204.95 440.89 1134.43 354.51 298.64 944.36 128.25 558.90 634.25 188.16 742.98 269.64 687.81 246.40 818.67 116.43 463.62 883.96 241.30 600.90 363.22 345.39 436.97 219.81 265.68 1037.48 392.39 270.40 178.73 236.46 252.41 703.46 371.16 260.61 264.49 266.79 1005.33 989.08 677.21 570.16 378.25 314.92 919.56 0.00 509.44 258.75 1099.24 904.63 350.33 167.48 138.55 317.45 307.47 301.53 290.04 1079.13 307.18 792.95 400.31 196.43 620.72 981.62 297.36 169.37 949.18 1080.72 503.11 317.30 412.31 943.17 237.93 887.59 314.36 621.63 765.37 587.00 531.61 325.26 302.88 538.08 220.50 994.31 471.14 946.07 346.78 463.21 284.41 727.27 546.15 217.23 971.20 211.33 593.71 165.21 146.55 180.31 280.71 888.69 581.86 255.88 352.18 706.13 248.22 319.28 279.73 297.30 75.25 999.94 283.09 246.60 1144.28 344.73 566.39 614.36 332.71 687.92 476.22 202.59 651.14 174.51 178.59 470.45 985.20 231.79 430.16 390.83 256.36 608.68 801.56 326.00 983.38 227.96 710.36 185.73 947.86 930.49 253.55 994.87 277.71 579.20 184.93 973.63 311.15 290.91 211.11 163.00 1125.62 260.01 284.73 615.64 1114.34 464.38 245.61 583.14 1072.31 287.55 255.21 569.23 1013.27 966.55 905.74 884.62 242.09 291.12 1033.36 493.74 222.25 566.85 298.99 233.53 193.24 527.54 271.74 910.79 183.02
972.31 195.29 54.44 634.88 313.63 577.10 357.85 380.82 185.14 347.03 710.12 128.07 207.69 369.29 557.63 491.54 493.92 646.27 208.83 775.08 195.22 474.40 204.97 544.23 432.88 794.33 352.92 200.01 791.57 369.41 369.85 791.68 416.46 118.02 329.96 387.13 483.66 527.30 273.01 384.96 526.70 481.91 222.74 571.13 426.79 182.38 278.46 356.66 110.77 334.23 406.44 728.82 511.06 295.11 599.41 405.47 285.87 287.72 321.14 518.27 366.62 340.94 786.98 697.11 238.47 98.91 258.83 384.74 557.70 509.44 0.00 304.34 726.01 592.03 254.28 433.21 524.92 293.49 328.04 268.51 300.71 770.46 309.36 399.85 186.39 348.28 245.16 656.28 324.42 432.32 620.87 770.67 143.82 240.60 292.89 643.53 411.74 561.03 358.42 192.34 498.12 168.48 116.49 314.20 394.24 312.23 333.73 701.90 251.71 599.44 162.66 327.44 313.76 284.66 105.58 403.37 658.60 429.45 146.36 406.92 406.58 377.56 335.83 670.34 288.49 376.54 354.98 371.32 382.89 316.66 438.55 378.98 473.71 687.34 307.66 445.38 848.34 225.31 217.53 339.56 304.87 255.05 260.96 386.39 209.56 372.81 366.12 244.60 658.64 396.62 274.45 312.68 346.96 253.55 364.55 329.59 691.41 389.95 290.95 606.17 622.52 605.01 374.86 695.41 435.37 142.19 378.73 646.36 568.15 343.49 394.91 419.93 767.64 378.46 395.91 205.42 808.39 265.44 352.56 175.25 746.97 246.31 310.14 106.90 721.30 636.95 578.78 549.66 283.29 355.79 714.20 101.22 435.20 137.34 313.61 410.97 379.38 148.59 365.33 569.45 389.60
1168.40 492.75 310.23 809.79 111.45 796.86 134.27 136.80 446.82 197.49 870.89 402.44 256.39 185.82 300.93 736.37 229.87 802.44 465.87 963.14 426.39 753.51 396.09 766.28 263.46 984.22 108.13 260.13 987.66 142.08 168.54 921.44 159.03 390.71 532.80 130.28 694.02 230.51 506.98 128.31 766.26 204.46 282.86 810.09 158.06 421.00 183.36 139.21 285.72 79.15 165.26 910.40 340.04 42.25 360.27 149.08 83.69 522.63 118.89 221.48 126.37 86.26 950.63 905.65 501.72 368.21 204.60 201.72 749.97 258.75 304.34 0.00 1003.95 783.63 167.94 169.16 239.30 121.27 109.08 139.10 77.36 929.35 151.91 654.37 224.82 116.74 445.23 864.41 53.65 151.52 824.91 941.27 327.62 204.10 201.77 793.39 167.42 812.93 140.91 461.64 697.33 407.10 382.38 130.03 180.70 326.78 97.01 858.07 311.71 809.62 227.92 255.68 89.79 553.96 344.20 136.69 848.04 159.71 391.76 175.38 139.87 88.22 134.52 862.61 428.99 133.40 152.73 593.62 128.54 105.56 178.30 172.93 227.68 876.78 84.08 198.35 1025.90 182.30 357.42 454.66 121.59 534.58 321.08 112.93 471.24 105.36 120.47 294.96 846.16 122.13 267.90 365.54 81.84 433.19 633.37 140.42 850.21 85.61 530.46 373.60 836.12 838.24 137.21 848.10 190.20 411.01 86.29 812.39 426.39 119.52 104.41 185.22 1013.11 142.09 181.32 447.45 964.56 251.05 77.89 426.55 928.83 58.03 92.20 381.27 934.61 807.55 789.06 804.18 66.60 163.19 925.02 344.51 204.49 398.66 94.00 122.77 137.61 359.35 105.02 738.22 132.50
290.08 638.06 780.45 379.71 948.02 285.57 1049.46 1066.83 656.40 977.65 234.79 737.33 860.30 1057.66 1193.15 359.61 1129.60 201.51 661.45 356.54 774.07 373.38 757.67 361.81 917.56 426.56 1034.61 815.22 139.47 1061.94 1038.00 655.84 971.85 752.89 583.19 1024.10 525.17 1188.14 763.17 1065.24 323.61 1100.27 807.01 298.80 1098.30 683.52 958.86 1042.64 836.78 1006.48 1078.75 308.66 1060.33 1021.12 1234.93 1087.75 920.26 747.52 1039.96 1179.11 1054.83 1066.95 460.69 153.20 626.93 766.80 953.85 1022.00 360.49 1099.24 726.01 1003.95 0.00 290.99 980.29 1068.89 1121.22 961.16 1045.86 983.47 1026.72 222.26 1030.45 544.38 828.73 1040.03 744.66 263.48 1050.43 1064.49 458.93 368.80 710.93 953.85 954.00 210.56 1079.89 301.64 1037.63 684.95 476.18 696.12 726.25 1040.21 1062.39 900.65 1017.12 219.57 863.43 510.85 888.67 970.11 1039.77 677.59 753.97 1080.87 272.34 1095.95 721.18 1039.09 952.69 1009.97 1003.98 396.64 820.73 1063.80 1064.79 511.31 1057.00 1039.23 1115.42 1047.13 1129.05 301.08 1033.67 1141.76 428.18 951.32 755.69 912.53 1023.20 569.94 807.43 1057.11 631.98 987.20 1022.19 900.48 296.51 1065.18 926.31 805.79 1064.66 812.73 602.93 1050.68 208.64 1057.62 605.84 1207.92 257.74 297.77 1065.67 220.13 1103.52 737.89 1011.07 264.68 1151.11 1056.81 1065.63 1055.45 91.82 1074.25 1081.50 663.20 269.22 943.77 1052.12 761.27 216.17 972.32 944.53 758.50 314.13 260.19 331.85 425.43 971.95 999.76 294.04 764.12 1121.73 732.34 1028.57 1073.62 1060.07 751.30 1033.48 372.24 1056.86
408.77 463.18 646.47 121.20 727.70 47.07 839.41 857.49 528.84 773.32 157.93 554.86 732.87 908.64 1011.92 147.65 960.14 89.48 533.89 216.63 600.11 138.26 620.73 71.59 704.69 256.41 801.75 592.09 278.40 833.59 896.57 442.42 805.99 544.81 370.97 746.08 308.64 973.63 588.29 870.53 85.96 917.54 569.36 57.43 878.09 508.64 758.05 850.23 702.80 786.16 878.89 184.40 818.96 786.34 1069.07 868.44 699.94 572.64 817.34 967.38 871.69 844.61 263.05 167.55 452.05 571.73 718.03 766.24 85.66 904.63 592.03 783.63 290.99 0.00 747.85 899.43 955.36 722.66 794.54 707.39 826.49 178.43 858.33 354.63 702.05 820.52 573.17 132.53 812.00 881.79 177.06 206.33 605.19 759.75 779.29 98.53 850.65 31.00 883.26 530.11 229.54 519.14 542.11 807.77 915.25 736.50 796.80 145.11 727.84 236.02 666.08 759.10 845.68 502.71 570.76 838.60 66.57 873.09 546.30 873.23 817.49 823.50 867.54 178.85 674.29 875.17 851.18 304.71 865.22 808.23 908.72 910.51 931.46 95.31 819.54 941.85 314.42 718.88 644.32 767.76 792.20 395.06 600.83 826.31 504.42 789.47 828.79 759.70 96.35 867.45 706.11 550.03 846.10 650.48 518.14 862.06 137.25 846.80 395.78 1072.72 121.39 54.61 880.63 138.84 919.17 563.01 790.07 110.22 889.73 857.54 834.83 889.59 352.48 866.47 897.45 549.90 251.60 739.28 831.80 590.27 233.97 785.90 724.21 533.69 160.19 100.81 40.86 142.27 796.47 779.44 180.28 579.98 902.38 564.13 752.49 857.25 837.26 575.38 865.68 90.37 827.04
1149.59 445.04 285.86 771.37 203.94 751.58 149.89 178.71 365.43 137.64 904.09 305.35 153.59 175.80 386.03 745.82 314.07 835.64 404.77 964.48 323.96 728.68 288.14 676.26 360.13 926.36 195.34 312.67 968.85 162.25 211.80 995.39 253.41 295.30 470.44 245.69 715.08 302.29 445.91 145.83 720.68 317.01 289.94 740.13 200.48 360.96 52.44 145.14 229.53 174.49 196.91 921.91 400.84 140.39 416.40 169.14 176.27 430.26 140.91 311.32 177.55 142.63 922.99 891.09 415.75 336.07 60.04 294.21 715.59 350.33 254.28 167.94 980.29 747.85 0.00 281.71 359.26 75.99 105.02 60.82 121.94 926.28 168.81 599.34 162.97 211.85 402.01 855.27 144.86 264.07 743.09 940.82 273.35 222.69 95.17 844.69 203.21 767.11 175.96 370.85 635.48 352.07 319.13 104.28 213.58 226.01 204.17 872.03 158.40 825.49 212.71 120.44 146.51 504.34 312.06 204.08 814.42 229.60 330.66 267.93 258.38 217.77 178.02 806.35 334.77 169.04 161.48 542.32 175.95 62.38 234.57 221.17 326.03 843.16 114.99 263.27 938.69 28.97 249.47 334.51 52.70 472.74 318.36 182.82 389.85 226.58 203.07 215.67 819.09 160.44 125.15 413.58 151.20 353.90 541.83 159.96 875.90 188.53 475.43 408.47 842.67 789.06 155.93 864.41 234.49 319.47 227.56 835.27 518.88 151.54 191.34 263.93 953.99 159.79 225.58 382.61 997.76 160.61 152.71 314.09 967.12 118.83 199.55 284.18 908.04 835.26 710.81 748.97 108.24 208.80 919.33 355.50 246.58 314.62 105.92 171.84 204.52 304.61 175.77 704.32 202.39
1285.81 628.23 460.41 880.63 227.75 908.15 181.34 157.60 587.85 366.65 1011.35 540.00 386.41 216.31 147.52 873.22 60.71 959.06 572.52 993.42 579.92 856.08 544.10 837.12 339.78 984.72 156.38 375.73 1134.20 236.89 175.57 942.52 110.28 517.47 616.28 159.37 712.63 163.69 631.18 141.83 881.86 51.05 398.46 900.99 108.93 579.69 305.65 235.99 426.97 220.45 155.90 912.77 414.91 211.41 226.87 112.57 240.31 646.83 251.91 154.66 143.40 172.62 1008.49 1048.16 650.40 507.45 323.60 316.51 820.81 167.48 433.21 169.16 1068.89 899.43 281.71 0.00 105.90 270.83 225.20 261.39 201.24 1054.00 205.31 791.71 384.61 84.93 611.00 1001.58 205.23 17.64 895.75 980.57 496.78 320.40 314.79 950.01 117.70 920.21 182.03 600.88 815.65 574.24 520.35 226.59 190.86 462.27 161.59 1014.69 422.90 891.42 384.54 379.35 187.80 693.20 513.36 77.63 943.61 78.96 554.90 43.04 116.20 132.49 190.66 925.29 512.31 154.73 229.64 688.16 146.45 243.46 145.83 176.44 92.23 972.35 201.53 118.26 1061.53 304.59 508.82 524.31 231.51 668.23 436.68 101.39 601.99 119.86 102.77 441.60 968.18 128.68 366.01 427.43 183.08 579.83 712.72 225.54 1006.83 133.00 674.48 240.20 967.82 938.15 146.26 1004.72 133.93 551.86 115.38 942.05 382.97 163.77 109.91 50.08 1072.46 127.87 163.71 581.29 1121.18 384.25 170.14 556.61 1047.25 212.90 216.04 527.23 936.98 951.46 859.90 882.15 235.76 275.81 927.39 513.67 102.28 540.68 216.29 117.79 82.75 528.51 164.75 809.06 92.97
1364.13 701.95 546.86 952.40 297.50 965.71 238.01 234.41 655.06 426.12 1081.10 593.81 464.63 266.18 135.17 956.97 45.19 1035.23 627.43 1099.32 634.83 939.83 599.01 918.88 374.72 1063.03 212.31 454.04 1202.23 287.52 261.67 973.61 149.37 607.19 655.37 209.28 764.96 175.71 702.45 223.09 955.81 82.14 476.77 978.94 190.69 639.69 397.05 265.09 504.38 300.48 228.26 1018.67 496.21 278.19 120.97 194.33 316.48 686.80 321.01 184.74 222.41 254.38 1047.58 1122.91 697.84 607.51 381.38 297.35 902.57 138.55 524.92 239.30 1121.22 955.36 359.26 105.90 0.00 352.59 282.88 350.92 283.68 1133.79 257.03 855.80 464.12 176.64 679.19 1078.22 283.08 99.40 977.51 1086.47 566.07 390.15 381.52 1026.18 199.46 981.78 263.79 659.31 862.09 643.78 602.11 292.48 237.28 526.80 241.62 1079.46 477.29 974.60 460.71 443.88 269.56 757.10 583.50 159.39 1021.93 160.72 606.79 121.35 168.53 208.10 230.56 977.62 597.87 226.10 287.24 727.25 224.58 296.88 221.26 234.90 63.30 1050.67 285.28 188.56 1167.43 347.86 588.47 570.09 312.91 738.68 514.99 183.15 656.90 203.04 194.48 477.91 1049.94 210.44 444.04 479.76 260.74 616.14 794.48 263.12 1074.16 203.45 731.89 134.30 1044.46 1009.97 212.99 1062.67 215.69 585.32 200.94 1018.69 449.70 248.58 191.67 104.99 1142.72 211.62 199.59 636.20 1197.35 461.73 251.90 624.20 1153.15 294.66 292.68 604.75 1042.88 1028.10 941.66 945.86 305.90 321.48 1033.29 583.81 155.51 574.31 321.99 199.55 164.51 598.65 201.06 890.82 174.73
1126.66 456.75 279.70 785.50 127.95 675.59 154.71 196.42 394.03 189.90 828.10 304.34 139.32 236.72 393.02 753.72 323.16 759.65 405.36 905.71 382.42 758.48 346.60 715.47 284.83 928.40 169.85 329.62 945.92 194.15 215.62 939.80 230.83 304.45 512.10 204.06 702.78 313.53 407.26 192.14 706.18 306.13 306.89 688.82 185.82 359.95 104.76 171.72 236.24 141.61 217.82 869.95 345.25 112.04 422.61 217.16 100.28 422.91 156.27 304.50 206.67 150.35 927.52 858.94 414.74 369.96 101.70 218.22 754.80 317.45 293.49 121.27 961.16 722.66 75.99 270.83 352.59 0.00 122.53 46.32 111.47 864.57 186.32 546.74 170.89 204.48 340.17 795.75 118.79 253.19 819.08 889.51 325.58 208.19 135.76 768.70 211.69 691.66 204.75 369.84 643.40 354.31 349.39 129.26 203.11 265.22 150.66 814.43 197.61 866.30 171.48 196.43 136.04 472.82 351.85 220.49 789.23 215.79 337.09 263.12 211.67 154.39 194.26 810.88 373.98 187.30 190.11 583.98 196.76 109.03 244.06 225.45 302.83 817.97 104.52 264.67 908.68 68.18 307.93 366.56 93.00 458.73 357.57 207.31 403.35 188.42 186.64 269.12 789.27 198.67 157.20 396.90 159.79 407.35 544.63 186.67 803.50 202.04 422.83 454.16 791.36 734.56 185.62 809.01 232.16 322.27 196.09 787.65 442.89 161.37 213.43 255.32 932.57 178.18 233.08 361.19 921.77 207.72 154.76 335.57 903.88 63.24 123.56 314.78 853.22 780.76 712.85 734.70 75.36 179.78 867.00 318.44 233.02 312.40 71.54 216.80 210.59 273.09 191.66 743.53 210.08
1138.51 451.70 277.84 751.80 198.20 798.12 44.87 100.52 448.66 212.26 950.63 374.70 228.31 119.12 308.10 772.03 277.64 882.18 467.21 989.71 410.64 789.17 374.82 777.64 354.99 926.23 150.86 369.21 1038.20 93.07 107.02 984.38 196.86 352.17 545.16 155.70 665.46 256.50 494.89 112.27 747.01 260.50 350.36 811.35 146.64 422.84 140.35 70.64 221.51 140.16 143.80 934.03 401.38 105.19 345.19 149.54 170.44 492.81 77.19 247.47 96.83 53.25 932.51 917.42 485.10 380.94 134.76 272.82 811.55 307.47 328.04 109.08 1045.86 794.54 105.02 225.20 282.88 122.53 0.00 87.15 31.95 963.42 63.79 656.21 232.13 152.99 427.80 888.19 55.43 207.56 848.11 940.69 334.93 214.53 156.36 880.14 148.69 813.99 106.65 440.20 704.64 408.94 389.69 58.43 123.59 272.56 153.05 922.65 259.78 794.76 214.95 203.52 51.14 544.04 356.93 148.24 861.11 163.90 393.10 197.57 180.92 127.78 73.00 815.87 387.08 107.78 92.79 617.04 105.34 42.64 169.79 116.15 263.93 889.85 25.00 182.76 982.89 130.35 343.52 382.37 58.67 519.82 373.45 124.48 473.08 146.41 160.03 295.34 861.96 117.66 187.70 438.31 66.98 423.23 599.98 67.52 911.72 122.06 532.30 374.91 876.20 831.93 106.10 923.21 171.51 377.62 122.54 866.83 484.08 63.00 133.00 202.89 985.16 98.34 123.24 440.99 1044.30 238.22 74.43 376.51 971.11 119.37 194.71 363.29 939.50 876.24 753.68 810.59 73.91 210.33 919.41 351.82 190.91 385.05 50.99 138.28 142.45 379.33 81.82 801.16 132.23
1110.66 459.27 292.92 783.25 174.27 712.71 132.02 150.10 379.66 164.92 865.22 308.40 170.27 206.27 375.13 729.30 322.10 796.77 395.67 910.90 348.32 712.16 312.50 690.49 299.31 882.08 145.20 330.89 971.90 164.09 189.18 961.60 219.43 330.93 480.91 200.87 705.03 329.39 453.34 182.98 659.86 304.07 308.16 725.15 212.69 344.84 70.66 157.79 236.59 161.09 171.50 878.67 367.05 110.50 418.05 196.24 146.60 444.49 109.95 329.43 164.30 137.22 913.61 830.27 418.80 336.57 76.72 264.54 729.12 301.53 268.51 139.10 983.47 707.39 60.82 261.39 350.92 46.32 87.15 0.00 119.10 885.82 150.94 590.24 182.22 208.48 386.49 808.90 104.61 279.03 803.91 913.72 317.78 161.87 110.78 805.82 185.25 726.84 183.96 373.90 654.73 358.37 335.81 128.13 210.74 240.24 169.15 835.50 172.63 835.96 217.80 178.51 138.29 501.89 330.28 230.07 773.96 233.57 321.56 266.74 200.27 169.84 160.15 804.52 349.00 174.61 143.79 552.79 162.05 100.84 214.85 203.12 287.62 802.70 112.15 247.98 951.58 43.20 273.83 348.74 84.81 458.42 320.79 206.87 404.08 165.76 201.21 245.43 774.81 197.59 139.38 427.81 145.61 383.54 512.83 154.67 824.57 196.08 469.15 440.94 789.05 744.78 179.35 836.06 226.75 290.47 178.03 790.99 489.21 150.15 198.35 262.10 943.34 180.63 200.17 371.96 958.89 189.90 158.40 332.31 913.50 85.04 162.79 325.76 854.46 790.98 666.53 763.68 102.00 226.10 874.55 364.76 244.79 302.82 45.10 190.36 226.04 319.41 168.97 717.37 219.01
1170.46 433.65 309.79 783.75 188.81 787.06 57.14 100.34 452.57 194.21 939.57 406.65 218.11 125.25 304.25 769.44 261.95 871.12 493.10 982.21 423.11 775.11 406.77 770.42 340.82 958.18 127.07 337.49 1029.60 107.70 116.81 985.80 183.84 384.12 567.05 137.65 659.54 234.82 508.91 84.25 778.96 237.22 360.22 800.29 126.08 451.39 172.30 85.59 253.46 127.74 120.03 949.98 391.25 119.61 349.18 121.52 161.05 493.26 109.14 243.85 95.77 40.23 954.34 949.37 476.50 399.62 156.65 250.76 793.50 290.04 300.71 77.36 1026.72 826.49 121.94 201.24 283.68 111.47 31.95 119.10 0.00 976.04 89.47 646.57 249.68 148.60 448.08 907.22 23.71 184.28 865.03 972.64 366.88 202.60 124.41 870.75 128.19 803.13 105.01 472.15 722.19 437.49 410.27 67.49 105.54 292.84 129.08 906.53 245.54 792.17 246.90 206.93 27.35 545.98 388.88 135.22 893.06 151.04 425.05 179.52 167.01 109.73 82.79 847.82 390.44 75.83 107.74 609.68 93.18 62.92 137.84 125.94 240.98 921.80 6.95 158.97 989.53 123.13 371.41 404.13 69.24 501.77 361.52 111.46 476.99 143.76 135.11 296.39 893.91 95.91 211.49 406.59 64.39 434.62 614.42 77.98 914.97 109.04 531.81 346.89 902.83 846.03 74.15 920.48 149.74 409.57 145.12 889.75 466.03 57.08 119.98 182.15 994.95 77.75 135.51 472.66 1033.24 216.68 52.37 404.92 1003.06 109.24 169.56 395.24 925.77 884.91 785.63 813.49 105.86 240.55 939.69 383.77 183.93 417.00 82.94 110.26 119.17 384.56 94.09 798.48 129.39
282.23 641.61 804.83 278.15 873.42 225.50 1008.29 1022.89 693.24 951.75 96.51 714.02 897.84 1082.54 1190.35 287.95 1114.71 145.01 702.39 194.18 778.54 305.09 775.55 250.02 842.96 306.52 980.18 757.29 101.49 1012.02 1068.79 620.85 984.42 702.23 503.69 924.51 456.85 1152.06 766.72 1022.71 264.39 1095.97 747.79 224.02 1050.39 687.07 936.48 1024.45 831.96 931.88 1057.32 169.88 985.55 946.85 1205.77 1034.25 845.66 751.07 995.77 1145.81 1027.21 997.30 338.39 155.31 630.48 707.72 896.46 916.41 264.09 1079.13 770.46 929.35 222.26 178.43 926.28 1054.00 1133.79 864.57 963.42 885.82 976.04 0.00 1027.21 433.16 873.03 998.95 715.90 160.64 983.00 1060.22 355.49 196.64 752.20 855.26 957.72 135.96 1029.08 209.43 1061.69 704.39 407.97 673.96 687.77 986.20 1065.60 891.32 942.52 92.12 852.17 412.40 832.67 937.53 1000.61 681.14 731.73 1017.03 178.81 1051.52 701.84 1051.66 994.08 996.50 1036.42 291.05 839.61 1028.29 1029.61 483.14 1010.94 973.60 1087.15 1079.57 1109.89 178.75 969.09 1120.28 312.84 897.31 783.70 924.80 957.57 573.49 696.34 1004.74 682.85 967.90 1007.22 892.94 167.36 1023.03 884.54 700.20 991.82 811.77 684.73 1030.94 103.05 1008.31 557.07 1237.32 183.14 192.18 1030.96 108.91 1096.73 696.09 968.50 171.29 1062.31 1018.64 1013.26 1068.02 314.08 1029.52 1075.88 717.24 99.76 913.01 977.52 745.09 58.84 927.81 869.93 712.12 194.09 180.70 219.29 320.70 889.51 925.16 178.70 725.64 1080.81 708.44 930.92 1035.68 1015.69 699.71 1034.37 268.80 1005.47
1202.30 495.10 303.68 815.59 222.54 861.91 51.85 83.18 443.72 193.38 1006.14 401.95 260.93 59.93 260.63 800.90 238.16 945.97 468.60 1028.36 414.89 783.76 413.18 802.51 398.47 990.02 161.84 412.04 1023.33 60.05 60.49 1040.92 212.57 415.96 586.01 202.31 652.99 217.94 525.05 98.26 810.80 240.61 414.15 866.38 120.79 457.56 187.17 59.08 247.35 174.27 101.24 996.13 442.76 168.98 335.49 124.26 232.48 540.70 81.27 208.91 77.32 96.92 996.30 981.21 470.23 406.78 175.61 299.01 786.20 307.18 309.36 151.91 1030.45 858.33 168.81 205.31 257.03 186.32 63.79 150.94 89.47 1027.21 0.00 672.02 272.99 151.03 491.59 951.98 98.26 187.67 861.14 1004.48 382.93 277.15 167.99 942.18 102.38 870.39 49.06 453.32 745.50 445.67 420.74 82.42 84.88 336.35 177.80 968.47 236.69 829.18 278.74 251.57 62.12 569.88 382.77 143.09 909.00 150.76 430.33 187.19 204.66 147.38 26.47 879.66 408.92 78.26 53.20 657.89 79.49 106.43 137.91 69.62 246.16 937.74 88.79 164.25 1046.68 171.31 390.34 446.16 122.46 527.22 436.07 129.24 468.14 178.55 166.58 299.42 925.75 100.57 245.26 479.17 101.98 437.65 642.24 20.23 957.54 137.68 563.12 360.90 931.88 868.41 88.16 969.03 126.01 419.88 158.32 917.05 499.76 50.53 120.72 170.83 938.63 96.74 86.55 424.43 1108.09 204.70 100.62 440.30 1024.69 183.16 244.11 410.29 971.92 914.61 817.47 841.55 137.70 274.12 982.53 406.88 164.27 421.45 114.78 122.67 124.35 389.15 55.97 774.45 124.16
644.55 212.92 413.78 375.50 568.30 307.56 650.23 705.88 277.99 573.96 396.62 297.24 471.44 703.39 909.41 206.98 825.03 368.02 269.23 498.27 349.85 224.12 346.42 293.95 665.88 544.05 706.03 430.51 463.81 654.52 718.70 608.45 706.43 304.04 222.21 669.50 298.33 846.11 338.03 682.65 276.42 831.35 407.78 320.79 732.56 258.38 568.39 653.78 445.59 646.79 733.73 417.62 741.56 645.78 944.81 719.92 596.06 322.38 651.10 851.24 702.19 685.45 536.48 391.18 201.79 316.13 560.20 640.42 307.42 792.95 399.85 654.37 544.38 354.63 599.34 791.71 855.80 546.74 656.21 590.24 646.57 433.16 672.02 0.00 439.87 706.78 322.91 392.39 654.54 778.41 370.59 475.99 353.21 475.65 565.14 358.97 735.32 323.63 715.35 279.85 166.43 247.27 301.11 658.04 735.70 464.63 671.25 341.04 464.41 433.50 485.94 554.16 671.14 252.45 310.17 739.59 377.46 744.00 268.68 755.35 715.88 701.13 695.71 419.84 424.03 705.86 674.82 150.33 710.70 621.84 770.44 718.31 828.76 406.20 639.62 796.78 566.38 593.72 381.35 504.88 634.34 144.80 410.37 715.83 253.57 694.74 688.94 501.83 367.25 697.26 501.17 520.01 693.20 378.61 280.01 651.79 335.74 680.03 123.91 945.29 358.63 332.66 692.75 324.25 758.54 299.77 708.73 332.86 798.65 667.95 707.31 771.71 569.82 696.61 710.27 294.57 530.14 520.75 689.86 318.40 483.08 609.98 591.73 315.16 441.83 342.27 328.50 285.68 598.09 548.74 432.24 338.98 779.76 301.16 605.22 708.66 733.01 335.40 687.18 303.93 731.58
1049.38 334.13 131.95 736.42 253.42 664.67 246.21 275.66 254.52 163.88 815.63 205.14 31.57 304.01 482.98 616.29 440.22 747.18 295.05 885.10 294.76 599.15 276.75 665.67 399.56 862.26 281.44 303.26 868.64 233.21 308.75 869.19 317.72 195.32 378.69 323.68 561.17 413.20 350.08 242.78 651.45 405.13 280.53 677.90 311.39 228.70 163.04 213.91 128.49 224.47 293.86 849.34 482.68 215.56 513.35 280.05 247.13 348.23 211.23 422.23 274.50 274.47 842.56 819.72 315.54 239.54 125.12 334.52 656.70 400.31 186.39 224.82 828.73 702.05 162.97 384.61 464.12 170.89 232.13 182.22 249.68 873.03 272.99 439.87 0.00 308.80 310.35 775.14 273.39 368.43 704.25 878.59 172.49 207.28 125.27 755.74 301.15 671.05 285.60 270.64 472.51 214.80 241.64 240.87 300.78 175.95 276.04 780.91 100.26 733.74 145.12 182.05 257.81 405.39 215.53 308.95 768.62 330.03 236.25 366.00 325.78 300.50 281.08 725.92 268.14 265.99 236.06 450.57 272.90 210.50 337.21 278.44 422.98 797.36 256.63 370.34 940.79 158.64 287.91 320.45 194.47 331.43 352.58 287.00 278.94 291.27 323.40 161.37 751.21 257.39 133.07 415.93 266.40 299.60 445.43 252.76 775.61 285.48 315.96 505.42 780.44 715.03 252.88 764.12 334.83 223.07 311.11 767.04 559.19 228.08 291.21 360.88 833.48 256.74 293.13 262.10 909.30 116.68 280.70 262.26 839.92 200.67 222.86 206.44 842.30 761.23 671.26 591.76 158.22 287.42 846.39 244.97 343.53 224.64 215.12 268.79 303.32 224.98 275.60 664.85 306.16
1229.29 543.57 375.48 871.21 175.64 867.59 133.42 97.28 522.31 294.25 958.92 472.59 310.60 155.26 209.35 803.20 145.64 890.47 557.11 1027.57 513.82 808.19 494.58 822.10 274.24 962.28 71.45 312.27 1065.61 195.85 115.53 1016.52 68.18 462.54 574.18 74.44 683.77 184.55 548.83 66.02 818.40 133.63 335.00 877.95 82.06 528.20 252.74 180.91 366.42 138.10 117.10 985.72 351.63 137.33 251.13 57.19 171.72 564.13 205.05 193.58 97.74 109.34 966.39 982.62 582.99 447.19 257.57 259.11 845.05 196.43 348.28 116.74 1040.03 820.52 211.85 84.93 176.64 204.48 152.99 208.48 148.60 998.95 151.03 706.78 308.80 0.00 543.69 932.99 139.15 84.04 834.63 1016.59 444.36 263.53 244.65 881.42 91.26 851.52 135.54 538.09 752.19 516.76 451.21 164.51 132.10 388.45 79.24 946.10 347.96 825.88 315.95 316.07 124.52 632.94 453.86 55.09 887.09 81.17 494.64 58.64 87.34 50.09 132.59 896.43 427.38 72.77 203.06 645.76 90.12 158.53 114.54 129.22 125.43 915.83 152.87 146.65 1080.76 237.82 455.91 472.66 168.23 583.61 373.22 38.11 546.73 54.32 17.84 384.73 907.85 77.03 327.22 398.57 98.15 522.96 663.98 164.78 938.24 48.38 618.87 257.89 899.23 875.13 76.12 936.13 120.67 486.71 30.45 873.46 400.81 125.74 46.63 71.65 1044.75 79.98 136.84 523.63 1052.59 303.63 112.45 500.53 1016.86 166.66 147.45 451.42 980.71 882.87 856.65 856.32 183.34 201.75 990.91 449.50 91.33 481.86 163.38 69.05 31.10 476.09 107.88 833.30 41.32
871.61 183.72 262.06 619.19 456.69 562.72 472.67 514.40 104.11 347.72 701.34 125.21 341.92 534.34 710.31 529.89 636.85 646.78 97.38 789.80 118.82 547.03 118.38 575.68 592.84 790.99 501.85 399.39 690.87 485.03 534.82 786.92 565.35 140.70 287.02 539.88 510.03 653.70 67.09 523.66 585.62 625.54 388.48 575.95 525.99 109.45 349.57 467.92 293.87 444.88 548.93 726.20 685.42 435.97 762.78 557.33 440.45 82.74 463.69 644.67 524.63 465.41 774.02 608.79 137.77 153.14 377.76 546.96 559.37 620.72 245.16 445.23 744.66 573.17 402.01 611.00 679.19 340.17 427.80 386.49 448.08 715.90 491.59 322.91 310.35 543.69 0.00 656.46 458.96 593.36 561.87 763.46 199.62 400.56 395.19 653.79 551.86 578.79 498.74 59.71 442.42 95.55 194.24 427.06 541.11 291.94 490.83 623.78 294.87 616.45 330.28 346.39 475.43 161.49 158.45 555.07 639.74 555.96 128.39 602.33 546.19 494.56 500.80 657.38 215.29 522.46 484.26 333.28 526.35 385.16 563.93 543.95 615.89 666.18 444.69 594.21 836.54 402.72 157.05 208.90 401.19 178.11 410.49 531.31 112.68 511.68 525.85 279.50 651.02 529.82 308.11 484.08 494.78 141.27 221.77 482.74 634.71 530.84 214.01 786.30 622.70 583.54 522.23 640.57 572.33 120.17 531.52 639.15 735.97 480.76 534.91 595.49 659.98 518.35 551.04 88.60 808.90 329.01 486.59 87.92 737.97 403.41 463.73 138.26 733.36 629.74 595.86 551.89 378.63 496.60 714.38 197.42 573.19 107.82 411.71 531.34 550.76 147.13 509.62 547.62 550.25
396.07 567.03 710.72 136.39 808.48 120.16 933.06 936.63 631.95 833.08 64.13 592.56 806.71 992.99 1122.79 220.74 1052.01 61.97 612.03 162.06 665.31 215.25 653.41 179.01 778.02 221.02 899.84 669.08 215.33 941.01 966.77 471.32 928.85 590.07 479.24 878.61 323.83 1036.22 689.36 903.75 162.95 1036.88 646.35 128.97 934.41 606.13 856.42 957.65 767.05 863.78 954.83 123.55 890.50 891.27 1160.35 903.07 780.72 682.35 918.85 1045.25 932.52 932.36 223.94 119.72 561.76 648.72 825.45 877.64 207.05 981.62 656.28 864.41 263.48 132.53 855.27 1001.58 1078.22 795.75 888.19 808.90 907.22 160.64 951.98 392.39 775.14 932.99 656.46 0.00 913.51 983.94 257.54 191.19 657.75 838.35 863.93 71.02 937.14 104.09 978.04 596.75 302.63 592.23 599.25 915.19 978.43 798.21 877.58 75.21 764.83 289.81 737.62 850.16 931.79 579.04 638.26 938.01 65.96 964.38 605.54 991.63 909.69 924.48 961.19 199.97 744.33 924.01 952.69 407.36 930.92 904.78 968.50 980.46 1043.93 56.20 900.27 997.20 245.64 826.30 653.25 817.19 888.75 504.77 679.43 937.51 613.81 922.00 950.83 805.60 36.18 889.14 797.17 661.43 925.79 717.39 578.28 955.71 64.28 926.25 468.87 1164.92 33.76 103.66 910.90 75.77 968.42 585.41 902.54 59.53 1011.12 926.29 928.99 1004.64 312.29 917.71 983.50 567.86 210.10 787.02 912.58 622.95 119.46 858.99 785.54 601.19 115.83 62.33 144.46 252.92 871.11 860.22 111.50 637.12 994.70 573.06 854.00 911.24 935.07 612.37 933.74 195.30 937.91
1147.03 457.13 333.27 807.23 165.10 794.38 80.62 104.26 457.18 217.69 924.54 383.22 241.82 138.37 308.29 746.05 255.47 856.09 475.73 958.50 407.59 763.19 390.71 794.13 317.11 977.50 125.64 313.78 1039.24 107.99 122.51 975.09 176.22 360.69 582.03 158.77 668.33 238.74 526.05 102.25 764.47 240.53 336.51 807.61 146.61 431.36 148.87 85.56 276.94 130.12 128.82 926.27 385.60 95.90 352.52 136.14 137.34 516.74 132.62 247.77 106.46 32.61 930.63 934.88 493.62 421.86 174.67 252.18 803.62 297.36 324.42 53.65 1050.43 812.00 144.86 205.23 283.08 118.79 55.43 104.61 23.71 983.00 98.26 654.54 273.39 139.15 458.96 913.51 0.00 187.59 878.56 994.07 377.43 178.89 148.12 847.04 139.12 810.45 112.54 448.72 745.90 417.46 432.19 91.20 127.05 273.13 105.37 911.72 269.25 768.78 270.38 227.69 36.14 569.46 397.85 127.60 878.57 150.62 401.62 164.72 173.71 117.05 103.32 871.30 387.65 79.75 107.71 633.16 96.52 82.48 161.55 136.20 238.44 907.31 30.43 167.76 991.41 146.84 352.04 419.95 92.72 525.25 337.81 103.84 481.60 151.08 149.30 313.70 879.42 97.02 233.41 382.88 41.00 423.80 617.44 86.77 903.86 97.21 540.82 358.04 889.77 849.39 92.86 901.75 173.45 395.08 132.67 866.04 473.35 65.87 112.36 181.08 1015.48 88.44 147.61 460.68 1018.21 197.40 53.79 410.52 982.48 103.59 145.85 371.81 902.06 861.20 771.14 820.91 116.41 216.84 922.15 394.32 193.78 393.57 59.51 119.12 133.63 391.88 107.19 791.87 123.41
1268.17 612.58 447.46 862.99 210.11 890.51 165.69 139.96 594.37 349.01 993.71 532.22 370.23 202.62 149.41 857.57 78.35 941.42 564.20 1011.06 571.60 840.43 535.78 819.48 334.20 967.08 145.95 358.09 1116.56 230.40 172.17 944.41 92.64 522.17 598.64 147.91 708.23 146.05 613.54 125.65 864.22 52.94 380.82 883.35 91.29 562.05 297.65 220.34 409.33 202.81 138.26 930.41 397.27 193.77 220.37 94.93 222.67 629.19 234.27 137.02 125.76 154.98 990.85 1034.63 642.62 519.73 305.96 298.87 803.17 169.37 432.32 151.52 1064.49 881.79 264.07 17.64 99.40 253.19 207.56 279.03 184.28 1060.22 187.67 778.41 368.43 84.04 593.36 983.94 187.59 0.00 878.11 998.21 479.14 302.76 297.15 932.37 100.06 902.57 164.39 594.65 798.01 558.62 502.71 208.95 173.22 446.62 143.95 997.05 405.26 894.58 366.90 361.71 170.16 693.87 495.72 59.99 925.97 61.32 543.28 25.40 111.80 121.31 173.02 915.81 500.85 139.08 240.87 670.52 130.80 229.90 128.19 158.80 94.12 954.71 185.88 133.89 1079.17 293.04 500.82 506.67 213.87 650.59 419.04 83.75 593.67 126.38 101.88 423.96 950.54 111.04 348.37 423.03 166.80 562.19 695.08 207.90 989.19 115.36 656.84 233.70 950.18 920.51 128.62 987.08 116.29 544.71 103.92 924.41 367.57 170.16 92.27 41.76 1054.82 112.22 146.07 572.97 1103.54 384.99 152.50 559.30 1064.89 195.26 198.40 511.05 954.62 933.82 842.26 864.51 218.12 258.17 945.03 496.03 106.10 532.36 233.93 100.15 65.11 510.87 147.11 791.42 75.33
563.44 451.88 603.74 121.15 787.95 185.78 892.98 886.87 517.54 786.10 321.67 551.15 714.14 918.89 1027.52 163.61 956.46 266.54 522.59 338.52 588.81 146.47 612.74 114.75 713.01 277.41 848.54 634.52 416.65 876.75 921.63 446.87 878.91 566.91 372.91 848.17 278.19 992.83 576.99 888.64 178.81 931.05 611.79 178.62 901.62 497.34 770.83 888.23 660.07 833.25 932.01 306.29 880.18 782.66 1085.76 888.40 815.71 561.34 884.00 1001.86 901.07 885.72 274.74 344.51 440.75 580.62 761.19 697.68 98.44 949.18 620.87 824.91 458.93 177.06 743.09 895.75 977.51 819.08 848.11 803.91 865.03 355.49 861.14 370.59 704.25 834.63 561.87 257.54 878.56 878.11 0.00 310.04 547.20 704.01 807.84 275.59 893.81 197.84 910.20 518.81 238.01 511.24 540.07 847.37 946.02 728.60 846.44 308.46 724.57 134.79 711.96 793.12 889.60 491.41 574.14 870.03 221.24 893.05 535.00 893.27 862.56 845.88 887.61 158.10 662.99 901.54 897.05 301.03 893.26 805.47 928.68 930.76 945.57 249.98 858.08 961.81 375.61 762.04 644.25 756.46 795.79 383.76 597.15 846.27 493.12 828.05 852.47 760.95 244.19 894.64 740.13 558.35 862.57 647.14 565.06 881.37 304.91 878.63 419.66 1092.52 239.49 215.78 894.53 302.90 940.58 551.71 804.18 229.29 902.51 880.65 854.79 906.28 507.52 874.68 940.61 538.60 421.15 777.91 866.12 582.37 340.46 831.46 809.34 572.32 282.08 238.70 137.53 118.76 808.22 814.12 302.17 577.94 925.96 564.06 849.01 877.21 855.50 594.83 908.84 86.69 865.72
419.81 644.00 792.57 188.89 899.59 213.92 985.56 1041.21 698.66 957.55 134.01 699.31 885.58 1054.72 1128.09 287.61 1041.28 171.19 707.95 49.53 789.78 296.27 771.84 264.56 887.24 180.68 983.44 753.57 298.13 1026.56 1047.71 493.22 991.92 721.84 546.68 952.41 376.33 1144.26 783.12 1038.44 262.05 1031.62 745.45 200.69 1058.88 688.69 937.27 1011.33 839.99 935.17 1059.59 67.80 962.22 951.86 1207.44 1027.54 871.83 776.11 1017.88 1135.23 1037.52 993.94 227.55 256.36 655.52 736.09 911.00 947.21 272.21 1080.72 770.67 941.27 368.80 206.33 940.82 980.57 1086.47 889.51 940.69 913.72 972.64 196.64 1004.48 475.99 878.59 1016.59 763.46 191.19 994.07 998.21 310.04 0.00 748.65 890.53 961.37 180.24 1043.62 223.90 1042.86 725.28 422.44 682.05 675.51 998.36 1064.28 899.41 968.69 222.30 846.78 337.13 802.91 946.13 991.83 687.74 737.40 1031.57 163.85 1059.53 712.47 1023.61 972.76 1008.08 1013.69 252.96 854.34 1031.76 1033.48 474.80 1037.11 956.46 1092.13 1056.84 1072.80 135.11 965.69 1098.83 157.66 911.85 773.92 877.90 972.49 598.53 770.92 1032.18 707.89 995.80 1034.43 919.58 160.65 1037.91 893.14 750.82 992.66 817.33 644.53 1008.21 216.24 1026.88 562.63 1208.68 162.29 179.92 1034.92 206.38 1092.89 681.38 986.14 143.13 1076.28 978.79 1040.70 1030.65 448.93 1024.48 1061.70 696.39 262.27 911.49 1003.69 743.62 166.63 903.06 869.14 716.67 92.01 133.72 247.19 318.85 948.52 862.20 79.69 713.38 1082.85 693.73 958.82 1058.98 1037.46 726.63 1022.51 260.46 1033.37
907.94 191.59 113.21 653.29 335.57 578.01 379.80 435.45 126.52 318.48 678.26 87.06 204.06 442.86 598.60 524.01 557.49 662.07 157.32 780.33 159.82 506.87 132.21 576.70 435.20 820.00 384.24 280.88 727.20 387.39 441.95 847.52 447.74 67.68 298.10 426.48 487.02 536.46 223.42 411.97 529.29 507.93 258.15 591.24 473.83 119.84 302.66 386.40 135.58 327.27 463.05 711.39 588.49 318.36 665.85 442.49 357.55 239.07 383.72 545.49 431.76 388.18 811.14 684.04 174.10 67.05 297.06 425.84 583.41 503.11 143.82 327.62 710.93 605.19 273.35 496.78 566.07 325.58 334.93 317.78 366.88 752.20 382.93 353.21 172.49 444.36 199.62 657.75 377.43 479.14 547.20 748.65 0.00 242.92 297.76 669.08 458.07 574.19 431.99 151.22 497.59 105.94 73.14 377.63 443.97 260.31 382.14 660.08 204.26 650.79 221.43 302.09 386.07 252.22 43.04 453.89 644.30 480.19 90.60 495.05 428.58 403.30 407.93 694.50 192.39 435.18 407.69 367.62 440.27 335.73 420.49 450.93 533.25 673.04 359.93 453.62 846.58 302.32 136.48 277.02 326.05 229.45 326.16 433.41 150.94 394.07 433.39 213.75 628.75 426.58 255.81 393.55 401.91 164.09 326.51 402.45 649.15 409.18 229.30 674.61 638.74 568.73 422.07 660.64 432.39 104.15 413.91 624.34 564.72 390.15 424.89 498.56 693.71 425.93 458.17 122.33 824.19 265.79 401.82 124.49 753.26 306.48 358.45 71.50 723.89 614.93 611.25 582.13 261.02 297.42 726.01 111.01 468.98 91.80 317.92 413.73 455.01 52.49 416.75 581.96 444.79
1097.08 377.58 186.16 740.95 92.65 742.24 259.40 241.84 367.87 228.66 852.30 312.24 226.75 317.26 452.17 682.63 373.86 801.53 386.92 903.38 390.64 699.77 363.42 697.44 192.28 798.61 230.38 219.87 916.34 279.78 289.69 923.19 240.78 310.60 504.73 193.85 615.38 410.81 445.63 256.87 714.37 355.70 230.97 755.47 283.31 342.05 208.43 264.45 129.83 171.14 266.78 822.73 359.45 194.33 496.03 292.94 120.41 461.28 271.82 401.99 256.04 211.50 751.74 829.51 416.27 289.26 238.59 182.92 681.13 317.30 240.60 204.10 953.85 759.75 222.69 320.40 390.15 208.19 214.53 161.87 202.60 855.26 277.15 475.65 207.28 263.53 400.56 838.35 178.89 302.76 704.01 890.53 242.92 0.00 272.65 810.58 259.67 758.31 291.43 377.74 589.88 328.15 270.18 264.84 305.94 352.18 199.18 763.14 234.84 738.21 162.98 286.85 215.03 452.36 265.25 281.35 803.93 307.43 312.81 308.02 240.23 253.12 282.21 766.42 372.52 258.64 286.60 455.04 253.79 222.94 310.13 298.40 374.47 832.67 209.32 343.26 890.69 205.07 324.75 465.99 238.97 426.49 158.92 274.08 392.29 219.09 258.41 284.55 828.50 242.26 292.97 268.56 219.89 407.01 527.45 265.66 774.07 276.10 428.66 495.46 834.28 765.77 264.02 779.93 322.03 305.09 233.08 808.51 407.59 244.76 282.11 324.38 874.53 267.33 295.45 361.88 955.02 312.39 232.68 342.63 914.10 167.54 116.08 302.32 846.94 811.97 720.22 642.02 140.62 115.19 837.35 289.36 340.07 292.74 197.52 264.36 257.36 295.41 275.19 669.38 267.58
1140.63 425.27 246.95 802.81 263.71 783.94 177.30 197.78 370.35 69.92 927.46 296.39 93.70 199.36 398.63 735.26 365.69 868.00 388.90 993.05 298.82 724.42 319.02 707.70 410.09 957.80 233.95 317.67 959.89 107.94 215.29 984.19 289.56 273.86 471.66 262.06 676.17 340.63 407.84 178.63 742.01 335.06 340.40 771.57 239.28 344.53 120.73 122.65 190.62 227.35 229.71 924.11 477.83 221.28 444.55 215.90 236.04 392.19 135.90 335.86 190.15 164.64 939.88 896.76 406.79 328.89 61.26 353.98 747.03 412.31 292.89 201.77 954.00 779.29 95.17 314.79 381.52 135.76 156.36 110.78 124.41 957.72 167.99 565.14 125.27 244.65 395.19 863.93 148.12 297.15 807.84 961.37 297.76 272.65 0.00 877.05 211.84 787.67 194.34 361.89 597.78 330.63 285.86 119.22 221.62 238.08 253.49 881.51 184.14 815.38 258.10 128.11 148.02 485.61 322.05 244.80 845.86 261.67 314.79 292.89 291.18 234.14 194.28 823.24 302.76 181.64 128.24 543.54 188.55 157.55 262.25 199.66 353.85 874.60 131.36 279.64 1024.68 67.58 280.35 296.44 147.14 431.51 356.97 222.85 394.77 268.17 256.30 171.98 843.11 190.29 87.08 410.52 178.53 310.21 521.20 147.76 870.58 221.33 441.23 441.27 845.95 781.45 168.53 878.96 256.05 298.84 257.33 837.06 578.65 177.75 227.06 276.53 945.23 188.38 234.97 373.85 1030.12 92.27 176.78 307.27 965.19 195.82 244.54 284.98 936.61 827.65 742.25 689.08 181.30 303.97 937.63 307.10 279.38 306.74 124.40 204.64 232.04 285.88 200.72 735.76 239.06
375.01 537.94 671.33 169.15 737.46 93.11 899.82 886.93 600.70 871.85 77.50 613.11 787.31 946.80 1074.03 151.99 980.99 9.05 585.10 169.75 663.46 169.13 664.73 169.35 707.00 234.44 848.27 652.09 194.27 928.51 932.83 515.49 877.28 619.91 408.52 838.66 356.59 1023.90 660.27 901.68 145.96 985.31 629.36 106.34 928.12 577.04 841.68 906.08 727.66 795.92 951.22 153.48 867.87 828.98 1121.90 923.91 709.70 653.26 912.28 1014.87 891.25 861.34 266.86 112.26 532.67 608.95 815.79 827.73 184.19 943.17 643.53 793.39 210.56 98.53 844.69 950.01 1026.18 768.70 880.14 805.82 870.75 135.96 942.18 358.97 755.74 881.42 653.79 71.02 847.04 932.37 275.59 180.24 669.08 810.58 877.05 0.00 918.33 109.18 934.30 610.17 283.72 563.14 602.11 897.96 929.64 780.50 806.56 64.68 776.59 334.55 714.99 857.63 880.36 559.33 626.04 920.77 70.38 943.79 603.01 940.06 858.12 860.54 927.91 213.39 742.69 892.33 928.23 380.31 874.98 872.29 956.96 943.97 992.36 99.12 873.22 990.09 273.00 816.64 703.40 820.45 861.70 475.68 668.90 897.01 576.28 863.90 881.30 819.70 88.51 887.07 804.64 648.56 855.86 694.48 567.05 921.95 56.82 872.35 439.78 1113.35 47.18 109.73 895.00 54.71 963.14 611.19 850.97 54.12 940.55 907.73 897.80 953.07 302.38 893.56 951.02 581.28 171.17 817.46 841.56 634.27 135.44 801.60 733.97 611.87 158.95 63.53 139.39 238.57 806.23 789.20 138.86 639.98 964.49 623.54 840.24 909.17 899.37 637.62 898.41 188.90 889.15
1227.67 561.84 395.62 874.17 215.10 855.30 103.82 52.33 520.87 275.98 995.83 456.33 302.95 115.17 236.65 807.28 178.41 927.38 544.69 1067.28 504.88 790.14 471.35 779.06 341.71 939.16 128.72 376.90 1100.03 161.54 82.29 1044.47 132.81 441.33 608.64 135.87 702.47 155.15 601.27 58.37 842.44 153.00 399.63 842.93 27.44 511.94 229.51 158.47 349.73 194.69 38.20 1028.49 385.05 170.89 299.35 34.07 208.63 604.03 166.36 146.12 59.62 107.26 986.03 1012.85 566.73 463.81 247.19 295.92 818.39 237.93 411.74 167.42 1079.89 850.65 203.21 117.70 199.46 211.69 148.69 185.25 128.19 1029.08 102.38 735.32 301.15 91.26 551.86 937.14 139.12 100.06 893.81 1043.62 458.07 259.67 211.84 918.33 0.00 869.91 88.11 507.02 773.66 498.10 478.49 150.97 73.16 396.33 156.37 974.83 339.07 830.88 329.47 309.69 129.74 606.08 472.23 58.46 917.22 57.41 482.26 125.46 135.24 104.88 75.91 909.15 501.41 60.70 147.38 680.52 43.35 187.51 76.53 69.82 186.94 945.96 135.14 106.76 1062.79 213.67 432.68 468.32 181.97 623.72 418.59 71.53 545.29 121.79 82.47 343.72 900.96 65.49 298.92 446.47 103.10 481.95 660.04 122.61 975.15 90.29 617.11 305.88 943.60 891.86 54.04 967.21 68.52 470.45 116.45 935.35 406.41 100.01 63.01 141.82 988.07 61.93 46.80 526.81 1089.50 304.11 105.93 491.16 1053.77 215.60 223.55 435.16 1010.84 938.06 813.61 852.68 197.05 237.75 1022.13 471.07 94.40 465.60 140.15 65.11 65.13 464.16 66.87 807.12 54.91
439.77 462.94 615.47 152.20 758.70 16.07 846.37 876.94 527.86 794.79 168.22 523.86 702.62 927.90 1042.92 116.65 967.04 100.13 510.10 214.05 591.01 121.22 589.73 90.85 735.69 257.04 832.75 575.05 284.08 852.85 899.89 473.42 832.41 513.81 375.15 777.08 339.64 1004.63 585.27 863.39 68.92 948.54 552.32 26.98 877.48 502.04 779.52 863.38 671.80 817.16 898.34 178.29 788.51 803.70 1066.32 892.80 730.94 578.26 836.79 996.16 883.84 842.01 268.00 174.84 457.67 554.69 737.29 797.24 107.13 887.59 561.03 812.93 301.64 31.00 767.11 920.21 981.78 691.66 813.99 726.84 803.13 209.43 870.39 323.63 671.05 851.52 578.79 104.09 810.45 902.57 197.84 223.90 574.19 758.31 787.67 109.18 869.91 0.00 896.41 535.73 198.54 488.14 519.69 820.92 894.77 705.50 827.80 143.12 696.84 257.43 635.63 777.71 827.70 494.61 539.76 857.86 97.57 899.63 528.01 899.65 813.25 846.05 885.92 151.36 667.69 857.13 870.63 303.27 868.01 800.69 935.72 913.58 961.43 126.31 796.18 956.33 309.48 738.14 613.32 745.75 784.66 400.68 599.39 857.31 510.04 820.47 859.79 737.61 97.61 878.00 725.56 581.03 821.70 619.48 487.69 878.33 133.11 877.80 364.78 1068.48 113.99 43.98 869.28 144.60 923.82 537.98 821.07 95.99 911.20 853.03 865.83 916.01 337.81 849.43 916.71 535.44 262.25 708.28 836.00 559.27 223.55 754.90 755.21 502.69 191.19 90.18 60.31 164.76 767.02 788.87 175.34 557.56 924.68 533.13 763.20 888.25 868.26 544.38 883.32 111.15 858.04
1226.38 535.88 352.74 853.97 238.51 880.34 79.13 76.06 492.78 232.72 1011.80 445.28 275.73 44.91 211.57 814.21 234.46 943.35 511.93 1055.64 460.55 817.84 424.73 811.67 386.80 1027.27 172.88 401.04 1066.66 94.12 55.57 1058.09 203.72 440.04 588.49 191.86 666.53 221.76 538.61 85.98 843.82 217.33 420.39 875.54 115.55 483.98 182.89 71.69 296.41 189.81 85.18 1004.97 408.82 178.90 336.12 122.18 224.60 522.96 124.10 228.80 84.50 110.46 1034.68 1014.23 513.56 427.87 191.24 314.85 835.26 314.36 358.42 140.91 1037.63 883.26 175.96 182.03 263.79 204.75 106.65 183.96 105.01 1061.69 49.06 715.35 285.60 135.54 498.74 978.04 112.54 164.39 910.20 1042.86 431.99 291.43 194.34 934.30 88.11 896.41 0.00 496.65 726.03 488.15 450.33 75.49 42.37 343.50 184.01 998.98 285.75 836.94 321.60 269.21 77.66 613.62 431.83 128.36 949.83 145.52 460.70 189.79 198.53 154.14 33.65 918.04 449.56 62.77 93.84 660.37 80.12 113.58 115.89 53.56 253.09 978.57 109.18 142.23 1070.76 164.38 386.06 427.21 129.61 570.55 449.83 130.20 517.20 166.88 153.38 340.00 954.50 88.90 217.85 494.71 109.16 478.23 651.97 63.56 991.12 125.70 601.56 339.10 973.01 917.47 75.88 989.01 103.99 429.61 165.50 953.30 494.52 64.07 128.75 183.88 945.81 89.63 80.06 467.76 1105.47 253.76 116.46 438.04 1037.30 198.94 233.11 437.54 999.20 948.46 846.22 845.28 180.56 304.10 990.35 455.94 140.87 441.96 138.86 111.00 134.83 435.81 63.15 823.51 131.34
811.90 124.01 206.57 585.95 396.98 519.66 475.36 454.69 44.40 344.87 660.88 65.50 302.21 484.69 679.72 477.26 651.02 603.72 37.67 731.20 153.82 494.40 118.00 517.51 570.02 731.28 518.93 339.68 631.16 461.79 502.54 727.21 540.08 88.03 255.18 480.17 481.30 638.19 126.80 472.07 525.91 647.59 328.77 532.89 529.64 63.64 331.31 471.94 252.86 468.57 523.15 669.29 650.73 453.05 722.64 507.61 394.97 140.87 466.87 647.22 468.89 481.33 714.31 549.08 78.06 93.43 348.38 487.25 526.13 621.63 192.34 461.64 684.95 530.11 370.85 600.88 659.31 369.84 440.20 373.90 472.15 704.39 453.32 279.85 270.64 538.09 59.71 596.75 448.72 594.65 518.81 725.28 151.22 377.74 361.89 610.17 507.02 535.73 496.65 0.00 404.15 76.06 134.53 464.13 519.69 273.10 473.28 615.45 251.43 583.21 284.67 286.68 456.25 134.75 117.44 534.66 596.68 538.16 87.95 572.77 543.39 524.23 479.79 597.67 210.94 479.20 482.09 300.04 466.64 425.43 542.08 520.59 631.51 625.42 465.20 575.21 788.81 380.86 128.14 268.61 421.77 135.05 370.01 516.11 52.97 512.39 526.07 248.72 605.63 486.68 295.19 424.37 489.72 142.37 264.23 433.09 604.52 514.77 170.95 734.71 562.99 572.41 482.17 604.10 553.98 83.43 522.14 588.76 694.96 457.23 519.90 560.10 600.27 485.22 523.56 28.89 760.91 292.26 495.05 102.28 687.44 418.06 419.24 86.67 674.76 591.56 536.15 518.65 412.24 436.89 654.67 137.71 572.82 85.00 389.21 498.08 532.61 109.18 488.04 514.38 535.45
629.74 310.87 536.42 263.91 634.83 214.61 718.72 748.17 390.48 636.39 343.12 445.46 504.08 770.94 926.67 143.78 876.36 274.67 414.34 412.59 505.55 126.64 469.73 193.16 675.29 389.75 753.95 439.92 463.59 705.72 781.26 442.02 712.72 467.99 206.72 736.03 185.88 885.71 504.46 715.29 178.94 841.14 417.19 223.37 783.90 416.52 635.55 686.42 558.62 696.98 766.37 376.83 750.97 688.07 944.10 752.56 662.59 488.81 683.74 894.74 747.01 746.98 370.05 349.35 368.22 437.77 597.63 661.01 184.19 765.37 498.12 697.33 476.18 229.54 635.48 815.65 862.09 643.40 704.64 654.73 722.19 407.97 745.50 166.43 472.51 752.19 442.42 302.63 745.90 798.01 238.01 422.44 497.59 589.88 597.78 283.72 773.66 198.54 726.03 404.15 0.00 413.70 459.85 713.38 768.40 511.22 741.36 330.30 572.77 314.43 552.60 616.07 730.32 418.88 459.42 774.22 296.11 800.30 434.32 772.61 731.88 766.60 753.59 253.41 566.64 738.50 708.57 134.84 745.41 683.01 809.72 750.95 840.62 324.85 729.14 842.85 468.28 631.15 508.40 624.59 666.98 311.23 430.96 759.51 408.93 761.27 734.35 578.85 278.70 729.90 605.58 540.60 738.91 524.79 406.31 725.27 322.44 757.99 290.34 951.10 308.13 242.52 725.39 324.03 807.34 427.53 751.31 294.53 789.57 700.59 759.81 788.97 536.35 729.25 765.64 375.26 436.79 589.19 753.21 484.83 419.16 673.18 665.39 462.82 373.54 288.72 198.75 119.25 630.73 692.31 373.88 422.87 816.04 439.88 687.63 741.30 750.23 463.36 748.11 192.34 760.45
835.95 119.33 166.51 581.27 407.20 472.07 453.81 486.17 39.72 352.45 624.58 49.97 246.37 483.29 693.49 454.25 626.26 556.13 80.25 702.19 137.41 471.39 101.59 512.83 520.43 736.25 464.39 329.73 655.21 407.25 502.03 797.24 503.42 56.77 235.90 468.12 454.24 623.71 162.64 453.29 523.69 603.73 313.24 485.30 521.90 13.90 321.12 428.71 198.32 420.49 504.37 664.89 634.05 398.51 705.38 490.56 379.44 159.19 426.03 628.58 485.01 450.07 724.00 625.14 102.11 83.48 332.70 491.75 521.21 587.00 168.48 407.10 696.12 519.14 352.07 574.24 643.78 354.31 408.94 358.37 437.49 673.96 445.67 247.27 214.80 516.76 95.55 592.23 417.46 558.62 511.24 682.05 105.94 328.15 330.63 563.14 498.10 488.14 488.15 76.06 413.70 0.00 109.84 416.47 488.43 217.36 447.71 581.84 240.59 578.53 240.22 332.65 453.60 202.30 62.90 515.96 585.71 540.54 39.87 570.66 522.58 489.03 472.14 607.36 179.55 476.50 427.55 295.36 483.41 374.57 526.43 493.24 613.40 614.45 433.94 559.56 797.62 366.22 140.26 257.61 390.51 127.48 329.23 497.51 64.14 500.01 515.26 265.22 585.75 467.90 279.66 419.69 458.46 182.85 250.06 431.69 570.91 492.71 123.36 715.93 581.40 522.67 463.39 571.52 538.33 67.90 490.88 578.28 640.42 441.36 501.72 560.07 618.68 467.25 507.93 47.30 718.25 273.48 471.25 71.13 647.32 412.42 403.71 67.89 649.70 568.87 538.79 513.97 366.96 403.36 663.48 141.66 554.04 69.47 357.95 479.30 513.83 88.13 488.88 509.70 516.67
906.95 224.43 117.06 580.15 356.82 509.00 434.56 468.11 149.56 343.57 641.60 109.52 210.07 466.07 650.41 508.09 578.29 593.06 172.20 707.19 209.93 504.84 182.05 520.21 462.46 746.86 431.63 257.17 735.77 374.65 481.23 800.24 464.22 122.76 253.13 425.37 413.88 577.57 245.29 454.65 456.15 555.65 242.48 521.44 472.86 107.80 345.10 397.08 173.39 382.03 486.82 638.25 568.22 373.12 702.33 444.42 329.06 253.83 389.73 586.60 460.76 426.21 738.00 610.90 196.01 65.02 259.09 447.09 538.44 531.61 116.49 382.38 726.25 542.11 319.13 520.35 602.11 349.39 389.69 335.81 410.27 687.77 420.74 301.11 241.64 451.21 194.24 599.25 432.19 502.71 540.07 675.51 73.14 270.18 285.86 602.11 478.49 519.69 450.33 134.53 459.85 109.84 0.00 374.84 488.33 327.20 371.97 595.65 277.40 608.18 184.83 323.77 408.43 250.77 89.03 479.36 571.16 442.89 112.47 506.49 447.89 436.39 447.21 621.36 265.53 465.60 394.95 325.01 462.93 358.13 493.63 466.37 576.64 599.90 413.47 526.76 773.44 292.61 184.13 323.01 351.18 156.31 314.53 481.30 170.20 439.37 454.50 286.89 563.07 455.29 270.78 369.84 401.48 237.23 288.72 414.47 584.72 453.70 184.09 687.87 565.60 495.59 454.39 596.21 492.92 91.59 463.24 551.20 625.31 428.82 479.65 522.85 686.71 468.61 475.24 149.06 755.18 321.30 415.78 153.83 690.05 361.24 352.16 126.10 650.75 541.79 543.22 541.09 315.78 370.56 652.87 37.87 487.67 103.94 372.68 468.49 482.31 125.63 439.41 539.35 492.08
1192.69 491.86 324.83 810.23 232.25 804.85 67.79 123.44 425.35 189.14 941.80 398.63 209.30 113.79 287.06 805.74 258.40 888.91 465.88 995.20 413.94 788.60 383.88 736.18 389.04 984.66 187.41 335.21 1055.24 64.89 109.08 1002.47 197.01 379.30 513.00 195.86 675.23 253.95 494.15 123.11 787.99 261.89 357.94 800.05 156.24 422.58 142.04 42.46 268.50 178.59 121.87 933.29 432.36 160.04 368.11 159.71 204.49 490.18 73.81 257.07 112.77 86.41 982.91 958.40 502.14 413.11 115.75 305.98 775.51 325.26 314.20 130.03 1040.21 807.77 104.28 226.59 292.48 129.26 58.43 128.13 67.49 986.20 82.42 658.04 240.87 164.51 427.06 915.19 91.20 208.95 847.37 998.36 377.63 264.84 119.22 897.96 150.97 820.92 75.49 464.13 713.38 416.47 374.84 0.00 117.86 271.82 186.21 931.95 218.32 844.26 273.38 215.99 87.69 560.05 401.66 148.96 874.34 186.21 411.79 223.15 216.17 167.94 75.06 866.27 386.34 107.71 63.59 584.88 114.94 41.90 165.22 118.21 286.49 903.08 65.16 171.11 1019.87 88.89 345.21 392.82 57.93 513.24 378.28 157.64 449.77 185.99 146.67 269.11 879.01 131.89 185.07 447.88 116.48 407.34 603.06 62.19 931.79 155.22 539.83 385.75 902.59 848.98 120.82 920.30 174.60 380.70 180.97 895.19 524.24 72.77 166.16 224.64 987.22 121.26 146.16 448.42 1051.03 211.49 107.59 383.90 988.37 173.36 222.23 388.46 938.76 895.18 770.73 803.49 127.90 231.16 918.67 405.81 195.16 393.05 105.17 149.12 172.95 360.32 91.42 764.24 172.75
1255.99 525.29 388.56 875.39 238.90 878.70 92.86 66.61 510.31 252.28 1007.14 454.19 315.32 65.13 253.94 818.59 192.09 938.69 537.86 1069.37 481.18 801.45 461.59 843.66 387.19 1007.02 157.66 434.98 1108.21 113.68 24.39 1057.34 193.58 431.66 630.86 196.24 700.67 179.65 579.34 74.68 853.75 221.23 452.26 891.93 92.47 502.33 219.75 114.06 332.23 193.94 53.96 1037.14 432.42 203.00 310.66 107.23 219.94 565.33 142.01 188.68 70.80 118.57 1053.89 1024.16 555.11 462.01 229.24 311.68 871.08 302.88 394.24 180.70 1062.39 915.25 213.58 190.86 237.28 203.11 123.59 210.74 105.54 1065.60 84.88 735.70 300.78 132.10 541.11 978.43 127.05 173.22 946.02 1064.28 443.97 305.94 221.62 929.64 73.16 894.77 42.37 519.69 768.40 488.43 488.33 117.86 0.00 385.87 188.39 994.32 314.60 861.70 316.85 306.74 120.03 596.97 458.03 131.62 981.82 119.82 472.59 190.74 187.23 153.43 58.41 939.46 469.61 67.15 113.89 695.71 54.66 155.95 73.52 22.34 227.63 1010.56 98.59 99.86 1081.17 196.37 422.92 410.42 160.88 593.41 464.86 118.90 508.39 167.27 149.94 347.35 974.12 89.29 260.22 467.10 133.92 485.58 694.34 105.11 986.46 117.38 611.79 313.43 974.41 937.67 74.68 984.35 61.62 471.98 162.55 948.64 471.44 98.21 115.09 182.68 970.57 73.24 37.69 509.31 1100.81 289.58 139.75 480.41 1065.08 214.78 244.21 442.78 1012.93 958.05 877.27 868.44 182.95 299.44 1030.21 460.86 115.41 464.54 168.47 100.69 135.22 441.75 78.18 859.33 128.07
1053.31 336.69 257.79 775.13 366.23 689.43 317.43 364.93 257.08 182.37 841.94 231.43 144.38 379.10 555.07 655.00 481.61 773.49 297.61 919.55 190.54 637.86 183.63 704.38 539.55 900.97 363.41 386.66 872.57 320.97 379.58 953.24 420.95 221.38 453.26 419.08 596.41 511.87 280.94 348.36 690.16 499.56 409.39 702.66 408.66 231.26 236.70 312.68 222.35 356.81 393.69 882.25 607.29 350.74 608.98 385.63 359.94 287.12 285.78 509.49 365.19 305.74 881.27 822.18 319.47 271.34 205.60 447.33 695.41 538.08 312.23 326.78 900.65 736.50 226.01 462.27 526.80 265.22 272.56 240.24 292.84 891.32 336.35 464.63 175.95 388.45 291.94 798.21 273.13 446.62 728.60 899.41 260.31 352.18 238.08 780.50 396.33 705.50 343.50 273.10 511.22 217.36 327.20 271.82 385.87 0.00 378.50 799.20 140.43 766.71 312.54 128.85 309.27 407.55 247.33 399.83 803.07 406.72 245.26 437.85 440.11 388.05 345.56 764.63 114.52 352.88 319.62 512.72 352.98 229.92 430.68 388.71 510.43 831.81 297.56 440.89 979.50 197.04 144.96 146.82 245.95 344.84 426.97 376.07 281.50 406.00 370.61 67.63 789.92 362.97 181.84 496.45 314.13 150.67 399.68 327.50 788.27 370.34 340.72 611.00 798.76 740.03 354.25 788.88 439.43 237.50 395.10 791.32 672.00 335.56 379.67 434.93 836.04 334.40 395.80 264.66 935.61 147.41 326.92 214.09 864.68 325.28 335.67 210.26 867.06 785.16 709.97 630.47 295.99 424.84 880.84 306.27 440.58 225.15 285.34 374.37 397.77 207.82 343.84 703.56 395.64
1181.57 521.56 339.62 830.90 106.53 826.25 158.78 138.19 487.43 268.54 884.06 426.33 289.98 204.74 288.58 807.30 222.30 815.61 488.56 976.31 497.44 790.16 474.27 787.81 281.41 997.79 59.66 357.14 1000.83 209.22 164.00 942.97 92.25 447.58 557.16 53.40 672.35 242.59 469.59 124.43 828.12 196.89 376.50 839.48 153.64 461.61 232.43 190.93 287.18 58.86 161.38 929.12 369.43 63.78 330.36 122.30 96.86 485.24 215.90 233.56 123.99 99.80 950.92 918.82 536.73 423.40 245.87 196.80 771.50 220.50 333.73 97.01 1017.12 796.80 204.17 161.59 241.62 150.66 153.05 169.15 129.08 942.52 177.80 671.25 276.04 79.24 490.83 877.58 105.37 143.95 846.44 968.69 382.14 199.18 253.49 806.56 156.37 827.80 184.01 473.28 741.36 447.71 371.97 186.21 188.39 378.50 0.00 871.24 303.20 843.12 241.09 323.69 134.81 608.03 399.39 134.33 863.37 160.41 439.48 134.52 75.92 64.42 151.33 872.60 458.70 121.24 213.08 606.52 138.59 149.60 182.90 176.71 204.67 892.11 135.80 216.03 1015.22 212.35 435.60 500.52 165.63 528.28 321.70 117.35 511.85 71.56 82.53 349.48 859.95 118.84 307.86 374.74 129.87 487.71 660.69 185.44 863.38 81.73 556.06 315.90 851.33 846.12 134.35 861.27 187.65 444.26 95.43 825.56 420.72 146.19 109.01 150.88 1015.77 138.39 188.00 444.39 977.73 302.77 120.98 480.82 942.00 87.42 101.40 436.46 953.33 834.97 810.59 804.80 121.12 122.51 943.01 388.05 170.57 445.83 164.88 118.89 110.34 423.75 121.83 759.75 120.11
333.94 553.96 712.71 194.20 802.14 138.84 963.67 951.61 619.03 874.27 89.16 621.90 805.72 1011.48 1138.71 216.67 1045.67 55.63 610.27 218.64 690.89 227.50 683.43 195.77 762.74 274.63 912.95 665.17 153.20 950.05 996.56 546.53 930.09 638.61 424.09 891.19 381.64 1088.58 679.07 930.59 175.64 1049.99 659.04 131.90 992.80 595.74 857.25 970.76 769.04 860.60 981.67 175.74 893.43 893.66 1113.65 967.86 774.38 663.42 945.45 1079.55 955.93 926.02 275.57 66.37 542.83 655.14 834.49 824.29 230.77 994.31 701.90 858.07 219.57 145.11 872.03 1014.69 1079.46 814.43 922.65 835.50 906.53 92.12 968.47 341.04 780.91 946.10 623.78 75.21 911.72 997.05 308.46 222.30 660.08 763.14 881.51 64.68 974.83 143.12 998.98 615.45 330.30 581.84 595.65 931.95 994.32 799.20 871.24 0.00 760.05 320.28 740.55 864.46 933.88 593.49 644.74 962.78 123.77 1004.55 609.72 997.33 916.91 925.22 989.32 198.93 747.49 953.80 970.35 426.04 939.66 923.46 1021.64 1008.65 1057.04 107.83 913.48 1054.77 298.02 843.06 691.58 832.68 907.43 485.84 604.22 961.69 594.61 928.58 945.98 800.82 111.39 945.20 815.73 608.08 920.54 719.65 592.61 984.51 10.93 937.03 464.95 1145.20 99.36 100.06 940.69 16.79 1027.82 603.97 915.65 79.17 970.19 963.61 962.48 1013.69 258.94 944.55 1010.34 629.14 191.88 820.89 906.24 652.97 150.96 866.28 798.65 639.26 162.20 88.58 178.31 269.68 870.91 853.88 163.88 633.52 1029.17 616.32 880.60 956.60 964.05 607.59 963.09 221.77 953.83
1017.66 286.64 197.27 748.58 246.49 689.21 276.92 309.58 207.03 114.22 812.87 196.14 94.17 296.62 497.32 626.89 472.47 771.74 247.56 896.31 195.62 609.75 176.49 679.58 427.12 909.76 295.80 389.27 836.92 252.82 297.18 934.51 352.23 183.82 424.93 347.69 593.98 450.91 321.24 304.23 662.05 454.67 366.54 702.44 341.05 251.75 182.58 260.78 140.94 289.20 337.93 815.91 539.68 283.13 539.05 327.54 274.25 336.60 250.28 441.88 297.58 285.77 918.04 800.51 283.82 247.12 162.95 336.76 688.76 471.14 251.71 311.71 863.43 727.84 158.40 422.90 477.29 197.61 259.78 172.63 245.54 852.17 236.69 464.41 100.26 347.96 294.87 764.83 269.25 405.26 724.57 846.78 204.26 234.84 184.14 776.59 339.07 696.84 285.75 251.43 572.77 240.59 277.40 218.32 314.60 140.43 303.20 760.05 0.00 683.32 231.13 163.01 272.89 348.44 223.11 362.48 753.55 371.02 224.25 406.60 371.39 320.44 263.16 801.40 176.37 311.34 273.12 462.67 299.75 220.78 370.68 306.31 444.81 782.29 252.49 389.43 964.67 129.43 199.69 254.17 208.99 340.81 393.76 339.11 231.45 338.39 351.81 72.80 751.67 318.84 111.14 447.74 290.06 211.03 426.48 256.92 749.12 346.68 340.50 566.87 741.63 740.82 308.42 760.61 362.70 204.12 345.48 722.47 561.43 287.22 347.63 407.52 811.94 318.19 323.24 240.56 933.86 93.58 297.91 206.95 864.46 257.67 277.05 194.15 840.12 713.06 714.13 681.28 258.48 312.96 830.53 268.71 400.96 191.77 217.73 330.24 340.15 152.46 276.23 677.01 350.37
625.61 459.20 653.88 233.68 783.16 261.20 800.34 804.23 538.81 745.46 353.94 593.79 765.31 856.97 1004.13 250.80 952.13 325.50 562.67 333.97 671.95 233.66 666.32 189.69 810.42 282.08 812.42 616.66 468.57 848.77 837.31 312.08 825.23 596.16 355.05 814.95 321.37 952.19 666.16 789.03 253.75 942.47 593.93 253.56 833.39 592.43 788.21 847.80 706.95 834.78 840.11 272.06 927.71 784.19 1059.60 824.43 810.92 650.51 869.99 952.07 818.43 757.85 298.20 386.65 529.92 586.10 765.45 809.34 150.36 946.07 599.44 809.62 510.85 236.02 825.49 891.42 974.60 866.30 794.76 835.96 792.17 412.40 829.18 433.50 733.74 825.88 616.45 289.81 768.78 894.58 134.79 337.13 650.79 738.21 815.38 334.55 830.88 257.43 836.94 583.21 314.43 578.53 608.18 844.26 861.70 766.71 843.12 320.28 683.32 0.00 718.16 803.65 780.88 557.53 607.75 849.53 283.41 854.08 606.95 872.54 806.07 803.83 803.29 217.14 652.19 802.56 867.11 283.17 816.18 837.40 880.34 846.44 925.22 312.15 788.13 906.68 367.53 798.12 668.40 745.66 826.28 506.54 579.29 829.08 557.26 771.56 810.88 756.12 253.63 799.23 787.62 655.76 727.78 725.58 620.01 808.95 331.21 826.66 475.41 1044.82 296.27 290.63 799.13 337.07 868.44 575.86 795.43 288.02 954.43 803.33 837.46 888.90 579.22 802.99 868.78 597.71 480.19 776.90 742.08 638.10 377.30 832.99 813.72 607.28 277.53 292.24 212.95 195.18 841.53 771.61 257.44 571.20 889.78 588.21 828.29 815.04 829.47 627.52 809.00 162.11 819.25
1046.49 285.27 108.22 614.02 171.99 621.88 259.82 315.47 279.94 296.03 774.39 241.96 176.69 320.39 508.56 654.20 415.52 705.94 293.29 816.22 317.52 637.06 281.70 672.52 328.78 788.45 282.80 158.14 865.75 308.02 321.97 845.46 311.81 231.85 390.82 273.19 537.44 458.43 384.83 320.40 618.81 419.84 135.41 608.65 356.91 254.12 160.27 285.59 90.19 230.45 326.13 806.17 469.19 229.18 525.51 344.91 144.23 398.16 292.14 449.40 311.78 241.38 794.73 789.22 342.33 234.02 224.04 262.26 661.08 346.78 162.66 227.92 888.67 666.08 212.71 384.54 460.71 171.48 214.95 217.80 246.90 832.67 278.74 485.94 145.12 315.95 330.28 737.62 270.38 366.90 711.96 802.91 221.43 162.98 258.10 714.99 329.47 635.63 321.60 284.67 552.60 240.22 184.83 273.38 316.85 312.54 241.09 740.55 231.13 718.16 0.00 268.12 266.09 397.60 211.83 336.37 732.65 359.39 254.94 374.59 292.65 295.07 287.95 678.09 334.11 322.64 307.74 434.99 305.29 257.59 362.80 294.51 422.03 739.58 239.95 389.14 879.39 190.52 243.03 427.58 264.48 341.14 207.46 312.61 304.36 298.43 315.83 244.91 730.99 305.79 223.24 270.81 271.45 352.74 457.17 282.47 744.42 306.88 363.58 532.51 711.19 663.51 321.05 732.93 350.90 234.81 285.50 719.12 486.93 277.95 321.13 387.60 854.48 313.29 329.82 287.52 868.06 261.80 262.56 272.35 833.33 234.52 168.50 242.97 799.51 709.71 676.64 650.18 189.06 196.35 802.87 146.96 394.66 222.46 241.85 327.89 325.21 261.77 296.77 649.33 323.68
1098.58 402.43 273.00 814.67 299.60 771.66 239.41 276.17 331.08 58.19 912.22 282.68 186.93 282.94 479.42 759.85 425.78 848.58 324.35 969.85 279.62 742.71 258.86 752.79 464.74 933.79 291.27 368.08 917.84 196.79 282.35 998.43 334.96 286.14 485.56 316.76 679.20 406.01 339.57 266.27 718.81 414.65 345.35 784.10 306.82 319.12 107.85 219.22 249.95 281.42 284.23 915.26 521.28 260.83 522.34 289.58 296.71 323.92 218.55 408.47 264.17 226.56 972.87 835.76 364.74 336.10 122.64 389.87 745.85 463.21 327.44 255.68 970.11 759.10 120.44 379.35 443.88 196.43 203.52 178.51 206.93 937.53 251.57 554.16 182.05 316.07 346.39 850.16 227.69 361.71 793.12 946.13 302.09 286.85 128.11 857.63 309.69 777.71 269.21 286.68 616.07 332.65 323.77 215.99 306.74 128.85 323.69 864.46 163.01 803.65 268.12 0.00 191.55 421.43 312.09 301.72 825.67 324.74 295.84 374.71 336.60 315.91 258.73 856.23 243.37 265.89 217.09 557.44 266.34 174.09 327.58 288.51 429.56 854.41 213.88 323.17 1046.52 149.17 257.51 262.35 173.14 409.36 417.40 277.96 338.13 333.73 314.78 95.23 820.27 280.40 52.99 470.45 244.65 233.46 482.47 231.34 853.53 280.29 445.26 528.91 840.98 796.49 275.01 865.02 339.48 264.75 324.00 821.82 614.54 221.28 286.48 373.15 879.60 280.23 304.19 308.22 1010.70 69.43 230.35 273.18 965.43 239.27 319.99 275.02 913.41 812.41 718.24 735.32 228.68 329.24 929.88 361.64 349.19 277.10 197.21 292.28 307.75 256.87 242.82 757.60 297.53
1183.17 458.22 328.98 802.94 190.64 811.63 47.86 98.85 479.92 217.94 957.86 419.36 241.72 102.23 289.23 758.15 247.00 889.41 486.62 994.64 443.73 775.29 418.40 795.78 353.25 977.37 99.72 349.92 1041.64 80.35 101.20 1001.45 171.28 396.83 559.74 149.96 632.19 214.46 531.12 95.96 788.86 223.10 372.65 824.86 115.27 467.50 185.01 89.48 272.65 112.15 92.68 962.41 399.93 122.26 347.69 110.51 170.66 515.47 111.67 223.49 98.60 35.01 966.77 959.27 500.63 393.53 149.34 237.19 818.07 284.41 313.76 89.79 1039.77 845.68 146.51 187.80 269.56 136.04 51.14 138.29 27.35 1000.61 62.12 671.14 257.81 124.52 475.43 931.79 36.14 170.16 889.60 991.83 386.07 215.03 148.02 880.36 129.74 827.70 77.66 456.25 730.32 453.60 408.43 87.69 120.03 309.27 134.81 933.88 272.89 780.88 266.09 191.55 0.00 570.55 408.07 110.17 912.25 133.19 430.80 183.16 158.72 124.36 67.18 867.01 415.01 74.34 100.65 631.62 91.69 90.27 136.03 110.33 238.01 940.99 31.52 131.62 1014.10 150.48 388.18 428.35 93.81 526.34 373.95 86.41 504.34 142.18 138.03 286.78 913.10 88.85 218.99 417.05 53.10 425.01 630.75 50.63 937.18 88.74 556.38 358.60 918.05 870.60 85.86 935.07 147.93 414.29 132.45 899.36 461.86 29.73 94.93 181.60 979.34 101.20 112.64 454.83 1051.53 233.54 38.80 422.57 1015.80 136.59 181.99 403.20 938.20 897.34 804.82 820.75 125.05 228.77 958.29 402.96 157.64 426.64 95.65 110.33 116.20 393.91 77.25 818.23 105.98
712.41 112.33 311.55 549.69 531.73 478.54 567.68 589.44 170.20 462.66 631.05 200.25 392.32 592.91 776.28 459.43 713.68 562.60 129.67 676.73 260.53 476.57 224.71 489.75 644.64 655.08 611.25 432.00 667.35 554.11 621.36 790.24 664.91 221.26 252.80 614.92 469.62 701.24 210.74 606.82 425.69 742.82 420.64 490.98 614.06 198.35 466.06 576.54 322.53 560.95 587.95 644.50 743.05 545.37 831.59 640.15 529.72 216.91 571.98 710.27 603.64 584.86 701.95 596.10 114.25 185.75 444.30 622.00 475.48 727.27 284.66 553.96 677.59 502.71 504.34 693.20 757.10 472.82 544.04 501.89 545.98 681.14 569.88 252.45 405.39 632.94 161.49 579.04 569.46 693.87 491.41 687.74 252.22 452.36 485.61 559.33 606.08 494.61 613.62 134.75 418.88 202.30 250.77 560.05 596.97 407.55 608.03 593.49 348.44 557.53 397.60 421.43 570.55 0.00 209.76 664.54 569.28 644.03 180.33 668.47 659.59 627.21 596.35 588.12 321.62 602.52 574.41 288.36 601.39 543.34 619.45 594.59 707.01 584.98 539.03 645.79 771.10 477.82 262.89 370.39 536.39 107.65 469.69 650.86 159.14 638.19 618.39 383.47 587.92 603.63 417.94 544.67 599.38 266.95 229.18 564.25 588.19 639.57 143.55 863.14 545.28 537.51 605.68 576.70 607.55 211.42 640.25 571.05 787.28 549.55 643.48 652.11 638.05 612.69 559.28 163.64 724.72 413.03 589.27 209.98 667.51 530.97 545.40 221.42 620.29 573.57 512.76 506.97 513.24 528.89 636.96 272.46 637.00 212.81 522.44 625.73 649.56 199.73 585.82 487.23 652.40
898.85 148.55 103.61 610.49 357.90 534.97 401.80 454.54 102.62 337.33 635.22 58.24 232.34 431.17 637.30 480.97 574.07 619.03 121.67 750.25 125.39 463.83 125.30 533.66 457.53 783.76 401.49 270.26 718.11 344.35 443.26 826.46 479.02 48.19 255.06 443.73 469.72 574.71 180.38 422.47 509.78 540.83 292.72 548.20 491.08 76.80 259.62 366.78 135.42 370.31 467.69 669.60 571.15 335.61 693.04 459.74 356.06 196.03 398.45 565.68 453.76 410.18 769.65 666.52 165.01 24.01 304.91 448.17 540.37 546.15 105.58 344.20 753.97 570.76 312.06 513.36 583.50 351.85 356.93 330.28 388.88 731.73 382.77 310.17 215.53 453.86 158.45 638.26 397.85 495.72 574.14 737.40 43.04 265.25 322.05 626.04 472.23 539.76 431.83 117.44 459.42 62.90 89.03 401.66 458.03 247.33 399.39 644.74 223.11 607.75 211.83 312.09 408.07 209.76 0.00 480.89 637.33 503.91 47.56 512.50 471.62 426.13 409.24 653.01 218.66 440.78 364.65 324.58 445.24 362.02 463.53 436.07 550.50 666.07 381.93 496.66 818.36 312.77 147.70 233.98 364.76 190.38 331.21 457.13 127.04 437.11 456.65 256.79 637.37 437.08 284.12 382.93 396.13 183.72 294.72 384.17 633.81 429.81 186.26 685.11 638.97 583.74 432.57 634.42 475.43 72.36 430.49 629.43 577.52 387.81 448.61 525.51 678.00 436.43 469.32 106.62 781.15 242.66 410.43 105.42 710.22 349.52 358.29 37.07 693.81 620.02 568.21 539.09 304.06 340.46 684.22 124.37 512.02 67.51 342.95 448.48 472.26 78.76 435.33 538.92 462.04
1247.37 567.52 414.27 862.12 188.70 843.25 117.73 79.97 541.12 297.60 972.30 472.74 310.75 152.92 209.40 825.48 138.34 927.31 572.33 1055.23 526.50 808.34 492.22 767.01 313.59 940.03 87.16 352.17 1087.98 188.99 112.18 1004.40 112.21 462.69 567.50 103.99 723.18 157.74 603.92 66.17 831.07 112.93 374.90 830.88 62.90 502.06 256.52 166.56 368.21 183.78 84.93 990.40 337.28 153.04 280.36 34.94 211.07 602.68 174.28 166.77 65.77 94.99 986.90 993.98 583.14 484.52 245.97 278.97 806.34 217.23 403.37 136.69 1080.87 838.60 204.08 77.63 159.39 220.49 148.24 230.07 135.22 1017.03 143.09 739.59 308.95 55.09 555.07 938.01 127.60 59.99 870.03 1031.57 453.89 281.35 244.80 920.77 58.46 857.86 128.36 534.66 774.22 515.96 479.36 148.96 131.62 399.83 134.33 962.78 362.48 849.53 336.37 301.72 110.17 664.54 480.89 0.00 905.17 41.77 503.49 85.39 128.18 80.19 116.62 897.10 466.73 89.38 188.09 639.38 82.04 169.91 91.88 116.55 145.80 933.91 140.82 125.01 1063.66 233.05 453.55 465.55 153.88 594.79 413.12 23.76 564.46 93.67 70.25 363.97 901.83 61.60 315.62 439.41 121.75 502.20 635.09 160.80 966.65 59.56 624.91 267.15 933.42 879.81 76.27 955.16 100.29 486.86 69.80 912.81 402.14 120.72 32.28 101.75 1028.78 80.13 105.26 543.32 1089.43 325.00 107.45 511.91 1056.21 167.83 186.80 451.57 998.79 922.22 801.56 840.92 192.87 217.05 1005.02 470.78 86.55 482.01 185.42 40.16 23.99 465.50 87.12 795.07 34.21
342.20 524.92 688.22 120.62 794.27 113.64 905.98 924.06 595.41 826.68 130.09 606.08 781.23 968.93 1075.38 192.58 1004.32 70.83 570.80 150.06 658.91 203.04 678.61 138.16 771.26 206.05 868.32 634.82 236.75 900.16 963.14 451.08 872.56 611.38 420.77 812.65 308.06 1029.82 654.86 924.94 152.53 978.91 612.09 124.00 928.01 575.21 818.69 916.80 744.55 841.94 945.46 117.83 885.53 830.52 1135.64 896.67 766.51 639.21 883.91 1033.95 936.46 911.18 196.48 174.04 518.62 636.18 784.60 832.81 146.30 971.20 658.60 848.04 272.34 66.57 814.42 943.61 1021.93 789.23 861.11 773.96 893.06 178.81 909.00 377.46 768.62 887.09 639.74 65.96 878.57 925.97 221.24 163.85 644.30 803.93 845.86 70.38 917.22 97.57 949.83 596.68 296.11 585.71 571.16 874.34 981.82 803.07 863.37 123.77 753.55 283.41 732.65 825.67 912.25 569.28 637.33 905.17 0.00 939.66 612.87 939.80 884.06 890.07 934.11 184.69 740.86 927.95 917.75 348.89 931.79 874.80 962.10 977.08 998.03 28.74 886.11 990.80 247.85 785.45 680.69 834.33 858.77 461.63 645.01 892.88 570.99 856.04 895.36 821.33 29.78 934.02 772.68 616.60 897.63 717.05 550.82 928.63 118.60 913.37 462.35 1139.29 54.82 75.57 914.84 120.19 962.02 588.15 856.64 44.60 950.37 910.52 901.40 956.16 364.16 931.25 964.02 588.92 232.95 780.62 898.37 650.39 179.27 852.47 770.61 600.26 93.62 40.49 107.43 207.64 863.04 846.01 113.71 609.03 968.95 600.50 819.06 923.82 903.83 628.10 932.25 134.55 893.61
1281.86 573.65 418.82 903.89 214.78 885.02 119.03 83.47 548.79 318.68 998.38 493.82 331.83 153.82 207.52 818.64 135.40 952.84 575.83 1072.38 533.04 801.50 497.22 808.78 336.61 966.40 110.18 374.39 1124.64 181.73 127.05 1005.73 130.30 483.77 593.58 127.01 739.62 157.07 623.05 87.25 853.80 114.26 397.12 872.65 29.97 543.83 255.38 173.68 385.41 172.92 95.61 991.73 360.30 176.06 261.64 61.31 234.09 625.70 209.17 148.65 97.67 118.01 1013.27 1017.00 604.22 499.77 268.99 305.05 848.11 211.33 429.45 159.71 1095.95 873.09 229.60 78.96 160.72 215.79 163.90 233.57 151.04 1051.52 150.76 744.00 330.03 81.17 555.96 964.38 150.62 61.32 893.05 1059.53 480.19 307.43 261.67 943.79 57.41 899.63 145.52 538.16 800.30 540.54 442.89 186.21 119.82 406.72 160.41 1004.55 371.02 854.08 359.39 324.74 133.19 644.03 503.91 41.77 939.66 0.00 524.57 86.72 143.26 99.57 124.29 938.87 489.75 100.15 195.76 665.46 91.87 176.80 78.28 97.48 155.44 968.40 146.95 100.10 1090.03 241.59 458.55 491.63 176.90 599.20 435.34 46.78 573.21 116.69 79.96 371.64 928.20 90.87 337.77 454.49 126.30 509.87 672.65 170.99 1000.61 79.12 626.98 285.26 961.60 921.58 93.14 996.93 66.38 507.94 92.82 935.83 371.57 137.16 55.30 103.08 1036.45 73.29 84.75 554.79 1114.96 348.02 112.00 517.03 1079.23 190.85 209.82 472.65 1015.94 945.24 843.33 858.58 219.17 243.13 1006.35 473.60 44.78 503.09 197.56 77.72 50.07 466.69 94.79 836.84 60.29
859.71 159.20 151.17 581.01 389.98 511.94 429.38 470.20 79.59 315.64 658.66 32.75 267.82 454.61 660.78 475.66 615.61 596.00 74.11 742.06 113.56 487.27 77.74 552.70 505.09 742.13 449.05 293.70 678.97 391.91 486.19 815.16 526.58 40.93 251.90 491.18 434.69 607.74 132.82 437.32 525.89 588.39 296.02 525.17 505.93 37.66 303.90 414.34 182.98 380.62 488.40 681.60 604.75 383.17 702.56 474.59 362.22 148.47 431.51 613.24 469.04 434.23 757.96 637.03 125.87 47.45 296.04 475.78 537.21 593.71 146.36 391.76 721.18 546.30 330.66 554.90 606.79 337.09 393.10 321.56 425.05 701.84 430.33 268.68 236.25 494.64 128.39 605.54 401.62 543.28 535.00 712.47 90.60 312.81 314.79 603.01 482.26 528.01 460.70 87.95 434.32 39.87 112.47 411.79 472.59 245.26 439.48 609.72 224.25 606.95 254.94 295.84 430.80 180.33 47.56 503.49 612.87 524.57 0.00 539.44 510.64 473.69 456.80 641.32 174.65 460.53 412.21 323.78 467.44 378.33 511.09 483.63 579.17 641.61 418.10 544.22 818.98 329.56 112.67 268.12 374.67 151.24 289.36 481.54 100.06 484.67 480.09 233.15 613.91 445.33 242.85 399.00 442.62 171.89 253.45 414.47 604.42 477.37 163.23 699.96 593.16 546.43 447.42 592.93 522.99 31.09 475.04 588.16 625.08 411.25 485.18 523.08 630.44 451.28 487.42 59.06 758.12 257.51 455.41 82.37 687.19 392.67 386.49 51.92 689.57 578.75 578.66 507.16 351.62 379.27 684.84 125.82 538.07 32.48 342.11 463.33 491.26 71.79 458.77 538.12 494.10
1282.00 599.27 434.12 870.27 215.37 883.58 174.23 151.29 568.97 352.89 998.97 526.46 367.80 211.16 154.06 861.84 103.75 949.11 538.80 1036.46 546.20 848.97 510.38 844.88 308.80 941.68 130.09 332.69 1120.10 242.03 171.26 969.81 67.24 519.74 573.24 127.15 682.83 153.13 604.11 123.22 838.82 78.34 355.42 896.81 116.69 573.68 311.38 219.60 419.08 193.38 163.18 955.81 408.19 194.65 195.84 98.79 230.36 619.76 246.65 157.59 145.98 166.00 965.45 1009.23 620.64 505.83 316.21 273.47 828.57 165.21 406.92 175.38 1039.09 873.23 267.93 43.04 121.35 263.12 197.57 266.74 179.52 1051.66 187.19 755.35 366.00 58.64 602.33 991.63 164.72 25.40 893.27 1023.61 495.05 308.02 292.89 940.06 125.46 899.65 189.79 572.77 772.61 570.66 506.49 223.15 190.74 437.85 134.52 997.33 406.60 872.54 374.59 374.71 183.16 668.47 512.50 85.39 939.80 86.72 539.44 0.00 86.40 108.73 177.60 895.49 486.02 128.50 240.39 645.12 139.34 217.17 153.59 184.20 89.96 968.54 172.57 159.29 1065.31 296.46 514.55 511.86 226.87 642.25 393.64 96.75 568.27 100.98 76.48 433.40 965.68 129.29 322.97 397.63 156.79 571.63 720.48 207.42 992.03 107.02 631.44 227.39 957.87 927.84 124.36 980.54 141.69 519.31 89.09 932.10 342.17 168.23 105.27 16.36 1029.42 120.76 171.47 547.57 1111.23 362.12 157.69 540.84 1075.50 208.44 206.09 508.62 980.02 941.51 867.66 863.73 234.03 255.01 970.43 508.14 108.55 506.96 222.02 125.55 89.74 533.19 156.55 816.82 80.52
1220.42 571.74 400.87 783.87 154.71 797.18 164.01 145.43 502.50 326.93 935.62 477.89 315.44 201.79 240.46 838.38 176.91 867.17 543.03 1002.50 470.70 854.72 434.88 839.44 254.43 945.43 81.92 363.93 1039.68 231.34 178.52 965.86 19.16 486.70 525.16 71.41 596.43 235.45 545.51 112.55 850.03 147.58 386.66 810.41 158.34 525.63 270.93 218.66 347.02 134.78 163.63 940.59 341.72 139.70 282.24 135.06 148.42 561.16 244.88 226.42 144.27 141.10 917.37 961.50 579.29 495.63 244.49 235.81 810.47 146.55 406.58 139.87 952.69 817.49 258.38 116.20 168.53 211.67 180.92 200.27 167.01 994.08 204.66 715.88 325.78 87.34 546.19 909.69 173.71 111.80 862.56 972.76 428.58 240.23 291.18 858.12 135.24 813.25 198.53 543.39 731.88 522.58 447.89 216.17 187.23 440.11 75.92 916.91 371.39 806.07 292.65 336.60 158.72 659.59 471.62 128.18 884.06 143.26 510.64 86.40 0.00 57.28 184.34 809.09 455.31 135.76 211.04 597.04 142.67 210.19 186.83 192.21 176.36 912.80 160.06 219.96 1049.24 243.47 473.55 492.97 222.35 604.20 384.50 104.42 526.92 34.51 69.50 395.92 884.55 112.49 283.61 311.23 133.33 529.03 713.09 200.31 908.38 104.93 601.68 255.23 875.93 856.15 122.65 900.12 198.73 490.74 58.38 850.16 413.58 171.61 112.94 102.76 1016.53 126.51 182.04 520.31 1029.29 334.13 119.92 465.34 993.56 160.27 124.15 495.85 946.06 859.57 858.35 784.99 167.56 198.43 925.97 439.61 169.04 497.39 191.31 120.93 107.38 479.02 154.84 811.38 105.38
1232.27 529.48 368.57 841.15 160.47 829.98 142.49 111.63 502.02 285.71 938.04 458.73 293.71 167.99 240.57 781.10 168.77 869.59 542.55 1019.06 502.14 798.24 482.34 814.55 253.95 1002.71 24.64 326.68 1054.81 174.20 135.46 969.71 76.44 458.84 582.44 77.42 653.71 178.17 534.01 78.75 829.70 174.25 349.41 843.21 107.16 495.17 240.50 181.42 328.97 123.28 127.30 977.21 341.24 90.52 282.59 105.62 150.84 549.66 204.97 169.14 108.62 106.12 974.65 962.33 569.13 450.14 224.53 250.60 798.24 180.31 377.56 88.22 1009.97 823.50 217.77 132.49 208.10 154.39 127.78 169.84 109.73 996.50 147.38 701.13 300.50 50.09 494.56 924.48 117.05 121.31 845.88 1008.08 403.30 253.12 234.14 860.54 104.88 846.05 154.14 524.23 766.60 489.03 436.39 167.94 153.43 388.05 64.42 925.22 320.44 803.83 295.07 315.91 124.36 627.21 426.13 80.19 890.07 99.57 473.69 108.73 57.28 0.00 139.34 866.37 438.63 92.70 182.75 654.32 107.02 168.05 132.93 142.29 148.44 918.81 102.78 166.06 1030.67 191.01 443.67 464.44 165.07 582.88 386.12 67.56 526.44 34.03 32.25 370.64 899.34 65.24 287.19 368.51 76.05 508.87 663.93 166.36 917.36 47.65 577.22 307.98 890.72 878.11 87.00 915.25 144.83 460.31 41.70 864.95 356.30 124.36 59.04 103.11 1051.50 92.71 147.46 508.81 1031.71 314.45 90.35 489.96 995.98 131.25 138.94 463.20 983.69 874.36 836.37 842.27 142.28 186.93 982.40 420.19 131.03 466.79 174.63 69.00 56.20 427.48 109.84 786.49 55.69
1211.51 516.44 330.15 824.80 223.71 869.85 45.48 62.85 470.19 219.85 1005.41 428.42 270.11 53.68 235.10 780.56 225.07 936.96 495.07 1021.99 441.36 797.70 412.46 811.24 372.00 999.23 156.02 394.65 1049.80 86.52 34.02 1024.44 190.45 425.17 588.06 175.84 655.46 204.18 551.52 71.79 820.01 225.96 408.12 875.11 94.32 484.03 170.62 85.55 273.82 177.34 74.77 989.76 429.53 145.25 309.02 97.79 218.21 556.61 90.45 195.15 50.85 92.84 1005.51 986.97 496.70 416.80 190.81 288.20 812.67 280.71 335.83 134.52 1003.98 867.54 178.02 190.66 230.56 194.26 73.00 160.15 82.79 1036.42 26.47 695.71 281.08 132.59 500.80 961.19 103.32 173.02 887.61 1013.69 407.93 282.21 194.28 927.91 75.91 885.92 33.65 479.79 753.59 472.14 447.21 75.06 58.41 345.56 151.33 989.32 263.16 803.29 287.95 258.73 67.18 596.35 409.24 116.62 934.11 124.29 456.80 177.60 184.34 139.34 0.00 888.87 427.19 59.82 71.47 659.94 53.02 115.64 111.44 43.15 225.99 962.85 89.74 137.78 1055.89 163.95 373.79 420.05 131.67 553.69 416.18 116.01 494.61 152.08 140.11 306.35 934.96 74.10 251.50 484.23 75.51 444.58 668.71 46.70 984.01 111.21 571.80 334.43 949.20 894.88 61.69 982.62 99.54 446.35 131.85 939.83 473.29 53.00 113.45 161.24 912.16 70.27 77.52 450.90 1099.08 231.17 89.81 432.27 1044.11 192.03 226.72 426.47 965.55 941.08 826.68 844.02 146.91 272.70 985.00 424.82 143.30 447.92 123.99 96.20 107.91 415.62 29.50 800.92 97.69
519.79 514.76 680.73 64.07 788.44 135.29 860.74 916.39 594.37 800.30 264.10 631.92 729.54 929.90 1049.55 213.08 973.40 219.35 618.23 272.53 714.85 195.94 704.45 130.09 652.52 136.34 885.50 610.53 339.05 892.09 922.89 394.63 828.25 654.45 397.95 880.50 251.51 981.88 704.49 920.20 165.21 956.67 633.26 148.52 936.59 621.26 785.03 886.51 701.67 859.95 934.77 191.88 819.69 820.36 1067.42 932.04 795.47 697.48 893.06 972.85 912.70 869.12 116.64 243.44 576.89 629.00 776.53 714.07 112.64 888.69 670.34 862.61 396.64 178.85 806.35 925.29 977.62 810.88 815.87 804.52 847.82 291.05 879.66 419.84 725.92 896.43 657.38 199.97 871.30 915.81 158.10 252.96 694.50 766.42 823.24 213.39 909.15 151.36 918.04 597.67 253.41 607.36 621.36 866.27 939.46 764.63 872.60 198.93 801.40 217.14 678.09 856.23 867.01 588.12 653.01 897.10 184.69 938.87 641.32 895.49 809.09 866.37 888.87 0.00 786.91 906.94 908.66 338.73 916.42 858.51 907.62 932.02 963.94 213.43 840.87 933.96 255.59 777.38 706.53 852.05 856.94 519.90 607.50 913.51 600.16 843.60 878.59 832.26 166.64 913.09 803.24 497.86 867.64 697.25 587.09 883.39 188.00 914.02 484.00 1064.32 166.21 156.25 910.10 199.49 895.72 613.99 867.47 179.10 859.97 853.97 922.03 911.85 436.01 914.21 936.88 626.56 263.05 811.79 881.94 676.23 256.84 869.16 771.20 647.11 216.09 188.51 137.99 134.16 867.15 779.50 206.50 626.76 930.69 626.34 849.62 930.02 916.47 662.27 897.69 124.39 914.47
987.70 298.88 262.31 733.54 422.86 651.62 431.95 467.89 219.27 290.59 804.13 180.68 258.90 465.48 614.82 619.79 573.02 735.68 235.55 881.74 108.84 636.93 96.91 692.38 564.80 844.01 446.61 449.95 806.96 376.02 445.22 938.15 473.11 171.26 404.43 440.92 573.48 536.94 174.16 462.88 664.68 547.00 427.22 664.85 498.32 165.65 294.25 377.87 286.00 415.18 489.31 817.08 653.29 420.08 678.51 484.57 450.62 189.81 389.56 545.97 455.89 420.26 890.88 760.02 253.86 222.10 308.11 513.13 689.74 581.86 288.49 428.99 820.73 674.29 334.77 512.31 597.87 373.98 387.08 349.00 390.44 839.61 408.92 424.03 268.14 427.38 215.29 744.33 387.65 500.85 662.99 854.34 192.39 372.52 302.76 742.69 501.41 667.69 449.56 210.94 566.64 179.55 265.53 386.34 469.61 114.52 458.70 747.49 176.37 652.19 334.11 243.37 415.01 321.62 218.66 466.73 740.86 489.75 174.65 486.02 455.31 438.63 427.19 786.91 0.00 466.27 355.72 474.91 458.06 344.44 487.23 467.74 538.32 769.60 383.49 454.10 951.30 305.80 91.08 93.47 360.47 279.23 421.05 442.97 228.05 420.80 445.22 182.15 737.97 477.49 238.46 491.30 428.65 143.67 384.88 413.88 736.56 473.51 302.91 685.27 725.48 674.42 464.59 748.05 492.34 183.62 396.93 723.40 737.80 440.34 451.49 499.03 762.76 448.92 495.47 191.38 897.80 261.93 433.73 127.37 826.87 371.28 450.19 181.59 829.25 720.62 715.15 681.81 410.51 487.71 817.16 256.15 509.42 171.27 383.61 473.79 448.25 139.90 434.54 689.25 458.47
1226.78 509.48 367.30 842.87 181.41 841.06 71.10 24.51 489.11 251.56 965.01 429.78 267.79 83.50 230.43 772.21 215.44 901.38 509.86 1038.25 473.34 755.07 437.52 824.90 332.77 965.57 110.11 385.04 1086.60 123.08 42.76 1038.85 140.95 419.73 616.91 129.09 655.43 158.99 574.72 23.21 807.37 179.64 407.77 851.80 80.35 485.39 195.68 125.75 311.22 167.76 58.89 999.59 380.95 159.66 273.35 60.48 182.63 569.09 150.27 168.02 26.71 81.26 1010.38 977.78 540.18 416.77 206.51 271.68 838.37 255.88 376.54 133.40 1063.80 875.17 169.04 154.73 226.10 187.30 107.78 174.61 75.83 1028.29 78.26 705.86 265.99 72.77 522.46 924.01 79.75 139.08 901.54 1031.76 435.18 258.64 181.64 892.33 60.70 857.13 62.77 479.20 738.50 476.50 465.60 107.71 67.15 352.88 121.24 953.80 311.34 802.56 322.64 265.89 74.34 602.52 440.78 89.38 927.95 100.15 460.53 128.50 135.76 92.70 59.82 906.94 466.27 0.00 131.29 681.40 17.35 137.30 102.24 56.45 190.32 956.69 82.78 127.95 1065.36 181.91 398.85 428.79 121.27 577.60 417.56 67.43 513.53 112.85 90.61 311.96 927.37 34.87 268.72 446.99 74.78 450.19 644.15 98.49 942.87 62.93 581.95 285.85 936.56 897.89 13.11 947.04 105.51 443.90 103.22 911.33 449.00 52.97 71.64 121.11 971.98 26.86 87.56 502.69 1063.50 273.45 89.08 445.81 1027.77 183.34 206.90 408.61 981.81 917.62 841.14 830.33 181.69 243.75 984.97 459.60 123.96 439.05 139.26 49.22 76.62 438.77 35.11 850.12 83.64
1231.30 513.20 356.88 844.59 246.29 856.50 76.80 130.49 467.27 158.90 999.87 418.74 213.50 109.76 305.41 845.62 276.09 937.28 481.09 1052.40 387.80 828.48 404.92 782.30 403.08 1019.02 169.86 398.80 1057.09 20.30 89.50 1059.67 230.20 402.10 546.26 225.53 697.39 257.25 485.96 141.54 803.65 280.69 410.17 846.17 165.79 441.45 172.67 22.15 300.55 208.66 133.59 990.49 478.47 194.98 377.12 169.26 218.53 501.61 33.84 248.22 122.32 118.60 1025.30 974.06 503.99 388.66 135.86 298.44 821.63 352.18 354.98 152.73 1064.79 851.18 161.48 229.64 287.24 190.11 92.79 143.79 107.74 1029.61 53.20 674.82 236.06 203.06 484.26 952.69 107.71 240.87 897.05 1033.48 407.69 286.60 128.24 928.23 147.38 870.63 93.84 482.09 708.57 427.55 394.95 63.59 113.89 319.62 213.08 970.35 273.12 867.11 307.74 217.09 100.65 574.41 364.65 188.09 917.75 195.76 412.21 240.39 211.04 182.75 71.47 908.66 355.72 131.29 0.00 618.14 124.49 99.10 170.59 112.02 297.46 946.49 100.79 196.93 1075.68 152.48 375.84 413.14 115.13 551.26 441.87 164.95 451.62 206.30 193.85 251.99 918.60 145.57 205.51 490.59 146.98 390.22 623.17 58.16 965.05 158.70 550.91 404.18 932.84 884.54 131.44 953.56 158.69 400.81 193.24 934.78 523.11 94.93 156.43 224.03 983.63 130.27 139.75 460.75 1099.40 220.51 135.06 425.70 987.76 199.29 242.80 401.72 995.96 930.74 810.32 808.88 166.70 265.44 975.87 426.90 206.88 413.16 143.78 167.55 177.55 380.43 100.97 810.36 169.16
684.09 176.03 401.58 285.91 499.99 287.20 639.44 691.30 255.64 570.48 439.71 310.62 482.14 689.26 799.18 278.62 748.87 371.26 279.50 498.95 388.78 261.48 383.15 242.40 560.42 460.34 644.85 333.49 503.35 597.84 693.96 501.88 577.88 333.15 71.88 601.19 181.26 768.84 382.99 664.21 306.46 706.30 310.76 300.43 666.35 309.26 505.04 620.27 423.78 578.48 706.75 442.14 644.54 601.67 830.56 664.81 527.75 367.34 643.87 777.87 683.95 648.56 455.37 470.55 246.75 302.93 482.28 526.17 226.09 706.13 371.32 593.62 511.31 304.71 542.32 688.16 727.25 583.98 617.04 552.79 609.68 483.14 657.89 150.33 450.57 645.76 333.28 407.36 633.16 670.52 301.03 474.80 367.62 455.04 543.54 380.31 680.52 303.27 660.37 300.04 134.84 295.36 325.01 584.88 695.71 512.72 606.52 426.04 462.67 283.17 434.99 557.44 631.62 288.36 324.58 639.38 348.89 665.46 323.78 645.12 597.04 654.32 659.94 338.73 474.91 681.40 618.14 0.00 686.12 581.32 722.23 689.56 711.72 377.63 602.73 748.57 503.26 515.80 385.23 529.23 574.37 223.37 296.12 645.18 274.09 626.43 627.92 498.77 373.46 649.60 504.45 405.76 663.08 442.41 336.84 637.66 415.11 678.39 192.24 852.27 382.71 343.43 671.36 420.62 710.33 292.69 644.88 356.94 701.63 657.57 651.11 661.48 419.49 676.39 717.81 314.54 533.38 509.03 652.97 354.93 489.34 611.40 530.55 327.98 442.51 366.35 265.18 218.61 565.94 557.47 427.52 288.03 700.95 305.04 594.40 671.70 615.39 344.35 662.60 214.34 625.61
1243.55 518.94 366.15 857.14 191.39 851.94 60.47 11.95 477.52 258.47 952.48 436.69 274.70 71.82 213.08 763.93 207.16 884.03 504.31 1036.98 481.82 746.79 449.60 816.62 339.68 969.96 103.00 380.32 1069.25 122.14 57.85 1027.53 138.92 426.64 614.24 146.44 672.78 176.34 568.87 30.12 799.09 183.74 403.05 843.52 63.00 492.30 213.03 115.12 309.82 151.34 76.24 1002.14 382.47 148.34 256.00 64.87 165.28 571.61 143.47 181.68 16.27 63.91 1005.53 969.50 544.70 434.12 203.84 281.66 830.09 248.22 382.89 128.54 1057.00 865.22 175.95 146.45 224.58 196.76 105.34 162.05 93.18 1010.94 79.49 710.70 272.90 90.12 526.35 930.92 96.52 130.80 893.26 1037.11 440.27 253.79 188.55 874.98 43.35 868.01 80.12 466.64 745.41 483.41 462.93 114.94 54.66 352.98 138.59 939.66 299.75 816.18 305.29 266.34 91.69 601.39 445.24 82.04 931.79 91.87 467.44 139.34 142.67 107.02 53.02 916.42 458.06 17.35 124.49 686.12 0.00 144.16 93.55 68.99 172.97 960.53 92.24 126.40 1074.82 170.32 410.93 443.88 138.62 587.06 412.71 68.95 501.94 119.76 107.79 300.37 928.37 41.78 266.50 453.90 88.40 438.60 651.06 99.72 931.80 72.82 586.79 287.55 919.75 889.61 20.02 929.69 88.16 450.81 108.87 893.98 441.97 70.32 60.43 128.02 965.18 18.58 76.04 495.53 1046.15 280.82 85.09 463.16 1010.42 177.89 189.55 415.52 980.54 903.39 828.58 822.05 179.25 244.78 1000.63 452.25 111.02 445.96 156.03 56.13 83.53 445.68 23.52 841.84 88.52
1150.79 474.35 282.93 794.44 190.35 784.62 87.51 143.16 414.29 187.24 937.13 359.93 192.59 149.18 325.15 808.20 251.69 868.68 452.44 953.30 386.34 791.06 350.52 738.64 347.14 968.87 186.93 344.92 1023.43 99.87 149.66 960.57 191.03 337.40 509.44 198.34 708.10 288.55 452.25 147.17 760.70 282.84 322.19 797.85 189.00 388.47 114.82 82.76 226.60 136.69 163.77 891.39 413.47 121.05 387.83 183.78 162.59 464.83 78.53 290.11 139.47 80.25 974.68 922.44 470.33 386.03 99.04 280.62 777.97 319.28 316.66 105.56 1039.23 808.23 62.38 243.46 296.88 109.03 42.64 100.84 62.92 973.60 106.43 621.84 210.50 158.53 385.16 904.78 82.48 229.90 805.47 956.46 335.73 222.94 157.55 872.29 187.51 800.69 113.58 425.43 683.01 374.57 358.13 41.90 155.95 229.92 149.60 923.46 220.78 837.40 257.59 174.09 90.27 543.34 362.02 169.91 874.80 176.80 378.33 217.17 210.19 168.05 115.64 858.51 344.44 137.30 99.10 581.32 144.16 0.00 200.76 158.79 280.51 903.54 67.64 213.01 977.97 91.35 311.85 350.92 16.03 502.05 380.74 146.15 438.71 180.01 140.69 261.08 875.65 144.66 168.69 457.59 109.62 380.59 586.35 97.58 912.53 149.06 497.93 409.81 889.89 843.59 137.07 916.74 212.66 363.99 165.18 891.29 505.29 105.64 149.75 229.89 993.25 140.67 165.88 421.87 1030.80 208.19 101.43 342.00 996.63 131.46 186.86 346.56 896.86 889.79 767.37 787.97 86.00 200.08 876.77 363.91 221.58 370.28 63.27 166.76 167.85 343.61 124.46 766.70 165.72
1264.38 571.49 413.11 914.05 248.90 919.65 132.83 95.07 547.01 281.13 1032.50 500.57 325.58 121.83 193.85 853.74 176.50 966.01 557.36 1103.11 510.03 836.60 507.79 855.59 372.24 970.52 145.81 393.78 1141.15 160.01 81.09 1007.62 181.08 478.04 650.35 162.64 726.61 115.97 625.67 94.43 874.71 174.53 416.51 919.46 58.24 540.33 266.22 174.14 385.26 222.90 43.35 1058.60 395.93 202.71 272.70 65.43 247.26 620.49 197.08 125.00 80.87 153.64 1017.39 1024.49 594.59 487.54 245.73 280.76 894.92 279.73 438.55 178.30 1115.42 908.72 234.57 145.83 221.26 244.06 169.79 214.85 137.84 1087.15 137.91 770.44 337.21 114.54 563.93 968.50 161.55 128.19 928.68 1092.13 420.49 310.13 262.25 956.96 76.53 935.72 115.89 542.08 809.72 526.43 493.63 165.22 73.52 430.68 182.90 1021.64 370.68 880.34 362.80 327.58 136.03 619.45 463.53 91.88 962.10 78.28 511.09 153.59 186.83 132.93 111.44 907.62 487.23 102.24 170.59 722.23 93.55 200.76 0.00 68.29 204.48 990.84 144.79 33.13 1094.15 249.02 469.12 467.12 205.87 636.40 454.73 82.41 571.43 152.32 130.74 379.07 932.32 101.38 315.38 496.33 152.56 517.30 674.21 147.53 1013.78 101.17 646.53 304.25 974.77 958.34 102.49 1011.67 11.90 505.32 128.45 949.00 437.21 124.15 73.89 166.22 1023.60 108.39 60.17 513.19 1128.13 342.61 143.68 516.99 1087.96 226.48 222.99 479.83 1052.90 958.41 881.38 857.83 231.99 284.82 1056.15 501.87 68.71 510.27 176.86 79.28 106.84 472.98 102.22 883.65 101.98
1254.66 547.63 373.30 867.95 237.86 897.51 88.63 65.90 513.34 230.32 1021.46 471.57 293.36 64.42 252.31 823.70 189.71 953.02 538.22 1065.14 459.22 806.56 439.50 848.88 377.88 984.68 162.15 425.29 1092.95 91.72 43.73 1052.11 194.05 454.00 617.68 185.54 698.61 177.27 557.38 79.66 858.86 205.97 429.92 903.16 90.09 507.14 213.77 114.15 316.97 216.28 31.62 1032.91 427.44 188.40 324.99 103.89 234.27 573.03 133.60 186.30 52.72 132.90 1031.55 1029.27 539.85 459.95 207.28 289.34 855.82 297.30 378.98 172.93 1047.13 910.51 221.17 176.44 234.90 225.45 116.15 203.12 125.94 1079.57 69.62 718.31 278.44 129.22 543.95 980.46 136.20 158.80 930.76 1056.84 450.93 298.40 199.66 943.97 69.82 913.58 53.56 520.59 750.95 493.24 466.37 118.21 22.34 388.71 176.71 1008.65 306.31 846.44 294.51 288.51 110.33 594.59 436.07 116.55 977.08 97.48 483.63 184.20 192.21 142.29 43.15 932.02 467.74 56.45 112.02 689.56 68.99 158.79 68.29 0.00 241.96 1005.82 120.93 94.63 1099.04 207.10 400.83 429.76 174.82 596.84 457.32 113.92 530.73 157.96 143.71 344.76 970.78 91.32 271.41 444.76 118.66 482.99 694.59 89.85 999.32 111.27 594.40 335.77 988.05 938.03 69.56 998.68 56.39 472.23 159.67 962.97 469.05 96.15 105.40 177.56 955.31 78.35 35.31 494.05 1115.14 274.32 132.96 469.96 1079.41 230.96 250.94 465.06 1008.70 969.11 869.65 846.10 190.06 297.12 1028.15 441.47 100.15 481.02 167.14 105.67 124.50 451.85 67.91 844.07 114.28
1340.23 669.00 489.96 957.11 286.52 945.36 233.44 184.92 633.25 409.94 1069.86 566.01 424.78 225.22 137.65 902.49 63.18 1001.41 610.19 1085.65 617.59 919.63 581.77 912.81 311.42 1031.64 149.01 422.65 1176.55 295.11 230.82 932.65 157.20 575.50 639.84 185.38 772.79 230.16 674.26 180.20 892.51 41.18 445.38 957.80 172.77 602.45 358.28 288.09 466.03 263.53 214.69 1005.00 460.30 214.89 184.27 171.23 282.66 689.56 316.44 228.98 189.24 222.83 1055.41 1062.92 676.41 572.46 348.90 322.51 897.29 75.25 473.71 227.68 1129.05 931.46 326.03 92.23 63.30 302.83 263.93 287.62 240.98 1109.89 246.16 828.76 422.98 125.43 615.89 1043.93 238.44 94.12 945.57 1072.80 533.25 374.47 353.85 992.36 186.94 961.43 253.09 631.51 840.62 613.40 576.64 286.49 227.63 510.43 204.67 1057.04 444.81 925.22 422.03 429.56 238.01 707.01 550.50 145.80 998.03 155.44 579.17 89.96 176.36 148.44 225.99 963.94 538.32 190.32 297.46 711.72 172.97 280.51 204.48 241.96 0.00 1026.77 247.93 171.35 1153.76 315.38 561.45 563.37 273.63 709.04 483.60 151.60 639.66 165.26 139.82 473.34 1018.79 167.74 411.56 466.08 197.44 611.57 770.44 266.39 1049.18 173.81 721.40 173.74 1010.17 986.07 185.32 1047.07 209.59 548.08 141.39 984.40 386.40 226.86 157.53 87.75 1119.38 191.55 217.58 618.96 1163.53 425.61 209.20 610.32 1127.80 255.62 258.39 565.60 1029.21 993.81 936.38 930.33 272.23 314.87 1019.62 550.14 147.00 560.43 274.32 179.95 121.81 571.64 196.49 885.54 132.03
370.94 553.66 716.96 149.36 823.01 142.38 934.72 952.80 624.15 855.42 113.14 634.82 809.97 997.67 1104.12 221.32 1033.06 99.57 599.54 168.22 687.65 227.66 707.35 166.90 800.00 214.61 897.06 663.56 251.29 928.90 991.88 479.82 901.30 640.12 449.51 841.39 336.80 1058.56 683.60 953.68 181.27 1007.65 640.83 130.93 956.75 603.95 847.43 945.54 773.29 870.68 974.20 94.37 892.46 859.26 1164.38 925.41 795.25 667.95 912.65 1062.69 965.20 939.92 167.74 174.20 547.36 664.92 813.34 861.55 175.04 999.94 687.34 876.78 301.08 95.31 843.16 972.35 1050.67 817.97 889.85 802.70 921.80 178.75 937.74 406.20 797.36 915.83 666.18 56.20 907.31 954.71 249.98 135.11 673.04 832.67 874.60 99.12 945.96 126.31 978.57 625.42 324.85 614.45 599.90 903.08 1010.56 831.81 892.11 107.83 782.29 312.15 739.58 854.41 940.99 584.98 666.07 933.91 28.74 968.40 641.61 968.54 912.80 918.81 962.85 213.43 769.60 956.69 946.49 377.63 960.53 903.54 990.84 1005.82 1026.77 0.00 914.85 1019.54 243.13 814.19 709.43 863.07 887.51 490.37 673.75 921.62 599.73 884.78 924.10 850.07 58.52 945.34 801.42 645.34 926.37 745.79 522.08 957.37 118.76 942.11 491.09 1168.03 80.19 104.31 943.58 111.73 990.76 616.89 885.38 73.34 979.11 939.26 930.14 984.90 366.77 955.87 992.76 614.29 249.57 809.36 927.11 679.13 175.66 881.21 799.35 629.00 111.78 69.23 136.17 236.38 891.78 869.55 108.99 637.77 997.69 629.24 847.80 952.56 932.57 656.84 960.99 163.29 922.35
1163.51 426.70 302.84 776.80 195.53 780.11 50.19 104.19 459.52 187.26 932.62 399.70 225.06 132.20 305.32 765.40 262.24 864.17 492.21 988.93 416.16 782.06 399.82 777.37 347.54 951.23 127.42 344.21 1036.55 101.07 115.01 992.75 179.22 377.17 564.78 130.70 659.31 241.77 501.96 87.62 772.01 238.82 358.47 793.34 133.03 447.84 165.35 78.64 246.51 124.43 124.20 956.70 398.20 118.64 348.24 124.89 167.77 486.31 102.19 250.80 102.15 45.83 957.51 942.42 483.45 405.94 154.38 248.63 786.55 283.09 307.66 84.08 1033.67 819.54 114.99 201.53 285.28 104.52 25.00 112.15 6.95 969.09 88.79 639.62 256.63 152.87 444.69 900.27 30.43 185.88 858.08 965.69 359.93 209.32 131.36 873.22 135.14 796.18 109.18 465.20 729.14 433.94 413.47 65.16 98.59 297.56 135.80 913.48 252.49 788.13 239.95 213.88 31.52 539.03 381.93 140.82 886.11 146.95 418.10 172.57 160.06 102.78 89.74 840.87 383.49 82.78 100.79 602.73 92.24 67.64 144.79 120.93 247.93 914.85 0.00 163.14 982.58 130.08 364.46 397.18 62.29 494.82 368.24 117.06 483.94 136.81 135.03 303.34 886.96 94.15 212.70 413.31 60.35 441.57 607.47 82.15 908.02 114.64 524.86 350.26 895.88 839.08 81.10 913.53 156.69 402.62 138.17 891.83 459.08 56.85 122.56 188.93 1001.90 73.66 128.56 465.71 1026.29 223.63 50.24 401.51 996.11 116.19 176.28 388.29 932.49 885.28 778.68 820.44 98.91 235.33 944.41 376.82 179.84 410.05 75.99 113.63 126.12 377.61 87.14 798.30 127.41
1297.51 589.84 446.24 934.56 275.24 940.26 149.24 128.20 580.14 314.26 1058.84 515.79 351.92 148.17 160.72 883.95 143.37 999.14 590.49 1111.68 522.30 869.73 486.48 885.82 388.23 999.22 178.94 426.91 1173.15 186.35 107.43 1033.96 214.21 511.17 676.69 195.77 759.74 82.84 628.26 127.56 907.84 161.14 449.64 949.69 84.58 571.40 244.64 203.89 404.27 241.98 76.48 1031.03 429.06 235.84 304.62 94.13 280.39 634.29 225.05 91.87 114.00 166.52 1046.09 1057.62 623.55 520.67 272.07 313.89 917.03 246.60 445.38 198.35 1141.76 941.85 263.27 118.26 188.56 264.67 182.76 247.98 158.97 1120.28 164.25 796.78 370.34 146.65 594.21 997.20 167.76 133.89 961.81 1098.83 453.62 343.26 279.64 990.09 106.76 956.33 142.23 575.21 842.85 559.56 526.76 171.11 99.86 440.89 216.03 1054.77 389.43 906.68 389.14 323.17 131.62 645.79 496.66 125.01 990.80 100.10 544.22 159.29 219.96 166.06 137.78 933.96 454.10 127.95 196.93 748.57 126.40 213.01 33.13 94.63 171.35 1019.54 163.14 0.00 1122.85 260.00 447.81 493.46 225.43 657.96 487.86 115.54 604.56 185.45 163.87 412.20 961.02 134.51 329.18 488.15 178.90 550.43 707.34 173.55 1046.91 134.30 672.87 288.25 1003.66 991.47 135.62 1044.80 38.24 533.72 161.58 982.13 463.55 157.28 107.02 158.16 1049.94 141.52 86.51 546.32 1161.26 365.16 170.02 506.29 1116.66 256.38 256.12 512.96 1055.24 991.54 914.51 890.96 256.67 313.50 1045.65 528.21 55.32 528.00 209.99 112.41 133.18 506.11 135.35 913.07 130.66
479.93 679.29 882.03 265.37 983.34 325.55 1027.76 1081.64 758.90 988.33 278.03 813.88 957.39 1102.01 1209.05 385.87 1122.24 282.05 782.76 207.19 890.21 383.97 854.39 316.98 908.11 123.63 1050.77 836.75 362.31 1075.96 1075.98 341.46 1037.16 823.29 575.14 1060.50 452.81 1161.87 886.25 1065.99 348.83 1112.58 814.02 318.70 1060.06 786.62 973.06 1053.53 916.47 956.36 1076.69 148.76 1057.99 984.89 1261.15 1028.72 980.29 870.60 1055.30 1170.90 1079.72 1024.02 138.95 337.32 750.01 806.19 963.42 964.01 300.67 1144.28 848.34 1025.90 428.18 314.42 938.69 1061.53 1167.43 908.68 982.89 951.58 989.53 312.84 1046.68 566.38 940.79 1080.76 836.54 245.64 991.41 1079.17 375.61 157.66 846.58 890.69 1024.68 273.00 1062.79 309.48 1070.76 788.81 468.28 797.62 773.44 1019.87 1081.17 979.50 1015.22 298.02 964.67 367.53 879.39 1046.52 1014.10 771.10 818.36 1063.66 247.85 1090.03 818.98 1065.31 1049.24 1030.67 1055.89 255.59 951.30 1065.36 1075.68 503.26 1074.82 977.97 1094.15 1099.04 1153.76 243.13 982.58 1122.85 0.00 964.27 888.49 940.12 991.39 709.48 799.38 1070.85 777.35 1064.70 1062.92 1002.03 265.78 1076.73 1004.43 753.45 1032.41 898.55 765.21 1050.41 308.95 1078.32 674.26 1270.90 225.82 277.85 1063.68 299.64 1094.07 795.95 1064.83 251.59 1104.74 1039.43 1079.37 1081.67 520.00 1056.24 1084.16 759.92 368.01 999.82 1032.82 840.27 254.00 971.92 977.60 812.17 154.23 251.61 339.18 362.01 984.04 1005.88 134.14 791.29 1120.35 808.30 931.90 1076.42 1078.14 835.09 1064.71 288.92 1082.16
1127.65 416.07 259.34 742.40 196.13 723.53 147.49 180.15 336.46 121.72 876.04 316.40 127.07 189.76 375.95 716.85 343.04 807.59 376.99 935.51 325.05 699.71 294.99 647.29 342.51 897.39 166.37 306.92 966.35 149.08 197.97 996.58 243.90 309.45 443.92 222.04 688.56 321.48 416.94 174.80 703.06 325.24 284.19 711.16 211.62 352.84 53.15 131.35 203.01 159.77 210.76 902.75 410.25 153.70 426.32 198.11 168.46 401.29 139.07 312.45 168.15 163.36 894.02 873.47 413.25 324.22 33.52 286.40 686.62 344.73 225.31 182.30 951.32 718.88 28.97 304.59 347.86 68.18 130.35 43.20 123.13 897.31 171.31 593.72 158.64 237.82 402.72 826.30 146.84 293.04 762.04 911.85 302.32 205.07 67.58 816.64 213.67 738.14 164.38 380.86 631.15 366.22 292.61 88.89 196.37 197.04 212.35 843.06 129.43 798.12 190.52 149.17 150.48 477.82 312.77 233.05 785.45 241.59 329.56 296.46 243.47 191.01 163.95 777.38 305.80 181.91 152.48 515.80 170.32 91.35 249.02 207.10 315.38 814.19 130.08 260.00 964.27 0.00 256.32 305.54 79.56 448.92 289.39 209.68 360.88 208.96 222.38 202.23 790.12 189.41 96.18 384.61 167.40 340.46 520.83 151.08 846.93 217.25 469.93 437.44 813.70 760.09 178.99 835.44 248.60 298.47 216.05 806.30 511.07 161.66 218.20 286.99 935.29 188.76 223.10 366.19 969.71 146.70 175.50 314.80 938.15 128.24 191.74 313.15 879.07 806.29 681.84 721.20 137.21 237.77 890.36 326.53 275.55 310.82 88.30 200.81 231.38 278.09 146.80 675.35 223.28
937.56 252.15 240.76 642.46 394.92 612.33 350.46 406.11 172.54 303.39 717.38 99.69 256.34 425.27 597.63 588.33 563.54 696.39 165.81 815.31 74.49 571.67 38.67 623.73 517.03 785.77 419.03 378.10 756.82 388.29 407.81 855.35 492.71 113.07 313.35 469.45 482.40 530.65 213.76 395.30 573.60 553.76 362.96 625.56 449.95 146.91 203.17 387.67 194.92 376.74 432.45 743.05 632.87 381.64 650.78 418.61 387.26 198.78 342.00 539.68 402.42 384.65 815.16 677.22 203.72 131.85 289.84 485.19 598.66 566.39 217.53 357.42 755.69 644.32 249.47 508.82 588.47 307.93 343.52 273.83 371.41 783.70 390.34 381.35 287.91 455.91 157.05 653.25 352.04 500.82 644.25 773.92 136.48 324.75 280.35 703.40 432.68 613.32 386.06 128.14 508.40 140.26 184.13 345.21 422.92 144.96 435.60 691.58 199.69 668.40 243.03 257.51 388.18 262.89 147.70 453.55 680.69 458.55 112.67 514.55 473.55 443.67 373.79 706.53 91.08 398.85 375.84 385.23 410.93 311.85 469.12 400.83 561.45 709.43 364.46 447.81 888.49 256.32 0.00 184.55 302.17 260.49 365.14 432.29 171.56 439.59 452.54 172.90 678.81 409.30 238.60 400.22 389.96 109.71 314.90 403.04 680.65 438.00 263.62 657.94 667.24 655.68 405.40 692.14 457.22 92.54 425.46 649.61 701.20 368.59 440.81 509.53 704.52 403.93 428.83 133.14 858.51 188.08 402.18 69.13 772.71 350.86 411.53 110.63 767.26 640.20 650.41 603.84 324.30 433.90 757.67 197.96 496.05 80.19 292.53 421.31 453.99 83.99 387.41 599.57 451.86
1080.51 353.20 337.59 787.98 485.65 729.68 427.24 433.88 273.59 257.17 869.20 266.17 288.88 426.77 616.22 668.46 585.02 813.74 293.50 842.33 202.31 685.60 190.38 746.70 621.11 898.32 450.43 504.24 899.77 394.57 386.03 995.82 512.13 264.73 469.05 473.13 600.54 576.30 267.63 452.00 737.90 559.61 520.69 742.91 483.11 259.12 293.90 417.00 369.17 465.31 430.12 810.10 711.81 439.91 691.06 484.78 466.84 283.28 417.53 585.33 432.44 431.17 932.45 817.69 346.67 257.99 279.01 575.92 754.36 614.36 339.56 454.66 912.53 767.76 334.51 524.31 570.09 366.56 382.37 348.74 404.13 924.80 446.16 504.88 320.45 472.66 208.90 817.19 419.95 506.67 756.46 877.90 277.02 465.99 296.44 820.45 468.32 745.75 427.21 268.61 624.59 257.61 323.01 392.82 410.42 146.82 500.52 832.68 254.17 745.66 427.58 262.35 428.35 370.39 233.98 465.55 834.33 491.63 268.12 511.86 492.97 464.44 420.05 852.05 93.47 428.79 413.14 529.23 443.88 350.92 467.12 429.76 563.37 863.07 397.18 493.46 940.12 305.54 184.55 0.00 334.89 372.70 514.52 450.91 298.01 498.47 476.80 214.45 826.07 463.66 209.36 584.77 433.39 154.80 403.81 430.32 828.52 486.71 380.97 704.39 783.43 767.89 441.90 829.13 455.22 248.24 490.40 805.31 800.59 445.37 459.43 528.22 820.71 455.65 448.11 249.33 975.86 259.88 447.42 220.84 904.93 429.80 480.17 271.05 785.89 795.90 781.25 743.84 415.03 543.31 805.98 332.78 503.41 260.59 383.26 478.01 441.56 233.37 449.55 743.57 431.34
1164.88 488.99 298.96 810.47 177.35 768.59 103.54 145.78 416.02 180.29 921.10 356.27 185.64 154.70 334.57 796.41 267.72 852.65 448.78 969.33 376.66 779.27 340.84 726.85 363.17 966.89 170.90 360.95 1019.77 115.90 164.03 976.60 207.06 333.74 502.49 192.99 721.60 277.44 464.45 144.48 744.67 266.81 338.22 781.82 178.45 404.41 105.14 98.79 242.63 152.72 162.52 907.42 429.50 105.02 394.62 172.25 178.62 448.80 94.56 286.47 147.98 96.28 973.58 906.41 466.67 388.77 92.09 267.62 766.18 332.71 304.87 121.59 1023.20 792.20 52.70 231.51 312.91 93.00 58.67 84.81 69.24 957.57 122.46 634.34 194.47 168.23 401.19 888.75 92.72 213.87 795.79 972.49 326.05 238.97 147.14 861.70 181.97 784.66 129.61 421.77 666.98 390.51 351.18 57.93 160.88 245.95 165.63 907.43 208.99 826.28 264.48 173.14 93.81 536.39 364.76 153.88 858.77 176.90 374.67 226.87 222.35 165.07 131.67 856.94 360.47 121.27 115.13 574.37 138.62 16.03 205.87 174.82 273.63 887.51 62.29 225.43 991.39 79.56 302.17 334.89 0.00 507.49 368.95 130.12 432.03 196.04 156.72 268.37 859.62 156.14 161.74 454.85 98.50 396.62 579.40 113.61 896.50 165.09 510.43 407.12 873.86 827.56 134.38 902.01 217.77 357.04 176.16 875.80 492.29 119.14 138.64 230.97 993.86 135.95 181.91 424.76 1014.77 192.16 112.53 358.03 996.88 147.49 202.89 336.88 912.89 873.76 751.34 781.02 102.03 216.11 892.80 379.94 221.68 366.62 77.36 161.06 151.82 336.66 140.49 754.91 149.69
789.35 68.12 273.37 504.91 513.13 384.61 545.01 589.74 133.78 429.16 537.12 167.39 337.81 558.59 775.48 351.78 693.49 468.67 138.83 611.69 205.05 368.92 228.98 438.75 571.09 648.79 584.11 335.72 608.61 530.96 587.71 725.25 618.42 183.15 151.49 567.80 404.63 701.31 193.23 573.96 421.22 703.53 312.99 397.84 616.16 113.58 438.54 541.85 315.87 531.86 614.88 562.42 646.77 518.23 832.86 600.73 485.37 177.58 517.47 710.34 596.97 540.65 636.54 535.98 56.99 196.86 415.40 581.98 436.80 687.92 255.05 534.58 569.94 395.06 472.74 668.23 738.68 458.73 519.82 458.42 501.77 573.49 527.22 144.80 331.43 583.61 178.11 504.77 525.25 650.59 383.76 598.53 229.45 426.49 431.51 475.68 623.72 400.68 570.55 135.05 311.23 127.48 156.31 513.24 593.41 344.84 528.28 485.84 340.81 506.54 341.14 409.36 526.34 107.65 190.38 594.79 461.63 599.20 151.24 642.25 604.20 582.88 553.69 519.90 279.23 577.60 551.26 223.37 587.06 502.05 636.40 596.84 709.04 490.37 494.82 657.96 709.48 448.92 260.49 372.70 507.49 0.00 385.04 571.03 109.36 595.68 589.76 377.86 491.41 572.34 356.37 448.39 555.17 263.38 181.30 506.99 480.54 535.23 35.90 836.60 500.38 443.58 575.92 469.05 648.30 167.95 611.79 477.66 703.86 551.67 562.51 654.84 530.40 568.48 613.77 154.84 630.79 394.15 545.06 198.61 559.86 501.36 508.47 188.56 555.25 487.07 435.92 430.48 472.09 526.87 575.34 194.18 643.98 180.30 484.33 572.39 598.23 211.07 581.96 437.71 590.60
938.16 424.29 315.40 582.03 251.57 583.32 418.32 400.76 368.95 387.58 693.38 304.51 363.24 469.86 547.70 569.68 489.38 659.85 363.47 795.07 396.69 557.60 360.87 538.52 264.30 743.84 374.65 60.95 757.42 438.47 448.61 764.27 399.70 312.51 368.00 352.77 477.38 519.64 422.18 415.79 555.45 471.98 72.05 596.55 434.49 327.02 309.55 420.74 266.32 330.06 425.70 738.26 372.00 353.25 534.44 430.41 274.82 437.83 428.46 528.67 414.96 368.49 724.14 670.59 414.91 307.20 322.91 230.05 522.21 476.22 260.96 321.08 807.43 600.83 318.36 436.68 514.99 357.57 373.45 320.79 361.52 696.34 436.07 410.37 352.58 373.22 410.49 679.43 337.81 419.04 597.15 770.92 326.16 158.92 356.97 668.90 418.59 599.39 449.83 370.01 430.96 329.23 314.53 378.28 464.86 426.97 321.70 604.22 393.76 579.29 207.46 417.40 373.95 469.69 331.21 413.12 645.01 435.34 289.36 393.64 384.50 386.12 416.18 607.50 421.05 417.56 441.87 296.12 412.71 380.74 454.73 457.32 483.60 673.75 368.24 487.86 799.38 289.39 365.14 514.52 368.95 385.04 0.00 389.36 389.42 378.01 355.38 421.04 669.58 401.18 385.57 109.64 378.81 433.39 542.81 424.58 615.15 403.43 355.92 565.99 678.83 639.55 422.94 621.01 466.63 320.45 372.34 653.06 429.09 403.68 380.84 410.00 715.61 426.25 454.37 348.42 796.10 399.54 389.67 353.15 755.18 326.46 260.35 322.84 738.63 662.47 561.30 483.10 299.54 261.35 723.64 280.25 464.55 320.46 356.44 403.26 404.32 281.15 426.10 510.46 400.84
1235.08 543.76 392.70 876.28 181.43 867.01 103.47 73.73 537.23 275.65 965.03 450.61 288.80 133.46 204.45 802.77 162.10 906.06 551.99 1042.94 504.55 785.63 470.96 790.77 289.83 947.22 63.40 328.41 1077.86 165.23 110.19 1008.47 101.96 440.74 573.30 80.23 700.85 147.32 586.94 44.22 834.54 136.69 351.14 854.64 55.35 506.22 235.26 142.80 345.99 174.56 91.63 1001.31 313.52 129.28 280.33 42.13 187.31 578.92 168.64 156.35 74.23 71.23 994.09 970.22 561.01 471.29 222.21 271.70 830.10 202.59 386.39 112.93 1057.11 826.31 182.82 101.39 183.15 207.31 124.48 206.87 111.46 1004.74 129.24 715.83 287.00 38.11 531.31 937.51 103.84 83.75 846.27 1032.18 433.41 274.08 222.85 897.01 71.53 857.31 130.20 516.11 759.51 497.51 481.30 157.64 118.90 376.07 117.35 961.69 339.11 829.08 312.61 277.96 86.41 650.86 457.13 23.76 892.88 46.78 481.54 96.75 104.42 67.56 116.01 913.51 442.97 67.43 164.95 645.18 68.95 146.15 82.41 113.92 151.60 921.62 117.06 115.54 1070.85 209.68 432.29 450.91 130.12 571.03 389.36 0.00 561.65 69.91 51.62 363.36 909.02 48.37 291.86 415.65 101.30 501.59 625.87 137.04 953.83 35.80 602.96 290.91 914.82 880.92 54.32 951.72 94.31 464.91 46.04 889.05 418.35 107.49 8.52 100.85 1028.17 57.42 104.46 529.20 1068.18 301.24 92.41 488.15 1032.45 144.07 163.04 429.62 986.50 898.46 825.32 860.89 172.39 202.41 1006.50 450.30 91.56 460.06 161.77 30.94 29.79 452.27 86.51 818.83 19.57
786.21 104.03 212.96 560.00 449.95 493.97 483.57 507.66 24.42 345.67 646.48 114.11 310.51 528.07 689.61 424.29 655.58 578.03 29.47 721.05 188.10 441.43 159.75 497.53 559.05 678.31 527.25 358.60 605.47 471.39 528.63 775.97 546.08 120.91 202.21 516.62 455.35 653.10 136.57 517.43 493.73 646.61 377.38 507.20 543.24 62.40 374.73 473.77 262.46 478.21 562.31 655.28 669.65 462.65 731.39 546.71 443.58 135.16 417.78 644.07 499.77 496.39 716.80 602.05 52.37 136.86 374.83 540.22 487.52 651.14 209.56 471.24 631.98 504.42 389.85 601.99 656.90 403.35 473.08 404.08 476.99 682.85 468.14 253.57 278.94 546.73 112.68 613.81 481.60 593.67 493.12 707.89 150.94 392.29 394.77 576.28 545.29 510.04 517.20 52.97 408.93 64.14 170.20 449.77 508.39 281.50 511.85 594.61 231.45 557.26 304.36 338.13 504.34 159.14 127.04 564.46 570.99 573.21 100.06 568.27 526.92 526.44 494.61 600.16 228.05 513.53 451.62 274.09 501.94 438.71 571.43 530.73 639.66 599.73 483.94 604.56 777.35 360.88 171.56 298.01 432.03 109.36 389.42 561.65 0.00 492.41 531.73 268.50 577.63 523.02 328.53 404.39 489.51 182.50 238.54 477.84 589.31 556.85 145.26 762.94 607.74 549.97 510.61 577.82 570.01 116.77 516.28 586.43 704.56 486.36 561.90 551.91 639.76 520.52 546.08 73.64 735.22 325.03 475.21 129.29 669.22 455.87 467.85 132.03 664.61 595.84 532.08 492.70 411.96 428.69 669.90 175.80 612.96 124.68 422.09 539.48 562.60 130.26 478.42 488.43 552.38
1198.24 547.60 376.06 818.38 126.44 831.69 129.50 125.47 467.99 292.42 910.04 474.16 322.84 176.05 255.04 815.13 180.57 872.95 508.52 1006.10 505.21 832.27 469.39 848.58 219.92 979.94 58.67 333.75 1058.17 206.58 155.61 1000.37 53.67 452.19 559.67 43.39 630.94 212.20 541.15 92.59 825.62 170.91 356.48 843.91 125.26 497.61 236.42 184.15 321.16 123.84 143.67 973.87 307.21 124.55 296.82 111.51 154.20 556.80 216.02 203.17 121.36 124.56 951.88 928.30 544.78 461.12 242.48 216.71 825.43 174.51 372.81 105.36 987.20 789.47 226.58 119.86 203.04 188.42 146.41 165.76 143.76 967.90 178.55 694.74 291.27 54.32 511.68 922.00 151.08 126.38 828.05 995.80 394.07 219.09 268.17 863.90 121.79 820.47 166.88 512.39 761.27 500.01 439.37 185.99 167.27 406.00 71.56 928.58 338.39 771.56 298.43 333.73 142.18 638.19 437.11 93.67 856.04 116.69 484.67 100.98 34.51 34.03 152.08 843.60 420.80 112.85 206.30 626.43 119.76 180.01 152.32 157.96 165.26 884.78 136.81 185.45 1064.70 208.96 439.59 498.47 196.04 595.68 378.01 69.91 492.41 0.00 39.32 361.41 885.82 77.98 305.14 345.74 110.08 499.64 678.58 183.77 920.72 76.60 607.23 289.74 892.65 844.08 99.74 918.61 164.22 456.23 23.87 866.88 390.33 137.10 78.43 117.34 1045.92 106.55 168.59 515.95 1035.07 325.11 103.38 498.07 999.34 158.98 140.87 461.34 949.66 876.29 830.33 819.50 133.05 192.91 960.48 410.96 145.65 468.58 156.80 100.08 75.19 446.56 122.58 820.52 70.87
1237.56 561.41 357.64 853.37 165.76 853.41 143.26 113.50 507.31 312.05 949.36 487.19 309.61 169.86 227.19 813.35 163.48 890.35 547.84 1043.54 495.98 822.79 491.21 837.26 259.24 980.12 56.01 294.43 1075.57 205.57 133.37 1001.08 50.34 477.14 556.34 82.71 665.93 198.94 552.12 80.62 800.56 151.47 317.16 865.85 99.90 517.75 255.51 189.13 360.48 141.39 112.09 1003.56 346.53 121.89 268.97 75.03 171.60 567.77 219.22 201.39 109.39 122.85 948.55 967.62 584.10 432.64 239.73 256.03 829.61 178.59 366.12 120.47 1022.19 828.79 203.07 102.77 194.48 186.64 160.03 201.21 135.11 1007.22 166.58 688.94 323.40 17.84 525.85 950.83 149.30 101.88 852.47 1034.43 433.39 258.41 256.30 881.30 82.47 859.79 153.38 526.07 734.35 515.26 454.50 146.67 149.94 370.61 82.53 945.98 351.81 810.88 315.83 314.78 138.03 618.39 456.65 70.25 895.36 79.96 480.09 76.48 69.50 32.25 140.11 878.59 445.22 90.61 193.85 627.92 107.79 140.69 130.74 143.71 139.82 924.10 135.03 163.87 1062.92 222.38 452.54 476.80 156.72 589.76 355.38 51.62 531.73 39.32 0.00 387.46 925.14 66.01 309.38 380.73 108.30 521.28 671.22 179.38 938.12 54.53 601.03 275.73 917.07 883.40 87.77 936.01 138.51 491.68 48.29 891.30 388.55 125.13 60.14 89.49 1047.41 94.58 129.27 526.92 1052.47 285.79 122.60 482.69 1016.74 162.62 165.29 466.02 988.98 900.71 867.74 838.48 172.37 205.04 995.47 450.28 109.17 496.46 181.22 82.56 48.94 459.73 110.61 817.86 45.46
1054.71 353.72 190.16 771.41 319.29 726.59 308.93 310.20 274.11 153.42 869.73 236.91 129.80 330.79 513.45 692.79 497.12 810.65 286.39 924.78 196.56 679.12 163.63 724.97 476.83 910.73 351.58 403.05 873.97 272.29 335.77 903.20 415.08 224.59 465.70 393.82 583.97 451.53 268.50 319.14 673.74 475.27 380.32 739.03 341.67 270.81 203.08 274.14 154.72 294.61 360.74 888.71 555.83 285.70 556.37 340.67 324.89 274.68 218.15 442.50 298.20 321.79 948.90 797.80 320.87 280.60 217.87 409.56 724.86 470.45 244.60 294.96 900.48 759.70 215.67 441.60 477.91 269.12 295.34 245.43 296.39 892.94 299.42 501.83 161.37 384.73 279.50 805.60 313.70 423.96 760.95 919.58 213.75 284.55 171.98 819.70 343.72 737.61 340.00 248.72 578.85 265.22 286.89 269.11 347.35 67.63 349.48 800.82 72.80 756.12 244.91 95.23 286.78 383.47 256.79 363.97 821.33 371.64 233.15 433.40 395.92 370.64 306.35 832.26 182.15 311.96 251.99 498.77 300.37 261.08 379.07 344.76 473.34 850.07 303.34 412.20 1002.03 202.23 172.90 214.45 268.37 377.86 421.04 363.36 268.50 361.41 387.46 0.00 811.12 321.45 148.22 461.52 339.88 138.23 387.24 279.19 789.89 358.56 388.58 581.78 792.20 779.58 309.04 801.38 378.65 244.89 381.25 776.73 634.23 290.80 360.80 417.04 829.48 318.95 353.15 258.10 972.77 116.30 325.58 194.09 912.54 273.82 321.09 234.92 868.34 785.86 759.52 698.10 228.36 385.76 883.88 309.48 411.39 232.54 285.26 343.55 367.38 193.23 276.85 713.11 370.22
371.98 536.33 680.13 123.04 790.85 113.68 906.83 919.81 602.05 796.90 100.31 604.20 773.14 967.88 1092.55 193.16 1028.89 97.29 600.58 179.84 629.13 194.66 664.95 142.83 795.51 229.90 874.70 658.46 226.54 904.83 963.99 472.98 902.34 611.42 445.34 842.43 289.49 1000.04 682.88 904.16 166.53 1003.48 641.87 122.34 898.23 576.25 843.26 921.47 736.46 840.06 939.16 127.53 883.87 855.09 1158.98 866.89 763.09 668.99 884.76 1009.07 933.96 912.03 226.26 155.90 548.40 628.09 789.27 860.37 170.87 985.20 658.64 846.16 296.51 96.35 819.09 968.18 1049.94 789.27 861.96 774.81 893.91 167.36 925.75 367.25 751.21 907.85 651.02 36.18 879.42 950.54 244.19 160.65 628.75 828.50 843.11 88.51 900.96 97.61 954.50 605.63 278.70 585.75 563.07 879.01 974.12 789.92 859.95 111.39 751.67 253.63 730.99 820.27 913.10 587.92 637.37 901.83 29.78 928.20 613.91 965.68 884.55 899.34 934.96 166.64 737.97 927.37 918.60 373.46 928.37 875.65 932.32 970.78 1018.79 58.52 886.96 961.02 265.78 790.12 678.81 826.07 859.62 491.41 669.58 909.02 577.63 885.82 925.14 811.12 0.00 917.57 773.53 646.38 898.21 687.46 580.60 929.48 100.46 925.58 462.39 1139.78 42.64 67.48 914.26 111.95 932.24 586.27 877.40 34.39 974.94 891.95 917.54 979.50 348.47 918.12 947.76 576.74 246.28 750.84 894.95 648.51 155.64 852.51 760.40 600.30 123.40 38.61 108.28 216.74 859.62 842.59 131.64 600.94 958.52 598.62 819.91 914.59 916.31 617.89 935.18 159.12 920.33
1241.75 520.85 363.97 849.02 149.61 861.93 77.25 47.49 498.60 246.04 933.21 421.18 259.19 103.85 233.65 773.92 182.83 896.12 516.01 1051.20 474.94 756.78 447.97 826.61 297.90 955.77 87.99 359.74 1071.04 151.63 77.63 1024.72 116.35 411.13 589.44 121.37 661.58 178.65 566.12 14.61 809.08 163.98 382.47 853.51 60.90 476.79 212.88 131.90 333.19 165.72 65.69 1005.74 361.89 145.53 285.18 50.68 177.37 570.96 158.38 175.93 43.38 64.41 994.00 979.49 531.58 422.92 196.20 239.88 840.08 231.79 396.62 122.13 1065.18 867.45 160.44 128.68 210.44 198.67 117.66 197.59 95.91 1023.03 100.57 697.26 257.39 77.03 529.82 889.14 97.02 111.04 894.64 1037.91 426.58 242.26 190.29 887.07 65.49 878.00 88.90 486.68 729.90 467.90 455.29 131.89 89.29 362.97 118.84 945.20 318.84 799.23 305.79 280.40 88.85 603.63 437.08 61.60 934.02 90.87 445.33 129.29 112.49 65.24 74.10 913.09 477.49 34.87 145.57 649.60 41.78 144.66 101.38 91.32 167.74 945.34 94.15 134.51 1076.73 189.41 409.30 463.66 156.14 572.34 401.18 48.37 523.02 77.98 66.01 321.45 917.57 0.00 265.85 423.72 71.45 459.68 617.03 113.37 934.27 37.11 573.35 277.25 922.90 899.60 21.76 941.78 107.24 435.30 94.41 906.07 421.54 59.12 39.85 125.09 986.26 28.57 94.36 492.00 1058.24 279.60 85.59 451.96 1008.60 180.16 180.17 400.01 997.32 915.48 861.16 832.04 174.81 216.08 991.12 452.72 115.36 430.45 154.23 22.10 45.93 403.90 44.60 841.50 48.77
1073.93 383.52 220.01 761.68 276.29 718.67 232.57 276.33 318.17 72.79 859.23 229.69 136.96 262.76 429.42 708.15 420.38 795.59 310.91 916.86 260.71 718.12 250.65 699.80 411.75 880.80 262.55 344.77 893.19 185.21 273.42 957.25 302.77 249.57 432.57 263.77 626.32 412.02 320.76 265.71 665.82 401.31 322.04 731.11 307.80 266.13 84.54 207.64 233.08 255.95 288.29 862.27 502.45 249.88 518.81 294.29 257.48 305.11 222.98 408.63 264.33 240.95 919.88 836.23 340.09 290.30 69.65 366.56 717.88 430.16 274.45 267.90 926.31 706.11 125.15 366.01 444.04 157.20 187.70 139.38 211.49 884.54 245.26 501.17 133.07 327.22 308.11 797.17 233.41 348.37 740.13 893.14 255.81 292.97 87.08 804.64 298.92 725.56 217.85 295.19 605.58 279.66 270.78 185.07 260.22 181.84 307.86 815.73 111.14 787.62 223.24 52.99 218.99 417.94 284.12 315.62 772.68 337.77 242.85 322.97 283.61 287.19 251.50 803.24 238.46 268.72 205.51 504.45 266.50 168.69 315.38 271.41 411.56 801.42 212.70 329.18 1004.43 96.18 238.60 209.36 161.74 356.37 385.57 291.86 328.53 305.14 309.38 148.22 773.53 265.85 0.00 457.44 254.68 286.45 434.12 225.03 814.87 295.78 392.27 528.35 787.99 743.50 255.61 825.42 303.48 211.76 306.83 768.83 591.23 248.72 300.38 339.33 864.63 275.46 297.91 293.25 957.71 50.52 257.79 220.19 912.44 220.44 280.76 247.05 860.42 759.42 665.25 723.06 205.67 333.95 876.89 308.65 358.72 224.11 173.90 287.95 311.78 218.21 242.98 716.09 311.43
928.94 459.58 363.13 561.93 303.90 597.10 463.50 456.66 379.97 480.44 679.38 398.67 403.72 503.88 551.69 618.59 475.54 639.51 420.50 766.66 474.71 601.45 438.89 621.62 154.66 634.20 387.64 112.67 748.20 490.87 488.49 654.63 330.39 416.86 477.64 382.64 587.02 484.02 527.60 423.78 618.80 458.81 135.40 607.46 469.57 433.59 372.90 468.44 306.80 362.09 473.93 689.74 321.83 349.83 569.56 446.29 297.61 539.55 484.43 474.99 455.50 415.49 614.50 652.59 456.76 358.92 418.13 216.21 608.17 390.83 312.68 365.54 805.79 550.03 413.58 427.43 479.76 396.90 438.31 427.81 406.59 700.20 479.17 520.01 415.93 398.57 484.08 661.43 382.88 423.03 558.35 750.82 393.55 268.56 410.52 648.56 446.47 581.03 494.71 424.37 540.60 419.69 369.84 447.88 467.10 496.45 374.74 608.08 447.74 655.76 270.81 470.45 417.05 544.67 382.93 439.41 616.60 454.49 399.00 397.63 311.23 368.51 484.23 497.86 491.30 446.99 490.59 405.76 453.90 457.59 496.33 444.76 466.08 645.34 413.31 488.15 753.45 384.61 400.22 584.77 454.85 448.39 109.64 415.65 404.39 345.74 380.73 461.52 646.38 423.72 457.44 0.00 423.88 509.93 604.27 467.68 597.15 416.16 419.27 566.46 664.07 604.64 433.88 608.64 501.15 416.60 369.61 660.25 362.11 446.78 424.17 413.99 825.25 437.74 480.07 444.47 760.91 489.36 414.60 462.79 754.70 379.66 273.34 419.58 710.22 650.84 590.89 592.74 394.14 281.64 704.36 331.97 432.83 418.17 442.39 432.16 418.61 390.79 466.07 619.92 416.61
1188.03 487.05 292.52 818.78 173.92 805.63 72.56 76.45 497.09 247.61 933.36 424.22 272.23 129.19 276.35 705.05 243.79 864.91 516.73 999.50 448.59 722.19 428.63 792.02 330.00 993.21 84.64 341.97 1036.70 130.13 109.53 975.68 146.78 401.69 600.99 123.71 678.01 224.41 561.22 61.25 774.49 215.03 364.70 818.86 105.61 472.36 186.79 126.56 288.49 116.98 112.33 967.27 414.82 96.49 331.82 96.65 146.16 546.66 143.00 224.29 90.65 30.07 971.63 911.46 534.62 418.32 190.59 212.69 804.21 256.36 346.96 81.84 1064.66 846.10 151.20 183.08 260.74 159.79 66.98 145.61 64.39 991.82 101.98 693.20 266.40 98.15 494.78 925.79 41.00 166.80 862.57 992.66 401.91 219.89 178.53 855.86 103.10 821.70 109.16 489.72 738.91 458.46 401.48 116.48 133.92 314.13 129.87 920.54 290.06 727.78 271.45 244.65 53.10 599.38 396.13 121.75 897.63 126.30 442.62 156.79 133.33 76.05 75.51 867.64 428.65 74.78 146.98 663.08 88.40 109.62 152.56 118.66 197.44 926.37 60.35 178.90 1032.41 167.40 389.96 433.39 98.50 555.17 378.81 101.30 489.51 110.08 108.30 339.88 898.21 71.45 254.68 423.88 0.00 464.80 625.81 90.31 912.68 98.88 569.29 317.04 900.63 830.73 71.35 910.57 140.66 436.08 91.67 874.86 432.35 75.55 109.68 169.80 987.67 75.21 141.00 494.51 1027.03 238.40 14.30 443.49 991.30 139.87 170.43 412.81 943.06 876.93 812.14 791.63 140.89 197.19 963.15 418.41 162.00 434.57 100.51 87.26 101.69 432.88 81.22 792.46 91.47
940.23 266.38 277.30 633.18 457.52 603.41 447.16 448.43 186.77 287.23 755.92 167.82 268.03 469.02 651.68 558.03 632.28 687.47 180.04 833.53 58.33 540.89 94.15 610.72 599.29 807.61 489.81 444.97 759.49 410.52 474.00 869.58 548.19 157.77 375.06 532.05 445.74 589.76 130.27 457.37 593.19 613.50 422.24 616.64 479.90 182.01 312.88 412.37 292.95 432.84 498.97 789.90 694.06 423.93 694.60 478.90 463.12 136.45 356.38 580.73 436.43 456.41 813.89 691.45 206.39 207.73 356.10 547.79 624.19 608.68 253.55 433.19 812.73 650.48 353.90 579.83 616.14 407.35 423.23 383.54 434.62 811.77 437.65 378.61 299.60 522.96 141.27 717.39 423.80 562.19 647.14 817.33 164.09 407.01 310.21 694.48 481.95 619.48 478.23 142.37 524.79 182.85 237.23 407.34 485.58 150.67 487.71 719.65 211.03 725.58 352.74 233.46 425.01 266.95 183.72 502.20 717.05 509.87 171.89 571.63 529.03 508.87 444.58 697.25 143.67 450.19 390.22 442.41 438.60 380.59 517.30 482.99 611.57 745.79 441.57 550.43 898.55 340.46 109.71 154.80 396.62 263.38 433.39 501.59 182.50 499.64 521.28 138.23 687.46 459.68 286.45 509.93 464.80 0.00 249.01 417.42 714.35 496.79 254.70 720.01 683.63 662.38 447.27 702.86 516.88 173.96 519.48 709.40 728.81 429.03 499.03 555.27 720.91 457.18 491.38 149.53 849.59 254.53 463.81 111.72 778.66 412.05 459.32 146.65 781.04 703.44 645.27 616.15 366.59 461.51 775.28 242.66 549.62 161.61 402.24 481.78 505.61 152.24 415.08 635.94 508.45
891.18 180.77 381.36 552.11 597.52 473.94 644.85 653.82 224.30 506.91 626.45 240.29 470.97 673.61 830.32 486.99 773.43 558.00 264.83 656.52 307.34 504.13 309.61 457.00 719.73 707.10 658.03 517.02 717.81 602.87 686.91 838.72 721.56 262.82 310.87 697.58 421.99 756.15 210.72 620.94 521.06 748.02 494.29 460.71 664.43 243.36 511.44 625.30 428.52 634.07 672.02 616.45 828.07 623.33 889.16 642.63 569.76 226.37 605.39 765.18 652.66 595.74 689.82 548.71 186.17 300.90 487.31 681.51 496.33 801.56 364.55 633.37 602.93 518.14 541.83 712.72 794.48 544.63 599.98 512.83 614.42 684.73 642.24 280.01 445.43 663.98 221.77 578.28 617.44 695.08 565.06 644.53 326.51 527.45 521.20 567.05 660.04 487.69 651.97 264.23 406.31 250.06 288.72 603.06 694.34 399.68 660.69 592.61 426.48 620.01 457.17 482.47 630.75 229.18 294.72 635.09 550.82 672.65 253.45 720.48 713.09 663.93 668.71 587.09 384.88 644.15 623.17 336.84 651.06 586.35 674.21 694.59 770.44 522.08 607.47 707.34 765.21 520.83 314.90 403.81 579.40 181.30 542.81 625.87 238.54 678.58 671.22 387.24 580.60 617.03 434.12 604.27 625.81 249.01 0.00 622.01 596.48 616.69 217.20 883.58 563.25 515.57 631.04 584.99 686.11 222.36 671.79 560.95 872.24 631.12 617.35 709.68 694.75 634.90 673.39 284.62 631.95 463.24 616.92 284.60 687.70 597.87 594.03 257.65 633.86 551.54 491.55 479.69 587.53 623.93 631.07 326.59 700.03 234.71 557.93 594.93 653.07 274.02 661.63 485.06 645.44
1183.84 508.85 323.91 819.32 240.01 862.26 72.08 103.41 463.95 173.15 999.45 381.72 240.70 51.60 275.13 795.36 217.93 931.00 448.37 1045.27 402.05 803.99 424.44 798.37 396.80 993.75 150.35 397.40 1003.10 39.82 80.72 1043.04 212.87 404.25 565.78 191.55 673.22 238.17 505.48 98.76 814.53 235.64 417.88 862.24 141.02 437.33 199.87 38.85 267.58 162.78 121.47 988.97 450.56 163.85 355.72 134.33 212.25 521.13 61.04 229.14 97.55 85.64 1000.03 982.17 450.00 391.97 155.38 278.78 806.43 326.00 329.59 140.42 1050.68 862.06 159.96 225.54 263.12 186.67 67.52 154.67 77.98 1030.94 20.23 651.79 252.76 164.78 482.74 955.71 86.77 207.90 881.37 1008.21 402.45 265.66 147.76 921.95 122.61 878.33 63.56 433.09 725.27 431.69 414.47 62.19 105.11 327.50 185.44 984.51 256.92 808.95 282.47 231.34 50.63 564.25 384.17 160.80 928.63 170.99 414.47 207.42 200.31 166.36 46.70 883.39 413.88 98.49 58.16 637.66 99.72 97.58 147.53 89.85 266.39 957.37 82.15 173.55 1050.41 151.08 403.04 430.32 113.61 506.99 424.58 137.04 477.84 183.77 179.38 279.19 929.48 113.37 225.03 467.68 90.31 417.42 622.01 0.00 977.77 139.37 542.89 361.40 938.30 888.64 108.39 973.08 146.24 399.65 178.55 934.35 503.45 70.76 140.95 191.06 958.86 112.72 106.78 404.20 1093.12 224.93 80.39 439.58 1004.46 175.79 232.62 402.89 988.83 934.84 821.20 836.08 141.43 277.85 974.35 419.34 184.50 401.22 118.51 124.77 144.58 399.95 76.20 794.68 144.39
331.79 548.66 701.78 200.67 794.28 127.91 956.59 943.75 610.63 863.34 82.23 620.88 794.79 1003.62 1130.85 208.81 1037.81 47.77 604.97 213.34 685.59 217.01 672.50 199.64 751.81 269.33 905.09 670.84 151.05 944.75 985.63 535.60 924.79 627.68 418.79 883.33 388.11 1080.72 673.77 919.66 164.71 1042.13 648.11 135.77 984.94 584.81 851.95 962.90 758.11 852.74 970.74 164.81 897.30 885.80 1124.58 956.93 766.52 658.12 934.52 1071.69 948.07 918.16 286.50 55.44 537.53 649.74 829.19 813.36 222.91 983.38 691.41 850.21 208.64 137.25 875.90 1006.83 1074.16 803.50 911.72 824.57 914.97 103.05 957.54 335.74 775.61 938.24 634.71 64.28 903.86 989.19 304.91 216.24 649.15 774.07 870.58 56.82 975.15 133.11 991.12 604.52 322.44 570.91 584.72 931.79 986.46 788.27 863.38 10.93 749.12 331.21 744.42 853.53 937.18 588.19 633.81 966.65 118.60 1000.61 604.42 992.03 908.38 917.36 984.01 188.00 736.56 942.87 965.05 415.11 931.80 912.53 1013.78 999.32 1049.18 118.76 908.02 1046.91 308.95 846.93 680.65 828.52 896.50 480.54 615.15 953.83 589.31 920.72 938.12 789.89 100.46 934.27 814.87 597.15 912.68 714.35 596.48 977.77 0.00 929.17 459.65 1156.13 94.06 89.13 929.76 11.49 1019.96 614.90 907.79 90.10 959.26 964.55 954.62 1008.39 248.01 933.62 999.41 618.21 202.81 809.96 898.38 642.04 161.89 858.42 790.79 635.80 156.90 99.51 167.38 263.40 863.05 846.02 174.81 622.59 1020.41 627.25 869.67 945.67 956.19 596.66 955.23 218.22 945.97
1237.88 541.34 390.28 865.18 186.72 877.63 110.10 75.58 532.43 274.13 949.85 449.27 287.28 131.94 240.25 802.01 158.26 881.40 550.47 1042.10 503.03 784.87 476.67 826.57 296.52 974.93 50.88 345.74 1066.62 169.09 103.67 995.95 104.87 439.22 606.51 100.72 698.69 166.08 551.32 42.70 837.17 168.30 368.47 881.60 80.93 504.88 240.97 158.31 343.57 140.59 79.65 996.01 349.32 116.76 299.09 69.84 162.65 566.97 187.40 175.11 74.42 68.81 1003.08 984.61 559.67 453.82 233.31 276.84 824.48 227.96 389.95 85.61 1057.62 846.80 188.53 133.00 203.45 202.04 122.06 196.08 109.04 1008.31 137.68 680.03 285.48 48.38 530.84 926.25 97.21 115.36 878.63 1026.88 409.18 276.10 221.33 872.35 90.29 877.80 125.70 514.77 757.99 492.71 453.70 155.22 117.38 370.34 81.73 937.03 346.68 826.66 306.88 280.29 88.74 639.57 429.81 59.56 913.37 79.12 477.37 107.02 104.93 47.65 111.21 914.02 473.51 62.93 158.70 678.39 72.82 149.06 101.17 111.27 173.81 942.11 114.64 134.30 1078.32 217.25 438.00 486.71 165.09 535.23 403.43 35.80 556.85 76.60 54.53 358.56 925.58 37.11 295.78 416.16 98.88 496.79 616.69 139.37 929.17 0.00 571.13 305.34 916.96 901.41 52.80 927.06 113.07 463.39 78.83 891.19 403.95 96.23 27.28 119.61 1023.37 56.66 108.32 526.12 1043.52 294.61 89.99 489.07 1007.79 143.64 165.18 428.10 999.27 893.16 861.12 832.98 152.21 204.24 1008.64 430.12 123.90 458.54 152.96 37.16 63.00 441.01 81.71 812.73 55.37
768.46 98.16 289.87 478.15 521.31 348.71 526.32 581.97 163.08 454.72 501.22 173.33 347.53 594.49 785.50 330.89 727.19 432.77 145.32 578.83 240.95 348.03 224.95 417.86 541.97 612.89 587.75 306.60 587.72 530.61 594.79 694.12 582.52 180.13 120.36 591.48 373.50 728.32 220.49 558.74 400.33 709.78 283.87 361.94 608.65 137.26 444.48 529.87 321.68 540.43 609.82 541.53 617.65 521.87 826.64 596.01 502.80 213.48 527.19 727.33 578.28 570.69 600.64 505.03 92.89 206.84 441.08 552.86 405.67 710.36 290.95 530.46 605.84 395.78 475.43 674.48 731.89 422.83 532.30 469.15 531.81 557.07 563.12 123.91 315.96 618.87 214.01 468.87 540.82 656.84 419.66 562.63 229.30 428.66 441.23 439.78 617.11 364.78 601.56 170.95 290.34 123.36 184.09 539.83 611.79 340.72 556.06 464.95 340.50 475.41 363.58 445.26 556.38 143.55 186.26 624.91 462.35 626.98 163.23 631.44 601.68 577.22 571.80 484.00 302.91 581.95 550.91 192.24 586.79 497.93 646.53 594.40 721.40 491.09 524.86 672.87 674.26 469.93 263.62 380.97 510.43 35.90 355.92 602.96 145.26 607.23 601.03 388.58 462.39 573.35 392.27 419.27 569.29 254.70 217.20 542.89 459.65 571.13 0.00 821.38 464.48 407.68 568.84 448.16 634.63 191.26 614.24 456.77 674.74 544.04 598.41 647.80 566.30 572.70 586.36 170.66 594.89 396.84 575.10 194.49 523.96 486.07 527.07 191.25 526.34 453.88 415.43 409.59 474.18 526.72 540.12 221.96 655.85 192.83 481.31 584.75 619.28 211.49 563.27 406.58 622.12
1446.28 776.96 609.56 1039.10 409.94 1052.41 330.04 290.84 755.65 494.07 1190.85 669.21 507.22 351.88 127.53 1021.95 179.49 1122.40 733.47 1173.11 722.97 1004.81 690.11 1034.16 421.90 1169.07 322.75 560.08 1294.91 401.03 328.61 1106.39 274.39 659.16 780.39 326.64 851.66 220.04 785.49 262.64 1004.40 214.92 582.81 1065.64 310.93 724.82 460.91 384.69 596.42 374.76 313.72 1140.88 440.15 379.68 31.55 291.40 403.65 801.14 414.04 229.07 294.36 341.66 1172.60 1174.81 779.61 692.67 468.51 431.65 1036.87 185.73 606.17 373.60 1207.92 1072.72 408.47 240.20 134.30 454.16 374.91 440.94 346.89 1237.32 360.90 945.29 505.42 257.89 786.30 1164.92 358.04 233.70 1092.52 1208.68 674.61 495.46 441.27 1113.35 305.88 1068.48 339.10 734.71 951.10 715.93 687.87 385.75 313.43 611.00 315.90 1145.20 566.87 1044.82 532.51 528.91 358.60 863.14 685.11 267.15 1139.29 285.26 699.96 227.39 255.23 307.98 334.43 1064.32 685.27 285.85 404.18 852.27 287.55 409.81 304.25 335.77 173.74 1168.03 350.26 288.25 1270.90 437.44 657.94 704.39 407.12 836.60 565.99 290.91 762.94 289.74 275.73 581.78 1139.78 277.25 528.35 566.46 317.04 720.01 883.58 361.40 1156.13 305.34 821.38 0.00 1131.16 1111.38 272.74 1155.35 316.15 683.33 288.34 1105.39 496.88 328.87 299.43 211.03 1246.59 276.60 318.20 742.24 1187.05 533.54 331.34 716.39 1248.79 390.92 379.38 648.04 1116.67 1114.80 1068.71 1040.22 422.79 438.41 1136.76 679.47 240.48 678.48 402.26 288.65 276.38 681.15 304.93 1025.12 286.60
384.82 538.85 676.96 140.80 782.23 115.77 921.07 931.70 598.60 839.54 97.89 594.16 775.67 989.90 1099.59 195.69 1025.76 56.23 578.27 168.21 664.39 181.49 628.57 166.41 754.18 187.26 866.08 635.32 204.08 928.41 977.60 505.08 895.09 616.69 454.59 867.47 328.24 1042.68 671.39 923.66 129.19 1003.12 612.59 102.54 940.87 575.36 850.09 945.05 733.29 830.02 960.55 106.30 864.07 863.79 1126.59 909.53 754.47 677.96 899.00 1051.71 936.02 906.11 234.13 149.50 557.37 614.96 812.85 863.44 180.12 947.86 622.52 836.12 257.74 121.39 842.67 967.82 1044.46 791.36 876.20 789.05 902.83 183.14 931.88 358.63 780.44 899.23 622.70 33.76 889.77 950.18 239.49 162.29 638.74 834.28 845.95 47.18 943.60 113.99 973.01 562.99 308.13 581.40 565.60 902.59 974.41 798.76 851.33 99.36 741.63 296.27 711.19 840.98 918.05 545.28 638.97 933.42 54.82 961.60 593.16 957.87 875.93 890.72 949.20 166.21 725.48 936.56 932.84 382.71 919.75 889.89 974.77 988.05 1010.17 80.19 895.88 1003.66 225.82 813.70 667.24 783.43 873.86 500.38 678.83 914.82 607.74 892.65 917.07 792.20 42.64 922.90 787.99 664.07 900.63 683.63 563.25 938.30 94.06 916.96 464.48 1131.16 0.00 70.01 929.55 82.57 974.88 576.23 868.78 25.77 984.19 930.70 923.34 970.88 333.94 909.70 989.22 534.10 218.35 793.48 886.33 638.47 124.45 846.37 751.78 611.52 111.77 28.57 148.26 233.01 851.00 833.97 91.68 603.47 990.56 588.58 834.15 945.00 920.10 609.27 941.14 168.37 920.42
417.77 505.84 612.65 146.01 782.31 58.97 876.80 894.88 562.39 816.29 146.01 564.38 705.66 928.34 1066.53 125.68 998.86 104.88 553.00 223.31 634.99 142.82 624.17 112.80 759.23 251.27 856.36 617.95 240.18 870.24 928.90 497.03 860.60 557.79 415.31 800.69 304.47 1028.24 628.17 884.99 111.82 972.15 595.22 54.86 919.30 508.77 812.66 891.44 668.98 840.77 916.28 142.66 816.39 825.06 1109.22 914.75 754.55 621.16 854.73 1021.99 905.88 860.80 272.05 144.57 500.57 560.61 754.68 820.85 140.27 930.49 605.01 838.24 297.77 54.61 789.06 938.15 1009.97 734.56 831.93 744.78 846.03 192.18 868.41 332.66 715.03 875.13 583.54 103.66 849.39 920.51 215.78 179.92 568.73 765.77 781.45 109.73 891.86 43.98 917.47 572.41 242.52 522.67 495.59 848.98 937.67 740.03 846.12 100.06 740.82 290.63 663.51 796.49 870.60 537.51 583.74 879.81 75.57 921.58 546.43 927.84 856.15 878.11 894.88 156.25 674.42 897.89 884.54 343.43 889.61 843.59 958.34 938.03 986.07 104.31 839.08 991.47 277.85 760.09 655.68 767.89 827.56 443.58 639.55 880.92 549.97 844.08 883.40 779.58 67.48 899.60 743.50 604.64 830.73 662.38 515.57 888.64 89.13 901.41 407.68 1111.38 70.01 0.00 890.88 100.62 960.38 563.14 844.68 55.61 944.34 894.93 889.44 944.20 297.87 871.03 938.66 550.03 267.00 752.26 845.03 593.80 194.46 797.80 778.82 546.67 166.87 46.20 78.25 174.27 809.92 810.47 157.28 533.46 956.99 575.49 789.88 879.06 891.87 588.36 906.89 129.09 881.65
1237.24 507.80 363.87 846.03 171.37 853.21 69.14 29.25 486.19 238.45 954.97 416.67 254.68 91.84 230.10 765.20 204.59 904.05 513.02 1045.65 467.35 748.06 444.07 817.89 319.66 952.46 98.84 378.42 1080.17 136.19 55.87 1025.74 138.11 406.62 607.02 134.55 658.59 172.10 561.61 10.10 800.36 166.53 401.15 844.79 78.71 472.28 208.37 123.79 324.33 171.36 61.18 1002.75 367.84 146.55 276.02 47.37 185.30 560.72 141.30 181.13 21.62 83.93 999.33 970.77 527.07 419.93 212.51 261.64 831.36 253.55 374.86 137.21 1065.67 880.63 155.93 146.26 212.99 185.62 106.10 179.35 74.15 1030.96 88.16 692.75 252.88 76.12 522.23 910.90 92.86 128.62 894.53 1034.92 422.07 264.02 168.53 895.00 54.04 869.28 75.88 482.17 725.39 463.39 454.39 120.82 74.68 354.25 134.35 940.69 308.42 799.13 321.05 275.01 85.86 605.68 432.57 76.27 914.84 93.14 447.42 124.36 122.65 87.00 61.69 910.10 464.59 13.11 131.44 671.36 20.02 137.07 102.49 69.56 185.32 943.58 81.10 135.62 1063.68 178.99 405.40 441.90 134.38 575.92 422.94 54.32 510.61 99.74 87.77 309.04 914.26 21.76 255.61 433.88 71.35 447.27 631.04 108.39 929.76 52.80 568.84 272.74 929.55 890.88 0.00 941.25 99.83 430.79 100.36 914.00 443.30 56.13 58.53 108.00 973.85 19.85 89.85 495.08 1066.17 260.80 85.65 448.97 1030.36 179.16 194.03 395.50 989.21 910.61 845.88 823.32 174.06 237.84 988.13 451.97 110.85 425.94 149.72 36.11 63.51 425.66 32.19 842.52 70.53
320.30 537.17 713.27 210.99 792.17 133.42 954.53 941.64 602.24 874.83 72.37 621.49 795.69 1001.51 1128.74 206.70 1035.70 49.36 593.48 201.85 674.10 221.01 670.67 188.15 761.71 257.84 902.98 681.96 139.56 933.26 987.54 547.09 913.30 628.29 407.30 884.92 398.43 1078.61 662.28 931.15 176.20 1040.02 659.60 124.28 982.83 582.63 840.46 955.69 769.60 850.63 982.23 169.62 885.81 883.69 1130.44 968.42 764.41 646.63 946.01 1069.58 945.96 916.05 278.75 66.93 526.04 638.35 817.70 824.85 224.50 994.87 695.41 848.10 220.13 138.84 864.41 1004.72 1062.67 809.01 923.21 836.06 920.48 108.91 969.03 324.25 764.12 936.13 640.57 75.77 901.75 987.08 302.90 206.38 660.64 779.93 878.96 54.71 967.21 144.60 989.01 604.10 324.03 571.52 596.21 920.30 984.35 788.88 861.27 16.79 760.61 337.07 732.93 865.02 935.07 576.70 634.42 955.16 120.19 996.93 592.93 980.54 900.12 915.25 982.62 199.49 748.05 947.04 953.56 420.62 929.69 916.74 1011.67 998.68 1047.07 111.73 913.53 1044.80 299.64 835.44 692.14 829.13 902.01 469.05 621.01 951.72 577.82 918.61 936.01 801.38 111.95 941.78 825.42 608.64 910.57 702.86 584.99 973.08 11.49 927.06 448.16 1155.35 82.57 100.62 941.25 0.00 1017.85 620.76 905.68 95.96 970.75 962.44 952.51 996.90 259.50 945.11 1005.73 616.67 208.67 821.45 896.27 642.65 160.58 856.31 788.68 639.41 145.41 105.37 178.87 262.06 860.94 843.91 165.50 634.08 1019.20 625.41 880.55 957.16 950.81 608.15 953.12 216.21 943.86
1276.28 583.39 425.01 921.08 237.00 907.75 126.64 100.05 555.80 286.71 1020.60 509.19 313.68 109.93 198.96 845.71 181.61 972.19 569.26 1103.15 515.61 834.95 495.89 847.58 384.14 970.44 157.71 405.68 1149.34 148.11 69.19 995.72 183.16 489.94 638.45 174.54 733.64 121.08 613.77 102.62 886.61 169.23 428.41 911.45 46.34 552.23 270.16 170.54 373.36 213.97 55.25 1046.70 407.83 214.61 284.60 65.35 253.44 608.59 186.81 130.11 92.77 152.07 1012.36 1036.39 596.24 494.98 233.83 292.66 886.91 277.71 435.37 190.20 1103.52 919.17 234.49 133.93 215.69 232.16 171.51 226.75 149.74 1096.73 126.01 758.54 334.83 120.67 572.33 968.42 173.45 116.29 940.58 1092.89 432.39 322.03 256.05 963.14 68.52 923.82 103.99 553.98 807.34 538.33 492.92 174.60 61.62 439.43 187.65 1027.82 362.70 868.44 350.90 339.48 147.93 607.55 475.43 100.29 962.02 66.38 522.99 141.69 198.73 144.83 99.54 895.72 492.34 105.51 158.69 710.33 88.16 212.66 11.90 56.39 209.59 990.76 156.69 38.24 1094.07 248.60 457.22 455.22 217.77 648.30 466.63 94.31 570.01 164.22 138.51 378.65 932.24 107.24 303.48 501.15 140.66 516.88 686.11 146.24 1019.96 113.07 634.63 316.15 974.88 960.38 99.83 1017.85 0.00 498.78 140.35 960.90 425.31 131.18 85.79 158.05 1011.70 106.74 48.27 525.09 1134.31 330.71 131.78 523.67 1087.88 238.38 234.89 488.02 1046.71 970.31 882.13 869.73 243.89 288.00 1061.32 489.97 80.61 511.13 188.76 91.18 94.94 478.40 101.80 875.64 105.16
862.17 178.63 159.00 549.92 375.16 539.97 422.49 440.57 107.62 284.55 647.47 17.93 254.64 451.25 640.65 506.75 606.62 606.34 105.20 730.91 118.34 518.36 90.46 535.09 497.37 724.35 435.67 303.93 681.43 380.51 479.65 794.57 509.90 40.46 220.81 475.53 414.56 591.11 162.87 420.69 505.76 589.05 281.20 553.20 488.38 54.37 289.08 402.94 207.78 411.71 461.97 650.51 614.98 400.97 682.43 457.96 347.40 178.52 400.42 600.14 452.41 427.69 730.63 632.51 128.33 78.54 264.95 459.15 506.12 579.20 142.19 411.01 737.89 563.01 319.47 551.86 585.32 322.27 377.62 290.47 409.57 696.09 419.88 299.77 223.07 486.71 120.17 585.41 395.08 544.71 551.71 681.38 104.15 305.09 298.84 611.19 470.45 537.98 429.61 83.43 427.53 67.90 91.59 380.70 471.98 237.50 444.26 603.97 204.12 575.86 234.81 264.75 414.29 211.42 72.36 486.86 588.15 507.94 31.09 519.31 490.74 460.31 446.35 613.99 183.62 443.90 400.81 292.69 450.81 363.99 505.32 472.23 548.08 616.89 402.62 533.72 795.95 298.47 92.54 248.24 357.04 167.95 320.45 464.91 116.77 456.23 491.68 244.89 586.27 435.30 211.76 416.60 436.08 173.96 222.36 399.65 614.90 463.39 191.26 683.33 576.23 563.14 430.79 620.76 498.78 0.00 468.50 557.07 649.88 408.76 469.12 502.95 652.87 434.65 490.64 81.49 768.46 240.88 448.87 62.24 700.68 375.51 371.67 35.29 674.72 547.66 557.87 511.30 365.17 401.57 665.13 125.35 521.44 12.35 335.57 446.70 481.23 51.66 445.27 507.03 484.07
1198.84 564.87 352.19 842.25 145.19 837.14 148.52 119.77 491.86 268.55 928.47 456.64 308.29 179.50 239.80 796.72 176.09 860.02 532.39 997.12 497.45 813.86 464.13 836.81 243.79 992.73 49.68 311.39 1035.16 193.52 145.98 994.75 76.18 434.11 582.18 43.99 654.81 188.65 565.02 90.26 817.52 150.07 334.12 847.50 101.39 498.21 222.29 171.09 339.87 146.69 137.67 955.27 331.08 115.56 281.58 87.64 141.27 580.67 192.15 197.68 120.27 117.27 974.39 952.17 561.03 454.50 244.20 228.66 823.28 184.93 378.73 86.29 1011.07 790.07 227.56 115.38 200.94 196.09 122.54 178.03 145.12 968.50 158.32 708.73 311.11 30.45 531.52 902.54 132.67 103.92 804.18 986.14 413.91 233.08 257.33 850.97 116.45 821.07 165.50 522.14 751.31 490.88 463.24 180.97 162.55 395.10 95.43 915.65 345.48 795.43 285.50 324.00 132.45 640.25 430.49 69.80 856.64 92.82 475.04 89.09 58.38 41.70 131.85 867.47 396.93 103.22 193.24 644.88 108.87 165.18 128.45 159.67 141.39 885.38 138.17 161.58 1064.83 216.05 425.46 490.40 176.16 611.79 372.34 46.04 516.28 23.87 48.29 381.25 877.40 94.41 306.83 369.61 91.67 519.48 671.79 178.55 907.79 78.83 614.24 288.34 868.78 844.68 100.36 905.68 140.35 468.50 0.00 843.01 398.00 153.53 54.56 102.10 1044.01 95.05 150.50 533.74 1022.14 330.07 105.97 483.94 986.41 144.32 117.00 445.23 950.26 852.42 830.93 843.37 152.89 206.17 960.46 430.80 121.78 466.99 132.93 76.86 51.32 445.64 126.57 811.53 61.54
372.89 519.69 668.26 115.03 756.46 112.06 911.70 905.93 599.30 831.29 102.95 575.00 761.27 965.80 1073.82 181.29 999.99 63.17 602.09 192.66 663.52 171.96 647.53 159.01 761.12 213.03 840.31 629.26 192.15 921.01 951.83 479.96 869.32 597.53 428.82 856.30 302.47 1031.66 670.89 909.94 154.96 977.35 638.36 110.47 932.62 564.38 826.74 925.08 724.59 810.86 961.02 112.26 872.00 838.02 1124.59 901.28 728.70 655.24 900.94 1033.87 910.25 880.34 241.08 145.54 534.65 611.78 805.45 837.67 154.35 973.63 646.36 812.39 264.68 110.22 835.27 942.05 1018.69 787.65 866.83 790.99 889.75 171.29 917.05 332.86 767.04 873.46 639.15 59.53 866.04 924.41 229.29 143.13 624.34 808.51 837.06 54.12 935.35 95.99 953.30 588.76 294.53 578.28 551.20 895.19 948.64 791.32 825.56 79.17 722.47 288.02 719.12 821.82 899.36 571.05 629.43 912.81 44.60 935.83 588.16 932.10 850.16 864.95 939.83 179.10 723.40 911.33 934.78 356.94 893.98 891.29 949.00 962.97 984.40 73.34 891.83 982.13 251.59 806.30 649.61 805.31 875.80 477.66 653.06 889.05 586.43 866.88 891.30 776.73 34.39 906.07 768.83 660.25 874.86 709.40 560.95 934.35 90.10 891.19 456.77 1105.39 25.77 55.61 914.00 95.96 960.90 557.07 843.01 0.00 958.42 904.93 897.57 945.11 338.11 900.17 968.65 559.87 225.29 785.23 860.56 619.31 150.22 820.60 726.01 592.36 136.47 9.41 124.46 210.83 825.23 808.20 117.45 589.07 964.79 569.42 836.09 919.87 894.33 583.50 917.41 142.60 894.65
1291.05 726.07 593.75 887.39 314.94 914.91 480.74 453.92 680.14 623.88 1018.05 635.76 527.62 502.82 417.64 867.10 443.68 949.60 697.27 1084.34 702.91 849.96 696.93 843.40 233.55 996.31 380.94 368.14 1110.31 530.50 476.05 1016.74 409.41 625.71 761.15 416.14 776.63 432.58 757.90 435.05 874.27 406.51 390.87 907.27 378.97 654.32 506.69 535.39 537.42 393.43 444.61 1022.43 154.24 416.62 489.88 410.31 342.70 773.55 545.28 441.61 458.24 444.24 976.61 1014.70 738.82 601.53 544.59 224.67 804.07 311.15 568.15 426.39 1151.11 889.73 518.88 382.97 449.70 442.89 484.08 489.21 466.03 1062.31 499.76 798.65 559.19 400.81 735.97 1011.12 473.35 367.57 902.51 1076.28 564.72 407.59 578.65 940.55 406.41 911.20 494.52 694.96 789.57 640.42 625.31 524.24 471.44 672.00 420.72 970.19 561.43 954.43 486.93 614.54 461.86 787.28 577.52 402.14 950.37 371.57 625.08 342.17 413.58 356.30 473.29 859.97 737.80 449.00 523.11 701.63 441.97 505.29 437.21 469.05 386.40 979.11 459.08 463.55 1104.74 511.07 701.20 800.59 492.29 703.86 429.09 418.35 704.56 390.33 388.55 634.23 974.94 421.54 591.23 362.11 432.35 728.81 872.24 503.45 959.26 403.95 674.74 496.88 984.19 944.34 443.30 970.75 425.31 649.88 398.00 958.42 0.00 480.66 415.34 358.53 1121.12 444.86 433.75 684.14 1111.72 641.75 423.06 682.94 1075.99 434.60 336.33 614.59 1027.90 967.83 866.66 869.01 439.23 381.41 1007.81 587.44 416.35 645.03 496.13 425.30 412.50 617.21 443.79 815.82 411.99
1201.51 483.55 330.40 789.90 208.73 836.96 18.13 73.78 476.24 230.11 975.01 394.64 244.75 75.93 275.64 780.60 224.48 916.78 456.89 994.64 430.67 797.74 407.26 808.95 357.02 964.33 129.45 379.65 1053.02 95.21 86.60 1023.33 175.47 384.59 585.69 178.73 602.46 211.96 537.47 66.23 810.01 214.82 402.38 850.19 112.34 448.91 203.35 72.78 274.07 141.88 80.80 946.62 421.01 144.14 318.45 103.50 198.03 543.16 99.26 213.17 68.87 46.39 970.61 980.42 505.04 363.80 179.07 265.96 836.73 290.91 343.49 119.52 1056.81 857.54 151.54 163.77 248.58 161.37 63.00 150.15 57.08 1018.64 50.53 667.95 228.08 125.74 480.76 926.29 65.87 170.16 880.65 978.79 390.15 244.76 177.75 907.73 100.01 853.03 64.07 457.23 700.59 441.36 428.82 72.77 98.21 335.56 146.19 963.61 287.22 803.33 277.95 221.28 29.73 549.55 387.81 120.72 910.52 137.16 411.25 168.23 171.61 124.36 53.00 853.97 440.34 52.97 94.93 657.57 70.32 105.64 124.15 96.15 226.86 939.26 56.85 157.28 1039.43 161.66 368.59 445.37 119.14 551.67 403.68 107.49 486.36 137.10 125.13 290.80 891.95 59.12 248.72 446.78 75.55 429.03 631.12 70.76 964.55 96.23 544.04 328.87 930.70 894.93 56.13 962.44 131.18 408.76 153.53 904.93 480.66 0.00 98.97 151.87 965.16 71.60 82.91 470.31 1078.90 220.48 67.57 392.84 1009.21 166.32 203.95 373.47 938.20 914.34 816.68 791.02 129.13 258.50 932.00 407.04 127.91 403.91 113.99 81.22 105.05 415.16 47.52 824.98 107.89
1240.77 549.26 401.22 884.80 189.46 875.53 102.37 65.21 537.48 279.86 973.06 455.00 293.01 132.25 212.97 794.25 170.62 906.85 555.86 1051.46 508.76 777.11 479.48 799.29 298.35 955.74 71.92 319.89 1086.38 156.71 113.06 1016.99 110.48 444.95 579.23 88.75 701.43 138.80 578.60 48.43 826.02 145.21 342.62 863.16 53.65 510.61 240.60 134.28 354.51 166.04 83.11 1009.83 322.04 137.80 271.81 50.65 188.10 587.44 160.12 147.83 76.70 79.75 1002.61 978.74 565.40 462.77 230.73 279.73 838.62 211.11 394.91 104.41 1065.63 834.83 191.34 109.91 191.67 213.43 133.00 198.35 119.98 1013.26 120.72 707.31 291.21 46.63 534.91 928.99 112.36 92.27 854.79 1040.70 424.89 282.11 227.06 897.80 63.01 865.83 128.75 519.90 759.81 501.72 479.65 166.16 115.09 379.67 109.01 962.48 347.63 837.46 321.13 286.48 94.93 643.48 448.61 32.28 901.40 55.30 485.18 105.27 112.94 59.04 113.45 922.03 451.49 71.64 156.43 651.11 60.43 149.75 73.89 105.40 157.53 930.14 122.56 107.02 1079.37 218.20 440.81 459.43 138.64 562.51 380.84 8.52 561.90 78.43 60.14 360.80 917.54 39.85 300.38 424.17 109.68 499.03 617.35 140.95 954.62 27.28 598.41 299.43 923.34 889.44 58.53 952.51 85.79 469.12 54.56 897.57 415.34 98.97 0.00 92.33 1025.61 48.90 95.94 531.85 1068.97 309.76 100.93 491.75 1033.24 152.59 171.56 433.83 995.02 906.98 833.84 852.37 163.87 210.93 1015.02 441.78 100.08 464.27 153.25 22.42 35.72 443.75 83.95 827.35 28.09
1298.36 615.22 444.28 886.63 231.73 899.94 170.00 137.25 562.97 346.45 1015.33 510.10 362.68 199.84 137.70 873.20 103.67 962.12 522.44 1037.32 529.84 856.06 494.02 861.24 325.16 958.04 127.41 349.05 1136.46 225.67 163.87 986.17 83.60 514.62 589.60 143.51 699.19 143.31 620.47 118.10 855.18 94.70 371.78 913.17 133.05 557.32 306.36 203.24 418.18 209.74 169.18 962.85 414.37 193.29 179.48 115.15 243.37 635.78 249.30 141.23 129.62 149.64 981.81 1025.59 604.28 515.67 320.51 274.60 844.93 163.00 419.93 185.22 1055.45 889.59 263.93 50.08 104.99 255.32 202.89 262.10 182.15 1068.02 170.83 771.71 360.88 71.65 595.49 1004.64 181.08 41.76 906.28 1030.65 498.56 324.38 276.53 953.07 141.82 916.01 183.88 560.10 788.97 560.07 522.85 224.64 182.68 434.93 150.88 1013.69 407.52 888.90 387.60 373.15 181.60 652.11 525.51 101.75 956.16 103.08 523.08 16.36 102.76 103.11 161.24 911.85 499.03 121.11 224.03 661.48 128.02 229.89 166.22 177.56 87.75 984.90 188.93 158.16 1081.67 286.99 509.53 528.22 230.97 654.84 410.00 100.85 551.91 117.34 89.49 417.04 979.50 125.09 339.33 413.99 169.80 555.27 709.68 191.06 1008.39 119.61 647.80 211.03 970.88 944.20 108.00 996.90 158.05 502.95 102.10 945.11 358.53 151.87 92.33 0.00 1045.78 127.85 180.56 531.21 1124.24 368.80 170.82 524.48 1088.51 192.08 219.10 503.50 980.88 954.52 884.02 880.09 237.54 271.37 977.47 515.45 102.84 490.60 217.00 114.75 102.75 528.41 140.19 833.18 96.88
381.90 595.52 781.61 443.88 919.48 321.74 957.64 975.01 635.88 926.16 326.61 660.02 865.05 965.84 1147.26 398.98 1133.17 293.33 615.55 432.38 701.67 415.28 665.85 397.98 979.91 517.34 1064.34 752.98 231.29 998.68 946.18 695.21 997.37 671.37 491.37 1020.68 517.69 1116.34 708.67 983.95 362.98 1107.76 730.25 334.97 1006.48 612.64 907.69 997.71 813.42 997.97 986.93 381.13 1064.03 1012.07 1221.18 1009.95 947.24 707.98 1002.61 1107.31 963.01 1005.00 534.51 192.57 587.39 677.89 901.77 945.66 432.58 1125.62 767.64 1013.11 91.82 352.48 953.99 1072.46 1142.72 932.57 985.16 943.34 994.95 314.08 938.63 569.82 833.48 1044.75 659.98 312.29 1015.48 1054.82 507.52 448.93 693.71 874.53 945.23 302.38 988.07 337.81 945.81 600.27 536.35 618.68 686.71 987.22 970.57 836.04 1015.77 258.94 811.94 579.22 854.48 879.60 979.34 638.05 678.00 1028.78 364.16 1036.45 630.44 1029.42 1016.53 1051.50 912.16 436.01 762.76 971.98 983.63 419.49 965.18 993.25 1023.60 955.31 1119.38 366.77 1001.90 1049.94 520.00 935.29 704.52 820.71 993.86 530.40 715.61 1028.17 639.76 1045.92 1047.41 829.48 348.47 986.26 864.63 825.25 987.67 720.91 694.75 958.86 248.01 1023.37 566.30 1246.59 333.94 297.87 973.85 259.50 1011.70 652.87 1044.01 338.11 1121.12 965.16 1025.61 1045.78 0.00 982.43 989.68 571.38 361.04 872.78 1001.97 689.81 292.01 995.81 950.04 670.96 404.91 344.07 376.12 466.80 954.73 976.96 385.86 707.52 1055.46 640.52 972.55 1008.36 1020.07 659.48 941.66 420.83 1009.85
1231.31 500.36 367.73 850.14 178.18 833.36 53.47 30.53 496.10 245.39 961.78 420.53 258.54 90.40 231.66 745.35 188.58 900.08 521.73 1029.98 463.24 728.21 442.60 798.04 326.47 956.32 102.70 368.79 1082.04 130.55 69.62 1035.87 144.92 410.48 618.01 137.65 674.06 184.38 565.47 13.96 780.51 165.16 391.52 824.94 75.64 476.14 212.23 108.12 319.85 169.92 65.04 993.61 370.94 163.40 274.58 51.23 183.86 559.97 144.98 193.41 34.85 82.49 1003.19 950.92 530.93 435.40 219.83 268.45 811.51 260.01 378.46 142.09 1074.25 866.47 159.79 127.87 211.62 178.18 98.34 180.63 77.75 1029.52 96.74 696.61 256.74 79.98 518.35 917.71 88.44 112.22 874.68 1024.48 425.93 267.33 188.38 893.56 61.93 849.43 89.63 485.22 729.25 467.25 468.61 121.26 73.24 334.40 138.39 944.55 318.19 802.99 313.29 280.23 101.20 612.69 436.43 80.13 931.25 73.29 451.28 120.76 126.51 92.71 70.27 914.21 448.92 26.86 130.27 676.39 18.58 140.67 108.39 78.35 191.55 955.87 73.66 141.52 1056.24 188.76 403.93 455.65 135.95 568.48 426.25 57.42 520.52 106.55 94.58 318.95 918.12 28.57 275.46 437.74 75.21 457.18 634.90 112.72 933.62 56.66 572.70 276.60 909.70 871.03 19.85 945.11 106.74 434.65 95.05 900.17 444.86 71.60 48.90 127.85 982.43 0.00 93.71 498.94 1062.20 280.65 89.51 461.52 1029.00 159.31 197.89 399.36 973.54 890.76 832.59 803.47 172.25 244.65 993.63 450.16 106.18 429.80 147.95 39.97 74.50 432.47 42.10 823.26 76.99
1261.75 555.26 390.23 872.81 243.97 902.10 78.37 68.87 530.27 265.63 1027.57 477.55 304.99 69.07 217.00 839.06 154.40 960.07 539.80 1054.88 494.53 821.92 467.50 825.86 388.51 981.73 128.34 415.83 1109.88 127.03 62.08 1043.99 179.61 464.22 645.93 182.67 685.37 141.96 592.69 79.75 860.03 183.54 438.56 889.73 54.78 521.83 248.14 133.02 333.90 210.23 28.67 1022.65 417.98 194.22 320.56 80.87 241.32 603.02 167.82 150.99 73.81 115.00 1028.60 1030.44 556.78 446.71 242.59 286.39 865.19 284.73 395.91 181.32 1081.50 897.45 225.58 163.71 199.59 233.08 123.24 200.17 135.51 1075.88 86.55 710.27 293.13 136.84 551.04 983.50 147.61 146.07 940.61 1061.70 458.17 295.45 234.97 951.02 46.80 916.71 80.06 523.56 765.64 507.93 475.24 146.16 37.69 395.80 188.00 1010.34 323.24 868.78 329.82 304.19 112.64 559.28 469.32 105.26 964.02 84.75 487.42 171.47 182.04 147.46 77.52 936.88 495.47 87.56 139.75 717.81 76.04 165.88 60.17 35.31 217.58 992.76 128.56 86.51 1084.16 223.10 428.83 448.11 181.91 613.77 454.37 104.46 546.08 168.59 129.27 353.15 947.76 94.36 297.91 480.07 141.00 491.38 673.39 106.78 999.41 108.32 586.36 318.20 989.22 938.66 89.85 1005.73 48.27 490.64 150.50 968.65 433.75 82.91 95.94 180.56 989.68 93.71 0.00 510.98 1122.19 291.25 136.18 475.75 1086.46 234.95 242.64 456.38 998.44 978.06 860.41 843.15 197.15 284.55 1014.91 475.06 77.72 486.82 174.23 78.46 105.74 475.70 76.30 853.92 101.71
834.63 138.51 210.23 600.45 425.87 519.37 476.28 483.58 64.50 354.78 631.99 88.64 293.67 455.80 668.91 495.40 622.13 590.33 44.17 702.31 130.29 501.90 94.47 532.01 554.16 721.36 504.05 352.76 655.02 440.45 484.92 756.10 536.64 99.99 248.14 495.48 471.35 629.16 137.29 484.98 497.02 625.91 351.91 532.60 524.82 41.26 336.31 443.05 242.04 439.68 525.67 640.40 663.81 440.69 710.69 522.25 418.11 152.94 465.24 633.34 497.78 489.84 743.20 577.97 101.92 106.51 332.67 516.14 533.45 615.64 205.42 447.45 663.20 549.90 382.61 581.29 636.20 361.19 440.99 371.96 472.66 717.24 424.43 294.57 262.10 523.63 88.60 567.86 460.68 572.97 538.60 696.39 122.33 361.88 373.85 581.28 526.81 535.44 467.76 28.89 375.26 47.30 149.06 448.42 509.31 264.66 444.39 629.14 240.56 597.71 287.52 308.22 454.83 163.64 106.62 543.32 588.92 554.79 59.06 547.57 520.31 508.81 450.90 626.56 191.38 502.69 460.75 314.54 495.53 421.87 513.19 494.05 618.96 614.29 465.71 546.32 759.92 366.19 133.14 249.33 424.76 154.84 348.42 529.20 73.64 515.95 526.92 258.10 576.74 492.00 293.25 444.47 494.51 149.53 284.62 404.20 618.21 526.12 170.66 742.24 534.10 550.03 495.08 616.67 525.09 81.49 533.74 559.87 684.14 470.31 531.85 531.21 571.38 498.94 510.98 0.00 752.45 301.40 484.59 118.43 658.55 424.43 442.38 99.58 645.87 562.67 565.04 494.51 383.35 419.75 625.78 163.69 566.05 69.14 401.17 510.99 537.93 88.10 480.40 528.88 540.77
259.23 693.05 842.50 327.12 908.63 246.18 1070.99 1058.10 757.97 1024.92 145.97 768.22 940.87 1117.97 1245.20 323.16 1152.16 162.12 740.21 215.72 816.53 333.99 819.84 322.42 878.17 331.35 1019.44 805.16 129.75 1084.42 1104.00 657.68 1048.45 775.02 579.69 997.68 514.56 1195.07 815.38 1072.85 299.03 1156.48 782.43 259.41 1099.29 732.15 1009.65 1077.25 898.83 967.09 1122.39 243.13 1020.94 1000.15 1155.50 1095.08 880.87 803.44 1068.84 1186.04 1062.42 1032.51 365.48 248.95 682.85 757.18 968.86 977.12 337.26 1114.34 808.39 964.56 269.22 251.60 997.76 1121.18 1197.35 921.77 1044.30 958.89 1033.24 99.76 1108.09 530.14 909.30 1052.59 808.90 210.10 1018.21 1103.54 421.15 262.27 824.19 955.02 1030.12 171.17 1089.50 262.25 1105.47 760.91 436.79 718.25 755.18 1051.03 1100.81 935.61 977.73 191.88 933.86 480.19 868.06 1010.70 1051.53 724.72 781.15 1089.43 232.95 1114.96 758.12 1111.23 1029.29 1031.71 1099.08 263.05 897.80 1063.50 1099.40 533.38 1046.15 1030.80 1128.13 1115.14 1163.53 249.57 1026.29 1161.26 368.01 969.71 858.51 975.86 1014.77 630.79 796.10 1068.18 735.22 1035.07 1052.47 972.77 246.28 1058.24 957.71 760.91 1027.03 849.59 631.95 1093.12 202.81 1043.52 594.89 1187.05 218.35 267.00 1066.17 208.67 1134.31 768.46 1022.14 225.29 1111.72 1078.90 1068.97 1124.24 361.04 1062.20 1122.19 752.45 0.00 970.53 1012.73 789.38 114.01 972.77 905.14 764.94 218.92 220.80 292.46 393.87 977.40 960.37 233.87 793.05 1135.66 780.81 993.31 1080.34 1070.54 799.47 1069.58 341.97 1060.32
1071.00 333.00 211.00 782.47 326.81 724.35 238.61 287.88 300.61 123.31 851.15 226.76 117.50 264.63 465.33 710.95 442.86 808.41 327.96 922.33 210.19 703.33 226.75 722.61 462.27 931.32 313.07 395.29 890.26 200.21 265.19 948.24 336.13 216.71 461.69 314.29 638.24 422.64 371.28 270.90 716.34 427.33 372.56 735.26 325.49 282.37 135.06 214.92 182.56 301.60 301.28 878.37 552.97 292.69 536.82 308.17 308.00 355.63 228.17 413.61 282.02 230.01 928.43 841.34 337.16 266.67 120.17 417.08 699.15 464.38 265.44 251.05 943.77 739.28 160.61 384.25 461.73 207.72 238.22 189.90 216.68 913.01 204.70 520.75 116.68 303.63 329.01 787.02 197.40 384.99 777.91 911.49 265.79 312.39 92.27 817.46 304.11 708.28 253.76 292.26 589.19 273.48 321.30 211.49 289.58 147.41 302.77 820.89 93.58 776.90 261.80 69.43 233.54 413.03 242.66 325.00 780.62 348.02 257.51 362.12 334.13 314.45 231.17 811.79 261.93 273.45 220.51 509.03 280.82 208.19 342.61 274.32 425.61 809.36 223.63 365.16 999.82 146.70 188.08 259.88 192.16 394.15 399.54 301.24 325.03 325.11 285.79 116.30 750.84 279.60 50.52 489.36 238.40 254.53 463.24 224.93 809.96 294.61 396.84 533.54 793.48 752.26 260.80 821.45 330.71 240.88 330.07 785.23 641.75 220.48 309.76 368.80 872.78 280.65 291.25 301.40 970.53 0.00 251.19 257.21 906.48 270.96 308.79 205.59 874.24 788.54 715.77 708.44 235.35 369.41 882.48 301.60 348.39 236.03 216.67 296.91 324.31 213.30 260.67 710.90 320.81
1200.82 476.94 306.82 826.23 159.62 819.93 58.26 81.03 499.63 237.50 919.06 437.01 270.48 131.99 262.05 719.35 230.85 850.61 504.68 1011.31 461.38 736.49 440.85 806.32 316.41 987.44 86.47 338.02 1027.81 119.15 123.83 962.65 132.48 414.48 598.54 111.16 670.03 215.50 548.19 75.55 788.79 205.44 360.75 833.16 113.69 485.15 201.09 112.91 295.94 131.28 114.66 972.82 405.93 83.46 341.09 82.35 131.86 536.55 140.08 224.53 88.27 21.18 984.42 925.76 527.58 431.37 188.14 198.39 791.18 245.61 352.56 77.89 1052.12 831.80 152.71 170.14 251.90 154.76 74.43 158.40 52.37 977.52 100.62 689.86 280.70 112.45 486.59 912.58 53.79 152.50 866.12 1003.69 401.82 232.68 176.78 841.56 105.93 836.00 116.46 495.05 753.21 471.25 415.78 107.59 139.75 326.92 120.98 906.24 297.91 742.08 262.56 230.35 38.80 589.27 410.43 107.45 898.37 112.00 455.41 157.69 119.92 90.35 89.81 881.94 433.73 89.08 135.06 652.97 85.09 101.43 143.68 132.96 209.20 927.11 50.24 170.02 1032.82 175.50 402.18 447.42 112.53 545.06 389.67 92.41 475.21 103.38 122.60 325.58 894.95 85.59 257.79 414.60 14.30 463.81 616.92 80.39 898.38 89.99 575.10 331.34 886.33 845.03 85.65 896.27 131.78 448.87 105.97 860.56 423.06 67.57 100.93 170.82 1001.97 89.51 136.18 484.59 1012.73 251.19 0.00 443.43 977.00 130.54 156.13 425.60 955.85 869.97 824.93 805.93 140.80 198.74 975.94 409.52 152.51 447.36 113.30 101.56 87.39 427.85 66.92 779.43 77.17
907.08 190.46 182.86 612.16 426.62 543.20 410.97 466.62 110.85 292.98 687.08 69.39 293.83 468.77 649.61 525.38 593.69 627.26 139.95 773.32 66.28 542.52 30.46 583.96 533.67 716.64 477.51 355.39 726.34 405.40 466.29 829.49 484.50 66.94 283.05 483.96 452.10 589.13 144.63 453.75 543.30 607.66 332.66 556.43 505.18 85.03 261.65 424.76 239.19 435.22 473.64 712.75 666.44 417.04 703.96 483.23 398.86 160.28 400.48 598.16 461.71 422.25 763.51 651.36 173.24 129.43 289.84 473.61 568.36 583.14 175.25 426.55 761.27 590.27 314.09 556.61 624.20 335.57 376.51 332.31 404.92 745.09 440.30 318.40 262.26 500.53 87.92 622.95 410.52 559.30 582.37 743.62 124.49 342.63 307.27 634.27 491.16 559.27 438.04 102.28 484.83 71.13 153.83 383.90 480.41 214.09 480.82 652.97 206.95 638.10 272.35 273.18 422.57 209.98 105.42 511.91 650.39 517.03 82.37 540.84 465.34 489.96 432.27 676.23 127.37 445.81 425.70 354.93 463.16 342.00 516.99 469.96 610.32 679.13 401.51 506.29 840.27 314.80 69.13 220.84 358.03 198.61 353.15 488.15 129.29 498.07 482.69 194.09 648.51 451.96 220.19 462.79 443.49 111.72 284.60 439.58 642.04 489.07 194.49 716.39 638.47 593.80 448.97 642.65 523.67 62.24 483.94 619.31 682.94 392.84 491.75 524.48 689.81 461.52 475.75 118.43 789.38 257.21 443.43 0.00 718.45 398.81 423.13 68.35 720.83 609.90 609.92 573.54 382.78 421.91 727.37 151.83 520.75 49.89 351.01 474.06 497.89 72.00 440.36 569.27 500.73
341.07 622.12 801.41 219.31 872.90 228.29 1015.98 1022.37 687.04 952.54 99.57 697.29 871.49 1056.06 1194.77 287.43 1107.96 144.49 669.28 140.37 764.91 304.57 748.91 290.86 842.44 252.38 983.71 759.77 160.33 988.04 1068.27 584.24 1012.72 704.09 543.96 974.10 406.75 1155.68 744.45 1023.21 253.64 1098.30 737.04 226.99 1053.87 661.22 959.14 965.61 845.64 931.36 1074.29 134.48 988.52 964.42 1251.04 1022.53 845.14 737.44 1021.60 1150.31 1026.69 996.78 286.51 214.15 616.85 710.78 937.30 963.17 286.75 1072.31 746.97 928.83 216.17 233.97 967.12 1047.25 1153.15 903.88 971.11 913.50 1003.06 58.84 1024.69 483.08 839.92 1016.86 737.97 119.46 982.48 1064.89 340.46 166.63 753.26 914.10 965.19 135.44 1053.77 223.55 1037.30 687.44 419.16 647.32 690.05 988.37 1065.08 864.68 942.00 150.96 864.46 377.30 833.33 965.43 1015.80 667.51 710.22 1056.21 179.27 1079.23 687.19 1075.50 993.56 995.98 1044.11 256.84 826.87 1027.77 987.76 489.34 1010.42 996.63 1087.96 1079.41 1127.80 175.66 996.11 1116.66 254.00 938.15 772.71 904.93 996.88 559.86 755.18 1032.45 669.22 999.34 1016.74 912.54 155.64 1008.60 912.44 754.70 991.30 778.66 687.70 1004.46 161.89 1007.79 523.96 1248.79 124.45 194.46 1030.36 160.58 1087.88 700.68 986.41 150.22 1075.99 1009.21 1033.24 1088.51 292.01 1029.00 1086.46 658.55 114.01 906.48 977.00 718.45 0.00 937.04 869.41 715.21 139.95 153.02 263.92 348.09 941.67 924.64 119.86 727.92 1099.93 692.52 958.60 1030.70 1034.81 731.83 1033.85 275.00 1024.59
1176.61 441.60 252.20 816.34 119.66 738.83 164.24 185.19 431.45 205.62 879.10 367.58 202.56 227.39 329.78 737.85 273.61 810.65 455.14 952.59 425.35 720.71 389.53 772.83 276.45 966.15 106.61 318.16 995.87 200.11 226.05 876.56 179.43 364.33 565.95 140.82 672.88 288.54 470.50 173.27 744.90 248.20 304.62 752.06 199.42 423.19 147.69 189.15 297.37 87.92 215.33 932.86 282.01 48.80 359.37 186.20 91.90 486.15 176.92 279.51 184.40 136.20 919.28 913.86 477.98 345.22 161.76 209.93 756.52 287.55 246.31 58.03 972.32 785.90 118.83 212.90 294.66 63.24 119.37 85.04 109.24 927.81 183.16 609.98 200.67 166.66 403.41 858.99 103.59 195.26 831.46 903.06 306.48 167.54 195.82 801.60 215.60 754.90 198.94 418.06 673.18 412.42 361.24 173.36 214.78 325.28 87.42 866.28 257.67 832.99 234.52 239.27 136.59 530.97 349.52 167.83 852.47 190.85 392.67 208.44 160.27 131.25 192.03 869.16 371.28 183.34 199.29 611.40 177.89 131.46 226.48 230.96 255.62 881.21 116.19 256.38 971.92 128.24 350.86 429.80 147.49 501.36 326.46 144.07 455.87 158.98 162.62 273.82 852.51 180.16 220.44 379.66 139.87 412.05 597.87 175.79 858.42 143.64 486.07 390.92 846.37 797.80 179.16 856.31 238.38 375.51 144.32 820.60 434.60 166.32 152.59 192.08 995.81 159.31 234.95 424.43 972.77 270.96 130.54 398.81 937.04 0.00 106.32 353.21 916.46 830.01 751.57 792.43 45.46 147.10 930.24 323.37 235.63 375.64 102.20 172.23 173.86 336.33 163.05 744.77 163.64
1098.90 453.77 276.72 754.93 30.56 771.28 214.39 201.50 443.43 289.69 811.47 353.74 191.29 243.16 347.81 773.96 276.75 743.02 456.91 880.12 463.23 756.82 437.51 761.81 208.82 905.30 114.30 321.30 918.16 234.28 247.40 927.97 143.31 376.27 559.32 131.76 682.54 305.65 498.68 183.93 787.31 251.34 303.91 777.15 218.39 409.35 222.31 220.65 222.87 88.75 235.01 838.27 375.99 112.01 398.58 204.64 24.27 514.33 211.09 308.08 205.82 157.56 858.43 846.23 464.14 382.30 225.26 111.66 729.55 255.21 310.14 92.20 944.53 724.21 199.55 216.04 292.68 123.56 194.71 162.79 169.56 869.93 244.11 591.73 222.86 147.45 463.73 785.54 145.85 198.40 809.34 869.14 358.45 116.08 244.54 733.97 223.55 755.21 233.11 419.24 665.39 403.71 352.16 222.23 244.21 335.67 101.40 798.65 277.05 813.72 168.50 319.99 181.99 545.40 358.29 186.80 770.61 209.82 386.49 206.09 124.15 138.94 226.72 771.20 450.19 206.90 242.80 530.55 189.55 186.86 222.99 250.94 258.39 799.35 176.28 256.12 977.60 191.74 411.53 480.17 202.89 508.47 260.35 163.04 467.85 140.87 165.29 321.09 760.40 180.17 280.76 273.34 170.43 459.32 594.03 232.62 790.79 165.18 527.07 379.38 751.78 778.82 194.03 788.68 234.89 371.67 117.00 726.01 336.33 203.95 171.56 219.10 950.04 197.89 242.64 442.38 905.14 308.79 156.13 423.13 869.41 106.32 0.00 374.91 862.48 735.42 765.07 743.45 120.80 89.17 843.46 315.46 238.78 373.24 177.70 193.86 168.32 396.65 197.22 733.75 168.64
865.41 185.62 140.68 585.21 378.40 518.76 391.60 418.28 107.61 308.37 665.32 21.17 238.01 449.40 625.60 505.36 582.84 602.82 122.37 716.74 88.32 500.90 98.07 517.02 494.60 759.64 438.56 306.91 684.67 381.42 451.37 790.96 514.22 11.12 256.10 479.60 432.65 555.82 166.11 385.40 523.85 562.03 284.44 529.67 454.01 76.78 292.32 403.85 172.49 398.77 436.48 680.98 608.22 372.68 655.97 422.67 350.64 181.76 417.67 564.85 417.12 404.42 763.75 635.75 131.57 61.08 286.26 423.86 541.41 569.23 106.90 381.27 758.50 533.69 284.18 527.23 604.75 314.78 363.29 325.76 395.24 712.12 410.29 315.16 206.44 451.42 138.26 601.19 371.81 511.05 572.32 716.67 71.50 302.32 284.98 611.87 435.16 502.69 437.54 86.67 462.82 67.89 126.10 388.46 442.78 210.26 436.46 639.26 194.15 607.28 242.97 275.02 403.20 221.42 37.07 451.57 600.26 472.65 51.92 508.62 495.85 463.20 426.47 647.11 181.59 408.61 401.72 327.98 415.52 346.56 479.83 465.06 565.60 629.00 388.29 512.96 812.17 313.15 110.63 271.05 336.88 188.56 322.84 429.62 132.03 461.34 466.02 234.92 600.30 400.01 247.05 419.58 412.81 146.65 257.65 402.89 635.80 428.10 191.25 648.04 611.52 546.67 395.50 639.41 488.02 35.29 445.23 592.36 614.59 373.47 433.83 503.50 670.96 399.36 456.38 99.58 764.94 205.59 425.60 68.35 715.21 353.21 374.91 0.00 693.88 582.95 551.57 546.59 332.52 368.92 678.03 96.01 486.15 30.44 312.30 411.41 445.94 41.69 420.99 542.32 448.78
435.82 618.54 767.81 214.24 887.89 177.63 920.07 975.72 655.07 911.49 153.48 692.65 860.82 1014.13 1084.50 264.04 997.69 164.45 664.42 56.44 752.53 246.90 740.34 231.78 863.31 112.43 961.94 700.73 284.97 993.78 988.54 495.69 965.22 705.00 509.14 906.27 349.63 1100.67 746.83 987.47 194.60 988.03 678.00 190.86 1021.63 663.60 893.68 974.72 824.14 928.51 1019.00 24.21 952.39 924.14 1148.22 990.29 860.13 732.83 964.41 1091.64 972.03 934.67 146.56 212.34 612.24 680.37 878.22 920.51 223.83 1013.27 721.30 934.61 314.13 160.19 908.04 936.98 1042.88 853.22 939.50 854.46 925.77 194.09 971.92 441.83 842.30 980.71 733.36 115.83 902.06 954.62 282.08 92.01 723.89 846.94 936.61 158.95 1010.84 191.19 999.20 674.76 373.54 649.70 650.75 938.76 1012.93 867.06 953.33 162.20 840.12 277.53 799.51 913.41 938.20 620.29 693.81 998.79 93.62 1015.94 689.57 980.02 946.06 983.69 965.55 216.09 829.25 981.81 995.96 442.51 980.54 896.86 1052.90 1008.70 1029.21 111.78 932.49 1055.24 154.23 879.07 767.26 785.89 912.89 555.25 738.63 986.50 664.61 949.66 988.98 868.34 123.40 997.32 860.42 710.22 943.06 781.04 633.86 988.83 156.90 999.27 526.34 1116.67 111.77 166.87 989.21 145.41 1046.71 674.72 950.26 136.47 1027.90 938.20 995.02 980.88 404.91 973.54 998.44 645.87 218.92 874.24 955.85 720.83 139.95 916.46 862.48 693.88 0.00 127.06 201.05 288.77 928.58 914.55 20.09 688.62 1039.26 687.07 899.56 1013.48 997.45 719.97 957.02 228.17 987.23
382.30 510.28 658.85 124.44 765.87 105.17 921.11 915.34 589.89 827.28 99.81 565.59 751.86 974.54 1083.23 171.88 1009.40 58.68 599.20 183.25 666.00 162.55 638.12 159.00 770.53 205.07 849.72 619.85 201.56 916.44 960.38 489.37 878.73 588.12 438.23 846.89 311.88 1038.06 674.37 904.72 147.88 986.76 631.28 101.06 936.84 554.97 836.15 934.49 715.18 801.45 955.80 102.85 862.59 847.43 1134.00 905.50 738.11 664.65 900.93 1029.03 919.66 889.75 236.97 154.95 544.06 602.37 800.88 847.08 163.76 966.55 636.95 807.55 260.19 100.81 835.26 951.46 1028.10 780.76 876.24 790.98 884.91 180.70 914.61 342.27 761.23 882.87 629.74 62.33 861.20 933.82 238.70 133.72 614.93 811.97 827.65 63.53 938.06 90.18 948.46 591.56 288.72 568.87 541.79 895.18 958.05 785.16 834.97 88.58 713.06 292.24 709.71 812.41 897.34 573.57 620.02 922.22 40.49 945.24 578.75 941.51 859.57 874.36 941.08 188.51 720.62 917.62 930.74 366.35 903.39 889.79 958.41 969.11 993.81 69.23 885.28 991.54 251.61 806.29 640.20 795.90 873.76 487.07 662.47 898.46 595.84 876.29 900.71 785.86 38.61 915.48 759.42 650.84 876.93 703.44 551.54 934.84 99.51 893.16 453.88 1114.80 28.57 46.20 910.61 105.37 970.31 547.66 852.42 9.41 967.83 914.34 906.98 954.52 344.07 890.76 978.06 562.67 220.80 788.54 869.97 609.90 153.02 830.01 735.42 582.95 127.06 0.00 124.45 220.24 834.64 817.61 117.47 579.66 974.20 560.01 836.08 925.26 903.74 592.91 912.57 152.01 904.06
449.63 428.05 633.22 116.72 761.58 66.72 798.55 816.63 507.66 738.04 198.79 572.74 702.83 871.60 991.67 121.52 920.61 130.34 531.52 257.49 639.89 104.38 640.38 34.55 720.79 215.55 811.73 593.20 316.61 796.55 855.71 481.65 843.06 562.69 337.06 786.94 297.02 959.30 629.15 846.55 87.07 895.20 570.47 67.99 841.05 549.50 734.98 813.19 675.80 781.42 838.03 220.91 829.52 746.81 1062.63 836.50 740.80 613.50 776.48 959.73 830.83 803.75 254.63 206.98 492.91 544.20 680.99 766.52 62.59 905.74 578.78 789.06 331.85 40.86 710.81 859.90 941.66 712.85 753.68 666.53 785.63 219.29 817.47 328.50 671.26 856.65 595.86 144.46 771.14 842.26 137.53 247.19 611.25 720.22 742.25 139.39 813.61 60.31 846.22 536.15 198.75 538.79 543.22 770.73 877.27 709.97 810.59 178.31 714.13 212.95 676.64 718.24 804.82 512.76 568.21 801.56 107.43 843.33 578.66 867.66 858.35 836.37 826.68 137.99 715.15 841.14 810.32 265.18 828.58 767.37 881.38 869.65 936.38 136.17 778.68 914.51 339.18 681.84 650.41 781.25 751.34 435.92 561.30 825.32 532.08 830.33 867.74 759.52 108.28 861.16 665.25 590.89 812.14 645.27 491.55 821.20 167.38 861.12 415.43 1068.71 148.26 78.25 845.88 178.87 882.13 557.87 830.93 124.46 866.66 816.68 833.84 884.02 376.12 832.59 860.41 565.04 292.46 715.77 824.93 609.92 263.92 751.57 765.07 551.57 201.05 124.45 0.00 108.46 768.53 772.03 221.14 553.21 888.11 570.22 711.63 841.72 825.55 593.26 828.64 50.84 835.77
549.84 394.64 604.10 144.66 718.60 150.15 809.15 834.00 474.25 752.60 297.71 529.23 595.38 866.95 1013.92 86.58 942.86 231.75 498.11 345.21 607.39 75.26 584.90 73.91 691.67 270.50 834.94 544.05 383.15 797.02 858.57 490.86 796.49 548.09 290.49 819.80 188.56 973.80 601.60 817.43 103.82 917.45 529.37 137.78 879.11 527.87 723.65 799.42 615.62 797.09 814.48 283.30 855.10 769.06 1017.54 854.70 746.36 585.95 775.04 972.41 838.32 821.70 250.80 274.23 465.36 515.08 688.93 713.15 64.94 884.62 549.66 804.18 425.43 142.27 748.97 882.15 945.86 734.70 810.59 763.68 813.49 320.70 841.55 285.68 591.76 856.32 551.89 252.92 820.91 864.51 118.76 318.85 582.13 642.02 689.08 238.57 852.68 164.76 845.28 518.65 119.25 513.97 541.09 803.49 868.44 630.47 804.80 269.68 681.28 195.18 650.18 735.32 820.75 506.97 539.09 840.92 207.64 858.58 507.16 863.73 784.99 842.27 844.02 134.16 681.81 830.33 808.88 218.61 822.05 787.97 857.83 846.10 930.33 236.38 820.44 890.96 362.01 721.20 603.84 743.84 781.02 430.48 483.10 860.89 492.70 819.50 838.48 698.10 216.74 832.04 723.06 592.74 791.63 616.15 479.69 836.08 263.40 832.98 409.59 1040.22 233.01 174.27 823.32 262.06 869.73 511.30 843.37 210.83 869.01 791.02 852.37 880.09 466.80 803.47 843.15 494.51 393.87 708.44 805.93 573.54 348.09 792.43 743.45 546.59 288.77 220.24 108.46 0.00 749.98 742.91 268.68 503.22 887.77 523.65 804.09 843.44 834.00 562.96 838.54 73.09 844.22
1144.42 452.61 290.17 803.08 124.29 750.95 118.78 174.43 387.54 242.40 883.73 348.08 189.79 193.03 337.58 774.51 296.47 815.28 418.34 975.98 398.79 757.37 362.97 781.37 281.08 939.23 123.22 326.73 988.22 166.98 180.93 922.02 186.72 328.70 530.26 165.46 627.42 297.11 445.72 178.72 761.86 246.91 324.47 764.18 217.52 380.86 121.13 144.55 270.45 66.25 209.93 937.49 327.47 57.34 404.83 200.41 96.53 461.37 151.10 288.08 170.74 127.16 892.36 918.49 435.12 328.07 168.28 214.56 765.06 242.09 283.29 66.60 971.95 796.47 108.24 235.76 305.90 75.36 73.91 102.00 105.86 889.51 137.70 598.09 158.22 183.34 378.63 871.11 116.41 218.12 808.22 948.52 261.02 140.62 181.30 806.23 197.05 767.02 180.56 412.24 630.73 366.96 315.78 127.90 182.95 295.99 121.12 870.91 258.48 841.53 189.06 228.68 125.05 513.24 304.06 192.87 863.04 219.17 351.62 234.03 167.56 142.28 146.91 867.15 410.51 181.69 166.70 565.94 179.25 86.00 231.99 190.06 272.23 891.78 98.91 256.67 984.04 137.21 324.30 415.03 102.03 472.09 299.54 172.39 411.96 133.05 172.37 228.36 859.62 174.81 205.67 394.14 140.89 366.59 587.53 141.43 863.05 152.21 474.18 422.79 851.00 809.92 174.06 860.94 243.89 365.17 152.89 825.23 439.23 129.13 163.87 237.54 954.73 172.25 197.15 383.35 977.40 235.35 140.80 382.78 941.67 45.46 120.80 332.52 928.58 834.64 768.53 749.98 0.00 175.19 942.36 277.91 207.96 352.82 56.90 152.71 193.99 313.51 155.73 753.31 183.77
1164.21 481.62 301.35 790.84 66.47 772.80 248.48 256.73 423.94 343.85 850.07 384.48 280.46 316.60 367.72 684.79 276.29 798.25 399.22 911.73 457.24 667.65 429.63 737.48 165.07 913.80 182.17 256.20 983.47 265.72 279.51 936.27 187.77 365.10 587.17 167.67 727.62 346.51 506.32 230.69 719.95 311.11 278.93 764.38 244.02 416.93 258.22 243.29 245.02 116.62 265.50 920.46 325.84 167.21 442.45 236.28 79.50 521.97 278.61 355.54 246.50 219.92 866.93 890.36 471.52 364.47 268.84 156.74 741.80 291.12 355.79 163.19 999.76 779.44 208.80 275.81 321.48 179.78 210.33 226.10 240.55 925.16 274.12 548.74 287.42 201.75 496.60 860.22 216.84 258.17 814.12 862.20 297.42 115.19 303.97 789.20 237.75 788.87 304.10 436.89 692.31 403.36 370.56 231.16 299.44 424.84 122.51 853.88 312.96 771.61 196.35 329.24 228.77 528.89 340.46 217.05 846.01 243.13 379.27 255.01 198.43 186.93 272.70 779.50 487.71 243.75 265.44 557.47 244.78 200.08 284.82 297.12 314.87 869.55 235.33 313.50 1005.88 237.77 433.90 543.31 216.11 526.87 261.35 202.41 428.69 192.91 205.04 385.76 842.59 216.08 333.95 281.64 197.19 461.51 623.93 277.85 846.02 204.24 526.72 438.41 833.97 810.47 237.84 843.91 288.00 401.57 206.17 808.20 381.41 258.50 210.93 271.37 976.96 244.65 284.55 419.75 960.37 369.41 198.74 421.91 924.64 147.10 89.17 368.92 914.55 817.61 772.03 742.91 175.19 0.00 925.65 343.31 258.18 389.22 232.09 233.35 193.06 349.91 244.34 730.05 182.84
455.91 603.55 758.76 212.04 873.91 191.41 940.16 995.81 645.48 891.40 143.89 683.06 862.94 1007.93 1074.91 282.96 988.10 147.91 669.95 76.53 756.07 266.99 720.25 243.07 845.86 132.52 957.76 703.47 280.19 976.64 1008.63 475.60 945.13 689.15 489.05 926.36 329.54 1091.08 760.61 998.23 214.69 978.44 680.74 194.22 1029.87 666.05 876.13 959.53 815.09 918.92 1012.80 14.62 955.75 911.46 1154.26 998.53 846.15 752.92 955.30 1082.05 992.12 954.76 166.65 203.18 632.33 700.46 889.51 900.42 203.74 1033.36 714.20 925.02 294.04 180.28 919.33 927.39 1033.29 867.00 919.41 874.55 939.69 178.70 982.53 432.24 846.39 990.91 714.38 111.50 922.15 945.03 302.17 79.69 726.01 837.35 937.63 138.86 1022.13 175.34 990.35 654.67 373.88 663.48 652.87 918.67 1030.21 880.84 943.01 163.88 830.53 257.44 802.87 929.88 958.29 636.96 684.22 1005.02 113.71 1006.35 684.84 970.43 925.97 982.40 985.00 206.50 817.16 984.97 975.87 427.52 1000.63 876.77 1056.15 1028.15 1019.62 108.99 944.41 1045.65 134.14 890.36 757.67 805.98 892.80 575.34 723.64 1006.50 669.90 960.48 995.47 883.88 131.64 991.12 876.89 704.36 963.15 775.28 631.07 974.35 174.81 1008.64 540.12 1136.76 91.68 157.28 988.13 165.50 1061.32 665.13 960.46 117.45 1007.81 932.00 1015.02 977.47 385.86 993.63 1014.91 625.78 233.87 882.48 975.94 727.37 119.86 930.24 843.46 678.03 20.09 117.47 221.14 268.68 942.36 925.65 0.00 690.74 1029.67 677.48 919.65 1013.22 1010.14 700.95 977.11 215.49 1007.32
944.82 245.58 154.93 573.94 318.95 546.87 396.69 452.34 181.38 377.02 679.47 107.42 213.40 457.27 615.49 530.45 562.48 630.93 146.33 745.06 184.33 513.31 182.16 530.43 469.10 748.37 401.13 219.30 768.87 412.52 458.84 762.37 458.77 84.89 252.35 420.15 451.75 571.34 237.87 456.63 494.02 524.82 242.03 559.31 443.63 145.67 307.23 417.44 159.53 344.16 473.09 676.12 530.35 335.25 672.47 474.97 291.19 251.20 393.06 562.31 448.65 388.34 743.40 648.77 215.77 100.36 296.96 409.22 514.12 493.74 101.22 344.51 764.12 579.98 355.50 513.67 583.81 318.44 351.82 364.76 383.77 725.64 406.88 338.98 244.97 449.50 197.42 637.12 394.32 496.03 577.94 713.38 111.01 289.36 307.10 639.98 471.07 557.56 455.94 137.71 422.87 141.66 37.87 405.81 460.86 306.27 388.05 633.52 268.71 571.20 146.96 361.64 402.96 272.46 124.37 470.78 609.03 473.60 125.82 508.14 439.61 420.19 424.82 626.76 256.15 459.60 426.90 288.03 452.25 363.91 501.87 441.47 550.14 637.77 376.82 528.21 791.29 326.53 197.96 332.78 379.94 194.18 280.25 450.30 175.80 410.96 450.28 309.48 600.94 452.72 308.65 331.97 418.41 242.66 326.59 419.34 622.59 430.12 221.96 679.47 603.47 533.46 451.97 634.08 489.97 125.35 430.80 589.07 587.44 407.04 441.78 515.45 707.52 450.16 475.06 163.69 793.05 301.60 409.52 151.83 727.92 323.37 315.46 96.01 688.62 579.66 553.21 503.22 277.91 343.31 690.74 0.00 485.87 117.77 334.81 430.62 471.90 116.25 433.64 502.37 461.68
1311.15 606.54 443.05 917.81 250.27 908.61 146.04 122.97 588.54 311.07 1033.87 507.32 345.33 146.79 162.74 851.53 110.32 973.54 584.80 1095.70 539.97 834.39 534.72 853.56 332.91 996.72 149.15 403.60 1156.94 191.87 117.38 997.29 159.51 497.27 629.07 156.30 730.37 138.16 640.16 100.75 886.69 105.82 426.33 917.43 70.45 562.93 299.02 200.69 401.98 217.70 73.29 1015.05 405.08 201.77 272.03 91.63 254.79 655.46 227.17 147.19 125.77 162.79 1043.59 1057.10 617.72 491.71 306.62 282.32 869.50 222.25 435.20 204.49 1121.73 902.38 246.58 102.28 155.51 233.02 190.91 244.79 183.93 1080.81 164.27 779.76 343.53 91.33 573.19 994.70 193.78 106.10 925.96 1082.85 468.98 340.07 279.38 964.49 94.40 924.68 140.87 572.82 816.04 554.04 487.67 195.16 115.41 440.58 170.57 1029.17 400.96 889.78 394.66 349.19 157.64 637.00 512.02 86.55 968.95 44.78 538.07 108.55 169.04 131.03 143.30 930.69 509.42 123.96 206.88 700.95 111.02 221.58 68.71 100.15 147.00 997.69 179.84 55.32 1120.35 275.55 496.05 503.41 221.68 643.98 464.55 91.56 612.96 145.65 109.17 411.39 958.52 115.36 358.72 432.83 162.00 549.62 700.03 184.50 1020.41 123.90 655.85 240.48 990.56 956.99 110.85 1019.20 80.61 521.44 121.78 964.79 416.35 127.91 100.08 102.84 1055.46 106.18 77.72 566.05 1135.66 348.39 152.51 520.75 1099.93 235.63 238.78 486.15 1039.26 974.20 888.11 887.77 207.96 258.18 1029.67 485.87 0.00 516.59 234.55 105.10 85.56 506.11 134.54 857.75 75.34
857.37 179.87 160.57 562.27 376.73 540.14 422.04 448.72 100.26 296.90 637.19 19.50 256.21 452.82 628.30 508.14 594.27 618.69 106.59 735.12 105.99 519.75 80.35 547.44 485.02 736.70 448.02 305.50 676.63 392.86 478.14 806.92 516.55 32.88 233.16 477.93 402.21 586.26 164.44 415.84 493.41 585.30 282.77 553.37 476.03 66.72 283.36 415.29 202.93 413.10 466.92 662.86 616.55 403.12 670.08 453.11 348.97 180.09 412.77 594.71 447.56 426.18 742.98 634.08 123.53 79.93 277.30 454.30 518.47 566.85 137.34 398.66 732.34 564.13 314.62 540.68 574.31 312.40 385.05 302.82 417.00 708.44 421.45 301.16 224.64 481.86 107.82 573.06 393.57 532.36 564.06 693.73 91.80 292.74 306.74 623.54 465.60 533.13 441.96 85.00 439.88 69.47 103.94 393.05 464.54 225.15 445.83 616.32 191.77 588.21 222.46 277.10 426.64 212.81 67.51 482.01 600.50 503.09 32.48 506.96 497.39 466.79 447.92 626.34 171.27 439.05 413.16 305.04 445.96 370.28 510.27 481.02 560.43 629.24 410.05 528.00 808.30 310.82 80.19 260.59 366.62 180.30 320.46 460.06 124.68 468.58 496.46 232.54 598.62 430.45 224.11 418.17 434.57 161.61 234.71 401.22 627.25 458.54 192.83 678.48 588.58 575.49 425.94 625.41 511.13 12.35 466.99 569.42 645.03 403.91 464.27 490.60 640.52 429.80 486.82 69.14 780.81 236.03 447.36 49.89 692.52 375.64 373.24 30.44 687.07 560.01 570.22 523.65 352.82 389.22 677.48 117.77 516.59 0.00 334.06 441.85 476.38 39.31 451.43 519.38 479.22
1087.52 477.28 328.83 802.79 181.19 747.13 95.86 151.51 397.67 185.50 899.64 323.71 208.71 170.11 350.43 774.40 277.00 831.19 416.22 956.00 367.02 757.26 331.20 735.59 337.98 927.18 180.12 349.59 987.21 144.06 144.08 978.76 209.11 301.18 522.52 176.92 684.32 292.05 468.65 139.62 704.96 267.34 326.86 760.36 167.59 371.85 89.36 121.63 272.50 123.15 178.35 923.77 384.21 114.24 396.18 167.68 153.43 479.01 123.40 286.27 147.82 92.12 949.26 875.37 434.11 366.96 115.16 271.46 761.75 298.99 313.61 94.00 1028.57 752.49 105.92 216.29 321.99 71.54 50.99 45.10 82.94 930.92 114.78 605.22 215.12 163.38 411.71 854.00 59.51 233.93 849.01 958.82 317.92 197.52 124.40 840.24 140.15 763.20 138.86 389.21 687.63 357.95 372.68 105.17 168.47 285.34 164.88 880.60 217.73 828.29 241.85 197.21 95.65 522.44 342.95 185.42 819.06 197.56 342.11 222.02 191.31 174.63 123.99 849.62 383.61 139.26 143.78 594.40 156.03 63.27 176.86 167.14 274.32 847.80 75.99 209.99 931.90 88.30 292.53 383.26 77.36 484.33 356.44 161.77 422.09 156.80 181.22 285.26 819.91 154.23 173.90 442.39 100.51 402.24 557.93 118.51 869.67 152.96 481.31 402.26 834.15 789.88 149.72 880.55 188.76 335.57 132.93 836.09 496.13 113.99 153.25 217.00 972.55 147.95 174.23 401.17 993.31 216.67 113.30 351.01 958.60 102.20 177.70 312.30 899.56 836.08 711.63 804.09 56.90 232.09 919.65 334.81 234.55 334.06 0.00 145.26 184.25 332.54 132.81 762.47 175.75
1232.78 540.33 379.78 871.12 171.71 873.33 93.41 58.89 515.06 257.44 955.31 432.58 270.59 113.76 235.39 785.32 178.50 918.22 533.78 1069.92 486.34 768.18 459.98 807.17 320.00 952.79 88.04 342.31 1085.96 164.59 91.98 1002.62 132.90 422.53 601.65 111.17 683.68 161.22 577.52 26.01 820.48 153.09 365.04 864.91 69.50 488.19 224.28 148.06 355.29 143.62 77.09 1021.72 344.46 123.43 294.23 47.70 199.47 593.06 177.41 170.25 57.73 86.51 999.66 990.89 542.98 445.02 218.30 261.98 831.15 233.53 410.97 122.77 1073.62 857.25 171.84 117.79 199.55 216.80 138.28 190.36 110.26 1035.68 122.67 708.66 268.79 69.05 531.34 911.24 119.12 100.15 877.21 1058.98 413.73 264.36 204.64 909.17 65.11 888.25 111.00 498.08 741.30 479.30 468.49 149.12 100.69 374.37 118.89 956.60 330.24 815.04 327.89 292.28 110.33 625.73 448.48 40.16 923.82 77.72 463.33 125.55 120.93 69.00 96.20 930.02 473.79 49.22 167.55 671.70 56.13 166.76 79.28 105.67 179.95 952.56 113.63 112.41 1076.42 200.81 421.31 478.01 161.06 572.39 403.26 30.94 539.48 100.08 82.56 343.55 914.59 22.10 287.95 432.16 87.26 481.78 594.93 124.77 945.67 37.16 584.75 288.65 945.00 879.06 36.11 957.16 91.18 446.70 76.86 919.87 425.30 81.22 22.42 114.75 1008.36 39.97 78.46 510.99 1080.34 296.91 101.56 474.06 1030.70 172.23 193.86 411.41 1013.48 925.26 841.72 843.44 152.71 233.35 1013.22 430.62 105.10 441.85 145.26 0.00 58.14 426.00 66.70 819.40 50.51
1246.03 552.82 394.21 886.11 164.71 867.24 123.18 92.76 543.18 291.97 948.31 467.11 305.12 149.78 195.10 806.74 143.46 908.42 561.94 1048.44 520.87 802.71 492.66 791.00 295.11 954.51 80.84 343.37 1086.48 184.40 119.38 1009.52 88.22 457.06 543.51 91.18 703.81 153.45 579.93 60.54 849.50 118.05 366.10 854.87 50.96 522.72 256.96 170.00 344.22 169.20 92.88 995.52 343.31 136.65 282.23 49.42 189.67 595.23 195.84 162.48 85.13 101.02 986.43 1000.01 577.51 468.85 242.13 254.98 828.82 193.24 379.38 137.61 1060.07 837.26 204.52 82.75 164.51 210.59 142.45 226.04 119.17 1015.69 124.35 733.01 303.32 31.10 550.76 935.07 133.63 65.11 855.50 1037.46 455.01 257.36 232.04 899.37 65.13 868.26 134.83 532.61 750.23 513.83 482.31 172.95 135.22 397.77 110.34 964.05 340.15 829.47 325.21 307.75 116.20 649.56 472.26 23.99 903.83 50.07 491.26 89.74 107.38 56.20 107.91 916.47 448.25 76.62 177.55 615.39 83.53 167.85 106.84 124.50 121.81 932.57 126.12 133.18 1078.14 231.38 453.99 441.56 151.82 598.23 404.32 29.79 562.60 75.19 48.94 367.38 916.31 45.93 311.78 418.61 101.69 505.61 653.07 144.58 956.19 63.00 619.28 276.38 920.10 891.87 63.51 950.81 94.94 481.23 51.32 894.33 412.50 105.05 35.72 102.75 1020.07 74.50 105.74 537.93 1070.54 324.31 87.39 497.89 1034.81 173.86 168.32 445.94 997.45 903.74 825.55 834.00 193.99 193.06 1010.14 471.90 85.56 476.38 184.25 58.14 0.00 449.83 90.53 819.06 10.22
887.92 207.46 165.70 601.58 388.06 560.20 424.20 451.39 127.85 266.68 676.50 43.68 246.63 449.08 637.55 542.38 586.73 644.26 132.27 758.43 115.54 540.97 79.72 558.71 487.69 776.01 436.73 329.68 707.18 360.13 449.64 811.20 498.18 31.36 272.47 477.15 441.52 564.43 188.62 418.51 532.72 560.42 306.95 571.36 436.72 99.29 287.16 382.56 188.07 379.76 469.59 695.76 618.34 370.85 689.08 454.58 373.15 204.27 396.41 555.40 446.24 423.44 778.91 652.10 154.08 101.15 244.57 465.55 557.78 527.54 148.59 359.35 751.30 575.38 304.61 528.51 598.65 273.09 379.33 319.41 384.56 699.71 389.15 335.40 224.98 476.09 147.13 612.37 391.88 510.87 594.83 726.63 52.49 295.41 285.88 637.62 464.16 544.38 435.81 109.18 463.36 88.13 125.63 360.32 441.75 207.82 423.75 607.59 152.46 627.52 261.77 256.87 393.91 199.73 78.76 465.50 628.10 466.69 71.79 533.19 479.02 427.48 415.62 662.27 139.90 438.77 380.43 344.35 445.68 343.61 472.98 451.85 571.64 656.84 377.61 506.11 835.09 278.09 83.99 233.37 336.66 211.07 281.15 452.27 130.26 446.56 459.73 193.23 617.89 403.90 218.21 390.79 432.88 152.24 274.02 399.95 596.66 441.01 211.49 681.15 609.27 588.36 425.66 608.15 478.40 51.66 445.64 583.50 617.21 415.16 443.75 528.41 659.48 432.47 475.70 88.10 799.47 213.30 427.85 72.00 731.83 336.33 396.65 41.69 719.97 592.91 593.26 562.96 313.51 349.91 700.95 116.25 506.11 39.31 332.54 426.00 449.83 0.00 424.89 558.69 452.67
1220.33 513.84 359.65 833.62 194.21 867.25 36.95 33.35 454.00 249.35 975.91 442.16 263.57 83.18 236.60 786.27 225.46 907.46 494.53 1013.46 461.90 770.31 426.08 794.09 342.50 973.38 126.52 365.15 1079.30 114.03 63.52 1026.46 160.95 432.11 590.72 164.20 649.98 174.68 545.35 42.29 822.61 198.72 387.88 857.96 64.82 496.43 199.95 91.60 303.32 168.81 83.89 981.23 400.03 147.27 279.52 68.29 188.71 548.09 119.95 165.65 21.35 83.43 1014.33 992.68 526.20 411.32 180.32 265.31 833.42 271.74 365.33 105.02 1033.48 865.68 175.77 164.75 201.06 191.66 81.82 168.97 94.09 1034.37 55.97 687.18 275.60 107.88 509.62 933.74 107.19 147.11 908.84 1022.51 416.75 275.19 200.72 898.41 66.87 883.32 63.15 488.04 748.11 488.88 439.41 91.42 78.18 343.84 121.83 963.09 276.23 809.00 296.77 242.82 77.25 585.82 435.33 87.12 932.25 94.79 458.77 156.55 154.84 109.84 29.50 897.69 434.54 35.11 100.97 662.60 23.52 124.46 102.22 67.91 196.49 960.99 87.14 135.35 1064.71 146.80 387.41 449.55 140.49 581.96 426.10 86.51 478.42 122.58 110.61 276.85 935.18 44.60 242.98 466.07 81.22 415.08 661.63 76.20 955.23 81.71 563.27 304.93 941.14 906.89 32.19 953.12 101.80 445.27 126.57 917.41 443.79 47.52 83.95 140.19 941.66 42.10 76.30 480.40 1069.58 260.67 66.92 440.36 1033.85 163.05 197.22 420.99 957.02 912.57 828.64 838.54 155.73 244.34 977.11 433.64 134.54 451.43 132.81 66.70 90.53 424.89 0.00 822.15 93.37
476.75 390.37 615.92 71.57 710.74 99.09 822.84 832.36 469.98 699.41 244.52 524.96 668.47 834.38 940.83 96.95 869.77 179.85 493.84 284.61 603.12 95.05 597.49 28.06 698.25 246.00 761.85 547.83 329.96 790.06 834.94 436.50 792.22 547.49 286.22 804.09 259.01 937.47 597.33 837.22 92.12 844.36 525.10 91.93 834.56 523.60 684.14 806.70 638.12 746.56 845.32 230.11 853.46 695.97 1011.79 830.01 738.50 581.68 814.42 928.44 843.50 799.73 241.03 257.82 461.09 517.27 674.50 715.68 11.75 910.79 569.45 738.22 372.24 90.37 704.32 809.06 890.82 743.53 801.16 717.37 798.48 268.80 774.45 303.93 664.85 833.30 547.62 195.30 791.87 791.42 86.69 260.46 581.96 669.38 735.76 188.90 807.12 111.15 823.51 514.38 192.34 509.70 539.35 764.24 859.33 703.56 759.75 221.77 677.01 162.11 649.33 757.60 818.23 487.23 538.92 795.07 134.55 836.84 538.12 816.82 811.38 786.49 800.92 124.39 689.25 850.12 810.36 214.34 841.84 766.70 883.65 844.07 885.54 163.29 798.30 913.07 288.92 675.35 599.57 743.57 754.91 437.71 510.46 818.83 488.43 820.52 817.86 713.11 159.12 841.50 716.09 619.92 792.46 635.94 485.06 794.68 218.22 812.73 406.58 1025.12 168.37 129.09 842.52 216.21 875.64 507.03 811.53 142.60 815.82 824.98 827.35 833.18 420.83 823.26 853.92 528.88 341.97 710.90 779.43 569.27 275.00 744.77 733.75 542.32 228.17 152.01 50.84 73.09 753.31 730.05 215.49 502.37 857.75 519.38 762.47 819.40 819.06 558.69 822.15 0.00 822.40
1235.81 554.11 383.99 884.03 174.93 874.11 118.34 93.30 538.86 294.81 958.53 469.95 307.96 151.37 184.88 796.52 153.68 898.20 564.78 1043.67 523.71 805.20 490.53 801.22 290.79 958.53 73.81 339.89 1083.42 184.21 118.57 1005.62 95.80 459.90 553.73 80.96 701.81 163.67 589.70 63.38 846.02 128.27 362.62 865.09 61.18 525.56 254.83 162.37 353.74 174.83 82.66 1005.74 333.09 126.43 276.36 53.44 179.45 598.49 188.14 172.70 92.15 90.80 994.01 989.79 580.35 471.69 241.78 265.20 834.15 183.02 389.60 132.50 1056.86 827.04 202.39 92.97 174.73 210.08 132.23 219.01 129.39 1005.47 124.16 731.58 306.16 41.32 550.25 937.91 123.41 75.33 865.72 1033.37 444.79 267.58 239.06 889.15 54.91 858.04 131.34 535.45 760.45 516.67 492.08 172.75 128.07 395.64 120.11 953.83 350.37 819.25 323.68 297.53 105.98 652.40 462.04 34.21 893.61 60.29 494.10 80.52 105.38 55.69 97.69 914.47 458.47 83.64 169.16 625.61 88.52 165.72 101.98 114.28 132.03 922.35 127.41 130.66 1082.16 223.28 451.86 431.34 149.69 590.60 400.84 19.57 552.38 70.87 45.46 370.22 920.33 48.77 311.43 416.61 91.47 508.45 645.44 144.39 945.97 55.37 622.12 286.60 920.42 881.65 70.53 943.86 105.16 484.07 61.54 894.65 411.99 107.89 28.09 96.88 1009.85 76.99 101.71 540.77 1060.32 320.81 77.17 500.73 1024.59 163.64 168.64 448.78 987.23 904.06 835.77 844.22 183.77 182.84 1007.32 461.68 75.34 479.22 175.75 50.51 10.22 452.67 93.37 822.40 0.00
DEMAND_SECTION
1 0
2 3
3 10
4 6
5 2
6 5
7 9
8 3
9 8
10 8
11 7
12 4
13 2
14 10
15 3
16 5
17 1
18 8
19 4
20 2
21 3
22 6
23 6
24 9
25 6
26 10
27 4
28 8
29 5
30 2
31 2
32 6
33 5
34 4
35 3
36 9
37 2
38 1
39 1
40 8
41 7
42 2
43 3
44 6
45 6
46 3
47 10
48 5
49 7
50 6
51 8
52 8
53 5
54 10
55 3
56 3
57 1
58 8
59 8
60 7
61 3
62 6
63 9
64 6
65 3
66 6
67 6
68 6
69 8
70 5
71 6
72 10
73 3
74 3
75 4
76 2
77 5
78 7
79 8
80 7
81 1
82 4
83 1
84 7
85 2
86 5
87 2
88 2
89 3
90 3
91 7
92 2
93 2
94 3
95 6
96 4
97 3
98 9
99 2
100 5
101 5
102 4
103 6
104 2
105 9
106 5
107 1
108 1
109 6
110 2
111 2
112 10
113 1
114 1
115 8
116 2
117 5
118 5
119 8
120 2
121 10
122 6
123 6
124 5
125 1
126 3
127 4
128 4
129 2
130 3
131 5
132 6
133 8
134 10
135 4
136 3
137 6
138 9
139 7
140 7
141 8
142 6
143 5
144 8
145 7
146 1
147 4
148 7
149 1
150 10
151 5
152 4
153 10
154 10
155 10
156 6
157 7
158 5
159 9
160 9
161 4
162 5
163 8
164 9
165 6
166 7
167 4
168 5
169 4
170 2
171 9
172 6
173 6
174 7
175 5
176 3
177 10
178 6
179 3
180 2
181 7
182 6
183 4
184 8
185 10
186 4
187 9
188 8
189 8
190 6
191 7
192 4
193 7
194 9
195 9
196 3
197 10
198 3
199 3
200 4
201 2
DEPOT_SECTION
1
-1
EOF
