NAME: LDG200_3132_snow_200_0141
COMMENT: CVRP with travel times.  rootPos=3,custPos=1,demandType=3,avgRouteSizeIndex=2,weather=snow,lambda_cluster=1,lambda_random=4, T1=300,T2=700,beta=1, alpha(i,j) ~ U(0.8,1.2)
TYPE: CVRP
DIMENSION: 201
EDGE_WEIGHT_TYPE: EXPLICIT
EDGE_WEIGHT_FORMAT: FULL_MATRIX
CAPACITY: 47
NODE_COORD_SECTION
1 0 0
2 764 952
3 126 145
4 958 706
5 2 279
6 156 733
7 852 298
8 571 254
9 888 807
10 416 400
11 278 737
12 61 52
13 749 801
14 628 30
15 540 986
16 867 365
17 12 469
18 669 662
19 196 608
20 193 577
21 692 671
22 952 20
23 695 563
24 558 153
25 843 642
26 848 217
27 498 55
28 51 137
29 593 394
30 643 979
31 174 863
32 207 401
33 154 851
34 393 31
35 648 663
36 744 358
37 70 253
38 940 845
39 143 685
40 657 455
41 532 547
42 547 513
43 897 729
44 404 959
45 465 113
46 714 412
47 469 76
48 451 661
49 408 492
50 732 272
51 955 116
52 122 636
53 957 893
54 147 656
55 485 133
56 406 648
57 715 874
58 383 919
59 595 89
60 618 151
61 947 330
62 342 153
63 317 793
64 560 6
65 714 270
66 63 565
67 714 374
68 548 913
69 921 462
70 511 968
71 803 951
72 408 448
73 289 261
74 692 541
75 387 832
76 746 168
77 21 821
78 549 885
79 644 341
80 196 159
81 114 879
82 337 66
83 29 25
84 174 543
85 769 686
86 783 549
87 480 575
88 24 972
89 905 366
90 109 45
91 977 130
92 239 51
93 386 592
94 866 248
95 718 53
96 58 435
97 634 940
98 439 191
99 281 774
100 162 91
101 889 707
102 678 930
103 307 966
104 360 726
105 686 758
106 45 491
107 564 985
108 157 152
109 511 283
110 361 390
111 180 264
112 388 655
113 784 179
114 609 876
115 932 867
116 795 429
117 500 624
118 326 441
119 121 55
120 359 274
121 751 694
122 487 165
123 284 753
124 463 503
125 179 238
126 315 620
127 734 969
128 31 46
129 116 115
130 486 514
131 861 798
132 0 516
133 200 598
134 595 102
135 979 65
136 632 161
137 911 795
138 422 720
139 810 52
140 690 819
141 890 135
142 100 242
143 622 170
144 372 807
145 824 184
146 595 39
147 617 797
148 711 295
149 463 325
150 607 294
151 345 600
152 53 134
153 397 445
154 694 269
155 659 444
156 222 869
157 746 358
158 837 250
159 949 857
160 444 425
161 997 469
162 886 976
163 11 990
164 626 662
165 874 279
166 405 275
167 316 303
168 574 815
169 614 43
170 233 968
171 430 892
172 354 78
173 233 817
174 880 286
175 149 229
176 94 674
177 737 68
178 4 932
179 98 529
180 355 78
181 688 817
182 308 555
183 559 153
184 977 34
185 912 224
186 484 12
187 676 912
188 633 6
189 369 861
190 678 530
191 130 249
192 151 460
193 65 42
194 342 234
195 910 588
196 928 208
197 905 786
198 25 503
199 436 866
200 245 710
201 261 953
EDGE_WEIGHT_SECTION
0.00 1389.68 234.36 1359.69 428.36 890.06 1030.31 757.79 1329.37 662.93 840.44 127.70 1257.83 691.66 1292.45 1069.87 611.86 1072.58 767.79 738.10 1101.96 1040.47 1017.07 676.30 1187.48 997.29 596.05 208.97 791.68 1306.16 1023.65 549.57 976.86 495.06 1040.95 948.69 364.81 1419.68 829.36 884.31 856.76 855.40 1274.85 1134.61 581.60 941.00 552.54 903.36 734.29 885.63 1093.43 790.18 1473.20 823.03 620.75 888.72 1302.86 1131.06 677.49 732.99 1126.58 439.45 933.75 653.90 871.98 732.73 888.78 1175.93 1152.21 1222.52 1389.93 740.34 450.09 983.19 1015.88 845.53 995.68 1178.70 823.00 284.50 1017.26 417.90 70.33 717.86 1186.33 1043.89 798.04 1143.17 1122.14 169.07 1114.63 339.17 840.80 1011.79 827.48 608.34 1253.56 604.86 899.67 263.15 1292.89 1304.68 1102.94 910.54 1165.84 627.13 1278.17 290.07 661.66 641.80 435.44 905.64 875.86 1165.04 1411.79 1048.05 893.07 647.53 164.77 518.78 1145.20 610.69 874.28 797.73 396.98 831.39 1358.71 76.10 225.79 830.90 1303.57 607.81 755.04 649.42 1103.37 771.35 1356.65 966.84 960.96 1222.44 999.77 345.82 750.60 974.20 957.08 725.27 1118.38 881.89 636.40 819.24 773.79 199.14 724.86 918.83 915.76 1044.52 945.99 1022.16 1420.20 713.56 1245.06 1492.43 1181.12 1005.44 1034.14 567.05 541.72 1134.96 714.56 1139.55 1089.28 432.72 971.85 1017.96 374.79 823.69 817.98 1163.48 643.24 426.83 1214.69 754.54 678.45 1098.97 1040.35 573.19 1298.96 741.25 1040.94 961.81 367.40 636.84 116.04 495.32 1236.75 1059.17 1352.29 602.09 1085.50 843.92 1131.57
1389.68 0.00 1194.73 366.50 1124.16 778.57 766.88 830.01 301.37 777.53 621.24 1261.98 164.64 1045.83 293.19 713.08 1036.28 405.36 776.40 792.62 402.16 1107.51 507.48 882.19 433.24 878.19 1036.20 1254.95 704.23 196.82 673.05 890.03 717.10 1087.36 425.73 706.05 1132.33 213.52 807.10 620.38 583.70 607.76 369.50 418.25 990.61 612.55 1016.04 547.12 744.65 804.53 998.17 866.51 258.52 840.87 970.15 608.46 178.42 445.76 985.54 920.97 786.81 968.49 580.26 1043.43 803.95 869.84 664.77 226.05 590.97 335.52 55.92 766.60 979.00 471.42 496.51 888.55 871.50 267.31 720.01 1123.44 771.50 1054.25 1336.23 827.46 324.88 497.25 594.06 903.37 701.08 1273.51 957.86 1183.06 627.59 828.46 1011.09 1033.22 179.43 976.09 633.65 1235.80 349.53 146.44 492.77 535.47 268.77 993.17 305.08 1174.41 746.28 833.56 1071.96 610.55 947.72 227.06 221.10 678.84 537.03 778.33 1254.42 942.54 366.01 902.26 607.99 685.23 1109.48 663.72 70.38 1313.58 1231.64 683.04 252.66 1023.35 763.65 957.66 1044.81 914.93 276.95 501.49 1044.54 226.72 958.41 1127.20 894.18 487.48 920.06 1035.33 300.81 777.82 792.69 752.32 615.89 1245.12 750.50 775.36 605.28 601.17 699.65 844.98 241.03 761.89 662.24 186.28 881.42 417.03 801.35 881.55 948.13 292.61 1035.55 601.39 400.27 1013.24 652.12 810.33 1091.81 820.39 1039.62 859.40 905.66 1019.13 217.30 682.13 884.34 1093.91 886.48 1063.35 159.43 1060.18 508.60 502.66 1069.27 885.59 1277.39 943.78 517.60 924.60 299.76 1000.48 436.26 683.07 594.21
234.36 1194.73 0.00 1125.33 246.51 661.00 856.17 541.93 1130.42 478.26 746.02 162.60 1064.16 606.26 1116.40 880.02 454.46 843.24 534.73 542.83 899.18 928.99 782.71 522.90 953.12 812.62 458.84 113.21 651.38 1109.93 810.26 342.21 839.20 337.89 881.86 743.78 154.41 1211.57 595.00 734.60 668.61 621.04 1040.49 998.32 400.84 735.10 415.33 713.64 516.11 711.49 968.70 628.14 1251.21 629.00 443.83 699.16 1100.49 955.01 546.93 598.28 941.91 254.78 774.38 526.65 687.31 568.47 737.48 1022.21 967.89 1063.15 1205.26 512.32 215.73 748.83 839.83 751.79 821.87 980.95 638.33 99.83 877.43 314.68 201.64 506.01 983.91 874.70 654.67 965.80 926.33 125.27 993.93 172.15 660.62 862.35 695.00 397.94 1068.89 406.72 746.48 109.68 1071.27 1084.37 967.65 761.69 963.47 427.80 1102.12 62.08 475.75 407.44 205.95 698.56 754.99 984.50 1189.80 864.78 730.91 470.70 155.08 328.06 948.74 426.02 716.69 563.37 190.93 638.68 1124.35 158.26 41.50 596.54 1081.71 467.98 521.98 575.00 991.89 596.12 1150.06 782.17 818.18 1020.49 914.37 116.76 575.37 798.15 836.21 561.37 940.19 680.56 402.04 589.58 620.60 103.38 490.50 700.67 703.15 879.04 750.18 841.84 1190.29 510.26 1074.38 1275.96 1003.75 838.64 882.13 332.69 307.54 966.99 598.27 945.22 913.23 330.70 806.37 890.93 140.43 658.56 732.58 950.88 509.25 326.35 1025.98 561.83 520.75 928.88 864.70 452.16 1114.32 605.06 864.89 727.45 174.69 444.13 171.00 305.34 1067.56 911.38 1130.43 466.46 909.45 684.19 991.58
1359.69 366.50 1125.33 0.00 1141.79 912.55 510.89 709.74 134.39 727.09 770.03 1286.24 300.58 880.79 587.05 402.24 1080.39 300.02 820.51 850.83 329.49 785.91 379.68 804.15 196.58 605.89 923.67 1235.04 616.86 494.93 901.39 935.33 937.13 1060.55 342.83 548.25 1132.41 168.09 882.98 505.54 560.61 551.90 114.68 660.32 906.36 468.28 938.25 563.23 643.85 545.24 753.29 933.62 250.22 935.30 875.77 634.58 420.13 720.44 809.52 726.63 499.22 973.76 782.43 909.67 581.26 963.21 520.50 573.96 346.09 619.55 315.75 687.12 909.60 386.54 705.32 687.32 1077.09 557.39 619.65 1093.64 996.61 1083.28 1316.52 906.55 286.68 342.96 577.70 1166.95 460.07 1220.78 712.98 1121.90 683.15 556.16 837.82 1025.99 484.26 882.95 769.97 1183.97 93.96 432.15 815.37 713.57 323.08 1028.14 550.18 1097.88 751.55 760.93 1024.09 626.09 691.73 477.42 225.54 413.67 482.67 780.66 1207.83 876.23 249.81 830.71 799.76 579.89 1033.75 676.66 373.60 1283.59 1165.14 612.71 183.10 1068.54 833.26 781.45 799.93 748.74 179.94 629.13 795.77 378.82 668.47 1119.16 749.72 704.33 644.07 850.18 440.45 599.56 723.29 682.01 661.08 1225.21 677.87 589.00 520.40 829.51 554.65 570.05 195.60 676.46 406.67 374.77 1143.55 381.42 542.75 874.32 887.07 465.73 891.09 853.82 690.35 1042.27 891.06 543.55 1065.09 954.22 799.40 1054.58 950.85 1036.38 388.24 727.32 804.16 727.41 640.69 955.52 462.10 874.37 729.08 397.88 1093.74 930.78 1271.91 877.28 202.33 659.46 183.01 1034.00 635.70 826.67 836.28
428.36 1124.16 246.51 1141.79 0.00 566.46 972.14 712.91 1120.52 569.96 726.61 366.59 1031.51 793.44 1022.66 1003.76 262.00 913.63 521.88 534.37 866.92 1142.99 879.47 663.88 1054.58 992.82 655.80 219.39 762.18 1048.21 751.59 389.66 744.66 519.83 898.94 886.00 123.28 1210.83 551.80 847.08 713.89 718.97 1111.45 926.13 585.12 890.74 645.92 742.07 575.41 827.46 1138.13 536.36 1275.26 521.08 600.64 709.60 1137.33 882.82 738.48 741.40 1075.98 439.06 731.37 753.10 821.38 438.07 886.46 898.11 1088.23 1010.13 1180.08 542.00 396.11 843.41 767.64 860.66 680.89 939.37 787.31 291.38 727.80 491.90 406.32 498.70 946.22 969.28 656.03 848.51 1061.59 295.49 1128.00 405.61 617.47 986.31 867.84 275.53 1003.08 562.54 711.38 313.95 1102.45 1066.72 933.36 801.47 1000.31 316.47 1017.77 244.02 616.78 492.90 253.06 715.10 920.56 1017.65 1241.29 932.13 659.12 432.81 329.22 492.70 946.60 577.89 729.34 633.76 239.24 647.40 1132.88 362.94 288.01 617.24 1152.10 318.35 534.63 739.35 1158.25 762.24 1166.07 754.12 984.30 1070.08 1041.89 160.93 749.50 725.96 976.18 750.33 974.03 829.88 582.42 744.07 612.50 229.22 535.78 783.70 866.21 755.89 892.40 932.27 1211.35 564.23 1191.03 1310.44 860.99 872.09 976.19 506.85 441.31 975.52 770.54 858.31 841.04 518.08 683.22 997.87 188.74 489.21 906.26 856.34 413.29 523.97 1070.34 546.26 666.03 1113.16 1044.94 641.75 1082.01 787.00 792.70 843.52 183.41 423.16 348.52 432.43 1102.75 1074.30 1169.14 307.43 837.26 677.23 826.97
890.06 778.57 661.00 912.55 566.46 0.00 951.20 678.95 856.41 532.74 160.15 807.42 693.35 923.54 499.66 883.13 351.36 614.87 183.39 211.26 633.07 1181.13 632.51 774.94 804.38 980.83 879.01 681.09 681.37 581.75 185.13 411.88 178.20 827.21 572.06 783.29 581.89 926.24 66.09 688.85 518.40 537.44 877.60 454.32 807.81 761.48 835.50 361.77 445.18 829.02 1166.87 140.35 960.58 110.79 809.32 324.17 689.47 415.48 878.29 838.48 980.11 728.64 205.43 936.18 832.11 262.87 734.67 553.91 977.55 494.20 803.67 463.08 553.99 655.32 320.01 958.45 250.14 512.65 762.30 676.25 244.10 751.88 847.91 247.30 751.47 765.58 471.05 402.25 940.96 786.27 1138.43 776.65 321.46 987.87 978.90 415.30 628.75 753.53 144.92 722.63 855.31 673.37 366.90 244.49 616.02 349.12 536.53 623.85 682.47 516.65 570.63 286.46 987.95 574.61 937.77 847.28 429.88 432.83 768.46 575.26 712.75 780.47 174.71 462.07 609.09 270.89 720.73 819.26 688.54 429.15 827.36 327.72 182.29 850.41 1160.49 819.28 856.13 347.96 1041.34 631.64 1043.56 544.24 840.03 293.91 953.12 937.96 527.58 818.48 636.12 760.13 254.45 690.92 448.55 785.26 715.59 226.04 789.69 933.83 947.24 499.18 991.20 878.03 384.62 595.67 959.51 636.25 553.10 495.49 939.42 320.09 408.99 792.89 252.31 980.53 613.66 124.15 997.19 289.88 277.54 798.78 623.89 320.69 777.09 1181.26 1021.22 918.89 664.62 973.13 332.90 655.43 566.42 352.43 789.07 644.66 873.51 1067.90 849.15 310.46 389.63 120.88 378.44
1030.31 766.88 856.17 510.89 972.14 951.20 0.00 348.53 616.30 523.01 823.59 969.42 602.24 442.38 845.18 108.65 1016.42 464.17 845.06 859.60 501.16 358.92 351.23 403.59 448.84 129.60 523.11 955.33 374.90 821.01 1056.09 758.76 1026.58 659.99 506.98 180.38 884.76 663.87 948.51 298.19 508.02 458.79 599.68 944.06 521.09 189.72 533.39 645.45 610.83 144.68 272.28 936.87 700.27 896.70 498.04 686.91 703.07 883.35 408.96 326.07 160.29 601.39 829.32 523.60 176.40 983.80 231.19 783.66 240.54 823.74 789.45 561.80 673.38 330.85 815.44 240.74 1083.18 742.40 275.73 756.34 1066.04 682.72 1008.12 859.58 442.00 393.32 577.46 1221.10 140.67 922.33 261.37 795.67 671.54 79.87 354.48 930.96 768.41 515.97 859.16 852.49 574.11 760.60 986.93 796.14 593.75 963.97 808.31 811.25 444.66 604.96 797.00 698.91 180.84 695.19 666.30 255.27 557.16 635.72 897.88 607.86 483.13 430.15 857.43 542.24 758.54 765.55 796.36 964.74 875.11 536.71 661.43 1011.89 832.31 380.89 370.85 343.88 604.65 734.08 303.82 632.28 204.55 847.11 352.86 773.76 153.18 449.62 590.60 199.00 487.07 299.53 696.75 959.55 539.98 188.44 308.06 990.72 173.98 78.10 636.36 534.92 307.60 825.89 1233.00 487.58 47.03 546.87 663.17 655.97 462.17 1010.42 865.85 641.71 955.00 43.45 809.04 987.06 316.06 1218.73 904.48 635.82 641.70 727.40 403.60 348.29 140.59 554.96 732.75 453.66 840.50 362.09 820.79 830.32 951.07 632.07 384.30 157.72 627.46 1002.63 809.15 846.49 960.53
757.79 830.01 541.93 709.74 712.91 678.95 348.53 0.00 741.21 252.54 654.02 687.68 668.86 244.59 872.08 393.36 735.85 491.91 616.88 611.53 541.35 544.44 394.65 112.14 571.60 384.18 272.55 644.92 165.30 816.34 864.08 459.00 857.01 374.43 534.72 223.41 592.81 827.82 731.27 273.24 388.55 339.32 700.35 855.94 216.84 241.46 234.24 547.59 366.61 203.85 553.80 677.32 851.18 722.09 166.03 527.39 732.94 815.07 213.69 159.53 474.75 318.34 724.51 269.08 220.15 738.84 221.75 747.53 434.72 851.48 866.91 329.95 373.62 358.59 701.31 301.87 929.09 770.14 155.16 473.29 896.29 397.53 718.68 609.34 593.67 443.41 425.67 1081.20 393.16 629.37 526.77 502.15 511.12 375.91 316.10 685.96 763.74 248.67 692.28 549.97 669.23 790.44 882.95 611.95 635.51 711.32 867.19 528.20 96.13 322.04 505.22 556.08 336.23 762.83 801.74 370.68 474.63 380.92 614.76 270.23 572.00 172.30 666.93 366.37 486.82 533.70 799.15 681.69 581.49 381.96 692.50 684.86 615.07 187.61 481.54 140.33 745.46 640.93 362.39 689.39 431.60 582.11 161.08 659.63 332.27 273.36 674.12 200.55 187.31 81.18 494.23 645.31 322.74 173.30 301.70 815.77 217.01 321.87 818.77 249.50 552.54 869.09 1063.43 515.32 340.20 209.24 323.14 683.71 267.49 896.29 774.71 358.30 785.43 361.88 537.32 752.89 318.24 968.83 641.06 361.61 679.97 508.21 109.99 562.02 430.73 289.00 760.49 294.18 726.37 389.83 549.07 606.64 671.43 293.63 546.79 466.37 722.65 685.67 721.03 683.71 883.83
1329.37 301.37 1130.42 134.39 1120.52 856.41 616.30 741.21 0.00 730.16 751.25 1254.59 166.19 952.59 462.02 536.63 1094.89 325.03 845.52 873.21 295.11 920.30 383.43 824.50 242.49 715.99 979.93 1210.73 579.29 378.19 807.50 905.78 850.69 1039.54 356.12 539.46 1124.50 90.31 914.22 467.97 556.94 590.33 108.44 525.93 925.22 544.94 953.15 576.52 635.94 637.94 797.43 938.59 154.74 887.15 899.71 629.39 285.74 586.05 865.78 815.11 631.94 918.81 728.44 980.42 645.91 950.04 548.40 462.57 451.47 485.16 255.92 652.75 933.20 409.38 613.86 747.55 1011.79 423.00 598.36 1073.76 872.88 1050.52 1290.30 858.19 174.30 354.28 531.33 1032.57 569.47 1183.21 757.12 1129.36 629.14 690.55 881.56 1039.28 361.40 853.47 753.52 1188.75 125.99 297.76 680.98 615.05 299.73 1031.79 456.40 1089.97 696.60 748.09 1016.18 641.73 693.97 343.03 120.77 452.28 538.58 761.94 1212.73 841.85 215.43 850.08 755.80 567.05 1054.64 733.55 239.21 1282.16 1167.97 583.84 48.71 1047.78 858.27 857.52 869.52 809.07 45.55 623.32 903.54 244.43 802.86 1106.32 788.32 649.32 734.92 925.45 331.96 621.48 746.89 660.03 671.32 1218.08 665.03 667.66 499.42 795.83 533.06 694.40 90.83 683.92 438.70 280.36 1031.06 378.57 663.33 863.16 874.23 406.99 929.69 760.24 555.96 1012.69 756.67 647.88 1051.21 961.21 843.14 960.24 930.09 1006.80 253.85 737.56 822.35 861.80 722.56 1001.36 327.71 967.07 624.57 421.48 1085.83 941.02 1236.24 882.18 307.71 725.83 48.62 1059.32 549.26 813.08 701.89
662.93 777.53 478.26 727.09 569.96 532.74 523.01 252.54 730.16 0.00 435.69 592.82 625.41 490.35 733.69 578.14 493.41 427.07 386.59 380.80 477.25 776.61 422.59 315.95 560.69 547.29 429.05 577.14 317.01 727.77 635.11 252.52 632.55 499.35 416.24 445.12 480.58 803.86 492.72 365.97 193.83 205.37 678.39 671.34 399.80 333.29 385.54 304.73 148.28 417.65 715.42 499.70 840.26 483.54 380.28 313.72 645.78 605.15 400.02 387.32 620.89 348.11 510.87 472.89 434.99 521.25 385.51 615.90 578.63 728.68 727.00 77.41 284.76 398.57 538.71 515.15 722.36 574.64 286.60 378.43 657.74 444.15 630.21 399.81 555.86 486.26 218.13 846.08 618.87 556.03 741.61 496.07 292.79 497.56 519.91 483.12 676.24 308.36 478.57 500.33 685.96 694.52 675.41 413.08 508.76 502.13 696.82 433.34 156.41 93.05 363.78 320.95 545.97 585.13 787.62 422.53 313.16 137.15 568.38 218.80 536.67 312.39 458.74 167.50 362.56 281.16 753.66 586.83 497.20 183.09 685.84 513.32 376.52 391.42 734.08 369.46 731.94 400.53 591.52 585.50 621.00 442.93 375.79 503.65 554.23 445.46 481.44 409.31 103.38 290.92 286.04 578.09 84.19 402.01 339.69 563.23 442.72 550.58 776.35 50.63 677.43 857.36 838.97 373.02 536.35 180.21 219.19 556.47 480.43 704.19 582.52 429.34 556.12 551.26 397.21 554.02 547.37 781.03 442.19 435.23 577.75 263.00 313.80 791.15 624.20 492.81 664.57 509.14 542.44 367.33 405.14 374.53 576.57 283.88 656.11 600.86 734.56 515.54 571.85 431.17 660.20
840.44 621.24 746.02 770.03 726.61 160.15 823.59 654.02 751.25 435.69 0.00 851.88 606.34 875.00 452.01 807.12 478.71 509.26 241.30 257.52 527.46 1093.91 472.36 751.64 651.33 901.61 802.78 716.44 559.49 496.06 252.46 403.81 202.99 791.10 466.45 717.97 677.71 785.37 226.24 599.93 390.10 439.33 756.09 294.17 784.99 633.87 786.39 246.05 287.41 789.71 1060.79 284.74 835.76 219.63 743.89 195.87 559.10 290.62 832.19 737.52 892.32 689.71 93.31 900.08 784.77 389.81 654.36 395.19 832.14 382.08 651.10 358.28 602.16 508.42 175.44 862.40 360.71 360.08 683.02 687.88 268.89 757.99 892.37 267.74 648.27 616.38 322.98 447.36 863.16 865.48 1071.94 838.63 261.22 895.72 946.02 463.53 487.56 661.25 59.23 788.71 695.16 520.80 262.50 170.40 525.97 458.61 437.73 732.57 592.10 441.32 609.79 199.25 906.12 445.87 809.03 705.95 342.67 376.86 846.00 590.91 607.14 747.07 33.84 356.30 636.56 211.84 602.10 864.10 769.83 381.24 702.54 474.60 228.55 821.09 1113.80 731.48 753.71 218.72 953.54 506.82 996.80 640.06 710.73 133.76 894.07 869.78 453.49 748.88 539.07 669.34 206.54 706.61 358.26 780.43 617.48 204.08 711.57 864.77 812.88 404.52 862.90 778.26 409.41 466.43 856.93 533.10 567.46 383.32 852.10 299.11 248.84 716.98 131.41 867.04 605.59 284.30 909.39 436.30 356.91 722.87 516.24 272.78 749.49 1149.77 941.13 894.71 504.47 878.79 200.50 527.62 642.74 398.69 833.53 631.60 762.95 946.23 751.26 468.23 245.06 61.83 304.33
127.70 1261.98 162.60 1286.24 366.59 807.42 969.42 687.68 1254.59 592.82 851.88 0.00 1133.52 639.20 1202.25 970.38 484.16 986.22 675.13 633.41 1039.96 980.81 943.06 605.92 1115.72 903.16 515.45 171.21 767.18 1236.05 918.56 473.69 869.09 424.68 996.06 854.70 244.10 1344.90 741.33 786.62 786.65 783.64 1203.09 1079.90 483.91 843.31 492.88 775.66 646.41 824.74 1032.54 744.74 1383.13 743.24 534.72 761.02 1193.24 1044.49 616.60 649.69 1049.94 369.34 878.26 608.40 801.87 640.78 791.09 1122.27 1054.52 1157.16 1317.90 629.02 378.33 907.00 914.67 784.64 903.05 1081.01 752.89 214.39 889.56 358.24 77.19 620.17 1107.47 1012.75 780.09 1024.51 1024.45 71.38 1054.97 242.83 713.10 949.24 732.87 487.63 1183.45 534.75 848.58 165.46 1206.53 1220.70 1070.56 812.85 1094.95 529.44 1202.42 192.38 591.55 570.04 340.73 777.94 814.97 1112.21 1350.15 950.36 867.45 519.83 105.11 467.59 1094.01 540.58 818.79 715.30 311.50 718.26 1252.40 51.60 121.10 748.47 1205.88 480.11 662.38 588.53 1043.71 643.65 1277.41 849.09 865.71 1111.68 947.31 265.40 622.90 923.19 896.19 632.05 1007.62 794.71 564.64 749.10 646.09 181.04 622.80 829.05 818.07 924.89 848.30 958.17 1332.15 643.45 1183.83 1364.73 1062.46 959.11 950.84 494.18 444.03 1082.65 616.30 1053.52 1023.34 362.34 896.06 957.07 271.91 711.37 765.52 1065.26 597.80 356.45 1103.93 670.03 608.07 1039.31 979.46 493.80 1190.75 653.87 965.19 890.05 299.73 558.74 18.35 408.96 1198.28 998.28 1254.60 523.66 984.29 790.05 1033.88
1257.83 164.64 1064.16 300.58 1031.51 693.35 602.24 668.86 166.19 625.41 606.34 1133.52 0.00 892.36 365.01 548.44 963.17 243.13 703.29 718.92 280.14 942.87 378.72 717.55 268.60 713.55 909.64 1090.31 576.16 278.88 703.96 768.01 684.50 998.78 285.94 541.41 990.53 256.50 748.03 464.84 431.58 443.12 226.80 486.05 852.87 517.58 888.26 469.17 586.96 639.89 874.52 816.29 320.93 804.14 822.29 484.48 167.05 419.86 820.90 766.23 645.42 907.50 564.69 878.79 659.32 851.80 534.34 296.38 539.03 340.25 198.05 614.48 848.43 376.45 450.11 758.12 845.60 262.63 555.37 1003.84 727.97 1000.61 1210.71 772.77 160.24 332.61 467.42 916.31 606.27 1108.87 863.61 1042.69 462.95 663.82 902.72 940.42 250.03 811.45 589.77 1109.72 233.88 186.39 572.97 448.86 146.75 918.77 342.18 1030.19 720.60 692.75 925.84 515.81 783.08 176.84 286.96 519.07 372.39 613.69 1112.38 797.66 201.37 814.43 589.61 523.00 964.30 567.36 235.02 1181.73 1069.69 530.92 171.57 934.76 716.04 793.02 973.09 792.97 211.74 457.13 906.06 99.52 793.77 967.63 775.80 488.95 755.42 880.57 165.77 623.43 689.35 587.68 527.30 1080.48 609.69 669.61 496.29 632.08 535.01 680.34 257.02 597.25 546.59 323.47 886.15 252.39 636.71 805.62 783.49 240.80 882.03 623.45 395.59 972.91 602.73 645.69 967.93 795.02 874.98 815.33 817.07 967.02 90.10 581.52 719.70 937.97 742.83 898.71 204.95 895.54 458.38 407.69 968.66 792.79 1151.87 781.83 415.91 759.96 193.15 923.72 383.07 668.17 586.15
691.66 1045.83 606.26 880.79 793.44 923.54 442.38 244.59 952.59 490.35 875.00 639.20 892.36 0.00 1062.20 511.75 824.72 720.01 841.31 799.59 751.21 405.58 617.02 174.81 800.12 380.49 179.20 676.91 409.89 1044.42 1108.67 648.63 1072.24 275.39 690.20 431.71 670.16 1018.20 929.93 484.62 633.14 583.91 848.42 1093.75 220.33 477.31 222.71 780.90 598.04 335.55 431.42 884.98 1053.00 895.92 201.53 728.34 914.08 1052.88 104.56 162.89 527.55 366.39 925.49 103.89 334.65 851.27 425.09 992.12 632.57 1079.92 1057.28 567.76 477.27 587.03 945.90 228.00 1107.87 964.93 380.91 521.34 1101.22 384.63 699.83 828.11 796.04 646.75 665.83 1208.04 549.21 623.27 429.36 434.11 742.55 394.26 139.47 779.17 991.82 284.17 914.74 536.30 895.75 1018.88 1123.11 837.57 777.06 822.62 1070.20 551.20 333.94 517.37 604.67 766.05 275.49 980.62 1004.55 528.28 684.12 601.19 605.68 420.76 754.91 215.55 884.95 574.53 566.21 771.51 1043.74 690.80 588.83 599.41 903.88 889.14 828.56 99.34 421.17 183.19 935.01 830.86 271.02 885.83 308.11 632.51 164.27 904.22 328.58 44.89 894.43 347.55 431.90 325.77 712.25 686.62 567.33 367.80 453.17 1053.58 435.97 364.28 1012.58 494.09 643.37 1094.84 1245.99 733.15 431.83 394.98 472.23 911.81 22.90 1140.88 1015.84 349.51 1001.18 426.35 611.81 929.30 126.32 1213.42 824.04 343.62 876.41 739.64 176.96 447.33 438.34 178.17 988.93 49.59 970.96 584.41 618.76 688.97 653.62 407.54 776.33 416.54 946.40 854.36 958.84 916.22 1112.72
1292.45 293.19 1116.40 587.05 1022.66 499.66 845.18 872.08 462.02 733.69 452.01 1202.25 365.01 1062.20 0.00 822.13 851.02 436.79 607.17 623.39 463.40 1181.14 559.34 984.22 519.48 941.21 1100.78 1140.49 706.78 119.63 522.09 824.01 534.83 1143.93 475.46 804.58 1030.83 493.28 565.75 678.87 624.66 636.39 549.42 215.21 1064.03 688.96 1084.39 475.49 673.02 889.81 1099.64 640.01 513.38 610.45 1027.20 513.53 257.21 243.35 1064.26 969.59 918.09 987.71 358.72 1101.73 880.36 755.68 741.18 124.55 779.51 69.95 336.65 656.28 931.03 562.84 294.83 964.96 644.56 165.81 809.26 1072.23 576.18 1119.42 1267.76 680.79 488.45 629.67 555.22 628.81 853.47 1177.60 1072.29 1149.01 547.88 908.02 1068.69 879.96 164.75 997.05 419.23 1125.61 511.69 183.53 327.70 428.59 346.20 827.27 36.87 1098.92 829.27 739.32 994.57 509.05 1024.86 188.22 480.78 770.26 524.49 682.42 1161.43 851.17 458.31 985.25 418.19 646.52 1033.03 551.17 222.81 1224.38 1135.70 644.59 432.58 827.38 594.42 1053.16 1184.69 963.55 504.11 399.99 1120.95 265.49 1017.35 1005.93 942.80 318.25 981.96 1017.31 254.58 846.01 822.90 844.55 563.41 1142.75 656.26 873.37 653.90 450.21 798.18 923.28 488.21 729.50 803.40 378.37 615.85 446.81 876.00 883.10 865.46 257.95 1061.98 446.94 263.14 1081.59 502.52 854.32 1025.79 623.81 1107.11 704.95 750.16 1075.70 274.91 629.65 982.07 1177.26 951.46 1157.93 176.16 1080.99 274.10 594.08 1001.77 732.33 1220.60 920.57 666.79 991.13 481.30 810.12 233.40 497.97 391.17
1069.87 713.08 880.02 402.24 1003.76 883.13 108.65 393.36 536.63 578.14 807.12 970.38 548.44 511.75 822.13 0.00 1025.72 456.64 813.40 818.32 501.70 432.97 347.34 433.10 398.51 203.65 570.64 976.97 339.14 766.09 990.59 785.79 948.25 714.33 463.29 172.36 930.90 570.33 897.44 301.68 417.02 462.28 516.92 835.41 563.02 244.85 580.42 592.97 556.04 240.11 355.82 924.03 626.64 873.62 512.21 611.25 678.75 794.54 468.94 374.27 96.98 667.88 808.40 507.43 235.35 929.01 192.63 759.84 187.50 816.21 706.61 568.90 700.41 323.32 770.12 313.07 1086.67 734.87 291.78 822.83 1002.05 729.47 1015.79 874.15 483.07 335.43 486.46 1190.39 57.83 922.79 315.51 827.29 612.36 153.92 444.19 931.42 724.90 562.74 831.17 896.15 496.20 675.92 921.51 688.67 600.24 969.65 834.56 877.74 455.13 648.83 835.28 648.96 289.49 725.28 592.67 168.24 505.87 647.90 916.58 608.32 448.51 496.67 801.38 487.15 817.49 694.99 748.03 993.77 921.52 453.98 566.16 984.34 820.15 457.84 427.91 368.23 496.00 682.79 393.53 641.26 287.73 913.63 347.48 799.01 241.83 483.84 638.85 199.46 514.10 331.15 628.68 967.14 584.83 220.06 316.35 937.24 178.76 167.81 562.73 561.41 234.69 752.26 1154.67 480.05 140.51 547.33 667.03 648.44 488.85 998.13 757.50 688.46 938.53 141.31 852.50 944.43 405.77 1173.01 918.45 682.57 636.39 688.46 430.95 441.77 238.45 603.16 645.97 543.37 793.88 292.08 874.95 836.00 965.37 651.00 331.26 257.22 518.81 1008.31 700.50 823.81 951.34
611.86 1036.28 454.46 1080.39 262.00 351.36 1016.42 735.85 1094.89 493.41 478.71 484.16 963.17 824.72 851.02 1025.72 0.00 780.37 259.88 295.17 828.71 1205.06 834.74 727.93 1001.38 986.96 726.26 455.89 693.97 910.70 513.71 331.25 529.56 645.81 777.46 858.89 300.05 1169.72 298.45 756.59 645.25 661.50 1041.90 740.93 664.05 826.70 691.40 574.17 525.98 880.58 1146.23 274.36 1160.09 259.08 623.19 527.40 968.97 689.01 778.49 771.76 1080.38 542.42 525.03 823.56 859.29 180.99 840.48 810.23 1019.21 813.80 1066.14 462.35 443.02 810.72 590.48 946.53 418.89 775.12 780.01 455.08 480.27 614.16 561.35 236.70 920.59 936.59 616.48 609.31 1010.10 555.54 1165.91 574.65 511.61 990.97 925.24 94.30 912.56 572.33 473.87 472.46 1035.67 935.84 692.31 561.63 831.95 63.46 852.77 470.11 639.72 430.73 328.81 501.24 976.86 843.14 1164.46 894.66 610.91 440.27 569.13 504.55 879.82 658.15 467.34 569.58 342.60 414.94 1017.14 535.76 482.00 596.96 1074.54 70.82 272.63 750.42 1203.33 793.53 1087.36 553.10 1015.59 891.73 1104.31 337.70 776.72 548.80 1016.31 838.16 797.40 826.26 565.46 753.00 444.60 465.72 484.17 864.09 725.14 515.60 865.29 1012.66 1167.44 530.76 1147.35 1142.86 598.99 785.60 1029.76 544.66 452.48 764.02 808.67 619.11 663.88 583.47 491.31 1030.84 371.30 227.21 951.04 606.91 165.16 577.58 893.71 404.22 725.78 1215.22 1056.44 679.04 939.36 865.25 615.54 779.48 357.04 197.11 502.51 442.22 1041.05 1094.27 1064.55 68.23 660.10 416.88 564.97
1072.58 405.36 843.24 300.02 913.63 614.87 464.17 491.91 325.03 427.07 509.26 986.22 243.13 720.01 436.79 456.64 780.37 0.00 520.49 562.21 55.94 814.08 164.96 598.61 259.09 593.77 738.75 935.80 352.81 356.84 674.27 635.31 652.23 810.73 42.81 390.28 832.39 414.58 605.46 242.08 260.59 309.82 274.45 483.49 653.14 274.45 713.94 263.21 343.83 475.30 714.21 633.60 450.98 635.28 647.34 341.76 277.37 444.84 677.20 582.53 553.62 702.93 498.43 736.04 465.85 669.00 326.67 319.49 437.97 421.92 399.44 387.10 652.62 133.32 420.42 550.45 777.07 278.23 372.47 793.62 696.59 796.04 1025.30 606.53 150.73 222.21 285.72 866.93 500.10 941.54 706.91 821.88 393.22 544.04 708.07 725.97 304.24 608.51 469.95 888.91 265.45 318.73 571.81 413.55 143.60 752.53 399.92 797.86 537.25 460.91 724.07 338.52 610.35 270.92 417.01 340.74 305.97 480.82 907.81 576.85 109.60 638.97 499.74 279.87 762.53 433.23 389.82 1001.50 865.12 313.04 294.17 768.52 533.24 654.04 798.25 576.49 335.14 329.11 706.44 197.48 659.18 819.14 555.74 404.31 556.45 714.79 182.21 439.72 489.97 434.14 361.06 925.97 377.85 485.90 267.18 602.39 383.88 537.08 387.07 376.44 519.56 500.59 858.65 81.40 511.20 589.52 587.05 191.80 697.11 640.97 407.80 772.19 593.60 507.62 765.07 676.70 709.50 754.56 650.83 778.08 188.06 427.30 596.46 812.46 566.03 734.68 302.91 742.00 444.18 164.56 793.72 630.76 971.89 577.26 360.85 604.69 342.89 783.35 350.80 558.17 601.64
767.79 776.40 534.73 820.51 521.88 183.39 845.06 616.88 845.52 386.59 241.30 675.13 703.29 841.31 607.17 813.40 259.88 520.49 0.00 41.72 568.83 1111.40 600.68 668.47 759.28 910.06 740.36 558.82 579.55 650.82 344.21 242.34 361.59 657.67 534.69 705.90 461.91 909.84 128.95 610.00 433.69 467.71 794.94 489.09 674.80 660.04 707.99 314.29 300.48 740.48 995.35 113.11 932.38 119.77 639.78 279.07 709.09 445.78 771.24 743.85 910.38 588.32 265.15 825.41 725.14 148.51 664.94 550.35 876.25 553.92 806.26 326.90 510.55 564.62 330.60 833.77 335.77 515.24 609.43 546.76 354.49 582.34 736.37 99.12 671.22 690.49 364.25 519.80 871.23 660.00 955.04 678.36 251.73 880.82 872.43 280.02 652.68 583.99 213.99 576.17 785.94 675.96 435.97 301.75 572.07 245.51 592.89 556.67 539.00 333.26 449.53 241.36 876.23 601.03 904.58 762.57 351.03 249.44 647.61 463.49 630.09 668.70 207.46 365.90 463.26 155.72 757.26 692.99 554.03 359.42 814.66 261.50 12.75 743.94 1067.44 752.05 827.48 293.22 947.15 641.58 969.07 424.26 749.79 288.92 889.55 828.05 537.52 697.88 467.99 637.96 184.72 568.65 305.08 744.06 635.05 370.97 712.30 875.35 907.56 367.38 946.10 882.98 527.93 540.93 848.80 505.52 418.74 538.48 825.26 479.17 404.00 623.35 312.47 827.12 444.12 175.66 874.39 473.27 143.81 629.24 633.83 158.88 666.32 1093.30 924.26 776.65 679.48 881.84 355.66 560.50 452.33 182.89 683.53 510.45 794.66 947.40 804.67 267.66 400.22 238.71 459.09
738.10 792.62 542.83 850.83 534.37 211.26 859.60 611.53 873.21 380.80 257.52 633.41 718.92 799.59 623.39 818.32 295.17 562.21 41.72 0.00 610.55 1091.34 634.11 626.75 750.58 888.58 709.78 575.04 556.04 690.30 346.73 200.62 389.46 655.75 553.61 684.42 478.13 951.56 145.17 611.13 401.30 450.53 836.66 505.31 633.08 669.88 666.27 333.21 279.00 739.68 1037.07 150.51 954.37 121.02 598.06 298.30 739.78 462.00 729.52 702.13 915.30 552.56 281.37 783.69 703.66 190.23 677.40 566.57 854.77 570.14 822.48 303.39 468.83 598.05 346.82 810.26 358.07 531.46 641.05 505.04 396.21 540.62 700.25 70.29 700.66 693.73 341.88 536.02 866.97 659.62 996.76 655.79 255.97 878.36 830.71 287.68 668.90 598.84 253.47 558.79 827.66 692.18 474.64 317.97 613.79 235.08 609.11 529.38 537.21 369.68 407.81 280.06 865.69 617.25 923.50 730.18 368.16 285.86 625.89 477.57 671.81 665.95 223.68 347.89 433.37 193.67 773.48 662.00 512.31 371.88 856.38 267.61 28.97 702.22 1093.07 728.82 869.20 320.13 950.88 669.23 947.59 440.48 708.07 305.14 877.76 789.19 565.17 693.99 462.12 614.45 203.64 583.28 321.30 725.54 628.68 362.44 690.82 859.96 949.28 388.03 930.70 921.68 502.39 542.05 860.64 521.31 377.02 554.70 783.54 481.69 420.22 581.63 289.77 843.34 402.40 193.95 869.13 501.14 149.92 587.52 661.48 137.40 624.60 1113.30 902.38 734.93 695.70 840.12 371.88 598.16 434.95 165.51 641.81 468.73 811.79 949.06 846.39 226.94 416.44 196.99 498.57
1101.96 402.16 899.18 329.49 866.92 633.07 501.16 541.35 295.11 477.25 527.46 1039.96 280.14 751.21 463.40 501.70 828.71 55.94 568.83 610.55 0.00 829.83 191.51 653.49 218.47 601.08 729.11 968.44 391.29 412.78 692.47 674.69 668.73 850.76 61.01 350.92 888.33 385.42 623.66 298.02 283.42 332.65 244.53 503.91 709.08 311.44 769.88 281.41 399.77 449.40 737.03 681.94 449.85 653.48 703.28 359.96 270.41 463.04 708.40 613.73 537.36 758.87 452.94 791.98 442.15 687.90 363.66 347.09 382.03 459.87 371.48 443.04 708.56 189.26 438.62 587.44 795.27 334.17 428.41 849.56 734.63 851.98 1069.11 650.66 120.81 166.27 303.92 885.13 533.47 997.48 725.11 877.82 395.66 551.35 727.42 744.17 360.18 626.71 488.15 944.85 235.53 357.15 590.01 431.75 133.39 802.45 428.67 853.80 583.64 516.85 780.01 356.72 604.18 315.55 400.66 352.73 283.29 536.76 963.75 620.66 79.68 694.91 512.41 335.81 818.47 483.15 415.97 1033.57 918.86 368.98 305.43 818.44 581.58 685.61 805.98 607.69 340.66 351.94 724.44 242.16 670.08 875.08 586.94 443.41 597.58 745.99 210.96 435.08 545.91 490.08 410.98 958.61 433.79 481.26 298.04 620.59 357.32 574.07 385.94 432.38 463.62 470.67 875.15 104.23 512.56 610.17 635.33 247.74 728.31 653.98 426.00 814.26 596.74 534.24 821.01 694.90 698.62 772.76 700.75 820.15 232.74 477.22 651.34 813.82 588.85 790.62 347.59 771.79 444.13 220.50 849.66 680.68 1027.83 633.20 330.93 635.53 325.30 818.54 369.00 576.37 601.59
1040.47 1107.51 928.99 785.91 1142.99 1181.13 358.92 544.44 920.30 776.61 1093.91 980.81 942.87 405.58 1181.14 432.97 1205.06 814.08 1111.40 1091.34 829.83 0.00 669.18 536.43 713.43 239.93 547.23 1031.25 602.26 1078.78 1284.51 994.82 1235.04 650.17 820.47 494.06 1056.88 954.00 1192.99 618.29 703.81 753.04 823.98 1230.65 574.46 539.63 513.66 905.27 854.04 423.70 158.85 1221.76 1031.25 1131.26 581.87 898.04 987.33 1164.46 433.08 494.47 431.00 720.52 1095.19 462.20 387.68 1207.53 524.29 1133.57 516.74 1156.38 1098.46 814.17 818.48 680.76 1096.40 382.27 1392.20 1092.31 536.07 875.47 1300.05 721.14 1021.30 1134.67 800.92 664.13 773.25 1479.41 449.68 909.43 175.30 808.89 907.91 279.05 338.30 1132.59 1104.83 664.51 1119.67 907.59 812.95 1069.87 1230.53 1007.27 921.04 1167.85 1167.23 898.97 640.57 816.24 926.59 935.75 364.81 1043.40 980.11 544.75 828.66 872.01 875.70 801.05 794.48 602.27 1099.38 785.15 920.34 981.78 1126.83 1000.53 969.41 751.98 936.57 1229.30 1100.07 461.15 62.90 477.51 910.37 972.29 255.45 915.65 235.48 1019.23 498.26 1093.07 291.84 419.67 949.52 423.57 723.13 535.59 926.68 1021.42 835.99 424.50 586.84 1224.03 487.66 313.88 971.17 793.94 550.51 1084.07 1441.46 814.52 317.84 753.68 830.52 1005.88 428.19 1326.64 1167.40 720.04 1225.32 326.82 970.84 1221.62 337.64 1468.35 1143.54 714.15 925.07 953.94 538.00 58.50 307.03 583.75 1039.92 355.99 1116.79 712.00 982.59 1034.20 962.46 769.35 660.50 273.41 902.72 1195.57 1122.63 1110.60 1272.39
1017.07 507.48 782.71 379.68 879.47 632.51 351.23 394.65 383.43 422.59 472.36 943.06 378.72 617.02 559.34 347.34 834.74 164.96 600.68 634.11 191.51 669.18 0.00 506.79 183.10 429.25 629.45 895.92 278.78 483.04 724.82 652.36 675.35 713.47 207.77 252.41 831.31 449.72 677.40 179.39 236.86 257.48 338.72 637.81 555.88 161.51 616.68 356.15 364.29 350.89 606.31 708.24 468.50 681.87 550.08 429.00 424.04 596.94 574.21 479.54 444.32 652.22 565.67 663.73 352.91 737.26 213.73 484.45 359.78 528.95 527.32 396.84 566.98 36.06 522.65 437.51 833.07 443.19 309.78 791.93 741.25 743.81 984.35 663.36 218.48 144.02 306.30 919.72 390.80 887.68 612.60 835.79 420.61 431.10 552.28 785.26 469.20 569.05 531.59 841.35 308.37 454.82 723.91 495.77 308.56 771.28 533.12 818.32 447.98 464.04 720.09 420.51 497.41 420.00 407.09 234.37 277.09 485.43 899.88 583.35 177.35 541.71 506.20 295.40 683.27 509.10 536.49 940.97 824.21 262.23 401.95 792.59 613.43 563.11 641.44 473.50 380.04 384.47 593.50 344.15 555.78 803.45 452.75 512.92 481.16 611.80 315.41 326.78 380.67 371.45 436.93 886.09 393.38 372.96 163.85 676.44 258.81 424.14 437.03 390.35 441.37 566.68 881.77 192.79 398.26 533.34 556.77 356.76 594.12 674.00 559.90 711.06 603.77 394.68 733.77 712.51 558.46 908.66 701.42 716.95 334.73 496.71 504.64 699.52 468.77 637.42 437.96 649.19 573.17 55.26 745.52 637.63 940.71 610.53 330.41 491.75 394.69 809.94 502.90 534.19 726.42
676.30 882.19 522.90 804.15 663.88 774.94 403.59 112.14 824.50 315.95 751.64 605.92 717.55 174.81 984.22 433.10 727.93 598.61 668.47 626.75 653.49 536.43 506.79 0.00 677.40 328.94 196.11 604.21 277.44 928.48 951.06 509.48 948.50 281.23 611.55 335.55 551.49 900.73 771.92 356.53 500.69 451.46 806.15 919.35 151.38 353.60 170.71 620.68 464.23 258.91 519.48 777.26 953.04 747.77 104.74 593.94 845.08 878.48 103.35 77.52 497.71 268.12 791.09 161.24 243.11 759.70 327.59 859.67 546.86 963.62 915.60 393.36 393.49 470.73 794.23 254.10 984.82 876.84 267.30 423.07 967.01 296.37 637.98 671.19 701.69 549.25 524.22 1138.60 490.93 545.26 545.42 425.18 605.11 377.07 203.96 686.53 875.88 182.70 755.69 466.14 775.03 902.58 975.43 703.17 733.39 722.25 979.33 477.98 159.54 392.43 504.11 630.22 301.91 869.53 913.88 410.81 586.77 453.10 511.53 281.16 671.70 96.88 774.69 432.92 465.65 597.11 911.29 631.47 535.40 466.09 775.79 740.15 655.72 75.47 509.09 106.37 817.54 656.05 328.43 796.09 424.17 513.84 85.62 771.77 369.62 163.02 780.82 279.00 273.36 186.98 601.99 614.04 393.46 285.44 374.52 879.18 329.15 378.29 902.06 361.64 604.69 981.23 1129.14 627.46 378.67 220.17 375.44 790.41 164.48 1006.02 841.44 255.36 872.07 400.35 475.14 820.70 242.38 1064.82 709.02 249.47 786.67 578.95 2.15 528.06 410.61 181.16 872.63 224.40 838.51 501.97 508.66 592.18 587.57 312.81 625.92 445.05 824.51 696.60 784.44 747.12 947.67
1187.48 433.24 953.12 196.58 1054.58 804.38 448.84 571.60 242.49 560.69 651.33 1115.72 268.60 800.12 519.48 398.51 1001.38 259.09 759.28 750.58 218.47 713.43 183.10 677.40 0.00 473.50 812.38 1066.33 461.88 463.44 825.15 813.21 852.29 896.57 264.99 412.80 1014.41 266.62 827.64 362.49 404.55 355.32 155.62 679.92 738.98 344.61 799.78 485.39 547.39 511.28 623.38 872.39 340.12 844.78 733.18 555.63 280.24 644.90 736.61 662.64 426.41 835.32 671.41 834.34 521.79 891.88 382.61 500.60 291.07 526.86 417.97 554.47 737.39 219.16 620.48 606.39 999.25 459.34 481.76 939.12 916.02 926.91 1154.76 764.68 108.36 228.90 473.99 1088.24 340.68 1058.09 623.36 955.50 601.74 459.09 713.35 946.52 422.25 752.15 692.13 1011.76 125.27 373.27 735.56 635.73 291.91 953.94 527.40 994.03 631.08 647.14 890.50 517.92 606.63 396.48 311.75 381.97 460.19 641.48 1070.29 710.47 149.49 724.81 685.17 478.50 866.37 649.78 425.80 1111.38 994.62 445.33 223.14 971.54 759.31 725.82 735.76 635.90 196.94 555.92 715.31 287.57 584.59 986.55 635.85 647.39 525.41 774.20 374.46 494.82 551.08 490.42 605.38 1056.50 576.29 541.00 346.95 753.27 406.40 489.59 294.13 510.06 283.92 415.71 1050.29 308.21 427.07 706.86 727.18 434.56 777.22 822.65 575.66 894.16 782.74 405.39 916.87 821.64 705.42 976.74 853.85 900.05 278.15 613.18 675.25 728.33 480.07 820.52 343.32 798.28 644.24 238.36 928.62 820.73 1111.12 762.77 147.31 526.75 211.59 977.52 550.86 686.98 801.70
997.29 878.19 812.62 605.89 992.82 980.83 129.60 384.18 715.99 547.29 901.61 903.16 713.55 380.49 941.21 203.65 986.96 593.77 910.06 888.58 601.08 239.93 429.25 328.94 473.50 0.00 478.58 911.78 397.27 873.92 1089.33 774.45 1062.69 610.17 583.94 264.74 880.43 740.12 989.04 378.36 565.04 525.06 629.12 1026.84 472.47 319.32 489.87 685.51 663.36 200.98 208.65 1017.04 795.15 928.50 421.66 740.64 753.74 985.97 364.43 307.05 201.68 597.06 937.79 472.36 184.92 1002.26 284.36 895.55 366.26 916.45 858.53 592.49 689.04 460.45 856.47 167.43 1163.35 854.29 311.99 712.79 1128.59 625.31 964.57 924.26 567.79 434.81 634.48 1287.37 209.75 874.20 248.96 754.12 724.71 49.73 292.59 892.66 878.92 504.30 928.87 795.08 598.77 829.94 1029.95 843.66 723.35 973.48 937.91 767.70 469.21 613.48 805.52 732.15 133.13 803.47 761.18 315.43 588.73 661.60 840.47 576.71 565.16 425.82 899.08 623.05 767.06 796.24 886.90 921.19 831.56 589.88 696.64 1017.10 897.31 359.57 302.83 301.01 670.44 732.36 270.41 675.72 154.64 842.78 280.26 860.81 51.91 424.10 720.20 220.81 502.76 315.22 726.38 916.00 614.31 222.52 346.91 1038.44 258.34 73.95 731.24 590.27 351.04 889.21 1269.11 585.20 88.52 549.11 677.26 785.57 403.39 1096.41 927.47 584.30 1015.58 86.89 804.08 1018.86 254.17 1270.71 903.61 578.41 685.14 751.18 331.09 298.43 81.67 510.10 799.99 366.15 906.99 478.15 829.31 894.13 910.93 634.41 510.02 128.35 685.09 973.55 891.93 884.15 1038.06
596.05 1036.20 458.84 923.67 655.80 879.01 523.11 272.55 979.93 429.05 802.78 515.45 909.64 179.20 1100.78 570.64 726.26 738.75 740.36 709.78 729.11 547.23 629.45 196.11 812.38 478.58 0.00 529.47 432.14 1063.32 1005.78 531.06 996.19 156.26 722.07 476.91 532.52 1058.31 840.07 514.02 616.96 578.64 887.23 1022.99 98.60 514.01 43.51 668.69 515.37 378.43 586.23 767.41 1094.01 791.53 111.72 701.45 946.81 975.98 114.15 222.76 552.62 244.66 825.01 97.30 380.44 795.31 480.06 985.16 675.45 1090.39 1090.01 444.50 348.33 605.43 847.90 319.01 1018.06 956.77 398.30 399.61 1025.04 221.63 555.94 700.31 805.63 701.72 552.61 1202.95 606.95 444.07 585.76 350.44 646.95 485.27 295.55 631.96 1010.72 156.37 813.64 403.18 910.01 1037.28 1009.89 810.68 809.79 703.73 1063.91 432.07 289.92 456.78 456.44 703.08 368.66 919.61 1036.54 574.07 642.18 540.60 431.28 330.90 764.50 157.29 825.83 540.43 444.48 648.25 1065.99 554.02 469.82 517.62 933.28 762.30 727.61 142.22 597.54 214.86 980.80 709.72 419.42 909.20 464.51 494.87 223.16 838.17 426.67 134.31 910.49 402.91 368.47 321.96 653.13 539.30 466.32 377.39 512.06 946.05 483.31 514.96 1059.55 475.40 745.86 1112.23 1166.85 762.16 523.91 284.52 354.66 930.55 178.98 1074.83 953.25 180.62 873.38 510.76 494.98 857.14 282.72 1155.26 726.05 186.51 899.78 623.25 198.26 603.73 483.71 91.93 1007.33 197.99 898.42 574.19 506.73 590.98 497.10 286.48 819.21 530.39 965.48 725.42 911.50 798.26 1018.35
208.97 1254.95 113.21 1235.04 219.39 681.09 955.33 644.92 1210.73 577.14 716.44 171.21 1090.31 676.91 1140.49 976.97 455.89 935.80 558.82 575.04 968.44 1031.25 895.92 604.21 1066.33 911.78 529.47 0.00 753.37 1179.66 817.36 381.71 767.89 401.52 907.43 830.27 155.84 1248.37 662.27 845.45 745.26 712.44 1153.70 1010.61 500.00 848.31 528.54 777.73 591.97 810.65 1032.33 662.22 1311.05 645.13 538.28 746.09 1139.99 972.23 623.09 676.13 1041.07 353.94 793.86 606.69 786.47 541.97 836.64 1054.01 1054.38 1082.63 1283.19 585.81 328.94 862.04 863.92 821.25 805.36 1012.75 737.49 198.99 833.79 380.80 190.12 577.42 1064.26 987.91 745.29 1005.30 1012.82 166.62 1069.69 285.36 700.49 961.51 793.26 399.37 1150.19 488.72 742.83 190.62 1163.32 1173.43 964.81 778.33 1002.97 447.89 1119.63 144.08 576.15 484.09 252.88 772.79 842.66 1077.12 1301.01 909.91 752.37 476.62 155.55 441.27 1045.40 525.18 734.39 660.86 215.93 640.93 1237.56 167.32 107.62 694.03 1179.20 469.41 546.07 625.14 1094.15 695.28 1165.18 786.68 908.49 1098.69 948.44 136.85 674.53 822.24 923.88 632.02 1009.69 777.51 515.25 702.79 648.16 9.83 567.15 812.37 814.00 858.71 836.67 942.73 1275.88 608.04 1161.31 1366.80 974.31 915.90 946.48 435.68 420.75 1071.80 676.69 945.03 937.32 348.85 786.04 968.16 179.93 683.10 803.23 970.97 515.28 354.74 1102.32 581.92 606.36 1028.04 977.91 511.26 1186.56 687.06 888.98 840.66 194.78 464.22 166.65 395.48 1164.51 1024.59 1182.52 486.55 933.54 654.61 975.48
791.68 704.23 651.38 616.86 762.18 681.37 374.90 165.30 579.29 317.01 559.49 767.18 576.16 409.89 706.78 339.14 693.97 352.81 579.55 556.04 391.29 602.26 278.78 277.44 461.88 397.27 432.14 753.37 0.00 709.65 758.51 521.03 745.04 514.32 373.43 210.12 670.98 669.60 658.35 111.32 223.25 174.02 552.78 739.90 357.25 198.73 388.63 382.29 291.80 230.22 583.43 661.88 707.83 570.58 320.42 363.62 567.64 683.90 378.99 303.75 432.12 455.68 559.21 434.38 255.84 664.77 146.51 582.23 409.94 695.01 710.84 252.65 435.65 242.72 594.86 362.00 852.62 623.49 123.53 610.63 810.94 518.83 758.96 594.07 466.01 334.94 260.37 936.33 379.87 756.35 562.46 620.46 420.44 377.36 457.82 644.49 657.05 290.27 585.25 690.38 582.34 671.54 717.65 472.85 496.41 630.51 701.89 634.91 261.43 357.53 588.76 401.33 387.25 623.73 680.92 281.38 309.33 342.12 745.77 399.16 426.49 337.60 581.72 267.99 580.78 456.40 633.85 715.58 692.88 280.43 530.58 710.23 566.80 352.91 613.35 305.63 602.11 477.16 517.99 550.29 482.02 659.32 325.89 583.19 379.29 390.38 535.02 219.95 249.34 137.77 455.13 754.32 274.47 227.16 136.40 689.61 203.72 323.32 656.85 328.76 453.38 812.87 951.46 391.21 373.54 374.54 412.31 544.61 432.79 756.70 662.90 477.82 690.90 395.22 573.44 660.94 425.07 971.25 631.93 483.71 540.87 433.40 275.29 608.32 435.25 454.30 644.62 445.63 645.38 239.74 622.15 496.86 772.50 420.38 527.80 480.66 579.30 669.17 619.26 606.41 758.66
1306.16 196.82 1109.93 494.93 1048.21 581.75 821.01 816.34 378.19 727.77 496.06 1236.05 278.88 1044.42 119.63 766.09 910.70 356.84 650.82 690.30 412.78 1078.78 483.04 928.48 463.44 873.92 1063.32 1179.66 709.65 0.00 567.26 867.03 611.31 1167.57 397.51 717.95 1056.38 373.65 647.84 598.92 580.15 629.38 461.90 324.50 1009.98 631.29 1050.58 521.34 664.03 788.18 1032.35 722.10 407.84 682.85 982.37 481.63 196.38 338.46 989.03 939.37 846.92 1011.94 453.83 1085.42 769.75 793.89 654.34 150.10 676.34 165.06 252.74 702.31 894.20 490.16 369.51 878.12 739.67 190.04 729.31 1021.66 631.98 1120.56 1273.44 730.96 379.81 559.79 510.71 748.44 767.34 1199.26 1005.00 1164.32 550.22 840.73 1001.40 926.75 52.60 963.21 436.83 1143.56 400.97 107.11 447.33 436.86 288.13 894.18 156.50 1076.57 854.82 763.55 957.62 519.34 931.78 143.71 396.95 697.58 519.97 744.21 1199.94 906.12 338.68 988.64 466.62 602.01 996.08 587.77 138.98 1230.06 1140.43 620.14 356.16 908.53 661.33 994.55 1117.40 919.54 423.74 425.54 1034.11 198.20 966.23 1065.94 912.58 387.15 913.29 1048.70 246.33 733.86 787.78 776.68 596.56 1169.83 680.49 780.04 624.02 495.38 711.55 864.75 368.58 718.88 713.68 328.66 710.96 402.30 808.71 907.33 889.69 222.83 1053.95 542.05 272.07 1105.82 531.24 787.03 1046.58 705.90 1004.94 800.06 794.63 1099.93 188.78 662.80 926.33 1109.97 884.17 1091.40 120.12 1084.54 393.73 521.40 1027.27 831.47 1219.80 917.14 589.93 923.84 404.88 892.21 327.11 525.05 496.38
1023.65 673.05 810.26 901.39 751.59 185.13 1056.09 864.08 807.50 635.11 252.46 918.56 703.96 1108.67 522.09 990.59 513.71 674.27 344.21 346.73 692.47 1284.51 724.82 951.06 825.15 1089.33 1005.78 817.36 758.51 567.26 0.00 547.35 49.47 927.61 631.46 892.79 743.50 884.46 215.26 759.57 580.70 624.78 875.63 310.04 963.76 866.37 998.41 432.49 539.87 917.92 1266.10 321.64 888.42 263.62 944.20 394.89 666.03 321.76 1035.13 960.34 1087.57 870.45 248.63 1103.08 953.94 438.38 829.18 447.00 967.43 452.14 728.97 570.30 706.82 756.27 253.85 1052.96 219.74 459.67 878.69 829.08 98.45 887.35 953.32 377.51 716.79 814.77 564.51 286.79 1042.34 935.53 1260.56 957.94 454.81 1073.15 1153.71 564.47 551.97 861.56 228.86 871.05 894.59 615.61 290.31 301.92 636.09 498.29 488.38 808.98 791.52 615.39 723.46 357.18 1091.57 544.80 827.01 909.58 500.60 531.57 953.59 724.43 757.92 929.64 248.65 555.91 761.92 366.55 681.77 968.52 851.76 574.57 758.79 503.18 331.46 1026.53 1301.05 983.94 830.32 392.03 1161.82 623.28 1151.51 729.37 963.19 295.53 1048.78 1080.57 585.01 952.28 730.83 875.04 399.87 827.19 592.12 939.06 791.02 71.88 886.39 1039.59 856.95 644.60 1061.92 829.88 255.89 639.74 1055.95 776.84 723.75 521.17 1089.22 134.96 343.72 865.27 144.55 1077.63 749.13 286.50 1157.80 274.15 426.71 859.38 613.86 446.35 948.91 1324.59 1117.92 1050.70 602.73 1131.25 304.37 733.38 719.25 477.77 936.91 793.83 944.23 1164.60 807.51 459.63 323.47 216.54 193.31
549.57 890.03 342.21 935.33 389.66 411.88 758.76 459.00 905.78 252.52 403.81 473.69 768.01 648.63 824.01 785.79 331.25 635.31 242.34 200.62 674.69 994.82 652.36 509.48 813.21 774.45 531.06 381.71 521.03 867.03 547.35 0.00 543.36 508.16 613.68 613.43 297.32 989.13 345.79 597.46 439.64 457.89 909.76 697.98 432.46 585.81 493.26 423.37 291.48 614.08 931.85 317.93 1012.49 321.64 447.10 408.73 758.28 659.60 604.74 555.63 871.77 351.94 481.23 628.36 617.17 298.19 625.93 765.92 831.15 770.00 901.48 281.63 268.21 618.85 547.44 683.46 558.69 729.69 526.78 304.42 590.82 482.68 543.85 244.22 731.48 732.07 383.77 736.64 795.98 467.48 900.22 455.17 346.13 750.08 713.44 297.11 837.76 419.89 430.20 384.90 869.89 855.38 652.18 461.53 621.26 272.10 807.00 328.76 386.48 254.46 207.19 425.65 714.28 746.89 986.51 675.05 478.80 183.19 442.19 276.95 744.91 482.16 421.76 359.51 232.75 354.96 900.11 500.47 383.71 392.68 877.85 306.57 229.59 576.67 940.54 587.66 906.77 496.80 787.49 730.03 825.27 259.67 582.42 505.76 722.54 614.16 642.30 616.50 271.69 459.23 293.80 382.66 261.53 570.32 572.80 546.08 619.83 718.89 996.61 303.15 929.95 1012.44 703.01 570.46 780.43 337.94 176.40 717.33 629.89 682.31 620.84 441.67 473.41 802.11 201.78 379.99 746.53 701.76 199.54 439.93 720.61 227.56 507.33 966.32 846.68 534.31 825.43 677.84 572.50 597.10 238.93 154.49 492.04 304.72 860.33 853.38 883.96 263.02 617.06 341.98 675.30
976.86 717.10 839.20 937.13 744.66 178.20 1026.58 857.01 850.69 632.55 202.99 869.09 684.50 1072.24 534.83 948.25 529.56 652.23 361.59 389.46 668.73 1235.04 675.35 948.50 852.29 1062.69 996.19 767.89 745.04 611.31 49.47 543.36 0.00 977.08 609.42 880.29 760.09 925.94 244.29 732.93 531.23 575.31 891.75 359.51 963.56 836.86 983.25 442.19 490.40 933.35 1250.03 298.81 931.07 288.99 922.46 381.42 616.56 371.23 1032.57 940.51 1045.23 855.29 266.61 1093.49 936.44 438.92 841.03 491.05 1011.48 496.19 759.76 555.14 732.19 711.41 297.90 1062.01 237.11 470.38 829.22 847.78 65.90 930.08 946.28 407.29 760.84 819.37 525.97 244.37 1006.08 934.51 1243.06 935.11 455.80 1072.31 1124.20 537.62 588.85 839.82 246.46 900.83 872.55 610.64 272.67 279.57 614.05 525.80 531.34 802.05 788.96 600.23 748.83 369.03 1042.10 522.76 876.48 860.11 473.96 516.41 923.44 730.46 748.41 925.64 236.83 542.44 776.11 351.39 682.75 920.69 866.74 575.61 808.26 475.35 360.49 1018.26 1297.94 934.47 850.18 390.87 1132.54 622.13 1136.35 722.44 913.72 336.75 1033.62 1072.77 562.66 935.77 734.96 848.11 409.53 777.72 561.25 889.59 753.46 115.93 873.89 1038.16 906.42 607.51 1048.45 868.10 206.42 638.58 1042.48 736.09 711.56 543.50 1055.09 184.43 358.43 914.74 122.81 1064.16 745.14 302.35 1112.38 233.31 424.10 908.85 612.71 431.19 946.35 1285.59 1101.85 1071.52 580.69 1081.78 294.11 730.61 744.62 527.24 887.44 797.29 917.59 1148.53 830.86 488.66 301.43 201.38 207.59
495.06 1087.36 337.89 1060.55 519.83 827.21 659.99 374.43 1039.54 499.35 791.10 424.68 998.78 275.39 1143.93 714.33 645.81 810.73 657.67 655.75 850.76 650.17 713.47 281.23 896.57 610.17 156.26 401.52 514.32 1167.57 927.61 508.16 977.08 0.00 789.75 578.82 445.87 1129.85 761.12 614.84 665.78 648.43 1021.69 1044.05 157.59 615.89 165.19 743.57 549.54 515.31 630.81 744.51 1181.97 751.94 208.40 745.20 1053.81 998.78 270.41 358.75 708.88 156.22 884.41 241.86 522.18 740.34 568.42 1019.38 802.93 1111.45 1143.28 509.49 340.35 677.41 868.96 475.27 993.44 978.12 506.59 311.17 1012.16 115.13 456.74 726.04 903.22 790.08 675.48 1151.97 761.37 364.02 671.12 243.94 694.05 641.53 391.74 602.95 1114.97 224.05 847.63 284.90 1010.83 1109.26 1053.60 809.85 916.79 658.23 1116.79 275.81 342.94 411.28 379.48 708.59 483.76 1041.95 1120.56 692.04 752.92 467.28 330.29 338.45 890.82 229.84 824.94 584.18 341.02 713.24 1148.17 455.12 353.81 585.30 1031.50 716.63 644.92 298.48 693.73 368.80 1085.09 817.65 515.61 990.77 583.50 408.22 366.85 910.64 564.98 230.50 937.36 521.15 457.73 422.78 681.31 411.35 487.67 533.65 644.59 959.05 585.22 638.52 1130.37 510.09 885.92 1201.13 1158.14 822.35 659.90 323.25 331.76 997.80 275.17 1062.57 970.16 74.12 886.38 667.02 391.52 802.47 401.71 1109.76 645.84 68.23 998.79 617.48 283.38 708.67 639.97 205.84 1079.31 294.18 919.48 708.65 398.20 658.66 406.33 269.05 907.15 629.39 1080.22 696.89 938.58 782.31 1070.84
1040.95 425.73 881.86 342.83 898.94 572.06 506.98 534.72 356.12 416.24 466.45 996.06 285.94 690.20 475.46 463.29 777.46 42.81 534.69 553.61 61.01 820.47 207.77 611.55 264.99 583.94 722.07 907.43 373.43 397.51 631.46 613.68 609.42 789.75 0.00 411.93 858.57 398.89 562.65 268.48 222.41 271.64 305.54 442.90 689.44 317.26 716.55 220.40 370.01 468.81 704.41 642.44 467.04 592.47 648.34 298.95 293.98 402.03 647.39 552.72 560.27 725.40 476.52 760.40 432.79 626.89 369.48 350.91 443.04 463.69 432.49 405.31 666.13 176.13 377.61 593.26 734.26 309.65 398.87 794.67 673.63 794.26 1008.10 589.65 181.82 227.28 242.91 824.12 521.12 972.27 664.10 846.96 350.41 563.40 731.13 683.16 347.05 565.70 427.14 916.57 296.54 361.54 529.00 370.74 156.96 741.44 442.73 824.04 522.63 483.58 750.25 295.71 594.82 301.81 454.73 383.55 263.16 482.50 948.07 559.65 140.69 651.52 456.93 322.68 778.80 422.14 432.63 972.56 902.04 321.75 336.98 757.43 547.44 636.29 776.50 546.68 315.70 290.93 715.08 237.58 682.13 836.44 525.93 382.40 599.26 684.98 225.02 468.68 517.87 460.54 349.97 897.60 400.52 479.64 237.03 559.58 418.33 579.89 426.40 419.25 524.63 531.68 815.84 43.22 524.61 596.45 574.32 234.61 667.30 605.62 364.99 753.25 550.79 546.29 787.74 633.89 722.97 711.75 639.74 759.14 230.87 416.21 609.40 802.36 608.84 777.49 345.72 722.37 401.37 207.37 803.35 619.67 992.81 620.07 331.65 647.50 338.51 757.53 307.99 515.36 558.83
948.69 706.05 743.78 548.25 886.00 783.29 180.38 223.41 539.46 445.12 717.97 854.70 541.41 431.71 804.58 172.36 858.89 390.28 705.90 684.42 350.92 494.06 252.41 335.55 412.80 264.74 476.91 830.27 210.12 717.95 892.79 613.43 880.29 578.82 411.93 0.00 798.17 629.77 789.04 177.60 355.94 338.20 542.85 854.83 439.92 115.83 457.65 533.35 467.41 98.48 386.11 816.28 639.21 776.11 389.44 550.17 618.98 809.46 362.76 279.87 268.28 520.22 747.32 477.40 120.05 840.38 63.61 694.80 224.11 749.85 697.45 396.54 528.05 256.96 712.41 240.56 962.59 668.51 162.76 675.17 917.20 568.76 895.19 732.07 412.90 232.92 425.38 1100.51 182.55 807.49 414.07 697.57 503.96 215.01 376.50 816.12 665.35 434.80 743.39 738.53 481.92 674.47 882.66 659.40 484.31 836.01 767.92 730.08 319.54 476.47 681.16 535.61 258.46 619.14 604.80 147.27 436.57 505.73 783.92 493.02 429.76 348.98 716.53 402.30 659.67 600.29 731.43 883.57 785.28 369.13 576.52 881.90 693.15 334.69 455.06 287.53 550.61 613.49 396.55 539.09 333.74 760.52 306.66 670.73 246.66 403.42 558.66 84.16 341.74 241.43 543.83 840.10 412.47 130.34 193.24 876.16 6.40 231.69 630.29 432.39 341.93 764.39 1086.71 413.69 176.22 432.03 494.67 582.08 408.81 907.39 764.42 527.75 810.34 197.90 710.17 836.03 347.70 1073.17 794.07 521.86 529.67 547.02 333.40 477.48 237.93 508.76 644.52 427.61 737.47 246.16 702.59 702.36 836.35 517.04 345.92 284.61 527.80 874.67 719.92 678.91 885.90
364.81 1132.33 154.41 1132.41 123.28 581.89 884.76 592.81 1124.50 480.58 677.71 244.10 990.53 670.16 1030.83 930.90 300.05 832.39 461.91 478.13 888.33 1056.88 831.31 551.49 1014.41 880.43 532.52 155.84 670.98 1056.38 743.50 297.32 760.09 445.87 858.57 798.17 0.00 1205.30 528.24 760.00 657.05 677.00 1080.86 925.50 493.92 811.68 554.72 678.53 488.56 740.08 1060.10 509.86 1228.66 551.21 512.81 646.89 1044.46 882.19 646.67 626.87 983.14 347.86 701.56 629.82 730.18 457.59 793.31 906.28 1000.40 990.33 1172.09 495.09 304.91 795.25 767.01 802.27 667.46 913.55 694.16 200.18 723.02 404.07 321.29 421.58 957.14 921.12 641.88 857.97 977.46 279.68 1036.80 326.56 601.29 923.78 755.45 243.53 1011.25 456.24 673.66 264.09 1071.86 1018.97 894.83 737.93 907.44 324.35 1025.94 170.06 523.63 395.88 153.68 680.81 853.40 970.41 1218.62 844.30 693.08 390.84 269.08 395.53 916.01 454.61 643.87 557.45 148.04 559.57 1131.18 295.70 181.95 590.62 1075.79 313.57 449.16 626.96 1034.97 640.73 1122.94 630.84 862.79 1014.55 969.56 37.65 632.81 725.33 884.10 666.83 910.49 731.44 491.22 620.79 548.96 165.67 478.94 729.98 791.45 724.63 801.31 876.61 1202.06 522.26 1124.36 1267.60 895.92 830.12 884.99 383.57 350.11 950.28 647.26 865.59 840.41 394.80 651.96 906.67 97.54 527.26 787.77 855.48 362.92 400.69 1006.79 482.72 549.34 1021.96 921.66 550.55 1048.92 700.89 792.07 816.63 95.58 365.02 262.45 326.13 1073.79 968.34 1100.13 357.12 836.63 627.49 865.02
1419.68 213.52 1211.57 168.09 1210.83 926.24 663.87 827.82 90.31 803.86 785.37 1344.90 256.50 1018.20 493.28 570.33 1169.72 414.58 909.84 951.56 385.42 954.00 449.72 900.73 266.62 740.12 1058.31 1248.37 669.60 373.65 884.46 989.13 925.94 1129.85 398.89 629.77 1205.30 0.00 950.64 558.28 610.03 621.94 171.08 616.24 1005.60 611.23 1027.14 619.29 726.25 713.33 860.07 916.71 82.13 977.46 990.02 697.84 355.06 654.60 948.23 855.31 634.73 1009.12 782.36 1057.67 683.55 1025.78 638.71 439.57 489.11 538.71 222.63 743.06 995.84 485.78 673.24 816.51 1080.34 480.83 688.67 1164.07 951.10 1140.83 1380.61 948.50 264.61 443.94 621.64 1116.89 549.00 1273.52 819.76 1219.67 719.45 724.25 929.63 1082.05 388.51 943.78 781.32 1270.21 194.94 359.96 706.29 692.63 367.87 1122.10 508.45 1180.28 786.91 838.40 1106.49 694.60 756.61 420.61 57.45 489.92 628.89 852.25 1303.04 932.16 305.74 940.39 751.53 657.36 1132.99 821.03 283.90 1369.83 1253.07 674.15 139.02 1138.09 922.59 920.16 932.16 851.03 83.19 689.82 963.86 322.65 836.56 1193.64 864.49 688.24 789.90 989.33 409.54 692.54 809.53 750.34 748.86 1258.20 755.34 730.40 575.59 814.69 623.37 738.14 27.51 774.23 507.65 217.04 1084.61 442.11 693.54 953.47 964.54 484.57 1005.86 814.91 573.16 1103.00 813.22 671.86 1107.76 966.15 905.78 1038.46 1020.40 1097.11 313.23 815.10 898.58 895.50 746.69 1077.59 372.95 1013.19 702.15 484.12 1156.47 1018.56 1326.55 972.49 345.35 763.47 105.17 1149.63 628.05 831.31 792.20
829.36 807.10 595.00 882.98 551.80 66.09 948.51 731.27 914.22 492.72 226.24 741.33 748.03 929.93 565.75 897.44 298.45 605.46 128.95 145.17 623.66 1192.99 677.40 771.92 827.64 989.04 840.07 662.27 658.35 647.84 215.26 345.79 244.29 761.12 562.65 789.04 528.24 950.64 0.00 659.28 517.00 531.50 868.19 491.54 775.19 763.49 796.56 427.86 403.93 849.78 1124.30 106.38 988.78 87.77 743.23 377.21 724.37 425.35 874.69 847.30 988.15 675.26 258.58 928.86 828.59 223.12 725.43 581.05 979.70 547.35 830.81 430.35 530.97 659.62 373.16 937.22 262.92 539.79 725.92 650.21 310.19 685.79 781.82 187.88 744.47 779.36 454.56 390.85 955.27 720.27 1083.99 742.68 285.08 984.27 975.88 349.21 677.23 687.44 211.01 679.62 859.19 700.51 432.99 310.58 682.11 283.03 602.62 657.08 642.45 462.21 534.10 352.55 951.57 625.58 985.27 845.88 400.31 378.39 750.08 509.17 703.34 714.38 199.11 457.27 566.71 280.90 781.81 753.26 636.50 443.46 893.45 287.92 116.20 847.39 1196.39 840.09 878.35 391.44 1050.60 697.73 1072.52 527.71 853.24 352.70 997.91 931.50 593.67 795.46 596.10 741.41 313.67 672.10 408.53 841.64 690.73 287.14 782.64 935.84 978.15 481.77 1008.74 944.12 428.80 605.87 952.25 570.16 519.13 561.58 907.03 350.22 467.78 726.80 244.65 930.57 547.57 71.24 1003.34 355.97 211.45 732.69 689.98 262.33 769.77 1200.53 1014.17 852.80 713.60 960.66 380.50 669.74 543.40 286.34 722.98 578.57 843.94 1060.85 901.16 244.37 442.78 179.30 408.57
884.31 620.38 734.60 505.54 847.08 688.85 298.19 273.24 467.97 365.97 599.93 786.62 464.84 484.62 678.87 301.68 756.59 242.08 610.00 611.13 298.02 618.29 179.39 356.53 362.49 378.36 514.02 845.45 111.32 598.92 759.57 597.46 732.93 614.84 268.48 177.60 760.00 558.28 659.28 0.00 209.83 160.60 464.51 711.38 457.25 108.47 485.18 355.75 361.04 261.44 550.91 638.68 596.51 598.51 431.74 404.06 519.45 670.48 440.03 347.14 395.39 517.38 601.21 513.47 253.17 734.01 113.99 561.57 325.52 641.85 641.52 359.75 518.87 148.96 574.07 337.77 784.99 520.31 130.39 668.89 798.83 630.15 827.11 664.08 354.69 249.31 279.27 922.91 347.35 715.24 559.56 724.20 407.02 339.38 495.39 751.80 546.32 401.59 625.69 775.95 471.02 560.81 731.79 513.29 385.68 741.83 642.00 723.80 295.17 364.12 671.98 402.39 397.19 513.00 569.60 206.95 258.97 414.27 748.97 502.49 315.17 437.52 599.71 292.15 675.74 487.80 631.90 825.19 776.10 268.89 419.26 772.17 621.30 411.96 619.86 341.10 490.79 435.89 493.76 439.56 484.03 722.35 320.35 564.34 396.42 479.40 424.29 237.09 332.56 192.06 443.59 835.62 361.88 263.17 31.45 730.05 171.20 324.40 545.53 315.34 481.57 706.16 939.35 282.95 341.02 461.73 490.26 433.88 461.72 766.65 633.47 589.14 731.34 341.64 668.28 688.87 479.36 966.24 654.48 595.03 430.14 500.17 354.38 609.40 402.73 533.39 544.99 499.92 624.59 151.47 716.99 608.18 768.27 492.67 442.17 438.71 467.98 780.49 576.47 616.62 708.30
856.76 583.70 668.61 560.61 713.89 518.40 508.02 388.55 556.94 193.83 390.10 786.65 431.58 633.14 624.66 417.02 645.25 260.59 433.69 401.30 283.42 703.81 236.86 500.69 404.55 565.04 616.96 745.26 223.25 580.15 580.70 439.64 531.23 665.78 222.41 355.94 657.05 610.03 517.00 209.83 0.00 49.23 527.95 526.84 550.70 318.30 579.37 201.46 181.06 434.19 718.80 546.80 646.43 505.02 540.88 194.23 451.95 460.65 593.85 527.00 514.00 509.56 391.38 624.12 451.53 554.03 323.82 555.98 484.98 607.01 595.15 182.90 452.88 269.02 403.93 547.60 715.32 516.53 303.14 572.26 597.13 637.98 824.04 471.59 383.46 292.43 69.44 775.60 474.85 749.86 732.53 649.41 231.92 549.21 681.07 607.31 527.55 460.59 415.86 694.16 518.95 512.36 526.72 303.46 314.93 602.10 593.98 627.17 350.24 261.17 552.51 231.94 516.02 436.44 612.46 328.88 157.85 281.08 757.85 404.38 363.10 506.22 412.33 112.17 556.39 277.97 594.66 780.66 691.03 99.34 508.23 629.70 430.27 576.16 766.71 520.34 538.11 297.26 606.46 402.32 667.11 619.40 516.28 389.26 583.26 613.63 376.27 425.85 295.46 361.02 274.04 746.21 178.11 408.81 227.38 520.22 349.54 534.23 582.52 203.97 589.78 708.39 737.65 179.19 519.36 374.04 387.31 451.30 656.04 625.92 485.33 603.44 521.51 541.04 565.33 563.99 648.32 764.54 528.40 597.55 392.90 313.46 498.54 762.31 570.62 666.09 507.75 668.88 454.45 268.77 598.97 468.45 770.40 427.30 463.96 617.30 556.95 617.69 428.33 406.79 568.58
855.40 607.76 621.04 551.90 718.97 537.44 458.79 339.32 590.33 205.37 439.33 783.64 443.12 583.91 636.39 462.28 661.50 309.82 467.71 450.53 332.65 753.04 257.48 451.46 355.32 525.06 578.64 712.44 174.02 629.38 624.78 457.89 575.31 648.43 271.64 338.20 677.00 621.94 531.50 160.60 49.23 0.00 510.94 576.07 531.27 269.07 562.65 208.27 200.44 384.96 684.36 579.82 695.44 527.93 494.44 243.46 501.18 509.88 553.01 477.77 470.27 492.21 440.61 608.40 402.30 573.41 274.59 535.25 472.22 579.51 641.17 199.15 405.31 221.42 442.25 498.37 722.13 493.99 253.91 583.80 641.21 623.92 803.60 503.48 416.03 341.66 118.67 762.31 507.95 726.01 708.92 600.18 246.42 499.98 631.84 591.20 576.78 445.68 465.09 667.21 480.59 561.59 575.95 352.69 364.16 638.62 632.66 638.71 356.86 298.42 558.42 278.73 466.79 485.67 661.69 339.77 135.31 286.16 738.21 355.15 374.90 495.80 452.23 131.55 562.18 327.20 643.89 779.30 662.54 108.29 557.46 638.65 474.46 526.93 768.09 471.11 552.26 304.07 557.23 451.55 636.76 640.10 467.05 432.52 534.03 564.40 425.50 376.62 246.23 311.79 282.99 722.27 220.97 400.42 178.15 569.45 331.80 485.00 631.75 154.74 627.40 757.62 781.73 228.42 501.62 374.60 422.33 500.53 606.81 642.99 527.59 586.09 570.74 502.24 602.58 542.55 599.09 808.62 546.30 580.20 442.13 339.57 449.31 756.86 563.33 628.32 556.98 619.65 492.77 219.83 610.51 504.97 779.04 424.55 502.63 599.31 566.91 666.92 470.59 456.02 584.64
1274.85 369.50 1040.49 114.68 1111.45 877.60 599.68 700.35 108.44 678.39 756.09 1203.09 226.80 848.42 549.42 516.92 1041.90 274.45 794.94 836.66 244.53 823.98 338.72 806.15 155.62 629.12 887.23 1153.70 552.78 461.90 875.63 909.76 891.75 1021.69 305.54 542.85 1080.86 171.08 868.19 464.51 527.95 510.94 0.00 634.37 864.10 485.41 916.57 525.94 618.28 633.43 688.99 908.05 217.54 898.01 856.76 582.41 337.77 646.66 777.15 759.97 553.87 932.65 697.47 891.79 624.76 932.43 531.59 488.53 359.14 537.84 319.37 628.90 824.76 344.28 642.11 645.43 1015.49 454.78 594.90 1049.71 925.56 1051.12 1239.72 834.50 205.98 309.93 548.45 1113.90 496.30 1145.46 648.68 1096.33 640.19 604.50 773.12 988.70 429.53 843.05 732.68 1099.13 60.93 365.89 776.64 675.66 309.84 981.21 517.23 1072.31 753.24 733.78 977.87 601.25 585.53 368.99 156.13 486.03 496.20 738.09 1157.66 791.27 164.85 849.93 756.94 554.32 981.63 707.68 347.65 1198.75 1081.99 539.32 116.84 997.20 807.69 749.08 761.08 753.93 120.79 596.47 801.42 297.11 723.23 1086.34 733.18 652.88 666.75 836.82 392.57 624.87 638.45 619.17 635.51 1143.87 650.72 671.05 444.28 824.08 536.45 618.22 177.59 650.89 373.64 260.09 1083.74 348.76 565.71 791.12 814.55 448.11 871.32 840.58 587.74 1019.28 806.03 561.01 1032.13 939.43 734.70 1012.92 879.51 1019.48 306.53 701.75 804.00 786.94 635.69 945.64 395.84 872.30 650.53 313.04 1043.88 895.41 1198.49 851.71 215.38 661.88 97.98 1012.03 590.32 817.92 807.99
1134.61 418.25 998.32 660.32 926.13 454.32 944.06 855.94 525.93 671.34 294.17 1079.90 486.05 1093.75 215.21 835.41 740.93 483.49 489.09 505.31 503.91 1230.65 637.81 919.35 679.92 1026.84 1022.99 1010.61 739.90 324.50 310.04 697.98 359.51 1044.05 442.90 854.83 925.50 616.24 491.54 711.38 526.84 576.07 634.37 0.00 979.25 757.94 1029.57 396.30 581.58 888.73 1147.31 533.66 652.41 513.80 966.01 376.28 417.57 66.19 1003.42 941.73 932.39 887.83 260.90 1051.32 862.54 637.60 805.76 192.20 855.68 239.59 463.41 613.50 855.54 616.81 175.09 979.40 491.93 233.46 778.96 960.80 360.97 1019.54 1120.39 561.91 571.56 670.18 493.80 506.64 893.24 1059.71 1107.00 1074.94 443.29 978.49 1078.76 746.05 297.17 905.54 321.41 1039.76 651.92 336.98 155.05 267.05 434.34 691.74 178.34 966.66 759.81 663.83 869.49 366.52 1024.57 311.74 628.59 824.23 470.19 641.55 1093.42 825.27 530.43 915.79 314.82 537.30 907.95 467.62 426.97 1118.47 1017.62 544.29 574.64 746.48 476.34 994.82 1219.40 968.31 571.48 313.27 1133.30 394.65 1097.22 887.85 947.56 200.17 1036.86 1048.86 366.72 834.41 759.00 851.39 443.67 1000.78 591.68 853.61 679.93 325.21 861.23 1002.18 616.76 629.50 908.49 519.84 544.59 486.12 939.70 818.52 789.97 291.69 1083.83 234.31 104.95 981.71 376.62 961.38 899.76 513.72 1040.34 492.32 632.90 975.82 404.07 509.91 917.20 1240.96 1046.42 1094.64 366.93 1086.04 133.43 648.05 897.05 646.48 1061.55 852.43 774.55 1081.79 574.55 730.40 134.91 356.00 175.96
581.60 990.61 400.84 906.36 585.12 807.81 521.09 216.84 925.22 399.80 784.99 483.91 852.87 220.33 1064.03 563.02 664.05 653.14 674.80 633.08 709.08 574.46 555.88 151.38 738.98 472.47 98.60 500.00 357.25 1009.98 963.76 432.46 963.56 157.59 689.44 439.92 493.92 1005.60 775.19 457.25 550.70 531.27 864.10 979.25 0.00 458.30 60.80 690.42 497.58 376.41 651.75 668.81 1024.38 700.14 50.81 640.54 924.89 929.46 212.75 226.76 649.00 146.06 792.38 195.90 394.40 724.67 438.59 939.48 651.56 1012.71 1046.53 447.86 256.94 519.82 849.59 403.34 944.37 930.14 349.00 301.01 999.43 187.93 524.40 667.68 754.90 645.69 560.79 1121.58 610.00 412.53 649.69 285.31 596.59 522.20 314.00 605.66 957.38 123.74 813.21 333.13 853.24 951.67 1016.92 749.77 796.74 605.13 1053.06 355.92 244.33 382.20 384.34 678.25 448.69 924.06 962.97 556.31 627.90 466.02 423.13 291.23 733.23 90.94 798.76 479.52 345.88 651.61 991.10 509.41 419.78 451.36 876.51 677.58 662.05 222.25 637.36 253.45 935.92 751.54 447.48 850.62 528.44 466.06 232.70 807.91 491.13 232.91 835.35 363.56 343.28 265.19 626.06 504.22 465.26 376.28 488.70 913.42 433.85 480.93 992.91 436.61 751.77 1062.23 1083.63 676.55 527.91 251.89 256.06 844.94 197.43 1044.57 901.34 155.18 840.75 549.59 396.38 758.54 346.65 1080.68 632.00 161.07 841.20 582.99 149.23 632.96 554.14 115.39 921.72 269.63 874.65 551.06 408.13 538.25 465.56 221.83 763.63 592.13 925.23 634.03 844.34 774.44 1020.35
941.00 612.55 735.10 468.28 890.74 761.48 189.72 241.46 544.94 333.29 633.87 843.31 517.58 477.31 688.96 244.85 826.70 274.45 660.04 669.88 311.44 539.63 161.51 353.60 344.61 319.32 514.01 848.31 198.73 631.29 866.37 585.81 836.86 615.89 317.26 115.83 811.68 611.23 763.49 108.47 318.30 269.07 485.41 757.94 458.30 0.00 475.70 455.73 421.41 200.85 444.80 747.15 630.01 706.98 407.49 509.83 551.82 693.63 418.13 339.83 341.83 544.11 678.16 510.54 191.40 794.38 52.22 593.94 315.65 634.02 668.47 376.78 519.37 141.13 625.72 276.00 893.46 552.68 151.37 680.03 876.32 638.99 883.80 674.56 376.21 267.00 387.74 1031.38 285.58 823.71 451.09 743.61 492.57 269.59 433.62 781.66 578.69 442.74 669.44 791.43 469.88 572.98 797.21 618.35 418.05 778.95 652.09 734.94 321.90 426.34 672.48 509.19 335.90 545.37 568.60 211.49 367.44 457.93 849.95 511.69 338.86 413.76 667.71 352.52 676.24 579.20 645.09 881.88 776.60 357.74 527.73 834.10 647.29 423.40 543.37 317.42 541.55 544.36 431.99 471.93 394.27 776.22 313.04 584.04 336.43 455.72 456.66 165.27 333.06 235.18 507.03 838.48 354.96 211.45 118.34 807.69 109.43 262.63 598.54 345.20 373.10 728.19 1043.28 297.86 236.75 450.70 509.16 466.25 454.41 820.70 676.13 599.76 765.28 233.17 726.74 797.34 435.05 1029.01 736.76 603.07 462.51 563.01 351.45 538.01 330.31 527.95 543.03 493.11 650.78 172.37 738.43 645.30 824.96 519.40 459.41 330.24 556.20 817.61 625.25 695.70 770.81
552.54 1016.04 415.33 938.25 645.92 835.50 533.39 234.24 953.15 385.54 786.39 492.88 888.26 222.71 1084.39 580.42 691.40 713.94 707.99 666.27 769.88 513.66 616.68 170.71 799.78 489.87 43.51 528.54 388.63 1050.58 998.41 493.26 983.25 165.19 716.55 457.65 554.72 1027.14 796.56 485.18 579.37 562.65 916.57 1029.57 60.80 475.70 0.00 690.27 498.98 393.01 611.50 729.61 1050.50 748.02 68.21 657.94 903.30 988.70 157.66 248.23 596.13 206.86 819.49 140.81 356.99 759.98 453.94 970.86 668.96 1073.51 1046.50 428.11 304.82 580.62 891.41 355.08 974.55 940.38 354.79 361.81 1008.65 244.18 533.37 694.79 815.70 675.60 588.22 1182.38 627.40 421.50 621.13 346.11 641.43 521.34 279.67 647.44 997.98 150.85 829.27 393.93 897.87 1010.43 1044.03 767.17 766.28 665.93 1047.52 416.72 269.76 414.60 412.93 686.69 393.93 955.22 1023.77 550.62 598.67 498.42 387.77 287.39 794.03 113.78 809.44 496.92 406.68 631.86 1022.48 512.60 455.75 512.10 904.44 725.46 695.24 167.49 576.56 258.37 944.78 753.23 413.15 875.05 499.88 526.86 254.15 868.65 470.18 177.82 866.98 380.96 366.12 315.42 636.74 518.71 449.93 403.84 506.18 931.53 451.25 498.33 1030.71 436.17 773.34 1068.72 1144.43 737.35 549.38 279.00 316.86 905.74 222.49 1033.19 948.26 215.32 867.86 536.03 457.18 819.34 318.09 1113.08 690.72 217.78 865.63 579.74 170.80 572.16 527.22 108.82 980.48 241.50 908.18 611.86 468.93 555.65 474.53 280.96 781.03 568.72 921.97 681.91 894.66 781.87 974.84
903.36 547.12 713.64 563.23 742.07 361.77 645.45 547.59 576.52 304.73 246.05 775.66 469.17 780.90 475.49 592.97 574.17 263.21 314.29 333.21 281.41 905.27 356.15 620.68 485.39 685.51 668.69 777.73 382.29 521.34 432.49 423.37 442.19 743.57 220.40 533.35 678.53 619.29 427.86 355.75 201.46 208.27 525.94 396.30 690.42 455.73 690.27 0.00 197.53 593.23 865.72 422.04 621.16 402.69 639.61 78.55 422.37 330.11 704.75 644.00 678.54 587.35 275.70 765.99 581.43 462.80 469.74 371.24 633.84 476.47 565.57 268.40 512.28 332.13 233.98 671.44 513.86 357.94 462.18 647.32 508.09 707.16 852.85 369.25 402.22 418.08 132.02 656.62 636.43 813.05 884.50 745.56 145.31 695.13 824.64 546.90 476.21 571.37 273.75 750.34 516.94 483.93 444.32 162.62 328.99 521.04 447.91 651.56 461.14 332.29 571.76 75.31 675.06 426.29 590.29 511.97 96.78 340.13 779.32 498.87 361.09 617.12 243.96 219.16 610.22 201.74 476.74 827.26 729.56 241.45 557.38 537.03 327.04 687.36 968.17 650.17 536.10 95.80 765.50 435.83 822.37 640.88 629.42 224.25 737.42 736.01 387.16 545.54 408.11 520.06 129.57 779.67 268.38 564.07 386.42 404.54 526.95 680.15 620.23 314.64 715.43 589.07 648.61 261.46 692.48 443.22 458.43 347.17 770.79 460.91 336.88 681.23 377.46 688.90 625.15 448.62 807.36 651.65 419.34 675.34 426.41 195.81 618.53 960.07 758.48 760.62 503.42 799.69 284.50 300.89 582.95 399.27 794.01 534.29 540.41 755.27 558.91 551.86 303.60 307.88 427.39
734.29 744.65 516.11 643.85 575.41 445.18 610.83 366.61 635.94 148.28 287.41 646.41 586.96 598.04 673.02 556.04 525.98 343.83 300.48 279.00 399.77 854.04 364.29 464.23 547.39 663.36 515.37 591.97 291.80 664.03 539.87 291.48 490.40 549.54 370.01 467.41 488.56 726.25 403.93 361.04 181.06 200.44 618.28 581.58 497.58 421.41 498.98 197.53 0.00 515.79 801.98 401.93 764.48 394.75 456.48 229.91 619.90 527.64 548.30 505.94 653.02 402.30 380.72 612.67 497.36 372.97 407.58 568.77 575.77 655.20 728.90 70.87 314.75 328.23 412.71 577.74 636.25 549.93 408.53 449.79 556.30 509.63 686.90 349.29 494.56 446.18 153.32 734.77 613.87 627.39 803.98 562.55 144.51 645.84 668.19 488.57 611.43 373.84 346.64 552.81 609.28 659.96 549.91 338.00 487.43 482.36 645.44 454.03 304.69 153.91 380.24 231.20 636.98 520.32 742.45 509.94 235.42 142.60 598.64 304.44 453.43 459.66 321.25 68.89 418.70 248.92 674.27 658.19 532.03 102.06 587.23 518.77 287.73 539.70 848.15 499.90 658.76 293.33 712.92 541.31 747.97 496.27 479.15 415.73 645.24 593.74 485.78 461.47 251.66 381.93 207.84 582.14 70.85 493.02 378.59 491.49 464.79 615.12 713.50 117.11 651.70 786.60 696.82 360.25 634.61 245.69 280.05 535.63 620.52 586.52 492.77 487.20 418.82 653.44 458.07 452.75 657.41 723.71 428.92 481.31 531.89 141.60 462.08 862.44 691.65 607.30 646.74 647.63 463.23 328.34 449.89 361.19 628.06 344.19 603.46 697.13 635.95 485.77 481.25 324.30 588.08
885.63 804.53 711.49 545.24 827.46 829.02 144.68 203.85 637.94 417.65 789.71 824.74 639.89 335.55 889.81 240.11 880.58 475.30 740.48 739.68 449.40 423.70 350.89 258.91 511.28 200.98 378.43 810.65 230.22 788.18 917.92 614.08 933.35 515.31 468.81 98.48 740.08 713.33 849.78 261.44 434.19 384.96 633.43 888.73 376.41 200.85 393.01 593.23 515.79 0.00 375.11 853.31 737.69 762.01 353.36 593.84 717.46 822.54 264.28 181.39 290.62 456.71 789.43 378.92 36.02 855.87 148.63 779.82 297.02 834.87 763.20 444.92 528.70 341.98 797.43 142.08 968.50 753.53 131.05 611.66 999.25 538.04 863.44 753.70 509.71 331.40 490.59 1147.27 281.03 777.65 342.64 650.99 571.89 190.57 292.58 786.28 735.58 371.29 815.47 707.81 580.40 746.05 939.77 703.07 582.79 860.73 852.94 666.57 299.98 464.58 656.62 620.63 181.17 704.16 703.28 229.65 520.27 491.04 753.20 463.18 468.58 285.47 801.55 458.12 618.16 648.67 829.91 820.06 730.43 454.15 675.00 867.21 748.41 236.21 383.13 203.50 636.38 689.03 298.07 637.57 251.80 702.43 208.18 755.75 149.07 304.94 657.14 54.32 342.39 154.85 628.85 814.87 466.74 43.76 279.03 846.04 104.88 136.53 719.35 429.90 438.11 844.98 1139.77 498.71 191.37 402.19 518.49 667.10 349.55 974.98 819.46 497.03 908.82 188.13 668.66 852.37 254.16 1118.90 813.62 491.14 628.15 602.28 258.92 421.53 252.96 410.28 743.00 329.13 765.13 344.64 680.41 727.08 806.39 497.48 440.78 293.87 626.28 877.10 762.46 777.39 922.59
1093.43 998.17 968.70 753.29 1138.13 1166.87 272.28 553.80 797.43 715.42 1060.79 1032.54 874.52 431.42 1099.64 355.82 1146.23 714.21 995.35 1037.07 737.03 158.85 606.31 519.48 623.38 208.65 586.23 1032.33 583.43 1032.35 1266.10 931.85 1250.03 630.81 704.41 386.11 1060.10 860.07 1124.30 550.91 718.80 684.36 688.99 1147.31 651.75 444.80 611.50 865.72 801.98 375.11 0.00 1066.83 906.53 1072.76 624.22 894.11 903.62 1106.44 472.08 451.18 282.14 765.52 1091.26 535.31 346.93 1143.86 436.92 1033.70 407.20 1073.78 1000.91 753.25 755.19 580.89 1065.12 277.47 1331.12 992.44 484.37 919.18 1290.51 737.04 1073.03 1039.99 714.28 601.19 737.81 1427.78 367.87 994.83 40.31 865.53 877.27 217.86 343.52 1097.03 1018.45 659.64 1114.24 915.71 744.45 981.11 1195.09 1003.34 857.81 1142.79 1080.59 906.62 587.90 715.50 908.30 908.92 217.57 961.90 845.12 481.81 797.38 799.32 961.10 701.70 731.54 615.23 1089.84 733.09 912.06 946.34 1036.64 1071.11 952.61 742.44 805.83 1173.79 1008.10 444.01 136.16 429.42 794.84 941.01 276.53 834.15 123.31 1024.33 444.93 1028.84 226.04 476.31 862.88 365.07 660.16 472.62 917.14 1042.16 767.82 381.61 555.56 1220.10 379.71 271.90 866.58 694.58 475.38 949.08 1456.45 737.62 254.90 712.94 802.25 906.01 454.32 1265.50 1069.40 704.93 1183.65 245.32 962.56 1156.56 305.10 1413.98 1086.14 699.04 843.57 913.19 521.63 155.86 148.18 609.59 958.42 442.70 1076.04 574.76 974.31 1019.86 1014.19 752.21 550.96 114.56 786.97 1130.24 1012.40 1052.22 1215.61
790.18 866.51 628.14 933.62 536.36 140.35 936.87 677.32 938.59 499.70 284.74 744.74 816.29 884.98 640.01 924.03 274.36 633.60 113.11 150.51 681.94 1221.76 708.24 777.26 872.39 1017.04 767.41 662.22 661.88 722.10 321.64 317.93 298.81 744.51 642.44 816.28 509.86 916.71 106.38 638.68 546.80 579.82 908.05 533.66 668.81 747.15 729.61 422.04 401.93 853.31 1066.83 0.00 992.31 91.30 683.45 392.18 789.75 490.35 841.09 809.00 1021.01 588.29 323.96 864.71 834.88 140.11 752.67 646.43 964.20 612.73 896.19 440.01 504.56 677.73 438.54 918.63 281.41 605.17 722.54 590.35 364.71 691.13 750.20 140.21 784.33 803.60 477.36 452.77 981.86 742.83 1068.15 636.30 363.84 978.06 948.84 284.70 730.56 656.24 285.27 667.81 899.05 765.89 507.25 369.29 685.18 248.64 637.46 614.69 636.34 446.37 519.21 354.47 967.65 639.45 974.16 845.63 452.43 362.55 736.17 513.30 743.20 718.51 264.49 470.82 538.21 268.83 847.19 714.08 660.13 471.53 927.77 264.63 125.86 813.02 1158.86 817.65 912.78 406.33 1039.71 754.69 1078.64 537.37 835.79 402.03 975.91 900.76 650.63 798.99 525.06 712.60 296.83 652.39 418.19 823.69 670.13 366.39 809.88 963.08 944.22 480.49 1053.63 978.96 414.82 654.04 946.86 574.29 412.75 635.84 866.24 442.82 508.11 682.17 297.91 940.23 487.71 89.73 987.26 420.00 146.94 676.28 746.94 271.99 775.11 1206.41 1029.17 784.20 772.87 925.51 400.23 673.61 481.50 282.01 742.03 541.07 896.06 1060.51 889.97 258.94 493.61 245.29 384.47
1473.20 258.52 1251.21 250.22 1275.26 960.58 700.27 851.18 154.74 840.26 835.76 1383.13 320.93 1053.00 513.38 626.64 1160.09 450.98 932.38 954.37 449.85 1031.25 468.50 953.04 340.12 795.15 1094.01 1311.05 707.83 407.84 888.42 1012.49 931.07 1181.97 467.04 639.21 1228.66 82.13 988.78 596.51 646.43 695.44 217.54 652.41 1024.38 630.01 1050.50 621.16 764.48 737.69 906.53 992.31 0.00 901.01 1017.21 688.63 350.29 679.92 994.69 915.52 671.13 1073.55 798.91 1109.33 751.70 1080.89 682.23 460.21 555.55 560.53 226.59 802.00 1035.48 504.56 698.37 862.97 1105.66 490.57 724.49 1214.27 957.39 1187.42 1423.62 979.33 329.04 467.30 675.16 1142.19 585.40 1311.75 866.22 1243.84 761.60 761.96 990.66 1150.20 355.24 998.10 838.00 1309.85 218.30 329.85 751.29 716.09 391.23 1142.20 483.12 1218.51 851.34 876.63 1144.72 691.02 803.07 408.31 61.41 558.07 684.83 896.54 1341.27 996.59 370.17 988.19 831.25 695.59 1151.77 822.88 293.49 1409.47 1292.71 728.76 177.25 1158.19 945.13 966.62 978.62 909.48 151.34 715.75 1004.09 328.94 887.46 1217.00 888.73 716.89 826.30 1042.63 433.00 723.37 849.17 788.57 750.73 1312.00 793.57 769.55 599.83 835.33 645.61 778.37 63.91 798.40 531.01 193.53 1106.43 510.26 729.94 998.66 1002.77 487.43 1030.10 839.96 623.53 1146.41 836.58 708.26 1131.12 991.37 952.24 1044.75 1040.50 1140.52 338.36 816.97 950.89 972.75 805.40 1105.92 359.80 1066.82 689.85 523.76 1179.83 1020.43 1364.78 1010.72 411.79 831.62 128.53 1149.61 629.64 897.59 828.37
823.03 840.87 629.00 935.30 521.08 110.79 896.70 722.09 887.15 483.54 219.63 743.24 804.14 895.92 610.45 873.62 259.08 635.28 119.77 121.02 653.48 1131.26 681.87 747.77 844.78 928.50 791.53 645.13 570.58 682.85 263.62 321.64 288.99 751.94 592.47 776.11 551.21 977.46 87.77 598.51 505.02 527.93 898.01 513.80 700.14 706.98 748.02 402.69 394.75 762.01 1072.76 91.30 901.01 0.00 719.08 374.05 752.65 475.42 850.54 823.15 970.60 627.33 297.05 888.83 743.58 231.41 712.50 614.82 924.03 585.82 869.28 421.17 443.20 645.81 395.07 904.09 282.04 578.26 694.11 565.46 325.39 661.64 797.17 136.51 774.29 771.68 462.90 478.62 931.45 716.96 1050.20 716.21 359.43 919.72 945.14 322.96 700.62 678.26 246.02 641.94 889.01 738.98 448.97 355.28 691.84 276.60 622.82 620.37 633.27 453.03 459.84 336.34 905.61 664.05 962.42 805.46 469.35 369.21 710.30 555.20 733.16 760.41 237.58 452.81 498.30 271.72 820.28 773.86 633.33 419.64 838.44 292.15 107.02 823.24 1145.14 846.32 903.46 400.58 1025.87 726.45 1012.17 513.56 829.09 353.39 910.14 910.21 638.37 707.69 580.57 708.35 304.49 635.30 399.35 753.87 629.96 335.50 769.71 893.90 964.71 472.59 1023.96 964.32 470.67 635.69 939.53 587.53 478.59 596.59 873.02 398.58 468.47 702.65 289.23 921.39 504.34 90.36 978.77 400.67 214.24 708.54 734.68 253.15 745.62 1149.87 937.87 815.53 724.10 945.22 403.66 645.92 455.63 277.16 738.33 551.77 912.98 984.55 887.16 248.60 445.40 157.80 428.12
620.75 970.15 443.83 875.77 600.64 809.32 498.04 166.03 899.71 380.28 743.89 534.72 822.29 201.53 1027.20 512.21 623.19 647.34 639.78 598.06 703.28 581.87 550.08 104.74 733.18 421.66 111.72 538.28 320.42 982.37 944.20 447.10 922.46 208.40 648.34 389.44 512.81 990.02 743.23 431.74 540.88 494.44 856.76 966.01 50.81 407.49 68.21 639.61 456.48 353.36 624.22 683.45 1017.21 719.08 0.00 589.73 888.06 921.99 207.51 180.12 598.19 189.05 751.28 209.02 343.59 691.77 387.78 902.65 600.75 1006.91 1020.34 457.69 307.75 514.02 836.17 356.70 906.34 922.67 321.19 344.00 988.36 231.50 575.21 626.58 749.10 609.44 520.01 1129.22 559.19 463.34 630.89 336.12 573.22 471.39 302.05 635.07 929.77 82.64 772.11 383.94 829.66 945.87 975.82 698.96 790.94 621.09 1022.31 398.91 223.87 383.05 424.34 627.44 406.65 887.01 957.17 511.25 609.54 466.87 455.98 271.11 727.43 67.89 777.73 428.71 388.87 661.44 954.27 552.40 430.66 443.89 851.00 688.57 627.03 180.21 611.69 206.81 911.49 703.27 428.87 840.18 509.64 475.16 186.06 800.44 472.22 230.15 829.55 312.75 317.38 247.21 616.12 528.45 437.63 339.33 437.97 872.32 383.04 430.12 977.27 401.67 705.13 1035.12 1093.12 670.75 481.27 210.79 270.70 839.14 185.48 1013.28 889.01 205.99 799.65 502.95 439.37 773.18 327.85 1081.53 622.51 205.51 835.40 598.08 102.59 628.50 503.33 166.20 915.92 242.06 867.18 545.26 417.23 487.44 516.37 212.75 712.82 545.49 888.68 659.75 848.77 771.09 969.54
888.72 608.46 699.16 634.58 709.60 324.17 686.91 527.39 629.39 313.72 195.87 761.02 484.48 728.34 513.53 611.25 527.40 341.76 279.07 298.30 359.96 898.04 429.00 593.94 555.63 740.64 701.45 746.09 363.62 481.63 394.89 408.73 381.42 745.20 298.95 550.17 646.89 697.84 377.21 404.06 194.23 243.46 582.41 376.28 640.54 509.83 657.94 78.55 229.91 593.84 894.11 392.18 688.63 374.05 589.73 0.00 483.69 352.41 674.06 565.45 696.45 590.08 197.15 755.18 600.71 405.67 499.71 388.98 679.21 485.92 593.26 268.25 526.73 410.68 251.72 710.00 556.58 377.39 487.15 644.15 447.32 694.93 838.21 290.70 480.77 486.66 170.58 625.79 669.08 798.41 900.71 723.33 92.13 699.85 797.90 517.63 429.03 555.44 221.63 717.97 595.49 492.67 421.69 109.23 407.54 481.57 508.64 662.81 470.13 335.02 493.21 37.71 710.25 426.99 668.84 523.11 151.91 331.37 764.68 478.30 439.64 573.04 218.10 161.02 531.67 169.57 555.29 812.62 722.07 194.19 580.68 497.56 291.82 649.02 960.94 592.03 614.65 113.54 800.69 384.96 818.58 609.24 571.28 219.57 742.91 730.33 392.32 564.82 417.10 501.39 114.93 755.92 259.00 590.78 421.61 325.99 543.77 686.94 698.78 277.89 667.03 667.62 587.84 279.24 661.06 475.60 461.16 347.87 712.65 445.58 299.28 671.08 327.28 682.74 582.17 411.02 769.94 614.05 379.87 676.97 394.38 181.17 596.09 956.54 764.85 750.38 507.96 767.72 286.31 379.44 562.86 384.63 779.37 476.15 595.54 793.83 629.40 512.39 321.34 257.70 443.77
1302.86 178.42 1100.49 420.13 1137.33 689.47 703.07 732.94 285.74 645.78 559.10 1193.24 167.05 914.08 257.21 678.75 968.97 277.37 709.09 739.78 270.41 987.33 424.04 845.08 280.24 753.74 946.81 1139.99 567.64 196.38 666.03 758.28 616.56 1053.81 293.98 618.98 1044.46 355.06 724.37 519.45 451.95 501.18 337.77 417.57 924.89 551.82 903.30 422.37 619.90 717.46 903.62 789.75 350.29 752.65 888.06 483.69 0.00 443.40 899.14 846.70 706.65 933.08 528.76 1002.02 712.56 857.60 604.04 248.75 571.31 270.00 143.20 634.85 898.86 410.69 429.93 827.82 844.61 246.26 648.06 1024.21 682.46 1056.39 1270.14 755.34 261.07 436.68 521.39 853.85 620.92 1171.90 880.56 1053.24 567.68 739.33 901.93 964.48 143.78 857.91 555.05 1143.18 339.93 111.00 455.32 444.98 137.02 927.00 269.64 1073.93 710.87 707.15 965.47 497.68 864.64 178.07 308.38 618.11 503.98 733.03 1138.17 846.04 254.39 866.85 525.26 557.24 981.49 619.32 145.56 1226.76 1141.99 551.29 237.03 954.61 710.81 920.55 992.96 840.66 308.56 429.37 983.81 98.73 864.83 1017.95 819.91 434.64 805.65 958.02 185.62 683.48 747.41 705.41 547.15 1140.94 630.06 729.66 531.01 611.90 612.58 769.83 332.84 646.28 564.16 258.28 815.90 297.42 707.31 825.99 828.52 257.19 936.98 621.11 379.22 1015.38 601.94 685.63 960.06 795.61 940.35 814.54 836.92 1021.07 89.31 613.39 842.93 999.56 760.31 1012.05 81.05 963.67 453.69 441.93 997.21 816.85 1211.59 854.63 427.55 806.99 285.75 953.02 360.31 594.85 582.66
1131.06 445.76 955.01 720.44 882.82 415.48 883.35 815.07 586.05 605.15 290.62 1044.49 419.86 1052.88 243.35 794.54 689.01 444.84 445.78 462.00 463.04 1164.46 596.94 878.48 644.90 985.97 975.98 972.23 683.90 338.46 321.76 659.60 371.23 998.78 402.03 809.46 882.19 654.60 425.35 670.48 460.65 509.88 646.66 66.19 929.46 693.63 988.70 330.11 527.64 822.54 1106.44 490.35 679.92 475.42 921.99 352.41 443.40 0.00 962.55 914.62 891.52 842.56 217.59 1030.81 804.11 594.29 745.85 219.71 836.62 173.40 501.68 567.20 813.24 578.16 129.82 938.53 425.74 214.40 712.77 894.61 351.30 974.27 1096.52 519.40 563.64 629.31 452.93 496.97 852.37 1014.44 1066.13 1034.80 398.02 937.62 1055.25 702.74 324.68 839.35 270.56 996.45 653.74 375.12 153.11 243.18 406.66 625.55 244.53 942.79 718.94 621.53 845.62 324.22 966.14 300.19 663.35 785.58 426.89 596.28 1048.15 781.96 542.72 874.92 258.56 511.27 864.75 435.46 442.71 1094.60 974.31 478.10 567.94 703.17 433.03 953.95 1178.53 931.99 619.11 266.26 1067.11 372.22 1056.35 844.54 921.53 156.86 970.67 1007.99 397.37 768.22 708.53 796.58 398.40 962.40 548.37 812.74 639.06 259.02 803.06 956.26 676.88 605.63 880.81 586.03 534.92 441.56 898.83 773.33 747.67 322.34 1042.96 203.59 81.44 936.44 311.15 920.51 861.38 496.59 1016.83 461.60 589.59 930.55 381.64 464.64 876.33 1200.09 998.40 1044.85 373.30 1045.17 90.12 609.40 851.78 603.17 1037.68 826.40 733.68 1023.87 613.01 664.21 94.04 317.62 166.29
677.49 985.54 546.93 809.52 738.48 878.29 408.96 213.69 865.78 400.02 832.19 616.60 820.90 104.56 1064.26 468.94 778.49 677.20 771.24 729.52 708.40 433.08 574.21 103.35 736.61 364.43 114.15 623.09 378.99 989.03 1035.13 604.74 1032.57 270.41 647.39 362.76 646.67 948.23 874.69 440.03 593.85 553.01 777.15 1003.42 212.75 418.13 157.66 704.75 548.30 264.28 472.08 841.09 994.69 850.54 207.51 674.06 899.14 962.55 0.00 108.61 504.41 339.13 871.21 114.64 266.29 862.47 365.91 947.78 561.30 1037.11 982.68 477.43 444.84 544.22 891.36 204.86 1087.59 922.12 309.64 447.10 1051.08 335.78 618.60 773.96 691.48 587.57 618.15 1222.82 519.47 558.22 488.76 448.89 692.81 371.12 194.70 746.11 967.65 270.52 839.76 515.14 806.20 927.82 1061.74 783.29 804.35 817.88 1027.39 502.01 243.61 446.10 547.86 711.77 254.51 909.26 933.28 459.92 624.16 529.92 545.43 383.93 650.35 199.65 851.55 531.72 529.46 681.18 1011.59 655.17 559.21 545.13 859.29 842.92 758.49 28.07 495.98 100.71 866.65 759.40 322.77 800.41 386.09 609.02 121.46 873.32 312.52 59.67 847.75 288.76 358.40 287.16 686.06 632.92 477.53 263.24 410.36 963.25 369.16 400.81 953.79 450.65 660.76 1023.57 1231.91 650.67 409.76 322.94 428.34 869.00 104.34 1104.21 925.51 294.77 949.02 396.61 549.74 923.47 230.88 1144.58 804.28 298.47 809.83 659.71 104.92 491.58 415.20 206.08 924.68 123.35 935.78 541.60 591.71 694.95 598.25 336.27 705.06 418.50 875.13 799.37 868.51 831.19 1050.44
732.99 920.97 598.28 726.63 741.40 838.48 326.07 159.53 815.11 387.32 737.52 649.69 766.23 162.89 969.59 374.27 771.76 582.53 743.85 702.13 613.73 494.47 479.54 77.52 662.64 307.05 222.76 676.13 303.75 939.37 960.34 555.63 940.51 358.75 552.72 279.87 626.87 855.31 847.30 347.14 527.00 477.77 759.97 941.73 226.76 339.83 248.23 644.00 505.94 181.39 451.18 809.00 915.52 823.15 180.12 565.45 846.70 914.62 108.61 0.00 426.36 343.50 762.60 207.68 171.76 835.08 287.61 865.93 478.41 942.44 938.05 464.73 438.11 449.55 817.17 176.58 1055.68 827.45 250.79 498.45 984.59 368.29 709.90 746.57 661.71 509.27 528.35 1172.93 432.10 617.18 478.38 497.10 594.90 299.55 246.20 709.21 886.77 258.08 787.08 538.06 758.27 881.40 985.63 674.68 709.68 790.03 932.72 553.36 234.92 418.67 541.13 603.16 233.61 843.14 884.67 365.39 606.11 502.49 583.45 352.56 631.67 172.26 771.36 437.05 522.73 668.48 937.60 701.29 610.78 436.52 766.40 815.53 731.10 83.57 431.57 39.66 772.12 678.99 261.72 780.01 357.81 589.22 26.79 785.02 292.10 168.28 764.74 207.65 283.94 178.55 611.22 685.96 468.84 218.61 315.69 891.44 286.27 317.92 872.68 409.03 586.98 964.72 1146.93 589.62 301.15 295.55 416.98 774.33 168.16 1011.03 864.73 327.28 868.93 322.83 552.66 867.97 207.78 1117.15 755.17 321.39 770.59 632.06 77.53 461.35 386.92 228.89 851.45 212.48 851.76 446.93 584.98 667.56 653.75 329.54 622.17 390.22 794.93 771.98 859.82 799.35 977.88
1126.58 786.81 941.91 499.22 1075.98 980.11 160.29 474.75 631.94 620.89 892.32 1049.94 645.42 527.55 918.09 96.98 1080.38 553.62 910.38 915.30 537.36 431.00 444.32 497.71 426.41 201.68 552.62 1041.07 432.12 846.92 1087.57 871.77 1045.23 708.88 560.27 268.28 983.14 634.73 988.15 395.39 514.00 470.27 553.87 932.39 649.00 341.83 596.13 678.54 653.02 290.62 282.14 1021.01 671.13 970.60 598.19 696.45 706.65 891.52 504.41 426.36 0.00 687.13 893.60 568.94 254.60 1025.99 289.61 856.82 204.95 913.19 734.51 618.03 786.39 420.30 867.10 299.55 1180.38 827.17 388.76 842.08 1099.03 774.25 1093.86 959.45 534.77 420.71 583.44 1232.58 85.73 996.69 322.45 903.06 709.34 151.95 457.17 1022.45 803.45 637.72 903.97 955.80 505.95 739.81 1018.49 785.65 667.39 1057.50 898.45 896.99 538.89 683.16 875.20 731.26 334.81 755.25 637.16 265.22 587.84 727.22 983.90 699.35 542.61 576.09 874.18 584.13 836.74 791.97 840.95 1050.48 960.85 550.96 606.49 1081.32 915.53 495.66 380.71 406.29 592.98 764.76 338.84 673.71 276.01 956.92 427.04 893.21 253.59 544.59 735.83 290.49 600.08 412.54 725.66 1045.29 639.85 301.45 363.94 1022.44 261.88 183.71 607.22 625.01 193.24 796.75 1251.65 570.91 161.46 638.36 762.95 745.42 550.45 1095.11 854.48 733.24 1016.00 140.72 887.24 1012.82 421.67 1269.99 1015.43 739.13 664.29 785.44 499.86 398.05 178.40 644.55 741.93 559.27 890.86 389.06 898.99 923.85 1040.22 729.34 338.49 167.58 595.72 1096.16 797.48 920.79 1037.17
439.45 968.49 254.78 973.76 439.06 728.64 601.39 318.34 918.81 348.11 689.71 369.34 907.50 366.39 987.71 667.88 542.42 702.93 588.32 552.56 758.87 720.52 652.22 268.12 835.32 597.06 244.66 353.94 455.68 1011.94 870.45 351.94 855.29 156.22 725.40 520.22 347.86 1009.12 675.26 517.38 509.56 492.21 932.65 887.83 146.06 544.11 206.86 587.35 402.30 456.71 765.52 588.29 1073.55 627.33 189.05 590.08 933.08 842.56 339.13 343.50 687.13 0.00 757.26 339.94 432.53 599.14 491.89 863.16 744.33 955.23 1024.41 353.27 184.13 622.23 712.74 502.88 869.70 821.90 392.74 154.95 902.75 131.71 406.73 596.16 831.72 707.27 520.73 1041.06 702.77 332.55 739.15 219.09 546.81 642.87 460.06 472.79 959.34 165.41 719.23 276.85 952.82 982.62 937.90 699.31 796.06 517.03 960.57 209.86 222.21 255.06 238.28 552.37 547.95 885.73 1039.58 626.16 596.70 338.88 344.05 195.07 812.53 171.24 697.79 429.43 199.82 557.02 1038.87 363.35 273.72 462.60 936.64 596.75 581.53 343.59 751.60 341.34 964.36 661.43 563.40 885.20 674.50 320.00 320.59 754.42 605.78 378.97 781.14 468.42 319.09 379.79 525.09 358.16 331.45 479.38 488.37 830.65 526.62 588.83 1009.64 395.48 828.79 1106.67 1003.11 688.75 644.65 172.46 175.54 841.58 343.49 966.87 813.94 93.88 757.98 636.15 250.32 678.02 492.71 953.54 551.48 87.99 877.45 477.62 265.97 674.10 638.29 261.45 964.27 415.69 763.26 619.61 262.07 506.43 353.09 125.67 865.13 684.97 967.43 555.69 782.36 653.91 920.72
933.75 580.26 774.38 782.43 731.37 205.43 829.32 724.51 728.44 510.87 93.31 878.26 564.69 925.49 358.72 808.40 525.03 498.43 265.15 281.37 452.94 1095.19 565.67 791.09 671.41 937.79 825.01 793.86 559.21 453.83 248.63 481.23 266.61 884.41 476.52 747.32 701.56 782.36 258.58 601.21 391.38 440.61 697.47 260.90 792.38 678.16 819.49 275.70 380.72 789.43 1091.26 323.96 798.91 297.05 751.28 197.15 528.76 217.59 871.21 762.60 893.60 757.26 0.00 922.31 797.86 403.43 696.86 354.21 828.16 288.77 603.97 440.80 671.88 601.73 114.58 907.15 434.50 312.95 682.74 713.51 284.11 821.99 955.45 338.77 573.75 619.21 367.73 472.45 866.23 891.11 1090.69 864.26 289.28 897.00 995.05 529.20 446.79 668.64 60.51 815.82 688.47 473.67 224.54 127.77 486.33 485.25 364.70 768.42 656.66 502.20 687.21 234.86 907.40 390.60 753.76 720.26 349.06 440.86 881.92 624.02 532.62 754.46 59.47 358.17 702.91 248.56 554.97 921.91 793.68 391.34 679.73 509.13 252.40 846.17 1158.09 789.18 712.06 222.57 997.84 484.01 1015.73 663.91 768.43 94.12 938.50 927.48 410.86 761.97 614.25 696.98 232.17 784.03 451.57 786.37 618.76 188.17 740.92 882.53 756.19 475.04 864.18 706.20 437.27 470.28 858.21 626.41 628.34 343.68 909.80 293.55 209.20 810.29 143.80 872.77 683.01 329.58 967.09 459.81 391.44 816.18 474.59 298.41 793.24 1153.69 962.00 907.77 463.46 964.87 127.47 576.59 685.55 422.54 896.61 673.30 783.87 987.04 716.38 502.95 184.20 139.25 284.93
653.90 1043.43 526.65 909.67 753.10 936.18 523.60 269.08 980.42 472.89 900.08 608.40 878.79 103.89 1101.73 507.43 823.56 736.04 825.41 783.69 791.98 462.20 663.73 161.24 834.34 472.36 97.30 606.69 434.38 1085.42 1103.08 628.36 1093.49 241.86 760.40 477.40 629.82 1057.67 928.86 513.47 624.12 608.40 891.79 1051.32 195.90 510.54 140.81 765.99 612.67 378.92 535.31 864.71 1109.33 888.83 209.02 755.18 1002.02 1030.81 114.64 207.68 568.94 339.94 922.31 0.00 379.44 892.61 480.55 1016.61 675.94 1120.56 1076.84 541.80 445.63 627.67 945.20 319.50 1115.36 1014.27 399.15 494.89 1122.34 280.74 640.46 797.61 806.12 702.21 649.91 1247.57 565.26 541.37 533.25 427.66 744.25 485.76 213.57 729.26 1032.82 253.67 910.94 468.62 920.84 1042.46 1107.19 864.41 879.64 801.03 1135.96 517.67 316.48 549.37 553.74 787.16 369.15 1006.96 1047.92 567.75 723.65 610.04 514.01 428.20 764.99 236.08 899.95 594.16 539.76 745.55 1068.23 638.84 547.04 614.92 932.73 859.60 812.66 142.71 523.51 215.35 974.48 807.02 327.64 915.05 412.00 592.17 234.47 928.71 420.45 84.42 918.25 403.40 431.27 343.92 727.25 616.52 550.40 377.88 523.37 1036.12 483.80 468.17 1059.00 518.58 742.12 1113.08 1264.15 765.31 508.83 377.11 451.96 927.84 101.61 1162.96 998.38 257.84 970.68 511.25 590.26 954.44 230.21 1226.06 823.35 251.95 924.10 720.55 159.09 520.70 515.39 148.42 1029.57 106.21 995.45 654.61 589.23 688.28 590.05 383.78 782.86 468.71 981.45 822.72 941.38 895.56 1104.61
871.98 803.95 687.31 581.26 821.38 832.11 176.40 220.15 645.91 434.99 784.77 801.87 659.32 334.65 880.36 235.35 859.29 465.85 725.14 703.66 442.15 387.68 352.91 243.11 521.79 184.92 380.44 786.47 255.84 769.75 953.94 617.17 936.44 522.18 432.79 120.05 730.18 683.55 828.59 253.17 451.53 402.30 624.76 862.54 394.40 191.40 356.99 581.43 497.36 36.02 346.93 834.88 751.70 743.58 343.59 600.71 712.56 804.11 266.29 171.76 254.60 432.53 797.86 379.44 0.00 819.85 139.18 770.37 333.04 825.42 766.29 426.49 531.79 332.53 779.63 169.11 1004.52 742.44 148.39 587.48 992.77 539.48 839.26 746.99 501.04 350.83 516.21 1164.61 293.18 759.22 306.62 651.62 579.53 210.34 326.73 767.85 717.15 389.53 821.89 709.25 599.83 737.38 903.75 709.94 575.54 848.67 843.49 642.39 284.29 428.56 620.60 611.18 162.03 694.71 724.85 193.63 512.14 484.33 744.76 444.75 459.91 321.49 792.10 439.69 582.14 630.24 831.82 795.88 706.25 444.70 671.89 860.50 712.39 255.33 419.02 167.48 600.36 677.23 282.29 620.64 274.89 702.32 188.23 746.30 185.09 305.78 648.06 35.89 345.48 157.94 619.40 790.69 448.31 46.85 265.05 882.06 124.31 156.30 700.92 432.99 447.84 850.90 1142.86 476.01 223.43 383.76 511.30 651.80 329.60 938.96 797.78 498.47 903.43 203.62 632.64 833.94 290.18 1121.99 789.22 492.58 630.06 566.26 245.26 441.30 234.85 400.65 734.43 329.64 729.11 346.00 644.39 732.31 785.62 481.79 464.28 281.53 623.17 860.19 740.78 780.25 886.57
732.73 869.84 568.47 963.21 438.07 262.87 983.80 738.84 950.04 521.25 389.81 640.78 851.80 851.27 755.68 929.01 180.99 669.00 148.51 190.23 687.90 1207.53 737.26 759.70 891.88 1002.26 795.31 541.97 664.77 793.89 438.38 298.19 438.92 740.34 626.89 840.38 457.59 1025.78 223.12 734.01 554.03 573.41 932.43 637.60 724.67 794.38 759.98 462.80 372.97 855.87 1143.86 140.11 1080.89 231.41 691.77 405.67 857.60 594.29 862.47 835.08 1025.99 599.14 403.43 892.61 819.85 0.00 780.55 643.79 948.74 692.20 925.76 443.84 507.73 701.20 479.11 950.71 285.21 663.75 752.15 511.80 456.42 640.81 700.01 129.50 808.71 819.15 495.08 540.02 986.84 656.71 1103.55 662.55 390.96 1018.81 938.13 214.06 748.76 638.94 362.50 597.61 923.43 812.40 584.48 428.86 720.58 154.81 741.40 563.51 677.66 451.03 433.56 389.87 981.88 729.41 1053.09 882.91 499.54 392.16 622.98 548.19 767.58 724.76 355.97 441.86 399.32 286.55 878.56 656.63 589.72 475.03 960.20 160.67 161.26 835.17 1215.95 857.25 942.59 441.73 1071.61 790.09 1094.74 451.71 841.02 437.43 1003.79 873.04 686.03 834.44 569.88 740.48 333.23 551.80 443.82 851.57 751.56 481.25 837.76 976.15 1040.87 490.08 1024.67 1031.49 520.59 670.11 997.31 580.52 468.61 650.29 828.37 573.34 552.51 681.82 408.58 975.63 449.82 181.77 976.55 473.23 98.65 676.26 782.34 305.75 757.55 1235.41 1054.70 832.50 827.69 900.57 504.17 701.31 433.21 204.33 659.13 592.51 943.17 1070.10 953.18 130.64 548.73 335.41 519.53
888.78 664.77 737.48 520.50 886.46 734.67 231.19 221.75 548.40 385.51 654.36 791.09 534.34 425.09 741.18 192.63 840.48 326.67 664.94 677.40 363.66 524.29 213.73 327.59 382.61 284.36 480.06 836.64 146.51 654.34 829.18 625.93 841.03 568.42 369.48 63.61 793.31 638.71 725.43 113.99 323.82 274.59 531.59 805.76 438.59 52.22 453.94 469.74 407.58 148.63 436.92 752.67 682.23 712.50 387.78 499.71 604.04 745.85 365.91 287.61 289.61 491.89 696.86 480.55 139.18 780.55 0.00 631.19 263.43 686.24 720.69 399.16 540.55 193.35 648.80 223.78 898.98 604.90 99.15 637.65 853.59 611.74 831.58 721.80 374.10 221.66 393.26 1036.90 233.36 815.25 445.80 710.98 440.35 264.45 381.40 791.00 601.74 390.52 682.71 755.95 470.66 625.20 845.78 608.94 470.27 777.02 704.31 692.56 269.68 458.04 678.77 472.00 283.68 555.53 620.82 159.27 372.96 459.14 797.73 477.00 391.08 394.05 652.92 338.69 660.37 544.76 697.31 829.66 753.11 305.52 533.25 835.31 671.69 371.18 505.87 265.20 566.00 549.88 379.77 524.15 384.55 755.66 260.82 607.12 284.21 403.50 508.88 123.10 354.24 182.96 480.22 840.86 407.18 169.28 145.44 825.70 57.21 210.41 639.23 368.78 392.74 780.41 1047.45 350.08 227.03 430.99 496.69 518.47 402.19 843.78 700.81 570.73 785.77 248.71 710.87 772.42 382.83 1024.55 760.34 564.84 514.73 540.00 329.74 495.41 288.74 475.73 595.25 440.89 673.86 224.59 722.62 643.37 772.74 467.18 407.19 335.42 560.43 815.68 677.47 694.77 822.29
1175.93 226.05 1022.21 573.96 898.11 553.91 783.66 747.53 462.57 615.90 395.19 1122.27 296.38 992.12 124.55 759.84 810.23 319.49 550.35 566.57 347.09 1133.57 484.45 859.67 500.60 895.55 985.16 1054.01 582.23 150.10 447.00 765.92 491.05 1019.38 350.91 694.80 906.28 439.57 581.05 561.57 555.98 535.25 488.53 192.20 939.48 593.94 970.86 371.24 568.77 779.82 1033.70 646.43 460.21 614.82 902.65 388.98 248.75 219.71 947.78 865.93 856.82 863.16 354.21 1016.61 770.37 643.79 631.19 0.00 663.48 112.78 281.97 553.53 806.48 452.81 270.46 854.97 645.45 41.26 691.96 957.78 545.45 994.87 1143.21 601.41 446.76 513.36 486.54 696.63 801.01 1127.18 1013.40 1028.04 430.39 862.36 1012.59 828.34 104.97 872.50 411.73 1067.02 481.68 168.61 347.25 309.42 276.05 770.45 119.66 1009.03 704.72 614.77 882.19 384.50 914.87 119.54 447.15 660.23 399.94 634.68 1128.19 756.02 426.77 860.70 381.94 550.00 920.65 437.67 234.77 1099.83 1059.34 520.04 415.55 804.33 537.60 935.14 1117.32 847.07 459.92 275.44 1010.96 219.83 948.71 917.16 841.92 261.43 875.94 972.61 208.43 749.31 698.35 720.00 478.44 1063.84 531.71 748.82 586.67 375.12 688.40 841.60 467.08 604.95 737.59 412.33 658.68 378.13 830.34 758.55 740.91 133.40 983.29 423.30 174.22 957.04 426.07 808.66 918.93 594.34 1007.30 659.65 690.58 951.15 222.45 538.36 857.52 1126.60 885.52 1036.53 183.90 1022.76 287.30 484.05 880.71 707.74 1103.92 825.42 624.28 920.48 456.12 774.43 210.21 457.02 368.16
1152.21 590.97 967.89 346.09 1088.23 977.55 240.54 434.72 451.47 578.63 832.14 1054.52 539.03 632.57 779.51 187.50 1019.21 437.97 876.25 854.77 382.03 516.74 359.78 546.86 291.07 366.26 675.45 1054.38 409.94 676.34 967.43 831.15 1011.48 802.93 443.04 224.11 1000.40 489.11 979.70 325.52 484.98 472.22 359.14 855.68 651.56 315.65 668.96 633.84 575.77 297.02 407.20 964.20 555.55 924.03 600.75 679.21 571.31 836.62 561.30 478.41 204.95 744.33 828.16 675.94 333.04 948.74 263.43 663.48 0.00 754.75 593.71 620.65 752.16 341.63 713.58 439.10 1110.51 622.22 362.58 899.28 1028.99 792.87 1095.01 925.06 378.79 215.76 554.42 1179.77 225.95 1029.46 366.89 921.68 703.78 316.53 589.60 1038.09 678.77 653.95 832.63 962.64 337.25 615.13 930.27 786.33 493.58 1040.45 760.89 954.19 530.85 671.68 899.15 709.15 421.38 641.77 515.27 156.10 584.49 715.78 1008.03 704.95 337.66 573.09 862.42 589.42 860.69 762.95 646.22 1093.09 1009.39 556.25 475.74 1086.61 863.50 533.23 453.84 500.52 405.92 722.95 543.79 514.02 427.50 962.75 505.20 751.28 393.72 601.96 592.99 306.13 565.85 446.39 730.95 1064.21 624.50 340.78 294.07 895.55 217.71 318.64 516.62 604.90 202.59 619.23 1205.84 475.24 287.57 643.96 718.78 629.77 630.78 973.95 755.18 751.86 953.79 283.99 911.19 1014.39 551.18 1154.79 980.00 745.97 523.44 717.37 544.71 505.15 295.51 707.30 634.39 626.15 764.10 367.18 904.82 906.80 1036.17 728.35 143.76 342.19 427.02 1061.54 751.03 890.22 921.56
1222.52 335.52 1063.15 619.55 1010.13 494.20 823.74 851.48 485.16 728.68 382.08 1157.16 340.25 1079.92 69.95 816.21 813.80 421.92 553.92 570.14 459.87 1156.38 528.95 963.62 526.86 916.45 1090.39 1082.63 695.01 165.06 452.14 770.00 496.19 1111.45 463.69 749.85 990.33 538.71 547.35 641.85 607.01 579.51 537.84 239.59 1012.71 634.02 1073.51 476.47 655.20 834.87 1073.78 612.73 560.53 585.82 1006.91 485.92 270.00 173.40 1037.11 942.44 913.19 955.23 288.77 1120.56 825.42 692.20 686.24 112.78 754.75 0.00 354.94 666.31 916.09 492.89 242.49 910.02 574.61 154.04 772.24 1002.28 516.33 1086.94 1210.45 627.54 418.50 598.48 565.47 583.85 828.71 1127.11 1047.53 1140.82 510.69 883.26 1043.93 817.97 205.29 957.41 349.28 1104.59 527.07 253.48 326.51 394.51 349.50 774.02 96.28 1057.19 817.50 727.55 967.14 454.76 969.92 232.32 520.12 700.31 485.47 708.95 1160.82 868.80 459.63 973.48 348.24 646.94 974.06 492.77 292.76 1208.53 1082.45 625.66 436.45 797.90 541.17 1026.01 1159.93 936.40 487.62 380.67 1066.01 240.73 1008.76 952.68 915.65 284.17 968.36 1074.70 287.98 799.29 795.07 832.78 511.07 1072.80 644.49 845.47 626.75 380.26 743.45 896.65 533.64 717.73 810.78 437.78 545.90 427.82 851.24 871.33 853.69 230.12 1057.02 376.99 193.19 1049.11 432.57 829.56 971.78 618.35 1069.07 635.00 680.21 1043.22 250.15 577.31 961.47 1152.50 925.60 1087.98 231.68 1112.09 263.52 524.13 956.76 711.31 1151.61 878.73 651.98 964.26 485.17 791.72 206.58 428.02 331.32
1389.93 55.92 1205.26 315.75 1180.08 803.67 789.45 866.91 255.92 727.00 651.10 1317.90 198.05 1057.28 336.65 706.61 1066.14 399.44 806.26 822.48 371.48 1098.46 527.32 915.60 417.97 858.53 1090.01 1283.19 710.84 252.74 728.97 901.48 759.76 1143.28 432.49 697.45 1172.09 222.63 830.81 641.52 595.15 641.17 319.37 463.41 1046.53 668.47 1046.50 565.57 728.90 763.20 1000.91 896.19 226.59 869.28 1020.34 593.26 143.20 501.68 982.68 938.05 734.51 1024.41 603.97 1076.84 766.29 925.76 720.69 281.97 593.71 354.94 0.00 755.07 1008.02 527.34 529.59 894.99 927.42 291.02 753.42 1105.43 809.62 1110.17 1357.21 867.22 358.29 530.66 647.22 938.79 648.78 1283.03 960.60 1196.44 661.00 825.34 1011.50 1086.28 202.81 998.19 661.49 1227.33 293.61 153.12 548.69 559.18 280.22 1017.39 311.76 1160.34 802.20 816.31 1086.47 630.97 904.90 280.22 165.18 627.76 570.44 811.74 1265.97 945.80 349.97 958.18 631.70 679.31 1089.56 719.64 126.30 1313.83 1224.20 694.49 292.56 1058.74 793.51 991.07 1047.55 910.97 221.03 541.25 1048.58 208.30 950.84 1161.15 925.59 517.34 889.68 1042.35 312.36 765.62 830.38 785.73 671.81 1278.53 733.25 719.44 661.20 657.09 691.05 855.84 195.12 755.85 606.32 130.36 900.84 440.62 793.32 907.21 942.45 316.83 1066.96 657.31 423.98 1069.16 694.04 771.64 1103.26 876.31 1017.36 915.32 950.07 1075.05 217.72 738.05 917.75 1043.16 868.78 1096.76 183.07 1086.66 548.99 557.48 1125.19 941.51 1303.57 976.70 483.19 901.31 243.84 1049.42 459.97 711.48 639.37
740.34 766.60 512.32 687.12 542.00 463.08 561.80 329.95 652.75 77.41 358.28 629.02 614.48 567.76 656.28 568.90 462.35 387.10 326.90 303.39 443.04 814.17 396.84 393.36 554.47 592.49 444.50 585.81 252.65 702.31 570.30 281.63 555.14 509.49 405.31 396.54 495.09 743.06 430.35 359.75 182.90 199.15 628.90 613.50 447.86 376.78 428.11 268.40 70.87 444.92 753.25 440.01 802.00 421.17 457.69 268.25 634.85 567.20 477.43 464.73 618.03 353.27 440.80 541.80 426.49 443.84 399.16 553.53 620.65 666.31 755.07 0.00 296.59 360.78 477.21 506.87 661.46 512.27 337.66 455.84 580.54 484.98 701.16 341.42 478.45 475.33 198.53 768.88 579.09 604.37 733.11 518.15 215.38 574.97 597.32 452.43 649.71 376.81 401.16 542.27 652.55 672.99 620.78 377.48 497.83 439.47 619.41 510.75 233.82 104.88 396.22 258.58 566.11 565.53 740.59 499.94 264.93 109.19 622.55 255.41 496.70 389.80 381.33 107.23 434.68 203.75 745.14 664.24 553.82 134.61 625.57 485.36 314.15 468.83 811.49 446.87 693.36 364.20 659.98 575.57 677.10 457.44 453.20 482.35 574.37 522.87 471.51 390.60 180.79 311.06 208.63 575.98 21.82 422.15 352.25 503.42 402.94 570.72 743.58 84.64 706.03 849.65 761.56 362.09 572.76 248.66 231.02 488.31 557.84 641.14 520.15 447.15 485.19 594.44 409.04 497.34 598.36 718.66 397.53 441.26 567.82 212.47 391.21 813.82 620.78 536.43 654.64 586.55 480.07 360.89 457.75 305.82 643.35 324.81 578.70 664.66 674.29 478.13 500.51 353.76 582.79
450.09 979.00 215.73 909.60 396.11 553.99 673.38 373.62 933.20 284.76 602.16 378.33 848.43 477.27 931.03 700.41 443.02 652.62 510.55 468.83 708.56 818.48 566.98 393.49 737.39 689.04 348.33 328.94 435.65 894.20 706.82 268.21 732.19 340.35 666.13 528.05 304.91 995.84 530.97 518.87 452.88 405.31 824.76 855.54 256.94 519.37 304.82 512.28 314.75 528.70 755.19 504.56 1035.48 443.20 307.75 526.73 898.86 813.24 444.84 438.11 786.39 184.13 671.88 445.63 531.79 507.73 540.55 806.48 752.16 916.09 1008.02 296.59 0.00 533.10 699.71 598.08 725.24 765.22 441.40 224.95 768.59 226.36 417.37 455.82 768.18 658.97 464.05 918.17 710.60 320.70 795.50 375.70 447.03 687.55 570.94 348.72 902.66 238.68 620.73 274.37 862.66 925.94 842.71 623.89 761.84 415.75 903.89 277.81 301.10 191.71 153.11 489.02 628.90 829.05 974.07 649.05 540.02 263.72 332.90 112.33 733.01 317.54 634.44 372.75 156.87 423.32 908.62 373.99 257.23 405.92 891.09 420.64 497.80 416.77 855.16 443.25 934.33 598.08 665.31 828.52 739.86 269.14 464.00 701.92 637.13 482.64 724.46 521.19 186.31 373.85 461.74 319.11 274.77 484.94 487.42 722.99 534.45 633.51 1002.35 294.53 869.98 1060.23 913.87 622.91 695.05 173.32 91.81 751.26 454.37 841.78 750.59 267.37 682.82 697.19 207.37 533.56 603.59 843.87 421.22 272.12 820.77 413.92 391.34 858.23 751.37 372.33 907.59 526.57 733.02 511.72 219.12 422.70 373.73 108.57 851.83 717.18 922.74 377.09 769.33 573.33 830.38
983.19 471.42 748.83 386.54 843.41 655.32 330.85 358.59 409.38 398.57 508.42 907.00 376.45 587.03 562.84 323.32 810.72 133.32 564.62 598.05 189.26 680.76 36.06 470.73 219.16 460.45 605.43 862.04 242.72 490.16 756.27 618.85 711.41 677.41 176.13 256.96 795.25 485.78 659.62 148.96 269.02 221.42 344.28 616.81 519.82 141.13 580.62 332.13 328.23 341.98 580.89 677.73 504.56 645.81 514.02 410.68 410.69 578.16 544.22 449.55 420.30 622.23 601.73 627.67 332.53 701.20 193.35 452.81 341.63 492.89 527.34 360.78 533.10 0.00 542.62 417.13 845.99 411.55 279.35 758.05 774.24 707.75 950.47 646.34 235.08 125.87 292.17 955.78 366.78 853.80 592.22 799.73 384.55 410.72 574.75 754.48 437.56 532.99 567.65 807.47 344.43 431.85 705.13 494.75 276.92 747.26 533.24 782.26 411.92 440.38 685.67 399.09 477.03 404.24 443.15 207.42 259.31 449.37 866.00 554.70 213.41 505.65 542.26 259.34 647.21 473.04 503.96 907.09 790.33 226.17 427.49 756.53 577.37 533.12 677.50 443.51 416.10 404.44 573.12 330.80 535.40 767.39 422.76 532.89 477.56 581.81 315.53 306.40 356.65 341.02 400.87 852.21 357.32 352.58 133.86 712.50 250.56 403.76 473.09 354.29 423.22 602.74 917.83 156.73 377.88 509.32 532.75 325.12 564.13 710.06 535.00 675.00 639.83 374.30 697.71 688.49 576.18 887.88 690.64 680.89 321.38 460.65 468.58 679.14 432.71 601.36 401.90 619.20 577.50 31.24 709.46 613.61 906.83 574.47 318.73 471.37 430.75 785.92 484.12 556.10 708.64
1015.88 496.51 839.83 705.32 767.64 320.01 815.44 701.31 613.86 538.71 175.44 914.67 450.11 945.90 294.83 770.12 590.48 420.42 330.60 346.82 438.62 1096.40 522.65 794.23 620.48 856.47 847.90 863.92 594.86 369.51 253.85 547.44 297.90 868.96 377.61 712.41 767.01 673.24 373.16 574.07 403.93 442.25 642.11 175.09 849.59 625.72 891.41 233.98 412.71 797.43 1065.12 438.54 698.37 395.07 836.17 251.72 429.93 129.82 891.36 817.17 867.10 712.74 114.58 945.20 779.63 479.11 648.80 270.46 713.58 242.49 529.59 477.21 699.71 542.62 0.00 872.58 473.59 238.57 696.16 820.52 333.96 844.45 991.86 404.22 539.22 577.20 334.49 522.30 827.95 884.62 1041.71 921.27 268.20 895.31 984.47 610.62 357.04 758.78 175.09 881.27 640.74 378.83 225.16 152.02 382.24 550.70 287.75 827.10 673.49 508.00 724.65 240.65 909.04 290.95 654.11 729.92 315.10 466.46 918.33 660.43 518.30 809.39 174.05 412.74 763.11 320.28 450.94 966.27 859.13 398.23 565.15 587.99 317.85 869.70 1154.11 841.64 597.48 138.18 999.48 369.43 1011.11 729.36 823.00 41.68 908.38 951.03 335.80 771.90 642.09 707.00 268.58 873.75 477.41 788.32 579.98 181.97 706.01 859.21 684.05 513.31 856.39 629.25 504.32 385.89 862.47 658.40 634.14 267.32 957.93 260.37 108.67 806.62 240.21 855.34 749.22 423.23 981.46 462.40 474.41 800.73 360.01 334.82 796.38 1144.21 935.92 939.83 348.88 995.49 50.52 534.87 721.96 487.99 933.02 727.87 709.26 955.96 601.80 573.76 69.62 237.27 207.98
845.53 888.55 751.79 687.32 860.66 958.45 240.74 301.87 747.55 515.15 862.40 784.64 758.12 228.00 964.96 313.07 946.53 550.45 833.77 810.26 587.44 382.27 437.51 254.10 606.39 167.43 319.01 821.25 362.00 878.12 1052.96 683.46 1062.01 475.27 593.26 240.56 802.27 816.51 937.22 337.77 547.60 498.37 645.43 979.40 403.34 276.00 355.08 671.44 577.74 142.08 277.47 918.63 862.97 904.09 356.70 710.00 827.82 938.53 204.86 176.58 299.55 502.88 907.15 319.50 169.11 950.71 223.78 854.97 439.10 910.02 894.99 506.87 598.08 417.13 872.58 0.00 1110.58 828.68 254.42 651.96 1077.37 513.41 823.46 848.29 597.88 445.44 539.42 1260.68 342.82 762.30 302.48 630.42 664.13 166.26 157.62 864.71 825.52 418.65 906.49 683.18 694.44 848.98 996.70 819.23 694.05 933.55 928.09 706.87 374.59 546.50 670.72 695.78 59.90 779.31 801.56 362.74 596.74 614.41 728.57 492.46 610.66 347.66 876.70 562.47 697.50 710.62 921.09 823.21 761.60 529.30 757.03 986.73 821.02 196.11 319.37 161.54 752.63 767.24 155.99 747.93 181.23 764.62 182.29 830.90 115.52 264.53 732.66 196.40 411.77 224.23 704.00 831.08 528.69 175.55 369.22 988.12 239.32 220.30 823.02 499.28 484.11 905.52 1235.62 573.86 205.05 472.13 587.87 742.25 250.90 1067.56 901.49 472.40 992.06 219.96 729.24 986.20 159.05 1225.53 883.00 466.51 738.51 719.34 254.11 355.62 210.34 375.94 819.03 265.11 897.64 448.37 740.37 812.69 766.29 504.31 582.86 213.64 743.41 946.48 844.49 860.63 1038.56
995.68 871.50 821.87 1077.09 680.89 250.14 1083.18 929.09 1011.79 722.36 360.71 903.05 845.60 1107.87 644.56 1086.67 418.89 777.07 335.77 358.07 795.27 1392.20 833.07 984.82 999.25 1163.35 1018.06 805.36 852.62 739.67 219.74 558.69 237.11 993.44 734.26 962.59 667.46 1080.34 262.92 784.99 715.32 722.13 1015.49 491.93 944.37 893.46 974.55 513.86 636.25 968.50 1331.12 281.41 1105.66 282.04 906.34 556.58 844.61 425.74 1087.59 1055.68 1180.38 869.70 434.50 1115.36 1004.52 285.21 898.98 645.45 1110.51 574.61 927.42 661.46 725.24 845.99 473.59 1110.58 0.00 640.14 915.38 797.01 171.21 898.69 925.35 410.61 916.08 931.94 645.88 273.33 1132.34 927.46 1290.81 910.93 523.75 1124.37 1188.78 423.93 750.42 919.76 395.06 808.74 1030.80 800.86 483.56 494.63 809.90 440.02 670.27 768.40 874.77 669.03 658.44 536.60 1149.67 725.93 1046.75 991.94 610.64 585.21 908.19 772.09 874.95 974.23 394.55 639.75 684.53 482.91 867.37 939.27 846.40 672.92 978.53 445.88 348.52 1060.29 1351.63 1069.42 1026.31 575.68 1266.57 783.01 1220.30 705.11 1050.01 463.49 1117.57 1136.49 692.53 989.73 775.71 963.25 504.59 801.56 640.85 1012.26 816.44 291.62 956.19 1105.03 1076.69 695.07 1223.61 1011.77 235.38 775.32 1126.01 833.08 694.16 713.05 1091.82 354.70 507.18 931.81 359.92 1126.63 735.03 191.68 1210.16 188.02 372.13 925.92 788.84 494.65 982.67 1390.03 1187.72 1059.76 799.04 1148.40 513.68 814.75 686.67 489.54 921.40 822.48 1054.27 1223.70 1014.10 415.85 519.78 332.90 356.22
1178.70 267.31 980.95 557.39 939.37 512.65 742.40 770.14 423.00 574.64 360.08 1081.01 262.63 964.93 165.81 734.87 775.12 278.23 515.24 531.46 334.17 1092.31 443.19 876.84 459.34 854.29 956.77 1012.75 623.49 190.04 459.67 729.69 470.38 978.12 309.65 668.51 913.55 480.83 539.79 520.31 516.53 493.99 454.78 233.46 930.14 552.68 940.38 357.94 549.93 753.53 992.44 605.17 490.57 578.26 922.67 377.39 246.26 214.40 922.12 827.45 827.17 821.90 312.95 1014.27 742.44 663.75 604.90 41.26 622.22 154.04 291.02 512.27 765.22 411.55 238.57 828.68 640.14 0.00 650.70 953.07 518.60 953.61 1121.50 588.86 405.50 500.44 452.79 706.94 759.75 1085.92 972.14 986.78 461.65 821.10 981.77 795.26 137.44 840.03 370.47 1039.59 496.51 160.72 329.45 268.16 250.59 735.34 138.67 967.77 724.37 573.51 864.85 394.53 888.58 85.79 448.95 618.97 358.68 593.42 1091.18 724.04 387.83 858.43 340.68 511.95 903.31 468.73 242.02 1119.58 1020.20 478.78 374.29 772.63 502.49 911.02 1076.06 821.41 418.66 316.70 984.67 178.57 907.45 875.90 800.66 226.32 834.68 959.71 182.97 717.95 672.89 712.37 457.13 1022.58 490.45 764.13 545.41 416.38 662.11 815.31 478.89 563.69 696.33 418.18 676.80 344.38 789.08 717.29 699.65 107.94 942.03 417.99 132.96 915.78 403.02 767.40 877.67 607.87 987.73 676.00 659.05 909.89 181.19 523.37 874.69 1090.34 844.26 1012.91 173.81 997.10 262.33 442.79 910.51 672.63 1062.66 793.44 583.02 879.22 423.01 758.40 168.95 420.46 380.69
823.00 720.01 638.33 619.65 787.31 762.30 275.73 155.16 598.36 286.60 683.02 752.89 555.37 380.91 809.26 291.78 780.01 372.47 609.43 641.05 428.41 536.07 309.78 267.30 481.76 311.99 398.30 737.49 123.53 729.31 878.69 526.78 829.22 506.59 398.87 162.76 694.16 688.67 725.92 130.39 303.14 253.91 594.90 778.96 349.00 151.37 354.79 462.18 408.53 131.05 484.37 722.54 724.49 694.11 321.19 487.15 648.06 712.77 309.64 250.79 388.76 392.74 682.74 399.15 148.39 752.15 99.15 691.96 362.58 772.24 753.42 337.66 441.40 279.35 696.16 254.42 915.38 650.70 0.00 538.50 895.12 512.59 790.28 622.65 473.25 320.81 372.58 1016.22 332.51 716.10 455.01 611.83 440.84 321.62 403.86 705.96 676.71 348.54 708.78 660.40 569.81 691.20 829.86 596.38 511.04 746.76 772.39 593.41 170.53 358.89 579.62 524.86 266.80 643.39 699.99 238.99 389.22 359.99 698.58 377.85 445.56 326.51 680.55 369.63 561.22 541.41 757.38 746.90 655.89 362.20 549.65 736.16 622.18 281.57 514.18 244.75 618.77 557.98 410.41 569.95 382.85 656.51 224.00 686.43 280.12 369.31 554.68 122.71 255.09 83.81 507.85 741.71 359.48 146.51 161.84 813.14 156.36 267.58 675.92 337.23 436.05 713.93 1035.64 413.34 322.42 337.09 397.54 564.27 365.37 880.23 763.86 471.58 779.09 319.18 611.72 731.78 371.11 1052.18 711.82 465.69 560.53 510.19 265.15 542.51 352.89 444.16 675.38 391.67 746.68 281.86 623.47 613.11 736.64 368.03 506.34 399.57 595.96 768.48 706.86 675.02 838.55
284.50 1123.44 99.83 1093.64 291.38 676.25 756.34 473.29 1073.76 378.43 687.88 214.39 1003.84 521.34 1072.23 822.83 455.08 793.62 546.76 505.04 849.56 875.47 791.93 423.07 939.12 712.79 399.61 198.99 610.63 1021.66 829.08 304.42 847.78 311.17 794.67 675.17 200.18 1164.07 650.21 668.89 572.26 583.80 1049.71 960.80 301.01 680.03 361.81 647.32 449.79 611.66 919.18 590.35 1214.27 565.46 344.00 644.15 1024.21 894.61 447.10 498.45 842.08 154.95 713.51 494.89 587.48 511.80 637.65 957.78 899.28 1002.28 1105.43 455.84 224.95 758.05 820.52 651.96 797.01 953.07 538.50 0.00 885.01 252.66 251.78 502.89 934.29 859.31 596.56 928.01 857.72 177.60 894.10 150.75 594.30 762.52 615.01 376.27 969.06 320.36 683.83 121.90 1059.07 1032.70 905.81 753.38 887.19 429.69 1072.66 54.91 377.16 406.80 150.94 680.99 701.61 963.56 1166.05 777.49 685.21 456.54 189.95 337.28 903.22 326.19 654.04 518.68 112.48 610.25 1098.86 208.40 118.77 551.85 1037.02 475.56 534.01 475.17 906.55 496.29 1108.55 682.34 718.35 963.93 829.45 177.96 475.54 807.63 759.62 506.77 859.87 623.37 411.26 534.74 598.22 203.21 462.62 634.33 643.32 840.81 681.57 743.78 1154.78 429.06 974.55 1235.79 965.96 751.45 799.60 327.41 316.76 934.90 498.44 959.96 922.71 248.83 777.83 791.10 102.64 651.39 647.66 962.13 485.91 242.94 956.18 531.98 420.92 829.05 793.24 416.40 1043.00 559.23 835.43 736.67 151.35 420.79 198.14 280.62 1020.08 839.92 1085.74 468.35 890.14 646.40 928.93
1017.26 771.50 877.43 996.61 727.80 244.10 1066.04 896.29 872.88 657.74 268.89 889.56 727.97 1101.22 576.18 1002.05 480.27 696.59 354.49 396.21 734.63 1300.05 741.25 967.01 916.02 1128.59 1025.04 833.79 810.94 631.98 98.45 590.82 65.90 1012.16 673.63 917.20 723.02 951.10 310.19 798.83 597.13 641.21 925.56 360.97 999.43 876.32 1008.65 508.09 556.30 999.25 1290.51 364.71 957.39 325.39 988.36 447.32 682.46 351.30 1051.08 984.59 1099.03 902.75 284.11 1122.34 992.77 456.42 853.59 545.45 1028.99 516.33 809.62 580.54 768.59 774.24 333.96 1077.37 171.21 518.60 895.12 885.01 0.00 936.83 966.75 453.61 815.24 827.80 591.87 188.34 1059.88 960.94 1299.39 1001.01 475.25 1118.04 1169.72 569.99 650.42 905.72 246.49 902.90 938.45 676.54 312.35 345.47 679.95 489.17 539.31 867.95 807.47 647.69 765.81 434.93 1108.00 588.66 925.46 926.01 539.86 563.87 989.34 777.92 806.19 959.23 276.28 581.24 804.27 398.85 742.97 941.16 904.97 548.07 824.17 409.45 367.24 1042.48 1359.46 1000.37 875.34 420.73 1198.44 628.45 1183.81 760.67 979.62 292.28 1081.08 1096.52 616.87 971.14 761.12 891.60 408.24 843.62 573.55 955.49 819.36 170.33 910.80 1064.00 950.44 646.79 1114.35 880.81 202.50 668.44 1080.62 800.39 767.22 541.84 1097.59 233.41 407.36 963.72 188.71 1099.45 782.37 293.11 1131.30 175.70 440.45 957.83 637.87 474.48 964.86 1349.00 1142.33 1114.82 646.59 1147.68 342.47 774.35 775.01 509.62 907.91 844.75 983.49 1189.01 872.89 453.00 367.33 248.84 185.01
417.90 1054.25 314.68 1083.28 491.90 751.88 682.72 397.53 1050.52 444.15 757.99 358.24 1000.61 384.63 1119.42 729.47 614.16 796.04 582.34 540.62 851.98 721.14 743.81 296.37 926.91 625.31 221.63 380.80 518.83 1120.56 887.35 482.68 930.08 115.13 794.26 568.76 404.07 1140.83 685.79 630.15 637.98 623.92 1051.12 1019.54 187.93 638.99 244.18 707.16 509.63 538.04 737.04 691.13 1187.42 661.64 231.50 694.93 1056.39 974.27 335.78 368.29 774.25 131.71 821.99 280.74 539.48 640.81 611.74 994.87 792.87 1086.94 1110.17 484.98 226.36 707.75 844.45 513.41 898.69 953.61 512.59 252.66 936.83 0.00 398.73 610.91 907.73 801.68 625.21 1076.64 751.31 286.86 696.73 159.99 654.14 667.84 488.26 569.84 1083.32 228.56 794.09 262.18 1017.55 1111.88 1015.26 782.60 927.77 618.79 1092.28 307.57 353.92 386.77 340.04 684.08 543.74 992.21 1150.90 707.18 714.74 445.95 253.13 288.18 905.64 271.96 764.30 533.91 331.53 649.68 1124.63 377.96 273.18 567.08 1010.17 647.00 569.59 317.30 742.28 385.21 1081.70 793.14 586.58 957.66 684.54 366.42 381.99 845.76 624.96 345.63 912.85 544.25 412.67 453.12 656.80 370.97 463.16 564.21 620.08 903.06 575.16 654.80 1136.44 476.98 901.06 1226.52 1043.01 817.17 669.44 263.94 307.25 973.29 371.69 1022.31 945.65 41.01 830.39 685.84 345.33 734.57 502.75 1041.76 624.51 46.90 967.08 596.15 298.52 779.64 705.34 225.54 1081.93 365.15 894.97 738.08 308.49 577.93 339.89 218.78 914.68 727.05 1058.89 603.45 914.07 737.61 1021.13
70.33 1336.23 201.64 1316.52 406.32 847.91 1008.12 718.68 1290.30 630.21 892.37 77.19 1210.71 699.83 1267.76 1015.79 561.35 1025.30 736.37 700.25 1069.11 1021.30 984.35 637.98 1154.76 964.57 555.94 190.12 758.96 1273.44 953.32 543.85 946.28 456.74 1008.10 895.19 321.29 1380.61 781.82 827.11 824.04 803.60 1239.72 1120.39 524.40 883.80 533.37 852.85 686.90 863.44 1073.03 750.20 1423.62 797.17 575.21 838.21 1270.14 1096.52 618.60 709.90 1093.86 406.73 955.45 640.46 839.26 700.01 831.58 1143.21 1095.01 1210.45 1357.21 701.16 417.37 950.47 991.86 823.46 925.35 1121.50 790.28 251.78 966.75 398.73 0.00 660.66 1116.00 973.56 840.22 1101.70 1064.94 111.87 1095.46 308.14 790.29 989.72 807.08 547.64 1220.84 572.14 918.76 205.95 1222.56 1282.22 1140.74 853.34 1133.12 569.93 1260.17 232.87 628.94 596.28 381.22 855.13 855.46 1181.36 1385.85 990.85 922.32 597.02 145.60 448.45 1074.87 577.97 895.98 755.79 342.88 795.45 1325.99 43.38 187.94 781.32 1246.37 557.30 723.62 629.02 1084.20 719.31 1317.90 926.28 915.79 1188.87 1004.69 318.40 700.09 963.68 931.12 654.94 1084.81 816.33 603.68 763.79 723.28 199.95 679.34 862.51 858.56 1002.08 888.79 995.56 1372.64 648.86 1212.34 1441.92 1139.65 972.72 1011.05 509.44 484.52 1102.24 693.49 1088.28 1078.76 394.40 961.97 997.56 342.07 783.71 826.15 1113.37 603.26 388.51 1181.12 747.22 640.13 1079.80 1019.95 534.29 1267.94 694.36 1030.42 929.09 366.57 599.23 58.84 475.80 1166.42 1037.10 1295.09 569.37 1061.48 830.54 1074.37
717.86 827.46 506.01 906.55 498.70 247.30 859.58 609.34 858.19 399.81 267.74 620.17 772.77 828.11 680.79 874.15 236.70 606.53 99.12 70.29 650.66 1134.67 663.36 671.19 764.68 924.26 700.31 577.42 594.07 730.96 377.51 244.22 407.29 726.04 589.65 732.07 421.58 948.50 187.88 664.08 471.59 503.48 834.50 561.91 667.68 674.56 694.79 369.25 349.29 753.70 1039.99 140.21 979.33 136.51 626.58 290.70 755.34 519.40 773.96 746.57 959.45 596.16 338.77 797.61 746.99 129.50 721.80 601.41 925.06 627.54 867.22 341.42 455.82 646.34 404.22 848.29 410.61 588.86 622.65 502.89 453.61 610.91 660.66 0.00 683.89 714.44 412.17 571.61 914.62 631.28 1053.61 633.16 312.48 897.37 808.63 226.93 706.38 543.94 294.13 530.97 825.50 714.10 516.11 375.37 671.19 190.87 666.51 527.23 553.52 346.48 451.41 328.41 889.45 665.54 959.54 800.47 438.45 262.66 626.65 418.69 669.65 623.90 281.08 417.58 450.75 251.07 826.31 656.31 547.51 420.17 871.38 206.86 86.37 746.66 1090.88 749.61 899.57 325.97 942.11 675.66 1005.50 459.23 752.51 362.54 902.77 833.63 607.00 711.10 481.21 652.48 245.47 581.13 319.60 757.28 650.03 410.01 738.47 890.23 949.02 392.84 957.73 958.32 555.03 569.94 906.61 451.02 420.62 612.10 812.06 512.47 477.62 651.92 337.34 900.74 400.25 218.93 847.05 459.24 89.17 657.81 685.08 207.69 669.04 1111.60 941.28 753.58 744.05 868.64 429.28 646.45 423.73 168.54 601.82 488.09 882.08 972.86 903.79 221.69 473.84 205.91 524.68
1186.33 324.88 983.91 286.68 946.22 751.47 442.00 593.67 174.30 555.86 648.27 1107.47 160.24 796.04 488.45 483.07 920.59 150.73 671.22 700.66 120.81 800.92 218.48 701.69 108.36 567.79 805.63 1064.26 466.01 379.81 716.79 731.48 760.84 903.22 181.82 412.90 957.14 264.61 744.47 354.69 383.46 416.03 205.98 571.56 754.90 376.21 815.70 402.22 494.56 509.71 714.28 784.33 329.04 774.29 749.10 480.77 261.07 563.64 691.48 661.71 534.77 831.72 573.75 806.12 501.04 808.71 374.10 446.76 378.79 418.50 358.29 478.45 768.18 235.08 539.22 597.88 916.08 405.50 473.25 934.29 815.24 907.73 1116.00 683.89 0.00 179.98 424.73 979.88 449.04 1069.93 703.37 972.61 516.47 521.87 755.50 864.98 382.24 679.17 608.96 1020.72 192.72 318.60 652.92 552.56 183.55 857.49 470.73 948.59 643.78 583.33 874.67 477.53 622.84 337.08 295.07 366.44 377.27 587.64 1058.54 667.55 41.13 716.26 633.22 430.60 882.29 569.19 354.36 1133.61 1014.04 409.54 223.01 873.48 683.97 719.55 812.85 639.30 219.85 451.98 745.82 242.69 646.55 935.89 634.92 555.04 595.18 751.15 300.92 494.92 582.07 546.75 497.02 1054.43 500.27 541.10 368.94 644.91 406.50 520.10 265.13 527.17 392.28 432.12 941.93 204.27 489.03 727.11 709.47 326.20 776.29 714.29 526.60 866.72 717.55 485.45 887.49 815.71 747.80 893.57 755.79 872.61 233.68 563.26 703.66 790.29 582.59 836.44 342.12 814.83 562.98 256.66 936.20 766.72 1121.80 727.99 255.67 599.72 222.92 888.31 469.60 694.76 720.44
1043.89 497.25 874.70 342.96 969.28 765.58 393.32 443.41 354.28 486.26 616.38 1012.75 332.61 646.75 629.67 335.43 936.59 222.21 690.49 693.73 166.27 664.13 144.02 549.25 228.90 434.81 701.72 987.91 334.94 559.79 814.77 732.07 819.37 790.08 227.28 232.92 921.12 443.94 779.36 249.31 292.43 341.66 309.93 670.18 645.69 267.00 675.60 418.08 446.18 331.40 601.19 803.60 467.30 771.68 609.44 486.66 436.68 629.31 587.57 509.27 420.71 707.27 619.21 702.21 350.83 819.15 221.66 513.36 215.76 598.48 530.66 475.33 658.97 125.87 577.20 445.44 931.94 500.44 320.81 859.31 827.80 801.68 973.56 714.44 179.98 0.00 361.87 964.01 393.26 964.55 582.65 903.83 494.28 385.08 603.06 880.35 526.45 573.64 654.42 933.34 249.00 485.92 714.51 570.57 299.66 873.13 594.94 900.21 491.34 553.60 811.54 493.39 478.58 481.82 457.26 186.46 385.18 573.51 979.34 680.57 221.11 581.90 650.22 385.21 773.08 570.40 534.34 1016.94 916.20 352.04 387.49 882.40 703.24 567.61 669.60 486.86 361.58 513.88 601.43 382.79 503.81 893.26 482.48 535.52 466.78 625.16 377.23 314.94 482.52 404.62 526.74 978.08 470.54 361.12 218.90 759.17 226.52 413.84 441.82 480.16 297.35 570.02 990.08 270.50 346.29 635.19 658.62 414.01 623.85 772.18 592.27 760.67 747.79 367.97 823.58 814.36 567.82 939.03 803.61 754.78 392.21 586.52 551.40 647.55 453.01 697.39 507.06 660.53 602.26 157.11 835.33 739.48 994.40 648.79 192.86 488.38 338.77 910.12 535.27 678.21 759.72
798.04 594.06 654.67 577.70 656.03 471.05 577.46 425.67 531.33 218.13 322.98 780.09 467.42 665.83 555.22 486.46 616.48 285.72 364.25 341.88 303.92 773.25 306.30 524.22 473.99 634.48 552.61 745.29 260.37 510.71 564.51 383.77 525.97 675.48 242.91 425.38 641.88 621.64 454.56 279.27 69.44 118.67 548.45 493.80 560.79 387.74 588.22 132.02 153.32 490.59 737.81 477.36 675.16 462.90 520.01 170.58 521.39 452.93 618.15 528.35 583.44 520.73 367.73 649.91 516.21 495.08 393.26 486.54 554.42 565.47 647.22 198.53 464.05 292.17 334.49 539.42 645.88 452.79 372.58 596.56 591.87 625.21 840.22 412.17 424.73 361.87 0.00 770.34 544.29 770.71 778.12 653.61 186.04 618.65 697.04 565.39 458.11 470.68 382.21 706.13 539.45 506.64 457.28 279.81 384.37 560.01 532.34 607.35 374.54 272.34 533.56 207.33 585.46 367.00 613.75 398.32 95.03 292.25 736.98 406.88 383.60 503.32 356.82 91.30 572.02 208.53 587.91 804.96 685.35 109.43 577.67 576.65 370.85 599.69 836.15 522.31 558.61 227.82 675.90 471.76 717.92 630.57 501.56 356.27 639.66 650.75 445.71 480.32 321.51 398.14 216.60 735.46 189.28 478.25 296.82 496.57 418.98 583.69 622.16 208.17 659.22 721.09 732.39 248.63 588.80 398.34 398.48 398.63 642.93 557.49 415.89 601.36 454.39 579.94 576.50 518.11 685.44 759.28 458.96 607.25 462.34 244.02 526.37 831.75 640.06 644.54 500.92 698.00 385.01 323.41 603.21 479.62 781.38 406.43 533.40 623.25 579.95 548.25 358.89 358.54 499.14
1143.17 903.37 965.80 1166.95 848.51 402.25 1221.10 1081.20 1032.57 846.08 447.36 1024.51 916.31 1208.04 628.81 1190.39 609.31 866.93 519.80 536.02 885.13 1479.41 919.72 1138.60 1088.24 1287.37 1202.95 1005.30 936.33 748.44 286.79 736.64 244.37 1151.97 824.12 1100.51 857.97 1116.89 390.85 922.91 775.60 762.31 1113.90 506.64 1121.58 1031.38 1182.38 656.62 734.77 1147.27 1427.78 452.77 1142.19 478.62 1129.22 625.79 853.85 496.97 1222.82 1172.93 1232.58 1041.06 472.45 1247.57 1164.61 540.02 1036.90 696.63 1179.77 583.85 938.79 768.88 918.17 955.78 522.30 1260.68 273.33 706.94 1016.22 928.01 188.34 1076.64 1101.70 571.61 979.88 964.01 770.34 0.00 1248.22 1091.07 1468.09 1078.76 663.59 1262.29 1324.39 660.56 789.14 1046.58 434.83 1018.06 1110.92 812.34 410.60 523.94 858.42 579.74 665.68 952.35 995.81 788.59 858.49 613.40 1229.10 767.13 1103.97 1102.08 718.33 750.52 1096.96 900.02 964.81 1105.23 464.62 769.58 875.87 587.19 851.62 1067.07 1007.30 736.41 1012.51 544.40 507.05 1206.62 1530.40 1178.84 1047.74 575.06 1319.54 816.79 1372.15 890.78 1158.09 480.62 1269.42 1163.15 805.21 1138.93 923.32 1049.34 596.58 1006.25 761.89 1133.96 940.46 358.67 1094.11 1247.31 1117.02 835.13 1261.36 1007.18 37.95 822.77 1263.93 918.43 865.52 730.18 1207.82 370.38 578.41 1117.65 331.42 1264.55 825.37 412.56 1319.64 112.37 593.01 1123.54 826.21 653.18 1136.45 1519.17 1325.64 1236.97 804.97 1226.83 488.14 957.51 874.08 654.71 1042.86 969.42 1155.77 1361.62 1039.47 541.08 545.80 437.18 330.68
1122.14 701.08 926.33 460.07 1061.59 940.96 140.67 393.16 569.47 618.87 863.16 1024.45 606.27 549.21 853.47 57.83 1010.10 500.10 871.23 866.97 533.47 449.68 390.80 490.93 340.68 209.75 606.95 1012.82 379.87 767.34 1042.34 795.98 1006.08 761.37 521.12 182.55 977.46 549.00 955.27 347.35 474.85 507.95 496.30 893.24 610.00 285.58 627.40 636.43 613.87 281.03 367.87 981.86 585.40 931.45 559.19 669.08 620.92 852.37 519.47 432.10 85.73 702.77 866.23 565.26 293.18 986.84 233.36 801.01 225.95 828.71 648.78 579.09 710.60 366.78 827.95 342.82 1132.34 759.75 332.51 857.72 1059.88 751.31 1064.94 914.62 449.04 393.26 544.29 1248.22 0.00 980.62 340.83 880.12 670.19 176.56 461.31 989.25 762.93 617.35 889.00 921.08 465.95 713.95 951.31 746.50 632.59 1010.38 839.54 912.63 489.29 659.02 863.71 705.36 321.51 696.89 551.43 226.07 563.70 688.28 966.47 658.40 490.17 531.53 859.21 544.98 829.42 752.82 766.48 1051.60 967.83 511.81 520.76 1042.17 875.70 491.40 453.23 426.06 537.62 732.23 424.57 587.98 302.06 943.07 405.31 840.48 240.90 541.67 674.87 257.29 524.29 388.98 686.51 1022.65 595.02 277.89 374.18 995.07 176.15 207.06 521.49 602.14 228.66 711.02 1212.50 485.18 144.54 597.41 677.22 691.90 546.68 1055.96 815.33 710.30 980.09 122.86 879.92 992.79 422.89 1185.92 976.28 704.41 578.56 729.57 488.78 445.80 220.00 660.99 684.00 555.14 851.71 335.54 885.14 876.73 1006.10 686.79 369.71 253.31 552.27 1049.04 758.33 848.66 1009.17
169.07 1273.51 125.27 1220.78 295.49 786.27 922.33 629.37 1183.21 556.03 865.48 71.38 1108.87 623.27 1177.60 922.79 555.54 941.54 660.00 659.62 997.48 909.43 887.68 545.26 1058.09 874.20 444.07 166.62 756.35 1199.26 935.53 467.48 934.51 364.02 972.27 807.49 279.68 1273.52 720.27 715.24 749.86 726.01 1145.46 1059.71 412.53 823.71 421.50 813.05 627.39 777.65 994.83 742.83 1311.75 716.96 463.34 798.41 1171.90 1014.44 558.22 617.18 996.69 332.55 891.11 541.37 759.22 656.71 815.25 1127.18 1029.46 1127.11 1283.03 604.37 320.70 853.80 884.62 762.30 927.46 1085.92 716.10 177.60 960.94 286.86 111.87 631.28 1069.93 964.55 770.71 1091.07 980.62 0.00 983.59 208.13 750.49 911.65 701.17 523.21 1146.66 489.23 861.43 118.72 1181.56 1200.42 1063.63 847.11 1034.88 553.07 1158.29 177.73 554.76 512.41 328.54 794.49 792.63 1091.93 1284.84 922.19 844.14 495.18 33.73 433.03 1030.41 503.47 831.64 679.41 290.08 725.32 1229.32 109.95 147.31 712.58 1134.50 551.49 647.25 566.19 972.33 651.63 1206.03 859.94 803.92 1091.40 901.88 242.03 630.88 923.42 870.74 578.38 987.34 723.33 507.01 677.72 683.48 176.45 595.47 769.51 746.69 958.64 811.75 893.46 1260.77 606.66 1131.47 1380.93 1093.10 929.05 918.33 445.68 412.51 1062.37 609.96 1050.23 993.29 301.68 914.28 934.73 265.70 735.78 720.09 1076.15 595.89 295.79 1083.65 645.38 547.41 967.93 927.78 487.11 1170.47 582.49 935.14 832.42 261.33 512.00 53.03 364.28 1153.41 974.46 1183.22 591.73 954.24 809.46 1068.56
1114.63 957.86 993.93 712.98 1128.00 1138.43 261.37 526.77 757.12 741.61 1071.94 1054.97 863.61 429.36 1072.29 315.51 1165.91 706.91 955.04 996.76 725.11 175.30 612.60 545.42 623.36 248.96 585.76 1069.69 562.46 1005.00 1260.56 900.22 1243.06 671.12 664.10 414.07 1036.80 819.76 1083.99 559.56 732.53 708.92 648.68 1107.00 649.69 451.09 621.13 884.50 803.98 342.64 40.31 1068.15 866.22 1050.20 630.89 900.71 880.56 1066.13 488.76 478.38 322.45 739.15 1090.69 533.25 306.62 1103.55 445.80 1013.40 366.89 1047.53 960.60 733.11 795.50 592.22 1041.71 302.48 1290.81 972.14 455.01 894.10 1299.39 696.73 1095.46 1053.61 703.37 582.65 778.12 1468.09 340.83 983.59 0.00 856.72 886.15 258.17 341.46 1074.47 1010.00 696.15 1091.24 956.02 704.14 961.02 1193.10 1004.18 821.06 1155.29 1069.68 946.93 585.84 735.18 927.22 917.80 257.88 934.55 804.81 466.56 818.53 790.95 949.86 742.01 704.55 628.11 1098.72 746.31 888.76 936.86 996.33 1074.69 969.91 751.32 765.52 1167.12 967.79 482.86 112.40 464.02 769.47 935.13 309.07 806.80 121.25 1008.94 484.77 1035.13 223.98 474.25 851.97 342.51 652.10 464.56 926.02 1067.70 754.93 353.47 569.43 1188.68 407.67 265.41 826.27 734.89 444.91 908.77 1449.48 707.32 239.65 690.38 812.85 898.71 452.26 1245.58 1029.09 737.74 1187.65 217.97 939.26 1130.70 303.04 1375.85 1095.84 739.35 816.22 872.88 547.57 138.26 176.14 607.53 931.07 440.64 1035.73 607.59 951.01 1038.93 1036.62 783.34 510.65 154.87 746.66 1163.24 972.09 1056.22 1193.19
339.17 1183.06 172.15 1121.90 405.61 776.65 795.67 502.15 1129.36 496.07 838.63 242.83 1042.69 434.11 1149.01 827.29 574.65 821.88 678.36 655.79 877.82 808.89 835.79 425.18 955.50 754.12 350.44 285.36 620.46 1164.32 957.94 455.17 935.11 243.94 846.96 697.57 326.56 1219.67 742.68 724.20 649.41 600.18 1096.33 1074.94 285.31 743.61 346.11 745.56 562.55 650.99 865.53 636.30 1243.84 716.21 336.12 723.33 1053.24 1034.80 448.89 497.10 903.06 219.09 864.26 427.66 651.62 662.55 710.98 1028.04 921.68 1140.82 1196.44 518.15 375.70 799.73 921.27 630.42 910.93 986.78 611.83 150.75 1001.01 159.99 308.14 633.16 972.61 903.83 653.61 1078.76 880.12 208.13 856.72 0.00 670.52 796.65 550.46 527.02 1111.72 330.19 834.58 102.19 1080.77 1138.40 1047.10 807.89 916.22 580.44 1125.45 161.59 441.30 413.27 301.69 710.58 660.75 1020.61 1182.43 835.99 735.49 497.09 174.40 307.88 931.48 376.25 804.79 562.31 263.23 712.08 1148.47 294.43 213.65 577.90 1080.65 615.29 665.61 434.31 852.45 512.18 1152.18 819.64 674.33 992.99 742.22 288.91 491.43 918.23 741.97 389.22 946.02 648.87 463.23 550.50 683.30 275.53 496.33 607.23 707.46 988.86 703.97 755.80 1206.92 445.44 1002.78 1304.73 1051.12 805.23 798.25 343.32 287.13 1006.46 433.89 1066.64 972.15 169.82 916.19 802.85 253.39 719.25 560.43 1056.30 623.06 175.71 1002.41 647.29 427.33 867.39 825.24 355.25 1117.26 452.90 954.58 788.64 288.50 495.47 249.30 341.45 1043.49 788.11 1129.37 618.02 990.89 797.15 1020.77
840.80 627.59 660.62 683.15 617.47 321.46 671.54 511.12 629.14 292.79 261.22 713.10 462.95 742.55 547.88 612.36 511.61 393.22 251.73 255.97 395.66 907.91 420.61 605.11 601.74 724.71 646.95 700.49 420.44 550.22 454.81 346.13 455.80 694.05 350.41 503.96 601.29 719.45 285.08 407.02 231.92 246.42 640.19 443.29 596.59 492.57 641.43 145.31 144.51 571.89 877.27 363.84 761.60 359.43 573.22 92.13 567.68 398.02 692.81 594.90 709.34 546.81 289.28 744.25 579.53 390.96 440.35 430.39 703.78 510.69 661.00 215.38 447.03 384.55 268.20 664.13 523.75 461.65 440.84 594.30 475.25 654.14 790.29 312.48 516.47 494.28 186.04 663.59 670.19 750.49 886.15 670.52 0.00 704.80 716.27 477.47 521.16 490.58 269.50 692.02 631.19 543.08 491.48 193.49 474.30 455.89 550.05 598.54 449.20 298.42 523.08 97.63 666.49 445.05 700.19 560.80 200.48 268.77 716.76 448.95 475.34 569.54 239.71 172.19 561.54 104.41 622.05 764.70 676.54 158.38 634.52 474.47 264.48 678.47 946.22 603.20 666.11 154.95 803.65 477.09 823.69 563.64 582.45 271.22 720.96 738.25 428.54 563.45 385.75 524.65 67.01 710.32 215.36 572.84 424.57 404.08 497.56 650.76 719.97 261.62 759.16 734.38 662.22 371.37 667.38 390.20 383.39 440.00 723.82 489.56 359.20 631.71 381.53 689.06 547.91 332.07 741.61 611.34 356.78 625.82 486.51 118.57 606.59 935.76 729.09 711.98 564.18 778.89 318.72 384.66 505.71 329.84 731.45 476.77 644.11 775.77 656.10 482.91 336.74 254.42 476.18
1011.79 828.46 862.35 556.16 986.31 987.87 79.87 375.91 690.55 497.56 895.72 949.24 663.82 394.26 908.02 153.92 990.97 544.04 880.82 878.36 551.35 279.05 431.10 377.07 459.09 49.73 485.27 961.51 377.36 840.73 1073.15 750.08 1072.31 641.53 563.40 215.01 923.78 724.25 984.27 339.38 549.21 499.98 604.50 978.49 522.20 269.59 521.34 695.13 645.84 190.57 217.86 978.06 761.96 919.72 471.39 699.85 739.33 937.62 371.12 299.55 151.95 642.87 897.00 485.76 210.34 1018.81 264.45 862.36 316.53 883.26 825.34 574.97 687.55 410.72 895.31 166.26 1124.37 821.10 321.62 762.52 1118.04 667.84 989.72 897.37 521.87 385.08 618.65 1262.29 176.56 911.65 258.17 796.65 704.80 0.00 314.50 942.39 845.73 508.05 921.48 812.51 584.36 792.90 1039.26 809.08 673.62 999.69 888.18 817.43 467.70 590.61 817.83 715.97 182.86 770.28 727.99 265.70 598.35 634.71 883.00 620.89 515.43 471.81 917.37 588.30 792.48 778.72 853.71 970.92 881.29 569.97 682.23 1010.88 868.07 362.37 316.43 327.80 649.92 770.86 279.76 642.53 144.65 888.77 326.34 853.63 101.64 413.54 670.47 212.03 501.24 313.70 744.67 965.73 581.75 202.61 370.83 1025.84 208.61 54.04 698.05 548.19 317.85 864.59 1278.73 535.47 38.79 559.90 677.34 735.84 417.16 1074.47 900.58 626.83 1012.55 53.70 826.24 1010.08 276.08 1275.15 939.75 620.94 651.95 760.56 377.08 337.55 126.64 528.44 766.80 413.68 864.62 441.96 854.73 872.09 932.55 629.09 460.29 103.30 670.68 1013.10 843.58 881.12 1022.08
827.48 1011.09 695.00 837.82 867.84 978.90 354.48 316.10 881.56 519.91 946.02 732.87 902.72 139.47 1068.69 444.19 925.24 708.07 872.43 830.71 727.42 338.30 552.28 203.96 713.35 292.59 295.55 793.26 457.82 1001.40 1153.71 713.44 1124.20 391.74 731.13 376.50 755.45 929.63 975.88 495.39 681.07 631.84 773.12 1078.76 314.00 433.62 279.67 824.64 668.19 292.58 343.52 948.84 990.66 945.14 302.05 797.90 901.93 1055.25 194.70 246.20 457.17 460.06 995.05 213.57 326.73 938.13 381.40 1012.59 589.60 1043.93 1011.50 597.32 570.94 574.75 984.47 157.62 1188.78 981.77 403.86 615.01 1169.72 488.26 807.08 808.63 755.50 603.06 697.04 1324.39 461.31 701.17 341.46 550.46 716.27 314.50 0.00 890.49 983.14 384.69 959.65 647.13 834.05 957.42 1154.32 907.13 851.67 919.13 1073.60 667.55 363.50 596.09 692.60 813.90 187.59 930.95 929.25 505.22 754.36 657.06 667.44 485.12 729.63 300.84 955.98 636.88 659.88 801.07 1014.38 784.47 728.30 621.65 889.96 944.11 859.68 178.06 337.03 216.33 893.91 860.01 133.48 803.20 220.21 717.80 235.29 975.73 240.68 161.24 867.69 309.50 477.32 320.05 783.28 798.38 597.42 333.17 494.10 1083.14 379.72 276.38 950.71 565.60 555.47 1033.21 1330.62 731.48 343.93 424.13 570.06 899.87 116.57 1205.83 973.81 454.35 1076.03 338.45 679.10 1024.66 38.42 1267.87 897.80 448.46 812.62 782.91 206.11 333.11 352.20 317.64 927.47 134.28 1034.99 605.99 712.62 789.49 748.24 486.26 722.42 328.64 871.10 900.56 988.40 951.08 1151.63
608.34 1033.22 397.94 1025.99 275.53 415.30 930.96 685.96 1039.28 483.12 463.53 487.63 940.42 779.17 879.96 931.42 94.30 725.97 280.02 287.68 744.17 1132.59 785.26 686.53 946.52 892.66 631.96 399.37 644.49 926.75 564.47 297.11 537.62 602.95 683.16 816.12 243.53 1082.05 349.21 751.80 607.31 591.20 988.70 746.05 605.66 781.66 647.44 546.90 488.57 786.28 1097.03 284.70 1150.20 322.96 635.07 517.63 964.48 702.74 746.11 709.21 1022.45 472.79 529.20 729.26 767.85 214.06 791.00 828.34 1038.09 817.97 1086.28 452.43 348.72 754.48 610.62 864.71 423.93 795.26 705.96 376.27 569.99 569.84 547.64 226.93 864.98 880.35 565.39 660.56 989.25 523.21 1074.47 527.02 477.47 942.39 890.49 0.00 917.56 576.21 489.92 449.05 979.70 941.03 711.90 581.77 840.12 80.82 849.85 404.11 639.53 429.79 234.51 515.61 909.78 826.45 1137.19 885.26 631.05 345.97 512.61 461.05 823.85 615.73 469.73 495.14 272.97 423.42 1023.64 539.23 425.48 528.31 1013.48 160.54 292.77 724.27 1140.78 703.17 998.86 552.90 925.23 882.92 1036.44 281.18 682.42 568.94 934.41 766.27 778.86 731.96 535.03 711.51 417.33 409.20 430.61 778.14 761.04 605.32 820.38 922.81 1109.56 436.46 1063.26 1135.97 659.31 726.38 977.65 522.04 440.24 781.38 802.07 670.36 684.02 528.83 533.13 969.42 311.45 318.21 881.08 611.95 137.76 534.72 875.17 410.79 684.38 1124.86 962.14 668.66 959.01 828.76 612.62 730.00 262.74 147.63 505.98 446.10 1014.81 1008.82 1021.67 119.48 679.75 401.70 648.20
1253.56 179.43 1068.89 484.26 1003.08 628.75 768.41 763.74 361.40 676.24 487.56 1183.45 250.03 991.82 164.75 724.90 912.56 304.24 652.68 668.90 360.18 1104.83 469.20 875.88 422.25 878.92 1010.72 1150.19 657.05 52.60 551.97 837.76 588.85 1114.97 347.05 665.35 1011.25 388.51 677.23 546.32 527.55 576.78 429.53 297.17 957.38 578.69 997.98 476.21 611.43 735.58 1018.45 730.56 355.24 700.62 929.77 429.03 143.78 324.68 967.65 886.77 803.45 959.34 446.79 1032.82 717.15 748.76 601.74 104.97 678.77 205.29 202.81 649.71 902.66 437.56 357.04 825.52 750.42 137.44 676.71 969.06 650.42 1083.32 1220.84 706.38 382.24 526.45 458.11 789.14 762.93 1146.66 1010.00 1111.72 521.16 845.73 983.14 917.56 0.00 912.75 489.43 1090.96 451.18 63.64 452.22 384.26 258.11 870.79 127.88 1023.97 809.69 710.95 922.24 466.74 879.18 91.11 367.99 644.98 467.37 691.61 1149.31 856.12 341.11 936.04 478.12 549.41 960.70 542.64 129.80 1177.46 1087.83 567.54 312.69 855.93 639.93 941.95 1102.49 866.94 384.22 380.41 981.51 203.20 963.42 1013.34 859.98 363.76 860.69 1005.24 195.70 681.26 735.18 738.38 543.96 1152.76 627.89 727.44 571.42 480.09 658.95 812.15 397.93 666.28 706.17 321.10 751.19 349.70 813.71 854.73 837.09 170.23 1001.35 528.27 270.40 1053.22 531.04 792.03 1011.20 699.31 952.34 764.62 779.80 1047.33 193.78 610.20 873.73 1097.15 870.27 1038.92 78.93 1041.41 365.11 468.80 985.68 810.07 1167.20 864.54 569.56 908.93 361.41 879.40 287.42 542.82 473.13
604.86 976.09 406.72 882.95 562.54 753.53 515.97 248.67 853.47 308.36 661.25 534.75 811.45 284.17 997.05 562.74 572.33 608.51 583.99 598.84 626.71 664.51 569.05 182.70 752.15 504.30 156.37 488.72 290.27 963.21 861.56 419.89 839.82 224.05 565.70 434.80 456.24 943.78 687.44 401.59 460.59 445.68 843.05 905.54 123.74 442.74 150.85 571.37 373.84 371.29 659.64 656.24 998.10 678.26 82.64 555.44 857.91 839.35 270.52 258.08 637.72 165.41 668.64 253.67 389.53 638.94 390.52 872.50 653.95 957.41 998.19 376.81 238.68 532.99 758.78 418.65 919.76 840.03 348.54 320.36 905.72 228.56 572.14 543.94 679.17 573.64 470.68 1046.58 617.35 489.23 696.15 330.19 490.58 508.05 384.69 576.21 912.75 0.00 689.47 410.11 788.99 927.24 893.18 664.67 722.66 568.26 972.14 344.64 241.80 300.41 341.70 588.21 463.72 837.68 971.19 549.79 534.75 384.23 455.50 188.47 706.39 85.82 695.09 394.42 323.30 580.56 924.12 528.76 417.97 361.25 820.85 605.93 571.24 254.99 666.18 257.11 881.40 645.53 479.17 803.28 592.28 418.59 236.36 717.80 520.36 290.68 754.43 383.03 249.26 313.60 535.95 498.55 354.99 342.68 426.67 789.68 441.20 454.01 944.30 319.03 672.59 1057.11 1010.48 608.92 521.56 128.15 243.49 800.31 268.12 930.64 832.88 187.55 717.01 538.21 373.80 745.97 410.49 998.89 569.68 193.44 796.57 515.44 180.55 678.80 552.87 239.13 911.42 324.70 784.54 530.01 385.55 434.61 518.50 130.11 766.50 599.55 869.57 604.58 827.32 688.45 934.57
899.67 633.65 746.48 769.97 711.38 144.92 859.16 692.28 753.52 478.57 59.23 848.58 589.77 914.74 419.23 831.17 473.87 469.95 213.99 253.47 488.15 1119.67 531.59 755.69 692.13 928.87 813.64 742.83 585.25 436.83 228.86 430.20 246.46 847.63 427.14 743.39 673.66 781.32 211.01 625.69 415.86 465.09 732.68 321.41 813.21 669.44 829.27 273.75 346.64 815.47 1114.24 285.27 838.00 246.02 772.11 221.63 555.05 270.56 839.76 787.08 903.97 719.23 60.51 910.94 821.89 362.50 682.71 411.73 832.63 349.28 661.49 401.16 620.73 567.65 175.09 906.49 395.06 370.47 708.78 683.83 246.49 794.09 918.76 294.13 608.96 654.42 382.21 434.83 889.00 861.43 1091.24 834.58 269.50 921.48 959.65 489.92 489.43 689.47 0.00 787.92 723.68 531.19 221.98 170.54 471.10 457.35 425.21 738.74 596.15 464.17 636.18 258.48 931.88 429.69 792.85 744.74 370.53 380.35 852.24 594.34 567.83 752.13 29.79 382.65 662.95 197.41 575.81 890.49 765.78 377.19 704.81 472.64 224.50 831.16 1173.03 790.71 737.14 203.04 1012.77 509.09 1023.19 636.01 769.96 154.38 920.46 885.20 425.60 786.45 581.95 712.22 202.49 733.00 417.49 812.41 643.24 156.98 736.99 893.12 805.41 447.22 888.66 765.49 417.12 450.75 882.69 592.33 590.31 350.57 891.84 297.94 269.46 776.21 123.65 902.61 631.98 269.07 960.42 422.19 357.80 779.40 499.67 268.73 753.54 1178.12 968.52 905.57 523.97 938.02 187.98 574.64 655.87 394.64 859.92 661.23 758.79 999.68 733.80 455.38 244.71 88.22 245.10
263.15 1235.80 109.68 1183.97 313.95 722.63 852.49 549.97 1188.75 500.33 788.71 165.46 1109.72 536.30 1125.61 896.15 472.46 888.91 576.17 558.79 944.85 907.59 841.35 466.14 1011.76 795.08 403.18 190.62 690.38 1143.56 871.05 384.90 900.83 284.90 916.57 738.53 264.09 1270.21 679.62 775.95 694.16 667.21 1099.13 1039.76 333.13 791.43 393.93 750.34 552.81 707.81 915.71 667.81 1309.85 641.94 383.94 717.97 1143.18 996.45 515.14 538.06 955.80 276.85 815.82 468.62 709.25 597.61 755.95 1067.02 962.64 1104.59 1227.33 542.27 274.37 807.47 881.27 683.18 808.74 1039.59 660.40 121.90 902.90 262.18 205.95 530.97 1020.72 933.34 706.13 1018.06 921.08 118.72 956.02 102.19 692.02 812.51 647.13 449.05 1090.96 410.11 787.92 0.00 1137.03 1154.60 944.91 798.39 1006.16 503.51 1143.56 98.78 499.06 466.08 224.76 755.68 713.51 1073.13 1248.44 808.38 788.23 515.28 145.28 386.70 998.51 424.07 758.13 621.70 200.74 650.30 1182.99 204.03 112.48 644.93 1140.04 543.28 563.42 487.07 954.64 572.51 1206.02 804.24 776.52 1060.02 844.41 226.44 551.76 839.59 794.73 491.41 981.77 696.69 460.68 598.32 639.69 180.96 549.14 709.41 744.50 917.80 744.93 814.06 1266.31 512.47 1070.83 1334.60 1044.12 873.35 839.21 442.37 366.18 1025.63 530.56 1003.83 954.67 222.56 848.56 855.61 192.69 617.06 662.62 990.21 520.87 216.67 1069.44 573.45 468.29 950.95 876.75 407.99 1164.90 555.09 906.33 786.09 186.31 393.28 147.11 366.65 1079.03 890.30 1188.76 540.69 950.89 726.88 954.82
1292.89 349.53 1071.27 93.96 1102.45 855.31 574.11 669.23 125.99 685.96 695.16 1206.53 233.88 895.75 511.69 496.20 1035.67 265.45 785.94 827.66 235.53 812.95 308.37 775.03 125.27 598.77 910.01 1163.32 582.34 400.97 894.59 869.89 872.55 1010.83 296.54 481.92 1071.86 194.94 859.19 471.02 518.95 480.59 60.93 651.92 853.24 469.88 897.87 516.94 609.28 580.40 744.45 899.05 218.30 889.01 829.66 595.49 339.93 653.74 806.20 758.27 505.95 952.82 688.47 920.84 599.83 923.43 470.66 481.68 337.25 527.07 293.61 652.55 862.66 344.43 640.74 694.44 1030.80 496.51 569.81 1059.07 938.45 1017.55 1222.56 825.50 192.72 249.00 539.45 1110.92 465.95 1181.56 704.14 1080.77 631.19 584.36 834.05 979.70 451.18 788.99 723.68 1137.03 0.00 387.54 767.64 667.28 327.86 972.21 546.18 1063.31 740.34 726.36 989.52 592.25 646.46 410.72 208.26 435.46 491.99 686.70 1173.26 782.27 155.85 830.90 729.00 545.32 991.64 698.68 365.20 1229.53 1112.77 570.60 138.49 988.20 798.69 810.01 791.09 735.86 112.58 587.47 827.43 331.52 703.51 1040.64 731.48 665.03 608.93 865.87 399.65 563.94 676.35 588.05 626.51 1153.49 643.30 610.12 467.90 822.71 475.52 613.54 192.82 635.33 312.71 321.02 1072.97 339.76 545.99 780.36 852.45 415.47 872.85 857.33 628.12 976.54 797.82 530.66 1030.52 930.43 795.63 1008.29 870.51 982.43 323.98 692.75 772.88 754.45 605.34 945.79 417.49 895.91 664.50 363.63 1053.89 896.21 1224.88 842.71 193.49 648.68 89.77 1003.03 571.12 756.99 820.03
1304.68 146.44 1084.37 432.15 1066.72 673.37 760.60 790.44 297.76 694.52 520.80 1220.70 186.39 1018.88 183.53 675.92 935.84 318.73 675.96 692.18 357.15 1069.87 454.82 902.58 373.27 829.94 1037.28 1173.43 671.54 107.11 615.61 855.38 610.64 1109.26 361.54 674.47 1018.97 359.96 700.51 560.81 512.36 561.59 365.89 336.98 951.67 572.98 1010.43 483.93 659.96 746.05 981.11 765.89 329.85 738.98 945.87 492.67 111.00 375.12 927.82 881.40 739.81 982.62 473.67 1042.46 737.38 812.40 625.20 168.61 615.13 253.48 153.12 672.99 925.94 431.85 378.83 848.98 800.86 160.72 691.20 1032.70 676.54 1111.88 1282.22 714.10 318.60 485.92 506.64 812.34 713.95 1200.42 961.02 1138.40 543.08 792.90 957.42 941.03 63.64 927.24 531.19 1154.60 387.54 0.00 437.72 428.88 244.15 896.06 158.64 1087.61 812.58 734.23 970.15 497.19 899.41 139.64 318.30 639.27 519.40 740.14 1166.69 873.50 277.47 937.50 501.40 597.94 996.59 606.28 112.21 1241.10 1125.87 603.30 249.05 917.02 663.21 955.89 1068.97 875.36 320.58 388.13 1004.97 154.22 911.63 1036.62 854.61 387.04 875.18 987.49 213.08 738.25 783.71 752.87 574.61 1174.38 651.17 784.23 565.71 543.73 668.07 821.66 348.24 695.17 657.19 257.46 799.38 333.17 754.11 874.73 860.37 218.76 995.98 510.11 293.68 1070.87 563.74 743.05 993.50 762.95 995.84 768.12 803.27 1070.61 144.80 640.85 900.43 1055.37 832.93 1033.21 29.95 1016.88 395.87 463.09 1027.99 833.35 1223.38 895.99 520.58 879.61 297.77 919.12 309.21 581.18 512.94
1102.94 492.77 967.65 815.37 933.36 366.90 986.93 882.95 680.98 675.41 262.50 1070.56 572.97 1123.11 327.70 921.51 692.31 571.81 435.97 474.64 590.01 1230.53 723.91 975.43 735.56 1029.95 1009.89 964.81 717.65 447.33 290.31 652.18 272.67 1053.60 529.00 882.66 894.83 706.29 432.99 731.79 526.72 575.95 776.64 155.05 1016.92 797.21 1044.03 444.32 549.91 939.77 1195.09 507.25 751.29 448.97 975.82 421.69 455.32 153.11 1061.74 985.63 1018.49 937.90 224.54 1107.19 903.75 584.48 845.78 347.25 930.27 326.51 548.69 620.78 842.71 705.13 225.16 996.70 483.56 329.45 829.86 905.81 312.35 1015.26 1140.74 516.11 652.92 714.51 457.28 410.60 951.31 1063.63 1193.10 1047.10 491.48 1039.26 1154.32 711.90 452.22 893.18 221.98 944.91 767.64 437.72 0.00 351.72 530.38 678.52 333.39 960.72 818.13 686.15 858.16 457.58 1042.74 415.24 713.87 855.60 494.84 602.33 1074.22 816.32 611.79 960.60 251.77 548.58 884.93 419.39 531.52 1112.47 986.95 566.71 686.77 659.09 445.67 1050.90 1293.43 979.59 726.53 348.52 1088.42 508.02 1175.20 857.18 958.84 241.38 1081.86 1107.18 413.01 921.33 778.51 855.42 424.47 954.98 620.76 935.53 748.39 243.31 876.26 1040.97 733.80 665.45 1004.53 674.89 398.53 572.22 1025.80 795.60 812.29 437.39 1100.21 168.52 196.49 979.48 263.03 1030.38 853.96 465.10 1131.88 380.13 579.78 985.37 509.32 490.71 973.28 1288.05 1097.34 1101.82 467.67 1141.29 174.64 698.93 877.85 615.81 1081.90 863.71 860.65 1080.53 729.60 677.36 221.01 310.20 127.34
910.54 535.47 761.69 713.57 801.47 244.49 796.14 611.95 615.05 413.08 170.40 812.85 448.86 837.57 428.59 688.67 561.63 413.55 301.75 317.97 431.75 1007.27 495.77 703.17 635.73 843.66 810.68 778.33 472.85 436.86 301.92 461.53 279.57 809.85 370.74 659.40 737.93 692.63 310.58 513.29 303.46 352.69 675.66 267.05 749.77 618.35 767.17 162.62 338.00 703.07 1003.34 369.29 716.09 355.28 698.96 109.23 444.98 243.18 783.29 674.68 785.65 699.31 127.77 864.41 709.94 428.86 608.94 309.42 786.33 394.51 559.18 377.48 623.89 494.75 152.02 819.23 494.63 268.16 596.38 753.38 345.47 782.60 853.34 375.37 552.56 570.57 279.81 523.94 746.50 847.11 1004.18 807.89 193.49 809.08 907.13 581.77 384.26 664.67 170.54 798.39 667.28 428.88 351.72 0.00 400.46 521.85 406.83 699.61 569.49 444.25 602.44 146.94 819.48 353.95 717.11 632.34 259.40 405.41 838.72 562.86 511.43 661.08 140.75 270.25 640.90 200.57 510.18 851.42 777.61 303.42 582.87 559.14 289.00 758.25 1070.17 701.26 616.87 111.30 909.92 387.15 927.81 700.28 680.51 110.34 852.14 839.56 283.09 674.05 508.06 610.62 188.97 768.50 368.23 700.01 513.68 302.30 653.00 796.17 705.88 362.45 776.26 686.34 485.99 359.01 770.29 583.69 570.39 358.12 821.88 347.00 225.42 780.31 257.90 791.97 663.31 368.64 879.17 512.88 445.56 778.78 379.40 255.21 705.32 1065.77 856.47 859.61 441.97 876.95 177.08 463.51 642.35 458.67 794.50 585.38 702.39 903.06 604.66 544.91 221.64 220.53 334.54
1165.84 268.77 963.47 323.08 1000.31 616.02 593.75 635.51 299.73 508.76 525.97 1094.95 146.75 777.06 346.20 600.24 831.95 143.60 572.07 613.79 133.39 921.04 308.56 733.39 291.91 723.35 809.79 1002.97 496.41 288.13 636.09 621.26 614.05 916.79 156.96 484.31 907.44 367.87 682.11 385.68 314.93 364.16 309.84 434.34 796.74 418.05 766.28 328.99 487.43 582.79 857.81 685.18 391.23 691.84 790.94 407.54 137.02 406.66 804.35 709.68 667.39 796.06 486.33 879.64 575.54 720.58 470.27 276.05 493.58 349.50 280.22 497.83 761.84 276.92 382.24 694.05 809.90 250.59 511.04 887.19 679.95 927.77 1133.12 671.19 183.55 299.66 384.37 858.42 632.59 1034.88 821.06 916.22 474.30 673.62 851.67 840.12 258.11 722.66 471.10 1006.16 327.86 244.15 530.38 400.46 0.00 817.58 335.08 941.46 573.85 570.13 828.45 404.30 737.57 217.68 365.25 484.34 378.52 596.01 1001.15 716.61 172.01 729.83 500.89 423.47 854.01 527.64 282.58 1089.74 1004.97 414.27 304.49 833.57 584.82 792.61 933.46 703.64 285.51 361.99 850.04 108.77 798.30 880.93 682.89 392.21 700.05 821.95 117.37 568.47 610.39 577.74 455.47 1003.92 493.04 614.65 393.99 564.21 490.71 671.85 390.56 518.90 474.15 393.46 820.47 160.40 640.78 688.97 691.50 142.65 799.96 530.74 369.62 889.94 586.48 637.06 823.04 721.79 832.01 781.56 715.88 884.05 99.35 521.71 731.24 862.54 709.63 875.10 214.20 826.65 406.00 308.16 860.19 725.17 1085.33 720.86 401.59 748.29 262.70 839.73 312.62 559.32 563.46
627.13 993.17 427.80 1028.14 316.47 349.12 963.97 711.32 1031.79 502.13 458.61 529.44 918.77 822.62 827.27 969.65 63.46 752.53 245.51 235.08 802.45 1167.85 771.28 722.25 953.94 973.48 703.73 447.89 630.51 894.18 498.29 272.10 525.80 658.23 741.44 836.01 324.35 1122.10 283.03 741.83 602.10 638.62 981.21 691.74 605.13 778.95 665.93 521.04 482.36 860.73 1142.79 248.64 1142.20 276.60 621.09 481.57 927.00 625.55 817.88 790.03 1057.50 517.03 485.25 801.03 848.67 154.81 777.02 770.45 1040.45 774.02 1017.39 439.47 415.75 747.26 550.70 933.55 440.02 735.34 746.76 429.69 489.17 618.79 569.93 190.87 857.49 873.13 560.01 579.74 1010.38 553.07 1155.29 580.44 455.89 999.69 919.13 80.82 870.79 568.26 457.35 503.51 972.21 896.06 678.52 521.85 817.58 0.00 812.99 443.45 648.41 438.01 278.75 483.34 985.67 779.68 1111.33 911.89 589.99 386.77 568.92 441.09 816.36 646.30 427.56 521.97 317.21 351.48 977.36 564.65 455.34 555.14 1023.99 79.72 232.85 797.72 1192.86 772.01 1057.14 516.84 994.07 828.27 1068.62 311.04 763.24 509.02 965.89 838.04 753.00 812.78 543.79 731.33 391.47 457.72 423.99 842.42 754.42 524.50 834.23 953.83 1122.62 493.26 1083.89 1110.11 617.69 747.26 1004.05 502.08 448.50 700.56 802.56 589.54 624.10 609.65 500.21 1007.42 367.71 282.15 948.94 621.94 101.70 605.02 837.69 340.76 720.10 1191.13 1042.96 720.52 899.58 863.15 575.76 716.02 327.07 133.65 511.09 490.34 1018.17 1073.28 1050.18 38.66 620.32 396.78 567.38
1278.17 305.08 1102.12 550.18 1017.77 536.53 808.31 867.19 456.40 696.82 437.73 1202.42 342.18 1070.20 36.87 834.56 852.77 399.92 592.89 609.11 428.67 1167.23 533.12 979.33 527.40 937.91 1063.91 1119.63 701.89 156.50 488.38 807.00 531.34 1116.79 442.73 767.92 1025.94 508.45 602.62 642.00 593.98 632.66 517.23 178.34 1053.06 652.09 1047.52 447.91 645.44 852.94 1080.59 637.46 483.12 622.82 1022.31 508.64 269.64 244.53 1027.39 932.72 898.45 960.57 364.70 1135.96 843.49 741.40 704.31 119.66 760.89 96.28 311.76 619.41 903.89 533.24 287.75 928.09 670.27 138.67 772.39 1072.66 539.31 1092.28 1260.17 666.51 470.73 594.94 532.34 665.68 839.54 1158.29 1069.68 1125.45 550.05 888.18 1073.60 849.85 127.88 972.14 425.21 1143.56 546.18 158.64 333.39 406.83 335.08 812.99 0.00 1099.47 824.38 712.18 985.67 504.16 987.99 165.34 476.94 740.66 497.35 719.29 1124.56 862.71 436.11 967.96 418.62 623.64 1024.13 514.30 249.19 1219.49 1121.42 610.89 407.69 850.28 580.14 1016.29 1174.56 926.68 479.22 395.10 1084.08 270.40 1012.86 991.65 905.93 303.97 956.37 1054.18 217.71 809.14 800.20 834.06 556.33 1109.80 629.12 855.32 617.03 469.72 761.52 886.41 480.94 702.36 809.23 341.50 642.18 414.79 855.34 855.96 838.32 244.46 1047.30 412.65 247.88 1054.45 480.42 851.76 1008.78 660.68 1080.22 670.66 736.70 1048.56 260.98 622.57 977.18 1156.60 948.90 1134.60 188.59 1102.37 237.23 564.48 978.29 750.28 1201.33 932.11 662.81 966.03 456.41 836.05 270.27 465.02 354.30
290.07 1174.41 62.08 1097.88 244.02 623.85 811.25 528.20 1089.97 433.34 732.57 192.38 1030.19 551.20 1098.92 877.74 470.11 797.86 556.67 529.38 853.80 898.97 818.32 477.98 994.03 767.70 432.07 144.08 634.91 1076.57 808.98 328.76 802.05 275.81 824.04 730.08 170.06 1180.28 657.08 723.80 627.17 638.71 1072.31 966.66 355.92 734.94 416.72 651.56 454.03 666.57 906.62 614.69 1218.51 620.37 398.91 662.81 1073.93 942.79 502.01 553.36 896.99 209.86 768.42 517.67 642.39 563.51 692.56 1009.03 954.19 1057.19 1160.34 510.75 277.81 782.26 827.10 706.87 768.40 967.77 593.41 54.91 867.95 307.57 232.87 527.23 948.59 900.21 607.35 952.35 912.63 177.73 946.93 161.59 598.54 817.43 667.55 404.11 1023.97 344.64 738.74 98.78 1063.31 1087.61 960.72 699.61 941.46 443.45 1099.47 0.00 432.07 431.14 169.60 685.23 756.52 974.35 1196.48 832.40 689.45 416.50 144.61 390.14 907.46 381.10 708.95 522.92 164.19 630.69 1128.30 220.34 78.00 556.09 1041.26 483.63 543.92 530.08 960.28 551.20 1107.24 737.25 764.41 995.34 859.31 132.41 530.45 809.95 814.53 506.31 914.78 678.28 464.12 589.65 558.52 153.91 514.20 687.32 698.23 849.89 736.48 798.65 1167.53 483.97 1017.23 1240.63 990.30 806.36 854.51 382.32 356.00 989.66 550.98 905.05 925.03 289.11 802.17 846.01 126.98 596.48 677.52 913.73 510.25 283.22 985.92 556.32 475.83 883.96 848.15 471.31 1097.91 542.98 876.69 782.37 175.69 445.13 174.03 335.53 1057.49 894.83 1089.98 482.11 896.72 670.74 934.24
661.66 746.28 475.75 751.55 616.78 682.47 444.66 96.13 696.60 156.41 592.10 591.55 720.60 333.94 829.27 455.13 639.72 537.25 539.00 537.21 583.64 640.57 447.98 159.54 631.08 469.21 289.92 576.15 261.43 854.82 791.52 386.48 788.96 342.94 522.63 319.54 523.63 786.91 642.45 295.17 350.24 356.86 753.24 759.81 244.33 321.90 269.76 461.14 304.69 299.98 587.90 636.34 851.34 633.27 223.87 470.13 710.87 718.94 243.61 234.92 538.89 222.21 656.66 316.48 284.29 677.66 269.68 704.72 530.85 817.50 802.20 233.82 301.10 411.92 673.49 374.59 874.77 724.37 170.53 377.16 807.47 353.92 628.94 553.52 643.78 491.34 374.54 995.81 489.29 554.76 585.84 441.30 449.20 467.70 363.50 639.53 809.69 241.80 596.15 499.06 740.34 812.58 818.13 569.49 573.85 648.41 824.38 432.07 0.00 249.46 409.09 470.68 412.63 738.00 817.37 409.52 469.57 293.56 528.05 207.32 610.34 155.98 615.15 321.74 390.69 437.57 816.66 585.56 485.36 339.50 714.43 660.40 526.25 235.01 577.67 213.05 742.15 556.94 435.11 682.62 464.59 485.98 219.38 660.06 420.89 289.05 637.85 255.67 114.79 157.58 442.45 579.13 233.92 268.67 326.62 719.64 313.14 417.24 787.43 207.04 606.58 884.46 995.38 479.41 436.33 166.56 227.01 677.53 324.02 860.60 681.90 316.09 712.53 458.01 441.19 698.82 390.96 930.76 586.02 310.20 673.20 419.41 157.39 634.74 485.85 336.40 788.05 352.73 692.17 440.20 452.94 524.26 575.30 197.50 642.92 532.53 745.22 642.99 624.90 587.58 816.61
641.80 833.56 407.44 760.93 492.90 516.65 604.96 322.04 748.09 93.05 441.32 570.04 692.75 517.37 739.32 648.83 430.73 460.91 333.26 369.68 516.85 816.24 464.04 392.43 647.14 613.48 456.78 484.09 357.53 763.55 615.39 254.46 600.23 411.28 483.58 476.47 395.88 838.40 462.21 364.12 261.17 298.42 733.78 663.83 382.20 426.34 414.60 332.29 153.91 464.58 715.50 446.37 876.63 453.03 383.05 335.02 707.15 621.53 446.10 418.67 683.16 255.06 502.20 549.37 428.56 451.03 458.04 614.77 671.68 727.55 816.31 104.88 191.71 440.38 508.00 546.50 669.03 573.51 358.89 406.80 647.69 386.77 596.28 346.48 583.33 553.60 272.34 788.59 659.02 512.41 735.18 413.27 298.42 590.61 596.09 429.79 710.95 300.41 464.17 466.08 726.36 734.23 686.15 444.25 570.13 438.01 712.18 431.14 249.46 0.00 321.90 297.31 577.32 637.34 845.47 515.58 348.31 83.82 517.67 226.69 570.51 357.01 442.73 181.04 348.58 308.63 809.03 565.70 448.94 214.21 699.38 459.99 346.01 418.03 803.58 450.70 770.91 406.37 650.53 636.81 688.31 358.23 445.46 534.82 585.58 505.77 532.75 464.45 134.73 322.27 270.03 485.04 83.06 433.36 395.57 575.59 482.87 581.93 825.65 143.68 770.48 921.36 796.39 440.36 629.40 172.26 126.14 593.19 540.27 711.81 558.88 348.94 502.92 632.18 304.16 508.92 609.57 698.48 428.78 343.05 629.06 234.02 390.28 804.48 663.41 497.59 715.88 566.96 541.31 431.47 352.87 304.36 551.82 254.46 683.58 693.91 748.10 476.67 577.62 398.85 687.38
435.44 1071.96 205.95 1024.09 253.06 570.63 797.00 505.22 1016.18 363.78 609.79 340.73 925.84 604.67 994.57 835.28 328.81 724.07 449.53 407.81 780.01 926.59 720.09 504.11 890.50 805.52 456.44 252.88 588.76 957.62 723.46 207.19 748.83 379.48 750.25 681.16 153.68 1106.49 534.10 671.98 552.51 558.42 977.87 869.49 384.34 672.48 412.93 571.76 380.24 656.62 908.30 519.21 1144.72 459.84 424.34 493.21 965.47 845.62 547.86 541.13 875.20 238.28 687.21 553.74 620.60 433.56 678.77 882.19 899.15 967.14 1086.47 396.22 153.11 685.67 724.65 670.72 658.44 864.85 579.62 150.94 765.81 340.04 381.22 451.41 874.67 811.54 533.56 858.49 863.71 328.54 927.22 301.69 523.08 817.83 692.60 234.51 922.24 341.70 636.18 224.76 989.52 970.15 858.16 602.44 828.45 278.75 985.67 169.60 409.09 321.90 0.00 530.92 722.84 900.56 1122.69 757.20 615.66 312.15 313.83 265.44 833.67 409.52 627.74 449.13 38.46 528.24 1048.50 359.34 228.86 482.30 967.47 358.47 436.78 519.79 972.70 509.18 1039.00 606.75 731.24 878.17 851.95 116.03 529.93 712.78 786.24 590.75 817.60 656.49 339.42 526.96 456.07 262.71 374.40 615.22 640.53 752.06 687.56 763.79 1093.74 414.41 1014.29 1160.83 893.82 731.70 821.89 315.26 205.73 841.08 581.77 858.42 792.49 332.16 679.39 800.21 88.96 550.20 687.09 846.46 372.27 326.27 887.59 434.75 501.96 912.38 847.95 485.82 982.07 653.97 775.17 664.83 69.65 317.28 322.38 211.59 974.92 870.29 1016.19 317.41 794.27 547.96 846.13
905.64 610.55 698.56 626.09 715.10 286.46 698.91 556.08 641.73 320.95 199.25 777.94 515.81 766.05 509.05 648.96 501.24 338.52 241.36 280.06 356.72 935.75 420.51 630.22 517.92 732.15 703.08 772.79 401.33 519.34 357.18 425.65 369.03 708.59 295.71 535.61 680.81 694.60 352.55 402.39 231.94 278.73 601.25 366.52 678.25 509.19 686.69 75.31 231.20 620.63 908.92 354.47 691.02 336.34 627.44 37.71 497.68 324.22 711.77 603.16 731.26 552.37 234.86 787.16 611.18 389.87 472.00 384.50 709.15 454.76 630.97 258.58 489.02 399.09 240.65 695.78 536.60 394.53 524.86 680.99 434.93 684.08 855.13 328.41 477.53 493.39 207.33 613.40 705.36 794.49 917.80 710.58 97.63 715.97 813.90 515.61 466.74 588.21 258.48 755.68 592.25 497.19 457.58 146.94 404.30 483.34 504.16 685.23 470.68 297.31 530.92 0.00 745.52 422.42 665.60 560.82 143.42 299.31 781.60 470.35 436.40 610.75 233.09 198.73 569.38 131.86 552.05 829.54 740.06 231.90 593.02 502.86 254.11 686.73 977.87 629.74 611.41 109.06 835.96 422.67 856.29 643.16 608.99 237.51 756.21 759.73 400.42 595.10 416.92 539.10 131.85 766.10 236.76 614.93 433.84 363.70 529.21 682.41 695.54 306.58 704.74 641.62 575.45 316.95 698.77 463.60 423.45 343.30 750.36 474.17 261.57 646.25 330.66 720.45 601.47 373.31 807.65 576.34 385.17 640.36 432.09 198.09 628.07 967.41 760.74 788.09 479.62 805.43 291.17 376.20 585.23 367.98 796.29 513.86 587.05 807.42 634.22 507.00 310.27 261.08 418.54
875.86 947.72 754.99 691.73 920.56 987.95 180.84 336.23 693.97 545.97 906.12 814.97 783.08 275.49 1024.86 289.49 976.86 610.35 876.23 865.69 604.18 364.81 497.41 301.91 606.63 133.13 368.66 842.66 387.25 931.78 1091.57 714.28 1042.10 483.76 594.82 258.46 853.40 756.61 951.57 397.19 516.02 466.79 585.53 1024.57 448.69 335.90 393.93 675.06 636.98 181.17 217.57 967.65 803.07 905.61 406.65 710.25 864.64 966.14 254.51 233.61 334.81 547.95 907.40 369.15 162.03 981.88 283.68 914.87 421.38 969.92 904.90 566.11 628.90 477.03 909.04 59.90 1149.67 888.58 266.80 701.61 1108.00 543.74 855.46 889.45 622.84 478.58 585.46 1229.10 321.51 792.63 257.88 660.75 666.49 182.86 187.59 909.78 879.18 463.72 931.88 713.51 646.46 899.41 1042.74 819.48 737.57 985.67 987.99 756.52 412.63 577.32 722.84 745.52 0.00 839.21 741.66 317.63 602.10 626.79 758.90 544.58 621.94 398.79 906.20 597.20 727.83 769.86 933.18 853.54 735.04 575.08 702.37 1002.96 874.42 226.44 353.73 213.66 706.32 770.86 215.89 782.67 183.95 815.75 227.36 890.80 81.22 314.18 771.44 197.92 442.59 255.05 733.50 832.83 587.93 208.88 402.13 1027.21 252.06 165.70 763.12 530.10 484.17 845.62 1248.52 633.76 203.21 522.08 618.69 802.15 298.39 1100.99 959.81 502.73 1035.31 220.02 777.05 995.97 149.17 1275.41 913.82 496.84 775.33 728.29 304.06 373.43 201.75 435.84 875.27 286.77 891.14 491.82 790.08 861.92 796.62 534.64 552.54 187.56 683.51 977.30 902.81 913.46 1048.60
1165.04 227.06 984.50 477.42 1017.65 574.61 695.19 762.83 343.03 585.13 445.87 1112.21 176.84 980.62 188.22 725.28 843.14 270.92 601.03 617.25 315.55 1043.40 420.00 869.53 396.48 803.47 919.61 1077.12 623.73 143.71 544.80 746.89 522.76 1041.95 301.81 619.14 970.41 420.61 625.58 513.00 436.44 485.67 368.99 311.74 924.06 545.37 955.22 426.29 520.32 704.16 961.90 639.45 408.31 664.05 887.01 426.99 178.07 300.19 909.26 843.14 755.25 885.73 390.60 1006.96 694.71 729.41 555.53 119.54 641.77 232.32 280.22 565.53 829.05 404.24 290.95 779.31 725.93 85.79 643.39 963.56 588.66 992.21 1181.36 665.54 337.08 481.82 367.00 767.13 696.89 1091.93 934.55 1020.61 445.05 770.28 930.95 826.45 91.11 837.68 429.69 1073.13 410.72 139.64 415.24 353.95 217.68 779.68 165.34 974.35 738.00 637.34 900.56 422.42 839.21 0.00 363.16 602.62 435.01 600.50 1058.20 765.01 330.41 870.32 426.47 458.30 939.02 478.91 220.91 1137.98 1026.00 476.43 323.47 806.38 588.28 924.96 1046.95 808.55 355.80 339.57 935.30 127.75 885.87 954.44 816.35 312.11 827.37 946.85 104.59 674.46 644.07 705.06 466.12 1067.29 554.28 720.64 538.10 472.92 612.74 765.94 393.10 575.17 680.40 397.10 729.18 258.59 738.26 765.34 763.48 79.12 957.72 491.39 218.75 968.36 488.81 716.58 941.50 693.66 938.36 718.03 688.69 973.72 118.33 532.36 867.38 1039.52 813.72 1005.60 133.92 984.24 281.54 435.48 919.50 735.82 1130.56 773.43 520.16 852.91 369.99 818.34 221.33 506.25 439.00
1411.79 221.10 1189.80 225.54 1241.29 937.77 666.30 801.74 120.77 787.62 809.03 1350.15 286.96 1004.55 480.78 592.67 1164.46 417.01 904.58 923.50 400.66 980.11 407.09 913.88 311.75 761.18 1036.54 1301.01 680.92 396.95 827.01 986.51 876.48 1120.56 454.73 604.80 1218.62 57.45 985.27 569.60 612.46 661.69 156.13 628.59 962.97 568.60 1023.77 590.29 742.45 703.28 845.12 974.16 61.41 962.42 957.17 668.84 308.38 663.35 933.28 884.67 637.16 1039.58 753.76 1047.92 724.85 1053.09 620.82 447.15 515.27 520.12 165.18 740.59 974.07 443.15 654.11 801.56 1046.75 448.95 699.99 1166.05 925.46 1150.90 1385.85 959.54 295.07 457.26 613.75 1103.97 551.43 1284.84 804.81 1182.43 700.19 727.99 929.25 1137.19 367.99 971.19 792.85 1248.44 208.26 318.30 713.87 717.11 365.25 1111.33 476.94 1196.48 817.37 845.47 1122.69 665.60 741.66 363.16 0.00 545.76 652.33 849.78 1306.97 937.40 320.98 948.80 789.63 673.56 1090.36 792.03 257.97 1348.06 1231.30 669.32 155.22 1127.32 917.33 905.21 917.21 880.59 139.03 686.09 957.55 350.94 853.49 1198.03 859.84 675.27 792.33 992.95 440.06 688.96 787.76 761.66 719.86 1293.18 762.41 735.14 570.94 822.27 611.20 744.40 29.94 736.99 520.97 159.59 1066.02 497.95 695.97 940.43 963.86 442.28 1001.21 822.49 581.91 1118.15 817.99 674.29 1121.08 1023.60 890.83 1066.75 1009.63 1118.49 360.36 786.10 911.73 943.07 771.43 1044.51 348.25 1028.43 644.70 462.35 1152.61 989.56 1337.87 988.69 371.51 804.74 118.49 1142.15 584.49 869.41 802.16
1048.05 678.84 864.78 413.67 932.13 847.28 255.27 370.68 452.28 422.53 705.95 950.36 519.07 528.28 770.26 168.24 894.66 340.74 762.57 730.18 352.73 544.75 234.37 410.81 381.97 315.43 574.07 909.91 281.38 697.58 909.58 675.05 860.11 692.04 383.55 147.27 844.30 489.92 845.88 206.95 328.88 339.77 486.03 824.23 556.31 211.49 550.62 511.97 509.94 229.65 481.81 845.63 558.07 805.46 511.25 523.11 618.11 785.58 459.92 365.39 265.22 626.16 720.26 567.75 193.63 882.91 159.27 660.23 156.10 700.31 627.76 499.94 649.05 207.42 729.92 362.74 991.94 618.97 238.99 777.49 926.01 707.18 990.85 800.47 366.44 186.46 398.32 1102.08 226.07 922.19 466.56 835.99 560.80 265.70 505.22 885.26 644.98 549.79 744.74 808.38 435.46 639.27 855.60 632.34 484.34 911.89 740.66 832.40 409.52 515.58 757.20 560.82 317.63 602.62 545.76 0.00 465.92 559.68 922.34 616.84 391.80 465.37 739.79 441.05 775.77 606.85 657.86 985.89 894.88 428.22 478.26 935.85 759.15 448.96 578.96 361.11 406.73 591.74 475.92 538.22 384.43 806.65 381.86 718.14 317.35 499.41 522.95 226.23 462.74 322.80 602.92 919.74 505.93 240.48 175.50 849.10 153.67 294.46 517.43 448.80 322.66 700.24 1066.53 344.03 226.91 574.10 636.53 532.54 523.23 908.37 742.42 666.17 837.36 248.59 797.43 868.33 466.80 1093.42 840.36 660.28 528.80 642.34 408.66 528.17 333.63 587.67 609.32 523.27 780.44 211.08 748.72 778.24 932.01 607.02 270.65 369.00 429.54 938.07 691.54 735.67 875.16
893.07 537.03 730.91 482.67 659.12 429.88 557.16 474.63 538.58 313.16 342.67 867.45 372.39 684.12 524.49 505.87 610.91 305.97 351.03 368.16 283.29 828.66 277.09 586.77 460.19 588.73 642.18 752.37 309.33 519.97 500.60 478.80 473.96 752.92 263.16 436.57 693.08 628.89 400.31 258.97 157.85 135.31 496.20 470.19 627.90 367.44 598.67 96.78 235.42 520.27 797.38 452.43 684.83 469.35 609.54 151.91 503.98 426.89 624.16 606.11 587.84 596.70 349.06 723.65 512.14 499.54 372.96 399.94 584.49 485.47 570.44 264.93 540.02 259.31 315.10 596.74 610.64 358.68 389.22 685.21 539.86 714.74 922.32 438.45 377.27 385.18 95.03 718.33 563.70 844.14 818.53 735.49 200.48 598.35 754.36 631.05 467.37 534.75 370.53 788.23 491.99 519.40 494.84 259.40 378.52 589.99 497.35 689.45 469.57 348.31 615.66 143.42 602.10 435.01 652.33 465.92 0.00 348.96 826.51 490.46 336.14 587.70 340.74 180.83 646.04 275.28 564.50 889.17 767.45 176.54 543.96 594.88 362.33 652.23 878.83 600.07 578.86 176.92 692.54 410.96 743.00 681.42 579.32 305.37 640.64 639.23 371.54 496.06 381.54 447.10 226.35 742.54 265.25 522.14 290.42 477.90 430.17 583.37 629.41 290.05 682.53 685.85 680.38 259.14 599.99 481.11 474.45 420.71 683.90 507.68 392.28 690.58 474.08 600.61 595.54 471.55 734.40 707.27 494.84 684.69 420.38 292.59 584.62 868.37 661.70 707.49 517.75 702.91 365.62 290.55 644.25 496.05 863.48 495.96 443.63 697.68 565.54 551.33 335.28 389.98 449.33
647.53 778.33 470.70 780.66 432.81 432.83 635.72 380.92 761.94 137.15 376.86 519.83 613.69 601.19 682.42 647.90 440.27 480.82 249.44 285.86 536.76 872.01 485.43 453.10 641.48 661.60 540.60 476.62 342.12 744.21 531.57 183.19 516.41 467.28 482.50 505.73 390.84 852.25 378.39 414.27 281.08 286.16 738.09 641.55 466.02 457.93 498.42 340.13 142.60 491.04 799.32 362.55 896.54 369.21 466.87 331.37 733.03 596.28 529.92 502.49 727.22 338.88 440.86 610.04 484.33 392.16 459.14 634.68 715.78 708.95 811.74 109.19 263.72 449.37 466.46 614.41 585.21 593.42 359.99 456.54 563.87 445.95 597.02 262.66 587.64 573.51 292.25 750.52 688.28 495.18 790.95 497.09 268.77 634.71 657.06 345.97 691.61 384.23 380.35 515.28 686.70 740.14 602.33 405.41 596.01 386.77 719.29 416.50 293.56 83.82 312.15 299.31 626.79 600.50 849.78 559.68 348.96 0.00 528.91 214.05 590.42 419.26 389.14 200.95 350.61 285.43 816.87 571.43 494.50 234.12 719.29 376.17 262.19 501.85 862.46 506.61 790.82 408.37 728.67 656.72 742.84 353.94 512.94 494.13 640.11 582.61 552.66 448.44 218.55 406.09 216.44 466.79 102.97 494.62 433.40 491.77 512.13 627.57 845.56 131.42 758.22 929.20 712.57 439.28 673.50 256.08 209.96 597.50 611.91 632.73 541.99 404.94 419.10 679.17 382.95 425.10 684.52 721.90 351.83 399.05 648.97 150.20 450.95 888.30 678.62 555.11 734.42 646.29 516.98 451.38 373.62 253.12 538.18 280.88 687.89 711.44 768.01 408.49 536.08 315.03 603.56
164.77 1254.42 155.08 1207.83 329.22 768.46 897.88 614.76 1212.73 568.38 846.00 105.11 1112.38 605.68 1161.43 916.58 569.13 907.81 647.61 625.89 963.75 875.70 899.88 511.53 1070.29 840.47 431.28 155.55 745.77 1199.94 953.59 442.19 923.44 330.29 948.07 783.92 269.08 1303.04 750.08 748.97 757.85 738.21 1157.66 1093.42 423.13 849.95 387.77 779.32 598.64 753.20 961.10 736.17 1341.27 710.30 455.98 764.68 1138.17 1048.15 545.43 583.45 983.90 344.05 881.92 514.01 744.76 622.98 797.73 1128.19 1008.03 1160.82 1265.97 622.55 332.90 866.00 918.33 728.57 908.19 1091.18 698.58 189.95 989.34 253.13 145.60 626.65 1058.54 979.34 736.98 1096.96 966.47 33.73 949.86 174.40 716.76 883.00 667.44 512.61 1149.31 455.50 852.24 145.28 1173.26 1166.69 1074.22 838.72 1001.15 568.92 1124.56 144.61 528.05 517.67 313.83 781.60 758.90 1058.20 1306.97 922.34 826.51 528.91 0.00 399.95 1017.41 487.12 822.45 645.68 275.37 718.66 1238.80 124.83 113.58 678.85 1164.02 582.65 634.86 532.46 938.60 617.90 1235.55 852.75 800.92 1057.67 887.65 257.88 597.15 911.03 840.12 560.79 953.61 717.12 519.21 685.63 649.75 145.72 600.73 763.30 780.42 988.27 790.32 869.96 1290.29 600.36 1116.22 1368.39 1059.37 922.63 884.60 411.95 391.53 1028.64 605.46 1049.66 1026.11 267.95 915.60 901.00 271.59 741.09 705.86 1058.34 589.23 262.06 1049.92 641.81 513.68 934.20 914.99 453.38 1136.74 616.22 968.85 844.62 254.67 520.65 86.76 330.55 1129.84 942.21 1212.74 607.58 987.95 784.17 1078.85
518.78 942.54 328.06 876.23 492.70 575.26 607.86 270.23 841.85 218.80 590.91 467.59 797.66 420.76 851.17 608.32 504.55 576.85 463.49 477.57 620.66 801.05 583.35 281.16 710.47 576.71 330.90 441.27 399.16 906.12 724.43 276.95 730.46 338.45 559.65 493.02 395.53 932.16 509.17 502.49 404.38 355.15 791.27 825.27 291.23 511.69 287.39 498.87 304.44 463.18 701.70 513.30 996.59 555.20 271.11 478.30 846.04 781.96 383.93 352.56 699.35 195.07 624.02 428.20 444.75 548.19 477.00 756.02 704.95 868.80 945.80 255.41 112.33 554.70 660.43 492.46 772.09 724.04 377.85 337.28 777.92 288.18 448.45 418.69 667.55 680.57 406.88 900.02 658.40 433.03 742.01 307.88 448.95 620.89 485.12 461.05 856.12 188.47 594.34 386.70 782.27 873.50 816.32 562.86 716.61 441.09 862.71 390.14 207.32 226.69 265.44 470.35 544.58 765.01 937.40 616.84 490.46 214.05 399.95 0.00 626.42 205.21 564.55 317.28 262.59 459.16 903.44 486.32 346.49 332.87 835.62 520.81 476.24 356.63 751.77 330.92 875.35 579.41 552.98 747.96 627.53 357.88 351.67 673.20 524.80 437.37 660.42 408.86 202.68 315.34 391.85 431.44 233.59 426.43 503.79 705.82 487.24 575.00 932.68 200.41 813.90 1017.41 926.62 583.57 610.43 60.99 100.55 735.45 397.86 833.63 731.92 264.33 633.15 632.11 313.09 580.41 508.83 865.14 476.49 270.22 756.73 357.42 279.01 752.61 639.04 343.63 843.55 451.49 691.84 528.09 324.84 421.77 475.99 69.40 817.02 682.45 872.04 479.75 730.05 529.08 810.78
1145.20 366.01 948.74 249.81 946.60 712.75 483.13 572.00 215.43 536.67 607.14 1094.01 201.37 754.91 458.31 448.51 879.82 109.60 630.09 671.81 79.68 794.48 177.35 671.70 149.49 565.16 764.50 1045.40 426.49 338.68 757.92 744.91 748.41 890.82 140.69 429.76 916.01 305.74 703.34 315.17 363.10 374.90 164.85 530.43 733.23 338.86 794.03 361.09 453.43 468.58 731.54 743.20 370.17 733.16 727.43 439.64 254.39 542.72 650.35 631.67 542.61 812.53 532.62 764.99 459.91 767.58 391.08 426.77 337.66 459.63 349.97 496.70 733.01 213.41 518.30 610.66 874.95 387.83 445.56 903.22 806.19 905.64 1074.87 669.65 41.13 221.11 383.60 964.81 490.17 1030.41 704.55 931.48 475.34 515.43 729.63 823.85 341.11 706.39 567.83 998.51 155.85 277.47 611.79 511.43 172.01 816.36 436.11 907.46 610.34 570.51 833.67 436.40 621.94 330.41 320.98 391.80 336.14 590.42 1017.41 626.42 0.00 719.06 592.09 389.47 860.62 542.83 389.68 1107.00 972.91 422.64 225.75 832.35 642.84 678.42 791.50 627.39 260.98 431.62 742.20 221.50 634.16 928.74 630.10 513.91 617.07 710.02 289.38 495.80 546.70 507.23 470.66 1035.57 487.45 506.76 341.20 686.04 436.16 544.19 306.26 486.04 433.41 390.99 954.83 183.91 476.64 687.41 696.65 301.40 754.69 702.75 505.68 881.79 676.42 498.32 874.67 774.58 722.74 852.44 714.66 887.68 212.08 536.90 669.55 777.90 583.36 814.77 307.42 773.70 523.81 221.29 903.32 740.36 1081.49 686.86 251.25 618.73 245.62 847.18 448.68 656.05 681.27
610.69 902.26 426.02 830.71 577.89 780.47 430.15 172.30 850.08 312.39 747.07 540.58 814.43 215.55 985.25 496.67 658.15 638.97 668.70 665.95 694.91 602.27 541.71 96.88 724.81 425.82 157.29 525.18 337.60 988.64 929.64 482.16 925.64 229.84 651.52 348.98 454.61 940.39 714.38 437.52 506.22 495.80 849.93 915.79 90.94 413.76 113.78 617.12 459.66 285.47 615.23 718.51 988.19 760.41 67.89 573.04 866.85 874.92 199.65 172.26 576.09 171.24 754.46 236.08 321.49 724.76 394.05 860.70 573.09 973.48 958.18 389.80 317.54 505.65 809.39 347.66 974.23 858.43 326.51 326.19 959.23 271.96 577.97 623.90 716.26 581.90 503.32 1105.23 531.53 503.47 628.11 376.25 569.54 471.81 300.84 615.73 936.04 85.82 752.13 424.07 830.90 937.50 960.60 661.08 729.83 646.30 967.96 381.10 155.98 357.01 409.52 610.75 398.79 870.32 948.80 465.37 587.70 419.26 487.12 205.21 719.06 0.00 758.56 412.02 371.06 593.55 971.45 534.59 444.96 411.16 856.78 691.75 656.60 172.35 580.36 186.12 872.10 686.58 408.18 836.45 514.95 416.96 178.20 767.71 434.54 237.32 793.83 297.21 252.34 253.48 585.86 529.40 389.90 329.23 467.10 875.50 355.38 422.00 940.91 363.02 690.91 971.29 1096.30 635.39 473.41 213.97 305.76 817.29 192.65 1004.37 837.88 230.95 802.83 473.60 421.56 785.62 333.16 1055.49 649.75 225.06 827.03 562.63 94.73 595.05 467.05 206.33 907.55 246.28 834.45 536.89 433.31 520.43 524.33 215.93 694.90 513.73 876.78 684.96 780.88 734.29 952.85
874.28 607.99 716.69 799.76 729.34 174.71 857.43 666.93 755.80 458.74 33.84 818.79 589.61 884.95 418.19 801.38 467.34 499.74 207.46 223.68 512.41 1099.38 506.20 774.69 685.17 899.08 825.83 734.39 581.72 466.62 248.65 421.76 236.83 824.94 456.93 716.53 643.87 751.53 199.11 599.71 412.33 452.23 756.94 314.82 798.76 667.71 809.44 243.96 321.25 801.55 1089.84 264.49 831.25 237.58 777.73 218.10 525.26 258.56 851.55 771.36 874.18 697.79 59.47 899.95 792.10 355.97 652.92 381.94 862.42 348.24 631.70 381.33 634.44 542.26 174.05 876.70 394.55 340.68 680.55 654.04 276.28 764.30 895.98 281.08 633.22 650.22 356.82 464.62 859.21 831.64 1098.72 804.79 239.71 917.37 955.98 469.73 478.12 695.09 29.79 758.13 729.00 501.40 251.77 140.75 500.89 427.56 418.62 708.95 615.15 442.73 627.74 233.09 906.20 426.47 789.63 739.79 340.74 389.14 822.45 564.55 592.09 758.56 0.00 379.12 645.22 227.20 582.70 862.44 735.99 347.40 714.97 449.66 194.71 823.48 1147.64 765.32 757.62 193.04 987.38 519.25 1014.75 606.22 744.57 153.59 912.02 903.62 423.84 771.93 562.12 692.39 172.70 724.56 392.10 803.48 630.38 186.77 710.13 863.33 779.04 417.43 885.13 758.86 435.29 440.75 879.16 566.94 568.87 380.36 862.05 316.25 268.67 750.82 141.82 898.78 623.54 270.35 930.63 451.98 331.97 756.71 520.15 238.94 772.54 1148.33 941.66 908.18 514.49 912.63 181.39 544.85 626.08 364.85 837.14 633.95 784.37 980.07 745.41 443.48 243.67 79.78 274.89
797.73 685.23 563.37 579.89 633.76 462.07 542.24 366.37 567.05 167.50 356.30 715.30 523.00 574.53 646.52 487.15 569.58 279.87 365.90 347.89 335.81 785.15 295.40 432.92 478.50 623.05 540.43 660.86 267.99 602.01 555.91 359.51 542.44 584.18 322.68 402.30 557.45 657.36 457.27 292.15 112.17 131.55 554.32 537.30 479.52 352.52 496.92 219.16 68.89 458.12 733.09 470.82 695.59 452.81 428.71 161.02 557.24 511.27 531.72 437.05 584.13 429.43 358.17 594.16 439.69 441.86 338.69 550.00 589.42 646.94 679.31 107.23 372.75 259.34 412.74 562.47 639.75 511.95 369.63 518.68 581.24 533.91 755.79 417.58 430.60 385.21 91.30 769.58 544.98 679.41 746.31 562.31 172.19 588.30 636.88 495.14 549.41 394.42 382.65 621.70 545.32 597.94 548.58 270.25 423.47 521.97 623.64 522.92 321.74 181.04 449.13 198.73 597.20 458.30 673.56 441.05 180.83 200.95 645.68 317.28 389.47 412.02 379.12 0.00 487.59 276.60 669.69 721.63 600.92 33.17 518.34 563.53 353.15 508.39 841.25 431.01 589.87 274.56 653.07 477.35 708.28 539.27 410.26 380.59 606.25 569.31 426.35 403.80 262.48 391.92 207.62 651.03 97.98 449.98 309.70 487.01 395.90 549.10 644.61 116.87 682.56 742.42 748.86 291.36 565.72 314.58 307.18 471.67 551.63 599.18 460.30 510.06 467.22 584.55 485.20 504.26 608.92 751.95 497.39 515.95 467.93 210.49 435.07 834.10 627.43 589.36 582.78 606.70 447.33 259.45 518.78 388.32 696.95 315.13 534.57 674.11 567.06 554.66 450.19 393.19 540.83
396.98 1109.48 190.93 1033.75 239.24 609.09 758.54 486.82 1054.64 362.56 636.56 311.50 964.30 566.21 1033.03 817.49 342.60 762.53 463.26 433.37 818.47 920.34 683.27 465.65 866.37 767.06 444.48 215.93 580.78 996.08 761.92 232.75 776.11 341.02 778.80 659.67 148.04 1132.99 566.71 675.74 556.39 562.18 981.63 907.95 345.88 676.24 406.68 610.22 418.70 618.16 912.06 538.21 1151.77 498.30 388.87 531.67 981.49 864.75 529.46 522.73 836.74 199.82 702.91 539.76 582.14 399.32 660.37 920.65 860.69 974.06 1089.56 434.68 156.87 647.21 763.11 697.50 684.53 903.31 561.22 112.48 804.27 331.53 342.88 450.75 882.29 773.08 572.02 875.87 829.42 290.08 888.76 263.23 561.54 792.48 659.88 272.97 960.70 323.30 662.95 200.74 991.64 996.59 884.93 640.90 854.01 317.21 1024.13 164.19 390.69 348.58 38.46 569.38 727.83 939.02 1090.36 775.77 646.04 350.61 275.37 262.59 860.62 371.06 645.22 487.59 0.00 526.24 1065.49 320.88 190.40 520.76 1005.93 396.93 450.51 501.39 951.42 541.16 1054.36 645.21 763.22 882.76 855.28 120.18 520.41 726.68 767.23 571.52 844.00 618.03 343.18 530.72 494.53 225.76 412.86 628.99 644.29 778.83 653.27 738.44 1120.30 413.19 988.80 1199.29 913.82 735.58 803.49 296.86 244.19 879.54 543.31 896.88 830.95 293.70 706.16 781.81 50.50 569.81 692.53 872.55 396.81 287.81 892.18 449.39 463.50 873.92 809.49 461.27 1007.03 615.51 793.42 668.59 62.25 331.69 310.62 193.19 965.94 856.17 1031.55 355.87 804.59 574.73 849.14
831.39 663.72 638.68 676.66 647.40 270.89 765.55 533.70 733.55 281.16 211.84 718.26 567.36 771.51 551.17 694.99 414.94 433.23 155.72 193.67 483.15 981.78 509.10 597.11 649.78 796.24 648.25 640.93 456.40 587.77 366.55 354.96 351.39 713.24 422.14 600.29 559.57 821.03 280.90 487.80 277.97 327.20 707.68 467.62 651.61 579.20 631.86 201.74 248.92 648.67 946.34 268.83 822.88 271.72 661.44 169.57 619.32 435.46 681.18 668.48 791.97 557.02 248.56 745.55 630.24 286.55 544.76 437.67 762.95 492.77 719.64 203.75 423.32 473.04 320.28 710.62 482.91 468.73 541.41 610.25 398.85 649.68 795.45 251.07 569.19 570.40 208.53 587.19 752.82 725.32 936.86 712.08 104.41 778.72 801.07 423.42 542.64 580.56 197.41 650.30 698.68 606.28 419.39 200.57 527.64 351.48 514.30 630.69 437.57 308.63 528.24 131.86 769.86 478.91 792.03 606.85 275.28 285.43 718.66 459.16 542.83 593.55 227.20 276.60 526.24 0.00 672.44 769.86 642.62 246.87 724.88 410.66 164.70 672.58 1015.24 650.62 737.84 240.92 863.73 537.76 880.85 521.92 656.95 278.60 778.12 726.62 433.70 594.35 384.54 514.81 72.17 635.54 225.57 625.90 505.35 299.67 601.97 755.17 820.30 288.39 836.60 773.48 557.81 395.78 771.79 452.41 424.95 475.16 761.52 440.63 393.43 650.90 281.44 788.47 512.70 327.07 802.11 560.77 292.97 645.01 530.01 135.23 594.96 1017.57 824.53 740.18 611.48 790.30 345.34 473.15 463.99 275.79 736.61 528.56 718.91 831.78 755.27 390.14 389.90 150.01 407.06
1358.71 70.38 1124.35 373.60 1132.88 720.73 796.36 799.15 239.21 753.66 602.10 1252.40 235.02 1043.74 222.81 748.03 1017.14 389.82 757.26 773.48 415.97 1126.83 536.49 911.29 425.80 886.90 1065.99 1237.56 633.85 138.98 681.77 900.11 682.75 1148.17 432.63 731.43 1131.18 283.90 781.81 631.90 594.66 643.89 347.65 426.97 991.10 645.09 1022.48 476.74 674.27 829.91 1036.64 847.19 293.49 820.28 954.27 555.29 145.56 442.71 1011.59 937.60 840.95 1038.87 554.97 1068.23 831.82 878.56 697.31 234.77 646.22 292.76 126.30 745.14 908.62 503.96 450.94 921.09 867.37 242.02 757.38 1098.86 742.97 1124.63 1325.99 826.31 354.36 534.34 587.91 851.62 766.48 1229.32 996.33 1148.47 622.05 853.71 1014.38 1023.64 129.80 924.12 575.81 1182.99 365.20 112.21 531.52 510.18 282.58 977.36 249.19 1128.30 816.66 809.03 1048.50 552.05 933.18 220.91 257.97 657.86 564.50 816.87 1238.80 903.44 389.68 971.45 582.70 669.69 1065.49 672.44 0.00 1282.61 1165.85 675.41 287.92 985.73 744.51 986.76 1100.06 939.48 284.76 500.34 1077.08 211.18 979.21 1117.62 926.72 468.34 938.81 1024.23 285.19 795.93 722.31 771.62 606.31 1227.73 732.47 842.11 637.82 609.89 725.03 874.46 287.91 703.03 677.91 216.32 838.66 442.98 821.69 878.09 898.41 300.03 1066.64 616.31 361.27 1083.62 645.04 800.01 1101.89 829.11 1052.80 874.32 896.08 1089.51 201.76 672.55 909.14 1101.01 897.15 1088.15 102.06 1079.48 474.70 535.20 1059.69 876.01 1270.75 967.08 502.46 936.82 287.83 1000.42 381.32 662.48 557.96
76.10 1313.58 158.26 1283.59 362.94 819.26 964.74 681.69 1282.16 586.83 864.10 51.60 1181.73 690.80 1224.38 993.77 535.76 1001.50 692.99 662.00 1033.57 1000.53 940.97 631.47 1111.38 921.19 554.02 167.32 715.58 1230.06 968.52 500.47 920.69 455.12 972.56 883.57 295.70 1369.83 753.26 825.19 780.66 779.30 1198.75 1118.47 509.41 881.88 512.60 827.26 658.19 820.06 1071.11 714.08 1409.47 773.86 552.40 812.62 1226.76 1094.60 655.17 701.29 1050.48 363.35 921.91 638.84 795.88 656.63 829.66 1099.83 1093.09 1208.53 1313.83 664.24 373.99 907.09 966.27 823.21 939.27 1119.58 746.90 208.40 941.16 377.96 43.38 656.31 1133.61 1016.94 804.96 1067.07 1051.60 109.95 1074.69 294.43 764.70 970.92 784.47 539.23 1177.46 528.76 890.49 204.03 1229.53 1241.10 1112.47 851.42 1089.74 564.65 1219.49 220.34 585.56 565.70 359.34 829.54 853.54 1137.98 1348.06 985.89 889.17 571.43 124.83 486.32 1107.00 534.59 862.44 721.63 320.88 769.86 1282.61 0.00 149.69 754.80 1239.97 531.71 680.24 627.10 1063.43 695.25 1288.26 890.74 913.87 1163.28 998.91 275.02 674.50 956.41 934.76 683.65 1059.22 831.77 560.30 743.14 697.69 157.49 648.76 842.73 851.72 976.49 886.87 952.18 1348.55 637.46 1168.96 1416.33 1105.02 929.34 1002.44 490.95 465.80 1058.86 667.90 1076.87 1071.49 392.78 933.70 995.64 298.69 747.59 817.12 1087.38 567.14 386.89 1155.53 715.46 629.32 1037.45 1001.64 532.37 1242.35 692.44 1016.79 885.71 328.32 597.31 56.92 437.55 1209.80 1036.85 1288.69 525.99 1035.89 802.27 1072.45
225.79 1231.64 41.50 1165.14 288.01 688.54 875.11 581.49 1167.97 497.20 769.83 121.10 1069.69 588.83 1135.70 921.52 482.00 865.12 554.03 512.31 918.86 969.41 824.21 535.40 994.62 831.56 469.82 107.62 692.88 1140.43 851.76 383.71 866.74 353.81 902.04 785.28 181.95 1253.07 636.50 776.10 691.03 662.54 1081.99 1017.62 419.78 776.60 455.75 729.56 532.03 730.43 952.61 660.13 1292.71 633.33 430.66 722.07 1141.99 974.31 559.21 610.78 960.85 273.72 793.68 547.04 706.25 589.72 753.11 1059.34 1009.39 1082.45 1224.20 553.82 257.23 790.33 859.13 761.60 846.40 1020.20 655.89 118.77 904.97 273.18 187.94 547.51 1014.04 916.20 685.35 1007.30 967.83 147.31 969.91 213.65 676.54 881.29 728.30 425.48 1087.83 417.97 765.78 112.48 1112.77 1125.87 986.95 777.61 1004.97 455.34 1121.42 78.00 485.36 448.94 228.86 740.06 735.04 1026.00 1231.30 894.88 767.45 494.50 113.58 346.49 972.91 444.96 735.99 600.92 190.40 642.62 1165.85 149.69 0.00 634.09 1119.26 495.52 541.28 565.49 1010.00 615.06 1185.24 801.11 837.12 1061.99 896.94 144.30 594.31 817.45 816.26 584.31 978.64 722.06 443.54 631.08 632.01 97.79 532.00 742.17 744.65 874.75 791.68 860.78 1231.79 546.90 1090.56 1317.46 1014.70 870.22 898.16 374.19 349.04 1008.49 611.73 983.05 932.53 289.20 802.08 876.48 181.93 674.48 715.15 978.42 513.19 295.09 1053.18 565.77 533.25 947.82 906.20 410.66 1143.99 620.98 884.19 768.95 178.63 448.07 129.50 287.86 1109.06 922.60 1167.98 494.00 928.75 709.30 1010.88
830.90 683.04 596.54 612.71 617.24 429.15 536.71 381.96 583.84 183.09 381.24 748.47 530.92 599.41 644.59 453.98 596.96 313.04 359.42 371.88 368.98 751.98 262.23 466.09 445.33 589.88 517.62 694.03 280.43 620.14 574.57 392.68 575.61 585.30 321.75 369.13 590.62 674.15 443.46 268.89 99.34 108.29 539.32 544.29 451.36 357.74 512.10 241.45 102.06 454.15 742.44 471.53 728.76 419.64 443.89 194.19 551.29 478.10 545.13 436.52 550.96 462.60 391.34 614.92 444.70 475.03 305.52 520.04 556.25 625.66 694.49 134.61 405.92 226.17 398.23 529.30 672.92 478.78 362.20 551.85 548.07 567.08 781.32 420.17 409.54 352.04 109.43 736.41 511.81 712.58 751.32 577.90 158.38 569.97 621.65 528.31 567.54 361.25 377.19 644.93 570.60 603.30 566.71 303.42 414.27 555.14 610.89 556.09 339.50 214.21 482.30 231.90 575.08 476.43 669.32 428.22 176.54 234.12 678.85 332.87 422.64 411.16 347.40 33.17 520.76 246.87 675.41 754.80 634.09 0.00 551.51 530.36 366.17 520.09 811.39 464.18 623.04 307.73 665.52 497.24 690.07 572.44 443.43 356.55 589.73 602.48 393.18 428.62 276.88 380.79 174.70 684.20 131.15 474.80 286.44 520.18 362.73 515.93 674.67 132.46 649.39 775.59 750.57 278.53 532.55 347.75 340.35 468.21 584.80 593.21 471.63 543.23 489.22 551.38 518.37 490.45 583.23 719.03 464.47 549.12 489.49 234.48 468.24 800.93 594.26 566.75 573.35 639.87 423.29 226.28 551.95 421.49 730.12 348.30 501.40 640.94 600.23 573.91 467.85 396.88 574.00
1303.57 252.66 1081.71 183.10 1152.10 827.36 661.43 692.50 48.71 685.84 702.54 1205.88 171.57 903.88 432.58 566.16 1074.54 294.17 814.66 856.38 305.43 936.57 401.95 775.79 223.14 696.64 933.28 1179.20 530.58 356.16 758.79 877.85 808.26 1031.50 336.98 576.52 1075.79 139.02 893.45 419.26 508.23 557.46 116.84 574.64 876.51 527.73 904.44 557.38 587.23 675.00 805.83 927.77 177.25 838.44 851.00 580.68 237.03 567.94 859.29 766.40 606.49 936.64 679.73 932.73 671.89 960.20 533.25 415.55 475.74 436.45 292.56 625.57 891.09 427.49 565.15 757.03 978.53 374.29 549.65 1037.02 824.17 1010.17 1246.37 871.38 223.01 387.49 577.67 1012.51 520.76 1134.50 765.52 1080.65 634.52 682.23 889.96 1013.48 312.69 820.85 704.81 1140.04 138.49 249.05 686.77 582.87 304.49 1023.99 407.69 1041.26 714.43 699.38 967.47 593.02 702.37 323.47 155.22 478.26 543.96 719.29 1164.02 835.62 225.75 856.78 714.97 518.34 1005.93 724.88 287.92 1239.97 1119.26 551.51 0.00 1054.16 827.41 831.22 877.92 760.36 71.53 582.53 913.02 195.72 807.73 1057.61 739.61 600.61 747.42 898.66 299.78 656.35 751.82 611.32 655.23 1169.37 616.32 682.43 450.71 747.12 570.12 712.73 126.27 635.21 451.20 311.22 982.35 375.57 650.21 832.92 825.52 374.81 880.98 759.16 507.25 969.16 717.77 628.53 1003.54 928.80 851.54 911.53 940.41 963.27 205.14 721.47 773.64 892.94 703.21 952.65 279.00 919.18 605.01 429.88 1037.12 906.66 1187.53 833.47 331.98 749.89 48.72 1010.61 519.96 764.37 734.23
607.81 1023.35 467.98 1068.54 318.35 327.72 1011.89 684.86 1047.78 513.32 474.60 480.11 934.76 889.14 827.38 984.34 70.82 768.52 261.50 267.61 818.44 1229.30 792.59 740.15 971.54 1017.10 762.30 469.41 710.23 908.53 503.18 306.57 475.35 716.63 757.43 881.90 313.57 1138.09 287.92 772.17 629.70 638.65 997.20 746.48 677.58 834.10 725.46 537.03 518.77 867.21 1173.79 264.63 1158.19 292.15 688.57 497.56 954.61 703.17 842.92 815.53 1081.32 596.75 509.13 859.60 860.50 160.67 835.31 804.33 1086.61 797.90 1058.74 485.36 420.64 756.53 587.99 986.73 445.88 772.63 736.16 475.56 409.45 647.00 557.30 206.86 873.48 882.40 576.65 544.40 1042.17 551.49 1167.12 615.29 474.47 1010.88 944.11 160.54 855.93 605.93 472.64 543.28 988.20 917.02 659.09 559.14 833.57 79.72 850.28 483.63 660.40 459.99 358.47 502.86 1002.96 806.38 1127.32 935.85 594.88 376.17 582.65 520.81 832.35 691.75 449.66 563.53 396.93 410.66 985.73 531.71 495.52 530.36 1054.16 0.00 270.14 815.62 1166.40 825.19 1073.13 528.89 1047.25 873.05 1116.46 351.22 821.47 546.31 1016.28 896.61 768.99 824.61 578.26 765.80 407.46 479.24 479.14 858.16 795.96 444.78 888.30 1003.74 1138.61 507.59 1134.39 1126.10 582.35 760.92 1025.06 519.98 482.97 780.28 866.24 585.74 661.39 654.29 420.49 1046.74 372.92 298.03 982.53 585.15 117.69 648.40 865.30 405.01 738.00 1246.88 1054.79 749.86 921.53 930.63 613.05 756.64 389.79 213.37 498.46 513.04 1031.76 1087.61 1066.17 43.55 657.61 412.77 594.46
755.04 763.65 521.98 833.26 534.63 182.29 832.31 615.07 858.27 376.52 228.55 662.38 716.04 828.56 594.42 820.15 272.63 533.24 12.75 28.97 581.58 1100.07 613.43 655.72 759.31 897.31 727.61 546.07 566.80 661.33 331.46 229.59 360.49 644.92 547.44 693.15 449.16 922.59 116.20 621.30 430.27 474.46 807.69 476.34 662.05 647.29 695.24 327.04 287.73 748.41 1008.10 125.86 945.13 107.02 627.03 291.82 710.81 433.03 758.49 731.10 915.53 581.53 252.40 812.66 712.39 161.26 671.69 537.60 863.50 541.17 793.51 314.15 497.80 577.37 317.85 821.02 348.52 502.49 622.18 534.01 367.24 569.59 723.62 86.37 683.97 703.24 370.85 507.05 875.70 647.25 967.79 665.61 264.48 868.07 859.68 292.77 639.93 571.24 224.50 563.42 798.69 663.21 445.67 289.00 584.82 232.85 580.14 543.92 526.25 346.01 436.78 254.11 874.42 588.28 917.33 759.15 362.33 262.19 634.86 476.24 642.84 656.60 194.71 353.15 450.51 164.70 744.51 680.24 541.28 366.17 827.41 270.14 0.00 731.19 1080.19 739.30 840.23 305.97 934.40 654.33 956.32 411.51 737.04 276.17 884.08 815.30 550.27 704.75 479.90 625.21 197.47 555.90 292.33 736.30 622.30 381.48 699.55 868.69 920.31 365.57 939.43 895.73 531.36 553.68 836.05 518.27 405.99 525.73 812.51 466.42 391.25 610.60 318.74 814.37 431.37 187.44 887.14 472.17 156.56 616.49 646.58 146.13 653.57 1084.33 911.51 763.90 666.73 869.09 342.91 573.25 439.58 170.14 670.78 497.70 805.96 945.59 817.42 255.91 387.47 225.96 469.60
649.42 957.66 575.00 781.45 739.35 850.41 380.89 187.61 857.52 391.42 821.09 588.53 793.02 99.34 1053.16 457.84 750.42 654.04 743.94 702.22 685.61 461.15 563.11 75.47 725.82 359.57 142.22 625.14 352.91 994.55 1026.53 576.67 1018.26 298.48 636.29 334.69 626.96 920.16 847.39 411.96 576.16 526.93 749.08 994.82 222.25 423.40 167.49 687.36 539.70 236.21 444.01 813.02 966.62 823.24 180.21 649.02 920.55 953.95 28.07 83.57 495.66 343.59 846.17 142.71 255.33 835.17 371.18 935.14 533.23 1026.01 991.07 468.83 416.77 533.12 869.70 196.11 1060.29 911.02 281.57 475.17 1042.48 317.30 629.02 746.66 719.55 567.61 599.69 1206.62 491.40 566.19 482.86 434.31 678.47 362.37 178.06 724.27 941.95 254.99 831.16 487.07 810.01 955.89 1050.90 758.25 792.61 797.72 1016.29 530.08 235.01 418.03 519.79 686.73 226.44 924.96 905.21 448.96 652.23 501.85 532.46 356.63 678.42 172.35 823.48 508.39 501.39 672.58 986.76 627.10 565.49 520.09 831.22 815.62 731.19 0.00 515.09 123.23 855.69 731.52 311.54 828.48 377.34 589.31 110.36 847.24 307.66 87.74 836.25 260.69 348.83 260.92 677.46 634.97 468.93 279.97 399.26 954.65 341.09 372.74 925.72 437.11 632.69 995.50 1204.61 673.19 384.72 295.64 400.27 845.84 122.24 1081.49 916.91 276.29 920.95 368.54 550.61 896.17 216.48 1116.51 776.21 270.40 837.90 652.05 77.62 511.17 390.93 234.15 935.02 148.93 913.98 515.21 563.64 667.65 570.18 308.20 676.99 409.75 847.06 772.07 859.91 816.88 1023.14
1103.37 1044.81 991.89 799.93 1158.25 1160.49 370.85 481.54 869.52 734.08 1113.80 1043.71 973.09 421.17 1184.69 427.91 1203.33 798.25 1067.44 1093.07 805.98 62.90 641.44 509.09 735.76 302.83 597.54 1094.15 613.35 1117.40 1301.05 940.54 1297.94 693.73 776.50 455.06 1034.97 932.16 1196.39 619.86 766.71 768.09 761.08 1219.40 637.36 543.37 576.56 968.17 848.15 383.13 136.16 1158.86 978.62 1145.14 611.69 960.94 992.96 1178.53 495.98 431.57 380.71 751.60 1158.09 523.51 419.02 1215.95 505.87 1117.32 453.84 1159.93 1047.55 811.49 855.16 677.50 1154.11 319.37 1351.63 1076.06 514.18 906.55 1359.46 742.28 1084.20 1090.88 812.85 669.60 836.15 1530.40 453.23 972.33 112.40 852.45 946.22 316.43 337.03 1140.78 1102.49 666.18 1173.03 954.64 791.09 1068.97 1293.43 1070.17 933.46 1192.86 1174.56 960.28 577.67 803.58 972.70 977.87 353.73 1046.95 917.21 578.96 878.83 862.46 938.60 751.77 791.50 580.36 1147.64 841.25 951.42 1015.24 1100.06 1063.43 1010.00 811.39 877.92 1166.40 1080.19 515.09 0.00 467.26 859.76 1025.91 245.20 919.20 233.65 997.32 458.36 1112.99 336.38 463.23 956.85 437.45 668.85 537.98 975.77 1084.32 804.28 426.89 648.30 1229.17 448.66 353.73 938.67 731.04 487.61 1021.17 1504.36 819.72 352.05 690.78 804.68 990.05 444.07 1315.44 1141.49 758.85 1245.21 330.37 981.57 1234.43 375.45 1450.37 1122.60 752.96 928.62 980.23 509.10 87.24 259.81 599.34 1043.47 417.30 1148.13 688.42 1013.67 1088.18 1025.36 761.11 597.60 213.13 859.06 1167.21 1084.49 1121.17 1305.59
771.35 914.93 596.12 748.74 762.24 819.28 343.88 140.33 809.07 369.46 731.48 643.65 792.97 183.19 963.55 368.23 793.53 576.49 752.05 728.82 607.69 477.51 473.50 106.37 635.90 301.01 214.86 695.28 305.63 919.54 983.94 587.66 934.47 368.80 546.68 287.53 640.73 851.03 840.09 341.10 520.34 471.11 753.93 968.31 253.45 317.42 258.37 650.17 499.90 203.50 429.42 817.65 909.48 846.32 206.81 592.03 840.66 931.99 100.71 39.66 406.29 341.34 789.18 215.35 167.48 857.25 265.20 847.07 500.52 936.40 910.97 446.87 443.25 443.51 841.64 161.54 1069.42 821.41 244.75 496.29 1000.37 385.21 719.31 749.61 639.30 486.86 522.31 1178.84 426.06 651.63 464.02 512.18 603.20 327.80 216.33 703.17 866.94 257.11 790.71 572.51 735.86 875.36 979.59 701.26 703.64 772.01 926.68 551.20 213.05 450.70 509.18 629.74 213.66 808.55 880.59 361.11 600.07 506.61 617.90 330.92 627.39 186.12 765.32 431.01 541.16 650.62 939.48 695.25 615.06 464.18 760.36 825.19 739.30 123.23 467.26 0.00 767.84 705.57 222.06 773.97 342.77 603.08 20.75 799.96 277.06 138.30 747.04 203.37 315.97 205.29 634.56 699.50 446.97 214.33 309.65 918.02 291.79 323.78 868.40 389.83 599.53 958.68 1140.89 549.96 340.81 322.24 431.47 768.29 162.12 1008.32 891.31 361.73 862.89 362.49 581.51 893.22 177.91 1109.16 758.60 355.84 764.55 626.02 104.22 421.69 371.88 268.55 845.41 175.69 866.70 440.89 578.83 679.05 662.00 351.31 631.76 375.18 790.65 798.67 837.95 793.31 971.84
1356.65 276.95 1150.06 179.94 1166.07 856.13 604.65 745.46 45.55 731.94 753.71 1277.41 211.74 935.01 504.11 496.00 1087.36 335.14 827.48 869.20 340.66 910.37 380.04 817.54 196.94 670.44 980.80 1165.18 602.11 423.74 830.32 906.77 850.18 1085.09 315.70 550.61 1122.94 83.19 878.35 490.79 538.11 552.26 120.79 571.48 935.92 541.55 944.78 536.10 658.76 636.38 794.84 912.78 151.34 903.46 911.49 614.65 308.56 619.11 866.65 772.12 592.98 964.36 712.06 974.48 600.36 942.59 566.00 459.92 405.92 487.62 221.03 693.36 934.33 416.10 597.48 752.63 1026.31 418.66 618.77 1108.55 875.34 1081.70 1317.90 899.57 219.85 361.58 558.61 1047.74 537.62 1206.03 769.47 1152.18 666.11 649.92 893.91 998.86 384.22 881.40 737.14 1206.02 112.58 320.58 726.53 616.87 285.51 1057.14 479.22 1107.24 742.15 770.91 1039.00 611.41 706.32 355.80 139.03 406.73 578.86 790.82 1235.55 875.35 260.98 872.10 757.62 589.87 1054.36 737.84 284.76 1288.26 1185.24 623.04 71.53 1073.13 840.23 855.69 859.76 767.84 0.00 606.63 882.65 246.89 781.53 1111.28 788.59 639.16 721.51 906.14 333.78 632.63 748.02 682.85 665.67 1175.01 687.85 647.21 522.24 779.45 544.21 663.81 110.70 706.74 425.29 293.51 1024.33 358.92 624.01 885.14 890.02 408.81 929.96 805.79 551.62 1040.69 730.86 602.33 1025.40 949.59 855.49 962.70 955.44 1034.80 237.47 731.91 815.39 867.03 677.01 994.40 350.53 930.00 637.34 433.83 1074.11 935.37 1259.06 905.00 262.16 680.28 22.81 1073.23 552.29 815.54 747.44
966.84 501.49 782.17 629.13 754.12 347.96 734.08 640.93 623.32 400.53 218.72 849.09 457.13 830.86 399.99 682.79 553.10 329.11 293.22 320.13 351.94 972.29 384.47 656.05 555.92 732.36 709.72 786.68 477.16 425.54 392.03 496.80 390.87 817.65 290.93 613.49 630.84 689.82 391.44 435.89 297.26 304.07 596.47 313.27 751.54 544.36 753.23 95.80 293.33 689.03 941.01 406.33 715.75 400.58 703.27 113.54 429.37 266.26 759.40 678.99 764.76 661.43 222.57 807.02 677.23 441.73 549.88 275.44 722.95 380.67 541.25 364.20 598.08 404.44 138.18 767.24 575.68 316.70 557.98 682.34 420.73 793.14 926.28 325.97 451.98 513.88 227.82 575.06 732.23 859.94 935.13 819.64 154.95 770.86 860.01 552.90 380.41 645.53 203.04 804.24 587.47 388.13 348.52 111.30 361.99 516.84 395.10 737.25 556.94 406.37 606.75 109.06 770.86 339.57 686.09 591.74 176.92 408.37 852.75 579.41 431.62 686.58 193.04 274.56 645.21 240.92 500.34 890.74 801.11 307.73 582.53 528.89 305.97 731.52 1025.91 705.57 606.63 0.00 861.30 386.81 887.00 668.49 684.82 128.45 784.27 816.15 291.36 641.34 503.91 614.93 203.00 796.51 345.82 659.87 467.34 320.15 607.09 760.29 708.80 391.43 748.62 645.59 597.29 247.71 738.84 539.02 532.51 319.44 820.53 365.11 243.53 755.31 326.69 717.16 681.30 462.68 883.48 596.43 415.14 749.42 387.67 269.24 658.20 1030.79 797.74 801.65 418.08 879.83 188.70 396.69 656.38 472.70 867.44 589.69 620.55 844.42 612.93 547.07 207.80 242.78 346.16
960.96 1044.54 818.18 795.77 984.30 1041.34 303.82 362.39 903.54 591.52 953.54 865.71 906.06 271.02 1120.95 393.53 1015.59 706.44 947.15 950.88 724.44 255.45 593.50 328.43 715.31 270.41 419.42 908.49 517.99 1034.11 1161.82 787.49 1132.54 515.61 715.08 396.55 862.79 963.86 1050.60 493.76 606.46 557.23 801.42 1133.30 447.48 431.99 413.15 765.50 712.92 298.07 276.53 1039.71 1004.09 1025.87 428.87 800.69 983.81 1067.11 322.77 261.72 338.84 563.40 997.84 327.64 282.29 1071.61 379.77 1010.96 543.79 1066.01 1048.58 659.98 665.31 573.12 999.48 155.99 1266.57 984.67 410.41 718.35 1198.44 586.58 915.79 942.11 745.82 601.43 675.90 1319.54 424.57 803.92 309.07 674.33 803.65 279.76 133.48 925.23 981.51 479.17 1012.77 776.52 827.43 1004.97 1088.42 909.92 850.04 994.07 1084.08 764.41 435.11 650.53 731.24 835.96 215.89 935.30 957.55 475.92 692.54 728.67 800.92 552.98 742.20 408.18 987.38 653.07 763.22 863.73 1077.08 913.87 837.12 665.52 913.02 1047.25 934.40 311.54 245.20 222.06 882.65 861.30 0.00 898.75 187.82 825.14 242.81 986.89 218.50 285.11 888.65 318.18 515.80 380.22 834.33 917.38 642.07 329.14 487.49 1126.68 395.31 225.72 940.18 611.89 532.08 1061.51 1338.96 729.85 293.27 544.30 653.53 898.24 250.05 1200.22 1057.48 580.00 1084.95 309.92 803.57 1099.78 171.90 1331.22 980.66 577.90 894.50 848.08 326.28 199.63 294.75 439.32 975.02 221.43 1011.40 604.36 800.89 901.11 856.95 573.37 677.33 248.07 899.40 1020.73 1000.48 1013.25 1141.87
1222.44 226.72 1020.49 378.82 1070.08 631.64 632.28 689.39 244.43 585.50 506.82 1111.68 99.52 885.83 265.49 641.26 891.73 197.48 641.58 669.23 242.16 915.65 344.15 796.09 287.57 675.72 909.20 1098.69 550.29 198.20 623.28 730.03 622.13 990.77 237.58 539.09 1014.55 322.65 697.73 439.56 402.32 451.55 297.11 394.65 850.62 471.93 875.05 435.83 541.31 637.57 834.15 754.69 328.94 726.45 840.18 384.96 98.73 372.22 800.41 780.01 673.71 885.20 484.01 915.05 620.64 790.09 524.15 219.83 514.02 240.73 208.30 575.57 828.52 330.80 369.43 747.93 783.01 178.57 569.95 963.93 628.45 957.66 1188.87 675.66 242.69 382.79 471.76 816.79 587.98 1091.40 806.80 992.99 477.09 642.53 803.20 882.92 203.20 803.28 509.09 1060.02 331.52 154.22 508.02 387.15 108.77 828.27 270.40 995.34 682.62 636.81 878.17 422.67 782.67 127.75 350.94 538.22 410.96 656.72 1057.67 747.96 221.50 836.45 519.25 477.35 882.76 537.76 211.18 1163.28 1061.99 497.24 195.72 873.05 654.33 828.48 919.20 773.97 246.89 386.81 898.75 0.00 768.03 976.90 753.22 404.89 727.63 860.08 104.06 584.75 674.59 631.62 465.59 1108.52 553.75 630.93 464.66 551.40 532.69 673.03 321.99 547.55 571.49 337.22 786.63 259.24 610.51 743.10 762.95 179.09 894.59 575.81 311.53 916.65 522.05 588.83 931.81 755.79 841.62 715.81 755.36 922.54 9.42 531.83 793.94 911.77 685.97 932.16 124.27 923.76 409.29 349.18 918.97 735.29 1130.03 774.74 411.25 725.64 244.44 866.93 324.24 568.65 538.51
999.77 958.41 914.37 668.47 1041.89 1043.56 204.55 431.60 802.86 621.00 996.80 947.31 793.77 308.11 1017.35 287.73 1104.31 659.18 969.07 947.59 670.08 235.48 555.78 424.17 584.59 154.64 464.51 948.44 482.02 966.23 1151.51 825.27 1136.35 583.50 682.13 333.74 969.56 836.56 1072.52 484.03 667.11 636.76 723.23 1097.22 528.44 394.27 499.88 822.37 747.97 251.80 123.31 1078.64 887.46 1012.17 509.64 818.58 864.83 1056.35 386.09 357.81 276.01 674.50 1015.73 412.00 274.89 1094.74 384.55 948.71 427.50 1008.76 950.84 677.10 739.86 535.40 1011.11 181.23 1220.30 907.45 382.85 829.45 1183.81 684.54 1004.69 1005.50 646.55 503.81 717.92 1372.15 302.06 901.88 121.25 742.22 823.69 144.65 220.21 1036.44 963.42 592.28 1023.19 844.41 703.51 911.63 1175.20 927.81 798.30 1068.62 1012.86 859.31 464.59 688.31 851.95 856.29 183.95 885.87 853.49 384.43 743.00 742.84 887.65 627.53 634.16 514.95 1014.75 708.28 855.28 880.85 979.21 998.91 896.94 690.07 807.73 1116.46 956.32 377.34 233.65 342.77 781.53 887.00 187.82 768.03 0.00 931.91 363.52 978.31 102.73 353.00 795.15 304.48 553.58 366.04 864.77 958.27 694.48 258.30 481.77 1097.84 327.34 178.73 823.55 641.09 421.06 983.32 1342.77 654.20 157.52 631.15 691.60 850.98 331.01 1213.85 1019.31 645.13 1066.40 179.20 890.74 1102.53 181.79 1333.44 1024.81 647.74 777.45 810.19 426.32 199.99 131.99 486.28 892.30 319.39 1004.00 566.64 917.53 972.91 947.52 662.09 571.26 108.43 793.28 1088.29 962.31 934.97 1161.46
345.82 1127.20 116.76 1119.16 160.93 544.24 847.11 582.11 1106.32 442.93 640.06 265.40 967.63 632.51 1005.93 913.63 337.70 819.14 424.26 440.48 875.08 1019.23 803.45 513.84 986.55 842.78 494.87 136.85 659.32 1065.94 729.37 259.67 722.44 408.22 836.44 760.52 37.65 1193.64 527.71 722.35 619.40 640.10 1086.34 887.85 466.06 776.22 526.86 640.88 496.27 702.43 1024.33 537.37 1217.00 513.56 475.16 609.24 1017.95 844.54 609.02 589.22 956.92 320.00 663.91 592.17 702.32 451.71 755.66 917.16 962.75 952.68 1161.15 457.44 269.14 767.39 729.36 764.62 705.11 875.90 656.51 177.96 760.67 366.42 318.40 459.23 935.89 893.26 630.57 890.78 943.07 242.03 1008.94 288.91 563.64 888.77 717.80 281.18 1013.34 418.59 636.01 226.44 1040.64 1036.62 857.18 700.28 880.93 311.04 991.65 132.41 485.98 358.23 116.03 643.16 815.75 954.44 1198.03 806.65 681.42 353.94 257.88 357.88 928.74 416.96 606.22 539.27 120.18 521.92 1117.62 275.02 144.30 572.44 1057.61 351.22 411.51 589.31 997.32 603.08 1111.28 668.49 825.14 976.90 931.91 0.00 595.16 687.68 851.50 629.18 872.84 714.17 455.45 642.87 511.31 146.68 441.29 718.32 753.80 762.28 766.92 838.96 1183.88 485.36 1091.18 1229.95 928.73 793.22 873.33 392.15 321.76 937.24 609.61 864.33 802.76 357.15 689.61 877.10 85.88 564.91 750.12 834.12 392.49 363.04 969.15 445.07 511.69 994.10 884.01 538.89 1049.71 663.24 754.42 780.86 57.93 327.37 273.80 288.48 1036.14 930.69 1088.47 349.70 798.98 601.65 878.42
750.60 894.18 575.37 749.72 749.50 840.03 352.86 161.08 788.32 375.79 710.73 622.90 775.80 164.27 942.80 347.48 776.72 555.74 749.79 708.07 586.94 498.26 452.75 85.62 635.85 280.26 223.16 674.53 325.89 912.58 963.19 582.42 913.72 366.85 525.93 306.66 632.81 864.49 853.24 320.35 516.28 467.05 733.18 947.56 232.70 313.04 254.15 629.42 479.15 208.18 444.93 835.79 888.73 829.09 186.06 571.28 819.91 921.53 121.46 26.79 427.04 320.59 768.43 234.47 188.23 841.02 260.82 841.92 505.20 915.65 925.59 453.20 464.00 422.76 823.00 182.29 1050.01 800.66 224.00 475.54 979.62 381.99 700.09 752.51 634.92 482.48 501.56 1158.09 405.31 630.88 484.77 491.43 582.45 326.34 235.29 682.42 859.98 236.36 769.96 551.76 731.48 854.61 958.84 680.51 682.89 763.24 905.93 530.45 219.38 445.46 529.93 608.99 227.36 816.35 859.84 381.86 579.32 512.94 597.15 351.67 630.10 178.20 744.57 410.26 520.41 656.95 926.72 674.50 594.31 443.43 739.61 821.47 737.04 110.36 458.36 20.75 788.59 684.82 242.81 753.22 363.52 595.16 0.00 790.85 297.81 159.05 737.95 224.12 310.73 188.12 617.88 678.75 453.30 206.15 288.90 897.27 300.29 344.53 865.88 410.58 582.17 937.93 1120.14 569.15 327.94 301.49 430.87 747.54 141.37 1009.44 870.56 340.98 842.14 349.62 560.76 894.76 198.66 1129.91 779.35 335.09 743.80 605.27 83.47 442.44 361.93 255.68 824.66 196.44 857.59 420.14 578.14 670.97 641.25 356.33 648.96 384.46 788.33 777.92 833.92 772.56 951.09
974.20 487.48 798.15 704.33 725.96 293.91 773.76 659.63 649.32 503.65 133.76 923.19 488.95 904.22 318.25 799.01 548.80 404.31 288.92 305.14 443.41 1093.07 512.92 771.77 647.39 860.81 838.17 822.24 583.19 387.15 295.53 505.76 336.75 910.64 382.40 670.73 725.33 688.24 352.70 564.34 389.26 432.52 652.88 200.17 807.91 584.04 868.65 224.25 415.73 755.75 1028.84 402.03 716.89 353.39 800.44 219.57 434.64 156.86 873.32 785.02 893.21 754.42 94.12 928.71 746.30 437.43 607.12 261.43 751.28 284.17 517.34 482.35 701.92 532.89 41.68 830.90 463.49 226.32 686.43 807.63 292.28 845.76 963.68 362.54 555.04 535.52 356.27 480.62 840.48 923.42 1035.13 918.23 271.22 853.63 975.73 568.94 363.76 717.80 154.38 839.59 665.03 387.04 241.38 110.34 392.21 509.02 303.97 809.95 660.06 534.82 712.78 237.51 890.80 312.11 675.27 718.14 305.37 494.13 911.03 673.20 513.91 767.71 153.59 380.59 726.68 278.60 468.34 956.41 817.45 356.55 600.61 546.31 276.17 847.24 1112.99 799.96 639.16 128.45 986.89 404.89 978.31 687.68 790.85 0.00 891.33 932.99 324.59 730.22 607.03 665.32 299.31 832.07 474.27 776.40 595.79 223.65 664.33 817.53 705.21 472.79 832.87 644.50 494.78 376.16 820.79 661.42 654.61 249.56 927.12 236.66 115.08 848.30 223.17 817.21 707.54 381.55 939.78 467.98 432.73 842.41 401.69 343.93 769.62 1102.53 895.86 923.30 390.56 953.81 66.74 525.14 715.75 446.31 904.84 695.72 714.05 914.28 643.48 532.08 111.30 195.59 224.20
957.08 920.06 836.21 644.07 976.18 953.12 153.18 332.27 734.92 554.23 894.07 896.19 755.42 328.58 981.96 241.83 1016.31 556.45 889.55 877.76 597.58 291.84 481.16 369.62 525.41 51.91 426.67 923.88 379.29 913.29 1048.78 722.54 1033.62 564.98 599.26 246.66 884.10 789.90 997.91 396.42 583.26 534.03 666.75 1036.86 491.13 336.43 470.18 737.42 645.24 149.07 226.04 975.91 826.30 910.14 472.22 742.91 805.65 970.67 312.52 292.10 253.59 605.78 938.50 420.45 185.09 1003.79 284.21 875.94 393.72 968.36 889.68 574.37 637.13 477.56 908.38 115.52 1117.57 834.68 280.12 759.62 1081.08 624.96 931.12 902.77 595.18 466.78 639.66 1269.42 240.90 870.74 223.98 741.97 720.96 101.64 240.68 934.41 860.69 520.36 920.46 794.73 608.93 875.18 1081.86 852.14 700.05 965.89 956.37 814.53 420.89 585.58 786.24 756.21 81.22 827.37 792.33 317.35 640.64 640.11 840.12 524.80 617.07 434.54 912.02 606.25 767.23 778.12 938.81 934.76 816.26 589.73 747.42 1016.28 884.08 307.66 336.38 277.06 721.51 784.27 218.50 727.63 102.73 851.50 297.81 891.33 0.00 372.19 738.66 202.45 450.85 263.31 764.43 914.05 591.75 192.83 379.04 995.11 240.26 125.86 762.39 538.36 402.95 926.84 1240.04 606.40 140.43 541.51 625.35 748.25 351.48 1124.05 964.25 583.95 963.67 138.80 817.73 1000.50 202.26 1243.00 922.08 578.06 737.05 751.35 369.63 302.72 128.89 491.46 851.90 314.24 914.20 480.02 829.48 870.18 877.84 594.20 537.48 157.65 698.70 985.56 907.25 832.24 1071.66
725.27 1035.33 561.37 850.18 750.33 937.96 449.62 273.36 925.45 445.46 869.78 632.05 880.57 44.89 1017.31 483.84 838.16 714.79 828.05 789.19 745.99 419.67 611.80 163.02 774.20 424.10 134.31 632.02 390.38 1048.70 1080.57 614.16 1072.77 230.50 684.98 403.42 666.83 989.33 931.50 479.40 613.63 564.40 836.82 1048.86 232.91 455.72 177.82 736.01 593.74 304.94 476.31 900.76 1042.63 910.21 230.15 730.33 958.02 1007.99 59.67 168.28 544.59 378.97 927.48 84.42 305.78 873.04 403.50 972.61 601.96 1074.70 1042.35 522.87 482.64 581.81 951.03 264.53 1136.49 959.71 369.31 506.77 1096.52 345.63 654.94 833.63 751.15 625.16 650.75 1163.15 541.67 578.38 474.25 389.22 738.25 413.54 161.24 766.27 1005.24 290.68 885.20 491.41 865.87 987.49 1107.18 839.56 821.95 838.04 1054.18 506.31 289.05 505.77 590.75 759.73 314.18 946.85 992.95 499.41 639.23 582.61 560.79 437.37 710.02 237.32 903.62 569.31 571.52 726.62 1024.23 683.65 584.31 602.48 898.66 896.61 815.30 87.74 463.23 138.30 906.14 816.15 285.11 860.08 353.00 629.18 159.05 932.99 372.19 0.00 885.34 341.67 403.84 336.16 731.50 641.85 522.97 322.91 447.95 1008.69 409.82 409.17 1006.70 496.09 688.26 1083.24 1201.10 688.26 452.33 382.61 488.01 906.59 44.67 1146.62 970.95 304.62 1001.19 456.28 609.41 974.19 171.21 1204.25 813.70 298.73 869.50 708.46 164.59 478.17 445.57 216.03 983.71 63.68 981.22 579.19 580.59 717.59 631.41 395.94 745.72 398.89 928.95 859.04 913.95 876.63 1088.56
1118.38 300.81 940.19 440.45 974.03 527.58 590.60 674.12 331.96 481.44 453.49 1007.62 165.77 894.43 254.58 638.85 797.40 182.21 537.52 565.17 210.96 949.52 315.41 780.82 374.46 720.20 910.49 1009.69 535.02 246.33 585.01 642.30 562.66 937.36 225.02 558.66 910.49 409.54 593.67 424.29 376.27 425.50 392.57 366.72 835.35 456.66 866.98 387.16 485.78 657.14 862.88 650.63 433.00 638.37 829.55 392.32 185.62 397.37 847.75 764.74 735.83 781.14 410.86 918.25 648.06 686.03 508.88 208.43 592.99 287.98 312.36 471.51 724.46 315.53 335.80 732.66 692.53 182.97 554.68 859.87 616.87 912.85 1084.81 607.00 300.92 377.23 445.71 805.21 674.87 987.34 851.97 946.02 428.54 670.47 867.69 778.86 195.70 754.43 425.60 981.77 399.65 213.08 413.01 283.09 117.37 753.00 217.71 914.78 637.85 532.75 817.60 400.42 771.44 104.59 440.06 522.95 371.54 552.66 953.61 660.42 289.38 793.83 423.84 426.35 844.00 433.70 285.19 1059.22 978.64 393.18 299.78 768.99 550.27 836.25 956.85 747.04 333.78 291.36 888.65 104.06 795.15 872.84 737.95 324.59 738.66 885.34 0.00 621.93 584.82 616.35 361.53 1017.79 449.69 668.11 449.39 517.77 565.06 668.70 422.79 522.93 591.52 424.11 769.08 197.08 637.63 661.65 658.89 75.03 879.32 536.25 315.93 875.02 540.99 634.05 836.91 651.73 873.87 713.94 651.30 869.13 96.31 427.77 778.67 938.89 731.19 916.89 183.13 922.73 326.40 346.77 814.91 631.23 1025.97 729.82 498.14 748.32 321.57 767.40 317.10 503.62 483.86
881.89 777.82 680.56 599.56 829.88 818.48 199.00 200.55 621.48 409.31 748.88 794.71 623.43 347.55 846.01 199.46 826.26 439.72 697.88 693.99 435.08 423.57 326.78 279.00 494.82 220.81 402.91 777.51 219.95 733.86 952.28 616.50 935.77 521.15 468.68 84.16 731.44 692.54 795.46 237.09 425.85 376.62 624.87 834.41 363.56 165.27 380.96 545.54 461.47 54.32 365.07 798.99 723.37 707.69 312.75 564.82 683.48 768.22 288.76 207.65 290.49 468.42 761.97 403.40 35.89 834.44 123.10 749.31 306.13 799.29 765.62 390.60 521.19 306.40 771.90 196.40 989.73 717.95 122.71 623.37 971.14 544.25 816.33 711.10 494.92 314.94 480.32 1138.93 257.29 723.33 342.51 648.87 563.45 212.03 309.50 731.96 681.26 383.03 786.45 696.69 563.94 738.25 921.33 674.05 568.47 812.78 809.14 678.28 255.67 464.45 656.49 595.10 197.92 674.46 688.96 226.23 496.06 448.44 717.12 408.86 495.80 297.21 771.93 403.80 618.03 594.35 795.93 831.77 722.06 428.62 656.35 824.61 704.75 260.69 437.45 203.37 632.63 641.34 318.18 584.75 304.48 714.17 224.12 730.22 202.45 341.67 621.93 0.00 344.81 157.27 599.23 767.68 412.42 46.18 268.54 890.81 88.42 190.85 665.03 432.32 423.95 836.64 1142.19 463.13 245.69 347.87 482.68 615.91 324.65 966.88 821.88 518.74 867.54 237.46 668.53 798.05 271.08 1108.36 788.13 518.26 594.17 598.64 281.15 442.18 230.18 436.54 708.30 365.53 765.00 328.18 680.28 696.42 776.36 451.54 430.08 276.86 609.82 824.30 764.88 744.36 922.46
636.40 792.69 402.04 723.29 582.42 636.12 487.07 187.31 746.89 103.38 539.07 564.64 689.35 431.90 822.90 514.10 565.46 489.97 467.99 462.12 545.91 723.13 380.67 273.36 551.08 502.76 368.47 515.25 249.34 787.78 730.83 271.69 734.96 457.73 517.87 341.74 491.22 809.53 596.10 332.56 295.46 246.23 638.45 759.00 343.28 333.06 366.12 408.11 251.66 342.39 660.16 525.06 849.17 580.57 317.38 417.10 747.41 708.53 358.40 283.94 600.08 319.09 614.25 431.27 345.48 569.88 354.24 698.35 565.85 795.07 830.38 180.79 186.31 356.65 642.09 411.77 775.71 672.89 255.09 411.26 761.12 412.67 603.68 481.21 582.07 482.52 321.51 923.32 524.29 507.01 652.10 463.23 385.75 501.24 477.32 535.03 735.18 249.26 581.95 460.68 676.35 783.71 778.51 508.06 610.39 543.79 800.20 464.12 114.79 134.73 339.42 416.92 442.59 644.07 787.76 462.74 381.54 218.55 519.21 202.68 546.70 252.34 562.12 262.48 343.18 384.54 722.31 560.30 443.54 276.88 751.82 578.26 479.90 348.83 668.85 315.97 748.02 503.91 515.80 674.59 553.58 455.45 310.73 607.03 450.85 403.84 584.82 344.81 0.00 187.54 389.42 505.42 187.57 298.63 301.11 666.61 348.14 447.20 816.04 145.61 683.67 898.54 931.12 474.65 508.74 155.78 176.10 564.95 437.84 807.57 678.49 404.91 637.65 530.42 393.68 584.03 474.84 833.21 471.23 407.08 678.03 366.38 272.18 694.63 574.99 451.19 756.31 467.52 645.82 325.41 405.43 419.33 560.04 259.45 675.38 591.70 736.43 534.71 624.09 533.58 763.58
819.24 752.32 589.58 682.01 744.07 760.13 299.53 81.18 660.03 290.92 669.34 749.10 587.68 325.77 844.55 331.15 753.00 434.14 637.96 614.45 490.08 535.59 371.45 186.98 490.42 315.22 321.96 702.79 137.77 776.68 875.04 459.23 848.11 422.78 460.54 241.43 620.79 750.34 741.41 192.06 361.02 311.79 619.17 851.39 265.19 235.18 315.42 520.06 381.93 154.85 472.62 712.60 788.57 708.35 247.21 501.39 705.41 796.58 287.16 178.55 412.54 379.79 696.98 343.92 157.94 740.48 182.96 720.00 446.39 832.78 785.73 311.06 373.85 341.02 707.00 224.23 963.25 712.37 83.81 534.74 891.60 453.12 763.79 652.48 546.75 404.62 398.14 1049.34 388.98 677.72 464.56 550.50 524.65 313.70 320.05 711.51 738.38 313.60 712.22 598.32 588.05 752.87 855.42 610.62 577.74 731.33 834.06 589.65 157.58 322.27 526.96 539.10 255.05 705.06 761.66 322.80 447.10 406.09 685.63 315.34 507.23 253.48 692.39 391.92 530.72 514.81 771.62 743.14 631.08 380.79 611.32 765.80 625.21 260.92 537.98 205.29 682.85 614.93 380.22 631.62 366.04 642.87 188.12 665.32 263.31 336.16 616.35 157.27 187.54 0.00 519.69 692.96 332.88 111.09 223.51 814.48 240.17 259.66 737.59 275.05 519.86 797.74 1011.39 475.01 327.21 290.42 363.64 625.94 329.49 894.47 780.40 420.37 789.93 342.98 556.99 771.57 287.30 1020.75 658.77 426.26 622.20 523.53 184.83 507.09 387.45 363.84 737.05 307.86 717.96 343.53 592.97 606.87 730.75 355.08 587.35 404.16 660.04 722.25 757.03 658.50 875.42
773.79 615.89 620.60 661.08 612.50 254.45 696.75 494.23 671.32 286.04 206.54 646.09 527.30 712.25 563.41 628.68 444.60 361.06 184.72 203.64 410.98 926.68 436.93 601.99 605.38 726.38 653.13 648.16 455.13 596.56 399.87 293.80 409.53 681.31 349.97 543.83 548.96 748.86 313.67 443.59 274.04 282.99 635.51 443.67 626.06 507.03 636.74 129.57 207.84 628.85 917.14 296.83 750.73 304.49 616.12 114.93 547.15 398.40 686.06 611.22 725.66 525.09 232.17 727.25 619.40 333.23 480.22 478.44 730.95 511.07 671.81 208.63 461.74 400.87 268.58 704.00 504.59 457.13 507.85 598.22 408.24 656.80 723.28 245.47 497.02 526.74 216.60 596.58 686.51 683.48 926.02 683.30 67.01 744.67 783.28 417.33 543.96 535.95 202.49 639.69 626.51 574.61 424.47 188.97 455.47 391.47 556.33 558.52 442.45 270.03 456.07 131.85 733.50 466.12 719.86 602.92 226.35 216.44 649.75 391.85 470.66 585.86 172.70 207.62 494.53 72.17 606.31 697.69 632.01 174.70 655.23 407.46 197.47 677.46 975.77 634.56 665.67 203.00 834.33 465.59 864.77 511.31 617.88 299.31 764.43 731.50 361.53 599.23 389.42 519.69 0.00 657.99 230.45 630.78 461.14 359.47 537.43 690.63 748.13 244.73 781.96 718.64 607.99 391.03 707.25 442.29 396.17 436.56 689.35 441.78 377.25 618.97 314.52 726.08 495.58 327.51 757.93 544.33 289.77 613.08 457.84 66.24 599.84 975.63 768.96 735.48 544.66 761.55 319.10 400.98 453.38 269.70 664.44 461.25 669.98 815.64 683.10 422.29 338.20 222.18 447.59
199.14 1245.12 103.38 1225.21 229.22 690.92 959.55 645.31 1218.08 578.09 706.61 181.04 1080.48 686.62 1142.75 967.14 465.72 925.97 568.65 583.28 958.61 1021.42 886.09 614.04 1056.50 916.00 539.30 9.83 754.32 1169.83 827.19 382.66 777.72 411.35 897.60 840.10 165.67 1258.20 672.10 835.62 746.21 722.27 1143.87 1000.78 504.22 838.48 518.71 779.67 582.14 814.87 1042.16 652.39 1312.00 635.30 528.45 755.92 1140.94 962.40 632.92 685.96 1045.29 358.16 784.03 616.52 790.69 551.80 840.86 1063.84 1064.21 1072.80 1278.53 575.98 319.11 852.21 873.75 831.08 801.56 1022.58 741.71 203.21 843.62 370.97 199.95 581.13 1054.43 978.08 735.46 1006.25 1022.65 176.45 1067.70 275.53 710.32 965.73 798.38 409.20 1152.76 498.55 733.00 180.96 1153.49 1174.38 954.98 768.50 1003.92 457.72 1109.80 153.91 579.13 485.04 262.71 766.10 832.83 1067.29 1293.18 919.74 742.54 466.79 145.72 431.44 1035.57 529.40 724.56 651.03 225.76 635.54 1227.73 157.49 97.79 684.20 1169.37 479.24 555.90 634.97 1084.32 699.50 1175.01 796.51 917.38 1108.52 958.27 146.68 678.75 832.07 914.05 641.85 1017.79 767.68 505.42 692.96 657.99 0.00 568.10 804.05 804.17 848.88 846.50 945.22 1285.71 598.21 1171.14 1368.74 984.14 906.07 956.31 436.07 410.92 1064.29 686.52 954.86 947.15 358.68 776.21 974.27 180.88 685.90 812.94 980.80 505.45 364.57 1103.27 591.75 616.19 1032.26 968.08 508.45 1196.39 695.95 890.64 830.83 204.61 474.05 174.72 385.65 1154.68 1014.76 1183.47 496.38 932.38 644.78 978.10
724.86 750.50 490.50 677.87 535.78 448.55 539.98 322.74 665.03 84.19 358.26 622.80 609.69 567.33 656.26 584.83 484.17 377.85 305.08 321.30 433.79 835.99 393.38 393.46 576.29 614.31 466.32 567.15 274.47 680.49 592.12 261.53 561.25 487.67 400.52 412.47 478.94 755.34 408.53 361.88 178.11 220.97 650.72 591.68 465.26 354.96 449.93 268.38 70.85 466.74 767.82 418.19 793.57 399.35 437.63 259.00 630.06 548.37 477.53 468.84 639.85 331.45 451.57 550.40 448.31 443.82 407.18 531.71 624.50 644.49 733.25 21.82 274.77 357.32 477.41 528.69 640.85 490.45 359.48 462.62 573.55 463.16 679.34 319.60 500.27 470.54 189.28 761.89 595.02 595.47 754.93 496.33 215.36 581.75 597.42 430.61 627.89 354.99 417.49 549.14 643.30 651.17 620.76 368.23 493.04 423.99 629.12 514.20 233.92 83.06 374.40 236.76 587.93 554.28 762.41 505.93 265.25 102.97 600.73 233.59 487.45 389.90 392.10 97.98 412.86 225.57 732.47 648.76 532.00 131.15 616.32 479.14 292.33 468.93 804.28 446.97 687.85 345.82 642.07 553.75 694.48 441.29 453.30 474.27 591.75 522.97 449.69 412.42 187.57 332.88 230.45 568.10 0.00 443.97 330.43 525.24 418.87 592.54 742.59 73.24 700.04 840.40 767.67 357.30 587.01 226.84 209.20 510.13 557.94 657.37 498.33 425.33 489.67 583.43 387.22 479.77 620.18 696.84 408.77 419.44 546.00 212.45 391.31 792.00 642.60 558.25 632.82 586.65 458.25 348.41 435.93 290.34 621.53 302.99 600.52 653.26 665.04 462.65 522.33 375.58 604.61
918.83 775.36 700.67 589.00 783.70 785.26 188.44 173.30 667.66 402.01 780.43 829.05 669.61 367.80 873.37 220.06 864.09 485.90 744.06 725.54 481.26 424.50 372.96 285.44 541.00 222.52 377.39 812.37 227.16 780.04 939.06 570.32 889.59 533.65 479.64 130.34 729.98 730.40 841.64 263.17 408.81 400.42 671.05 853.61 376.28 211.45 403.84 564.07 493.02 43.76 381.61 823.69 769.55 753.87 339.33 590.78 729.66 812.74 263.24 218.61 301.45 479.38 786.37 377.88 46.85 851.57 169.28 748.82 340.78 845.47 719.44 422.15 484.94 352.58 788.32 175.55 1012.26 764.13 146.51 634.33 955.49 564.21 862.51 757.28 541.10 361.12 478.25 1133.96 277.89 769.51 353.47 607.23 572.84 202.61 333.17 778.14 727.44 342.68 812.41 709.41 610.12 784.23 935.53 700.01 614.65 842.42 855.32 687.32 268.67 433.36 615.22 614.93 208.88 720.64 735.14 240.48 522.14 494.62 763.30 426.43 506.76 329.23 803.48 449.98 628.99 625.90 842.11 842.73 742.17 474.80 682.43 858.16 736.30 279.97 426.89 214.33 647.21 659.87 329.14 630.93 258.30 718.32 206.15 776.40 192.83 322.91 668.11 46.18 298.63 111.09 630.78 804.05 443.97 0.00 294.62 889.80 134.60 148.57 711.21 386.14 454.75 849.80 1096.01 509.31 216.12 382.54 474.73 662.09 347.52 983.86 775.70 530.23 901.02 231.89 632.44 844.23 297.92 1075.14 769.86 534.90 640.35 613.11 283.29 396.00 276.36 447.50 754.48 372.89 775.96 371.58 681.15 717.96 822.54 466.17 476.26 293.07 647.37 833.34 718.70 769.59 933.42
915.76 605.28 703.15 520.40 866.21 715.59 308.06 301.70 499.42 339.69 617.48 818.07 496.29 453.17 653.90 316.35 725.14 267.18 635.05 628.68 298.04 586.84 163.85 374.52 346.95 346.91 512.06 814.00 136.40 624.02 791.02 572.80 753.46 644.59 237.03 193.24 791.45 575.59 690.73 31.45 227.38 178.15 444.28 679.93 488.70 118.34 506.18 386.42 378.59 279.03 555.56 670.13 599.83 629.96 437.97 421.61 531.01 639.06 410.36 315.69 363.94 488.37 618.76 523.37 265.05 751.56 145.44 586.67 294.07 626.75 661.20 352.25 487.42 133.86 579.98 369.22 816.44 545.41 161.84 643.32 819.36 620.08 858.56 650.03 368.94 218.90 296.82 940.46 374.18 746.69 569.43 707.46 424.57 370.83 494.10 761.04 571.42 426.67 643.24 744.50 467.90 565.71 748.39 513.68 393.99 754.42 617.03 698.23 326.62 395.57 640.53 433.84 402.13 538.10 570.94 175.50 290.42 433.40 780.42 503.79 341.20 467.10 630.38 309.70 644.29 505.35 637.82 851.72 744.65 286.44 450.71 795.96 622.30 399.26 648.30 309.65 522.24 467.34 487.49 464.66 481.77 753.80 288.90 595.79 379.04 447.95 449.39 268.54 301.11 223.51 461.14 804.17 330.43 294.62 0.00 747.60 199.64 355.85 576.98 332.89 464.71 704.37 959.88 280.25 355.09 456.89 477.21 458.98 430.27 798.10 602.02 582.25 748.89 351.51 694.79 720.32 487.56 948.78 685.93 576.36 455.24 517.72 372.37 640.85 428.58 544.58 535.76 485.34 630.50 131.24 706.54 620.77 799.72 510.57 411.76 448.58 499.43 793.08 545.02 634.17 739.75
1044.52 601.17 879.04 829.51 755.89 226.04 990.72 815.77 795.83 563.23 204.08 924.89 632.08 1053.58 450.21 937.24 515.60 602.39 370.97 362.44 620.59 1224.03 676.44 879.18 753.27 1038.44 946.05 858.71 689.61 495.38 71.88 546.08 115.93 959.05 559.58 876.16 724.63 814.69 287.14 730.05 520.22 569.45 824.08 325.21 913.42 807.69 931.53 404.54 491.49 846.04 1220.10 366.39 835.33 335.50 872.32 325.99 611.90 259.02 963.25 891.44 1022.44 830.65 188.17 1036.12 882.06 481.25 825.70 375.12 895.55 380.26 657.09 503.42 722.99 712.50 181.97 988.12 291.62 416.38 813.14 840.81 170.33 903.06 1002.08 410.01 644.91 759.17 496.57 358.67 995.07 958.64 1188.68 988.86 404.08 1025.84 1083.14 605.32 480.09 789.68 156.98 917.80 822.71 543.73 243.31 302.30 564.21 524.50 469.72 849.89 719.64 575.59 752.06 363.70 1027.21 472.92 822.27 849.10 477.90 491.77 988.27 705.82 686.04 875.50 186.77 487.01 778.83 299.67 609.89 976.49 874.75 520.18 747.12 444.78 381.48 954.65 1229.17 918.02 779.45 320.15 1126.68 551.40 1097.84 762.28 897.27 223.65 995.11 1008.69 517.77 890.81 666.61 814.48 359.47 848.88 525.24 889.80 747.60 0.00 869.76 982.57 842.20 588.06 993.02 787.45 322.35 567.86 987.05 737.18 701.73 449.29 1038.64 140.96 290.64 896.71 72.67 1008.73 747.86 300.74 1095.93 330.21 481.19 890.82 541.98 422.09 877.03 1267.57 1090.84 1028.81 530.85 1072.37 232.49 705.43 763.66 527.95 943.24 772.65 891.23 1119.82 780.72 488.33 251.59 204.10 173.89
945.99 699.65 750.18 554.65 892.40 789.69 173.98 217.01 533.06 442.72 711.57 848.30 535.01 435.97 798.18 178.76 865.29 383.88 712.30 690.82 357.32 487.66 258.81 329.15 406.40 258.34 483.31 836.67 203.72 711.55 886.39 619.83 873.89 585.22 418.33 6.40 801.31 623.37 782.64 171.20 349.54 331.80 536.45 861.23 433.85 109.43 451.25 526.95 464.79 104.88 379.71 809.88 645.61 769.71 383.04 543.77 612.58 803.06 369.16 286.27 261.88 526.62 740.92 483.80 124.31 837.76 57.21 688.40 217.71 743.45 691.05 402.94 534.45 250.56 706.01 239.32 956.19 662.11 156.36 681.57 910.80 575.16 888.79 738.47 406.50 226.52 418.98 1094.11 176.15 811.75 407.67 703.97 497.56 208.61 379.72 820.38 658.95 441.20 736.99 744.93 475.52 668.07 876.26 653.00 490.71 834.23 761.52 736.48 313.14 482.87 687.56 529.21 252.06 612.74 611.20 153.67 430.17 512.13 790.32 487.24 436.16 355.38 710.13 395.90 653.27 601.97 725.03 886.87 791.68 362.73 570.12 888.30 699.55 341.09 448.66 291.79 544.21 607.09 395.31 532.69 327.34 766.92 300.29 664.33 240.26 409.82 565.06 88.42 348.14 240.17 537.43 846.50 418.87 134.60 199.64 869.76 0.00 237.37 623.89 425.99 335.53 770.79 1080.31 407.29 169.82 426.25 501.07 575.68 413.07 900.99 758.02 534.15 803.94 191.50 703.77 829.63 341.30 1079.57 800.47 528.26 523.27 553.42 327.00 471.08 231.53 506.01 638.12 434.01 731.07 239.76 708.99 700.58 829.95 510.64 352.32 278.21 521.40 872.89 726.32 672.51 879.50
1022.16 844.98 841.84 570.05 932.27 933.83 78.10 321.87 694.40 550.58 864.77 958.17 680.34 364.28 923.28 167.81 1012.66 537.08 875.35 859.96 574.07 313.88 424.14 378.29 489.59 73.95 514.96 942.73 323.32 864.75 1039.59 718.89 1038.16 638.52 579.89 231.69 876.61 738.14 935.84 324.40 534.23 485.00 618.22 1002.18 480.93 262.63 498.33 680.15 615.12 136.53 271.90 963.08 778.37 893.90 430.12 686.94 769.83 956.26 400.81 317.92 183.71 588.83 882.53 468.17 156.30 976.15 210.41 841.60 318.64 896.65 855.84 570.72 633.51 403.76 859.21 220.30 1105.03 815.31 267.58 743.78 1064.00 654.80 995.56 890.23 520.10 413.84 583.69 1247.31 207.06 893.46 265.41 755.80 650.76 54.04 276.38 922.81 812.15 454.01 893.12 814.06 613.54 821.66 1040.97 796.17 671.85 953.83 886.41 798.65 417.24 581.93 763.79 682.41 165.70 765.94 744.40 294.46 583.37 627.57 869.96 575.00 544.19 422.00 863.33 549.10 738.44 755.17 874.46 952.18 860.78 515.93 712.73 1003.74 868.69 372.74 353.73 323.78 663.81 760.29 225.72 673.03 178.73 838.96 344.53 817.53 125.86 409.17 668.70 190.85 447.20 259.66 690.63 945.22 592.54 148.57 355.85 982.57 237.37 0.00 714.46 534.71 348.35 878.31 1244.58 560.49 67.55 531.11 623.30 728.88 387.18 1054.19 911.22 613.79 996.18 84.20 781.01 982.83 237.96 1223.71 918.43 607.90 682.45 722.56 376.14 285.00 155.62 542.45 797.30 375.56 884.27 435.00 800.69 820.18 941.92 584.12 462.40 157.34 686.62 981.91 867.27 905.18 1032.70
1420.20 241.03 1190.29 195.60 1211.35 947.24 636.36 818.77 90.83 776.35 812.88 1332.15 257.02 1012.58 488.21 562.73 1167.44 387.07 907.56 949.28 385.94 971.17 437.03 902.06 294.13 731.24 1059.55 1275.88 656.85 368.58 856.95 996.61 906.42 1130.37 426.40 630.29 1202.06 27.51 978.15 545.53 582.52 631.75 177.59 616.76 992.91 598.54 1030.71 620.23 713.50 719.35 866.58 944.22 63.91 964.71 977.27 698.78 332.84 676.88 953.79 872.68 607.22 1009.64 756.19 1059.00 700.92 1040.87 639.23 467.08 516.62 533.64 195.12 743.58 1002.35 473.09 684.05 823.02 1076.69 478.89 675.92 1154.78 950.44 1136.44 1372.64 949.02 265.13 441.82 622.16 1117.02 521.49 1260.77 826.27 1206.92 719.97 698.05 950.71 1109.56 397.93 944.30 805.41 1266.31 192.82 348.24 733.80 705.88 390.56 1122.62 480.94 1167.53 787.43 825.65 1093.74 695.54 763.12 393.10 29.94 517.43 629.41 845.56 1290.29 932.68 306.26 940.91 779.04 644.61 1120.30 820.30 287.91 1348.55 1231.79 674.67 126.27 1138.61 920.31 925.72 938.67 868.40 110.70 708.80 940.18 321.99 823.55 1183.88 865.88 705.21 762.39 1006.70 422.79 665.03 816.04 737.59 748.13 1285.71 742.59 711.21 576.98 842.20 623.89 714.46 0.00 761.48 505.53 189.53 1079.54 468.47 666.03 953.99 951.79 472.22 989.68 842.42 600.67 1095.43 788.05 644.35 1129.81 993.66 912.29 1037.80 1020.92 1089.54 331.41 814.37 899.91 923.01 741.49 1074.45 378.19 1030.56 674.64 490.63 1163.39 1017.83 1313.80 959.74 372.86 774.80 132.68 1136.88 614.43 858.82 792.72
713.56 761.89 510.26 676.46 564.23 499.18 534.92 249.50 683.92 50.63 404.52 643.45 597.25 494.09 729.50 561.41 530.76 376.44 367.38 388.03 432.38 793.94 390.35 361.64 510.06 590.27 475.40 608.04 328.76 718.88 644.60 303.15 607.51 510.09 419.25 432.39 522.26 774.23 481.77 315.34 203.97 154.74 650.89 629.50 436.61 345.20 436.17 314.64 117.11 429.90 694.58 480.49 798.40 472.59 401.67 277.89 646.28 605.63 450.65 409.03 625.01 395.48 475.04 518.58 432.99 490.08 368.78 604.95 604.90 717.73 755.85 84.64 294.53 354.29 513.31 499.28 695.07 563.69 337.23 429.06 646.79 476.98 648.86 392.84 527.17 480.16 208.17 835.13 602.14 606.66 734.89 445.44 261.62 548.19 565.60 436.46 666.28 319.03 447.22 512.47 635.33 695.17 665.45 362.45 518.90 493.26 702.36 483.97 207.04 143.68 414.41 306.58 530.10 575.17 736.99 448.80 290.05 131.42 600.36 200.41 486.04 363.02 417.43 116.87 413.19 288.39 703.03 637.46 546.90 132.46 635.21 507.59 365.57 437.11 731.04 389.83 706.74 391.43 611.89 547.55 641.09 485.36 410.58 472.79 538.36 496.09 522.93 432.32 145.61 275.05 244.73 598.21 73.24 386.14 332.89 588.06 425.99 534.71 761.48 0.00 626.80 859.29 813.93 383.16 581.95 230.84 269.07 568.24 516.99 686.51 568.15 435.97 535.93 578.37 447.84 503.39 562.35 770.08 391.56 441.86 556.97 258.71 359.49 782.14 626.70 538.50 671.82 543.68 531.49 358.74 455.77 363.58 627.20 269.81 633.86 580.02 683.93 524.08 567.06 438.40 657.70
1245.06 662.24 1074.38 406.67 1191.03 991.20 307.60 552.54 438.70 677.43 862.90 1183.83 546.59 643.37 803.40 234.69 1147.35 519.56 946.10 930.70 463.62 550.51 441.37 604.69 283.92 351.04 745.86 1161.31 453.38 713.68 1061.92 929.95 1048.45 885.92 524.63 341.93 1124.36 507.65 1008.74 481.57 589.78 627.40 373.64 908.49 751.77 373.10 773.34 715.43 651.70 438.11 475.38 1053.63 531.01 1023.96 705.13 667.03 564.16 880.81 660.76 586.98 193.24 828.79 864.18 742.12 447.84 1024.67 392.74 737.59 202.59 810.78 606.32 706.03 869.98 423.22 856.39 484.11 1223.61 696.33 436.05 974.55 1114.35 901.06 1212.34 957.73 392.28 297.35 659.22 1261.36 228.66 1131.47 444.91 1002.78 759.16 317.85 555.47 1063.26 706.17 672.59 888.66 1070.83 312.71 657.19 1004.53 776.26 474.15 1083.89 809.23 1017.23 606.58 770.48 1014.29 704.74 484.17 680.40 520.97 322.66 682.53 758.22 1116.22 813.90 433.41 690.91 885.13 682.56 988.80 836.60 677.91 1168.96 1090.56 649.39 451.20 1134.39 939.43 632.69 487.61 599.53 425.29 748.62 532.08 571.49 421.06 1091.18 582.17 832.87 402.95 688.26 591.52 423.95 683.67 519.86 781.96 1171.14 700.04 454.75 464.71 993.02 335.53 348.35 505.53 626.80 0.00 633.73 1254.87 538.53 285.83 761.78 833.59 616.80 666.27 1004.89 829.29 860.05 994.31 264.15 1026.82 1078.05 517.05 1236.38 1018.36 854.16 562.07 793.30 602.54 574.85 361.29 781.55 627.24 654.65 880.15 454.46 1044.52 950.24 1165.48 802.70 303.00 360.82 402.48 1122.55 786.77 924.73 1037.61
1492.43 186.28 1275.96 374.77 1310.44 878.03 825.89 869.09 280.36 857.36 778.26 1364.73 323.47 1094.84 378.37 752.26 1142.86 500.59 882.98 921.68 470.67 1084.07 566.68 981.23 415.71 889.21 1112.23 1366.80 812.87 328.66 829.88 1012.44 868.10 1201.13 531.68 764.39 1267.60 217.04 944.12 706.16 708.39 757.62 260.09 519.84 1062.23 728.19 1068.72 589.07 786.60 844.98 949.08 978.96 193.53 964.32 1035.12 667.62 258.28 586.03 1023.57 964.72 796.75 1106.67 706.20 1113.08 850.90 1031.49 780.41 412.33 619.23 437.78 130.36 849.65 1060.23 602.74 629.25 905.52 1011.77 418.18 713.93 1235.79 880.81 1226.52 1441.92 958.32 432.12 570.02 721.09 1007.18 711.02 1380.93 908.77 1304.73 734.38 864.59 1033.21 1135.97 321.10 1057.11 765.49 1334.60 321.02 257.46 674.89 686.34 393.46 1110.11 341.50 1240.63 884.46 921.36 1160.83 641.62 845.62 397.10 159.59 700.24 685.85 929.20 1368.39 1017.41 390.99 971.29 758.86 742.42 1199.29 773.48 216.32 1416.33 1317.46 775.59 311.22 1126.10 895.73 995.50 1021.17 958.68 293.51 645.59 1061.51 337.22 983.32 1229.95 937.93 644.50 926.84 1083.24 424.11 836.64 898.54 797.74 718.64 1368.74 840.40 849.80 704.37 787.45 770.79 878.31 189.53 859.29 633.73 0.00 983.68 542.87 825.80 1032.29 1047.50 447.19 1079.30 754.15 551.14 1185.51 821.20 821.10 1214.22 1002.18 994.79 1012.16 1008.41 1179.62 327.80 784.88 979.08 1047.03 880.49 1158.09 287.41 1105.60 578.73 573.13 1172.02 988.34 1383.08 1057.55 475.47 921.97 270.70 1140.93 566.67 806.52 695.80
1181.12 881.42 1003.75 1143.55 860.99 384.62 1233.00 1063.43 1031.06 838.97 409.41 1062.46 886.15 1245.99 615.85 1154.67 598.99 858.65 527.93 502.39 875.15 1441.46 881.77 1129.14 1050.29 1269.11 1166.85 974.31 951.46 710.96 255.89 703.01 206.42 1158.14 815.84 1086.71 895.92 1084.61 428.80 939.35 737.65 781.73 1083.74 544.59 1083.63 1043.28 1144.43 648.61 696.82 1139.77 1456.45 414.82 1106.43 470.67 1093.12 587.84 815.90 534.92 1231.91 1146.93 1251.65 1003.11 437.27 1264.15 1142.86 520.59 1047.45 658.68 1205.84 545.90 900.84 761.56 913.87 917.83 504.32 1235.62 235.38 676.80 1035.64 965.96 202.50 1043.01 1139.65 555.03 941.93 990.08 732.39 37.95 1212.50 1093.10 1449.48 1051.12 662.22 1278.73 1330.62 659.31 751.19 1010.48 417.12 1044.12 1072.97 799.38 398.53 485.99 820.47 617.69 642.18 990.30 995.38 796.39 893.82 575.45 1248.52 729.18 1066.02 1066.53 680.38 712.57 1059.37 926.62 954.83 1096.30 435.29 748.86 913.82 557.81 838.66 1105.02 1014.70 750.57 982.35 582.35 531.36 1204.61 1504.36 1140.89 1024.33 597.29 1338.96 786.63 1342.77 928.73 1120.14 494.78 1240.04 1201.10 769.08 1142.19 931.12 1011.39 607.99 984.14 767.67 1096.01 959.88 322.35 1080.31 1244.58 1079.54 813.93 1254.87 983.68 0.00 845.00 1248.90 942.51 827.57 744.34 1245.77 375.31 564.85 1084.02 293.47 1270.58 863.32 427.06 1298.69 117.30 561.76 1089.91 796.05 637.61 1126.99 1492.01 1308.27 1199.02 777.58 1264.78 500.53 937.03 888.60 667.90 1080.81 955.89 1124.01 1354.95 1001.52 579.03 507.85 407.80 368.63
1005.44 417.03 838.64 381.42 872.09 595.67 487.58 515.32 378.57 373.02 466.43 959.11 252.39 733.15 446.81 480.05 785.60 81.40 540.93 542.05 104.23 814.52 192.79 627.46 308.21 585.20 762.16 915.90 391.21 402.30 639.74 570.46 638.58 822.35 43.22 413.69 830.12 442.11 605.87 282.95 179.19 228.42 348.76 486.12 676.55 297.86 737.35 261.46 360.25 498.71 737.62 654.04 510.26 635.69 670.75 279.24 297.42 441.56 650.67 589.62 570.91 688.75 470.28 765.31 476.01 670.11 350.08 378.13 475.24 427.82 440.62 362.09 622.91 156.73 385.89 573.86 775.32 344.38 413.34 751.45 668.44 817.17 972.72 569.94 204.27 270.50 248.63 822.77 485.18 929.05 707.32 805.23 371.37 535.47 731.48 726.38 349.70 608.92 450.75 873.35 339.76 333.17 572.22 359.01 160.40 747.26 414.79 806.36 479.41 440.36 731.70 316.95 633.76 258.59 497.95 344.03 259.14 439.28 922.63 583.57 183.91 635.39 440.75 291.36 735.58 395.78 442.98 929.34 870.22 278.53 375.57 760.92 553.68 673.19 819.72 549.96 358.92 247.71 729.85 259.24 654.20 793.22 569.15 376.16 606.40 688.26 197.08 463.13 474.65 475.01 391.03 906.07 357.30 509.31 280.25 567.86 407.29 560.49 468.47 383.16 538.53 542.87 845.00 0.00 496.68 553.23 531.10 272.11 710.52 612.82 408.21 782.63 574.40 518.36 744.52 656.89 727.87 754.97 659.11 776.74 249.82 457.27 625.31 797.94 589.44 758.09 354.51 725.65 436.41 187.97 778.16 647.64 949.59 606.49 374.87 628.10 381.73 717.37 351.21 490.49 593.87
1034.14 801.35 882.13 542.75 976.19 959.51 47.03 340.20 663.33 536.35 856.93 950.84 636.71 431.83 876.00 140.51 1029.76 511.20 848.80 860.64 512.56 317.84 398.26 378.67 427.07 88.52 523.91 946.48 373.54 808.71 1055.95 780.43 1042.48 659.90 524.61 176.22 884.99 693.54 952.25 341.02 519.36 501.62 565.71 939.70 527.91 236.75 549.38 692.48 634.61 191.37 254.90 946.86 729.94 939.53 481.27 661.06 707.31 898.83 409.76 301.15 161.46 644.65 858.21 508.83 223.43 997.31 227.03 830.34 287.57 851.24 793.32 572.76 695.05 377.88 862.47 205.05 1126.01 789.08 322.42 799.60 1080.62 669.44 1011.05 906.61 489.03 346.29 588.80 1263.93 144.54 918.33 239.65 798.25 667.38 38.79 343.93 977.65 813.71 521.56 882.69 839.21 545.99 754.11 1025.80 770.29 640.78 1004.05 855.34 854.51 436.33 629.40 821.89 698.77 203.21 738.26 695.97 226.91 599.99 673.50 884.60 610.43 476.64 473.41 879.16 565.72 803.49 771.79 821.69 1002.44 898.16 532.55 650.21 1025.06 836.05 384.72 352.05 340.81 624.01 738.84 293.27 610.51 157.52 873.33 327.94 820.79 140.43 452.33 637.63 245.69 508.74 327.21 707.25 956.31 587.01 216.12 355.09 987.05 169.82 67.55 666.03 581.95 285.83 825.80 1248.90 496.68 0.00 549.44 663.34 703.00 415.14 1057.45 861.79 628.43 973.76 21.68 787.45 999.45 305.51 1236.36 910.86 622.54 619.93 723.24 378.68 301.26 106.72 530.04 734.78 443.11 887.53 409.12 836.16 870.40 954.90 610.30 431.33 142.09 635.76 1025.87 804.79 842.33 1007.56
567.05 881.55 332.69 874.32 506.85 636.25 546.87 209.24 863.16 180.21 533.10 494.18 805.62 394.98 883.10 547.33 544.66 589.52 505.52 521.31 610.17 753.68 533.34 220.17 706.86 549.11 284.52 435.68 374.54 907.33 776.84 337.94 736.09 323.25 596.45 432.03 383.57 953.47 570.16 461.73 374.04 374.60 791.12 818.52 251.89 450.70 279.00 443.22 245.69 402.19 712.94 574.29 998.66 587.53 210.79 475.60 825.99 773.33 322.94 295.55 638.36 172.46 626.41 377.11 383.76 580.52 430.99 758.55 643.96 871.33 907.21 248.66 173.32 509.32 658.40 472.13 833.08 717.29 337.09 327.41 800.39 263.94 509.44 451.02 727.11 635.19 398.34 918.43 597.41 445.68 690.38 343.32 390.20 559.90 424.13 522.04 854.73 128.15 592.33 442.37 780.36 874.73 795.60 583.69 688.97 502.08 855.96 382.32 166.56 172.26 315.26 463.60 522.08 765.34 940.43 574.10 481.11 256.08 411.95 60.99 687.41 213.97 566.94 314.58 296.86 452.41 878.09 490.95 374.19 347.75 832.92 519.98 518.27 295.64 690.78 322.24 885.14 539.02 544.30 743.10 631.15 392.15 301.49 661.42 541.51 382.61 661.65 347.87 155.78 290.42 442.29 436.07 226.84 382.54 456.89 737.18 426.25 531.11 953.99 230.84 761.78 1032.29 942.51 553.23 549.44 0.00 161.54 720.73 384.65 832.21 725.17 249.13 664.51 571.12 347.36 641.40 462.55 870.74 537.48 255.02 752.52 387.29 218.02 743.93 578.05 367.28 844.78 444.57 685.09 478.08 359.11 476.62 498.71 103.67 756.03 624.73 870.13 476.43 726.94 560.30 831.45
541.72 948.13 307.54 887.07 441.31 553.10 663.17 323.14 874.23 219.19 567.46 444.03 783.49 472.23 865.46 667.03 452.48 587.05 418.74 377.02 635.33 830.52 556.77 375.44 727.18 677.26 354.66 420.75 412.31 889.69 723.75 176.40 711.56 331.76 574.32 494.67 350.11 964.54 519.13 490.26 387.31 422.33 814.55 789.97 256.06 509.16 316.86 458.43 280.05 518.49 802.25 412.75 1002.77 478.59 270.70 461.16 828.52 747.67 428.34 416.98 762.95 175.54 628.34 451.96 511.30 468.61 496.69 740.91 718.78 853.69 942.45 231.02 91.81 532.75 634.14 587.87 694.16 699.65 397.54 316.76 767.22 307.25 484.52 420.62 709.47 658.62 398.48 865.52 677.22 412.51 812.85 287.13 383.39 677.34 570.06 440.24 837.09 243.49 590.31 366.18 852.45 860.37 812.29 570.39 691.50 448.50 838.32 356.00 227.01 126.14 205.73 423.45 618.69 763.48 963.86 636.53 474.45 209.96 391.53 100.55 696.65 305.76 568.87 307.18 244.19 424.95 898.41 465.80 349.04 340.35 825.52 482.97 405.99 400.27 804.68 431.47 890.02 532.51 653.53 762.95 691.60 321.76 430.87 654.61 625.35 488.01 658.89 482.68 176.10 363.64 396.17 410.92 209.20 474.73 477.21 701.73 501.07 623.30 951.79 269.07 833.59 1047.50 827.57 531.10 663.34 161.54 0.00 719.33 453.49 837.95 685.02 269.42 629.06 685.02 252.57 502.48 598.55 824.62 375.94 263.53 755.20 360.16 373.29 846.28 712.86 371.45 842.02 512.76 667.45 501.51 275.38 330.89 425.68 128.32 809.72 759.54 874.24 439.42 703.76 518.38 797.22
1134.96 292.61 966.99 465.73 975.52 495.49 655.97 683.71 406.99 556.47 383.32 1082.65 240.80 911.81 257.95 648.44 764.02 191.80 538.48 554.70 247.74 1005.88 356.76 790.41 434.56 785.57 930.55 1071.80 544.61 222.83 521.17 717.33 543.50 997.80 234.61 582.08 950.28 484.57 561.58 433.88 451.30 500.53 448.11 291.69 844.94 466.25 905.74 347.17 535.63 667.10 906.01 635.84 487.43 596.59 839.14 347.87 257.19 322.34 869.00 774.33 745.42 841.58 343.68 927.84 651.80 650.29 518.47 133.40 629.77 230.12 316.83 488.31 751.26 325.12 267.32 742.25 713.05 107.94 564.27 934.90 541.84 973.29 1102.24 612.10 326.20 414.01 398.63 730.18 691.90 1062.37 898.71 1006.46 440.00 735.84 899.87 781.38 170.23 800.31 350.57 1025.63 415.47 218.76 437.39 358.12 142.65 700.56 244.46 989.66 677.53 593.19 841.08 343.30 802.15 79.12 442.28 532.54 420.71 597.50 1028.64 735.45 301.40 817.29 380.36 471.67 879.54 475.16 300.03 1058.86 1008.49 468.21 374.81 780.28 525.73 845.84 990.05 768.29 408.81 319.44 898.24 179.09 850.98 937.24 747.54 249.56 748.25 906.59 75.03 615.91 564.95 625.94 436.56 1064.29 510.13 662.09 458.98 449.29 575.68 728.88 472.22 568.24 616.80 447.19 744.34 272.11 703.00 720.73 719.33 0.00 888.91 486.22 240.90 935.46 472.73 699.42 897.35 619.64 886.99 638.91 682.29 929.57 171.34 502.80 788.26 1004.26 757.83 926.48 213.04 933.80 316.30 356.36 889.94 695.87 1101.00 769.06 544.24 796.49 396.60 739.22 242.07 438.79 467.65
714.56 1035.55 598.27 891.09 770.54 939.42 462.17 267.49 929.69 480.43 852.10 616.30 882.03 22.90 1061.98 488.85 808.67 697.11 825.26 783.54 728.31 428.19 594.12 164.48 777.22 403.39 178.98 676.69 432.79 1053.95 1089.22 629.89 1055.09 275.17 667.30 408.81 647.26 1005.86 907.03 461.72 656.04 606.81 871.32 1083.83 197.43 454.41 222.49 770.79 620.52 349.55 454.32 866.24 1030.10 873.02 185.48 712.65 936.98 1042.96 104.34 168.16 550.45 343.49 909.80 101.61 329.60 828.37 402.19 983.29 630.78 1057.02 1066.96 557.84 454.37 564.13 957.93 250.90 1091.82 942.03 365.37 498.44 1097.59 371.69 693.49 812.06 776.29 623.85 642.93 1207.82 546.68 609.96 452.26 433.89 723.82 417.16 116.57 802.07 1001.35 268.12 891.84 530.56 872.85 995.98 1100.21 821.88 799.96 802.56 1047.30 550.98 324.02 540.27 581.77 750.36 298.39 957.72 1001.21 523.23 683.90 611.91 605.46 397.86 754.69 192.65 862.05 551.63 543.31 761.52 1066.64 667.90 611.73 584.80 880.98 866.24 812.51 122.24 444.07 162.12 929.96 820.53 250.05 894.59 331.01 609.61 141.37 927.12 351.48 44.67 879.32 324.65 437.84 329.49 689.35 686.52 557.94 347.52 430.27 1038.64 413.07 387.18 989.68 516.99 666.27 1079.30 1245.77 710.52 415.14 384.65 453.49 888.91 0.00 1131.13 1005.92 349.29 983.51 436.82 593.81 952.20 149.22 1229.30 807.99 343.40 885.17 743.43 166.63 449.68 461.24 201.07 966.03 72.20 993.86 561.51 602.71 672.92 634.65 398.23 754.73 439.44 929.70 831.46 948.92 911.53 1092.46
1139.55 601.39 945.22 853.82 858.31 320.09 1010.42 896.29 760.24 704.19 299.11 1053.52 623.45 1140.88 446.94 998.13 619.11 640.97 479.17 481.69 653.98 1326.64 674.00 1006.02 822.65 1096.41 1074.83 945.03 756.70 542.05 134.96 682.31 184.43 1062.57 605.62 907.39 865.59 814.91 350.22 766.65 625.92 642.99 840.58 234.31 1044.57 820.70 1033.19 460.91 586.52 974.98 1265.50 442.82 839.96 398.58 1013.28 445.58 621.11 203.59 1104.21 1011.03 1095.11 966.87 293.55 1162.96 938.96 573.34 843.78 423.30 973.95 376.99 657.31 641.14 841.78 710.06 260.37 1067.56 354.70 417.99 880.23 959.96 233.41 1022.31 1088.28 512.47 714.29 772.18 557.49 370.38 1055.96 1050.23 1245.58 1066.64 489.56 1074.47 1205.83 670.36 528.27 930.64 297.94 1003.83 857.33 510.11 168.52 347.00 530.74 589.54 412.65 905.05 860.60 711.81 858.42 474.17 1100.99 491.39 822.49 908.37 507.68 632.73 1049.66 833.63 702.75 1004.37 316.25 599.18 896.88 440.63 616.31 1076.87 983.05 593.21 759.16 585.74 466.42 1081.49 1315.44 1008.32 805.79 365.11 1200.22 575.81 1213.85 864.33 1009.44 236.66 1124.05 1146.62 536.25 966.88 807.57 894.47 441.78 954.86 657.37 983.86 798.10 140.96 900.99 1054.19 842.42 686.51 1004.89 754.15 375.31 612.82 1057.45 832.21 837.95 486.22 1131.13 0.00 285.03 1000.23 213.63 1053.87 884.09 396.11 1176.44 258.01 561.67 994.34 585.23 508.02 1003.87 1339.19 1132.52 1142.01 540.06 1121.48 209.85 729.26 854.21 612.73 1071.87 903.03 912.27 1150.94 793.44 550.88 297.63 345.06 58.35
1089.28 400.27 913.23 690.35 841.04 408.99 865.85 774.71 555.96 582.52 248.84 1023.34 395.59 1015.84 263.14 757.50 663.88 407.80 404.00 420.22 426.00 1167.40 559.90 841.44 575.66 927.47 953.25 937.32 662.90 272.07 343.72 620.84 358.43 970.16 364.99 764.42 840.41 573.16 467.78 633.47 485.33 527.59 587.74 104.95 901.34 676.13 948.26 336.88 492.77 819.46 1069.40 508.11 623.53 468.47 889.01 299.28 379.22 81.44 925.51 864.73 854.48 813.94 209.20 998.38 797.78 552.51 700.81 174.22 755.18 193.19 423.98 520.15 750.59 535.00 108.67 901.49 507.18 132.96 763.86 922.71 407.36 945.65 1078.76 477.62 526.60 592.27 415.89 578.41 815.33 993.29 1029.09 972.15 359.20 900.58 973.81 684.02 270.40 832.88 269.46 954.67 628.12 293.68 196.49 225.42 369.62 624.10 247.88 925.03 681.90 558.88 792.49 261.57 959.81 218.75 581.91 742.42 392.28 541.99 1026.11 731.92 505.68 837.88 268.67 460.30 830.95 393.43 361.27 1071.49 932.53 471.63 507.25 661.39 391.25 916.91 1141.49 891.31 551.62 243.53 1057.48 311.53 1019.31 802.76 870.56 115.08 964.25 970.95 315.93 821.88 678.49 780.40 377.25 947.15 498.33 775.70 602.02 290.64 758.02 911.22 600.67 568.15 829.29 551.14 564.85 408.21 861.79 725.17 685.02 240.90 1005.92 285.03 0.00 907.82 315.68 883.47 822.62 496.63 935.39 543.04 547.81 901.93 314.15 443.49 839.29 1163.05 967.71 1016.73 306.77 1008.13 135.06 566.24 830.63 561.39 1019.92 775.43 696.64 1003.88 555.97 647.16 57.00 310.67 247.73
432.72 1013.24 330.70 1042.27 518.08 792.89 641.71 358.30 1012.69 429.34 716.98 362.34 972.91 349.51 1081.59 688.46 583.47 772.19 623.35 581.63 814.26 720.04 711.06 255.36 894.16 584.30 180.62 348.85 477.82 1105.82 865.27 441.67 914.74 74.12 753.25 527.75 394.80 1103.00 726.80 589.14 603.44 586.09 1019.28 981.71 155.18 599.76 215.32 681.23 487.20 497.03 704.93 682.17 1146.41 702.65 205.99 671.08 1015.38 936.44 294.77 327.28 733.24 93.88 810.29 257.84 498.47 681.82 570.73 957.04 751.86 1049.11 1069.16 447.15 267.37 675.00 806.62 472.40 931.81 915.78 471.58 248.83 963.72 41.01 394.40 651.92 866.72 760.67 601.36 1117.65 710.30 301.68 737.74 169.82 631.71 626.83 454.35 528.83 1053.22 187.55 776.21 222.56 976.54 1070.87 979.48 780.31 889.94 609.65 1054.45 289.11 316.09 348.94 332.16 646.25 502.73 968.36 1118.15 666.17 690.58 404.94 267.95 264.33 881.79 230.95 750.82 510.06 293.70 650.90 1083.62 392.78 289.20 543.23 969.16 654.29 610.60 276.29 758.85 361.73 1040.69 755.31 580.00 916.65 645.13 357.15 340.98 848.30 583.95 304.62 875.02 518.74 404.91 420.37 618.97 358.68 425.33 530.23 582.25 896.71 534.15 613.79 1095.43 435.97 860.05 1185.51 1084.02 782.63 628.43 249.13 269.42 935.46 349.29 1000.23 907.82 0.00 824.04 644.83 344.20 740.13 463.34 1047.42 583.50 5.89 926.07 555.14 257.51 767.98 664.33 185.43 1040.92 364.05 857.14 706.24 349.50 584.90 343.99 194.93 873.67 686.04 1017.88 644.46 876.24 719.97 1008.50
971.85 652.12 806.37 891.06 683.22 252.31 955.00 785.43 756.67 556.12 131.41 896.06 602.73 1001.18 502.52 938.53 491.31 593.60 312.47 289.77 596.74 1225.32 603.77 872.07 782.74 1015.58 873.38 786.04 690.90 531.24 144.55 473.41 122.81 886.38 550.79 810.34 651.96 813.22 244.65 731.34 521.51 570.74 806.03 376.62 840.75 765.28 867.86 377.46 418.82 908.82 1183.65 297.91 836.58 289.23 799.65 327.28 601.94 311.15 949.02 868.93 1016.00 757.98 143.80 970.68 903.43 408.58 785.77 426.07 953.79 432.57 694.04 485.19 682.82 639.83 240.21 992.06 359.92 403.02 779.09 777.83 188.71 830.39 961.97 337.34 717.55 747.79 454.39 331.42 980.09 914.28 1187.65 916.19 381.53 1012.55 1076.03 533.13 531.04 717.01 123.65 848.56 797.82 563.74 263.03 257.90 586.48 500.21 480.42 802.17 712.53 502.92 679.39 330.66 1035.31 488.81 817.99 837.36 474.08 419.10 915.60 633.15 676.42 802.83 141.82 467.22 706.16 281.44 645.04 933.70 802.08 489.22 717.77 420.49 318.74 920.95 1245.21 862.89 730.86 326.69 1084.95 522.05 1066.40 689.61 842.14 223.17 963.67 1001.19 540.99 867.54 637.65 789.93 314.52 776.21 489.67 901.02 748.89 72.67 803.94 996.18 788.05 535.93 994.31 821.20 293.47 574.40 973.76 664.51 629.06 472.73 983.51 213.63 315.68 824.04 0.00 995.44 675.19 310.56 1040.80 356.12 426.51 818.15 512.63 361.24 869.92 1266.39 1035.47 956.14 553.12 1010.20 243.19 659.03 712.34 455.28 903.13 699.98 882.44 1077.64 708.05 464.04 273.86 131.43 246.56
1017.96 810.33 890.93 543.55 997.87 980.53 43.45 361.88 647.88 551.26 867.04 957.07 645.69 426.35 854.32 141.31 1030.84 507.62 827.12 843.34 534.24 326.82 394.68 400.35 405.39 86.89 510.76 968.16 395.22 787.03 1077.63 802.11 1064.16 667.02 546.29 197.90 906.67 671.86 930.57 341.64 541.04 502.24 561.01 961.38 549.59 233.17 536.03 688.90 653.44 188.13 245.32 940.23 708.26 921.39 502.95 682.74 685.63 920.51 396.61 322.83 140.72 636.15 872.77 511.25 203.62 975.63 248.71 808.66 283.99 829.56 771.64 594.44 697.19 374.30 855.34 219.96 1126.63 767.40 319.18 791.10 1099.45 685.84 997.56 900.74 485.45 367.97 579.94 1264.55 122.86 934.73 217.97 802.85 689.06 53.70 338.45 969.42 792.03 538.21 902.61 855.61 530.66 743.05 1030.38 791.97 637.06 1007.42 851.76 846.01 458.01 632.18 800.21 720.45 220.02 716.58 674.29 248.59 600.61 679.17 901.00 632.11 498.32 473.60 898.78 584.55 781.81 788.47 800.01 995.64 876.48 551.38 628.53 1046.74 814.37 368.54 330.37 362.49 602.33 717.16 309.92 588.83 179.20 877.10 349.62 817.21 138.80 456.28 634.05 237.46 530.42 342.98 726.08 974.27 583.43 231.89 351.51 1008.73 191.50 84.20 644.35 578.37 264.15 821.10 1270.58 518.36 21.68 571.12 685.02 699.42 436.82 1053.87 883.47 644.83 995.44 0.00 809.13 1001.81 300.03 1258.04 932.54 638.94 598.25 744.92 400.36 322.94 97.14 551.72 713.10 437.63 883.95 405.54 844.06 873.77 938.72 588.62 427.75 136.81 616.98 1046.08 826.47 864.01 1003.98
374.79 1091.81 140.43 1065.09 188.74 613.66 809.04 537.32 1051.21 397.21 605.59 271.91 967.93 611.81 1025.79 852.50 371.30 765.07 444.12 402.40 821.01 970.84 733.77 475.14 916.87 804.08 494.98 179.93 573.44 1046.58 749.13 201.78 745.14 391.52 787.74 710.17 97.54 1107.76 547.57 668.28 565.33 602.58 1032.13 899.76 396.38 726.74 457.18 625.15 458.07 668.66 962.56 487.71 1131.12 504.34 439.37 582.17 960.06 861.38 549.74 552.66 887.24 250.32 683.01 590.26 632.64 449.82 710.87 918.93 911.19 971.78 1103.26 409.04 207.37 697.71 749.22 729.24 735.03 877.67 611.72 102.64 782.37 345.33 342.07 400.25 887.49 823.58 576.50 825.37 879.92 265.70 939.26 253.39 547.91 826.24 679.10 311.45 1011.20 373.80 631.98 192.69 1030.52 993.50 853.96 663.31 823.04 367.71 1008.78 126.98 441.19 304.16 88.96 601.47 777.05 941.50 1121.08 797.43 595.54 382.95 271.59 313.09 874.67 421.56 623.54 485.20 50.50 512.70 1101.89 298.69 181.93 518.37 1003.54 372.92 431.37 550.61 981.57 581.51 1025.40 681.30 803.57 931.81 890.74 85.88 560.76 707.54 817.73 609.41 836.91 668.53 393.68 556.99 495.58 180.88 387.22 632.44 694.79 747.86 703.77 781.01 1129.81 447.84 1026.82 1214.22 863.32 744.52 787.45 347.36 252.57 897.35 593.81 884.09 822.62 344.20 675.19 809.13 0.00 563.72 717.52 859.49 383.27 338.31 922.39 429.34 477.29 924.42 859.99 453.01 1020.04 661.40 774.28 719.09 48.71 318.15 290.26 243.69 987.74 906.67 1002.59 406.37 818.84 543.76 872.18
823.69 820.39 658.56 954.22 489.21 124.15 987.06 752.89 961.21 554.02 284.30 711.37 795.02 929.30 623.81 944.43 227.21 676.70 175.66 193.95 694.90 1221.62 712.51 820.70 821.64 1018.86 857.14 683.10 660.94 705.90 286.50 379.99 302.35 802.47 633.89 836.03 527.26 966.15 71.24 688.87 563.99 542.55 939.43 513.72 758.54 797.34 819.34 448.62 452.75 852.37 1156.56 89.73 991.37 90.36 773.18 411.02 795.61 496.59 923.47 867.97 1012.82 678.02 329.58 954.44 833.94 181.77 772.42 594.34 1014.39 618.35 876.31 497.34 533.56 688.49 423.23 986.20 191.68 607.87 731.78 651.39 293.11 734.57 783.71 218.93 815.71 814.36 518.11 412.56 992.79 735.78 1130.70 719.25 332.07 1010.08 1024.66 318.21 699.31 745.97 269.07 617.06 930.43 762.95 465.10 368.64 721.79 282.15 660.68 596.48 698.82 508.92 550.20 373.31 995.97 693.66 1023.60 868.33 471.55 425.10 741.09 580.41 774.58 785.62 270.35 504.26 569.81 327.07 829.11 747.59 674.48 490.45 928.80 298.03 187.44 896.17 1234.43 893.22 949.59 462.68 1099.78 755.79 1102.53 564.91 894.76 381.55 1000.50 974.19 651.73 798.05 584.03 771.57 327.51 685.90 479.77 844.23 720.32 300.74 829.63 982.83 993.66 503.39 1078.05 1002.18 427.06 656.89 999.45 641.40 502.48 619.64 952.20 396.11 496.63 740.13 310.56 1001.81 563.72 0.00 1050.05 379.70 180.45 734.24 748.04 331.35 818.55 1240.23 1028.23 873.93 772.11 978.89 448.29 657.25 515.01 315.52 729.72 630.80 915.18 1074.91 972.40 295.44 492.85 245.03 337.76
817.98 1039.62 732.58 799.40 906.26 997.19 316.06 318.24 843.14 547.37 909.39 765.52 874.98 126.32 1107.11 405.77 951.04 709.50 874.39 869.13 698.62 337.64 558.46 242.38 705.42 254.17 282.72 803.23 425.07 1004.94 1157.80 746.53 1112.38 401.71 722.97 347.70 787.77 905.78 1003.34 479.36 648.32 599.09 734.70 1040.34 346.65 435.05 318.09 807.36 657.41 254.16 305.10 987.26 952.24 978.77 327.85 769.94 940.35 1016.83 230.88 207.78 421.67 492.71 967.09 230.21 290.18 976.55 382.83 1007.30 551.18 1069.07 1017.36 598.36 603.59 576.18 981.46 159.05 1210.16 987.73 371.11 647.66 1131.30 502.75 826.15 847.05 747.80 567.82 685.44 1319.64 422.89 720.09 303.04 560.43 741.61 276.08 38.42 881.08 952.34 410.49 960.42 662.62 795.63 995.84 1131.88 879.17 832.01 948.94 1080.22 677.52 390.96 609.57 687.09 807.65 149.17 938.36 890.83 466.80 734.40 684.52 705.86 508.83 722.74 333.16 930.63 608.92 692.53 802.11 1052.80 817.12 715.15 583.23 851.54 982.53 887.14 216.48 375.45 177.91 855.49 883.48 171.90 841.62 181.79 750.12 198.66 939.78 202.26 171.21 873.87 271.08 474.84 287.30 757.93 812.94 620.18 297.92 487.56 1095.93 341.30 237.96 912.29 562.35 517.05 994.79 1298.69 727.87 305.51 462.55 598.55 886.99 149.22 1176.44 935.39 463.34 1040.80 300.03 717.52 1050.05 0.00 1287.07 936.22 469.23 851.04 799.01 244.53 321.01 313.78 304.49 965.89 137.60 1005.26 581.06 745.08 815.29 773.12 524.68 693.62 290.22 832.68 938.98 992.39 945.80 1149.75
1163.48 859.40 950.88 1054.58 856.34 289.88 1218.73 968.83 960.24 781.03 436.30 1065.26 815.33 1213.42 704.95 1173.01 606.91 754.56 473.27 501.14 772.76 1468.35 908.66 1064.82 976.74 1270.71 1155.26 970.97 971.25 800.06 274.15 701.76 233.31 1109.76 711.75 1073.17 855.48 1038.46 355.97 966.24 764.54 808.62 1012.92 492.32 1080.68 1029.01 1113.08 651.65 723.71 1118.90 1413.98 420.00 1044.75 400.67 1081.53 614.05 814.54 461.60 1144.58 1117.15 1269.99 953.54 459.81 1226.06 1121.99 473.23 1024.55 659.65 1154.79 635.00 915.32 718.66 843.87 887.88 462.40 1225.53 188.02 676.00 1052.18 962.13 175.70 1041.76 1113.37 459.24 893.57 939.03 759.28 112.37 1185.92 1076.15 1375.85 1056.30 611.34 1275.15 1267.87 611.95 764.62 998.89 422.19 990.21 1008.29 768.12 380.13 512.88 781.56 621.94 670.66 913.73 930.76 698.48 846.46 576.34 1275.41 718.03 1066.75 1093.42 707.27 721.90 1058.34 865.14 852.44 1055.49 451.98 751.95 872.55 560.77 874.32 1087.38 978.42 719.03 911.53 585.15 472.17 1116.51 1450.37 1109.16 962.70 596.43 1331.22 715.81 1333.44 834.12 1129.91 467.98 1243.00 1204.25 713.94 1108.36 833.21 1020.75 544.33 980.80 696.84 1075.14 948.78 330.21 1079.57 1223.71 1037.80 770.08 1236.38 1012.16 117.30 754.97 1236.36 870.74 824.62 638.91 1229.30 258.01 543.04 1047.42 356.12 1258.04 859.49 379.70 1287.07 0.00 520.24 1041.53 725.23 610.57 1066.97 1471.14 1311.10 1196.07 798.07 1263.01 467.86 919.12 854.80 627.78 1061.06 934.54 1043.40 1350.10 960.25 600.34 530.41 410.76 316.36
643.24 905.66 509.25 950.85 413.29 277.54 904.48 641.06 930.09 442.19 356.91 597.80 817.07 824.04 750.16 918.45 165.16 650.83 143.81 149.92 700.75 1143.54 701.42 709.02 853.85 903.61 726.05 515.28 631.93 794.63 426.71 199.54 424.10 645.84 639.74 794.07 362.92 1020.40 211.45 654.48 528.40 546.30 879.51 632.90 632.00 736.76 690.72 419.34 428.92 813.62 1086.14 146.94 1040.50 214.24 622.51 379.87 836.92 589.59 804.28 755.17 1015.43 551.48 391.44 823.35 789.22 98.65 760.34 690.58 980.00 680.21 950.07 397.53 421.22 690.64 474.41 883.00 372.13 659.05 711.82 485.91 440.45 624.51 603.26 89.17 755.79 803.61 458.96 593.01 976.28 595.89 1095.84 623.06 356.78 939.75 897.80 137.76 779.80 569.68 357.80 520.87 870.51 803.27 579.78 445.56 715.88 101.70 736.70 510.25 586.02 428.78 372.27 385.17 913.82 688.69 1009.63 840.36 494.84 351.83 589.23 476.49 714.66 649.75 331.97 497.39 396.81 292.97 896.08 567.14 513.19 464.47 940.41 117.69 156.56 776.21 1122.60 758.60 955.44 415.14 980.66 755.36 1024.81 392.49 779.35 432.73 922.08 813.70 651.30 788.13 471.23 658.77 289.77 505.45 408.77 769.86 685.93 481.19 800.47 918.43 1020.92 391.56 1018.36 1008.41 561.76 659.11 910.86 537.48 375.94 682.29 807.99 561.67 547.81 583.50 426.51 932.54 383.27 180.45 936.22 520.24 0.00 577.61 747.61 287.32 706.87 1165.86 985.28 733.85 822.61 864.57 499.47 690.75 334.56 135.07 612.79 504.26 938.47 971.58 948.48 132.52 544.03 295.08 518.21
426.83 1019.13 326.35 1036.38 523.97 798.78 635.82 361.61 1006.80 435.23 722.87 356.45 967.02 343.62 1075.70 682.57 577.58 778.08 629.24 587.52 820.15 714.15 716.95 249.47 900.05 578.41 186.51 354.74 483.71 1099.93 859.38 439.93 908.85 68.23 759.14 521.86 400.69 1097.11 732.69 595.03 597.55 580.20 1019.48 975.82 161.07 603.07 217.78 675.34 481.31 491.14 699.04 676.28 1140.52 708.54 205.51 676.97 1021.07 930.55 298.47 321.39 739.13 87.99 816.18 251.95 492.58 676.26 564.84 951.15 745.97 1043.22 1075.05 441.26 272.12 680.89 800.73 466.51 925.92 909.89 465.69 242.94 957.83 46.90 388.51 657.81 872.61 754.78 607.25 1123.54 704.41 295.79 739.35 175.71 625.82 620.94 448.46 534.72 1047.33 193.44 779.40 216.67 982.43 1070.61 985.37 778.78 884.05 605.02 1048.56 283.22 310.20 343.05 326.27 640.36 496.84 973.72 1118.49 660.28 684.69 399.05 262.06 270.22 887.68 225.06 756.71 515.95 287.81 645.01 1089.51 386.89 295.09 549.12 963.27 648.40 616.49 270.40 752.96 355.84 1034.80 749.42 577.90 922.54 647.74 363.04 335.09 842.41 578.06 298.73 869.13 518.26 407.08 426.26 613.08 364.57 419.44 534.90 576.36 890.82 528.26 607.90 1089.54 441.86 854.16 1179.62 1089.91 776.74 622.54 255.02 263.53 929.57 343.40 994.34 901.93 5.89 818.15 638.94 338.31 734.24 469.23 1041.53 577.61 0.00 931.96 549.25 251.62 762.09 660.08 191.32 1046.81 358.16 851.25 707.60 350.06 590.79 338.10 200.82 867.78 680.15 1011.99 643.68 870.35 714.08 1002.61
1214.69 217.30 1025.98 388.24 1070.34 623.89 641.70 679.97 253.85 577.75 516.24 1103.93 90.10 876.41 274.91 636.39 893.71 188.06 633.83 661.48 232.74 925.07 334.73 786.67 278.15 685.14 899.78 1102.32 540.87 188.78 613.86 720.61 612.71 998.79 230.87 529.67 1006.79 313.23 689.98 430.14 392.90 442.13 306.53 404.07 841.20 462.51 865.63 426.41 531.89 628.15 843.57 746.94 338.36 734.68 835.40 394.38 89.31 381.64 809.83 770.59 664.29 877.45 474.59 924.10 630.06 782.34 514.73 222.45 523.44 250.15 217.72 567.82 820.77 321.38 360.01 738.51 788.84 181.19 560.53 956.18 637.87 967.08 1181.12 685.08 233.68 392.21 462.34 826.21 578.56 1083.65 816.22 1002.41 486.51 651.95 812.62 875.17 193.78 796.57 499.67 1069.44 323.98 144.80 509.32 379.40 99.35 837.69 260.98 985.92 673.20 629.06 887.59 432.09 775.33 118.33 360.36 528.80 420.38 648.97 1049.92 756.73 212.08 827.03 520.15 467.93 892.18 530.01 201.76 1155.53 1053.18 489.49 205.14 865.30 646.58 837.90 928.62 764.55 237.47 387.67 894.50 9.42 777.45 969.15 743.80 401.69 737.05 869.50 96.31 594.17 678.03 622.20 457.84 1103.27 546.00 640.35 455.24 541.98 523.27 682.45 331.41 556.97 562.07 327.80 796.05 249.82 619.93 752.52 755.20 171.34 885.17 585.23 314.15 926.07 512.63 598.25 922.39 748.04 851.04 725.23 747.61 931.96 0.00 524.08 784.52 921.19 695.39 922.74 114.85 926.00 399.87 352.62 911.22 727.54 1122.28 765.32 401.83 735.06 253.86 863.71 314.82 578.07 547.93
754.54 682.13 561.83 727.32 546.26 320.69 727.40 508.21 737.56 263.00 272.78 670.03 581.52 739.64 629.65 688.46 404.22 427.30 158.88 137.40 477.22 953.94 496.71 578.95 613.18 751.18 623.25 581.92 433.40 662.80 446.35 227.56 431.19 617.48 416.21 547.02 482.72 815.10 262.33 500.17 313.46 339.57 701.75 509.91 582.99 563.01 579.74 195.81 141.60 602.28 913.19 271.99 816.97 253.15 598.08 181.17 613.39 464.64 659.71 632.06 785.44 477.62 298.41 720.55 566.26 305.75 540.00 538.36 717.37 577.31 738.05 212.47 413.92 460.65 334.82 719.34 494.65 523.37 510.19 531.98 474.48 596.15 747.22 207.69 563.26 586.52 244.02 653.18 729.57 645.38 872.88 647.29 118.57 760.56 782.91 410.79 610.20 515.44 268.73 573.45 692.75 640.85 490.71 255.21 521.71 340.76 622.57 556.32 419.41 234.02 434.75 198.09 728.29 532.36 786.10 642.34 292.59 150.20 641.81 357.42 536.90 562.63 238.94 210.49 449.39 135.23 672.55 715.46 565.77 234.48 721.47 405.01 146.13 652.05 980.23 626.02 731.91 269.24 848.08 531.83 810.19 445.07 605.27 343.93 751.35 708.46 427.77 598.64 366.38 523.53 66.24 591.75 212.45 613.11 517.72 422.09 553.42 722.56 814.37 258.71 793.30 784.88 637.61 457.27 723.24 387.29 360.16 502.80 743.43 508.02 443.49 555.14 361.24 744.92 429.34 331.35 799.01 610.57 287.32 549.25 524.08 0.00 576.80 1004.04 784.95 688.56 610.90 758.55 385.34 460.76 387.14 265.99 688.38 426.82 735.88 831.63 749.34 364.34 404.44 229.81 453.36
678.45 884.34 520.75 804.16 666.03 777.09 403.60 109.99 822.35 313.80 749.49 608.07 719.70 176.96 982.07 430.95 725.78 596.46 666.32 624.60 651.34 538.00 504.64 2.15 675.25 331.09 198.26 606.36 275.29 926.33 948.91 507.33 946.35 283.38 609.40 333.40 549.34 898.58 769.77 354.38 498.54 449.31 804.00 917.20 149.23 351.45 170.80 618.53 462.08 258.92 521.63 775.11 950.89 745.62 102.59 596.09 842.93 876.33 104.92 77.53 499.86 265.97 793.24 159.09 245.26 757.55 329.74 857.52 544.71 961.47 917.75 391.21 391.34 468.58 796.38 254.11 982.67 874.69 265.15 420.92 964.86 298.52 640.13 669.04 703.66 551.40 526.37 1136.45 488.78 547.41 547.57 427.33 606.59 377.08 206.11 684.38 873.73 180.55 753.54 468.29 772.88 900.43 973.28 705.32 731.24 720.10 977.18 475.83 157.39 390.28 501.96 628.07 304.06 867.38 911.73 408.66 584.62 450.95 513.68 279.01 669.55 94.73 772.54 435.07 463.50 594.96 909.14 629.32 533.25 468.24 773.64 738.00 653.57 77.62 509.10 104.22 815.39 658.20 326.28 793.94 426.32 511.69 83.47 769.62 369.63 164.59 778.67 281.15 272.18 184.83 599.84 616.19 391.31 283.29 372.37 877.03 327.00 376.14 899.91 359.49 602.54 979.08 1126.99 625.31 378.68 218.02 373.29 788.26 166.63 1003.87 839.29 257.51 869.92 400.36 477.29 818.55 244.53 1066.97 706.87 251.62 784.52 576.80 0.00 525.91 412.76 179.01 870.48 226.55 836.36 499.82 510.81 590.03 589.72 310.66 623.77 442.90 822.36 694.45 782.29 744.97 945.52
1098.97 1093.91 928.88 727.41 1113.16 1181.26 348.29 562.02 861.80 791.15 1149.77 1039.31 937.97 447.33 1177.26 441.77 1215.22 812.46 1093.30 1113.30 813.82 58.50 699.52 528.06 728.33 298.43 603.73 1028.04 608.32 1109.97 1324.59 966.32 1285.59 708.67 802.36 477.48 1021.96 895.50 1200.53 609.40 762.31 756.86 786.94 1240.96 632.96 538.01 572.16 960.07 862.44 421.53 155.86 1206.41 972.75 1149.87 628.50 956.54 999.56 1200.09 491.58 461.35 398.05 674.10 1153.69 520.70 441.30 1235.41 495.41 1126.60 505.15 1152.50 1043.16 813.82 858.23 679.14 1144.21 355.62 1390.03 1090.34 542.51 829.05 1349.00 779.64 1079.80 1111.60 790.29 647.55 831.75 1519.17 445.80 967.93 138.26 867.39 935.76 337.55 333.11 1124.86 1097.15 678.80 1178.12 950.95 754.45 1055.37 1288.05 1065.77 862.54 1191.13 1156.60 883.96 634.74 804.48 912.38 967.41 373.43 1039.52 943.07 528.17 868.37 888.30 934.20 752.61 777.90 595.05 1148.33 834.10 873.92 1017.57 1101.01 1037.45 947.82 800.93 892.94 1246.88 1084.33 511.17 87.24 421.69 867.03 1030.79 199.63 911.77 199.99 994.10 442.44 1102.53 302.72 478.17 938.89 442.18 694.63 507.09 975.63 1032.26 792.00 396.00 640.85 1267.57 471.08 285.00 923.01 782.14 574.85 1047.03 1492.01 797.94 301.26 743.93 846.28 1004.26 449.68 1339.19 1163.05 767.98 1266.39 322.94 924.42 1240.23 321.01 1471.14 1165.86 762.09 921.19 1004.04 525.91 0.00 264.77 617.05 1036.04 414.49 1169.27 710.38 936.17 1082.34 1020.96 773.00 648.91 270.42 844.22 1220.36 1106.05 1134.96 1308.82
1040.35 886.48 864.70 640.69 1044.94 1021.22 140.59 430.73 722.56 624.20 941.13 979.46 742.83 438.34 951.46 238.45 1056.44 566.03 924.26 902.38 588.85 307.03 468.77 410.61 480.07 81.67 483.71 977.91 435.25 884.17 1117.92 846.68 1101.85 639.97 608.84 237.93 921.66 746.69 1014.17 402.73 570.62 563.33 635.69 1046.42 554.14 330.31 527.22 758.48 691.65 252.96 148.18 1029.17 805.40 937.87 503.33 764.85 760.31 998.40 415.20 386.92 178.40 638.29 962.00 515.39 234.85 1054.70 288.74 885.52 295.51 925.60 868.78 620.78 751.37 432.71 935.92 210.34 1187.72 844.26 352.89 793.24 1142.33 705.34 1019.95 941.28 582.59 453.01 640.06 1325.64 220.00 927.78 176.14 825.24 729.09 126.64 352.20 962.14 870.27 552.87 968.52 876.75 605.34 832.93 1097.34 856.47 709.63 1042.96 948.90 848.15 485.85 663.41 847.95 760.74 201.75 813.72 771.43 333.63 661.70 678.62 914.99 639.04 583.36 467.05 941.66 627.43 809.49 824.53 897.15 1001.64 906.20 594.26 703.21 1054.79 911.51 390.93 259.81 371.88 677.01 797.74 294.75 685.97 131.99 884.01 361.93 895.86 128.89 445.57 731.19 230.18 574.99 387.45 768.96 968.08 642.60 276.36 428.58 1090.84 231.53 155.62 741.49 626.70 361.29 880.49 1308.27 589.44 106.72 578.05 712.86 757.83 461.24 1132.52 967.71 664.33 1035.47 97.14 859.99 1028.23 313.78 1311.10 985.28 660.08 695.39 784.95 412.76 264.77 0.00 575.64 810.24 443.13 962.60 463.95 871.74 926.60 961.11 681.72 439.27 46.68 691.66 1054.48 911.51 904.04 1101.12
573.19 1063.35 452.16 955.52 641.75 918.89 554.96 289.00 1001.36 492.81 894.71 493.80 898.71 178.17 1157.93 603.16 679.04 734.68 776.65 734.93 790.62 583.75 637.42 181.16 820.52 510.10 91.93 511.26 454.30 1091.40 1050.70 534.31 1071.52 205.84 777.49 508.76 550.55 1077.59 852.80 533.39 666.09 628.32 945.64 1094.64 115.39 527.95 108.82 760.62 607.30 410.28 609.59 784.20 1105.92 815.53 166.20 750.38 1012.05 1044.85 206.08 228.89 644.55 261.45 907.77 148.42 400.65 832.50 475.73 1036.53 707.30 1087.98 1096.76 536.43 372.33 601.36 939.83 375.94 1059.76 1012.91 444.16 416.40 1114.82 225.54 534.29 753.58 836.44 697.39 644.54 1236.97 660.99 487.11 607.53 355.25 711.98 528.44 317.64 668.66 1038.92 239.13 905.57 407.99 945.79 1033.21 1101.82 859.61 875.10 720.52 1134.60 471.31 336.40 497.59 485.82 788.09 435.84 1005.60 1044.51 587.67 707.49 555.11 453.38 343.63 814.77 206.33 908.18 589.36 461.27 740.18 1088.15 532.37 410.66 566.75 952.65 749.86 763.90 234.15 599.34 268.55 994.40 801.65 439.32 932.16 486.28 538.89 255.68 923.30 491.46 216.03 916.89 436.54 451.19 363.84 735.48 508.45 558.25 447.50 544.58 1028.81 506.01 542.45 1074.45 538.50 781.55 1158.09 1199.02 758.09 530.04 367.28 371.45 926.48 201.07 1142.01 1016.73 185.43 956.14 551.72 453.01 873.93 304.49 1196.07 733.85 191.32 922.74 688.56 179.01 617.05 575.64 0.00 1003.26 227.76 990.04 632.60 501.72 653.64 475.45 274.23 802.78 589.58 1001.37 747.27 959.73 870.14 1083.66
1298.96 159.43 1114.32 462.10 1082.01 664.62 732.75 760.49 327.71 664.57 504.47 1190.75 204.95 988.93 176.16 645.97 939.36 302.91 679.48 695.70 347.59 1039.92 437.96 872.63 343.32 799.99 1007.33 1186.56 644.62 120.12 602.73 825.43 580.69 1079.31 345.72 644.52 1048.92 372.95 713.60 544.99 507.75 556.98 395.84 366.93 921.72 543.03 980.48 503.42 646.74 743.00 958.42 772.87 359.80 724.10 915.92 507.96 81.05 373.30 924.68 851.45 741.93 964.27 463.46 1029.57 734.43 827.69 595.25 183.90 634.39 231.68 183.07 654.64 907.59 401.90 348.88 819.03 799.04 173.81 675.38 1043.00 646.59 1081.93 1267.94 744.05 342.12 507.06 500.92 804.97 684.00 1170.47 931.07 1117.26 564.18 766.80 927.47 959.01 78.93 911.42 523.97 1164.90 417.49 29.95 467.67 441.97 214.20 899.58 188.59 1097.91 788.05 715.88 982.07 479.62 875.27 133.92 348.25 609.32 517.75 734.42 1136.74 843.55 307.42 907.55 514.49 582.78 1007.03 611.48 102.06 1242.35 1143.99 573.35 279.00 921.53 666.73 935.02 1043.47 845.41 350.53 418.08 975.02 124.27 892.30 1049.71 824.66 390.56 851.90 983.71 183.13 708.30 756.31 737.05 544.66 1196.39 632.82 754.48 535.76 530.85 638.12 797.30 378.19 671.82 627.24 287.41 777.58 354.51 734.78 844.78 842.02 213.04 966.03 540.06 306.77 1040.92 553.12 713.10 1020.04 772.11 965.89 798.07 822.61 1046.81 114.85 610.90 870.48 1036.04 810.24 1003.26 0.00 1021.10 372.64 433.14 998.04 814.36 1209.10 880.17 490.63 849.91 327.72 922.64 279.26 566.30 530.10
741.25 1060.18 605.06 874.37 787.00 973.13 453.66 294.18 967.07 509.14 878.79 653.87 895.54 49.59 1080.99 543.37 865.25 742.00 881.84 840.12 771.79 355.99 649.19 224.40 798.28 366.15 197.99 687.06 445.63 1084.54 1131.25 677.84 1081.78 294.18 722.37 427.61 700.89 1013.19 960.66 499.92 668.88 619.65 872.30 1086.04 269.63 493.11 241.50 799.69 647.63 329.13 442.70 925.51 1066.82 945.22 242.06 767.72 963.67 1045.17 123.35 212.48 559.27 415.69 964.87 106.21 329.64 900.57 440.89 1022.76 626.15 1112.09 1086.66 586.55 526.57 619.20 995.49 265.11 1148.40 997.10 391.67 559.23 1147.68 365.15 694.36 868.64 814.83 660.53 698.00 1226.83 555.14 582.49 440.64 452.90 778.89 413.68 134.28 828.76 1041.41 324.70 938.02 555.09 895.91 1016.88 1141.29 876.95 826.65 863.15 1102.37 542.98 352.73 566.96 653.97 805.43 286.77 984.24 1028.43 523.27 702.91 646.29 616.22 451.49 773.70 246.28 912.63 606.70 615.51 790.30 1079.48 692.44 620.98 639.87 919.18 930.63 869.09 148.93 417.30 175.69 930.00 879.83 221.43 923.76 319.39 663.24 196.44 953.81 314.24 63.68 922.73 365.53 467.52 307.86 761.55 695.95 586.65 372.89 485.34 1072.37 434.01 375.56 1030.56 543.68 654.65 1105.60 1264.78 725.65 443.11 444.57 512.76 933.80 72.20 1121.48 1008.13 364.05 1010.20 437.63 661.40 978.89 137.60 1263.01 864.57 358.16 926.00 758.55 226.55 414.49 443.13 227.76 1021.10 0.00 1020.55 616.58 644.27 729.50 635.52 454.81 769.91 427.82 952.81 901.81 951.13 940.31 1063.13
1040.94 508.60 864.89 729.08 792.70 332.90 840.50 726.37 624.57 542.44 200.50 965.19 458.38 970.96 274.10 793.88 615.54 444.18 355.66 371.88 444.13 1116.79 573.17 838.51 644.24 906.99 898.42 888.98 645.38 393.73 304.37 572.50 294.11 919.48 401.37 737.47 792.07 702.15 380.50 624.59 454.45 492.77 650.53 133.43 874.65 650.78 908.18 284.50 463.23 765.13 1076.04 400.23 689.85 403.66 867.18 286.31 453.69 90.12 935.78 851.76 890.86 763.26 127.47 995.45 729.11 504.17 673.86 287.30 764.10 263.52 548.99 480.07 733.02 577.50 50.52 897.64 513.68 262.33 746.68 835.43 342.47 894.97 1030.42 429.28 562.98 602.26 385.01 488.14 851.71 935.14 1035.73 954.58 318.72 864.62 1034.99 612.62 365.11 784.54 187.98 906.33 664.50 395.87 174.64 177.08 406.00 575.76 237.23 876.69 692.17 541.31 775.17 291.17 891.14 281.54 644.70 780.44 365.62 516.98 968.85 691.84 523.81 834.45 181.39 447.33 793.42 345.34 474.70 1016.79 884.19 423.29 605.01 613.05 342.91 913.98 1148.13 866.70 637.34 188.70 1011.40 409.29 1004.00 754.42 857.59 66.74 914.20 981.22 326.40 765.00 645.82 717.96 319.10 890.64 458.25 775.96 630.50 232.49 731.07 884.27 674.64 531.49 880.15 578.73 500.53 436.41 887.53 685.09 667.45 316.30 993.86 209.85 135.06 857.14 243.19 883.95 774.28 448.29 1005.26 467.86 499.47 851.25 399.87 385.34 836.36 1169.27 962.60 990.04 372.64 1020.55 0.00 585.39 772.48 513.05 971.58 761.24 702.42 967.92 647.97 598.82 93.38 245.86 157.46
961.81 502.66 727.45 397.88 843.52 655.43 362.09 389.83 421.48 367.33 527.62 890.05 407.69 584.41 594.08 292.08 779.48 164.56 560.50 598.16 220.50 712.00 55.26 501.97 238.36 478.15 574.19 840.66 239.74 521.40 733.38 597.10 730.61 708.65 207.37 246.16 816.63 484.12 669.74 151.47 268.77 219.83 313.04 648.05 551.06 172.37 611.86 300.89 328.34 344.64 574.76 673.61 523.76 645.92 545.26 379.44 441.93 609.40 541.60 446.93 389.06 619.61 576.59 654.61 346.00 701.31 224.59 484.05 367.18 524.13 557.48 360.89 511.72 31.24 534.87 448.37 814.75 442.79 281.86 736.67 774.35 738.08 929.09 646.45 256.66 157.11 323.41 957.51 335.54 832.42 607.59 788.64 384.66 441.96 605.99 730.00 468.80 530.01 574.64 786.09 363.63 463.09 698.93 463.51 308.16 716.02 564.48 782.37 440.20 431.47 664.83 376.20 491.82 435.48 462.35 211.08 290.55 451.38 844.62 528.09 221.29 536.89 544.85 259.45 668.59 473.15 535.20 885.71 768.95 226.28 429.88 756.64 573.25 515.21 688.42 440.89 433.83 396.69 604.36 349.18 566.64 780.86 420.14 525.14 480.02 579.19 346.77 328.18 325.41 343.53 400.98 830.83 348.41 371.58 131.24 705.43 239.76 435.00 490.63 358.74 454.46 573.13 937.03 187.97 409.12 478.08 501.51 356.36 561.51 729.26 566.24 706.24 659.03 405.54 719.09 657.25 581.06 919.12 690.75 707.60 352.62 460.76 499.82 710.38 463.95 632.60 433.14 616.58 585.39 0.00 730.84 582.37 885.45 574.58 349.97 502.61 411.02 754.68 515.36 558.33 728.28
367.40 1069.27 174.69 1093.74 183.41 566.42 820.79 549.07 1085.83 405.14 642.74 299.73 968.66 618.76 1001.77 874.95 357.04 793.72 452.33 434.95 849.66 982.59 745.52 508.66 928.62 829.31 506.73 194.78 622.15 1027.27 719.25 238.93 744.62 398.20 803.35 702.59 95.58 1156.47 543.40 716.99 598.97 610.51 1043.88 897.05 408.13 738.43 468.93 582.95 449.89 680.41 974.31 481.50 1179.83 455.63 417.23 562.86 997.21 851.78 591.71 584.98 898.99 262.07 685.55 589.23 644.39 433.21 722.62 880.71 904.82 956.76 1125.19 457.75 219.12 709.46 721.96 740.37 686.67 910.51 623.47 151.35 775.01 308.49 366.57 423.73 936.20 835.33 603.21 874.08 885.14 261.33 951.01 288.50 505.71 854.73 712.62 262.74 985.68 385.55 655.87 186.31 1053.89 1027.99 877.85 642.35 860.19 327.07 978.29 175.69 452.94 352.87 69.65 585.23 790.08 919.50 1152.61 748.72 644.25 373.62 254.67 324.84 903.32 433.31 626.08 518.78 62.25 463.99 1059.69 328.32 178.63 551.95 1037.12 389.79 439.58 563.64 1013.67 578.83 1074.11 656.38 800.89 918.97 917.53 57.93 578.14 715.75 829.48 580.59 814.91 680.28 405.43 592.97 453.38 204.61 435.93 681.15 706.54 763.66 708.99 800.69 1163.39 455.77 1044.52 1172.02 888.60 778.16 836.16 359.11 275.38 889.94 602.71 854.21 830.63 349.50 712.34 844.06 48.71 515.01 745.08 854.80 334.56 350.06 911.22 387.14 510.81 936.17 871.74 501.72 998.04 644.27 772.48 730.84 0.00 269.44 308.13 255.44 1019.37 918.42 1051.30 362.98 791.58 580.91 840.50
636.84 885.59 444.13 930.78 423.16 352.43 830.32 606.64 941.02 374.53 398.69 558.74 792.79 688.97 732.33 836.00 197.11 630.76 182.89 165.51 680.68 1034.20 637.63 592.18 820.73 894.13 590.98 464.22 496.86 831.47 477.77 154.49 527.24 658.66 619.67 702.36 365.02 1018.56 286.34 608.18 468.45 504.97 895.41 646.48 538.25 645.30 555.65 399.27 361.19 727.08 1019.86 282.01 1020.43 277.16 487.44 384.63 816.85 603.17 694.95 667.56 923.85 506.43 422.54 688.28 732.31 204.33 643.37 707.74 906.80 711.31 941.51 305.82 422.70 613.61 487.99 812.69 489.54 672.63 613.11 420.79 509.62 577.93 599.23 168.54 766.72 739.48 479.62 654.71 876.73 512.00 1038.93 495.47 329.84 872.09 789.49 147.63 810.07 434.61 394.64 393.28 896.21 833.35 615.81 458.67 725.17 133.65 750.28 445.13 524.26 304.36 317.28 367.98 861.92 735.82 989.56 778.24 496.05 253.12 520.65 421.77 740.36 520.43 364.85 388.32 331.69 275.79 876.01 597.31 448.07 421.49 906.66 213.37 170.14 667.65 1088.18 679.05 935.37 472.70 901.11 735.29 972.91 327.37 670.97 446.31 870.18 717.59 631.23 696.42 419.33 606.87 269.70 474.05 290.34 717.96 620.77 527.95 700.58 820.18 1017.83 363.58 950.24 988.34 667.90 647.64 870.40 476.62 330.89 695.87 672.92 612.73 561.39 584.90 455.28 873.77 318.15 315.52 815.29 627.78 135.07 590.79 727.54 265.99 590.03 1082.34 926.60 653.64 814.36 729.50 513.05 582.37 269.44 0.00 540.39 389.97 884.52 943.60 952.80 172.31 557.61 362.50 639.74
116.04 1277.39 171.00 1271.91 348.52 789.07 951.07 671.43 1236.24 576.57 833.53 18.35 1151.87 653.62 1220.60 965.37 502.51 971.89 683.53 641.81 1027.83 962.46 940.71 587.57 1111.12 910.93 497.10 166.65 772.50 1219.80 936.91 492.04 887.44 406.33 992.81 836.35 262.45 1326.55 722.98 768.27 770.40 779.04 1198.49 1061.55 465.56 824.96 474.53 794.01 628.06 806.39 1014.19 742.03 1364.78 738.33 516.37 779.37 1211.59 1037.68 598.25 653.75 1040.22 353.09 896.61 590.05 785.62 659.13 772.74 1103.92 1036.17 1151.61 1303.57 643.35 373.73 906.83 933.02 766.29 921.40 1062.66 736.64 198.14 907.91 339.89 58.84 601.82 1121.80 994.40 781.38 1042.86 1006.10 53.03 1036.62 249.30 731.45 932.55 748.24 505.98 1167.20 518.50 859.92 147.11 1224.88 1223.38 1081.90 794.50 1085.33 511.09 1201.33 174.03 575.30 551.82 322.38 796.29 796.62 1130.56 1337.87 932.01 863.48 538.18 86.76 475.99 1081.49 524.33 837.14 696.95 310.62 736.61 1270.75 56.92 129.50 730.12 1187.53 498.46 670.78 570.18 1025.36 662.00 1259.06 867.44 856.95 1130.03 947.52 273.80 641.25 904.84 877.84 631.41 1025.97 776.36 560.04 730.75 664.44 174.72 621.53 822.54 799.72 943.24 829.95 941.92 1313.80 627.20 1165.48 1383.08 1080.81 949.59 954.90 498.71 425.68 1101.00 634.65 1071.87 1019.92 343.99 903.13 938.72 290.26 729.72 773.12 1061.06 612.79 338.10 1122.28 688.38 589.72 1020.96 961.11 475.45 1209.10 635.52 971.58 885.45 308.13 540.39 0.00 417.31 1179.93 979.93 1236.25 542.01 1002.64 771.70 1015.53
495.32 943.78 305.34 877.28 432.43 644.66 632.07 293.63 882.18 283.88 631.60 408.96 781.83 407.54 920.57 651.00 442.22 577.26 510.45 468.73 633.20 769.35 610.53 312.81 762.77 634.41 286.48 395.48 420.38 917.14 793.83 304.72 797.29 269.05 620.07 517.04 326.13 972.49 578.57 492.67 427.30 424.55 851.71 852.43 221.83 519.40 280.96 534.29 344.19 497.48 752.21 541.07 1010.72 551.77 212.75 476.15 854.63 826.40 336.27 329.54 729.34 125.67 673.30 383.78 481.79 592.51 467.18 825.42 728.35 878.73 976.70 324.81 108.57 574.47 727.87 504.31 822.48 793.44 368.03 280.62 844.75 218.78 475.80 488.09 727.99 648.79 406.43 969.42 686.79 364.28 783.34 341.45 476.77 629.09 486.26 446.10 864.54 130.11 661.23 366.65 842.71 895.99 863.71 585.38 720.86 490.34 932.11 335.53 197.50 254.46 211.59 513.86 534.64 773.43 988.69 607.02 495.96 280.88 330.55 69.40 686.86 215.93 633.95 315.13 193.19 528.56 967.08 437.55 287.86 348.30 833.47 513.04 497.70 308.20 761.11 351.31 905.00 589.69 573.37 774.74 662.09 288.48 356.33 695.72 594.20 395.94 729.82 451.54 259.45 355.08 461.25 385.65 302.99 466.17 510.57 772.65 510.64 584.12 959.74 269.81 802.70 1057.55 955.89 606.49 610.30 103.67 128.32 769.06 398.23 903.03 775.43 194.93 699.98 588.62 243.69 630.80 524.68 934.54 504.26 200.82 765.32 426.82 310.66 773.00 681.72 274.23 880.17 454.81 761.24 574.58 255.44 389.97 417.31 0.00 831.24 717.95 882.19 485.66 737.41 595.91 855.96
1236.75 517.60 1067.56 202.33 1102.75 873.51 384.30 546.79 307.71 656.11 762.95 1198.28 415.91 776.33 666.79 331.26 1041.05 360.85 794.66 811.79 330.93 660.50 330.41 625.92 147.31 510.02 819.21 1164.51 527.80 589.93 944.23 860.33 917.59 907.15 331.65 345.92 1073.79 345.35 843.94 442.17 463.96 502.63 215.38 774.55 763.63 459.41 781.03 540.41 603.46 440.78 550.96 896.06 411.79 912.98 712.82 595.54 427.55 733.68 705.06 622.17 338.49 865.13 783.87 782.86 464.28 943.17 407.19 624.28 143.76 651.98 483.19 578.70 851.83 318.73 709.26 582.86 1054.27 583.02 506.34 1020.08 983.49 914.68 1166.42 882.08 255.67 192.86 533.40 1155.77 369.71 1153.41 510.65 1043.49 644.11 460.29 722.42 1014.81 569.56 766.50 758.79 1079.03 193.49 520.58 860.65 702.39 401.59 1018.17 662.81 1057.49 642.92 683.58 974.92 587.05 552.54 520.16 371.51 270.65 443.63 687.89 1129.84 817.02 251.25 694.90 784.37 534.57 965.94 718.91 502.46 1209.80 1109.06 501.40 331.98 1031.76 805.96 676.99 597.60 631.76 262.16 620.55 677.33 411.25 571.26 1036.14 648.96 714.05 537.48 745.72 498.14 430.08 675.38 587.35 669.98 1154.68 600.52 476.26 411.76 891.23 352.32 462.40 372.86 633.86 303.00 475.47 1124.01 374.87 431.33 756.03 809.72 544.24 754.73 912.27 696.64 873.67 882.44 427.75 987.74 915.18 693.62 1043.40 938.47 867.78 401.83 735.88 623.77 648.91 439.27 802.78 490.63 769.91 702.42 349.97 1019.37 884.52 1179.93 831.24 0.00 485.95 283.26 994.96 639.64 824.78 859.88
1059.17 924.60 911.38 659.46 1074.30 1067.90 157.72 466.37 725.83 600.86 946.23 998.28 759.96 416.54 991.13 257.22 1094.27 604.69 947.40 949.06 635.53 273.41 491.75 445.05 526.75 128.35 530.39 1024.59 480.66 923.84 1164.60 853.38 1148.53 629.39 647.50 284.61 968.34 763.47 1060.85 438.71 617.30 599.31 661.88 1081.79 592.13 330.24 568.72 755.27 697.13 293.87 114.56 1060.51 831.62 984.55 545.49 793.83 806.99 1023.87 418.50 390.22 167.58 684.97 987.04 468.71 281.53 1070.10 335.42 920.48 342.19 964.26 901.31 664.66 717.18 471.37 955.96 213.64 1223.70 879.22 399.57 839.92 1189.01 727.05 1037.10 972.86 599.72 488.38 623.25 1361.62 253.31 974.46 154.87 788.11 775.77 103.30 328.64 1008.82 908.93 599.55 999.68 890.30 648.68 879.61 1080.53 903.06 748.29 1073.28 966.03 894.83 532.53 693.91 870.29 807.42 187.56 852.91 804.74 369.00 697.68 711.44 942.21 682.45 618.73 513.73 980.07 674.11 856.17 831.78 936.82 1036.85 922.60 640.94 749.89 1087.61 945.59 409.75 213.13 375.18 680.28 844.42 248.07 725.64 108.43 930.69 384.46 914.28 157.65 398.89 748.32 276.86 591.70 404.16 815.64 1014.76 653.26 293.07 448.58 1119.82 278.21 157.34 774.80 580.02 360.82 921.97 1354.95 628.10 142.09 624.73 759.54 796.49 439.44 1150.94 1003.88 686.04 1077.64 136.81 906.67 1074.91 290.22 1350.10 971.58 680.15 735.06 831.63 442.90 270.42 46.68 589.58 849.91 427.82 967.92 502.61 918.42 943.60 979.93 717.95 485.95 0.00 703.09 1073.29 946.88 949.12 1101.05
1352.29 299.76 1130.43 183.01 1169.14 849.15 627.46 722.65 48.62 734.56 751.26 1254.60 193.15 946.40 481.30 518.81 1064.55 342.89 804.67 846.39 325.30 902.72 394.69 824.51 211.59 685.09 965.48 1182.52 579.30 404.88 807.51 883.96 830.86 1080.22 338.51 527.80 1100.13 105.17 901.16 467.98 556.95 566.91 97.98 574.55 925.23 556.20 921.97 558.91 635.95 626.28 786.97 889.97 128.53 887.16 888.68 629.40 285.75 613.01 875.13 794.93 595.72 967.43 716.38 981.45 623.17 953.18 560.43 456.12 427.02 485.17 243.84 674.29 922.74 430.75 601.80 743.41 1014.10 423.01 595.96 1085.74 872.89 1058.89 1295.09 903.79 222.92 338.77 579.95 1039.47 552.27 1183.22 746.66 1129.37 656.10 670.68 871.10 1021.67 361.41 869.57 733.80 1188.76 89.77 297.77 729.60 604.66 262.70 1050.18 456.41 1089.98 745.22 748.10 1016.19 634.22 683.51 369.99 118.49 429.54 565.54 768.01 1212.74 872.04 245.62 876.78 745.41 567.06 1031.55 755.27 287.83 1288.69 1167.98 600.23 48.72 1066.17 817.42 847.06 859.06 790.65 22.81 612.93 899.40 244.44 793.28 1088.47 788.33 643.48 698.70 928.95 321.57 609.82 736.43 660.04 683.10 1183.47 665.04 647.37 499.43 780.72 521.40 686.62 132.68 683.93 402.48 270.70 1001.52 381.73 635.76 870.13 874.24 396.60 929.70 793.44 555.97 1017.88 708.05 616.98 1002.59 972.40 832.68 960.25 948.48 1011.99 253.86 749.34 822.36 844.22 691.66 1001.37 327.72 952.81 647.97 411.02 1051.30 952.80 1236.25 882.19 283.26 703.09 0.00 1059.33 568.68 813.09 750.51
602.09 1000.48 466.46 1034.00 307.43 310.46 1002.63 685.67 1059.32 515.54 468.23 523.66 923.72 854.36 810.12 1008.31 68.23 783.35 267.66 226.94 818.54 1195.57 809.94 696.60 977.52 973.55 725.42 486.55 669.17 892.21 459.63 263.02 488.66 696.89 757.53 874.67 357.12 1149.63 244.37 780.49 617.69 666.92 1012.03 730.40 634.03 817.61 681.91 551.86 485.77 877.10 1130.24 258.94 1149.61 248.60 659.75 512.39 953.02 664.21 799.37 771.98 1096.16 555.69 502.95 822.72 860.19 130.64 815.68 774.43 1061.54 791.72 1049.42 478.13 377.09 785.92 573.76 946.48 415.85 758.40 768.48 468.35 453.00 603.45 569.37 221.69 888.31 910.12 548.25 541.08 1049.04 591.73 1163.24 618.02 482.91 1013.10 900.56 119.48 879.40 604.58 455.38 540.69 1003.03 919.12 677.36 544.91 839.73 38.66 836.05 482.11 642.99 476.67 317.41 507.00 977.30 818.34 1142.15 938.07 551.33 408.49 607.58 479.75 847.18 684.96 443.48 554.66 355.87 390.14 1000.42 525.99 494.00 573.91 1010.61 43.55 255.91 772.07 1167.21 798.67 1073.23 547.07 1020.73 866.93 1088.29 349.70 777.92 532.08 985.56 859.04 767.40 824.30 534.71 722.25 422.29 496.38 462.65 833.34 793.08 488.33 872.89 981.91 1136.88 524.08 1122.55 1140.93 579.03 717.37 1025.87 476.43 439.42 739.22 831.46 550.88 647.16 644.46 464.04 1046.08 406.37 295.44 938.98 600.34 132.52 643.68 863.71 364.34 694.45 1220.36 1054.48 747.27 922.64 901.81 598.82 754.68 362.98 172.31 542.01 485.66 994.96 1073.29 1059.33 0.00 643.38 406.40 606.04
1085.50 436.26 909.45 635.70 837.26 389.63 809.15 721.03 549.26 571.85 245.06 984.29 383.07 958.84 233.40 700.50 660.10 350.80 400.22 416.44 369.00 1122.63 502.90 784.44 550.86 891.93 911.50 933.54 619.26 327.11 323.47 617.06 301.43 938.58 307.99 719.92 836.63 628.05 442.78 576.47 428.33 470.59 590.32 134.91 844.34 625.25 894.66 303.60 481.25 762.46 1012.40 493.61 629.64 445.40 848.77 321.34 360.31 94.04 868.51 859.82 797.48 782.36 184.20 941.38 740.78 548.73 677.47 210.21 751.03 206.58 459.97 500.51 769.33 484.12 69.62 844.49 519.78 168.95 706.86 890.14 367.33 914.07 1061.48 473.84 469.60 535.27 358.89 545.80 758.33 954.24 972.09 990.89 336.74 843.58 988.40 679.75 287.42 827.32 244.71 950.89 571.12 309.21 221.01 221.64 312.62 620.32 270.27 896.72 624.90 577.62 794.27 310.27 902.81 221.33 584.49 691.54 335.28 536.08 987.95 730.05 448.68 780.88 243.67 450.19 804.59 389.90 381.32 1035.89 928.75 467.85 519.96 657.61 387.47 859.91 1084.49 837.95 552.29 207.80 1000.48 324.24 962.31 798.98 833.92 111.30 907.25 913.95 317.10 764.88 624.09 757.03 338.20 932.38 522.33 718.70 545.02 251.59 726.32 867.27 614.43 567.06 786.77 566.67 507.85 351.21 804.79 726.94 703.76 242.07 948.92 297.63 57.00 876.24 273.86 826.47 818.84 492.85 992.39 530.41 544.03 870.35 314.82 404.44 782.29 1106.05 911.51 959.73 279.26 951.13 93.38 515.36 791.58 557.61 1002.64 737.41 639.64 946.88 568.68 643.38 0.00 287.60 250.84
843.92 683.07 684.19 826.67 677.23 120.88 846.49 683.71 813.08 431.17 61.83 790.05 668.17 916.22 497.97 823.81 416.88 558.17 238.71 196.99 576.37 1110.60 534.19 747.12 686.98 884.15 798.26 654.61 606.41 525.05 216.54 341.98 201.38 782.31 515.36 678.91 627.49 831.31 179.30 616.62 406.79 456.02 817.92 356.00 774.44 695.70 781.87 307.88 324.30 777.39 1052.22 245.29 897.59 157.80 771.09 257.70 594.85 317.62 831.19 799.35 920.79 653.91 139.25 895.56 780.25 335.41 694.77 457.02 890.22 428.02 711.48 353.76 573.33 556.10 237.27 860.63 332.90 420.46 675.02 646.40 248.84 737.61 830.54 205.91 694.76 678.21 358.54 437.18 848.66 809.46 1056.22 797.15 254.42 881.12 951.08 401.70 542.82 688.45 88.22 726.88 756.99 581.18 310.20 220.53 559.32 396.78 465.02 670.74 587.58 398.85 547.96 261.08 913.46 506.25 869.41 735.67 389.98 315.03 784.17 529.08 656.05 734.29 79.78 393.19 574.73 150.01 662.48 802.27 709.30 396.88 764.37 412.77 225.96 816.88 1121.17 793.31 815.54 242.78 1013.25 568.65 934.97 601.65 772.56 195.59 832.24 876.63 503.62 744.36 533.58 658.50 222.18 644.78 375.58 769.59 634.17 204.10 672.51 905.18 858.82 438.40 924.73 806.52 407.80 490.49 842.33 560.30 518.38 438.79 911.53 345.06 310.67 719.97 131.43 864.01 543.76 245.03 945.80 410.76 295.08 714.08 578.07 229.81 744.97 1134.96 904.04 870.14 566.30 940.31 245.86 558.33 580.91 362.50 771.70 595.91 824.78 949.12 813.09 406.40 287.60 0.00 333.32
1131.57 594.21 991.58 836.28 826.97 378.44 960.53 883.83 701.89 660.20 304.33 1033.88 586.15 1112.72 391.17 951.34 564.97 601.64 459.09 498.57 601.59 1272.39 726.42 947.67 801.70 1038.06 1018.35 975.48 758.66 496.38 193.31 675.30 207.59 1070.84 558.83 885.90 865.02 792.20 408.57 708.30 568.58 584.64 807.99 175.96 1020.35 770.81 974.84 427.39 588.08 922.59 1215.61 384.47 828.37 428.12 969.54 443.77 582.66 166.29 1050.44 977.88 1037.17 920.72 284.93 1104.61 886.57 519.53 822.29 368.16 921.56 331.32 639.37 582.79 830.38 708.64 207.98 1038.56 356.22 380.69 838.55 928.93 185.01 1021.13 1074.37 524.68 720.44 759.72 499.14 330.68 1009.17 1068.56 1193.19 1020.77 476.18 1022.08 1151.63 648.20 473.13 934.57 245.10 954.82 820.03 512.94 127.34 334.54 563.46 567.38 354.30 934.24 816.61 687.38 846.13 418.54 1048.60 439.00 802.16 875.16 449.33 603.56 1078.85 810.78 681.27 952.85 274.89 540.83 849.14 407.06 557.96 1072.45 1010.88 574.00 734.23 594.46 469.60 1023.14 1305.59 971.84 747.44 346.16 1141.87 538.51 1161.46 878.42 951.09 224.20 1071.66 1088.56 483.86 922.46 763.58 875.42 447.59 978.10 604.61 933.42 739.75 173.89 879.50 1032.70 792.72 657.70 1037.61 695.80 368.63 593.87 1007.56 831.45 797.22 467.65 1092.46 58.35 247.73 1008.50 246.56 1003.98 872.18 337.76 1149.75 316.36 518.21 1002.61 547.93 453.36 945.52 1308.82 1101.12 1083.66 530.10 1063.13 157.46 728.28 840.50 639.74 1015.53 855.96 859.88 1101.05 750.51 606.04 250.84 333.32 0.00
DEMAND_SECTION
1 0
2 7
3 8
4 7
5 7
6 10
7 10
8 7
9 7
10 10
11 6
12 10
13 10
14 6
15 5
16 5
17 5
18 6
19 7
20 8
21 9
22 7
23 10
24 9
25 10
26 6
27 6
28 10
29 9
30 7
31 5
32 10
33 8
34 7
35 9
36 8
37 6
38 9
39 8
40 7
41 10
42 8
43 6
44 5
45 10
46 10
47 8
48 8
49 9
50 10
51 5
52 10
53 5
54 6
55 7
56 9
57 5
58 5
59 5
60 5
61 7
62 9
63 10
64 8
65 10
66 8
67 8
68 6
69 5
70 8
71 5
72 9
73 6
74 6
75 9
76 9
77 10
78 10
79 6
80 8
81 9
82 7
83 10
84 8
85 6
86 10
87 6
88 5
89 8
90 7
91 7
92 5
93 9
94 9
95 10
96 8
97 10
98 9
99 9
100 8
101 9
102 9
103 5
104 10
105 10
106 10
107 6
108 6
109 5
110 9
111 6
112 8
113 7
114 5
115 9
116 9
117 8
118 5
119 6
120 6
121 9
122 6
123 9
124 8
125 8
126 10
127 7
128 5
129 6
130 7
131 9
132 6
133 8
134 5
135 6
136 9
137 10
138 9
139 9
140 5
141 6
142 8
143 5
144 6
145 10
146 6
147 9
148 7
149 6
150 9
151 9
152 8
153 5
154 5
155 8
156 9
157 9
158 10
159 8
160 10
161 7
162 9
163 8
164 8
165 7
166 7
167 8
168 5
169 9
170 7
171 10
172 7
173 6
174 5
175 7
176 5
177 9
178 5
179 7
180 5
181 6
182 8
183 7
184 5
185 9
186 6
187 6
188 7
189 6
190 9
191 7
192 9
193 10
194 6
195 8
196 6
197 6
198 10
199 6
200 6
201 6
DEPOT_SECTION
1
-1
EOF
