NAME: LDG30_2264_rain_30_0158
COMMENT: CVRP with travel times.  rootPos=2,custPos=2,demandType=6,avgRouteSizeIndex=4,weather=rain,lambda_cluster=1,lambda_random=4, T1=300,T2=700,beta=1, alpha(i,j) ~ U(0.8,1.2)
TYPE: CVRP
DIMENSION: 31
EDGE_WEIGHT_TYPE: EXPLICIT
EDGE_WEIGHT_FORMAT: FULL_MATRIX
CAPACITY: 560
NODE_COORD_SECTION
1 500 500
2 52 603
3 49 624
4 531 521
5 415 246
6 532 501
7 508 409
8 560 490
9 171 601
10 428 284
11 73 635
12 622 398
13 197 735
14 6 615
15 136 628
16 332 357
17 328 265
18 19 512
19 108 694
20 35 761
21 586 478
22 104 632
23 4 634
24 369 244
25 433 519
26 333 509
27 320 643
28 191 488
29 264 342
30 414 268
31 450 409
EDGE_WEIGHT_SECTION
0.00 607.74 576.78 54.43 397.74 66.50 129.34 73.58 524.40 391.39 513.12 225.00 478.30 625.18 561.19 309.19 454.65 641.44 490.26 695.12 115.92 568.98 606.44 429.26 80.89 185.87 336.25 430.41 362.90 397.12 195.52
607.74 0.00 47.00 654.52 683.92 674.24 609.29 681.32 224.92 737.99 94.62 812.52 301.34 83.77 154.67 538.04 683.50 224.80 212.43 220.68 710.77 94.72 89.85 619.39 629.76 499.86 301.64 338.97 574.18 721.72 585.74
576.78 47.00 0.00 631.21 647.80 643.28 638.01 650.36 177.92 709.35 63.66 767.77 254.34 96.33 148.77 558.56 673.87 203.62 171.59 230.62 692.70 115.24 68.67 572.39 629.07 516.45 348.64 291.97 612.57 674.72 540.99
54.43 654.52 631.21 0.00 407.07 29.33 167.65 73.50 556.99 336.96 567.55 187.83 522.32 570.75 615.62 363.62 455.52 587.01 544.69 749.55 113.28 623.41 598.41 473.92 135.32 240.30 385.78 375.98 345.52 371.59 249.95
397.74 683.92 647.80 407.07 0.00 436.40 278.57 428.70 589.27 70.11 645.01 502.91 718.54 708.40 559.90 145.88 176.89 709.61 655.10 786.11 389.69 589.20 716.47 75.41 426.63 384.89 516.21 511.48 221.59 47.57 292.29
66.50 674.24 643.28 29.33 436.40 0.00 185.11 46.49 527.66 366.29 579.62 158.50 544.80 600.08 627.69 366.04 457.42 616.34 556.76 761.62 88.83 635.48 627.74 495.76 147.39 252.37 402.75 405.31 316.19 400.92 232.71
129.34 609.29 638.01 167.65 278.57 185.11 0.00 150.13 483.56 279.91 613.20 250.92 509.98 693.06 528.09 235.42 380.88 556.43 619.60 754.30 192.47 588.04 691.38 353.98 174.17 283.05 307.65 508.79 359.16 267.78 97.02
73.58 681.32 650.36 73.50 428.70 46.49 150.13 0.00 574.15 408.40 586.70 198.82 544.29 644.25 617.29 382.77 491.19 646.25 563.84 768.70 42.34 642.56 671.91 486.79 146.88 259.45 409.83 449.48 362.68 384.46 186.22
524.40 224.92 177.92 556.99 589.27 527.66 483.56 574.15 0.00 643.34 187.24 643.21 304.02 274.25 133.83 443.39 588.85 282.70 174.05 296.89 616.49 170.42 246.59 664.68 485.27 338.53 393.04 214.60 486.90 636.84 564.90
391.39 737.99 709.35 336.96 70.11 366.29 279.91 408.40 643.34 0.00 699.13 448.96 752.57 686.21 630.01 199.95 164.92 639.50 725.21 820.50 376.75 643.27 658.55 136.96 387.90 378.08 550.24 441.37 211.81 34.63 222.18
513.12 94.62 63.66 567.55 645.01 579.62 613.20 586.70 187.24 699.13 0.00 738.12 255.30 120.98 85.11 499.18 644.64 228.27 138.00 255.27 629.04 55.86 93.32 636.05 565.41 482.60 344.32 304.03 548.91 692.58 516.18
225.00 812.52 767.77 187.83 502.91 158.50 250.92 198.82 643.21 448.96 738.12 0.00 703.30 758.58 657.85 430.19 421.16 686.81 715.26 884.06 156.48 717.80 786.24 522.64 305.89 410.87 558.57 563.81 474.69 455.34 226.78
478.30 301.34 254.34 522.32 718.54 544.80 509.98 544.29 304.02 752.57 255.30 703.30 0.00 350.67 170.19 572.66 718.12 380.72 230.39 348.48 586.63 230.14 323.01 678.58 397.41 544.15 202.33 434.89 571.69 717.94 563.13
625.18 83.77 96.33 570.75 708.40 600.08 693.06 644.25 274.25 686.21 120.98 758.58 350.67 0.00 206.09 599.95 720.88 162.61 189.59 189.61 684.03 156.63 27.66 668.72 686.39 577.28 385.41 373.64 657.95 720.84 622.64
561.19 154.67 148.77 615.62 559.90 627.69 528.09 617.29 133.83 630.01 85.11 657.85 170.19 206.09 0.00 503.27 648.73 313.38 95.20 226.21 659.63 59.95 178.43 635.31 480.30 434.30 259.21 264.70 463.80 607.47 431.07
309.19 538.04 558.56 363.62 145.88 366.04 235.42 382.77 443.39 199.95 499.18 430.19 572.66 599.95 503.27 0.00 145.46 662.32 561.03 660.36 415.96 443.32 592.50 221.29 369.13 239.01 370.33 451.29 123.74 193.45 203.41
454.65 683.50 673.87 455.52 176.89 457.42 380.88 491.19 588.85 164.92 644.64 421.16 718.12 720.88 648.73 145.46 0.00 702.78 632.69 805.82 472.41 588.78 737.96 101.48 473.07 326.33 515.79 491.75 202.54 130.29 348.87
641.44 224.80 203.62 587.01 709.61 616.34 556.43 646.25 282.70 639.50 228.27 686.81 380.72 162.61 313.38 662.32 702.78 0.00 236.80 296.90 688.59 284.13 134.95 727.58 592.23 472.24 492.33 211.03 538.58 674.13 460.03
490.26 212.43 171.59 544.69 655.10 556.76 619.60 563.84 174.05 725.21 138.00 715.26 230.39 189.59 95.20 561.03 632.69 236.80 0.00 204.86 606.18 117.71 161.93 730.51 571.15 488.95 354.41 359.90 559.00 702.67 526.27
695.12 220.68 230.62 749.55 786.11 761.62 754.30 768.70 296.89 820.50 255.27 884.06 348.48 189.61 226.21 660.36 805.82 296.90 204.86 0.00 811.04 217.04 161.95 803.01 658.01 511.27 485.42 484.26 688.30 833.68 657.28
115.92 710.77 692.70 113.28 389.69 88.83 192.47 42.34 616.49 376.75 629.04 156.48 586.63 684.03 659.63 415.96 472.41 688.59 606.18 811.04 0.00 684.90 711.69 444.45 189.22 301.79 452.17 489.26 405.02 342.12 228.56
568.98 94.72 115.24 623.41 589.20 635.48 588.04 642.56 170.42 643.27 55.86 717.80 230.14 156.63 59.95 443.32 588.78 284.13 117.71 217.04 684.90 0.00 149.18 664.61 535.04 426.74 311.76 269.44 523.75 636.77 491.02
606.44 89.85 68.67 598.41 716.47 627.74 691.38 671.91 246.59 658.55 93.32 786.24 323.01 27.66 178.43 592.50 737.96 134.95 161.93 161.95 711.69 149.18 0.00 641.06 658.73 549.62 391.49 345.98 642.23 693.18 594.98
429.26 619.39 572.39 473.92 75.41 495.76 353.98 486.79 664.68 136.96 636.05 522.64 678.58 668.72 635.31 221.29 101.48 727.58 730.51 803.01 444.45 664.61 641.06 0.00 481.39 366.03 476.25 516.55 189.00 102.33 359.14
80.89 629.76 629.07 135.32 426.63 147.39 174.17 146.88 485.27 387.90 565.41 305.89 397.41 686.39 480.30 369.13 473.07 592.23 571.15 658.01 189.22 535.04 658.73 481.39 0.00 146.74 417.14 381.20 323.77 379.06 165.72
185.87 499.86 516.45 240.30 384.89 252.37 283.05 259.45 338.53 378.08 482.60 410.87 544.15 577.28 434.30 239.01 326.33 472.24 488.95 511.27 301.79 426.74 549.62 366.03 146.74 0.00 354.48 261.21 177.03 411.46 312.46
336.25 301.64 348.64 385.78 516.21 402.75 307.65 409.83 393.04 550.24 344.32 558.57 202.33 385.41 259.21 370.33 515.79 492.33 354.41 485.42 452.17 311.76 391.49 476.25 417.14 354.48 0.00 461.02 494.07 515.61 404.67
430.41 338.97 291.97 375.98 511.48 405.31 508.79 449.48 214.60 441.37 304.03 563.81 434.89 373.64 264.70 451.29 491.75 211.03 359.90 484.26 489.26 269.44 345.98 516.55 381.20 261.21 461.02 0.00 327.55 476.00 411.77
362.90 574.18 612.57 345.52 221.59 316.19 359.16 362.68 486.90 211.81 548.91 474.69 571.69 657.95 463.80 123.74 202.54 538.58 559.00 688.30 405.02 523.75 642.23 189.00 323.77 177.03 494.07 327.55 0.00 234.43 265.48
397.12 721.72 674.72 371.59 47.57 400.92 267.78 384.46 636.84 34.63 692.58 455.34 717.94 720.84 607.47 193.45 130.29 674.13 702.67 833.68 342.12 636.77 693.18 102.33 379.06 411.46 515.61 476.00 234.43 0.00 256.81
195.52 585.74 540.99 249.95 292.29 232.71 97.02 186.22 564.90 222.18 516.18 226.78 563.13 622.64 431.07 203.41 348.87 460.03 526.27 657.28 228.56 491.02 594.98 359.14 165.72 312.46 404.67 411.77 265.48 256.81 0.00
DEMAND_SECTION
1 0
2 36
3 2
4 94
5 52
6 76
7 41
8 8
9 47
10 74
11 42
12 2
13 44
14 19
15 39
16 86
17 62
18 18
19 40
20 3
21 6
22 49
23 39
24 94
25 18
26 11
27 44
28 59
29 90
30 90
31 72
DEPOT_SECTION
1
-1
EOF
