NAME: LDG35_2233_snow_35_0186
COMMENT: CVRP with travel times.  rootPos=2,custPos=2,demandType=3,avgRouteSizeIndex=3,weather=snow,lambda_cluster=1,lambda_random=4, T1=300,T2=700,beta=1, alpha(i,j) ~ U(0.8,1.2)
TYPE: CVRP
DIMENSION: 36
EDGE_WEIGHT_TYPE: EXPLICIT
EDGE_WEIGHT_FORMAT: FULL_MATRIX
CAPACITY: 85
NODE_COORD_SECTION
1 500 500
2 558 620
3 946 987
4 964 943
5 576 629
6 231 606
7 385 460
8 111 591
9 134 865
10 88 500
11 796 942
12 830 941
13 79 806
14 85 958
15 811 846
16 837 969
17 73 553
18 893 944
19 839 976
20 734 919
21 959 913
22 340 493
23 827 946
24 553 660
25 489 552
26 708 963
27 184 809
28 178 606
29 68 799
30 425 420
31 251 441
32 883 904
33 772 913
34 118 519
35 640 595
36 443 488
EDGE_WEIGHT_SECTION
0.00 199.38 832.25 877.66 238.52 591.24 278.98 546.67 859.50 641.20 699.82 644.86 864.40 888.95 773.79 722.05 646.52 744.44 733.86 645.55 891.06 441.35 669.38 289.06 73.79 732.19 961.96 653.85 862.36 154.95 431.72 776.09 729.35 650.19 295.17 148.56
199.38 0.00 779.05 732.95 39.14 514.72 405.34 671.51 660.12 815.26 560.54 615.50 772.24 835.73 636.36 655.43 771.36 661.66 643.62 446.17 767.99 487.21 604.62 89.68 200.23 532.81 839.16 557.08 755.33 354.33 631.10 597.72 529.97 763.05 157.74 343.74
832.25 779.05 0.00 126.84 796.46 1128.09 1111.23 1159.17 1164.86 1370.82 242.35 187.39 1244.00 1340.47 345.90 207.14 1259.02 173.94 218.95 332.88 201.49 1159.91 211.91 745.92 906.04 379.29 1051.24 1213.32 1237.88 987.20 1253.14 237.88 284.93 1303.62 761.42 980.81
877.66 732.95 126.84 0.00 755.74 1122.37 1113.49 1204.58 1210.27 1402.51 252.29 232.80 1260.14 1385.88 286.39 223.28 1304.43 133.22 235.09 363.01 74.65 1119.19 251.96 705.20 933.18 389.23 1065.60 1172.60 1268.01 1032.61 1263.08 197.16 279.21 1349.03 765.01 983.07
238.52 39.14 796.46 755.74 0.00 553.86 366.20 632.37 620.98 776.12 599.68 654.64 749.24 796.59 632.70 690.81 732.22 622.52 682.76 485.31 728.85 448.07 643.76 50.54 239.37 571.95 830.92 517.94 766.15 393.47 617.81 558.58 569.11 776.82 196.88 304.60
591.24 514.72 1128.09 1122.37 553.86 0.00 377.12 259.14 453.20 342.24 989.09 1005.92 389.70 611.49 1081.58 1024.92 331.29 1098.24 1023.15 926.96 1197.02 411.77 1030.44 569.19 601.53 986.09 370.72 101.79 372.79 510.41 301.77 1077.23 843.16 248.33 634.45 442.68
278.98 405.34 1111.23 1113.49 366.20 377.12 0.00 574.94 732.17 539.09 951.63 923.84 713.72 890.46 827.10 1000.77 556.96 988.72 988.96 851.51 1095.05 163.24 948.36 416.74 224.41 824.17 693.74 380.76 696.81 133.29 329.61 924.78 933.12 502.05 486.32 130.42
546.67 671.51 1159.17 1204.58 632.37 259.14 574.94 0.00 426.73 211.65 1026.74 971.78 387.86 602.34 993.26 1048.97 99.85 1071.36 1060.78 1117.68 1217.98 428.84 996.30 682.91 472.88 1163.68 423.02 232.14 370.95 441.65 362.92 1103.01 1102.30 144.45 829.25 585.74
859.50 660.12 1164.86 1210.27 620.98 453.20 732.17 426.73 0.00 531.63 1032.43 977.47 128.26 175.61 1144.74 1054.66 526.58 1077.05 1066.47 942.02 1223.67 733.86 1001.99 671.52 860.35 1028.66 223.66 351.41 145.17 850.31 638.96 1108.70 1025.82 561.50 817.86 844.10
641.20 815.26 1370.82 1402.51 776.12 342.24 539.09 211.65 531.63 0.00 1216.81 1183.43 403.37 646.72 1204.91 1260.62 176.87 1283.01 1272.43 1102.44 1403.89 432.72 1207.95 725.58 684.53 1189.08 496.54 258.18 420.28 486.25 209.48 1233.62 1123.30 93.91 728.79 517.71
699.82 560.54 242.35 252.29 599.68 989.09 951.63 1026.74 1032.43 1216.81 0.00 54.96 1036.28 1194.66 172.99 110.36 1126.59 154.54 102.53 114.37 301.16 1025.06 58.36 611.07 727.22 136.94 813.31 1078.47 1019.37 854.77 1010.79 165.07 145.93 1122.90 587.17 848.38
644.86 615.50 187.39 232.80 654.64 1005.92 923.84 971.78 977.47 1183.43 54.96 0.00 1091.24 1153.08 167.27 77.19 1071.63 99.58 89.00 169.33 246.20 1002.17 24.52 639.27 718.65 191.90 868.27 1069.72 1074.33 799.81 1065.75 131.23 162.76 1116.23 642.13 793.42
864.40 772.24 1244.00 1260.14 749.24 389.70 713.72 387.86 128.26 403.37 1036.28 1091.24 0.00 243.35 1148.59 1036.86 487.71 1126.92 1048.67 921.91 1273.54 610.83 1080.36 799.78 805.48 1008.55 255.04 402.51 16.91 809.49 583.55 1169.09 1005.71 433.24 929.98 715.84
888.95 835.73 1340.47 1385.88 796.59 611.49 890.46 602.34 175.61 646.72 1194.66 1153.08 243.35 0.00 1320.35 1230.27 556.04 1252.66 1242.08 1099.71 1399.28 854.18 1177.60 847.13 815.16 1101.72 381.35 509.70 260.26 950.66 797.25 1284.31 1183.51 639.00 993.47 959.19
773.79 636.36 345.90 286.39 632.70 1081.58 827.10 993.26 1144.74 1204.91 172.99 167.27 1148.59 1320.35 0.00 238.86 1093.11 171.96 227.05 226.68 318.58 990.34 191.25 582.16 836.59 244.84 945.04 1049.56 1131.68 840.77 997.93 176.02 238.42 1137.71 478.62 696.68
722.05 655.43 207.14 223.28 690.81 1024.92 1000.77 1048.97 1054.66 1260.62 110.36 77.19 1036.86 1230.27 238.86 0.00 1148.82 90.06 11.81 209.26 236.68 1054.26 52.67 640.27 776.36 216.85 923.67 1097.87 1053.77 877.00 1121.15 132.23 181.76 1193.42 695.93 870.61
646.52 771.36 1259.02 1304.43 732.22 331.29 556.96 99.85 526.58 176.87 1126.59 1071.63 487.71 556.04 1093.11 1148.82 0.00 1171.21 1160.63 1091.49 1317.83 421.77 1096.15 696.09 572.73 1178.13 485.59 243.66 470.80 541.50 301.43 1202.86 1174.45 82.96 820.74 685.59
744.44 661.66 173.94 133.22 622.52 1098.24 988.72 1071.36 1077.05 1283.01 154.54 99.58 1126.92 1252.66 171.96 90.06 1171.21 0.00 101.87 267.17 146.62 985.97 118.74 571.98 818.23 291.48 967.85 1039.38 1143.83 899.39 1139.25 63.94 255.08 1215.81 650.58 868.64
733.86 643.62 218.95 235.09 682.76 1023.15 988.96 1060.78 1066.47 1272.43 102.53 89.00 1048.67 1242.08 227.05 11.81 1160.63 101.87 0.00 197.45 248.49 1066.07 64.48 652.08 764.55 205.04 915.81 1109.68 1065.58 888.81 1113.32 144.04 179.99 1205.23 684.12 882.42
645.55 446.17 332.88 363.01 485.31 926.96 851.51 1117.68 942.02 1102.44 114.37 169.33 921.91 1099.71 226.68 209.26 1091.49 267.17 197.45 0.00 413.79 933.38 158.45 535.85 646.40 86.64 718.36 1003.25 905.00 800.50 1005.98 250.11 83.80 1008.53 486.67 789.91
891.06 767.99 201.49 74.65 728.85 1197.02 1095.05 1217.98 1223.67 1403.89 301.16 246.20 1273.54 1399.28 318.58 236.68 1317.83 146.62 248.49 413.79 0.00 1092.30 265.36 678.31 964.85 438.10 1114.47 1145.71 1290.45 1046.01 1245.58 170.27 353.86 1362.43 730.08 980.93
441.35 487.21 1159.91 1119.19 448.07 411.77 163.24 428.84 733.86 432.72 1025.06 1002.17 610.83 854.18 990.34 1054.26 421.77 985.97 1066.07 933.38 1092.30 0.00 1026.69 413.99 367.56 987.41 688.22 382.45 593.92 296.53 251.82 922.03 1017.18 338.81 610.87 293.66
669.38 604.62 211.91 251.96 643.76 1030.44 948.36 996.30 1001.99 1207.95 58.36 24.52 1080.36 1177.60 191.25 52.67 1096.15 118.74 64.48 158.45 265.36 1026.69 0.00 614.75 743.17 177.94 871.67 1045.20 1063.45 824.33 1069.15 106.71 187.28 1140.75 645.12 817.94
289.06 89.68 745.92 705.20 50.54 569.19 416.74 682.91 671.52 725.58 611.07 639.27 799.78 847.13 582.16 640.27 696.09 571.98 652.08 535.85 678.31 413.99 614.75 0.00 289.91 606.53 780.38 467.40 816.69 444.01 567.27 508.04 619.65 752.80 196.88 302.62
73.79 200.23 906.04 933.18 239.37 601.53 224.41 472.88 860.35 684.53 727.22 718.65 805.48 815.16 836.59 776.36 572.73 818.23 764.55 646.40 964.85 367.56 743.17 289.91 0.00 733.04 895.90 605.17 788.57 200.34 477.11 797.95 730.20 617.33 357.97 188.61
732.19 532.81 379.29 389.23 571.95 986.09 824.17 1163.68 1028.66 1189.08 136.94 191.90 1008.55 1101.72 244.84 216.85 1178.13 291.48 205.04 86.64 438.10 987.41 177.94 606.53 733.04 0.00 805.00 1073.93 991.64 887.14 1092.62 284.65 142.93 1095.17 573.31 876.55
961.96 839.16 1051.24 1065.60 830.92 370.72 693.74 423.02 223.66 496.54 813.31 868.27 255.04 381.35 945.04 923.67 485.59 967.85 915.81 718.36 1114.47 688.22 871.67 780.38 895.90 805.00 0.00 312.98 271.95 811.88 600.53 968.47 802.16 402.63 949.43 813.40
653.85 557.08 1213.32 1172.60 517.94 101.79 380.76 232.14 351.41 258.18 1078.47 1069.72 402.51 509.70 1049.56 1097.87 243.66 1039.38 1109.68 1003.25 1145.71 382.45 1045.20 467.40 605.17 1073.93 312.98 0.00 419.42 498.90 287.55 975.44 944.95 289.06 664.28 511.18
862.36 755.33 1237.88 1268.01 766.15 372.79 696.81 370.95 145.17 420.28 1019.37 1074.33 16.91 260.26 1131.68 1053.77 470.80 1143.83 1065.58 905.00 1290.45 593.92 1063.45 816.69 788.57 991.64 271.95 419.42 0.00 812.60 600.46 1155.11 988.80 416.33 913.07 732.75
154.95 354.33 987.20 1032.61 393.47 510.41 133.29 441.65 850.31 486.25 854.77 799.81 809.49 950.66 840.77 877.00 541.50 899.39 888.81 800.50 1046.01 296.53 824.33 444.01 200.34 887.14 811.88 498.90 812.60 0.00 276.77 931.04 884.30 495.24 450.12 144.09
431.72 631.10 1253.14 1263.08 617.81 301.77 329.61 362.92 638.96 209.48 1010.79 1065.75 583.55 797.25 997.93 1121.15 301.43 1139.25 1113.32 1005.98 1245.58 251.82 1069.15 567.27 477.11 1092.62 600.53 287.55 600.46 276.77 0.00 1075.31 1089.78 218.47 519.31 420.86
776.09 597.72 237.88 197.16 558.58 1077.23 924.78 1103.01 1108.70 1233.62 165.07 131.23 1169.09 1284.31 176.02 132.23 1202.86 63.94 144.04 250.11 170.27 922.03 106.71 508.04 797.95 284.65 968.47 975.44 1155.11 931.04 1075.31 0.00 252.79 1247.46 654.64 810.66
729.35 529.97 284.93 279.21 569.11 843.16 933.12 1102.30 1025.82 1123.30 145.93 162.76 1005.71 1183.51 238.42 181.76 1174.45 255.08 179.99 83.80 353.86 1017.18 187.28 619.65 730.20 142.93 802.16 944.95 988.80 884.30 1089.78 252.79 0.00 1091.49 570.47 873.71
650.19 763.05 1303.62 1349.03 776.82 248.33 502.05 144.45 561.50 93.91 1122.90 1116.23 433.24 639.00 1137.71 1193.42 82.96 1215.81 1205.23 1008.53 1362.43 338.81 1140.75 752.80 617.33 1095.17 402.63 289.06 416.33 495.24 218.47 1247.46 1091.49 0.00 737.78 611.62
295.17 157.74 761.42 765.01 196.88 634.45 486.32 829.25 817.86 728.79 587.17 642.13 929.98 993.47 478.62 695.93 820.74 650.58 684.12 486.67 730.08 610.87 645.12 196.88 357.97 573.31 949.43 664.28 913.07 450.12 519.31 654.64 570.47 737.78 0.00 355.90
148.56 343.74 980.81 983.07 304.60 442.68 130.42 585.74 844.10 517.71 848.38 793.42 715.84 959.19 696.68 870.61 685.59 868.64 882.42 789.91 980.93 293.66 817.94 302.62 188.61 876.55 813.40 511.18 732.75 144.09 420.86 810.66 873.71 611.62 355.90 0.00
DEMAND_SECTION
1 0
2 10
3 10
4 10
5 7
6 9
7 10
8 5
9 5
10 8
11 10
12 5
13 5
14 9
15 7
16 6
17 6
18 7
19 10
20 8
21 10
22 9
23 9
24 6
25 5
26 10
27 5
28 6
29 10
30 9
31 8
32 9
33 10
34 8
35 6
36 8
DEPOT_SECTION
1
-1
EOF
