NAME: LDG35_3363_none_35_0099
COMMENT: CVRP with travel times.  rootPos=3,custPos=3,demandType=6,avgRouteSizeIndex=3,weather=none,lambda_cluster=1,lambda_random=4, T1=300,T2=700,beta=1, alpha(i,j) ~ U(0.8,1.2)
TYPE: CVRP
DIMENSION: 36
EDGE_WEIGHT_TYPE: EXPLICIT
EDGE_WEIGHT_FORMAT: FULL_MATRIX
CAPACITY: 412
NODE_COORD_SECTION
1 0 0
2 914 187
3 946 504
4 463 634
5 744 468
6 271 159
7 33 121
8 339 494
9 377 513
10 403 493
11 746 412
12 520 912
13 541 543
14 400 886
15 311 914
16 465 660
17 565 511
18 177 250
19 81 909
20 234 465
21 350 573
22 238 568
23 119 977
24 296 456
25 768 472
26 512 251
27 828 93
28 768 101
29 390 32
30 919 34
31 443 673
32 585 552
33 925 41
34 402 463
35 417 380
36 153 76
EDGE_WEIGHT_SECTION
0.00 1089.04 1166.04 821.76 981.62 344.23 229.95 659.37 693.57 660.49 899.77 1043.79 840.80 977.59 880.06 809.88 786.67 434.44 923.12 642.47 763.83 810.08 924.85 648.13 991.39 613.98 939.96 865.10 533.93 1071.24 770.54 863.66 1043.47 707.05 664.82 247.20
1089.04 0.00 450.39 667.04 368.56 852.85 992.34 748.44 736.63 707.81 305.26 853.48 552.16 760.86 895.62 679.41 492.20 943.78 1095.77 662.45 761.26 834.61 1146.67 738.62 396.88 589.61 226.59 223.94 652.59 201.20 710.36 515.92 228.97 699.94 721.81 939.32
1166.04 450.39 0.00 570.32 260.85 821.81 1071.45 597.48 633.18 600.10 266.27 682.18 449.45 847.12 872.16 597.52 410.31 876.79 1031.91 706.99 653.55 748.19 1049.95 726.90 278.98 622.57 521.02 554.12 786.45 422.53 632.98 419.20 450.30 618.05 639.92 919.30
821.76 667.04 570.32 0.00 309.47 477.53 788.00 194.67 135.24 168.32 361.78 335.91 193.54 323.36 390.61 31.08 201.73 490.87 461.59 304.18 141.87 252.56 527.33 286.64 347.25 426.61 683.96 609.10 659.88 798.02 62.66 151.12 787.47 207.77 292.49 672.39
981.62 368.56 260.85 309.47 0.00 637.39 815.52 392.02 372.33 339.25 81.85 495.91 193.52 632.83 618.30 340.55 205.58 627.23 771.06 501.53 392.70 513.89 789.10 475.00 37.78 373.26 463.30 408.33 586.91 488.55 372.13 158.35 493.25 364.01 390.36 751.95
344.23 852.85 821.81 477.53 637.39 0.00 408.30 374.08 349.34 316.26 555.54 769.56 496.57 800.89 835.04 508.61 442.44 199.67 799.94 479.95 419.60 517.51 812.02 471.47 647.16 269.75 626.26 677.90 200.26 772.47 540.19 519.43 800.24 362.82 320.59 194.86
229.95 992.34 1071.45 788.00 815.52 408.30 0.00 667.59 689.98 673.91 880.86 958.05 622.00 1049.20 1046.78 756.92 681.96 408.75 1024.62 589.79 721.85 697.90 1104.13 665.96 853.30 678.05 765.75 840.61 496.01 942.47 796.26 670.20 954.01 653.68 532.73 307.79
659.37 748.44 597.48 194.67 392.02 374.08 667.59 0.00 59.43 57.82 444.33 511.12 199.65 501.87 553.96 225.75 259.61 296.20 541.50 109.51 129.69 150.71 640.76 129.42 417.59 389.10 599.36 524.50 511.06 730.64 257.33 233.67 702.87 81.74 134.86 483.44
693.57 736.63 633.18 135.24 372.33 349.34 689.98 59.43 0.00 33.08 431.37 471.15 192.40 458.60 525.85 166.32 252.36 355.63 516.76 168.94 70.26 168.17 616.02 151.40 410.11 372.06 624.46 549.60 541.77 755.74 197.90 220.71 727.97 72.53 157.25 542.87
660.49 707.81 600.10 168.32 339.25 316.26 673.91 57.82 33.08 0.00 421.10 453.30 180.31 486.62 518.78 199.40 240.27 336.25 483.68 163.69 103.34 201.25 582.94 184.48 377.03 384.21 591.38 516.52 516.52 722.66 230.98 252.22 694.89 46.56 141.18 511.12
899.77 305.26 266.27 361.78 81.85 555.54 880.86 444.33 431.37 421.10 0.00 548.22 275.37 685.14 700.15 392.86 255.96 674.22 823.37 553.84 469.88 595.04 841.41 556.85 91.62 356.30 416.22 366.69 527.44 506.46 424.44 210.66 489.14 416.32 437.35 734.99
1043.79 853.48 682.18 335.91 495.91 769.56 958.05 511.12 471.15 453.30 548.22 0.00 400.93 164.94 246.95 312.59 414.55 765.74 499.85 612.06 448.15 584.37 500.93 606.15 518.91 666.35 870.40 795.54 870.47 969.68 273.25 337.56 973.91 499.86 537.59 952.98
840.80 552.16 449.45 193.54 193.52 496.57 622.00 199.65 192.40 180.31 275.37 400.93 0.00 454.74 424.78 162.46 59.96 482.36 600.73 309.16 235.74 320.37 666.47 281.48 231.30 408.57 612.62 537.76 659.88 682.07 201.80 79.78 686.77 187.00 245.49 669.60
977.59 760.86 847.12 323.36 632.83 800.89 1049.20 501.87 458.60 486.62 685.14 164.94 454.74 0.00 134.76 292.28 479.49 692.51 334.91 591.59 427.84 419.43 388.74 573.34 670.61 627.69 836.66 911.52 774.08 962.06 331.08 474.48 989.83 440.06 561.01 879.75
880.06 895.62 872.16 390.61 618.30 835.04 1046.78 553.96 525.85 518.78 700.15 246.95 424.78 134.76 0.00 421.69 461.85 827.27 353.24 600.40 532.48 554.19 253.98 524.23 656.08 762.45 971.42 962.54 908.84 1096.82 453.27 504.56 1111.55 472.22 593.17 997.06
809.88 679.41 597.52 31.08 340.55 508.61 756.92 225.75 166.32 199.40 392.86 312.59 162.46 292.28 421.69 0.00 187.21 521.95 438.27 299.47 135.56 283.64 504.01 293.56 378.33 457.69 715.04 640.18 636.56 829.10 39.34 182.20 818.55 238.85 323.57 703.47
786.67 492.20 410.31 201.73 205.58 442.44 681.96 259.61 252.36 240.27 255.96 414.55 59.96 479.49 461.85 187.21 0.00 466.48 625.48 369.12 295.70 380.33 691.22 341.44 243.36 405.78 604.76 529.90 642.70 693.40 226.55 76.99 685.66 207.74 229.61 637.30
434.44 943.78 876.79 490.87 627.23 199.67 408.75 296.20 355.63 336.25 674.22 765.74 482.36 692.51 827.27 521.95 466.48 0.00 819.93 388.11 425.89 446.91 810.07 350.52 616.22 469.42 767.73 719.84 399.93 921.27 492.49 529.87 898.21 357.82 236.87 187.24
923.12 1095.77 1031.91 461.59 771.06 799.94 1024.62 541.50 516.76 483.68 823.37 499.85 600.73 334.91 353.24 438.27 625.48 819.93 0.00 575.01 573.83 461.10 99.26 622.00 808.84 745.58 1075.06 1000.20 981.32 1183.84 398.93 612.71 1178.57 530.24 624.86 994.80
642.47 662.45 706.99 304.18 501.53 479.95 589.79 109.51 168.94 163.69 553.84 612.06 309.16 591.59 600.40 299.47 369.12 388.11 575.01 0.00 163.91 172.16 606.54 76.17 481.93 498.61 708.87 634.01 406.31 840.15 338.81 343.18 812.38 191.25 244.37 549.00
763.83 761.26 653.55 141.87 392.70 419.60 721.85 129.69 70.26 103.34 469.88 448.15 235.74 427.84 532.48 135.56 295.70 425.89 573.83 163.91 0.00 151.85 639.57 158.00 430.48 398.19 694.72 619.86 548.37 826.00 174.90 276.54 798.23 142.79 225.40 581.88
810.08 834.61 748.19 252.56 513.89 517.51 697.90 150.71 168.17 201.25 595.04 584.37 320.37 419.43 554.19 283.64 380.33 446.91 461.10 172.16 151.85 0.00 560.36 186.10 551.67 532.52 750.07 675.21 576.47 797.49 315.22 384.38 809.98 232.45 285.57 565.68
924.85 1146.67 1049.95 527.33 789.10 812.02 1104.13 640.76 616.02 582.94 841.41 500.93 666.47 388.74 253.98 504.01 691.22 810.07 99.26 606.54 639.57 560.36 0.00 661.43 826.88 844.84 1163.59 1088.73 1012.28 1277.65 464.67 630.75 1267.10 629.50 724.12 997.31
648.13 738.62 726.90 286.64 475.00 471.47 665.96 129.42 151.40 184.48 556.85 606.15 281.48 573.34 524.23 293.56 341.44 350.52 622.00 76.17 158.00 186.10 661.43 0.00 512.78 449.03 728.78 653.92 390.37 860.06 332.90 361.26 832.29 163.86 194.79 472.83
991.39 396.88 278.98 347.25 37.78 647.16 853.30 417.59 410.11 377.03 91.62 518.91 231.30 670.61 656.08 378.33 243.36 616.22 808.84 481.93 430.48 551.67 826.88 512.78 0.00 411.04 425.52 370.55 619.06 450.77 409.91 196.13 478.54 401.79 427.15 789.73
613.98 589.61 622.57 426.61 373.26 269.75 678.05 389.10 372.06 384.21 356.30 666.35 408.57 627.69 762.45 457.69 405.78 469.42 745.58 498.61 398.19 532.52 844.84 449.03 411.04 0.00 480.49 546.66 351.58 657.21 489.27 328.79 668.75 337.65 254.24 378.69
939.96 226.59 521.02 683.96 463.30 626.26 765.75 599.36 624.46 591.38 416.22 870.40 612.62 836.66 971.42 715.04 604.76 767.73 1075.06 708.87 694.72 750.07 1163.59 728.78 425.52 480.49 0.00 74.86 426.00 176.72 746.62 532.84 188.26 588.95 709.90 712.73
865.10 223.94 554.12 609.10 408.33 677.90 840.61 524.50 549.60 516.52 366.69 795.54 537.76 911.52 962.54 640.18 529.90 719.84 1000.20 634.01 619.86 675.21 1088.73 653.92 370.55 546.66 74.86 0.00 500.86 206.14 671.76 457.98 178.37 563.08 657.70 787.59
533.93 652.59 786.45 659.88 586.91 200.26 496.01 511.06 541.77 516.52 527.44 870.47 659.88 774.08 908.84 636.56 642.70 399.93 981.32 406.31 548.37 576.47 1012.28 390.37 619.06 351.58 426.00 500.86 0.00 590.59 597.22 680.37 614.26 503.91 520.85 286.73
1071.24 201.20 422.53 798.02 488.55 772.47 942.47 730.64 755.74 722.66 506.46 969.68 682.07 962.06 1096.82 829.10 693.40 921.27 1183.84 840.15 826.00 797.49 1277.65 860.06 450.77 657.21 176.72 206.14 590.59 0.00 860.68 646.90 27.77 765.67 782.43 877.32
770.54 710.36 632.98 62.66 372.13 540.19 796.26 257.33 197.90 230.98 424.44 273.25 201.80 331.08 453.27 39.34 226.55 492.49 398.93 338.81 174.90 315.22 464.67 332.90 409.91 489.27 746.62 671.76 597.22 860.68 0.00 213.78 850.13 270.43 355.15 679.73
863.66 515.92 419.20 151.12 158.35 519.43 670.20 233.67 220.71 252.22 210.66 337.56 79.78 474.48 504.56 182.20 76.99 529.87 612.71 343.18 276.54 384.38 630.75 361.26 196.13 328.79 532.84 457.98 680.37 646.90 213.78 0.00 636.35 205.66 306.60 707.48
1043.47 228.97 450.30 787.47 493.25 800.24 954.01 702.87 727.97 694.89 489.14 973.91 686.77 989.83 1111.55 818.55 685.66 898.21 1178.57 812.38 798.23 809.98 1267.10 832.29 478.54 668.75 188.26 178.37 614.26 27.77 850.13 636.35 0.00 741.45 810.20 900.99
707.05 699.94 618.05 207.77 364.01 362.82 653.68 81.74 72.53 46.56 416.32 499.86 187.00 440.06 472.22 238.85 207.74 357.82 530.24 191.25 142.79 232.45 629.50 163.86 401.79 337.65 588.95 563.08 503.91 765.67 270.43 205.66 741.45 0.00 120.95 545.06
664.82 721.81 639.92 292.49 390.36 320.59 532.73 134.86 157.25 141.18 437.35 537.59 245.49 561.01 593.17 323.57 229.61 236.87 624.86 244.37 225.40 285.57 724.12 194.79 427.15 254.24 709.90 657.70 520.85 782.43 355.15 306.60 810.20 120.95 0.00 424.11
247.20 939.32 919.30 672.39 751.95 194.86 307.79 483.44 542.87 511.12 734.99 952.98 669.60 879.75 997.06 703.47 637.30 187.24 994.80 549.00 581.88 565.68 997.31 472.83 789.73 378.69 712.73 787.59 286.73 877.32 679.73 707.48 900.99 545.06 424.11 0.00
DEMAND_SECTION
1 0
2 20
3 92
4 11
5 3
6 77
7 97
8 80
9 43
10 93
11 48
12 56
13 89
14 36
15 16
16 50
17 59
18 74
19 9
20 67
21 27
22 15
23 40
24 62
25 41
26 3
27 15
28 44
29 69
30 10
31 35
32 56
33 36
34 92
35 55
36 88
DEPOT_SECTION
1
-1
EOF
