NAME: LDG30_3341_snow_30_0022
COMMENT: CVRP with travel times.  rootPos=3,custPos=3,demandType=4,avgRouteSizeIndex=1,weather=snow,lambda_cluster=1,lambda_random=4, T1=300,T2=700,beta=1, alpha(i,j) ~ U(0.8,1.2)
TYPE: CVRP
DIMENSION: 31
EDGE_WEIGHT_TYPE: EXPLICIT
EDGE_WEIGHT_FORMAT: FULL_MATRIX
CAPACITY: 214
NODE_COORD_SECTION
1 0 0
2 260 696
3 473 361
4 978 831
5 398 842
6 947 616
7 805 490
8 343 948
9 294 190
10 272 787
11 763 604
12 354 980
13 481 24
14 286 542
15 901 901
16 273 120
17 966 866
18 890 319
19 235 288
20 688 742
21 913 712
22 236 833
23 961 750
24 915 561
25 497 321
26 888 839
27 231 288
28 452 887
29 741 369
30 416 308
31 690 788
EDGE_WEIGHT_SECTION
0.00 1237.12 951.77 1836.46 1452.51 1577.68 1579.72 1282.55 662.56 1296.38 1468.92 1349.76 951.07 998.42 1845.28 534.65 1794.46 1541.80 540.43 1448.22 1686.11 1396.70 1736.85 1465.05 980.41 1726.69 562.31 1480.08 1390.54 788.30 1407.80
1237.12 0.00 738.52 1103.21 343.13 993.76 1006.59 436.08 861.94 196.00 848.91 382.08 1316.48 349.06 945.49 956.49 1086.01 1148.16 696.69 950.86 1026.28 225.03 1149.80 1106.39 831.19 983.32 718.57 441.62 1005.85 901.99 873.21
951.77 738.52 0.00 1052.57 837.39 859.22 672.10 1007.35 348.58 902.99 517.15 1074.56 578.35 576.21 1020.51 476.49 966.27 654.06 411.34 610.52 928.54 963.55 907.37 801.01 92.67 906.27 389.46 918.59 480.25 163.47 697.64
1836.46 1103.21 1052.57 0.00 874.46 326.88 642.79 1005.19 1353.97 1022.06 535.42 1000.51 1440.37 1313.43 157.72 1481.88 86.30 801.06 1298.21 507.71 191.31 1122.38 188.26 373.59 1112.89 211.96 1307.47 840.78 834.66 1168.46 428.66
1452.51 343.13 837.39 874.46 0.00 891.34 730.83 169.96 1185.97 275.60 749.18 237.17 1415.74 692.19 978.88 1299.62 960.76 1007.16 1031.55 607.73 683.15 350.02 834.26 840.69 930.06 860.29 1053.43 98.49 1037.03 1000.86 541.40
1577.68 993.76 859.22 326.88 891.34 0.00 381.83 1052.36 1160.62 1054.10 342.07 1052.40 1177.42 1115.37 424.46 1288.53 413.18 474.18 1037.25 572.71 208.19 1154.42 235.12 112.63 942.84 471.54 1046.51 854.83 623.45 1022.69 659.83
1579.72 1006.59 672.10 642.79 730.83 381.83 0.00 900.79 1006.64 1006.43 246.15 968.00 950.08 811.68 745.31 1103.96 695.27 281.32 1039.29 533.71 490.26 1076.43 541.00 269.20 599.31 675.88 1017.41 829.32 306.20 791.42 575.11
1282.55 436.08 1007.35 1005.19 169.96 1052.36 900.79 0.00 1087.15 314.89 919.14 67.21 1286.81 621.99 1014.01 1215.06 1011.25 1177.12 1070.84 663.65 853.11 214.57 910.03 939.73 1064.04 885.72 1092.72 197.53 1206.99 871.93 576.53
662.56 861.94 348.58 1353.97 1185.97 1160.62 1006.64 1087.15 0.00 942.27 818.55 1154.36 454.54 512.88 1323.62 127.91 1267.67 968.72 201.52 901.67 1229.94 900.39 1195.42 1102.41 407.33 1197.42 223.40 1186.82 828.83 215.22 988.79
1296.38 196.00 902.99 1022.06 275.60 1054.10 1006.43 314.89 942.27 0.00 930.60 379.04 1154.40 429.39 1141.49 1031.84 1072.73 1282.76 755.95 772.07 958.75 100.32 1060.85 1116.29 931.63 1067.82 777.83 374.09 1201.85 739.52 806.89
1468.92 848.91 517.15 535.42 749.18 342.07 246.15 919.14 818.55 930.60 0.00 866.35 1033.03 969.87 505.07 946.46 449.12 527.47 928.49 287.56 411.39 830.28 482.52 283.86 609.82 429.73 906.61 845.52 389.15 680.62 374.68
1349.76 382.08 1074.56 1000.51 237.17 1052.40 968.00 67.21 1154.36 379.04 866.35 0.00 1354.02 686.14 1009.33 1282.27 1006.57 1244.33 1078.77 658.97 920.32 278.72 842.82 939.77 1131.25 890.74 1100.65 197.57 1246.83 939.14 571.85
951.07 1316.48 578.35 1440.37 1415.74 1177.42 950.08 1286.81 454.54 1154.40 1033.03 1354.02 0.00 967.42 1494.59 421.13 1482.15 805.39 655.31 1163.06 1249.06 1254.72 1290.28 1154.70 557.88 1458.81 640.87 1484.34 643.88 414.88 1250.18
998.42 349.06 576.21 1313.43 692.19 1115.37 811.68 621.99 512.88 429.39 969.87 686.14 967.42 0.00 1294.55 607.43 1257.82 1093.00 457.99 836.41 1200.93 407.42 1125.17 1039.57 668.88 1132.16 479.87 673.94 870.39 705.86 923.53
1845.28 945.49 1020.51 157.72 978.88 424.46 745.31 1014.01 1323.62 1141.49 505.07 1009.33 1494.59 1294.55 0.00 1451.53 176.00 898.64 1358.63 465.48 349.03 1137.90 204.31 476.11 1039.16 169.73 1336.75 914.50 850.71 1183.98 437.48
534.65 956.49 476.49 1481.88 1299.62 1288.53 1103.96 1215.06 127.91 1031.84 946.46 1282.27 421.13 607.43 1451.53 0.00 1395.58 1077.94 275.89 1029.58 1357.85 1014.85 1323.33 1200.51 516.55 1325.33 297.77 1281.37 855.89 343.13 1116.70
1794.46 1086.01 966.27 86.30 960.76 413.18 695.27 1011.25 1267.67 1072.73 449.12 1006.57 1482.15 1257.82 176.00 1395.58 0.00 791.80 1254.03 421.41 277.61 1093.83 206.92 459.89 1026.59 125.66 1232.15 927.08 838.27 1129.74 434.72
1541.80 1148.16 654.06 801.06 1007.16 474.18 281.32 1177.12 968.72 1282.76 527.47 1244.33 805.39 1093.00 898.64 1077.94 791.80 0.00 1001.37 665.04 682.37 1357.18 709.30 550.52 561.39 917.46 979.49 1105.65 553.52 753.50 752.16
540.43 696.69 411.34 1298.21 1031.55 1037.25 1039.29 1070.84 201.52 755.95 928.49 1078.77 655.31 457.99 1358.63 275.89 1254.03 1001.37 0.00 907.79 1145.68 856.27 1196.42 924.62 439.98 1203.54 21.88 1130.04 891.59 247.87 994.91
1448.22 950.86 610.52 507.71 607.73 572.71 533.71 663.65 901.67 772.07 287.56 658.97 1163.06 836.41 465.48 1029.58 421.41 665.04 907.79 0.00 364.52 793.69 445.22 571.42 605.18 295.75 885.91 647.83 587.86 773.99 87.12
1686.11 1026.28 928.54 191.31 683.15 208.19 490.26 853.11 1229.94 958.75 411.39 920.32 1249.06 1200.93 349.03 1357.85 277.61 682.37 1145.68 364.52 0.00 1033.17 171.79 221.06 969.70 291.18 1154.94 781.64 731.88 1092.01 451.64
1396.70 225.03 963.55 1122.38 350.02 1154.42 1076.43 214.57 900.39 100.32 830.28 278.72 1254.72 407.42 1137.90 1014.85 1093.83 1357.18 856.27 793.69 1033.17 0.00 1121.54 1114.14 885.15 968.17 878.15 393.48 1219.43 839.84 706.57
1736.85 1149.80 907.37 188.26 834.26 235.12 541.00 910.03 1195.42 1060.85 482.52 842.82 1290.28 1125.17 204.31 1323.33 206.92 709.30 1196.42 445.22 171.79 1121.54 0.00 271.80 1000.04 305.40 1205.68 735.77 646.40 980.20 532.34
1465.05 1106.39 801.01 373.59 840.69 112.63 269.20 939.73 1102.41 1116.29 283.86 939.77 1154.70 1039.57 476.11 1200.51 459.89 550.52 924.62 571.42 221.06 1114.14 271.80 0.00 830.21 512.24 933.88 742.20 510.82 964.48 572.28
980.41 831.19 92.67 1112.89 930.06 942.84 599.31 1064.04 407.33 931.63 609.82 1131.25 557.88 668.88 1039.16 516.55 1026.59 561.39 439.98 605.18 969.70 885.15 1000.04 830.21 0.00 900.93 418.10 1011.26 572.28 192.11 692.30
1726.69 983.32 906.27 211.96 860.29 471.54 675.88 885.72 1197.42 1067.82 429.73 890.74 1458.81 1132.16 169.73 1325.33 125.66 917.46 1203.54 295.75 291.18 968.17 305.40 512.24 900.93 0.00 1181.66 879.60 818.88 1062.94 318.89
562.31 718.57 389.46 1307.47 1053.43 1046.51 1017.41 1092.72 223.40 777.83 906.61 1100.65 640.87 479.87 1336.75 297.77 1232.15 979.49 21.88 885.91 1154.94 878.15 1205.68 933.88 418.10 1181.66 0.00 1151.92 869.71 225.99 973.03
1480.08 441.62 918.59 840.78 98.49 854.83 829.32 197.53 1186.82 374.09 845.52 197.57 1484.34 673.94 914.50 1281.37 927.08 1105.65 1130.04 647.83 781.64 393.48 735.77 742.20 1011.26 879.60 1151.92 0.00 1126.75 1069.46 560.71
1390.54 1005.85 480.25 834.66 1037.03 623.45 306.20 1206.99 828.83 1201.85 389.15 1246.83 643.88 870.39 850.71 855.89 838.27 553.52 891.59 587.86 731.88 1219.43 646.40 510.82 572.28 818.88 869.71 1126.75 0.00 643.72 674.98
788.30 901.99 163.47 1168.46 1000.86 1022.69 791.42 871.93 215.22 739.52 680.62 939.14 414.88 705.86 1183.98 343.13 1129.74 753.50 247.87 773.99 1092.01 839.84 980.20 964.48 192.11 1062.94 225.99 1069.46 643.72 0.00 861.11
1407.80 873.21 697.64 428.66 541.40 659.83 575.11 576.53 988.79 806.89 374.68 571.85 1250.18 923.53 437.48 1116.70 434.72 752.16 994.91 87.12 451.64 706.57 532.34 572.28 692.30 318.89 973.03 560.71 674.98 861.11 0.00
DEMAND_SECTION
1 0
2 15
3 12
4 19
5 27
6 67
7 38
8 38
9 74
10 73
11 3
12 56
13 89
14 34
15 71
16 5
17 61
18 84
19 29
20 76
21 91
22 53
23 67
24 59
25 76
26 33
27 18
28 64
29 81
30 39
31 51
DEPOT_SECTION
1
-1
EOF
