NAME: LDG35_3353_rain_35_0047
COMMENT: CVRP with travel times.  rootPos=3,custPos=3,demandType=5,avgRouteSizeIndex=3,weather=rain,lambda_cluster=1,lambda_random=4, T1=300,T2=700,beta=1, alpha(i,j) ~ U(0.8,1.2)
TYPE: CVRP
DIMENSION: 36
EDGE_WEIGHT_TYPE: EXPLICIT
EDGE_WEIGHT_FORMAT: FULL_MATRIX
CAPACITY: 947
NODE_COORD_SECTION
1 0 0
2 157 781
3 291 532
4 837 272
5 846 131
6 928 212
7 294 559
8 82 762
9 902 106
10 285 184
11 439 931
12 553 448
13 930 499
14 388 541
15 130 949
16 71 43
17 388 322
18 718 189
19 32 982
20 654 446
21 467 175
22 554 333
23 82 328
24 862 571
25 760 477
26 450 164
27 404 916
28 245 192
29 241 811
30 635 378
31 590 93
32 691 27
33 562 71
34 209 684
35 20 939
36 50 1000
EDGE_WEIGHT_SECTION
0.00 940.21 777.15 1050.65 916.84 1047.73 735.95 943.81 961.87 445.17 1123.96 794.33 1046.08 660.41 1107.67 88.69 595.38 828.28 1175.54 846.16 503.42 719.49 530.84 1140.52 942.32 492.39 1155.44 408.34 994.25 753.88 668.33 772.15 626.58 834.18 1179.99 1194.16
940.21 0.00 291.60 907.37 917.38 1004.53 273.14 148.71 986.69 658.74 372.83 609.51 947.05 355.51 202.46 920.40 531.05 783.36 235.33 617.60 684.69 727.70 483.37 850.73 846.76 660.12 371.02 643.16 126.34 698.04 824.41 928.23 782.66 106.03 239.78 276.90
777.15 291.60 0.00 659.18 625.78 778.14 43.53 335.39 695.09 367.14 431.54 317.91 718.02 116.74 459.06 690.79 263.25 680.02 526.93 378.83 393.09 436.10 328.01 611.96 587.11 368.52 407.92 408.78 345.64 433.71 592.18 696.00 550.43 185.57 531.38 536.49
1050.65 907.37 659.18 0.00 187.54 222.08 691.39 954.41 256.85 692.35 955.64 341.27 267.01 551.86 1074.83 961.96 527.76 325.41 1142.70 289.77 547.23 414.80 915.37 307.86 269.36 571.80 883.23 737.06 908.28 296.77 387.12 365.66 428.87 801.34 1147.15 1119.70
916.84 917.38 625.78 187.54 0.00 152.36 669.31 961.17 69.31 715.92 1057.32 528.81 454.55 694.11 1084.84 828.15 551.59 187.77 1152.71 432.02 465.89 482.16 777.73 495.40 456.90 472.17 1033.70 672.14 971.42 471.34 248.51 343.33 290.26 811.35 1157.16 1162.27
1047.73 1004.53 778.14 222.08 152.36 0.00 821.67 1113.53 152.38 799.24 1173.53 563.35 349.40 773.94 1206.99 976.77 589.61 284.15 1239.86 511.85 562.04 495.99 874.11 396.43 409.52 586.61 1101.12 818.25 1123.78 514.66 400.87 410.41 442.62 963.71 1244.31 1281.43
735.95 273.14 43.53 691.39 669.31 821.67 0.00 291.86 738.62 410.67 388.01 361.44 740.81 139.53 440.60 647.26 306.78 636.49 508.47 401.62 436.62 479.63 371.54 634.75 580.04 412.05 451.45 452.31 311.80 424.90 635.71 739.53 593.96 167.11 512.92 492.96
943.81 148.71 335.39 954.41 961.17 1113.53 291.86 0.00 1030.48 702.53 407.13 653.30 994.09 402.55 351.17 939.12 598.64 928.35 251.23 664.64 728.48 771.49 606.26 897.77 871.90 703.91 474.33 744.17 268.35 716.76 854.76 1006.85 885.82 153.07 285.09 292.80
961.87 986.69 695.09 256.85 69.31 152.38 738.62 1030.48 0.00 785.23 1126.63 598.12 501.78 763.42 1154.15 897.46 620.90 257.08 1222.02 501.33 535.20 551.47 847.04 548.81 526.21 541.48 1072.96 726.61 1040.73 486.50 317.82 412.64 359.57 880.66 1226.47 1231.58
445.17 658.74 367.14 692.35 715.92 799.24 410.67 702.53 785.23 0.00 798.68 456.02 753.13 483.88 826.20 356.48 257.07 627.36 894.07 580.34 291.74 383.49 320.74 874.70 640.25 315.97 775.06 129.29 712.78 488.06 467.41 571.23 425.66 552.71 898.52 903.63
1123.96 372.83 431.54 955.64 1057.32 1173.53 388.01 407.13 1126.63 798.68 0.00 615.43 868.49 484.52 398.47 1035.27 694.79 942.44 437.54 673.53 824.63 733.62 759.55 791.65 885.84 800.06 72.41 840.32 266.26 658.87 971.36 942.52 981.97 393.67 501.80 479.11
794.33 609.51 317.91 341.27 528.81 563.35 361.44 653.30 598.12 456.02 615.43 0.00 526.97 339.56 759.50 705.64 198.95 399.37 820.00 129.53 340.53 118.19 607.30 433.83 342.77 345.29 543.02 434.59 567.01 115.80 355.93 507.12 385.90 503.48 849.29 778.43
1046.08 947.05 718.02 267.01 454.55 349.40 740.81 994.09 501.78 753.13 868.49 526.97 0.00 601.28 1114.51 957.39 649.19 592.42 1182.38 397.44 578.26 589.51 1009.80 141.38 412.88 553.69 860.62 813.93 966.70 418.86 654.13 632.67 695.88 841.02 1186.83 1201.00
660.41 355.51 116.74 551.86 694.11 773.94 139.53 402.55 763.42 483.88 484.52 339.56 601.28 0.00 522.97 749.10 253.91 637.94 590.84 262.09 424.73 397.52 444.75 495.22 491.25 417.94 524.66 489.55 409.55 354.37 558.00 710.09 599.75 249.48 595.29 609.46
1107.67 202.46 459.06 1074.83 1084.84 1206.99 440.60 351.17 1154.15 826.20 398.47 759.50 1114.51 522.97 0.00 1087.86 722.31 985.82 133.41 785.06 852.15 850.43 685.83 1017.81 956.81 827.58 395.04 845.62 192.49 865.50 1026.87 1130.69 985.12 273.49 197.67 155.96
88.69 920.40 690.79 961.96 828.15 976.77 647.26 939.12 897.46 356.48 1035.27 705.64 957.39 749.10 1087.86 0.00 506.69 739.59 1155.73 757.47 414.73 630.80 442.15 1051.83 853.63 403.70 1098.71 427.68 959.06 665.19 579.64 683.46 537.89 814.37 1160.18 1140.22
595.38 531.05 263.25 527.76 551.59 589.61 306.78 598.64 620.90 257.07 694.79 198.95 649.19 253.91 722.31 506.69 0.00 473.78 766.38 323.27 170.82 317.14 431.51 617.63 457.96 195.39 671.17 235.64 608.89 230.99 391.23 522.87 377.30 448.82 733.95 799.74
828.28 783.36 680.02 325.41 187.77 284.15 636.49 928.35 257.08 627.36 942.44 399.37 592.42 637.94 985.82 739.59 473.78 0.00 1018.69 375.85 408.18 294.39 589.96 633.27 510.54 383.61 870.03 602.74 908.97 283.57 243.45 347.27 201.70 803.60 1023.14 1060.26
1175.54 235.33 526.93 1142.70 1152.71 1239.86 508.47 251.23 1222.02 894.07 437.54 820.00 1182.38 590.84 133.41 1155.73 766.38 1018.69 0.00 852.93 879.47 938.19 718.70 1086.06 1082.09 895.45 485.89 878.49 292.22 933.37 1059.74 1163.56 1017.99 341.36 64.26 41.57
846.16 617.60 378.83 289.77 432.02 511.85 401.62 664.64 501.33 580.34 673.53 129.53 397.44 262.09 785.06 757.47 323.27 375.85 852.93 0.00 342.74 247.72 706.84 369.14 229.16 367.31 672.55 513.56 671.64 92.28 457.28 560.73 415.53 511.57 857.38 871.55
503.42 684.69 393.09 547.23 465.89 562.04 436.62 728.48 535.20 291.74 824.63 340.53 578.26 424.73 852.15 414.73 170.82 408.18 879.47 342.74 0.00 251.67 480.68 637.10 474.50 24.57 801.01 284.81 666.10 250.46 220.41 352.05 206.48 578.66 904.77 916.75
719.49 727.70 436.10 414.80 482.16 495.99 479.63 771.49 551.47 383.49 733.62 118.19 589.51 397.52 850.43 630.80 317.14 294.39 938.19 247.72 251.67 0.00 518.13 534.57 290.48 227.10 661.21 322.26 657.94 170.65 237.74 388.93 279.49 621.67 967.48 896.62
530.84 483.37 328.01 915.37 777.73 874.11 371.54 606.26 847.04 320.74 759.55 607.30 1009.80 444.75 685.83 442.15 431.51 589.96 718.70 706.84 480.68 518.13 0.00 939.97 808.61 456.11 732.69 195.87 570.56 662.50 679.77 703.25 638.02 453.19 723.15 760.27
1140.52 850.73 611.96 307.86 495.40 396.43 634.75 897.77 548.81 874.70 791.65 433.83 141.38 495.22 1017.81 1051.83 617.63 633.27 1086.06 369.14 637.10 534.57 939.97 0.00 271.50 661.67 719.24 776.20 825.32 386.64 694.98 673.52 677.22 744.70 1090.51 1075.97
942.32 846.76 587.11 269.36 456.90 409.52 580.04 871.90 526.21 640.25 885.84 342.77 412.88 491.25 956.81 853.63 457.96 510.54 1082.09 229.16 474.50 290.48 808.61 271.50 0.00 449.93 813.43 612.74 891.84 226.97 528.22 569.55 502.27 740.73 1086.54 1073.00
492.39 660.12 368.52 571.80 472.17 586.61 412.05 703.91 541.48 315.97 800.06 345.29 553.69 417.94 827.58 403.70 195.39 383.61 895.45 367.31 24.57 227.10 456.11 661.67 449.93 0.00 776.44 260.24 690.67 275.03 223.66 327.48 181.91 554.09 899.90 905.01
1155.44 371.02 407.92 883.23 1033.70 1101.12 451.45 474.33 1072.96 775.06 72.41 543.02 860.62 524.66 395.04 1098.71 671.17 870.03 485.89 672.55 801.01 661.21 732.69 719.24 813.43 776.44 0.00 816.70 244.68 586.46 898.95 1014.93 928.92 321.26 550.15 495.33
408.34 643.16 408.78 737.06 672.14 818.25 452.31 744.17 726.61 129.29 840.32 434.59 813.93 489.55 845.62 427.68 235.64 602.74 878.49 513.56 284.81 322.26 195.87 776.20 612.74 260.24 816.70 0.00 754.42 466.63 483.90 507.38 442.15 594.35 882.94 920.06
994.25 126.34 345.64 908.28 971.42 1123.78 311.80 268.35 1040.73 712.78 266.26 567.01 966.70 409.55 192.49 959.06 608.89 908.97 292.22 671.64 666.10 657.94 570.56 825.32 891.84 690.67 244.68 754.42 0.00 682.81 886.51 1018.15 872.58 160.07 334.87 250.65
753.88 698.04 433.71 296.77 471.34 514.66 424.90 716.76 486.50 488.06 658.87 115.80 418.86 354.37 865.50 665.19 230.99 283.57 933.37 92.28 250.46 170.65 662.50 386.64 226.97 275.03 586.46 466.63 682.81 0.00 405.99 468.45 447.74 592.01 937.82 894.23
668.33 824.41 592.18 387.12 248.51 400.87 635.71 854.76 317.82 467.41 971.36 355.93 654.13 558.00 1026.87 579.64 391.23 243.45 1059.74 457.28 220.41 237.74 679.77 694.98 528.22 223.66 898.95 483.90 886.51 405.99 0.00 152.09 41.75 777.75 1064.19 1101.31
772.15 928.23 696.00 365.66 343.33 410.41 739.53 1006.85 412.64 571.23 942.52 507.12 632.67 710.09 1130.69 683.46 522.87 347.27 1163.56 560.73 352.05 388.93 703.25 673.52 569.55 327.48 1014.93 507.38 1018.15 468.45 152.09 0.00 145.57 881.57 1168.01 1205.13
626.58 782.66 550.43 428.87 290.26 442.62 593.96 885.82 359.57 425.66 981.97 385.90 695.88 599.75 985.12 537.89 377.30 201.70 1017.99 415.53 206.48 279.49 638.02 677.22 502.27 181.91 928.92 442.15 872.58 447.74 41.75 145.57 0.00 736.00 1022.44 1059.56
834.18 106.03 185.57 801.34 811.35 963.71 167.11 153.07 880.66 552.71 393.67 503.48 841.02 249.48 273.49 814.37 448.82 803.60 341.36 511.57 578.66 621.67 453.19 744.70 740.73 554.09 321.26 594.35 160.07 592.01 777.75 881.57 736.00 0.00 345.81 359.98
1179.99 239.78 531.38 1147.15 1157.16 1244.31 512.92 285.09 1226.47 898.52 501.80 849.29 1186.83 595.29 197.67 1160.18 733.95 1023.14 64.26 857.38 904.77 967.48 723.15 1090.51 1086.54 899.90 550.15 882.94 334.87 937.82 1064.19 1168.01 1022.44 345.81 0.00 84.22
1194.16 276.90 536.49 1119.70 1162.27 1281.43 492.96 292.80 1231.58 903.63 479.11 778.43 1201.00 609.46 155.96 1140.22 799.74 1060.26 41.57 871.55 916.75 896.62 760.27 1075.97 1073.00 905.01 495.33 920.06 250.65 894.23 1101.31 1205.13 1059.56 359.98 84.22 0.00
DEMAND_SECTION
1 0
2 90
3 75
4 80
5 59
6 92
7 68
8 66
9 55
10 92
11 80
12 89
13 76
14 94
15 56
16 69
17 98
18 97
19 97
20 93
21 89
22 66
23 100
24 82
25 56
26 85
27 83
28 98
29 88
30 82
31 88
32 70
33 51
34 92
35 77
36 77
DEPOT_SECTION
1
-1
EOF
