NAME: LDG35_1153_none_35_0125
COMMENT: CVRP with travel times.  rootPos=1,custPos=1,demandType=5,avgRouteSizeIndex=3,weather=none,lambda_cluster=1,lambda_random=4, T1=300,T2=700,beta=1, alpha(i,j) ~ U(0.8,1.2)
TYPE: CVRP
DIMENSION: 36
EDGE_WEIGHT_TYPE: EXPLICIT
EDGE_WEIGHT_FORMAT: FULL_MATRIX
CAPACITY: 599
NODE_COORD_SECTION
1 328 788
2 90 139
3 557 168
4 567 919
5 976 927
6 377 537
7 973 436
8 572 61
9 726 991
10 46 652
11 76 825
12 80 944
13 555 821
14 698 915
15 707 642
16 328 351
17 727 601
18 746 35
19 417 928
20 115 842
21 847 435
22 759 12
23 915 201
24 724 293
25 841 14
26 967 595
27 300 214
28 334 613
29 664 688
30 603 618
31 950 726
32 601 766
33 782 845
34 397 540
35 443 536
36 17 784
EDGE_WEIGHT_SECTION
0.00 812.40 675.86 274.82 726.51 249.15 829.20 730.82 505.66 338.94 314.11 374.28 311.72 396.91 449.99 485.78 477.60 870.25 143.66 262.43 694.87 902.52 860.88 619.36 901.98 749.08 563.16 338.03 378.43 456.09 711.94 354.17 506.63 261.41 314.10 302.94
812.40 0.00 558.12 887.01 1201.48 571.55 884.91 694.93 1019.96 611.47 676.58 788.00 783.02 911.21 848.19 406.45 867.00 754.10 927.30 718.27 899.08 721.83 953.51 739.17 811.71 1073.69 257.54 529.87 844.02 769.47 1055.28 733.99 1025.75 550.99 608.69 580.82
675.86 558.12 0.00 739.78 841.02 435.33 506.10 136.81 873.47 774.18 829.77 880.18 615.79 764.72 533.89 397.96 567.21 301.34 791.08 800.23 469.05 269.07 449.91 294.19 358.95 515.57 300.58 541.80 516.04 624.38 659.15 626.07 807.50 414.45 420.71 863.26
274.82 887.01 739.78 0.00 451.69 486.91 589.65 813.02 230.84 613.76 535.69 586.52 160.09 122.09 295.30 667.47 322.91 929.95 131.16 484.01 540.18 952.61 682.77 623.94 903.81 594.39 800.92 577.96 223.74 338.65 507.31 153.02 231.81 495.35 474.79 577.76
726.51 1201.48 841.02 451.69 0.00 695.72 469.94 962.46 346.25 985.44 822.73 953.85 550.57 329.60 412.10 871.30 458.36 858.48 582.85 874.41 523.11 890.75 709.65 720.23 854.21 325.45 1009.73 766.66 376.54 493.10 222.47 467.49 304.39 709.30 655.35 918.49
249.15 571.55 435.33 486.91 695.72 0.00 688.49 490.29 521.64 354.87 436.20 444.85 401.02 548.52 318.08 245.25 336.89 629.72 355.75 406.66 541.65 661.99 620.35 522.11 664.38 523.07 314.01 106.47 319.18 277.20 572.78 398.27 493.56 20.88 76.50 469.69
829.20 884.91 506.10 589.65 469.94 688.49 0.00 574.99 605.73 991.42 1033.55 1034.03 575.94 634.74 431.35 655.94 351.60 617.62 720.81 1009.13 163.31 590.96 273.31 373.62 501.08 289.07 627.37 693.94 450.77 497.05 247.47 492.86 522.97 667.61 659.52 994.54
730.82 694.93 136.81 813.02 962.46 490.29 574.99 0.00 946.71 829.14 884.73 935.14 752.60 837.96 660.84 534.77 628.23 164.63 846.04 855.19 575.58 196.90 434.19 388.31 286.78 637.01 437.39 596.76 589.28 669.71 780.59 699.31 880.74 469.41 527.11 918.22
505.66 1019.96 873.47 230.84 346.25 521.64 605.73 946.71 0.00 764.59 637.65 619.11 307.12 108.75 428.96 766.89 434.65 940.60 362.00 689.33 504.29 908.33 777.73 642.68 891.28 535.52 835.65 628.11 357.43 416.83 425.10 285.97 188.54 542.52 598.14 733.41
338.94 611.47 774.18 613.76 985.44 354.87 991.42 829.14 764.59 0.00 223.73 288.19 543.72 655.84 644.05 422.51 639.82 968.57 482.60 176.34 857.09 1000.84 959.20 857.79 1005.31 877.94 603.25 381.07 645.97 529.41 875.71 626.80 803.09 359.73 417.43 182.16
314.11 676.58 829.77 535.69 822.73 436.20 1033.55 884.73 637.65 223.73 0.00 131.12 484.87 657.78 712.52 573.89 731.33 1024.16 404.53 51.68 941.84 1056.43 969.20 806.51 1035.59 947.03 674.61 339.61 653.58 613.17 962.31 567.95 702.50 415.32 470.75 95.76
374.28 788.00 880.18 586.52 953.85 444.85 1034.03 935.14 619.11 288.19 131.12 0.00 508.59 708.61 707.25 657.58 764.04 1074.57 464.70 111.85 870.72 1106.84 1054.31 937.63 1109.23 967.92 758.86 470.73 701.70 680.27 999.93 591.67 807.65 465.73 521.35 226.88
311.72 783.02 615.79 160.09 550.57 401.02 575.94 752.60 307.12 543.72 484.87 508.59 0.00 236.17 264.67 597.53 292.28 850.52 212.26 433.19 486.40 882.79 736.41 523.62 873.18 563.76 710.62 507.49 193.11 268.71 526.62 83.08 311.69 380.14 404.85 570.64
396.91 911.21 764.72 122.09 329.60 548.52 634.74 837.96 108.75 655.84 657.78 708.61 236.17 0.00 320.21 691.67 325.90 838.33 253.25 606.10 477.57 870.60 751.01 626.93 864.56 530.85 862.53 603.74 248.68 362.85 387.27 177.22 147.25 556.69 498.99 678.90
449.99 848.19 533.89 295.30 412.10 318.08 431.35 660.84 428.96 644.05 712.52 707.25 264.67 320.21 0.00 521.57 79.75 679.11 426.46 682.98 297.02 709.45 570.46 364.75 684.01 368.92 608.33 388.20 71.56 114.64 315.64 181.59 278.81 297.20 322.90 683.27
485.78 406.45 397.96 667.47 871.30 245.25 655.94 534.77 766.89 422.51 573.89 657.58 597.53 691.67 521.57 0.00 536.91 671.30 601.00 545.73 492.63 639.03 576.22 629.16 728.91 690.29 180.74 267.30 560.88 522.45 648.83 514.45 699.13 224.37 282.07 604.67
477.60 867.00 567.21 322.91 458.36 336.89 351.60 628.23 434.65 639.82 731.33 764.04 292.28 325.90 79.75 536.91 0.00 627.93 454.07 701.79 217.27 629.70 490.71 301.03 604.26 293.33 650.90 419.01 99.17 145.45 235.89 209.20 282.35 316.01 343.54 710.88
870.25 754.10 301.34 929.95 858.48 629.72 617.62 164.63 940.60 968.57 1024.16 1074.57 850.52 838.33 679.11 671.30 627.93 0.00 985.47 994.62 454.31 32.27 365.27 326.90 122.15 533.03 496.56 736.19 707.86 591.30 676.61 776.93 838.59 608.84 655.18 1057.65
143.66 927.30 791.08 131.16 582.85 355.75 720.81 846.04 362.00 482.60 404.53 464.70 212.26 253.25 426.46 601.00 454.07 985.47 0.00 352.85 583.87 1017.74 813.93 735.88 970.86 612.34 669.76 462.22 354.90 469.81 607.51 284.18 362.97 376.63 432.25 446.60
262.43 718.27 800.23 484.01 874.41 406.66 1009.13 855.19 689.33 176.34 51.68 111.85 433.19 606.10 682.98 545.73 701.79 994.62 352.85 0.00 919.06 1026.89 942.46 858.19 1031.36 917.49 716.30 391.29 626.30 664.85 937.68 516.27 715.82 385.78 443.48 137.45
694.87 899.08 469.05 540.18 523.11 541.65 163.31 575.58 504.29 857.09 941.84 870.72 486.40 477.57 297.02 492.63 217.27 454.31 583.87 919.06 0.00 476.87 273.44 210.31 386.99 197.66 661.13 602.23 316.44 362.72 331.34 426.47 384.28 533.28 496.21 928.15
902.52 721.83 269.07 952.61 890.75 661.99 590.96 196.90 908.33 1000.84 1056.43 1106.84 882.79 870.60 709.45 639.03 629.70 32.27 1017.74 1026.89 476.87 0.00 374.02 359.17 89.88 565.30 464.29 754.05 728.87 623.57 708.88 809.20 861.15 641.11 622.91 1043.14
860.88 953.51 449.91 682.77 709.65 620.35 273.31 434.19 777.73 959.20 969.20 1054.31 736.41 751.01 570.46 576.22 490.71 365.27 813.93 942.46 273.44 374.02 0.00 282.13 290.55 384.20 695.97 629.59 588.22 471.66 520.78 657.29 632.81 599.47 631.81 1037.29
619.36 739.17 294.19 623.94 720.23 522.11 373.62 388.31 642.68 857.79 806.51 937.63 523.62 626.93 364.75 629.16 301.03 326.90 735.88 858.19 210.31 359.17 282.13 0.00 439.31 407.97 545.03 532.75 400.20 446.48 497.76 510.23 583.38 533.44 502.52 902.27
901.98 811.71 358.95 903.81 854.21 664.38 501.08 286.78 891.28 1005.31 1035.59 1109.23 873.18 864.56 684.01 728.91 604.26 122.15 970.86 1031.36 386.99 89.88 290.55 439.31 0.00 584.65 554.17 719.02 680.07 632.60 718.33 790.10 771.27 645.58 587.88 1094.39
749.08 1073.69 515.57 594.39 325.45 523.07 289.07 637.01 535.52 877.94 947.03 967.92 563.76 530.85 368.92 690.29 293.33 533.03 612.34 917.49 197.66 565.30 384.20 407.97 584.65 0.00 816.15 629.54 370.65 438.78 143.58 480.68 419.08 531.71 589.41 980.52
563.16 257.54 300.58 800.92 1009.73 314.01 627.37 437.39 835.65 603.25 674.61 758.86 710.62 862.53 608.33 180.74 650.90 496.56 669.76 716.30 661.13 464.29 695.97 545.03 554.17 816.15 0.00 417.43 633.19 591.21 829.57 695.19 807.57 334.89 390.51 578.85
338.03 529.87 541.80 577.96 766.66 106.47 693.94 596.76 628.11 381.07 339.61 470.73 507.49 603.74 388.20 267.30 419.01 736.19 462.22 391.29 602.23 754.05 629.59 532.75 719.02 629.54 417.43 0.00 390.12 273.56 622.70 451.50 548.20 127.35 131.14 407.70
378.43 844.02 516.04 223.74 376.54 319.18 450.77 589.28 357.43 645.97 653.58 701.70 193.11 248.68 71.56 560.88 99.17 707.86 354.90 626.30 316.44 728.87 588.22 400.20 680.07 370.65 633.19 390.12 0.00 116.56 333.51 110.03 291.46 336.51 278.81 611.71
456.09 769.47 624.38 338.65 493.10 277.20 497.05 669.71 416.83 529.41 613.17 680.27 268.71 362.85 114.64 522.45 145.45 591.30 469.81 664.85 362.72 623.57 471.66 446.48 632.60 438.78 591.21 273.56 116.56 0.00 349.14 185.63 356.75 298.08 240.45 681.26
711.94 1055.28 659.15 507.31 222.47 572.78 247.47 780.59 425.10 875.71 962.31 999.93 526.62 387.27 315.64 648.83 235.89 676.61 607.51 937.68 331.34 708.88 520.78 497.76 718.33 143.58 829.57 622.70 333.51 349.14 0.00 443.54 275.50 551.90 579.43 945.22
354.17 733.99 626.07 153.02 467.49 398.27 492.86 699.31 285.97 626.80 567.95 591.67 83.08 177.22 181.59 514.45 209.20 776.93 284.18 516.27 426.47 809.20 657.29 510.23 790.10 480.68 695.19 451.50 110.03 185.63 443.54 0.00 302.76 379.47 321.77 501.68
506.63 1025.75 807.50 231.81 304.39 493.56 522.97 880.74 188.54 803.09 702.50 807.65 311.69 147.25 278.81 699.13 282.35 838.59 362.97 715.82 384.28 861.15 632.81 583.38 771.27 419.08 807.57 548.20 291.46 356.75 275.50 302.76 0.00 474.76 417.06 798.26
261.41 550.99 414.45 495.35 709.30 20.88 667.61 469.41 542.52 359.73 415.32 465.73 380.14 556.69 297.20 224.37 316.01 608.84 376.63 385.78 533.28 641.11 599.47 533.44 645.58 531.71 334.89 127.35 336.51 298.08 551.90 379.47 474.76 0.00 57.70 448.81
314.10 608.69 420.71 474.79 655.35 76.50 659.52 527.11 598.14 417.43 470.75 521.35 404.85 498.99 322.90 282.07 343.54 655.18 432.25 443.48 496.21 622.91 631.81 502.52 587.88 589.41 390.51 131.14 278.81 240.45 579.43 321.77 417.06 57.70 0.00 506.51
302.94 580.82 863.26 577.76 918.49 469.69 994.54 918.22 733.41 182.16 95.76 226.88 570.64 678.90 683.27 604.67 710.88 1057.65 446.60 137.45 928.15 1043.14 1037.29 902.27 1094.39 980.52 578.85 407.70 611.71 681.26 945.22 501.68 798.26 448.81 506.51 0.00
DEMAND_SECTION
1 0
2 82
3 79
4 51
5 54
6 96
7 72
8 50
9 50
10 50
11 64
12 71
13 64
14 80
15 96
16 58
17 62
18 79
19 99
20 71
21 78
22 83
23 51
24 59
25 85
26 68
27 78
28 85
29 96
30 87
31 89
32 71
33 71
34 80
35 61
36 78
DEPOT_SECTION
1
-1
EOF
