NAME: LDG30_2343_snow_30_0142
COMMENT: CVRP with travel times.  rootPos=2,custPos=3,demandType=4,avgRouteSizeIndex=3,weather=snow,lambda_cluster=1,lambda_random=4, T1=300,T2=700,beta=1, alpha(i,j) ~ U(0.8,1.2)
TYPE: CVRP
DIMENSION: 31
EDGE_WEIGHT_TYPE: EXPLICIT
EDGE_WEIGHT_FORMAT: FULL_MATRIX
CAPACITY: 394
NODE_COORD_SECTION
1 500 500
2 838 209
3 502 403
4 946 942
5 210 300
6 455 933
7 633 127
8 338 758
9 319 762
10 52 741
11 664 56
12 894 513
13 142 502
14 647 707
15 439 166
16 910 953
17 745 337
18 964 839
19 930 570
20 166 597
21 881 231
22 26 48
23 619 16
24 274 748
25 689 389
26 915 218
27 385 839
28 219 889
29 801 467
30 565 148
31 548 735
EDGE_WEIGHT_SECTION
0.00 580.58 196.81 951.52 829.59 746.71 584.12 442.00 463.94 898.66 625.33 603.08 603.84 533.41 632.33 879.63 484.90 1033.24 634.49 445.41 656.75 977.03 683.58 549.65 279.02 707.52 569.98 749.45 443.90 476.30 379.45
580.58 0.00 551.18 1009.80 1018.69 1190.17 440.42 1022.58 1044.52 1128.00 327.06 550.27 1176.42 851.85 625.46 1034.63 242.38 985.78 700.39 1025.99 76.17 1218.95 411.11 1130.23 301.56 126.94 1111.47 1310.09 554.71 520.53 813.21
196.81 551.18 0.00 1148.33 632.78 783.57 646.97 478.86 525.72 960.44 585.26 799.89 633.71 730.22 508.66 1076.44 428.56 1123.03 740.52 584.51 627.35 780.22 486.77 586.51 249.62 678.12 606.84 786.31 569.04 664.69 576.26
951.52 1009.80 1148.33 0.00 1291.22 766.49 1290.86 886.88 928.68 1267.86 1289.83 504.55 1221.21 686.79 1341.70 71.89 874.46 177.02 654.67 1062.78 1085.97 1882.65 1253.58 993.70 1074.18 1136.74 758.90 1054.08 837.38 1185.67 606.17
829.59 1018.69 632.78 1291.22 0.00 1066.24 634.88 761.53 808.39 794.67 747.41 1214.00 258.82 855.08 393.23 1219.33 860.47 1468.24 1325.30 417.25 999.13 726.02 790.01 738.47 882.40 1057.32 865.21 833.16 881.17 549.26 701.12
746.71 1190.17 783.57 766.49 1066.24 0.00 1285.96 304.71 302.93 737.65 1304.87 862.98 807.42 441.63 1076.77 694.60 1069.67 905.61 922.68 648.99 1165.35 1462.98 1270.34 396.11 888.61 1223.54 289.28 448.82 856.92 1223.01 376.96
584.12 440.42 646.97 1290.86 634.88 1285.96 0.00 1026.12 1048.06 1150.36 134.16 819.13 807.28 853.30 241.65 1362.75 419.03 1162.43 860.27 965.71 364.25 778.53 232.65 1133.77 397.35 422.44 1154.10 1172.88 622.33 107.82 909.00
442.00 1022.58 478.86 886.88 761.53 304.71 1026.12 0.00 46.86 481.58 1064.12 773.82 502.71 449.14 925.77 958.77 907.42 926.63 923.94 344.28 1098.75 1164.15 965.63 107.65 721.02 1149.52 127.98 307.45 638.28 918.30 369.37
463.94 1044.52 525.72 928.68 808.39 302.93 1048.06 46.86 0.00 434.72 1089.27 820.68 549.57 476.47 972.63 997.53 948.84 973.49 970.80 391.14 1113.56 1211.01 1012.49 93.18 742.96 1120.34 174.84 305.25 685.14 940.24 322.51
898.66 1128.00 960.44 1267.86 794.67 737.65 1150.36 481.58 434.72 0.00 1262.89 1255.40 535.85 911.19 908.71 1338.47 1370.38 1307.61 1405.52 652.81 1204.17 1042.56 1305.49 527.90 1177.68 1254.94 508.96 336.58 1119.86 1064.74 757.23
625.33 327.06 585.26 1289.83 747.41 1304.87 134.16 1064.12 1089.27 1262.89 0.00 785.28 919.81 863.24 354.18 1356.91 553.19 1296.59 747.60 1070.74 403.23 912.69 98.49 1171.77 531.51 454.00 1179.36 1305.17 745.66 241.98 1004.78
603.08 550.27 799.89 504.55 1214.00 862.98 819.13 773.82 820.68 1255.40 785.28 0.00 1177.23 421.35 872.60 576.44 405.36 595.47 150.12 1018.80 618.86 1407.85 749.03 865.95 611.24 632.84 843.65 1042.27 332.83 716.57 545.39
603.84 1176.42 633.71 1221.21 258.82 807.42 807.28 502.71 549.57 535.85 919.81 1177.23 0.00 883.23 565.63 1154.50 934.04 1398.23 1238.33 158.43 1147.54 909.65 962.41 479.65 882.86 1205.73 606.39 574.34 1012.78 721.66 766.83
533.41 851.85 730.22 686.79 855.08 441.63 853.30 449.14 476.47 911.19 863.24 421.35 883.23 0.00 1066.00 697.67 628.04 717.76 544.89 793.42 775.68 1490.31 961.73 463.37 575.33 833.87 452.22 650.84 415.29 929.80 153.96
632.33 625.46 508.66 1341.70 393.23 1076.77 241.65 925.77 972.63 908.71 354.18 872.60 565.63 1066.00 0.00 1413.59 467.24 1210.64 932.07 724.06 605.90 641.71 396.78 1033.42 580.65 664.09 1053.75 1067.56 670.54 156.03 1011.78
879.63 1034.63 1076.44 71.89 1219.33 694.60 1362.75 958.77 997.53 1338.47 1356.91 576.44 1154.50 697.67 1413.59 0.00 946.35 248.91 609.31 1134.67 1110.80 1856.66 1325.47 1065.59 1100.21 1161.57 830.79 1001.89 909.27 1257.56 678.06
484.90 242.38 428.56 874.46 860.47 1069.67 419.03 907.42 948.84 1370.38 553.19 405.36 934.04 628.04 467.24 946.35 0.00 743.40 464.83 916.95 213.50 1108.95 513.65 1015.07 205.88 271.69 1015.79 1166.16 322.65 311.21 717.53
1033.24 985.78 1123.03 177.02 1468.24 905.61 1162.43 926.63 973.49 1307.61 1296.59 595.47 1398.23 717.76 1210.64 248.91 743.40 0.00 581.33 1239.80 956.90 1852.35 1257.05 939.48 917.06 1015.09 798.65 1130.36 928.30 1054.61 783.19
634.49 700.39 740.52 654.67 1325.30 922.68 860.27 923.94 970.80 1405.52 747.60 150.12 1238.33 544.89 932.07 609.31 464.83 581.33 0.00 1079.90 678.33 1405.40 846.09 1008.26 490.90 654.40 977.50 1192.39 482.95 776.04 695.51
445.41 1025.99 584.51 1062.78 417.25 648.99 965.71 344.28 391.14 652.81 1070.74 1018.80 158.43 793.42 724.06 1134.67 916.95 1239.80 1079.90 0.00 1102.16 819.87 1045.20 331.81 724.43 1108.57 466.55 582.19 889.31 880.09 713.65
656.75 76.17 627.35 1085.97 999.13 1165.35 364.25 1098.75 1113.56 1204.17 403.23 618.86 1147.54 775.68 605.90 1110.80 213.50 956.90 678.33 1102.16 0.00 1142.78 410.89 1137.88 377.73 58.19 1089.31 1287.93 536.15 472.07 791.05
977.03 1218.95 780.22 1882.65 726.02 1462.98 778.53 1164.15 1211.01 1042.56 912.69 1407.85 909.65 1490.31 641.71 1856.66 1108.95 1852.35 1405.40 819.87 1142.78 0.00 974.16 1151.68 1029.84 1200.97 1286.42 1379.14 1075.02 797.74 1356.48
683.58 411.11 486.77 1253.58 790.01 1270.34 232.65 965.63 1012.49 1305.49 98.49 749.03 962.41 961.73 396.78 1325.47 513.65 1257.05 846.09 1045.20 410.89 974.16 0.00 1073.28 612.62 469.08 1093.61 1206.68 647.17 240.75 1063.03
549.65 1130.23 586.51 993.70 738.47 396.11 1133.77 107.65 93.18 527.90 1171.77 865.95 479.65 463.37 1033.42 1065.59 1015.07 939.48 1008.26 331.81 1137.88 1151.68 1073.28 0.00 828.67 1196.07 234.80 301.06 745.93 1025.95 415.69
279.02 301.56 249.62 1074.18 882.40 888.61 397.35 721.02 742.96 1177.68 531.51 611.24 882.86 575.33 580.65 1100.21 205.88 917.06 490.90 724.43 377.73 1029.84 612.62 828.67 0.00 428.50 809.91 1008.53 319.42 424.62 511.65
707.52 126.94 678.12 1136.74 1057.32 1223.54 422.44 1149.52 1120.34 1254.94 454.00 632.84 1205.73 833.87 664.09 1161.57 271.69 1015.09 654.40 1108.57 58.19 1200.97 469.08 1196.07 428.50 0.00 1147.50 1346.12 594.34 530.26 849.24
569.98 1111.47 606.84 758.90 865.21 289.28 1154.10 127.98 174.84 508.96 1179.36 843.65 606.39 452.22 1053.75 830.79 1015.79 798.65 977.50 466.55 1089.31 1286.42 1093.61 234.80 809.91 1147.50 0.00 331.71 766.26 1046.28 298.26
749.45 1310.09 786.31 1054.08 833.16 448.82 1172.88 307.45 305.25 336.58 1305.17 1042.27 574.34 650.84 1067.56 1001.89 1166.16 1130.36 1192.39 582.19 1287.93 1379.14 1206.68 301.06 1008.53 1346.12 331.71 0.00 945.73 1065.06 496.88
443.90 554.71 569.04 837.38 881.17 856.92 622.33 638.28 685.14 1119.86 745.66 332.83 1012.78 415.29 670.54 909.27 322.65 928.30 482.95 889.31 536.15 1075.02 647.17 745.93 319.42 594.34 766.26 945.73 0.00 514.51 500.61
476.30 520.53 664.69 1185.67 549.26 1223.01 107.82 918.30 940.24 1064.74 241.98 716.57 721.66 929.80 156.03 1257.56 311.21 1054.61 776.04 880.09 472.07 797.74 240.75 1025.95 424.62 530.26 1046.28 1065.06 514.51 0.00 855.75
379.45 813.21 576.26 606.17 701.12 376.96 909.00 369.37 322.51 757.23 1004.78 545.39 766.83 153.96 1011.78 678.06 717.53 783.19 695.51 713.65 791.05 1356.48 1063.03 415.69 511.65 849.24 298.26 496.88 500.61 855.75 0.00
DEMAND_SECTION
1 0
2 26
3 65
4 82
5 8
6 50
7 66
8 9
9 93
10 49
11 96
12 67
13 4
14 12
15 67
16 27
17 42
18 16
19 57
20 25
21 66
22 87
23 75
24 79
25 44
26 27
27 30
28 48
29 15
30 71
31 69
DEPOT_SECTION
1
-1
EOF
