NAME: LDG40_1131_fog_40_0109
COMMENT: CVRP with travel times.  rootPos=1,custPos=1,demandType=3,avgRouteSizeIndex=1,weather=fog,lambda_cluster=1,lambda_random=4, T1=300,T2=700,beta=1, alpha(i,j) ~ U(0.8,1.2)
TYPE: CVRP
DIMENSION: 41
EDGE_WEIGHT_TYPE: EXPLICIT
EDGE_WEIGHT_FORMAT: FULL_MATRIX
CAPACITY: 23
NODE_COORD_SECTION
1 523 653
2 754 105
3 813 117
4 498 729
5 710 1000
6 702 246
7 36 718
8 654 463
9 412 98
10 561 230
11 568 898
12 778 298
13 325 632
14 430 349
15 395 187
16 739 6
17 816 721
18 49 311
19 689 917
20 741 399
21 308 980
22 449 245
23 904 299
24 638 407
25 270 512
26 229 297
27 286 658
28 30 939
29 182 392
30 36 53
31 348 856
32 297 748
33 415 537
34 98 580
35 401 389
36 289 983
37 823 353
38 663 564
39 712 694
40 440 342
41 195 520
EDGE_WEIGHT_SECTION
0.00 693.54 737.08 85.82 612.91 564.28 586.15 292.97 614.59 601.89 388.88 548.63 277.89 432.00 555.17 686.62 341.67 585.51 473.17 404.27 493.34 560.47 520.94 372.85 337.84 592.01 303.35 596.51 459.55 889.17 319.36 319.12 166.70 552.74 415.09 459.16 496.91 311.30 224.55 447.57 430.49
693.54 0.00 79.42 771.16 963.46 194.28 1004.68 465.59 422.62 279.25 996.61 267.87 820.70 467.90 511.28 124.09 730.59 865.00 922.97 398.76 1070.57 395.36 330.61 491.86 724.66 655.02 871.78 1270.48 724.58 814.55 1001.83 863.37 726.55 840.42 534.48 1106.79 333.21 534.45 674.35 445.68 703.90
737.08 79.42 0.00 706.61 911.15 273.70 1005.44 514.02 502.04 286.84 917.19 188.45 794.30 421.81 535.95 162.83 651.17 882.49 881.85 332.81 991.15 413.85 251.19 447.00 678.57 672.51 845.38 1224.39 733.03 822.14 957.19 874.40 687.11 894.47 532.83 1027.37 286.91 455.03 686.87 444.03 757.95
85.82 771.16 706.61 0.00 564.81 603.41 542.05 372.25 700.41 608.89 330.09 588.21 206.78 420.24 617.11 772.44 377.73 671.33 469.31 443.85 409.56 567.89 606.76 452.13 359.81 620.02 257.86 672.29 533.23 888.39 256.30 233.30 252.52 536.98 500.91 373.34 582.73 251.58 289.12 442.46 452.46
612.91 963.46 911.15 564.81 0.00 769.18 914.65 576.79 985.04 834.56 234.72 769.83 732.88 804.20 896.38 993.16 307.11 948.26 139.74 648.39 560.98 877.83 815.86 656.67 703.66 964.21 700.76 800.74 831.75 1261.37 555.69 541.12 538.90 857.24 693.62 524.76 793.98 456.12 388.36 782.42 796.31
564.28 194.28 273.70 603.41 769.18 0.00 896.92 271.31 352.10 219.08 838.35 153.49 633.36 313.29 401.97 318.37 597.19 773.97 728.69 204.48 928.10 352.48 255.08 314.89 570.05 563.99 684.44 1115.87 624.51 754.38 859.71 819.12 578.59 786.45 424.31 956.38 224.94 391.98 480.07 335.51 649.93
586.15 1004.68 1005.44 542.05 914.65 896.92 0.00 779.78 804.10 772.28 679.93 989.45 335.27 583.63 751.27 1090.46 901.08 551.31 874.36 876.89 562.84 731.28 1016.09 803.40 326.87 533.73 284.19 447.28 396.22 825.26 384.44 373.53 498.01 241.60 548.51 540.65 1021.03 684.62 783.96 605.85 300.78
292.97 465.59 514.02 372.25 576.79 271.31 779.78 0.00 518.90 365.71 607.19 333.21 456.36 301.07 447.51 589.68 387.12 670.10 496.36 190.62 656.79 346.68 358.39 79.88 452.91 460.12 507.44 889.48 528.42 852.44 612.33 547.81 424.23 682.08 318.38 693.01 297.51 120.67 352.51 323.29 545.56
614.59 422.62 502.04 700.41 985.04 352.10 804.10 518.90 0.00 297.03 932.75 505.59 630.49 285.53 88.66 366.66 811.20 548.50 971.33 556.58 1017.12 210.76 607.18 439.02 542.29 409.84 638.57 1017.65 407.88 493.59 846.80 797.57 549.96 571.51 291.42 1003.01 577.04 639.57 743.00 269.09 542.22
601.89 279.25 286.84 608.89 834.56 219.08 772.28 365.71 297.03 0.00 830.09 372.57 561.14 188.65 277.06 392.93 690.93 614.78 858.59 350.15 914.56 197.45 474.16 331.73 445.41 439.35 602.38 991.23 479.15 535.30 858.51 743.99 447.30 661.81 255.23 896.59 444.02 378.44 610.28 166.43 525.29
388.88 996.61 917.19 330.09 234.72 838.35 679.93 607.19 932.75 830.09 0.00 728.74 517.12 662.68 846.24 1075.50 359.49 873.90 237.00 678.79 407.23 791.15 868.24 687.07 568.52 779.03 466.04 685.17 690.23 1119.85 320.97 306.40 397.38 622.52 689.59 371.01 767.72 486.52 358.28 663.66 661.17
548.63 267.87 188.45 588.21 769.83 153.49 989.45 333.21 505.59 372.57 728.74 0.00 752.07 466.78 499.63 351.28 462.72 927.46 693.40 144.36 872.75 461.75 179.71 258.55 662.58 717.48 737.06 1145.14 778.00 904.56 824.41 685.95 602.90 891.75 513.44 896.26 98.46 336.63 507.90 489.00 755.23
277.89 820.70 794.30 206.78 732.88 633.36 335.27 456.36 630.49 561.14 517.12 752.07 0.00 372.49 566.86 944.79 584.51 520.98 656.30 643.78 392.33 520.14 780.56 536.24 153.03 413.24 51.08 566.86 326.45 681.61 322.92 210.72 202.67 330.20 364.10 428.55 753.87 451.51 484.91 394.71 245.68
432.00 467.90 421.81 420.24 804.20 313.29 583.63 301.07 285.53 188.65 662.68 466.78 372.49 0.00 196.87 581.58 663.85 460.68 685.80 371.79 731.59 147.65 444.01 248.07 256.76 250.70 423.57 802.58 311.22 601.80 676.54 555.34 265.30 473.16 111.02 767.81 465.70 421.74 546.73 22.22 336.64
555.17 511.28 535.95 617.11 896.38 401.97 751.27 447.51 88.66 277.06 846.24 499.63 566.86 196.87 0.00 423.71 771.46 531.16 882.67 491.35 928.46 122.10 555.56 367.63 453.63 321.18 549.91 999.45 467.22 404.93 758.14 708.91 462.17 660.17 202.76 914.35 585.26 568.18 654.34 182.58 533.51
686.62 124.09 162.83 772.44 993.16 318.37 1090.46 589.68 366.66 392.93 1075.50 351.28 944.79 581.58 423.71 0.00 814.00 915.16 980.13 495.64 1153.98 519.45 376.84 609.83 818.86 744.89 973.62 1283.13 774.54 828.64 1005.98 987.46 840.23 926.20 626.47 1145.78 449.74 617.86 731.51 559.36 789.68
341.67 730.59 651.17 377.73 307.11 597.19 901.08 387.12 811.20 690.93 359.49 462.72 584.51 663.85 771.46 814.00 0.00 927.18 234.59 440.94 708.83 721.38 508.75 454.58 644.09 830.27 635.59 895.59 801.22 1176.39 561.80 527.55 508.37 843.67 568.70 718.01 526.56 348.96 117.12 657.50 736.74
585.51 865.00 882.49 671.33 948.26 773.97 551.31 670.10 548.50 614.78 873.90 927.46 520.98 460.68 531.16 915.16 927.18 0.00 1058.68 832.47 748.53 469.64 867.74 708.75 402.33 209.98 572.06 755.85 276.43 503.60 705.96 567.50 569.28 309.71 492.05 784.75 919.94 790.77 810.06 448.35 409.78
473.17 922.97 881.85 469.31 139.74 728.69 874.36 496.36 971.33 858.59 237.00 693.40 656.30 685.80 882.67 980.13 234.59 1058.68 0.00 549.04 487.03 833.45 743.34 576.24 757.70 936.50 703.04 661.00 879.41 1287.60 489.92 543.40 586.56 859.52 700.20 523.25 658.06 480.15 248.62 708.02 769.94
404.27 398.76 332.81 443.85 648.39 204.48 876.89 190.62 556.58 350.15 678.79 144.36 643.78 371.79 491.35 495.64 440.94 832.47 549.04 0.00 728.39 390.52 252.25 123.72 620.84 622.49 592.70 1000.78 663.93 885.45 694.83 677.15 468.07 768.80 378.61 751.90 145.59 192.27 424.11 394.01 708.43
493.34 1070.57 991.15 409.56 560.98 928.10 562.84 656.79 1017.12 914.56 407.23 872.75 392.33 731.59 928.46 1153.98 708.83 748.53 487.03 728.39 0.00 869.53 980.64 736.67 545.36 781.50 443.41 350.38 670.60 1073.94 178.40 308.87 595.00 578.37 756.43 36.22 873.98 536.12 662.59 753.81 620.72
560.47 395.36 413.85 567.89 877.83 352.48 731.28 346.68 210.76 197.45 791.15 461.75 520.14 147.65 122.10 519.45 721.38 469.64 833.45 390.52 869.53 0.00 545.31 266.80 404.41 259.66 531.36 950.23 349.32 527.03 691.13 690.36 393.77 580.11 184.21 847.34 484.43 467.35 635.79 146.50 443.59
520.94 330.61 251.19 606.76 815.86 255.08 1016.09 358.39 607.18 474.16 868.24 179.71 780.56 444.01 555.56 376.84 508.75 867.74 743.34 252.25 980.64 545.31 0.00 278.51 700.77 694.71 758.41 1117.45 755.23 960.49 840.30 825.94 577.89 851.83 533.40 980.10 136.50 444.52 545.94 466.23 715.31
372.85 491.86 447.00 452.13 656.67 314.89 803.40 79.88 439.02 331.73 687.07 258.55 536.24 248.07 367.63 609.83 454.58 708.75 576.24 123.72 736.67 266.80 278.51 0.00 497.12 498.77 572.98 969.36 540.21 772.56 692.21 627.69 344.35 721.23 254.89 772.89 217.63 200.55 432.39 270.29 584.71
337.84 724.66 678.57 359.81 703.66 570.05 326.87 452.91 542.29 445.41 568.52 662.58 153.03 256.76 453.63 818.86 644.09 402.33 757.70 620.84 545.36 404.41 700.77 497.12 0.00 273.35 204.11 545.82 173.42 662.89 475.95 363.75 171.14 229.17 262.12 581.58 714.75 488.11 562.39 278.98 92.65
592.01 655.02 672.51 620.02 964.21 563.99 533.73 460.12 409.84 439.35 779.03 717.48 413.24 250.70 321.18 744.89 830.27 209.98 936.50 622.49 781.50 259.66 694.71 498.77 273.35 0.00 460.03 815.61 146.04 450.42 611.09 472.63 425.31 369.47 282.07 745.28 716.40 580.79 713.15 272.92 232.95
303.35 871.78 845.38 257.86 700.76 684.44 284.19 507.44 638.57 602.38 466.04 737.06 51.08 423.57 549.91 973.62 635.59 572.06 703.04 592.70 443.41 531.36 758.41 572.98 204.11 460.03 0.00 515.78 374.50 732.69 271.84 159.64 228.63 279.12 347.15 428.05 738.29 400.43 527.90 435.95 240.16
596.51 1270.48 1224.39 672.29 800.74 1115.87 447.28 889.48 1017.65 991.23 685.17 1145.14 566.86 802.58 999.45 1283.13 895.59 755.85 661.00 1000.78 350.38 950.23 1117.45 969.36 545.82 815.61 515.78 0.00 717.00 1206.47 470.37 586.81 709.92 446.14 807.94 314.16 1093.42 862.43 821.06 824.80 582.66
459.55 724.58 733.03 533.23 831.75 624.51 396.22 528.42 407.88 479.15 690.23 778.00 326.45 311.22 467.22 774.54 801.22 276.43 879.41 663.93 670.60 349.32 755.23 540.21 173.42 146.04 374.50 717.00 0.00 489.47 492.20 524.55 292.85 270.86 290.96 648.41 757.84 562.15 684.10 333.44 134.34
889.17 814.55 822.14 888.39 1261.37 754.38 825.26 852.44 493.59 535.30 1119.85 904.56 681.61 601.80 404.93 828.64 1176.39 503.60 1287.60 885.45 1073.94 527.03 960.49 772.56 662.89 450.42 732.69 1206.47 489.47 0.00 975.95 892.33 722.47 760.33 607.69 1110.16 979.32 913.74 1059.27 587.51 623.81
319.36 1001.83 957.19 256.30 555.69 859.71 384.44 612.33 846.80 858.51 320.97 824.41 322.92 676.54 758.14 1005.98 561.80 705.96 489.92 694.83 178.40 691.13 840.30 692.21 475.95 611.09 271.84 470.37 492.20 975.95 0.00 138.46 436.42 399.97 618.99 156.21 764.70 502.56 484.19 692.08 512.00
319.12 863.37 874.40 233.30 541.12 819.12 373.53 547.81 797.57 743.99 306.40 685.95 210.72 555.34 708.91 987.46 527.55 567.50 543.40 677.15 308.87 690.36 825.94 627.69 363.75 472.63 159.64 586.81 524.55 892.33 138.46 0.00 337.06 316.12 506.15 272.65 689.44 484.88 410.43 577.56 390.21
166.70 726.55 687.11 252.52 538.90 578.59 498.01 424.23 549.96 447.30 397.38 602.90 202.67 265.30 462.17 840.23 508.37 569.28 586.56 468.07 595.00 393.77 577.89 344.35 171.14 425.31 228.63 709.92 292.85 722.47 436.42 337.06 0.00 400.31 292.21 586.76 561.98 316.97 391.25 280.87 263.79
552.74 840.42 894.47 536.98 857.24 786.45 241.60 682.08 571.51 661.81 622.52 891.75 330.20 473.16 660.17 926.20 843.67 309.71 859.52 768.80 578.37 580.11 851.83 721.23 229.17 369.47 279.12 446.14 270.86 760.33 399.97 316.12 400.31 0.00 485.39 556.18 914.39 679.55 726.55 495.38 136.52
415.09 534.48 532.83 500.91 693.62 424.31 548.51 318.38 291.42 255.23 689.59 513.44 364.10 111.02 202.76 626.47 568.70 492.05 700.20 378.61 756.43 184.21 533.40 254.89 262.12 282.07 347.15 807.94 290.96 607.69 618.99 506.15 292.21 485.39 0.00 775.20 472.52 439.05 451.58 88.80 348.87
459.16 1106.79 1027.37 373.34 524.76 956.38 540.65 693.01 1003.01 896.59 371.01 896.26 428.55 767.81 914.35 1145.78 718.01 784.75 523.25 751.90 36.22 847.34 980.10 772.89 581.58 745.28 428.05 314.16 648.41 1110.16 156.21 272.65 586.76 556.18 775.20 0.00 897.49 572.34 640.40 790.03 584.50
496.91 333.21 286.91 582.73 793.98 224.94 1021.03 297.51 577.04 444.02 767.72 98.46 753.87 465.70 585.26 449.74 526.56 919.94 658.06 145.59 873.98 484.43 136.50 217.63 714.75 716.40 738.29 1093.42 757.84 979.32 764.70 689.44 561.98 914.39 472.52 897.49 0.00 337.86 409.44 471.59 802.34
311.30 534.45 455.03 251.58 456.12 391.98 684.62 120.67 639.57 378.44 486.52 336.63 451.51 421.74 568.18 617.86 348.96 790.77 480.15 192.27 536.12 467.35 444.52 200.55 488.11 580.79 400.43 862.43 562.15 913.74 502.56 484.88 316.97 679.55 439.05 572.34 337.86 0.00 231.84 443.96 580.76
224.55 674.35 686.87 289.12 388.36 480.07 783.96 352.51 743.00 610.28 358.28 507.90 484.91 546.73 654.34 731.51 117.12 810.06 248.62 424.11 662.59 635.79 545.94 432.39 562.39 713.15 527.90 821.06 684.10 1059.27 484.19 410.43 391.25 726.55 451.58 640.40 409.44 231.84 0.00 540.38 655.04
447.57 445.68 444.03 442.46 782.42 335.51 605.85 323.29 269.09 166.43 663.66 489.00 394.71 22.22 182.58 559.36 657.50 448.35 708.02 394.01 753.81 146.50 466.23 270.29 278.98 272.92 435.95 824.80 333.44 587.51 692.08 577.56 280.87 495.38 88.80 790.03 471.59 443.96 540.38 0.00 358.86
430.49 703.90 757.95 452.46 796.31 649.93 300.78 545.56 542.22 525.29 661.17 755.23 245.68 336.64 533.51 789.68 736.74 409.78 769.94 708.43 620.72 443.59 715.31 584.71 92.65 232.95 240.16 582.66 134.34 623.81 512.00 390.21 263.79 136.52 348.87 584.50 802.34 580.76 655.04 358.86 0.00
DEMAND_SECTION
1 0
2 9
3 6
4 5
5 5
6 10
7 5
8 7
9 8
10 10
11 6
12 8
13 6
14 10
15 8
16 5
17 9
18 10
19 9
20 5
21 6
22 7
23 9
24 10
25 7
26 7
27 9
28 6
29 8
30 5
31 6
32 10
33 10
34 6
35 7
36 6
37 6
38 5
39 6
40 9
41 7
DEPOT_SECTION
1
-1
EOF
