NAME: LDG45_3254_none_45_0264
COMMENT: CVRP with travel times.  rootPos=3,custPos=2,demandType=5,avgRouteSizeIndex=4,weather=none,lambda_cluster=1,lambda_random=4, T1=300,T2=700,beta=1, alpha(i,j) ~ U(0.8,1.2)
TYPE: CVRP
DIMENSION: 46
EDGE_WEIGHT_TYPE: EXPLICIT
EDGE_WEIGHT_FORMAT: FULL_MATRIX
CAPACITY: 1157
NODE_COORD_SECTION
1 0 0
2 153 191
3 645 68
4 679 15
5 722 68
6 572 18
7 816 823
8 878 51
9 527 57
10 150 661
11 72 51
12 828 36
13 120 131
14 192 286
15 341 679
16 839 710
17 6 119
18 11 41
19 121 741
20 524 80
21 88 43
22 126 19
23 589 5
24 878 85
25 51 628
26 103 227
27 57 38
28 654 248
29 773 831
30 44 117
31 90 196
32 613 41
33 936 749
34 765 835
35 57 288
36 627 63
37 90 230
38 194 684
39 763 851
40 166 641
41 709 66
42 33 25
43 619 58
44 716 90
45 732 794
46 155 692
EDGE_WEIGHT_SECTION
0.00 276.16 643.44 666.41 702.64 574.93 1090.43 837.25 528.30 661.15 116.99 802.45 221.72 423.07 804.75 1086.27 134.81 61.99 734.12 589.76 121.21 164.81 522.99 878.15 758.17 281.72 73.15 696.05 1142.20 161.25 239.49 590.67 1215.54 1124.15 238.57 611.40 266.78 698.42 1152.28 616.25 676.84 49.16 640.21 703.94 1170.38 698.04
276.16 0.00 610.80 606.12 630.69 531.20 1095.00 842.35 454.03 549.91 265.07 756.17 149.07 198.04 715.38 968.90 174.79 295.96 595.36 479.42 301.72 214.10 554.74 818.64 641.47 70.87 278.47 701.64 1003.34 196.70 84.31 564.04 1098.17 1021.39 151.62 578.76 97.02 527.57 1008.74 558.03 655.45 325.32 588.23 681.61 1065.30 479.74
643.44 610.80 0.00 96.76 133.92 109.48 813.00 265.33 170.80 817.75 646.77 179.15 608.99 572.08 981.60 762.45 652.30 681.62 974.92 154.72 662.38 589.77 120.45 306.23 954.50 542.93 635.54 245.33 854.22 712.03 547.62 86.14 891.72 836.17 645.58 32.04 569.08 871.81 864.30 862.65 108.73 692.60 36.60 135.83 889.78 887.92
666.41 606.12 96.76 0.00 121.23 144.18 853.48 254.11 152.09 807.35 550.01 167.93 598.59 668.84 982.57 753.68 663.83 672.08 964.52 213.55 587.99 618.26 143.42 217.63 944.10 618.11 593.85 320.51 852.37 645.28 644.38 75.74 882.95 834.32 706.91 107.22 644.26 861.41 862.45 852.25 106.88 651.07 104.99 127.06 881.01 877.52
702.64 630.69 133.92 121.23 0.00 158.00 732.25 211.66 176.66 878.47 671.24 125.48 526.81 630.12 861.34 677.54 724.70 686.54 1003.58 214.99 695.27 639.44 179.65 187.95 1015.22 613.38 715.08 260.24 771.29 660.09 649.92 146.86 806.81 753.24 715.15 102.49 639.53 840.13 781.37 922.30 25.80 727.56 97.32 50.92 804.87 887.96
574.93 531.20 109.48 144.18 158.00 0.00 890.25 347.81 77.17 800.05 628.54 261.63 591.29 681.56 1013.05 785.92 705.99 629.39 957.22 105.52 623.95 571.60 51.94 345.95 936.80 602.07 648.08 328.56 851.16 684.44 615.51 68.44 915.19 858.04 682.82 115.27 613.74 854.11 886.17 844.95 132.20 624.09 81.29 159.30 913.12 870.22
1090.43 1095.00 813.00 853.48 732.25 890.25 0.00 865.69 908.91 739.29 1061.12 857.73 987.95 936.09 554.84 217.43 1141.86 1095.51 848.68 947.24 1065.34 1100.58 911.90 824.79 779.44 1036.04 1017.28 716.17 103.57 1121.23 1062.65 879.11 257.36 85.52 1109.20 834.74 1009.89 685.23 86.26 743.34 758.05 1086.87 829.57 783.17 153.24 733.06
837.25 842.35 265.33 254.11 211.66 347.81 865.69 0.00 388.32 925.43 753.17 86.18 738.47 693.24 1073.00 768.86 866.99 875.24 1034.82 420.05 791.15 723.56 314.26 40.90 1062.18 803.19 797.01 401.52 774.73 848.44 812.95 297.96 898.13 790.35 895.48 292.30 829.34 871.37 779.43 953.54 215.61 839.21 296.30 242.71 712.77 919.20
528.30 454.03 170.80 152.09 176.66 77.17 908.91 388.32 0.00 841.62 595.79 302.14 603.10 652.07 1038.00 854.20 628.82 552.22 939.85 61.46 615.16 527.54 100.71 364.61 978.37 524.90 601.45 315.70 892.73 650.73 538.34 110.01 976.28 910.78 605.65 145.01 536.57 895.68 938.91 886.52 202.12 577.46 134.20 227.58 904.02 911.79
661.15 549.91 817.75 807.35 878.47 800.05 739.29 925.43 841.62 0.00 631.84 943.39 660.26 495.48 233.40 755.00 678.69 661.44 157.17 882.09 636.06 700.09 799.29 884.53 136.75 532.06 588.00 796.91 684.67 620.82 574.29 731.61 884.27 702.72 519.53 800.71 546.72 54.06 718.54 44.90 870.37 657.59 781.15 843.27 746.63 70.17
116.99 265.07 646.77 550.01 671.24 628.54 1061.12 753.17 595.79 631.84 0.00 717.94 180.88 375.95 775.44 1003.04 113.82 122.07 704.81 534.33 37.98 68.25 576.60 767.64 728.86 194.20 43.84 788.57 1101.36 95.27 218.50 625.75 1132.31 1083.31 296.85 625.98 220.35 669.11 1087.07 586.94 656.89 101.06 655.00 677.07 1129.54 668.73
802.45 756.17 179.15 167.93 125.48 261.63 857.73 86.18 302.14 943.39 717.94 0.00 652.29 751.23 986.82 783.15 831.45 812.02 1100.56 333.87 755.92 763.85 279.46 127.08 1080.14 717.01 761.78 363.87 860.91 785.57 726.77 211.78 912.42 856.87 819.66 206.12 743.16 945.74 865.61 988.29 129.43 819.00 215.75 156.53 798.95 993.57
221.72 149.07 608.99 598.59 526.81 591.29 987.95 738.47 603.10 660.26 180.88 652.29 0.00 201.35 780.89 1007.70 197.89 159.73 742.28 578.71 168.46 112.63 590.53 714.76 689.10 165.34 192.85 767.15 920.48 133.28 123.11 522.85 1136.97 902.43 188.34 591.95 162.53 674.49 930.56 652.50 552.61 200.75 572.39 577.73 948.66 626.66
423.07 198.04 572.08 668.84 630.12 681.56 936.09 693.24 652.07 495.48 375.95 751.23 201.35 0.00 695.60 1084.10 297.55 361.08 540.93 677.46 369.81 313.98 692.53 652.34 537.76 181.75 384.24 585.16 1039.66 334.63 199.51 658.22 1193.45 1021.61 202.24 604.12 165.58 473.14 1022.35 507.10 655.92 402.10 608.68 681.04 1089.33 425.31
804.75 715.38 981.60 982.57 861.34 1013.05 554.84 1073.00 1038.00 233.40 775.44 986.82 780.89 695.60 0.00 521.60 750.33 805.04 306.37 990.51 779.66 843.69 1012.29 1049.29 370.15 644.51 731.60 736.27 451.27 814.94 671.12 944.61 650.87 469.32 663.13 949.56 618.36 270.67 497.45 188.50 887.14 801.19 958.66 912.26 513.23 270.29
1086.27 968.90 762.45 753.68 677.54 785.92 217.43 768.86 854.20 755.00 1003.04 783.15 1007.70 1084.10 521.60 0.00 989.27 1083.61 730.14 866.48 965.06 1052.68 807.57 799.20 789.62 926.82 1013.12 753.31 177.47 1049.00 884.59 761.56 129.27 159.42 1022.98 730.41 937.35 728.38 187.55 710.10 653.72 1042.59 764.39 626.62 127.33 776.21
134.81 174.79 652.30 663.83 724.70 705.99 1141.86 866.99 628.82 678.69 113.82 831.45 197.89 297.55 750.33 989.27 0.00 125.25 751.94 648.15 151.80 182.07 657.80 881.46 656.68 146.91 140.90 736.59 1038.29 64.61 104.68 720.74 1118.54 1056.34 205.66 657.80 131.97 677.69 1084.47 634.07 734.49 166.27 688.90 761.59 1100.25 654.53
61.99 295.96 681.62 672.08 686.54 629.39 1095.51 875.24 552.22 661.44 122.07 812.02 159.73 361.08 805.04 1083.61 125.25 0.00 734.41 613.68 118.55 156.67 584.98 874.49 763.25 261.74 78.23 758.04 1080.21 99.26 219.51 643.20 1212.88 1062.16 300.56 673.39 257.22 645.86 1090.29 616.54 712.34 41.02 645.02 737.46 1108.39 693.69
734.12 595.36 974.92 964.52 1003.58 957.22 848.68 1034.82 939.85 157.17 704.81 1100.56 742.28 540.93 306.37 730.14 751.94 734.41 0.00 1001.31 709.03 773.06 956.46 993.92 293.92 605.03 660.97 842.36 757.64 777.99 647.26 888.78 859.41 775.69 592.50 957.88 626.14 163.45 803.82 117.87 979.76 730.56 938.32 952.66 819.60 115.62
589.76 479.42 154.72 213.55 214.99 105.52 947.24 420.05 61.46 882.09 534.33 333.87 578.71 677.46 990.51 866.48 648.15 613.68 1001.31 0.00 553.70 466.08 156.34 402.94 1018.84 550.29 578.17 254.24 904.52 629.60 563.73 150.48 995.75 920.14 631.04 186.76 576.44 936.15 909.54 926.99 237.72 581.73 170.75 239.86 842.56 952.26
121.21 301.72 662.38 587.99 695.27 623.95 1065.34 791.15 615.16 636.06 37.98 755.92 168.46 369.81 779.66 965.06 151.80 118.55 709.03 553.70 0.00 87.62 572.01 805.62 733.08 232.18 48.06 778.20 1088.94 129.87 256.48 639.69 1094.33 1070.89 258.94 645.35 213.91 673.33 1099.02 591.16 694.87 77.53 679.33 675.99 1092.39 672.95
164.81 214.10 589.77 618.26 639.44 571.60 1100.58 723.56 527.54 700.09 68.25 763.85 112.63 313.98 843.69 1052.68 182.07 156.67 773.06 466.08 87.62 0.00 622.42 764.46 797.11 262.45 112.09 720.32 1033.11 163.52 235.74 616.56 1181.95 1015.06 300.97 557.73 275.16 737.36 1043.19 655.19 634.42 115.65 591.71 660.00 1061.29 693.84
522.99 554.74 120.45 143.42 179.65 51.94 911.90 314.26 100.71 799.29 576.60 279.46 590.53 692.53 1012.29 807.57 657.80 584.98 956.46 156.34 572.01 622.42 0.00 355.16 936.04 599.30 596.14 301.70 850.40 671.87 639.05 67.68 936.84 868.45 701.95 88.41 625.45 853.35 896.58 844.19 153.85 572.15 117.22 180.95 912.36 869.46
878.15 818.64 306.23 217.63 187.95 345.95 824.79 40.90 364.61 884.53 767.64 127.08 714.76 652.34 1049.29 799.20 881.46 874.49 993.92 402.94 805.62 764.46 355.16 0.00 1021.28 801.33 811.48 408.69 733.83 848.04 837.87 293.37 928.47 749.45 854.58 290.44 817.92 830.47 738.53 912.64 213.75 868.70 285.27 208.74 671.87 878.30
758.17 641.47 954.50 944.10 1015.22 936.80 779.44 1062.18 978.37 136.75 728.86 1080.14 689.10 537.76 370.15 789.62 656.68 763.25 293.92 1018.84 733.08 797.11 936.04 1021.28 0.00 608.22 685.02 916.25 724.25 721.29 565.99 868.36 809.10 739.87 631.03 937.46 618.75 190.81 729.27 181.65 1007.12 754.61 917.90 980.02 662.29 189.51
281.72 70.87 542.93 618.11 613.38 602.07 1036.04 803.19 524.90 532.06 194.20 717.01 165.34 181.75 644.51 926.82 146.91 261.74 605.03 550.29 232.18 262.45 599.30 801.33 608.22 0.00 238.04 630.77 932.47 181.86 42.23 579.99 1056.09 950.52 102.65 510.89 26.15 569.33 978.65 487.16 587.58 295.26 544.87 614.68 994.43 550.61
73.15 278.47 635.54 593.85 715.08 648.08 1017.28 797.01 601.45 588.00 43.84 761.78 192.85 384.24 731.60 1013.12 140.90 78.23 660.97 578.17 48.06 112.09 596.14 811.48 685.02 238.04 0.00 769.20 1113.33 139.11 231.60 663.82 1142.39 1095.28 307.00 667.58 261.97 625.27 1103.54 543.10 700.73 69.59 672.14 720.91 1140.45 624.89
696.05 701.64 245.33 320.51 260.24 328.56 716.17 401.52 315.70 796.91 788.57 363.87 767.15 585.16 736.27 753.31 736.59 758.04 842.36 254.24 778.20 720.32 301.70 408.69 916.25 630.77 769.20 0.00 704.13 746.43 657.38 282.39 882.58 686.08 703.93 213.29 604.62 767.80 657.95 808.53 234.44 745.21 247.27 248.12 680.01 726.74
1142.20 1003.34 854.22 852.37 771.29 851.16 103.57 774.73 892.73 684.67 1101.36 860.91 920.48 1039.66 451.27 177.47 1038.29 1080.21 757.64 904.52 1088.94 1033.11 850.40 733.83 724.25 932.47 1113.33 704.13 0.00 1053.76 959.08 782.72 256.13 18.05 1005.63 822.18 906.32 710.66 46.18 639.77 745.49 1121.23 832.26 772.59 61.96 721.56
161.25 196.70 712.03 645.28 660.09 684.44 1121.23 848.44 650.73 620.82 95.27 785.57 133.28 334.63 814.94 1049.00 64.61 99.26 777.99 629.60 129.87 163.52 671.87 848.04 721.29 181.86 139.11 746.43 1053.76 0.00 164.41 656.13 1178.27 1035.71 234.22 692.75 196.58 674.88 1063.84 665.72 685.89 140.28 705.67 711.01 1081.94 676.44
239.49 84.31 547.62 644.38 649.92 615.51 1062.65 812.95 538.34 574.29 218.50 726.77 123.11 199.51 671.12 884.59 104.68 219.51 647.26 563.73 256.48 235.74 639.05 837.87 565.99 42.23 231.60 657.38 959.08 164.41 0.00 622.22 1013.86 977.13 138.39 553.12 52.76 598.48 1005.26 529.39 629.81 260.53 584.22 656.91 1011.92 564.05
590.67 564.04 86.14 75.74 146.86 68.44 879.11 297.96 110.01 731.61 625.75 211.78 522.85 658.22 944.61 761.56 720.74 643.20 888.78 150.48 639.69 616.56 67.68 293.37 868.36 579.99 663.82 282.39 782.72 656.13 622.22 0.00 890.83 800.77 682.64 69.10 606.14 785.67 828.90 776.51 145.79 639.83 49.54 134.94 844.68 801.78
1215.54 1098.17 891.72 882.95 806.81 915.19 257.36 898.13 976.28 884.27 1132.31 912.42 1136.97 1193.45 650.87 129.27 1118.54 1212.88 859.41 995.75 1094.33 1181.95 936.84 928.47 809.10 1056.09 1142.39 882.58 256.13 1178.27 1013.86 890.83 0.00 274.18 1152.25 859.68 1066.62 857.65 302.31 839.37 782.99 1171.86 893.66 755.89 256.60 905.48
1124.15 1021.39 836.17 834.32 753.24 858.04 85.52 790.35 910.78 702.72 1083.31 856.87 902.43 1021.61 469.32 159.42 1056.34 1062.16 775.69 920.14 1070.89 1015.06 868.45 749.45 739.87 950.52 1095.28 686.08 18.05 1035.71 977.13 800.77 274.18 0.00 1023.68 804.13 924.37 692.61 28.13 657.82 727.44 1103.18 838.11 754.54 77.58 710.33
238.57 151.62 645.58 706.91 715.15 682.82 1109.20 895.48 605.65 519.53 296.85 819.66 188.34 202.24 663.13 1022.98 205.66 300.56 592.50 631.04 258.94 300.97 701.95 854.58 631.03 102.65 307.00 703.93 1005.63 234.22 138.39 682.64 1152.25 1023.68 0.00 613.54 99.31 556.80 1051.81 474.63 690.23 287.73 647.52 717.33 1067.59 556.42
611.40 578.76 32.04 107.22 102.49 115.27 834.74 292.30 145.01 800.71 625.98 206.12 591.95 604.12 949.56 730.41 657.80 673.39 957.88 186.76 645.35 557.73 88.41 290.44 937.46 510.89 667.58 213.29 822.18 692.75 553.12 69.10 859.68 804.13 613.54 0.00 537.04 854.77 832.26 845.61 76.69 660.56 33.98 103.79 857.74 870.88
266.78 97.02 569.08 644.26 639.53 613.74 1009.89 829.34 536.57 546.72 220.35 743.16 162.53 165.58 618.36 937.35 131.97 257.22 626.14 576.44 213.91 275.16 625.45 817.92 618.75 26.15 261.97 604.62 906.32 196.58 52.76 606.14 1066.62 924.37 99.31 537.04 0.00 545.72 952.50 513.31 613.73 291.44 571.02 640.83 968.28 576.76
698.42 527.57 871.81 861.41 840.13 854.11 685.23 871.37 895.68 54.06 669.11 945.74 674.49 473.14 270.67 728.38 677.69 645.86 163.45 936.15 673.33 737.36 853.35 830.47 190.81 569.33 625.27 767.80 710.66 674.88 598.48 785.67 857.65 692.61 556.80 854.77 545.72 0.00 664.48 82.17 816.31 686.88 835.21 789.21 731.46 47.83
1152.28 1008.74 864.30 862.45 781.37 886.17 86.26 779.43 938.91 718.54 1087.07 865.61 930.56 1022.35 497.45 187.55 1084.47 1090.29 803.82 909.54 1099.02 1043.19 896.58 738.53 729.27 978.65 1103.54 657.95 46.18 1063.84 1005.26 828.90 302.31 28.13 1051.81 832.26 952.50 664.48 0.00 685.95 755.57 1131.31 866.24 782.67 66.98 712.31
616.25 558.03 862.65 852.25 922.30 844.95 743.34 953.54 886.52 44.90 586.94 988.29 652.50 507.10 188.50 710.10 634.07 616.54 117.87 926.99 591.16 655.19 844.19 912.64 181.65 487.16 543.10 808.53 639.77 665.72 529.39 776.51 839.37 657.82 474.63 845.61 513.31 82.17 685.95 0.00 898.48 612.69 826.05 871.38 701.73 81.79
676.84 655.45 108.73 106.88 25.80 132.20 758.05 215.61 202.12 870.37 656.89 129.43 552.61 655.92 887.14 653.72 734.49 712.34 979.76 237.72 694.87 634.42 153.85 213.75 1007.12 587.58 700.73 234.44 745.49 685.89 629.81 145.79 782.99 727.44 690.23 76.69 613.73 816.31 755.57 898.48 0.00 726.00 110.67 27.10 781.05 864.14
49.16 325.32 692.60 651.07 727.56 624.09 1086.87 839.21 577.46 657.59 101.06 819.00 200.75 402.10 801.19 1042.59 166.27 41.02 730.56 581.73 77.53 115.65 572.15 868.70 754.61 295.26 69.59 745.21 1121.23 140.28 260.53 639.83 1171.86 1103.18 287.73 660.56 291.44 686.88 1131.31 612.69 726.00 0.00 686.04 753.10 1149.41 694.48
640.21 588.23 36.60 104.99 97.32 81.29 829.57 296.30 134.20 781.15 655.00 215.75 572.39 608.68 958.66 764.39 688.90 645.02 938.32 170.75 679.33 591.71 117.22 285.27 917.90 544.87 672.14 247.27 832.26 705.67 584.22 49.54 893.66 838.11 647.52 33.98 571.02 835.21 866.24 826.05 110.67 686.04 0.00 137.77 891.72 851.32
703.94 681.61 135.83 127.06 50.92 159.30 783.17 242.71 227.58 843.27 677.07 156.53 577.73 681.04 912.26 626.62 761.59 737.46 952.66 239.86 675.99 660.00 180.95 208.74 980.02 614.68 720.91 248.12 772.59 711.01 656.91 134.94 755.89 754.54 717.33 103.79 640.83 789.21 782.67 871.38 27.10 753.10 137.77 0.00 753.95 837.04
1170.38 1065.30 889.78 881.01 804.87 913.12 153.24 712.77 904.02 746.63 1129.54 798.95 948.66 1089.33 513.23 127.33 1100.25 1108.39 819.60 842.56 1092.39 1061.29 912.36 671.87 662.29 994.43 1140.45 680.01 61.96 1081.94 1011.92 844.68 256.60 77.58 1067.59 857.74 968.28 731.46 66.98 701.73 781.05 1149.41 891.72 753.95 0.00 779.29
698.04 479.74 887.92 877.52 887.96 870.22 733.06 919.20 911.79 70.17 668.73 993.57 626.66 425.31 270.29 776.21 654.53 693.69 115.62 952.26 672.95 693.84 869.46 878.30 189.51 550.61 624.89 726.74 721.56 676.44 564.05 801.78 905.48 710.33 556.42 870.88 576.76 47.83 712.31 81.79 864.14 694.48 851.32 837.04 779.29 0.00
DEMAND_SECTION
1 0
2 75
3 78
4 73
5 73
6 90
7 56
8 66
9 53
10 84
11 65
12 66
13 100
14 74
15 73
16 92
17 95
18 50
19 54
20 50
21 53
22 59
23 74
24 56
25 98
26 74
27 63
28 82
29 62
30 71
31 73
32 59
33 81
34 79
35 60
36 50
37 84
38 61
39 95
40 82
41 60
42 75
43 57
44 98
45 97
46 86
DEPOT_SECTION
1
-1
EOF
