NAME: LDG40_2333_snow_40_0147
COMMENT: CVRP with travel times.  rootPos=2,custPos=3,demandType=3,avgRouteSizeIndex=3,weather=snow,lambda_cluster=1,lambda_random=4, T1=300,T2=700,beta=1, alpha(i,j) ~ U(0.8,1.2)
TYPE: CVRP
DIMENSION: 41
EDGE_WEIGHT_TYPE: EXPLICIT
EDGE_WEIGHT_FORMAT: FULL_MATRIX
CAPACITY: 62
NODE_COORD_SECTION
1 500 500
2 990 781
3 453 862
4 137 431
5 911 805
6 487 107
7 530 888
8 756 528
9 73 480
10 977 611
11 929 537
12 938 437
13 113 500
14 896 22
15 389 133
16 966 427
17 760 648
18 957 996
19 583 970
20 707 888
21 714 522
22 945 542
23 932 259
24 923 402
25 94 401
26 851 6
27 107 624
28 907 242
29 293 775
30 760 10
31 884 708
32 465 534
33 348 734
34 608 119
35 519 140
36 647 516
37 588 830
38 450 842
39 558 767
40 20 458
41 502 178
EDGE_WEIGHT_SECTION
0.00 843.53 570.64 649.92 800.13 731.13 686.59 387.13 625.94 731.51 651.89 656.49 527.37 907.89 591.61 710.72 494.07 1087.32 606.50 848.31 322.41 606.87 676.15 725.14 561.40 962.80 776.42 739.81 546.46 945.70 615.18 95.03 565.62 749.33 677.59 205.64 599.64 604.66 481.03 684.54 583.13
843.53 0.00 729.44 1285.67 194.93 1181.86 726.07 585.84 1346.06 309.09 415.53 482.84 1247.49 1072.28 1309.72 539.33 551.76 336.42 854.46 543.13 521.12 370.51 749.33 552.83 1374.19 1114.34 1271.00 762.23 929.32 1219.08 364.42 938.56 803.76 1099.28 1128.32 664.52 850.22 763.46 725.10 1404.66 1033.86
570.64 729.44 0.00 840.62 579.70 1014.98 174.79 683.90 748.38 912.17 818.00 953.26 735.97 1356.93 972.19 933.93 469.77 655.34 296.22 417.84 619.18 863.02 1061.90 1016.71 832.09 1452.66 585.01 1125.56 318.30 1331.90 638.96 475.61 292.24 1117.49 971.54 661.88 304.83 34.02 281.71 824.68 924.75
649.92 1285.67 840.62 0.00 1227.58 697.39 866.87 829.27 192.52 1235.72 1094.03 1098.63 141.69 1334.81 545.34 1155.12 951.33 1303.70 994.66 1064.69 764.55 1049.01 1272.75 1076.25 88.52 1266.12 321.00 1324.39 620.53 1164.70 1215.40 688.10 585.42 850.84 745.65 855.56 831.40 806.60 697.41 172.08 754.61
800.13 194.93 579.70 1227.58 0.00 1098.40 591.25 608.33 1328.08 334.18 370.34 545.02 1315.67 1168.59 1114.79 596.21 356.83 468.96 678.03 348.20 543.61 368.30 795.37 598.87 1316.10 1112.13 1164.71 858.54 898.00 1224.76 184.95 755.87 871.94 1145.32 994.19 687.01 664.16 613.72 530.17 1399.66 989.73
731.13 1181.86 1014.98 697.39 1098.40 0.00 1064.43 790.47 889.91 1058.51 886.11 831.50 798.48 674.22 152.05 775.01 910.01 1518.28 1192.82 1259.98 725.75 871.80 682.11 761.70 755.20 578.49 1018.39 682.95 1073.05 533.71 947.71 648.63 1180.34 217.36 104.21 649.02 1108.38 1049.00 1058.09 869.47 148.00
686.59 726.07 174.79 866.87 591.25 1064.43 0.00 707.40 823.75 818.58 804.13 911.91 725.18 1380.43 1088.14 944.57 644.56 615.17 128.39 243.05 642.68 849.15 1038.42 841.92 880.88 1473.58 691.76 1102.08 425.05 1355.19 555.32 591.56 385.92 1089.12 1146.33 593.52 218.86 140.77 255.39 882.35 1094.54
387.13 585.84 683.90 829.27 608.33 790.47 707.40 0.00 924.38 473.89 283.09 269.36 825.81 802.47 728.11 325.85 251.50 875.82 835.79 832.98 64.72 328.11 467.91 338.01 917.79 864.52 826.52 531.57 693.38 937.66 531.90 482.16 701.75 669.17 686.26 190.60 649.96 717.92 599.67 982.98 691.62
625.94 1346.06 748.38 192.52 1328.08 889.91 823.75 924.38 0.00 1357.45 1207.47 1193.74 98.57 1344.63 737.86 1250.23 1120.01 1403.72 952.14 1066.80 948.35 1232.81 1302.09 1262.39 227.48 1275.94 287.07 1365.75 577.41 1177.01 1241.12 720.97 542.30 860.66 853.36 831.58 987.96 714.36 889.93 76.30 947.13
731.51 309.09 912.17 1235.72 334.18 1058.51 818.58 473.89 1357.45 0.00 231.73 333.64 1258.88 892.27 1183.21 358.08 579.96 608.93 690.19 607.53 471.17 186.71 594.69 398.19 1292.91 930.54 1232.97 582.22 1017.89 1064.44 480.54 826.54 1104.93 944.64 954.30 614.57 607.34 946.19 741.33 1407.80 1018.23
651.89 415.53 818.00 1094.03 370.34 886.11 804.13 283.09 1207.47 231.73 0.00 174.68 1108.90 798.25 1011.20 225.87 348.23 710.88 880.26 561.08 329.48 45.02 432.37 235.87 1182.55 788.85 1091.28 488.20 976.47 902.12 248.81 682.67 966.51 782.32 812.61 472.88 655.95 852.02 744.64 1212.73 786.50
656.49 482.84 953.26 1098.63 545.02 831.50 911.91 269.36 1193.74 333.64 174.68 0.00 1095.17 623.57 895.34 56.49 520.65 819.26 969.67 735.76 334.08 193.08 266.49 69.99 1187.15 694.13 1095.88 313.52 962.74 736.24 423.49 751.52 971.11 616.44 774.41 459.96 806.41 920.11 672.42 1252.34 809.18
527.37 1247.49 735.97 141.69 1315.67 798.48 725.18 825.81 98.57 1258.88 1108.90 1095.17 0.00 1395.85 646.43 1151.66 1021.44 1340.35 853.57 968.23 849.78 1134.24 1203.52 1163.82 155.70 1300.12 249.05 1267.18 478.84 1240.71 1142.55 622.40 443.73 951.93 875.34 733.01 889.39 763.12 807.33 157.17 889.68
907.89 1072.28 1356.93 1334.81 1168.59 674.22 1380.43 802.47 1344.63 892.27 798.25 623.57 1395.85 0.00 789.47 672.86 924.53 1408.70 1506.01 1349.61 737.75 800.78 373.71 570.21 1406.30 95.73 1499.55 310.05 1454.35 262.23 1037.34 981.26 1374.78 483.97 699.18 881.15 1340.51 1390.95 1208.76 1420.93 672.32
591.61 1309.72 972.19 545.34 1114.79 152.05 1088.14 728.11 737.86 1183.21 1011.20 895.34 646.43 789.47 0.00 838.85 757.96 1382.28 1198.11 1331.19 792.83 996.50 776.26 851.95 633.86 720.78 866.34 807.65 921.00 621.85 1050.40 496.58 1043.41 305.50 228.91 720.22 1001.19 1006.21 967.11 717.42 300.05
710.72 539.33 933.93 1155.12 596.21 775.01 944.57 325.85 1250.23 358.08 225.87 56.49 1151.66 672.86 838.85 0.00 464.16 782.08 1026.16 786.95 390.57 249.57 299.15 102.65 1179.35 734.31 1152.37 362.81 1019.23 747.72 474.68 805.75 1027.60 649.10 830.90 505.08 862.90 967.95 728.91 1308.83 841.84
494.07 551.76 469.77 951.33 356.83 910.01 644.56 251.50 1120.01 579.96 348.23 520.65 1021.44 924.53 757.96 464.16 0.00 624.32 700.66 604.71 186.78 393.25 592.13 566.81 1031.75 1020.26 948.58 655.79 788.07 1061.88 292.44 399.04 762.01 920.67 808.32 330.18 667.90 503.79 739.25 1061.06 831.20
1087.32 336.42 655.34 1303.70 468.96 1518.28 615.17 875.82 1403.72 608.93 710.88 819.26 1340.35 1408.70 1382.28 782.08 624.32 0.00 577.08 817.16 811.10 706.93 1081.23 884.73 1392.22 1450.76 1240.35 1098.65 973.64 1529.80 653.91 1023.36 947.58 1318.08 1432.64 954.50 681.16 689.36 606.29 1475.78 1370.28
606.50 854.46 296.22 994.66 678.03 1192.82 128.39 835.79 952.14 690.19 880.26 969.67 853.57 1506.01 1198.11 1026.16 700.66 577.08 0.00 329.83 771.07 876.90 1132.30 970.31 951.48 1567.46 820.15 1195.96 553.44 1410.28 631.45 701.53 495.73 1217.51 1187.88 673.31 292.34 269.16 297.25 1010.74 1093.42
848.31 543.13 417.84 1064.69 348.20 1259.98 243.05 832.98 1066.80 607.53 561.08 735.76 968.23 1349.61 1331.19 786.95 604.71 817.16 329.83 0.00 791.49 606.10 975.90 779.40 1123.93 1349.93 934.81 1039.56 668.10 1352.08 312.27 834.61 628.97 1189.76 1155.77 738.03 359.30 383.82 367.28 1125.40 1239.05
322.41 521.12 619.18 764.55 543.61 725.75 642.68 64.72 948.35 471.17 329.48 334.08 849.78 737.75 792.83 390.57 186.78 811.10 771.07 791.49 0.00 284.46 532.63 402.73 853.07 833.48 761.80 596.29 758.10 999.98 479.22 417.44 637.03 733.89 621.54 143.40 602.76 653.20 552.47 936.63 644.42
606.87 370.51 863.02 1049.01 368.30 871.80 849.15 328.11 1232.81 186.71 45.02 193.08 1134.24 800.78 996.50 249.57 393.25 706.93 876.90 606.10 284.46 0.00 427.07 230.57 1137.53 743.83 1046.26 490.73 1021.49 896.82 293.83 701.90 921.49 777.02 767.59 427.86 700.97 897.04 699.62 1221.09 831.52
676.15 749.33 1061.90 1272.75 795.37 682.11 1038.42 467.91 1302.09 594.69 432.37 266.49 1203.52 373.71 776.26 299.15 592.13 1081.23 1132.30 975.90 532.63 427.07 0.00 196.50 1237.55 435.16 1180.16 63.66 1146.15 469.75 663.63 734.87 1075.28 470.76 577.90 658.51 969.04 1082.74 835.05 1265.26 663.50
725.14 552.83 1016.71 1076.25 598.87 761.70 841.92 338.01 1262.39 398.19 235.87 69.99 1163.82 570.21 851.95 102.65 566.81 884.73 970.31 779.40 402.73 230.57 196.50 0.00 1125.05 631.66 1164.53 260.16 1031.39 666.25 467.13 820.17 1039.76 546.45 761.66 528.61 876.40 982.69 742.41 1248.33 739.19
561.40 1374.19 832.09 88.52 1316.10 755.20 880.88 917.79 227.48 1292.91 1182.55 1187.15 155.70 1406.30 633.86 1179.35 1031.75 1392.22 951.48 1123.93 853.07 1137.53 1237.55 1125.05 0.00 1310.57 404.75 1301.21 634.54 1144.07 1176.58 632.71 581.94 926.72 828.44 767.04 919.92 798.07 785.93 151.18 733.98
962.80 1114.34 1452.66 1266.12 1112.13 578.49 1473.58 864.52 1275.94 930.54 788.85 694.13 1300.12 95.73 720.78 734.31 1020.26 1450.76 1567.46 1349.93 833.48 743.83 435.16 631.66 1310.57 0.00 1549.17 400.66 1440.13 166.50 1037.66 1057.83 1425.60 415.28 630.49 976.88 1366.86 1426.18 1270.21 1352.24 576.59
776.42 1271.00 585.01 321.00 1164.71 1018.39 691.76 826.52 287.07 1232.97 1091.28 1095.88 249.05 1499.55 866.34 1152.37 948.58 1240.35 820.15 934.81 761.80 1046.26 1180.16 1164.53 404.75 1549.17 0.00 1243.82 341.68 1464.08 1216.12 692.62 467.24 1147.73 1066.65 905.20 752.23 550.99 698.13 288.04 1075.61
739.81 762.23 1125.56 1324.39 858.54 682.95 1102.08 531.57 1365.75 582.22 488.20 313.52 1267.18 310.05 807.65 362.81 655.79 1098.65 1195.96 1039.56 596.29 490.73 63.66 260.16 1301.21 400.66 1243.82 0.00 1209.81 533.41 727.29 671.21 1138.94 534.42 578.74 722.17 1032.70 1146.40 898.71 1328.92 600.82
546.46 929.32 318.30 620.53 898.00 1073.05 425.05 693.38 577.41 1017.89 976.47 962.74 478.84 1454.35 921.00 1019.23 788.07 973.64 553.44 668.10 758.10 1021.49 1146.15 1031.39 634.54 1440.13 341.68 1209.81 0.00 1452.23 887.97 604.60 125.56 1135.88 1149.91 715.85 410.55 284.28 369.98 629.72 1129.59
945.70 1219.08 1331.90 1164.70 1224.76 533.71 1355.19 937.66 1177.01 1064.44 902.12 736.24 1240.71 262.23 621.85 747.72 1061.88 1529.80 1410.28 1352.08 999.98 896.82 469.75 666.25 1144.07 166.50 1464.08 533.41 1452.23 0.00 1039.81 970.65 1326.67 316.35 504.55 911.11 1267.93 1297.88 1304.80 1253.31 410.09
615.18 364.42 638.96 1215.40 184.95 947.71 555.32 531.90 1241.12 480.54 248.81 423.49 1142.55 1037.34 1050.40 474.68 292.44 653.91 631.45 312.27 479.22 293.83 663.63 467.13 1176.58 1037.66 1216.12 727.29 887.97 1039.81 0.00 691.48 783.67 1013.58 843.50 622.62 600.79 672.98 517.99 1299.72 937.96
95.03 938.56 475.61 688.10 755.87 648.63 591.56 482.16 720.97 826.54 682.67 751.52 622.40 981.26 496.58 805.75 399.04 1023.36 701.53 834.61 417.44 701.90 734.87 820.17 632.71 1057.83 692.62 671.21 604.60 970.65 691.48 0.00 546.83 654.30 725.49 300.67 504.61 509.63 470.53 662.02 678.16
565.62 803.76 292.24 585.42 871.94 1180.34 385.92 701.75 542.30 1104.93 966.51 971.11 443.73 1374.78 1043.41 1027.60 762.01 947.58 495.73 628.97 637.03 921.49 1075.28 1039.76 581.94 1425.60 467.24 1138.94 125.56 1326.67 783.67 546.83 0.00 1010.32 1185.77 590.29 497.59 326.26 363.60 600.90 1091.31
749.33 1099.28 1117.49 850.84 1145.32 217.36 1089.12 669.17 860.66 944.64 782.32 616.44 951.93 483.97 305.50 649.10 920.67 1318.08 1217.51 1189.76 733.89 777.02 470.76 546.45 926.72 415.28 1147.73 534.42 1135.88 316.35 1013.58 654.30 1010.32 0.00 215.21 693.76 951.58 1151.51 1085.57 936.96 192.74
677.59 1128.32 971.54 745.65 994.19 104.21 1146.33 686.26 853.36 954.30 812.61 774.41 875.34 699.18 228.91 830.90 808.32 1432.64 1187.88 1155.77 621.54 767.59 577.90 761.66 828.44 630.49 1066.65 578.74 1149.91 504.55 843.50 725.49 1185.77 215.21 0.00 595.48 1054.84 1005.56 1004.55 917.73 94.46
205.64 664.52 661.88 855.56 687.01 649.02 593.52 190.60 831.58 614.57 472.88 459.96 733.01 881.15 720.22 505.08 330.18 954.50 673.31 738.03 143.40 427.86 658.51 528.61 767.04 976.88 905.20 722.17 715.85 911.11 622.62 300.67 590.29 693.76 595.48 0.00 459.36 656.76 409.07 890.18 501.02
599.64 850.22 304.83 831.40 664.16 1108.38 218.86 649.96 987.96 607.34 655.95 806.41 889.39 1340.51 1001.19 862.90 667.90 681.16 292.34 359.30 602.76 700.97 969.04 876.40 919.92 1366.86 752.23 1032.70 410.55 1267.93 600.79 504.61 497.59 951.58 1054.84 459.36 0.00 338.85 133.99 1003.48 960.38
604.66 763.46 34.02 806.60 613.72 1049.00 140.77 717.92 714.36 946.19 852.02 920.11 763.12 1390.95 1006.21 967.95 503.79 689.36 269.16 383.82 653.20 897.04 1082.74 982.69 798.07 1426.18 550.99 1146.40 284.28 1297.88 672.98 509.63 326.26 1151.51 1005.56 656.76 338.85 0.00 247.69 790.66 958.77
481.03 725.10 281.71 697.41 530.17 1058.09 255.39 599.67 889.93 741.33 744.64 672.42 807.33 1208.76 967.11 728.91 739.25 606.29 297.25 367.28 552.47 699.62 835.05 742.41 785.93 1270.21 698.13 898.71 369.98 1304.80 517.99 470.53 363.60 1085.57 1004.55 409.07 133.99 247.69 0.00 869.49 910.09
684.54 1404.66 824.68 172.08 1399.66 869.47 882.35 982.98 76.30 1407.80 1212.73 1252.34 157.17 1420.93 717.42 1308.83 1061.06 1475.78 1010.74 1125.40 936.63 1221.09 1265.26 1248.33 151.18 1352.24 288.04 1328.92 629.72 1253.31 1299.72 662.02 600.90 936.96 917.73 890.18 1003.48 790.66 869.49 0.00 885.16
583.13 1033.86 924.75 754.61 989.73 148.00 1094.54 691.62 947.13 1018.23 786.50 809.18 889.68 672.32 300.05 841.84 831.20 1370.28 1093.42 1239.05 644.42 831.52 663.50 739.19 733.98 576.59 1075.61 600.82 1129.59 410.09 937.96 678.16 1091.31 192.74 94.46 501.02 960.38 958.77 910.09 885.16 0.00
DEMAND_SECTION
1 0
2 6
3 9
4 5
5 8
6 8
7 5
8 8
9 5
10 5
11 10
12 6
13 10
14 7
15 5
16 7
17 6
18 6
19 5
20 8
21 9
22 8
23 6
24 6
25 10
26 5
27 6
28 10
29 10
30 5
31 10
32 5
33 9
34 7
35 7
36 5
37 6
38 9
39 6
40 9
41 8
DEPOT_SECTION
1
-1
EOF
