NAME: LDG45_2145_rain_45_0152
COMMENT: CVRP with travel times.  rootPos=2,custPos=1,demandType=4,avgRouteSizeIndex=5,weather=rain,lambda_cluster=1,lambda_random=4, T1=300,T2=700,beta=1, alpha(i,j) ~ U(0.8,1.2)
TYPE: CVRP
DIMENSION: 46
EDGE_WEIGHT_TYPE: EXPLICIT
EDGE_WEIGHT_FORMAT: FULL_MATRIX
CAPACITY: 911
NODE_COORD_SECTION
1 500 500
2 316 350
3 2 443
4 84 11
5 316 838
6 680 759
7 458 469
8 744 417
9 216 637
10 167 17
11 717 942
12 145 252
13 418 753
14 631 63
15 827 491
16 633 712
17 675 831
18 888 445
19 377 193
20 527 541
21 727 182
22 653 191
23 731 892
24 635 999
25 45 209
26 33 648
27 350 565
28 618 583
29 808 446
30 544 10
31 571 394
32 72 11
33 560 560
34 140 667
35 218 4
36 568 510
37 700 952
38 971 812
39 800 156
40 979 812
41 182 64
42 249 300
43 922 752
44 358 667
45 479 520
46 54 992
EDGE_WEIGHT_SECTION
0.00 313.11 631.85 707.53 415.26 336.11 74.49 287.20 367.46 668.55 499.47 504.23 319.85 505.29 387.78 247.00 390.08 451.07 421.54 57.22 486.59 442.33 442.24 484.17 599.36 488.56 273.31 171.97 358.72 541.51 186.40 698.32 78.13 384.39 611.09 70.94 502.44 585.35 488.65 591.88 667.87 405.64 503.29 292.65 42.98 660.65
313.11 0.00 340.23 465.31 505.63 560.88 245.06 490.35 404.04 356.79 665.94 193.47 413.44 620.44 538.82 454.42 597.50 586.08 241.16 369.08 567.66 530.96 679.29 769.33 304.55 455.76 333.19 451.13 484.91 509.51 367.66 463.59 391.24 351.59 355.50 384.05 702.00 850.67 579.48 844.10 431.63 164.62 814.45 293.08 311.08 684.06
631.85 340.23 0.00 532.68 635.33 745.16 585.29 830.58 343.46 508.38 928.36 256.45 513.42 809.37 879.05 794.65 807.95 926.31 430.09 574.63 812.10 706.01 887.58 875.64 329.84 266.11 415.79 701.14 825.14 698.44 614.02 522.22 625.60 342.74 563.31 638.20 892.30 1040.59 851.36 1049.28 433.54 264.87 1012.38 393.06 632.63 530.93
707.53 465.31 532.68 0.00 936.60 1009.67 710.37 907.93 682.58 117.32 1121.52 361.16 878.75 626.82 926.29 919.73 1058.04 985.44 402.53 722.55 761.87 725.35 1064.29 1149.25 340.66 713.08 723.07 804.60 950.22 515.89 696.34 23.79 773.52 685.99 168.16 744.50 1157.58 1183.58 777.75 1174.89 181.40 388.28 1123.76 758.39 664.55 1018.46
415.26 505.63 635.33 936.60 0.00 398.71 482.06 611.81 374.29 862.42 430.43 699.10 191.80 805.17 697.46 496.62 481.85 751.89 681.13 358.04 776.26 697.16 400.06 465.26 810.18 544.58 287.49 484.55 709.39 874.75 545.40 912.81 409.01 440.41 861.13 421.61 466.49 690.94 839.32 699.63 937.26 622.28 665.93 242.27 416.04 332.38
336.11 560.88 745.16 1009.67 398.71 0.00 410.60 474.95 499.95 917.67 206.08 698.46 396.71 699.52 416.54 106.46 102.18 463.80 652.82 288.50 680.82 636.56 177.46 303.96 809.54 740.14 456.48 284.32 362.63 765.58 419.35 985.88 279.66 640.73 914.61 265.17 214.54 334.67 681.09 343.36 938.41 725.50 267.22 352.10 346.50 731.09
74.49 245.06 585.29 710.37 482.06 410.60 0.00 361.69 326.41 601.85 556.55 438.53 342.89 542.85 430.05 321.49 423.03 507.89 486.22 124.02 496.21 425.60 499.32 550.72 549.61 497.33 198.82 206.07 406.72 616.00 149.60 708.65 152.62 458.88 600.56 145.43 535.39 605.61 563.14 614.30 676.69 409.68 577.78 325.66 66.02 735.14
287.20 490.35 830.58 907.93 611.81 474.95 361.69 0.00 624.22 790.61 523.53 592.36 558.04 400.99 138.48 413.22 384.51 213.49 589.86 260.04 282.63 267.04 466.30 586.29 703.44 775.76 510.98 302.91 112.32 511.92 253.01 897.41 209.07 671.59 845.85 274.33 496.87 504.55 354.15 495.86 847.85 654.97 465.14 476.37 298.65 944.19
367.46 404.04 343.46 682.58 374.29 499.95 326.41 624.22 0.00 661.44 635.57 364.63 239.42 837.82 675.61 469.49 533.95 781.26 593.56 424.68 822.62 703.87 615.74 532.18 475.71 252.46 199.92 459.61 684.97 787.18 476.01 658.79 415.15 148.29 718.90 421.49 618.30 717.25 839.20 725.94 586.60 443.62 767.17 147.85 392.43 435.24
668.55 356.79 508.38 117.32 862.42 917.67 601.85 790.61 661.44 0.00 1004.20 369.66 770.23 509.50 815.59 811.21 954.29 917.09 331.04 683.57 708.61 643.45 946.97 1107.59 265.90 595.76 669.35 765.62 841.70 398.57 644.64 106.80 734.54 699.93 57.46 739.49 1040.26 1066.26 660.43 1057.57 74.84 435.62 1017.20 649.87 625.57 1032.40
499.47 665.94 928.36 1121.52 430.43 206.08 556.55 523.53 635.57 1004.20 0.00 859.41 414.94 905.60 563.23 282.10 139.02 594.49 836.63 472.31 806.16 790.57 57.23 103.39 906.18 751.99 520.07 392.46 568.71 971.66 565.36 1111.00 421.34 647.82 1021.44 471.25 36.06 348.11 827.83 356.80 1079.04 830.56 350.72 535.30 530.31 626.73
504.23 193.47 256.45 361.16 699.10 698.46 438.53 592.36 364.63 369.66 859.41 0.00 604.05 568.07 730.84 629.26 772.34 779.55 257.26 496.86 670.44 580.08 854.13 896.81 111.08 503.68 497.07 557.54 678.38 525.61 481.23 337.37 498.55 512.92 376.19 433.29 884.70 1001.73 678.53 993.04 303.08 162.28 928.02 486.55 498.00 755.27
319.85 413.44 513.42 878.75 191.80 396.71 342.89 558.04 239.42 770.23 414.94 604.05 0.00 798.97 506.94 304.82 294.53 612.59 640.84 334.87 624.41 676.38 376.32 441.73 715.13 373.37 247.20 362.58 560.85 828.46 483.73 877.03 348.97 269.20 768.94 364.62 378.88 572.67 728.56 581.36 826.02 578.06 587.42 120.36 276.87 524.18
505.29 620.44 809.37 626.82 805.17 699.52 542.85 400.99 837.82 509.50 905.60 568.07 798.97 0.00 459.13 630.32 773.40 506.39 379.28 497.92 199.11 133.95 855.19 975.18 679.15 961.54 687.88 558.60 405.22 110.93 409.95 616.30 499.61 889.68 526.71 434.35 885.76 825.20 196.31 816.51 584.34 544.50 785.79 689.97 548.27 1137.55
387.78 538.82 879.05 926.29 697.46 416.54 430.05 138.48 675.61 815.59 563.23 730.84 506.94 459.13 0.00 369.85 424.21 105.65 688.47 380.41 421.11 405.52 506.00 625.99 841.92 831.46 526.78 279.27 53.91 570.06 280.45 922.39 347.55 772.17 758.13 316.84 536.57 366.07 372.37 357.38 827.42 703.44 326.66 583.32 419.32 1029.84
247.00 454.42 794.65 919.73 496.62 106.46 321.49 413.22 469.49 811.21 282.10 629.26 304.82 630.32 369.85 0.00 143.08 475.50 619.44 255.12 611.62 567.36 224.87 344.86 740.34 678.19 449.50 177.86 403.22 696.38 350.15 916.68 204.15 574.02 809.92 195.97 255.44 398.37 613.68 389.68 831.95 619.04 366.34 425.18 280.56 777.11
390.08 597.50 807.95 1058.04 481.85 102.18 423.03 384.51 533.95 954.29 139.02 772.34 294.53 773.40 424.21 143.08 0.00 529.86 744.27 379.95 667.14 651.55 81.79 201.78 883.42 642.72 533.31 253.44 464.81 839.46 493.23 1048.83 347.23 538.55 953.00 339.05 112.36 297.12 688.81 288.43 975.03 714.25 292.89 414.89 393.49 634.03
451.07 586.08 926.31 985.44 751.89 463.80 507.89 213.49 781.26 917.09 594.49 779.55 612.59 506.39 105.65 475.50 529.86 0.00 758.17 393.85 431.42 480.53 611.65 659.90 890.63 878.72 587.01 326.53 101.17 617.32 386.10 961.65 420.37 835.46 863.78 380.56 558.43 391.84 398.61 400.53 925.23 750.70 432.31 660.36 451.85 1084.27
421.54 241.16 430.09 402.53 681.13 652.82 486.22 589.86 593.56 331.04 836.63 257.26 640.84 379.28 688.47 619.44 744.27 758.17 0.00 364.32 413.18 322.82 779.40 905.71 368.34 653.49 393.64 490.83 702.18 268.35 416.74 426.32 415.29 567.56 342.54 427.89 839.60 900.57 421.27 909.26 305.27 165.22 863.53 520.48 422.32 900.03
57.22 369.08 574.63 722.55 358.04 288.50 124.02 260.04 424.68 683.57 472.31 496.86 334.87 497.92 380.41 255.12 379.95 393.85 364.32 0.00 479.22 434.96 415.08 541.39 542.14 545.78 250.94 126.51 351.35 563.98 187.36 713.34 50.97 441.61 626.11 63.57 475.28 536.25 481.28 544.94 669.59 443.38 505.08 316.21 58.00 690.42
486.59 567.66 812.10 761.87 776.26 680.82 496.21 282.63 822.62 708.61 806.16 670.44 624.41 199.11 421.11 611.62 667.14 431.42 413.18 479.22 0.00 139.85 748.93 868.92 776.78 942.84 669.18 539.90 394.95 310.04 346.61 738.08 480.91 839.06 725.82 415.65 779.50 637.65 104.15 646.34 665.99 547.23 719.71 679.73 529.57 1108.64
442.33 530.96 706.01 725.35 697.16 636.56 425.60 267.04 703.87 643.45 790.57 580.08 676.38 133.95 405.52 567.36 651.55 480.53 322.82 434.96 139.85 0.00 733.34 853.33 691.16 890.50 624.42 495.64 379.36 244.88 276.00 749.14 436.65 826.72 600.00 371.39 763.91 771.59 214.34 762.90 628.09 488.04 722.79 556.02 482.86 1029.54
442.24 679.29 887.58 1064.29 400.06 177.46 499.32 466.30 615.74 946.97 57.23 854.13 376.32 855.19 506.00 224.87 81.79 611.65 779.40 415.08 748.93 733.34 0.00 160.62 957.22 724.51 577.30 335.23 540.09 921.25 575.02 1053.77 364.11 620.34 967.95 420.84 93.29 290.88 770.60 299.57 1021.81 796.04 293.49 496.68 473.08 683.96
484.17 769.33 875.64 1149.25 465.26 303.96 550.72 586.29 532.18 1107.59 103.39 896.81 441.73 975.18 625.99 344.86 201.78 659.90 905.71 541.39 868.92 853.33 160.62 0.00 971.59 769.91 623.46 455.22 666.59 1025.68 630.77 1140.04 524.73 665.74 1052.81 540.83 101.47 393.64 890.59 384.95 1118.78 870.08 454.11 523.37 484.70 730.12
599.36 304.55 329.84 340.66 810.18 809.54 549.61 703.44 475.71 265.90 906.18 111.08 715.13 679.15 841.92 740.34 883.42 890.63 368.34 542.14 776.78 691.16 957.22 971.59 0.00 514.81 564.34 668.62 789.46 636.69 592.31 331.03 593.11 459.54 323.36 544.37 870.12 1078.39 789.61 1087.08 195.90 229.55 1039.10 597.63 600.14 792.01
488.56 455.76 266.11 713.08 544.58 740.14 497.33 775.76 252.46 595.76 751.99 503.68 373.37 961.54 831.46 678.19 642.72 878.72 653.49 545.78 942.84 890.50 724.51 769.91 514.81 0.00 321.15 638.24 777.55 908.41 646.93 702.56 566.69 104.17 653.22 527.19 752.25 939.84 944.90 931.15 658.89 488.27 935.61 400.31 526.98 436.64
273.31 333.19 415.79 723.07 287.49 456.48 198.82 510.98 199.92 669.35 520.07 497.07 247.20 687.88 526.78 449.50 533.31 587.01 393.64 250.94 669.18 624.42 577.30 623.46 564.34 321.15 0.00 365.08 507.10 587.26 348.42 746.38 301.91 335.14 611.89 253.53 556.13 774.37 671.24 783.06 698.91 334.79 723.70 126.84 233.73 619.87
171.97 451.13 701.14 804.60 484.55 284.32 206.07 302.91 459.61 765.62 392.46 557.54 362.58 558.60 279.27 177.86 253.44 326.53 490.83 126.51 539.90 495.64 335.23 455.22 668.62 638.24 365.08 0.00 225.36 624.66 278.43 795.39 93.84 534.07 708.16 124.25 365.80 453.32 541.96 444.63 796.10 460.81 406.76 361.14 140.05 816.93
358.72 484.91 825.14 950.22 709.39 362.63 406.72 112.32 684.97 841.70 568.71 678.38 560.85 405.22 53.91 403.22 464.81 101.17 702.18 351.35 394.95 379.36 540.09 666.59 789.46 777.55 507.10 225.36 0.00 516.15 312.60 948.50 319.20 743.11 812.04 287.78 577.17 419.98 318.46 411.29 850.08 649.53 380.57 586.50 365.41 1019.37
541.51 509.51 698.44 515.89 874.75 765.58 616.00 511.92 787.18 398.57 971.66 525.61 828.46 110.93 570.06 696.38 839.46 617.32 268.35 563.98 310.04 244.88 921.25 1025.68 636.69 908.41 587.26 624.66 516.15 0.00 499.34 505.37 565.67 835.91 415.78 500.41 951.82 936.13 307.24 927.44 473.41 433.57 896.72 714.10 580.41 1168.38
186.40 367.66 614.02 696.34 545.40 419.35 149.60 253.01 476.01 644.64 565.36 481.23 483.73 409.95 280.45 350.15 493.23 386.10 416.74 187.36 346.61 276.00 575.02 630.77 592.31 646.93 348.42 278.43 312.60 499.34 0.00 672.55 219.44 570.79 702.10 154.18 529.30 528.85 450.76 535.38 594.84 532.28 446.79 365.77 206.86 847.05
698.32 463.59 522.22 23.79 912.81 985.88 708.65 897.41 658.79 106.80 1111.00 337.37 877.03 616.30 922.39 916.68 1048.83 961.65 426.32 713.34 738.08 749.14 1053.77 1140.04 331.03 702.56 746.38 795.39 948.50 505.37 672.55 0.00 764.31 662.20 164.26 720.71 1147.06 1173.06 767.23 1164.37 181.64 412.07 1119.34 756.67 655.34 994.67
78.13 391.24 625.60 773.52 409.01 279.66 152.62 209.07 415.15 734.54 421.34 498.55 348.97 499.61 347.55 204.15 347.23 420.37 415.29 50.97 480.91 436.65 364.11 524.73 593.11 566.69 301.91 93.84 319.20 565.67 219.44 764.31 0.00 462.52 677.08 65.26 457.40 547.16 482.97 538.47 720.56 483.77 500.60 267.30 108.97 738.78
384.39 351.59 342.74 685.99 440.41 640.73 458.88 671.59 148.29 699.93 647.82 512.92 269.20 889.68 772.17 574.02 538.55 835.46 567.56 441.61 839.06 826.72 620.34 665.74 459.54 104.17 335.14 534.07 743.11 835.91 570.79 662.20 462.52 0.00 707.09 455.33 648.08 835.67 873.04 826.98 655.44 516.21 831.44 296.14 422.81 332.47
611.09 355.50 563.31 168.16 861.13 914.61 600.56 845.85 718.90 57.46 1021.44 376.19 768.94 526.71 758.13 809.92 953.00 863.78 342.54 626.11 725.82 600.00 967.95 1052.81 323.36 653.22 611.89 708.16 812.04 415.78 702.10 164.26 677.08 707.09 0.00 682.03 1057.50 1123.72 717.89 1115.03 132.30 378.16 1074.66 648.58 568.11 1039.56
70.94 384.05 638.20 744.50 421.61 265.17 145.43 274.33 421.49 739.49 471.25 433.29 364.62 434.35 316.84 195.97 339.05 380.56 427.89 63.57 415.65 371.39 420.84 540.83 544.37 527.19 253.53 124.25 287.78 500.41 154.18 720.71 65.26 455.33 682.03 0.00 451.41 568.44 417.71 559.75 723.67 471.64 531.01 332.56 113.92 731.59
502.44 702.00 892.30 1157.58 466.49 214.54 535.39 496.87 618.30 1040.26 36.06 884.70 378.88 885.76 536.57 255.44 112.36 558.43 839.60 475.28 779.50 763.91 93.29 101.47 870.12 752.25 556.13 365.80 577.17 951.82 529.30 1147.06 457.40 648.08 1057.50 451.41 0.00 372.10 801.17 363.41 1066.02 826.61 386.78 499.24 505.85 662.79
585.35 850.67 1040.59 1183.58 690.94 334.67 605.61 504.55 717.25 1066.26 348.11 1001.73 572.67 825.20 366.07 398.37 297.12 391.84 900.57 536.25 637.65 771.59 290.88 393.64 1078.39 939.84 774.37 453.32 419.98 936.13 528.85 1173.06 547.16 835.67 1123.72 568.44 372.10 0.00 738.44 8.69 1024.42 914.13 82.06 647.53 593.37 931.15
488.65 579.48 851.36 777.75 839.32 681.09 563.14 354.15 839.20 660.43 827.83 678.53 728.56 196.31 372.37 613.68 688.81 398.61 421.27 481.28 104.15 214.34 770.60 890.59 789.61 944.90 671.24 541.96 318.46 307.24 450.76 767.23 482.97 873.04 717.89 417.71 801.17 738.44 0.00 729.75 726.54 586.49 699.03 750.27 531.63 1149.30
591.88 844.10 1049.28 1174.89 699.63 343.36 614.30 495.86 725.94 1057.57 356.80 993.04 581.36 816.51 357.38 389.68 288.43 400.53 909.26 544.94 646.34 762.90 299.57 384.95 1087.08 931.15 783.06 444.63 411.29 927.44 535.38 1164.37 538.47 826.98 1115.03 559.75 363.41 8.69 729.75 0.00 1030.95 905.44 88.59 656.22 584.68 922.46
667.87 431.63 433.54 181.40 937.26 938.41 676.69 847.85 586.60 74.84 1079.04 303.08 826.02 584.34 827.42 831.95 975.03 925.23 305.27 669.59 665.99 628.09 1021.81 1118.78 195.90 658.89 698.91 796.10 850.08 473.41 594.84 181.64 720.56 655.44 132.30 723.67 1066.02 1024.42 726.54 1030.95 0.00 386.90 942.36 724.71 663.94 964.47
405.64 164.62 264.87 388.28 622.28 725.50 409.68 654.97 443.62 435.62 830.56 162.28 578.06 544.50 703.44 619.04 714.25 750.70 165.22 443.38 547.23 488.04 796.04 870.08 229.55 488.27 334.79 460.81 649.53 433.57 532.28 412.07 483.77 516.21 378.16 471.64 826.61 914.13 586.49 905.44 386.90 0.00 867.57 457.70 385.38 795.80
503.29 814.45 1012.38 1123.76 665.93 267.22 577.78 465.14 767.17 1017.20 350.72 928.02 587.42 785.79 326.66 366.34 292.89 432.31 863.53 505.08 719.71 722.79 293.49 454.11 1039.10 935.61 723.70 406.76 380.57 896.72 446.79 1119.34 500.60 831.44 1074.66 531.01 386.78 82.06 699.03 88.59 942.36 867.57 0.00 619.32 546.27 926.92
292.65 293.08 393.06 758.39 242.27 352.10 325.66 476.37 147.85 649.87 535.30 486.55 120.36 689.97 583.32 425.18 414.89 660.36 520.48 316.21 679.73 556.02 496.68 523.37 597.63 400.31 126.84 361.14 586.50 714.10 365.77 756.67 267.30 296.14 648.58 332.56 499.24 647.53 750.27 656.22 724.71 457.70 619.32 0.00 328.40 574.65
42.98 311.08 632.63 664.55 416.04 346.50 66.02 298.65 392.43 625.57 530.31 498.00 276.87 548.27 419.32 280.56 393.49 451.85 422.32 58.00 529.57 482.86 473.08 484.70 600.14 526.98 233.73 140.05 365.41 580.41 206.86 655.34 108.97 422.81 568.11 113.92 505.85 593.37 531.63 584.68 663.94 385.38 546.27 328.40 0.00 703.63
660.65 684.06 530.93 1018.46 332.38 731.09 735.14 944.19 435.24 1032.40 626.73 755.27 524.18 1137.55 1029.84 777.11 634.03 1084.27 900.03 690.42 1108.64 1029.54 683.96 730.12 792.01 436.64 619.87 816.93 1019.37 1168.38 847.05 994.67 738.78 332.47 1039.56 731.59 662.79 931.15 1149.30 922.46 964.47 795.80 926.92 574.65 703.63 0.00
DEMAND_SECTION
1 0
2 8
3 71
4 54
5 57
6 11
7 99
8 27
9 82
10 10
11 56
12 57
13 23
14 75
15 61
16 91
17 99
18 22
19 69
20 55
21 15
22 28
23 10
24 15
25 47
26 66
27 15
28 82
29 76
30 14
31 12
32 93
33 8
34 22
35 77
36 44
37 35
38 13
39 60
40 11
41 67
42 71
43 46
44 58
45 70
46 20
DEPOT_SECTION
1
-1
EOF
