NAME: LDG45_2314_fog_45_0146
COMMENT: CVRP with travel times.  rootPos=2,custPos=3,demandType=1,avgRouteSizeIndex=4,weather=fog,lambda_cluster=1,lambda_random=4, T1=300,T2=700,beta=1, alpha(i,j) ~ U(0.8,1.2)
TYPE: CVRP
DIMENSION: 46
EDGE_WEIGHT_TYPE: EXPLICIT
EDGE_WEIGHT_FORMAT: FULL_MATRIX
CAPACITY: 13
NODE_COORD_SECTION
1 500 500
2 700 433
3 336 713
4 350 434
5 742 819
6 306 760
7 321 945
8 895 530
9 256 543
10 479 934
11 757 266
12 115 729
13 609 619
14 613 924
15 53 751
16 550 254
17 120 18
18 324 402
19 827 659
20 933 552
21 852 722
22 769 583
23 107 348
24 914 506
25 981 87
26 137 270
27 67 856
28 226 723
29 216 724
30 827 154
31 818 607
32 913 696
33 86 510
34 651 505
35 209 93
36 64 828
37 609 535
38 564 573
39 994 798
40 714 512
41 889 597
42 901 561
43 287 363
44 58 991
45 834 735
46 140 97
EDGE_WEIGHT_SECTION
0.00 367.20 531.11 201.23 604.45 449.81 637.48 534.27 345.22 549.17 574.58 616.81 205.37 497.39 713.80 295.21 717.39 215.39 433.76 543.43 524.69 391.69 475.31 510.29 862.65 476.05 724.51 571.45 543.44 622.40 356.42 529.85 455.05 255.47 614.72 750.41 153.16 206.18 658.15 350.83 478.37 486.44 292.85 795.59 532.99 622.67
367.20 0.00 624.71 418.37 523.14 658.64 781.15 308.56 666.75 726.48 244.30 800.73 270.67 666.60 897.72 290.41 765.15 498.80 323.62 311.75 414.55 294.14 692.45 240.43 664.41 693.19 853.58 702.63 687.77 488.30 331.24 394.99 822.25 147.17 577.98 800.84 214.04 299.78 521.70 123.18 281.34 334.12 509.99 946.18 435.04 691.23
531.11 624.71 0.00 468.85 608.14 117.25 370.93 621.17 220.47 517.52 832.09 288.90 422.28 558.35 340.97 751.85 938.87 487.57 685.77 680.37 684.40 605.16 588.63 689.30 1068.38 620.40 429.55 197.85 169.84 1082.67 581.37 754.80 522.78 512.98 858.56 376.81 410.67 324.93 850.44 584.74 703.32 669.00 467.25 554.63 689.47 844.15
201.23 418.37 468.85 0.00 719.37 552.34 745.19 699.38 248.38 539.60 662.67 574.62 406.60 698.62 560.24 374.18 570.74 80.43 634.99 702.57 712.10 588.00 274.08 631.25 1039.35 274.82 523.28 474.61 446.60 799.10 557.65 731.08 438.30 441.86 413.49 576.02 354.39 329.99 855.50 540.23 679.60 687.67 91.62 672.86 734.22 487.71
604.45 523.14 608.14 719.37 0.00 725.39 826.76 394.88 828.61 537.68 737.80 885.51 401.03 344.03 854.49 771.86 1262.80 799.80 199.52 405.07 170.74 340.33 993.45 404.49 945.67 994.19 966.13 702.71 730.72 866.57 303.92 264.12 824.48 447.68 1054.83 937.69 478.44 498.38 370.84 480.13 294.27 347.05 810.99 1045.69 207.00 1168.08
449.81 658.64 117.25 552.34 725.39 0.00 334.71 737.37 317.96 483.84 902.94 208.64 482.15 620.33 305.63 745.02 973.91 471.91 683.64 792.21 608.48 553.90 705.88 805.50 1181.31 708.45 379.45 131.73 119.74 983.40 653.31 700.81 431.50 511.47 865.58 326.71 496.64 410.90 796.52 609.84 748.51 695.73 558.94 504.53 572.22 879.19
637.48 781.15 370.93 745.19 826.76 334.71 0.00 992.01 507.10 289.08 1025.45 378.34 510.48 482.73 475.33 932.69 1185.35 693.23 831.37 958.08 776.10 852.99 875.48 951.84 1216.10 907.03 402.87 280.87 308.88 1227.83 786.15 869.48 605.80 673.83 1035.28 384.28 614.46 607.83 976.20 748.93 891.40 944.18 769.07 520.27 783.58 1090.63
534.27 308.56 621.17 699.38 394.88 737.37 992.01 0.00 841.64 710.81 498.66 910.07 485.09 606.42 962.14 568.45 1073.71 691.04 195.36 59.20 261.93 183.47 960.53 68.13 599.80 974.20 1050.72 819.02 791.01 489.41 213.74 214.26 989.32 391.46 886.54 997.98 381.11 466.85 336.82 345.03 100.61 47.83 778.07 1116.36 270.50 999.79
345.22 666.75 220.47 248.38 828.61 317.96 507.10 841.64 0.00 649.92 779.44 326.24 550.59 714.83 423.23 531.38 718.60 328.81 778.98 888.65 828.01 736.91 412.70 855.51 1207.87 399.93 426.66 226.23 198.22 967.62 701.64 828.93 354.33 556.18 661.87 405.19 498.38 545.40 1003.37 654.55 823.59 831.66 261.97 583.01 791.75 640.18
549.17 726.48 517.52 539.60 537.68 483.84 289.08 710.81 649.92 0.00 933.86 662.51 527.64 193.65 647.80 844.38 1110.34 620.03 601.47 684.08 565.83 596.48 813.68 736.28 1220.93 814.42 536.16 479.71 451.70 1095.90 497.07 618.35 773.93 614.75 953.09 588.90 512.44 563.56 753.87 710.11 619.02 671.80 631.22 548.89 529.57 1027.31
574.58 244.30 832.09 662.67 737.80 902.94 1025.45 498.66 779.44 933.86 0.00 1025.79 514.97 887.08 1122.78 395.04 1009.45 620.33 547.54 439.46 611.74 397.47 843.61 484.73 609.57 764.09 1097.88 928.31 900.30 369.32 496.88 566.44 1007.83 391.47 822.28 1045.14 421.42 507.16 693.15 364.42 452.79 505.57 661.15 1190.48 575.48 935.53
616.81 800.73 288.90 574.62 885.51 208.64 378.34 910.07 326.24 662.51 1025.79 0.00 530.06 641.05 96.99 857.62 864.91 595.16 840.67 929.54 765.51 762.54 630.08 961.50 1235.68 611.71 183.88 182.80 210.81 1192.04 861.95 857.84 279.55 693.41 656.94 143.30 604.37 518.63 953.55 768.51 926.83 904.37 565.61 321.12 729.25 770.19
205.37 270.67 422.28 406.60 401.03 482.15 510.48 485.09 550.59 527.64 514.97 530.06 0.00 395.93 627.05 500.58 922.76 420.76 342.16 508.26 393.55 342.51 680.68 441.36 705.62 646.30 713.94 580.41 592.12 717.35 369.42 485.88 660.42 163.35 820.09 673.36 103.98 97.35 581.59 238.45 436.91 437.26 498.22 851.18 357.29 828.04
497.39 666.60 558.35 698.62 344.03 620.33 482.73 606.42 714.83 193.65 887.08 641.05 395.93 0.00 719.53 792.60 1214.78 712.78 447.34 553.81 372.18 513.93 972.70 592.03 1094.41 951.78 729.81 488.60 516.61 1050.82 512.49 424.70 813.53 522.29 1112.11 700.76 465.66 493.28 560.22 620.66 533.50 586.28 790.24 742.54 335.92 1120.06
713.80 897.72 340.97 560.24 854.49 305.63 475.33 962.14 423.23 647.80 1122.78 96.99 627.05 719.53 0.00 893.17 947.74 555.65 937.66 1021.34 862.50 859.53 651.08 1030.27 1332.67 665.84 111.64 230.93 235.21 1289.03 922.34 954.83 376.54 786.39 753.93 137.52 701.36 615.62 1050.54 865.50 990.18 940.89 468.62 311.74 826.24 867.18
295.21 290.41 751.85 374.18 771.86 745.02 932.69 568.45 531.38 844.38 395.04 857.62 500.58 792.60 893.17 0.00 662.22 337.52 572.34 602.16 627.05 584.55 481.53 530.84 790.95 609.48 897.46 749.88 729.60 550.70 621.65 685.40 750.26 437.58 454.25 936.57 448.37 501.39 812.11 413.59 571.75 616.28 424.55 1047.04 663.31 567.50
717.39 765.15 938.87 570.74 1262.80 973.91 1185.35 1073.71 718.60 1110.34 1009.45 864.91 922.76 1214.78 947.74 662.22 0.00 502.00 1063.28 1076.90 1151.28 1009.57 394.08 1005.58 1149.71 334.97 965.46 904.48 876.47 1037.31 1049.29 1160.14 639.22 835.98 207.97 912.72 870.55 883.92 1286.85 888.33 1046.49 1099.27 479.12 1090.54 1166.55 94.72
215.39 498.80 487.57 80.43 799.80 471.91 693.23 691.04 328.81 620.03 620.33 595.16 420.76 712.78 555.65 337.52 502.00 0.00 649.15 666.22 649.28 507.57 269.49 711.68 985.84 339.85 603.71 412.36 440.37 745.59 571.81 742.66 416.49 470.86 481.20 647.34 368.55 410.42 849.38 566.22 693.76 701.83 87.03 753.29 685.54 407.28
433.76 323.62 685.77 634.99 199.52 683.64 831.37 195.36 778.98 601.47 547.54 840.67 342.16 447.34 937.66 572.34 1063.28 649.15 0.00 205.55 90.93 203.81 901.66 212.01 746.15 909.81 1024.12 815.37 803.38 684.77 104.40 161.36 888.81 317.71 855.31 971.38 280.60 366.34 291.03 318.79 94.75 147.53 719.20 1116.72 111.42 968.56
543.43 311.75 680.37 702.57 405.07 792.21 958.08 59.20 888.65 684.08 439.46 929.54 508.26 553.81 1021.34 602.16 1076.90 666.22 205.55 0.00 272.12 242.67 935.71 71.32 540.60 959.86 1090.61 878.22 850.21 548.61 187.01 224.45 998.48 384.20 889.73 1037.87 428.45 410.91 351.16 285.83 110.80 96.48 753.25 1175.56 267.19 1002.98
524.69 414.55 684.40 712.10 170.74 608.48 776.10 261.93 828.01 565.83 611.74 765.51 393.55 372.18 862.50 627.05 1151.28 649.28 90.93 272.12 0.00 214.27 918.77 233.75 812.72 984.83 949.39 740.21 728.22 751.16 180.30 93.38 979.74 393.61 946.24 908.81 371.53 457.27 200.10 316.61 161.32 214.10 736.31 1086.63 36.26 1056.56
391.69 294.14 605.16 588.00 340.33 553.90 852.99 183.47 736.91 596.48 397.47 762.54 342.51 513.93 859.53 584.55 1009.57 507.57 203.81 242.67 214.27 0.00 777.06 251.60 783.27 847.42 931.81 685.63 673.64 666.53 99.41 272.84 846.74 225.40 872.12 879.07 238.53 303.38 401.14 170.96 209.68 231.30 594.60 1024.41 178.01 914.85
475.31 692.45 588.63 274.08 993.45 705.88 875.48 960.53 412.70 813.68 843.61 630.08 680.68 972.70 651.08 481.53 394.08 269.49 901.66 935.71 918.77 777.06 0.00 905.33 1255.33 127.95 571.38 594.61 610.92 1015.08 831.73 1005.16 350.53 637.40 422.56 518.64 628.47 604.07 1118.87 735.77 953.68 961.75 182.46 696.46 955.03 368.20
510.29 240.43 689.30 631.25 404.49 805.50 951.84 68.13 855.51 736.28 484.73 961.50 441.36 592.03 1030.27 530.84 1005.58 711.68 212.01 71.32 233.75 251.60 905.33 0.00 611.92 906.07 1094.01 887.15 859.14 528.19 239.21 230.91 965.34 387.60 818.41 1041.27 357.13 442.87 357.62 320.24 117.26 115.96 722.87 1184.49 256.11 931.66
862.65 664.41 1068.38 1039.35 945.67 1181.31 1216.10 599.80 1207.87 1220.93 609.57 1235.68 705.62 1094.41 1332.67 790.95 1149.71 985.84 746.15 540.60 812.72 783.27 1255.33 611.92 0.00 1236.35 1268.88 1141.25 1169.26 240.25 723.86 765.05 1317.70 669.84 941.74 1216.14 772.15 802.97 891.76 768.21 651.40 637.08 1072.87 1393.96 807.79 1054.99
476.05 693.19 620.40 274.82 994.19 708.45 907.03 974.20 399.93 814.42 764.09 611.71 646.30 951.78 665.84 609.48 334.97 339.85 909.81 959.86 984.83 847.42 127.95 906.07 1236.35 0.00 699.33 626.16 598.15 1073.92 832.47 1005.90 332.16 716.68 294.61 646.59 629.21 548.95 1074.46 808.76 954.42 962.49 310.41 824.41 1003.59 240.25
724.51 853.58 429.55 523.28 966.13 379.45 402.87 1050.72 426.66 536.16 1097.88 183.88 713.94 729.81 111.64 897.46 965.46 603.71 1024.12 1090.61 949.39 931.81 571.38 1094.01 1268.88 699.33 0.00 287.72 259.71 1322.38 919.72 1041.72 452.61 706.41 840.82 52.74 768.26 682.52 1137.43 804.78 1014.68 1052.53 580.26 200.10 913.13 939.58
571.45 702.63 197.85 474.61 702.71 131.73 280.87 819.02 226.23 479.71 928.31 182.80 580.41 488.60 230.93 749.88 904.48 412.36 815.37 878.22 740.21 685.63 594.61 887.15 1141.25 626.16 287.72 0.00 28.01 1115.13 768.77 832.54 324.93 555.46 839.74 234.98 567.19 483.06 928.25 653.83 782.98 827.46 488.20 412.80 703.95 809.76
543.44 687.77 169.84 446.60 730.72 119.74 308.88 791.01 198.22 451.70 900.30 210.81 592.12 516.61 235.21 729.60 876.47 440.37 803.38 850.21 728.22 673.64 610.92 859.14 1169.26 598.15 259.71 28.01 0.00 1103.14 751.21 820.55 352.94 583.47 860.09 206.97 580.51 494.77 916.26 662.18 754.97 807.75 460.19 384.79 691.96 781.75
622.40 488.30 1082.67 799.10 866.57 983.40 1227.83 489.41 967.62 1095.90 369.32 1192.04 717.35 1050.82 1289.03 550.70 1037.31 745.59 684.77 548.61 751.16 666.53 1015.08 528.19 240.25 1073.92 1322.38 1115.13 1103.14 0.00 598.83 703.67 1077.45 635.47 887.63 1289.14 672.00 757.74 826.23 611.48 590.02 537.24 832.62 1399.09 714.90 942.59
356.42 331.24 581.37 557.65 303.92 653.31 786.15 213.74 701.64 497.07 496.88 861.95 369.42 512.49 922.34 621.65 1049.29 571.81 104.40 187.01 180.30 99.41 831.73 239.21 723.86 832.47 919.72 768.77 751.21 598.83 0.00 173.43 811.47 213.31 909.22 866.98 315.62 401.36 301.73 261.15 121.95 174.73 649.27 1012.32 176.57 954.57
529.85 394.99 754.80 731.08 264.12 700.81 869.48 214.26 828.93 618.35 566.44 857.84 485.88 424.70 954.83 685.40 1160.14 742.66 161.36 224.45 93.38 272.84 1005.16 230.91 765.05 1005.90 1041.72 832.54 820.55 703.67 173.43 0.00 984.90 383.33 972.97 1001.14 441.96 527.70 239.29 364.22 113.65 166.43 822.70 1167.24 128.59 1086.22
455.05 822.25 522.78 438.30 824.48 431.50 605.80 989.32 354.33 773.93 1007.83 279.55 660.42 813.53 376.54 750.26 639.22 416.49 888.81 998.48 979.74 846.74 350.53 965.34 1317.70 332.16 452.61 324.93 352.94 1077.45 811.47 984.90 0.00 710.52 617.52 422.85 608.21 661.23 1113.20 805.88 933.42 941.49 346.68 600.67 988.04 572.41
255.47 147.17 512.98 441.86 447.68 511.47 673.83 391.46 556.18 614.75 391.47 693.41 163.35 522.29 786.39 437.58 835.98 470.86 317.71 384.20 393.61 225.40 637.40 387.60 669.84 716.68 706.41 555.46 583.47 635.47 213.31 383.33 710.52 0.00 725.15 653.67 102.31 188.05 503.80 98.37 335.26 388.04 533.48 799.01 362.51 741.26
614.72 577.98 858.56 413.49 1054.83 865.58 1035.28 886.54 661.87 953.09 822.28 656.94 820.09 1112.11 753.93 454.25 207.97 481.20 855.31 889.73 946.24 872.12 422.56 818.41 941.74 294.61 840.82 839.74 860.09 887.63 909.22 972.97 617.52 725.15 0.00 800.24 767.88 743.48 1099.68 701.16 859.32 912.10 505.11 978.06 966.73 113.25
750.41 800.84 376.81 576.02 937.69 326.71 384.28 997.98 405.19 588.90 1045.14 143.30 673.36 700.76 137.52 936.57 912.72 647.34 971.38 1037.87 908.81 879.07 518.64 1041.27 1216.14 646.59 52.74 234.98 206.97 1289.14 866.98 1001.14 422.85 653.67 800.24 0.00 715.52 629.78 1096.85 752.04 961.94 1014.72 606.14 177.82 872.55 886.84
153.16 214.04 410.67 354.39 478.44 496.64 614.46 381.11 498.38 512.44 421.42 604.37 103.98 465.66 701.36 448.37 870.55 368.55 280.60 428.45 371.53 238.53 628.47 357.13 772.15 629.21 768.26 567.19 580.51 672.00 315.62 441.96 608.21 102.31 767.88 715.52 0.00 85.74 571.63 197.67 373.84 333.28 446.01 893.34 392.02 775.83
206.18 299.78 324.93 329.99 498.38 410.90 607.83 466.85 545.40 563.56 507.16 518.63 97.35 493.28 615.62 501.39 883.92 410.42 366.34 410.91 457.27 303.38 604.07 442.87 802.97 548.95 682.52 483.06 494.77 757.74 401.36 527.70 661.23 188.05 743.48 629.78 85.74 0.00 525.51 259.81 414.65 419.02 421.61 807.60 454.64 789.20
658.15 521.70 850.44 855.50 370.84 796.52 976.20 336.82 1003.37 753.87 693.15 953.55 581.59 560.22 1050.54 812.11 1286.85 849.38 291.03 351.16 200.10 401.14 1118.87 357.62 891.76 1074.46 1137.43 928.25 916.26 826.23 301.73 239.29 1113.20 503.80 1099.68 1096.85 571.63 525.51 0.00 516.71 240.36 293.14 936.41 1026.19 224.30 1212.93
350.83 123.18 584.74 540.23 480.13 609.84 748.93 345.03 654.55 710.11 364.42 768.51 238.45 620.66 865.50 413.59 888.33 566.22 318.79 285.83 316.61 170.96 735.77 320.24 768.21 808.76 804.78 653.83 662.18 611.48 261.15 364.22 805.88 98.37 701.16 752.04 197.67 259.81 516.71 0.00 376.27 382.31 631.85 897.38 348.97 814.41
478.37 281.34 703.32 679.60 294.27 748.51 891.40 100.61 823.59 619.02 452.79 926.83 436.91 533.50 990.18 571.75 1046.49 693.76 94.75 110.80 161.32 209.68 953.68 117.26 651.40 954.42 1014.68 782.98 754.97 590.02 121.95 113.65 933.42 335.26 859.32 961.94 373.84 414.65 240.36 376.27 0.00 52.78 771.22 1134.27 197.58 972.57
486.44 334.12 669.00 687.67 347.05 695.73 944.18 47.83 831.66 671.80 505.57 904.37 437.26 586.28 940.89 616.28 1099.27 701.83 147.53 96.48 214.10 231.30 961.75 115.96 637.08 962.49 1052.53 827.46 807.75 537.24 174.73 166.43 941.49 388.04 912.10 1014.72 333.28 419.02 293.14 382.31 52.78 0.00 779.29 1164.19 250.36 1025.35
292.85 509.99 467.25 91.62 810.99 558.94 769.07 778.07 261.97 631.22 661.15 565.61 498.22 790.24 468.62 424.55 479.12 87.03 719.20 753.25 736.31 594.60 182.46 722.87 1072.87 310.41 580.26 488.20 460.19 832.62 649.27 822.70 346.68 533.48 505.11 606.14 446.01 421.61 936.41 631.85 771.22 779.29 0.00 764.48 772.57 494.31
795.59 946.18 554.63 672.86 1045.69 504.53 520.27 1116.36 583.01 548.89 1190.48 321.12 851.18 742.54 311.74 1047.04 1090.54 753.29 1116.72 1175.56 1086.63 1024.41 696.46 1184.49 1393.96 824.41 200.10 412.80 384.79 1399.09 1012.32 1167.24 600.67 799.01 978.06 177.82 893.34 807.60 1026.19 897.38 1134.27 1164.19 764.48 0.00 1050.37 1064.66
532.99 435.04 689.47 734.22 207.00 572.22 783.58 270.50 791.75 529.57 575.48 729.25 357.29 335.92 826.24 663.31 1166.55 685.54 111.42 267.19 36.26 178.01 955.03 256.11 807.79 1003.59 913.13 703.95 691.96 714.90 176.57 128.59 988.04 362.51 966.73 872.55 392.02 454.64 224.30 348.97 197.58 250.36 772.57 1050.37 0.00 1079.98
622.67 691.23 844.15 487.71 1168.08 879.19 1090.63 999.79 640.18 1027.31 935.53 770.19 828.04 1120.06 867.18 567.50 94.72 407.28 968.56 1002.98 1056.56 914.85 368.20 931.66 1054.99 240.25 939.58 809.76 781.75 942.59 954.57 1086.22 572.41 741.26 113.25 886.84 775.83 789.20 1212.93 814.41 972.57 1025.35 494.31 1064.66 1079.98 0.00
DEMAND_SECTION
1 0
2 1
3 1
4 1
5 1
6 1
7 1
8 1
9 1
10 1
11 1
12 1
13 1
14 1
15 1
16 1
17 1
18 1
19 1
20 1
21 1
22 1
23 1
24 1
25 1
26 1
27 1
28 1
29 1
30 1
31 1
32 1
33 1
34 1
35 1
36 1
37 1
38 1
39 1
40 1
41 1
42 1
43 1
44 1
45 1
46 1
DEPOT_SECTION
1
-1
EOF
