NAME: LDG40_3361_fog_40_0242
COMMENT: CVRP with travel times.  rootPos=3,custPos=3,demandType=6,avgRouteSizeIndex=1,weather=fog,lambda_cluster=1,lambda_random=4, T1=300,T2=700,beta=1, alpha(i,j) ~ U(0.8,1.2)
TYPE: CVRP
DIMENSION: 41
EDGE_WEIGHT_TYPE: EXPLICIT
EDGE_WEIGHT_FORMAT: FULL_MATRIX
CAPACITY: 262
NODE_COORD_SECTION
1 0 0
2 368 27
3 763 44
4 410 723
5 278 546
6 76 109
7 296 182
8 308 57
9 119 656
10 104 731
11 889 679
12 304 527
13 349 592
14 968 945
15 829 605
16 731 431
17 170 572
18 913 510
19 801 656
20 933 194
21 484 283
22 8 6
23 822 805
24 45 26
25 100 636
26 856 973
27 210 6
28 731 683
29 773 860
30 957 724
31 6 666
32 50 669
33 343 591
34 100 426
35 86 258
36 322 583
37 31 41
38 266 743
39 457 330
40 334 602
41 896 981
EDGE_WEIGHT_SECTION
0.00 461.50 906.66 1017.95 858.85 153.06 554.47 403.06 815.95 917.86 1401.72 860.13 793.48 1671.28 1285.43 960.07 802.24 1187.94 1345.39 1155.08 720.60 30.35 1361.74 86.31 811.03 1528.83 314.00 1256.80 1347.53 1463.62 769.74 838.71 780.60 593.99 387.64 815.90 98.76 994.68 680.87 802.74 1575.57
461.50 0.00 857.30 845.01 643.50 348.98 329.62 98.98 814.25 953.63 1185.56 583.00 668.65 1503.11 1068.63 938.44 790.75 1042.09 1140.09 817.54 416.52 491.85 1234.65 461.31 851.05 1446.18 238.39 1132.86 1192.48 1246.22 905.81 836.84 681.53 525.88 566.38 711.57 453.63 857.30 498.88 667.01 1427.69
906.66 857.30 0.00 977.63 937.15 932.07 853.28 758.32 1070.00 1233.36 836.37 900.01 814.36 1153.92 921.26 634.65 1084.40 676.42 938.66 368.74 574.76 876.31 1083.04 891.27 1106.80 1294.23 618.91 979.61 1137.85 942.54 1233.69 1164.72 827.24 1114.56 1146.35 857.28 834.15 1036.82 597.46 844.88 1241.06
1017.95 845.01 977.63 0.00 234.49 976.34 680.05 746.03 326.34 489.70 775.72 294.99 224.47 929.49 678.30 893.73 381.74 665.86 649.72 1158.62 686.87 987.60 626.40 976.31 363.14 807.68 885.44 497.10 525.89 824.74 490.03 421.06 237.35 553.54 833.97 267.39 919.19 219.74 625.96 254.99 761.10
858.85 643.50 937.15 234.49 0.00 741.85 554.68 742.48 258.98 330.63 816.89 60.50 122.79 1030.45 672.08 825.16 147.25 831.10 661.58 979.96 452.38 855.49 693.12 772.54 283.55 900.32 875.09 731.59 740.35 903.05 387.96 353.70 111.98 319.05 609.17 102.39 793.82 289.57 427.24 134.12 862.06
153.06 348.98 932.07 976.34 741.85 0.00 439.38 250.00 662.89 826.25 1316.02 802.35 852.69 1519.31 1295.67 874.37 666.44 1102.24 1259.69 1002.02 567.54 148.40 1294.98 182.41 699.69 1375.77 378.34 1274.70 1194.47 1377.92 826.58 757.61 839.81 559.54 234.58 844.24 188.96 848.81 589.65 861.95 1428.94
554.47 329.62 853.28 680.05 554.68 439.38 0.00 230.64 711.22 711.40 1050.47 530.26 455.58 1368.02 1030.12 608.82 701.93 836.69 994.14 967.90 351.91 554.64 1023.84 471.69 748.02 1233.11 370.05 1001.61 1073.14 1112.37 808.61 805.94 442.70 463.75 445.45 477.06 528.81 656.78 356.16 464.84 1236.73
403.06 98.98 758.32 746.03 742.48 250.00 230.64 0.00 905.19 942.04 1110.12 681.98 686.22 1427.67 1045.91 839.46 844.47 943.11 1041.11 916.52 317.54 398.40 1135.67 411.77 941.99 1381.88 139.41 1033.88 1093.50 1147.24 867.17 935.82 673.34 616.82 467.40 707.70 354.65 887.42 399.90 695.48 1328.71
815.95 814.25 1070.00 326.34 258.98 662.89 711.22 905.19 0.00 163.36 977.53 236.64 255.64 1176.71 868.25 820.50 142.59 987.64 809.59 1166.24 628.52 811.29 849.66 845.30 36.80 1033.17 844.41 823.44 852.23 1051.06 163.69 94.72 268.52 288.37 546.81 298.56 851.57 300.50 580.57 286.16 1058.23
917.86 953.63 1233.36 489.70 330.63 826.25 711.40 942.04 163.36 0.00 1131.55 391.13 419.00 1115.92 1002.71 940.77 262.86 1151.00 972.95 1275.31 783.01 948.21 975.18 978.79 126.56 1115.85 875.88 986.80 983.17 1205.66 148.12 116.79 431.88 451.73 636.57 433.02 977.87 309.32 743.93 449.52 1062.68
1401.72 1185.56 836.37 775.72 816.89 1316.02 1050.47 1110.12 977.53 1131.55 0.00 769.02 721.89 317.55 144.81 441.65 948.77 389.65 167.94 730.16 792.58 1371.37 246.67 1454.32 1014.33 457.86 1249.53 295.16 301.48 106.17 1141.22 1072.25 734.77 1032.37 1333.94 714.50 1399.26 912.53 785.05 731.96 404.69
860.13 583.00 900.01 294.99 60.50 802.35 530.26 681.98 236.64 391.13 769.02 0.00 85.65 1006.72 677.49 780.86 207.75 789.26 601.08 1040.46 391.88 829.78 679.67 818.49 273.44 863.18 821.39 696.18 703.21 842.55 400.33 331.36 98.53 379.55 618.45 128.57 761.37 274.30 366.74 84.01 888.24
793.48 668.65 814.36 224.47 122.79 852.69 455.58 686.22 255.64 419.00 721.89 85.65 0.00 921.07 612.61 720.87 270.04 732.00 553.95 1062.34 466.95 763.13 594.02 751.84 292.44 777.53 811.22 642.69 617.56 795.42 419.33 350.36 12.88 441.84 618.11 42.92 694.72 222.46 401.49 30.52 802.59
1671.28 1503.11 1153.92 929.49 1030.45 1519.31 1368.02 1427.67 1176.71 1115.92 317.55 1006.72 921.07 0.00 462.36 759.20 1162.33 560.11 485.49 946.73 1110.13 1640.93 429.88 1629.64 1213.51 143.54 1502.83 547.94 403.60 322.74 1264.04 1232.71 933.95 1260.43 1284.73 928.06 1572.52 1095.74 1102.60 951.59 168.39
1285.43 1068.63 921.26 678.30 672.08 1295.67 1030.12 1045.91 868.25 1002.71 144.81 677.49 612.61 462.36 0.00 421.30 803.96 244.84 76.41 737.60 728.37 1315.78 291.22 1311.57 905.05 406.22 1136.09 181.20 370.22 250.98 1031.94 962.97 604.99 983.58 1210.22 569.69 1254.45 808.85 786.10 616.91 459.39
960.07 938.44 634.65 893.73 825.16 874.37 608.82 839.46 820.50 940.77 441.65 780.86 720.87 759.20 421.30 0.00 677.91 227.87 385.32 359.08 527.09 929.72 657.06 1012.67 814.21 760.81 978.87 537.94 679.13 503.55 949.21 905.33 733.75 856.73 970.62 763.79 998.13 718.23 444.73 751.39 813.98
802.24 790.75 1084.40 381.74 147.25 666.44 701.93 844.47 142.59 262.86 948.77 207.75 270.04 1162.33 803.96 677.91 0.00 905.78 788.07 1023.65 574.26 798.88 840.37 715.93 136.30 1047.11 830.77 875.03 887.60 1029.54 271.30 227.42 259.23 293.25 461.92 234.27 773.05 298.85 491.90 262.86 993.94
1187.94 1042.09 676.42 665.86 831.10 1102.24 836.69 943.11 987.64 1151.00 389.65 789.26 732.00 560.11 244.84 227.87 905.78 0.00 262.24 492.76 625.57 1157.59 450.83 1240.54 1024.44 637.73 1082.52 414.86 507.28 420.56 1151.33 1082.36 719.12 1084.60 1056.31 752.47 1226.00 885.60 600.28 705.25 690.90
1345.39 1140.09 938.66 649.72 661.58 1259.69 994.14 1041.11 809.59 972.95 167.94 601.08 553.95 485.49 76.41 385.32 788.07 262.24 0.00 744.40 723.57 1315.04 271.74 1305.79 846.39 375.49 1107.51 152.62 293.81 241.47 973.28 904.31 566.83 980.63 1172.06 596.87 1248.67 776.41 709.69 584.47 428.66
1155.08 817.54 368.74 1158.62 979.96 1002.02 967.90 916.52 1166.24 1275.31 730.16 1040.46 1062.34 946.73 737.60 359.08 1023.65 492.76 744.40 0.00 886.17 1150.42 854.47 1184.43 1148.75 1090.27 987.65 897.02 954.98 623.99 1209.99 1251.07 1053.96 1115.54 1236.60 1079.04 1190.98 1077.31 803.81 1031.82 1115.12
720.60 416.52 574.76 686.87 452.38 567.54 351.91 317.54 628.52 783.01 792.58 391.88 466.95 1110.13 728.37 527.09 574.26 625.57 723.57 886.17 0.00 715.94 818.13 729.31 665.32 1099.06 456.95 716.34 847.29 898.75 792.21 723.24 458.57 598.32 593.95 440.93 672.19 628.37 82.36 436.43 1082.50
30.35 491.85 876.31 987.60 855.49 148.40 554.64 398.40 811.29 948.21 1371.37 829.78 763.13 1640.93 1315.78 929.72 798.88 1157.59 1315.04 1150.42 715.94 0.00 1331.39 82.95 841.38 1524.17 283.65 1238.54 1342.87 1433.27 800.09 869.06 750.25 563.64 382.98 785.55 68.41 964.33 650.52 772.39 1545.22
1361.74 1234.65 1083.04 626.40 693.12 1294.98 1023.84 1135.67 849.66 975.18 246.67 679.67 594.02 429.88 291.22 657.06 840.37 450.83 271.74 854.47 818.13 1331.39 0.00 1320.10 886.46 286.34 1191.67 296.34 100.51 230.48 1013.35 944.38 581.14 1012.17 1186.37 616.44 1262.98 665.86 865.44 603.28 269.10
86.31 461.31 891.27 976.31 772.54 182.41 471.69 411.77 845.30 978.79 1454.32 818.49 751.84 1629.64 1311.57 1012.67 715.93 1240.54 1305.79 1184.43 729.31 82.95 1320.10 0.00 852.23 1529.37 272.36 1170.49 1369.40 1498.13 856.05 925.02 738.96 619.38 416.99 774.26 57.12 953.04 733.47 761.10 1533.93
811.03 851.05 1106.80 363.14 283.55 699.69 748.02 941.99 36.80 126.56 1014.33 273.44 292.44 1213.51 905.05 814.21 136.30 1024.44 846.39 1148.75 665.32 841.38 886.46 852.23 0.00 1069.97 862.76 860.24 889.03 1087.86 135.00 131.52 305.32 325.17 510.01 335.36 851.31 263.70 617.37 322.96 1095.03
1528.83 1446.18 1294.23 807.68 900.32 1375.77 1233.11 1381.88 1033.17 1115.85 457.86 863.18 777.53 143.54 406.22 760.81 1047.11 637.73 375.49 1090.27 1099.06 1524.17 286.34 1529.37 1069.97 0.00 1463.51 508.62 288.38 466.28 1196.86 1127.89 790.41 1145.21 1141.19 812.84 1472.25 952.20 1053.31 808.05 53.17
314.00 238.39 618.91 885.44 875.09 378.34 370.05 139.41 844.41 875.88 1249.53 821.39 811.22 1502.83 1136.09 978.87 830.77 1082.52 1107.51 987.65 456.95 283.65 1191.67 272.36 862.76 1463.51 0.00 954.89 1175.13 1282.53 727.76 796.73 802.84 556.04 539.42 807.94 215.24 972.64 539.31 780.70 1410.34
1256.80 1132.86 979.61 497.10 731.59 1274.70 1001.61 1033.88 823.44 986.80 295.16 696.18 642.69 547.94 181.20 537.94 875.03 414.86 152.62 897.02 716.34 1238.54 296.34 1170.49 860.24 508.62 954.89 0.00 220.24 327.64 987.13 918.16 634.31 1029.02 1239.54 659.39 1170.13 716.84 798.70 612.17 455.45
1347.53 1192.48 1137.85 525.89 740.35 1194.47 1073.14 1093.50 852.23 983.17 301.48 703.21 617.56 403.60 370.22 679.13 887.60 507.28 293.81 954.98 847.29 1342.87 100.51 1369.40 889.03 288.38 1175.13 220.24 0.00 330.99 935.35 866.38 630.44 1059.40 1235.67 660.48 1312.28 745.63 764.93 648.08 235.21
1463.62 1246.22 942.54 824.74 903.05 1377.92 1112.37 1147.24 1051.06 1205.66 106.17 842.55 795.42 322.74 250.98 503.55 1029.54 420.56 241.47 623.99 898.75 1433.27 230.48 1498.13 1087.86 466.28 1282.53 327.64 330.99 0.00 1214.75 1145.78 808.30 1138.54 1250.81 820.67 1490.14 896.34 891.22 825.94 491.13
769.74 905.81 1233.69 490.03 387.96 826.58 808.61 867.17 163.69 148.12 1141.22 400.33 419.33 1264.04 1031.94 949.21 271.30 1151.33 973.28 1209.99 792.21 800.09 1013.35 856.05 135.00 1196.86 727.76 987.13 935.35 1214.75 0.00 68.97 432.21 452.06 625.79 462.25 868.50 398.70 744.26 449.85 1170.56
838.71 836.84 1164.72 421.06 353.70 757.61 805.94 935.82 94.72 116.79 1072.25 331.36 350.36 1232.71 962.97 905.33 227.42 1082.36 904.31 1251.07 723.24 869.06 944.38 925.02 131.52 1127.89 796.73 918.16 866.38 1145.78 68.97 0.00 363.24 383.09 556.82 393.28 937.47 395.22 675.29 380.88 1101.59
780.60 681.53 827.24 237.35 111.98 839.81 442.70 673.34 268.52 431.88 734.77 98.53 12.88 933.95 604.99 733.75 259.23 719.12 566.83 1053.96 458.57 750.25 581.14 738.96 305.32 790.41 802.84 634.31 630.44 808.30 432.21 363.24 0.00 431.03 605.23 35.30 681.84 214.08 393.87 22.14 794.97
593.99 525.88 1114.56 553.54 319.05 559.54 463.75 616.82 288.37 451.73 1032.37 379.55 441.84 1260.43 983.58 856.73 293.25 1084.60 980.63 1115.54 598.32 563.64 1012.17 619.38 325.17 1145.21 556.04 1029.02 1059.40 1138.54 452.06 383.09 431.03 0.00 324.96 413.89 632.05 588.87 680.68 416.85 1092.04
387.64 566.38 1146.35 833.97 609.17 234.58 445.45 467.40 546.81 636.57 1333.94 618.45 618.11 1284.73 1210.22 970.62 461.92 1056.31 1172.06 1236.60 593.95 382.98 1186.37 416.99 510.01 1141.19 539.42 1239.54 1235.67 1250.81 625.79 556.82 605.23 324.96 0.00 640.53 423.54 614.23 548.89 627.37 1194.36
815.90 711.57 857.28 267.39 102.39 844.24 477.06 707.70 298.56 433.02 714.50 128.57 42.92 928.06 569.69 763.79 234.27 752.47 596.87 1079.04 440.93 785.55 616.44 774.26 335.36 812.84 807.94 659.39 660.48 820.67 462.25 393.28 35.30 413.89 640.53 0.00 717.14 239.16 358.57 47.22 759.67
98.76 453.63 834.15 919.19 793.82 188.96 528.81 354.65 851.57 977.87 1399.26 761.37 694.72 1572.52 1254.45 998.13 773.05 1226.00 1248.67 1190.98 672.19 68.41 1262.98 57.12 851.31 1472.25 215.24 1170.13 1312.28 1490.14 868.50 937.47 681.84 632.05 423.54 717.14 0.00 895.92 693.24 703.98 1476.81
994.68 857.30 1036.82 219.74 289.57 848.81 656.78 887.42 300.50 309.32 912.53 274.30 222.46 1095.74 808.85 718.23 298.85 885.60 776.41 1077.31 628.37 964.33 665.86 953.04 263.70 952.20 972.64 716.84 745.63 896.34 398.70 395.22 214.08 588.87 614.23 239.16 895.92 0.00 597.73 191.94 934.96
680.87 498.88 597.46 625.96 427.24 589.65 356.16 399.90 580.57 743.93 785.05 366.74 401.49 1102.60 786.10 444.73 491.90 600.28 709.69 803.81 82.36 650.52 865.44 733.47 617.37 1053.31 539.31 798.70 764.93 891.22 744.26 675.29 393.87 680.68 548.89 358.57 693.24 597.73 0.00 405.79 1000.14
802.74 667.01 844.88 254.99 134.12 861.95 464.84 695.48 286.16 449.52 731.96 84.01 30.52 951.59 616.91 751.39 262.86 705.25 584.47 1031.82 436.43 772.39 603.28 761.10 322.96 808.05 780.70 612.17 648.08 825.94 449.85 380.88 22.14 416.85 627.37 47.22 703.98 191.94 405.79 0.00 806.89
1575.57 1427.69 1241.06 761.10 862.06 1428.94 1236.73 1328.71 1058.23 1062.68 404.69 888.24 802.59 168.39 459.39 813.98 993.94 690.90 428.66 1115.12 1082.50 1545.22 269.10 1533.93 1095.03 53.17 1410.34 455.45 235.21 491.13 1170.56 1101.59 794.97 1092.04 1194.36 759.67 1476.81 934.96 1000.14 806.89 0.00
DEMAND_SECTION
1 0
2 63
3 3
4 43
5 32
6 87
7 100
8 56
9 36
10 49
11 66
12 34
13 41
14 77
15 83
16 30
17 48
18 89
19 99
20 41
21 61
22 53
23 58
24 85
25 8
26 64
27 63
28 52
29 83
30 52
31 20
32 16
33 9
34 81
35 62
36 48
37 76
38 22
39 53
40 36
41 79
DEPOT_SECTION
1
-1
EOF
