NAME: LDG40_1244_rain_40_0166
COMMENT: CVRP with travel times.  rootPos=1,custPos=2,demandType=4,avgRouteSizeIndex=4,weather=rain,lambda_cluster=1,lambda_random=4, T1=300,T2=700,beta=1, alpha(i,j) ~ U(0.8,1.2)
TYPE: CVRP
DIMENSION: 41
EDGE_WEIGHT_TYPE: EXPLICIT
EDGE_WEIGHT_FORMAT: FULL_MATRIX
CAPACITY: 786
NODE_COORD_SECTION
1 722 33
2 198 851
3 958 520
4 218 793
5 2 934
6 919 565
7 310 919
8 950 562
9 881 699
10 960 785
11 841 687
12 283 887
13 55 805
14 334 814
15 342 876
16 621 755
17 144 981
18 873 291
19 768 605
20 15 924
21 790 643
22 1000 721
23 270 946
24 8 819
25 904 492
26 776 781
27 952 632
28 157 816
29 68 823
30 63 866
31 950 563
32 101 846
33 840 676
34 75 872
35 921 518
36 26 850
37 72 932
38 848 703
39 39 839
40 65 879
41 168 699
EDGE_WEIGHT_SECTION
0.00 1204.74 673.19 1115.65 1386.46 651.17 1323.39 617.68 831.45 929.57 789.63 1312.20 1348.33 1306.58 1255.14 1049.04 1357.31 447.81 730.57 1344.74 791.87 808.41 1308.76 1330.74 623.15 907.24 689.52 1237.78 1318.61 1309.91 610.49 1370.46 761.15 1332.06 587.53 1378.21 1396.73 793.23 1359.14 1343.92 1255.27
1204.74 0.00 971.29 89.09 316.81 916.98 205.10 918.17 823.51 915.03 778.11 107.46 169.16 241.55 225.39 524.98 152.57 1100.32 843.45 299.39 834.63 870.63 164.24 222.83 967.53 682.72 853.32 74.01 202.95 192.40 925.36 206.69 749.63 191.89 931.91 203.89 205.09 781.71 206.58 215.42 217.15
673.19 971.29 0.00 920.03 1140.08 105.68 846.22 80.50 272.09 401.49 242.49 898.47 1029.31 764.51 780.54 529.54 1094.11 456.19 271.84 1131.93 266.18 280.33 834.43 1082.98 110.39 394.47 161.44 897.28 1020.75 1037.31 87.69 1016.26 256.30 1015.16 85.66 1076.65 1060.31 273.50 1083.33 1038.69 1025.74
1115.65 89.09 920.03 0.00 270.81 882.09 207.74 839.53 737.61 894.11 692.21 196.55 232.68 220.63 139.49 592.04 241.66 1079.40 810.03 229.09 748.73 902.30 193.11 215.09 881.63 661.80 847.25 122.13 202.96 194.26 846.72 254.81 663.73 216.41 846.01 262.56 281.08 695.81 243.49 228.27 139.62
1386.46 316.81 1140.08 270.81 0.00 1103.59 424.45 1096.78 1008.42 1085.65 963.02 332.17 189.72 412.17 410.30 749.69 176.56 1237.06 1035.34 51.13 974.04 1095.34 354.23 179.24 1129.17 853.34 1072.91 242.80 155.93 147.07 1103.97 193.01 934.54 124.92 1116.82 168.57 128.35 966.62 143.27 148.45 344.33
651.17 916.98 105.68 882.09 1103.59 0.00 793.61 65.80 232.06 327.73 189.88 809.52 999.05 729.96 742.60 490.66 1041.50 441.49 275.71 1072.54 270.68 256.53 819.73 1032.01 99.26 288.79 137.64 967.75 965.26 971.39 58.61 910.58 218.36 978.67 63.64 1039.69 1045.61 216.93 1020.62 986.27 1003.72
1323.39 205.10 846.22 207.74 424.45 793.61 0.00 769.21 665.00 816.35 603.73 97.64 288.28 142.87 69.17 515.16 247.89 1001.64 739.71 378.68 678.41 813.82 113.73 341.95 811.31 584.04 758.77 212.27 322.07 352.30 776.40 307.66 593.41 330.15 775.69 364.89 338.96 625.49 381.08 353.68 317.13
617.68 918.17 80.50 839.53 1096.78 65.80 769.21 0.00 213.77 326.27 204.28 817.97 1014.56 757.78 700.04 527.65 1017.10 375.69 244.85 1068.62 258.37 205.11 753.93 1054.62 153.36 354.59 86.22 916.33 980.77 1033.79 7.19 976.38 175.80 1034.21 117.74 1060.04 979.81 207.88 1021.28 1052.07 979.15
831.45 823.51 272.09 737.61 1008.42 232.06 665.00 213.77 0.00 295.57 61.27 716.05 953.28 679.24 598.12 406.82 912.89 419.24 203.37 966.70 142.07 271.36 778.73 952.70 280.75 238.07 216.31 844.92 935.48 931.87 220.96 910.71 73.88 954.02 254.02 982.05 1003.96 87.05 937.47 963.03 877.23
929.57 915.03 401.49 894.11 1085.65 327.73 816.35 326.27 295.57 0.00 262.56 828.32 963.51 673.48 774.43 434.18 1064.24 636.62 322.76 1102.48 297.24 121.16 872.46 1017.18 343.18 232.31 240.05 945.48 929.72 971.97 319.08 974.09 250.19 993.80 345.05 1008.99 1058.79 231.55 992.30 970.27 991.52
789.63 778.11 242.49 692.21 963.02 189.88 603.73 204.28 61.27 262.56 0.00 670.65 892.01 679.39 552.72 350.78 851.62 436.08 142.10 921.30 80.80 210.09 717.46 907.30 246.38 282.30 155.04 799.52 895.17 886.47 211.47 865.31 28.48 908.62 210.76 920.78 942.69 31.01 876.20 917.63 831.83
1312.20 107.46 898.47 196.55 332.17 809.52 97.64 817.97 716.05 828.32 670.65 0.00 276.62 154.84 117.93 417.52 253.28 1013.61 735.99 281.04 727.17 763.17 82.91 330.29 860.07 596.01 825.69 181.47 264.70 270.83 825.16 210.02 642.17 278.11 824.45 311.35 308.79 674.25 314.04 285.71 313.79
1348.33 169.16 1029.31 232.68 189.72 999.05 288.28 1014.56 953.28 963.51 892.01 276.62 0.00 290.03 357.45 652.28 241.63 1148.80 875.81 213.05 888.62 1039.79 260.63 53.67 1098.31 731.20 962.14 132.03 33.79 110.93 1021.75 88.47 881.69 125.79 1062.69 113.06 153.29 879.28 96.37 102.26 223.01
1306.58 241.55 764.51 220.63 412.17 729.96 142.87 757.78 679.24 673.48 679.39 154.84 290.03 0.00 152.75 560.40 390.76 858.77 633.08 429.00 598.59 761.72 198.98 343.70 829.22 441.17 703.97 272.00 256.24 298.49 764.97 300.61 676.99 320.64 793.60 335.51 385.31 700.92 318.82 332.50 360.25
1255.14 225.39 780.54 139.49 410.30 742.60 69.17 700.04 598.12 774.43 552.72 117.93 357.45 152.75 0.00 535.45 317.06 961.39 670.54 368.58 609.24 762.81 182.90 354.58 742.14 593.92 707.76 246.80 342.45 333.75 707.23 312.59 524.24 355.90 706.52 402.05 408.13 556.32 382.98 364.91 279.11
1049.04 524.98 529.54 592.04 749.69 490.66 515.16 527.65 406.82 434.18 350.78 417.52 652.28 560.40 535.45 0.00 670.80 680.13 318.47 698.56 379.77 519.23 500.43 705.95 569.75 201.87 505.82 520.25 682.22 660.28 534.84 627.54 351.85 638.13 534.13 699.62 713.76 319.77 709.51 661.66 557.34
1357.31 152.57 1094.11 241.66 176.56 1041.50 247.89 1017.10 912.89 1064.24 851.62 253.28 241.63 390.76 317.06 670.80 0.00 1249.53 987.60 216.02 926.30 1016.45 316.81 274.59 1059.20 831.93 1005.89 226.58 207.84 171.38 1024.29 153.16 841.30 193.53 1023.58 239.68 121.72 873.38 220.61 205.39 369.72
447.81 1100.32 456.19 1079.40 1237.06 441.49 1001.64 375.69 419.24 636.62 436.08 1013.61 1148.80 858.77 961.39 680.13 1249.53 0.00 361.66 1228.91 422.96 580.80 1057.75 1202.47 426.41 553.57 461.91 1130.77 1115.01 1134.29 382.88 1159.38 437.15 1112.14 462.03 1173.63 1187.77 405.07 1177.59 1135.67 1219.02
730.57 843.45 271.84 810.03 1035.34 275.71 739.71 244.85 203.37 322.76 142.10 735.99 875.81 633.08 670.54 318.47 987.60 361.66 0.00 1017.03 61.30 352.19 798.89 929.48 327.54 191.91 242.37 838.72 889.32 931.57 252.04 933.69 146.30 910.42 328.58 968.59 986.05 173.11 951.90 933.95 872.72
1344.74 299.39 1131.93 229.09 51.13 1072.54 378.68 1068.62 966.70 1102.48 921.30 281.04 213.05 429.00 368.58 698.56 216.02 1228.91 1017.03 0.00 965.89 1044.21 320.18 159.38 1110.72 870.17 1064.76 234.65 207.06 130.51 1075.81 161.96 892.82 116.77 1075.10 133.23 94.30 924.90 149.21 138.23 293.20
791.87 834.63 266.18 748.73 974.04 270.68 678.41 258.37 142.07 297.24 80.80 727.17 888.62 598.59 609.24 379.77 926.30 422.96 61.30 965.89 0.00 290.89 792.14 942.29 302.90 253.21 209.25 856.04 854.83 871.27 251.18 899.20 85.00 849.12 267.28 910.61 924.75 111.81 917.41 872.65 888.35
808.41 870.63 280.33 902.30 1095.34 256.53 813.82 205.11 271.36 121.16 210.09 763.17 1039.79 761.72 762.81 519.23 1016.45 580.80 352.19 1044.21 290.89 0.00 846.08 1093.46 306.01 320.55 118.89 944.64 1017.96 1034.00 197.92 973.19 238.57 1041.28 308.47 1074.52 1071.96 241.10 1077.21 1048.88 1041.92
1308.76 164.24 834.43 193.11 354.23 819.73 113.73 753.93 778.73 872.46 717.46 82.91 260.63 198.98 182.90 500.43 316.81 1057.75 798.89 320.18 792.14 846.08 0.00 314.30 907.29 640.15 840.15 238.25 226.84 303.98 761.12 281.52 707.14 291.88 871.67 306.11 225.88 739.22 267.35 299.24 332.73
1330.74 222.83 1082.98 215.09 179.24 1032.01 341.95 1054.62 952.70 1017.18 907.30 330.29 53.67 343.70 354.58 705.95 274.59 1202.47 929.48 159.38 942.29 1093.46 314.30 0.00 1096.72 784.87 1015.81 185.70 87.46 113.41 1061.81 121.43 878.82 132.30 1061.10 70.81 200.23 910.90 64.18 137.06 233.76
623.15 967.53 110.39 881.63 1129.17 99.26 811.31 153.36 280.75 343.18 246.38 860.07 1098.31 829.22 742.14 569.75 1059.20 426.41 327.54 1110.72 302.90 306.01 907.29 1096.72 0.00 388.05 225.20 988.94 1064.52 1026.40 146.17 1009.84 217.90 1004.25 35.62 1065.74 1079.88 249.98 1075.63 1027.78 975.70
907.24 682.72 394.47 661.80 853.34 288.79 584.04 354.59 238.07 232.31 282.30 596.01 731.20 441.17 593.92 201.87 831.93 553.57 191.91 870.17 253.21 320.55 640.15 784.87 388.05 0.00 347.13 713.17 697.41 739.66 347.40 741.78 280.10 761.81 352.43 776.68 826.48 259.75 759.99 773.67 759.21
689.52 853.32 161.44 847.25 1072.91 137.64 758.77 86.22 216.31 240.05 155.04 825.69 962.14 703.97 707.76 505.82 1005.89 461.91 242.37 1064.76 209.25 118.89 840.15 1015.81 225.20 347.13 0.00 830.11 960.21 970.14 79.03 962.79 183.52 947.99 189.58 1009.48 1023.62 186.05 1019.37 971.52 986.87
1237.78 74.01 897.28 122.13 242.80 967.75 212.27 916.33 844.92 945.48 799.52 181.47 132.03 272.00 246.80 520.25 226.58 1130.77 838.72 234.65 856.04 944.64 238.25 185.70 988.94 713.17 830.11 0.00 165.82 140.03 909.14 132.68 771.04 117.88 953.32 179.37 193.51 803.12 189.26 141.41 261.75
1318.61 202.95 1020.75 202.96 155.93 965.26 322.07 980.77 935.48 929.72 895.17 264.70 33.79 256.24 342.45 682.22 207.84 1115.01 889.32 207.06 854.83 1017.96 226.84 87.46 1064.52 697.41 960.21 165.82 0.00 77.14 987.96 54.68 866.69 93.24 1028.90 79.27 152.15 898.77 62.58 88.08 256.80
1309.91 192.40 1037.31 194.26 147.07 971.39 352.30 1033.79 931.87 971.97 886.47 270.83 110.93 298.49 333.75 660.28 171.38 1134.29 931.57 130.51 871.27 1034.00 303.98 113.41 1026.40 739.66 970.14 140.03 77.14 0.00 1030.00 60.81 857.99 22.15 1035.03 68.30 86.82 890.07 49.23 34.01 247.53
610.49 925.36 87.69 846.72 1103.97 58.61 776.40 7.19 220.96 319.08 211.47 825.16 1021.75 764.97 707.23 534.84 1024.29 382.88 252.04 1075.81 251.18 197.92 761.12 1061.81 146.17 347.40 79.03 909.14 987.96 1030.00 0.00 969.19 182.99 1027.02 110.55 1067.23 987.00 215.07 1028.47 1044.88 986.34
1370.46 206.69 1016.26 254.81 193.01 910.58 307.66 976.38 910.71 974.09 865.31 210.02 88.47 300.61 312.59 627.54 153.16 1159.38 933.69 161.96 899.20 973.19 281.52 121.43 1009.84 741.78 962.79 132.68 54.68 60.81 969.19 0.00 836.83 68.09 974.22 129.11 143.72 868.91 110.04 75.69 238.30
761.15 749.63 256.30 663.73 934.54 218.36 593.41 175.80 73.88 250.19 28.48 642.17 881.69 676.99 524.24 351.85 841.30 437.15 146.30 892.82 85.00 238.57 707.14 878.82 217.90 280.10 183.52 771.04 866.69 857.99 182.99 836.83 0.00 880.14 182.28 926.29 932.37 32.08 904.68 889.15 803.35
1332.06 191.89 1015.16 216.41 124.92 978.67 330.15 1034.21 954.02 993.80 908.62 278.11 125.79 320.64 355.90 638.13 193.53 1112.14 910.42 116.77 849.12 1041.28 291.88 132.30 1004.25 761.81 947.99 117.88 93.24 22.15 1027.02 68.09 880.14 0.00 1039.87 61.49 75.63 910.62 71.38 23.53 252.84
587.53 931.91 85.66 846.01 1116.82 63.64 775.69 117.74 254.02 345.05 210.76 824.45 1062.69 793.60 706.52 534.13 1023.58 462.03 328.58 1075.10 267.28 308.47 871.67 1061.10 35.62 352.43 189.58 953.32 1028.90 1035.03 110.55 974.22 182.28 1039.87 0.00 1096.42 1097.55 214.36 1051.84 1049.91 940.08
1378.21 203.89 1076.65 262.56 168.57 1039.69 364.89 1060.04 982.05 1008.99 920.78 311.35 113.06 335.51 402.05 699.62 239.68 1173.63 968.59 133.23 910.61 1074.52 306.11 70.81 1065.74 776.68 1009.48 179.37 79.27 68.30 1067.23 129.11 926.29 61.49 1096.42 0.00 137.12 951.79 44.58 73.90 283.90
1396.73 205.09 1060.31 281.08 128.35 1045.61 338.96 979.81 1003.96 1058.79 942.69 308.79 153.29 385.31 408.13 713.76 121.72 1187.77 986.05 94.30 924.75 1071.96 225.88 200.23 1079.88 826.48 1023.62 193.51 152.15 86.82 987.00 143.72 932.37 75.63 1097.55 137.12 0.00 922.90 136.05 91.69 328.47
793.23 781.71 273.50 695.81 966.62 216.93 625.49 207.88 87.05 231.55 31.01 674.25 879.28 700.92 556.32 319.77 873.38 405.07 173.11 924.90 111.81 241.10 739.22 910.90 249.98 259.75 186.05 803.12 898.77 890.07 215.07 868.91 32.08 910.62 214.36 951.79 922.90 0.00 907.21 921.23 835.43
1359.14 206.58 1083.33 243.49 143.27 1020.62 381.08 1021.28 937.47 992.30 876.20 314.04 96.37 318.82 382.98 709.51 220.61 1177.59 951.90 149.21 917.41 1077.21 267.35 64.18 1075.63 759.99 1019.37 189.26 62.58 49.23 1028.47 110.04 904.68 71.38 1051.84 44.58 136.05 907.21 0.00 72.88 296.76
1343.92 215.42 1038.69 228.27 148.45 986.27 353.68 1052.07 963.03 970.27 917.63 285.71 102.26 332.50 364.91 661.66 205.39 1135.67 933.95 138.23 872.65 1048.88 299.24 137.06 1027.78 773.67 971.52 141.41 88.08 34.01 1044.88 75.69 889.15 23.53 1049.91 73.90 91.69 921.23 72.88 0.00 276.37
1255.27 217.15 1025.74 139.62 344.33 1003.72 317.13 979.15 877.23 991.52 831.83 313.79 223.01 360.25 279.11 557.34 369.72 1219.02 872.72 293.20 888.35 1041.92 332.73 233.76 975.70 759.21 986.87 261.75 256.80 247.53 986.34 238.30 803.35 252.84 940.08 283.90 328.47 835.43 296.76 276.37 0.00
DEMAND_SECTION
1 0
2 79
3 29
4 35
5 17
6 96
7 45
8 77
9 80
10 33
11 83
12 65
13 71
14 58
15 40
16 64
17 70
18 56
19 76
20 37
21 5
22 6
23 3
24 20
25 28
26 45
27 20
28 21
29 58
30 32
31 31
32 69
33 76
34 88
35 63
36 67
37 47
38 78
39 55
40 33
41 55
DEPOT_SECTION
1
-1
EOF
