NAME: LDG40_2253_rain_40_0055
COMMENT: CVRP with travel times.  rootPos=2,custPos=2,demandType=5,avgRouteSizeIndex=3,weather=rain,lambda_cluster=1,lambda_random=4, T1=300,T2=700,beta=1, alpha(i,j) ~ U(0.8,1.2)
TYPE: CVRP
DIMENSION: 41
EDGE_WEIGHT_TYPE: EXPLICIT
EDGE_WEIGHT_FORMAT: FULL_MATRIX
CAPACITY: 891
NODE_COORD_SECTION
1 500 500
2 650 941
3 465 494
4 960 661
5 775 919
6 403 485
7 653 934
8 643 670
9 463 464
10 800 865
11 901 753
12 613 911
13 641 696
14 401 491
15 898 986
16 587 602
17 950 593
18 901 714
19 890 619
20 506 879
21 855 733
22 874 732
23 559 950
24 653 648
25 742 715
26 674 936
27 845 766
28 675 351
29 573 488
30 648 901
31 664 636
32 548 568
33 525 979
34 656 821
35 548 896
36 681 976
37 456 496
38 593 385
39 531 943
40 601 919
41 908 600
EDGE_WEIGHT_SECTION
0.00 600.68 48.73 594.10 657.66 121.28 587.57 294.88 111.82 622.97 586.92 548.60 341.45 140.01 741.45 178.63 582.64 524.26 562.20 622.95 425.63 489.69 599.42 286.72 448.84 624.30 508.32 388.05 81.74 592.49 302.11 123.24 628.76 484.29 556.99 629.71 75.63 223.27 539.15 508.08 611.29
600.68 0.00 597.85 523.01 228.38 670.53 13.11 374.23 629.62 238.87 409.74 92.36 364.35 651.80 354.21 422.05 560.56 457.71 548.66 238.59 412.09 407.92 129.95 313.96 458.16 49.84 329.40 665.00 521.04 82.96 362.50 515.57 159.48 215.25 167.41 113.60 570.95 652.53 182.49 94.70 597.75
48.73 597.85 0.00 642.83 691.24 91.39 584.74 343.61 63.09 597.28 626.51 597.33 370.12 104.50 769.17 227.36 631.37 572.99 590.02 587.44 474.36 538.42 648.15 283.89 497.57 610.76 557.05 405.93 130.47 543.76 332.43 171.97 677.49 533.02 605.72 635.58 26.90 241.15 587.88 556.81 639.11
594.10 523.01 642.83 0.00 445.84 658.80 511.93 472.32 699.14 332.82 155.29 520.89 425.60 677.53 373.79 541.87 152.71 140.26 118.69 674.21 239.29 175.23 573.82 433.78 353.84 500.23 264.71 550.00 582.78 440.05 446.59 470.86 658.30 526.23 595.94 542.96 669.73 709.36 619.42 531.63 167.78
657.66 228.38 691.24 445.84 0.00 735.50 238.68 389.99 656.38 113.02 290.55 267.01 436.71 745.19 332.76 479.03 460.33 353.21 402.57 387.71 311.86 360.59 307.83 407.35 436.63 201.95 229.17 817.11 603.13 261.32 455.89 564.94 301.87 222.73 310.17 169.92 664.34 669.31 296.70 208.91 451.66
121.28 670.53 91.39 658.80 735.50 0.00 657.42 362.89 79.12 688.67 672.96 597.20 409.61 18.73 841.85 281.46 647.34 645.54 671.66 501.67 546.91 610.97 606.81 356.57 514.30 694.15 629.60 422.74 203.02 635.15 347.62 187.94 644.99 587.12 522.15 685.27 99.58 325.98 579.62 623.41 717.62
587.57 13.11 584.74 511.93 238.68 657.42 0.00 361.12 616.51 225.76 403.29 87.00 351.24 638.69 341.10 408.94 547.45 444.60 535.55 225.48 398.98 394.81 143.06 300.85 460.68 36.73 316.29 651.89 523.56 71.88 349.39 502.46 146.37 204.17 162.05 104.74 557.84 639.42 185.01 97.22 584.64
294.88 374.23 343.61 472.32 389.99 362.89 361.12 0.00 375.93 328.09 357.51 339.86 46.72 381.62 545.55 168.36 371.12 346.88 375.36 397.20 361.15 297.09 327.46 60.27 153.96 376.00 343.37 447.00 213.14 380.53 85.78 174.95 416.12 248.24 338.83 334.98 317.26 354.67 387.73 397.96 362.32
111.82 629.62 63.09 699.14 656.38 79.12 616.51 375.93 0.00 660.37 658.28 659.09 401.89 91.92 800.94 290.45 687.68 636.08 630.75 574.86 537.45 601.51 685.93 315.66 529.89 645.25 620.14 356.86 193.56 578.25 364.20 228.28 724.11 596.11 601.27 606.15 77.26 246.86 650.97 619.90 679.84
622.97 238.87 597.28 332.82 113.02 688.67 225.76 328.09 660.37 0.00 177.53 246.49 374.81 701.78 219.74 496.45 347.31 240.19 335.41 399.81 198.84 247.57 339.45 388.36 323.61 189.03 116.15 721.07 541.23 256.03 413.87 503.04 372.13 252.80 321.54 259.84 624.18 556.29 379.01 304.59 384.50
586.92 409.74 626.51 155.29 290.55 672.96 403.29 357.51 658.28 177.53 0.00 424.02 347.91 654.23 372.11 450.71 212.42 62.66 227.95 577.34 161.60 97.54 496.13 342.62 260.93 366.56 125.38 686.56 505.18 433.56 325.34 505.63 549.66 429.72 499.07 437.37 599.61 615.37 502.33 482.12 209.81
548.60 92.36 597.33 520.89 267.01 597.20 87.00 339.86 659.09 246.49 424.02 0.00 293.14 615.93 422.44 487.46 593.80 486.68 581.90 153.32 445.33 481.81 92.96 379.37 421.56 118.07 362.64 731.12 484.44 80.84 369.90 514.81 165.46 213.13 75.05 151.25 624.23 625.97 132.52 58.10 630.99
341.45 364.35 370.12 425.60 436.71 409.61 351.24 46.72 401.89 374.81 347.91 293.14 0.00 405.65 571.51 194.32 416.94 300.16 346.86 443.92 314.43 250.37 343.11 86.23 191.47 329.28 296.65 437.98 259.86 373.98 76.76 221.67 369.40 290.55 368.19 288.26 343.22 366.79 403.38 351.24 395.95
140.01 651.80 104.50 677.53 745.19 18.73 638.69 381.62 91.92 701.78 654.23 615.93 405.65 0.00 823.12 300.19 666.07 664.27 652.93 482.94 565.64 629.70 622.04 337.84 495.57 675.42 629.49 404.01 221.75 648.26 328.89 206.67 660.36 605.85 540.88 689.53 80.85 307.62 573.95 642.14 698.89
741.45 354.21 769.17 373.79 332.76 841.85 341.10 545.55 800.94 219.74 372.11 422.44 571.51 823.12 0.00 593.37 491.73 421.62 452.39 460.76 315.82 379.88 484.16 485.28 543.35 304.37 335.89 895.04 754.19 371.37 533.82 686.89 487.47 467.01 497.49 295.59 742.27 776.03 514.35 426.56 477.60
178.63 422.05 227.36 541.87 479.03 281.46 408.94 168.36 290.45 496.45 450.71 487.46 194.32 300.19 593.37 0.00 493.26 494.48 423.18 518.06 508.75 444.69 495.82 108.09 292.42 445.67 454.45 444.60 207.25 437.95 125.74 93.52 555.31 305.66 439.79 482.58 230.32 348.78 497.26 475.65 472.27
582.64 560.56 631.37 152.71 460.33 647.34 547.45 371.12 687.68 347.31 212.42 593.80 416.94 666.07 491.73 493.26 0.00 178.34 70.08 738.16 206.65 228.13 626.72 385.17 266.89 536.34 231.16 609.19 584.26 560.94 433.57 459.40 693.82 477.62 659.89 524.21 642.16 660.75 658.05 610.53 101.01
524.26 457.71 572.99 140.26 353.21 645.54 444.60 346.88 636.08 240.19 62.66 486.68 300.16 664.27 421.62 494.48 178.34 0.00 165.29 577.35 105.80 49.79 448.38 386.39 318.90 429.22 138.99 690.26 442.52 496.22 376.92 521.83 575.95 454.48 533.04 492.53 599.89 584.05 486.34 518.36 210.74
562.20 548.66 590.02 118.69 402.57 671.66 535.55 375.36 630.75 335.41 227.95 581.90 346.86 652.93 452.39 423.18 70.08 165.29 0.00 686.24 136.57 200.63 599.22 315.09 314.93 524.44 219.26 539.11 584.00 539.83 363.63 516.70 630.01 407.54 607.97 572.49 572.08 590.67 651.63 578.54 49.09
622.95 238.59 587.44 674.21 387.71 501.67 225.48 397.20 574.86 399.81 577.34 153.32 443.92 482.94 460.76 518.06 738.16 577.35 686.24 0.00 598.65 549.87 151.28 435.14 482.17 262.21 515.96 766.41 553.52 234.16 406.24 520.06 177.42 318.74 78.27 304.57 563.79 657.03 91.01 178.80 637.15
425.63 412.09 474.36 239.29 311.86 546.91 398.98 361.15 537.45 198.84 161.60 445.33 314.43 565.64 315.82 508.75 206.65 105.80 136.57 598.65 0.00 64.06 462.65 400.66 264.07 387.87 82.69 675.68 507.37 405.75 391.19 536.10 493.44 398.18 520.38 443.74 501.26 648.90 522.92 462.06 185.66
489.69 407.92 538.42 175.23 360.59 610.97 394.81 297.09 601.51 247.57 97.54 481.81 250.37 629.70 379.88 444.69 228.13 49.79 200.63 549.87 64.06 0.00 398.59 336.60 269.11 431.54 131.42 688.35 492.31 466.69 327.13 472.04 541.18 446.91 483.25 499.55 565.32 617.16 458.86 492.03 249.72
599.42 129.95 648.15 573.82 307.83 606.81 143.06 327.46 685.93 339.45 496.13 92.96 343.11 622.04 484.16 495.82 626.72 448.38 599.22 151.28 462.65 398.59 0.00 387.73 447.86 179.79 455.60 735.67 525.26 173.80 413.24 502.41 149.88 260.79 84.66 225.87 644.72 666.79 60.27 98.92 643.54
286.72 313.96 283.89 433.78 407.35 356.57 300.85 60.27 315.66 388.36 342.62 379.37 86.23 337.84 485.28 108.09 385.17 386.39 315.09 435.14 400.66 336.60 387.73 0.00 214.23 337.58 346.36 409.76 268.91 372.73 48.54 201.61 447.22 308.51 399.10 374.49 256.99 338.57 448.00 367.56 364.18
448.84 458.16 497.57 353.84 436.63 514.30 460.68 153.96 529.89 323.61 260.93 421.56 191.47 495.57 543.35 292.42 266.89 318.90 314.93 482.17 264.07 269.11 447.86 214.23 0.00 446.85 207.46 527.90 367.10 413.04 166.68 328.91 480.77 280.75 448.63 376.04 471.22 456.71 391.16 363.46 331.76
624.30 49.84 610.76 500.23 201.95 694.15 36.73 376.00 645.25 189.03 366.56 118.07 329.28 675.42 304.37 445.67 536.34 429.22 524.44 262.21 387.87 431.54 179.79 337.58 446.85 0.00 305.18 676.60 560.29 67.00 386.12 539.19 183.10 175.07 193.12 70.81 594.57 654.77 221.74 133.95 573.53
508.32 329.40 557.05 264.71 229.17 629.60 316.29 343.37 620.14 116.15 125.38 362.64 296.65 629.49 335.89 454.45 231.16 138.99 219.26 515.96 82.69 131.42 455.60 346.36 207.46 305.18 0.00 734.63 556.51 372.18 373.41 511.02 462.66 315.49 437.69 370.98 548.64 663.44 467.16 379.37 268.35
388.05 665.00 405.93 550.00 817.11 422.74 651.89 447.00 356.86 721.07 686.56 731.12 437.98 404.01 895.04 444.60 609.19 690.26 539.11 766.41 675.68 688.35 735.67 409.76 527.90 676.60 734.63 0.00 306.31 723.77 361.22 395.25 765.01 644.48 732.87 726.24 432.83 164.78 675.40 732.65 588.20
81.74 521.04 130.47 582.78 603.13 203.02 523.56 213.14 193.56 541.23 505.18 484.44 259.86 221.75 754.19 207.25 584.26 442.52 584.00 553.52 507.37 492.31 525.26 268.91 367.10 560.29 556.51 306.31 0.00 517.92 220.37 146.37 598.09 416.24 475.25 548.12 157.37 141.53 514.13 426.34 575.46
592.49 82.96 543.76 440.05 261.32 635.15 71.88 380.53 578.25 256.03 433.56 80.84 373.98 648.26 371.37 437.95 560.94 496.22 539.83 234.16 405.75 466.69 173.80 372.73 413.04 67.00 372.18 723.77 517.92 0.00 421.27 531.47 218.25 132.29 155.89 102.91 570.66 611.99 179.37 91.58 588.92
302.11 362.50 332.43 446.59 455.89 347.62 349.39 85.78 364.20 413.87 325.34 369.90 76.76 328.89 533.82 125.74 433.57 376.92 363.63 406.24 391.19 327.13 413.24 48.54 166.68 386.12 373.41 361.22 220.37 421.27 0.00 205.91 446.16 334.02 419.60 365.02 305.53 290.03 473.51 416.10 396.51
123.24 515.57 171.97 470.86 564.94 187.94 502.46 174.95 228.28 503.04 505.63 514.81 221.67 206.67 686.89 93.52 459.40 521.83 516.70 520.06 536.10 472.04 502.41 201.61 328.91 539.19 511.02 395.25 146.37 531.47 205.91 0.00 591.07 399.18 476.39 509.93 198.87 287.90 533.86 569.17 537.27
628.76 159.48 677.49 658.30 301.87 644.99 146.37 416.12 724.11 372.13 549.66 165.46 369.40 660.36 487.47 555.31 693.82 575.95 630.01 177.42 493.44 541.18 149.88 447.22 480.77 183.10 462.66 765.01 598.09 218.25 446.16 591.07 0.00 348.40 122.84 251.11 704.21 736.19 89.61 177.40 679.10
484.29 215.25 533.02 526.23 222.73 587.12 204.17 248.24 596.11 252.80 429.72 213.13 290.55 605.85 467.01 305.66 477.62 454.48 407.54 318.74 398.18 446.91 260.79 308.51 280.75 175.07 315.49 644.48 416.24 132.29 334.02 399.18 348.40 0.00 240.47 235.20 535.98 479.70 258.79 171.00 456.63
556.99 167.41 605.72 595.94 310.17 522.15 162.05 338.83 601.27 321.54 499.07 75.05 368.19 540.88 497.49 439.79 659.89 533.04 607.97 78.27 520.38 483.25 84.66 399.10 448.63 193.12 437.69 732.87 475.25 155.89 419.60 476.39 122.84 240.47 0.00 226.30 621.73 616.78 57.47 101.26 558.88
629.71 113.60 635.58 542.96 169.92 685.27 104.74 334.98 606.15 259.84 437.37 151.25 288.26 689.53 295.59 482.58 524.21 492.53 572.49 304.57 443.74 499.55 225.87 374.49 376.04 70.81 370.98 726.24 548.12 102.91 365.02 509.93 251.11 235.20 226.30 0.00 608.68 655.05 226.80 139.01 621.58
75.63 570.95 26.90 669.73 664.34 99.58 557.84 317.26 77.26 624.18 599.61 624.23 343.22 80.85 742.27 230.32 642.16 599.89 572.08 563.79 501.26 565.32 644.72 256.99 471.22 594.57 548.64 432.83 157.37 570.66 305.53 198.87 704.21 535.98 621.73 608.68 0.00 268.05 614.78 583.71 618.04
223.27 652.53 241.15 709.36 669.31 325.98 639.42 354.67 246.86 556.29 615.37 625.97 366.79 307.62 776.03 348.78 660.75 584.05 590.67 657.03 648.90 617.16 666.79 338.57 456.71 654.77 663.44 164.78 141.53 611.99 290.03 287.90 736.19 479.70 616.78 655.05 268.05 0.00 655.66 567.87 620.39
539.15 182.49 587.88 619.42 296.70 579.62 185.01 387.73 650.97 379.01 502.33 132.52 403.38 573.95 514.35 497.26 658.05 486.34 651.63 91.01 522.92 458.86 60.27 448.00 391.16 221.74 467.16 675.40 514.13 179.37 473.51 533.86 89.61 258.79 57.47 226.80 614.78 655.66 0.00 87.79 616.35
508.08 94.70 556.81 531.63 208.91 623.41 97.22 397.96 619.90 304.59 482.12 58.10 351.24 642.14 426.56 475.65 610.53 518.36 578.54 178.80 462.06 492.03 98.92 367.56 363.46 133.95 379.37 732.65 426.34 91.58 416.10 569.17 177.40 171.00 101.26 139.01 583.71 567.87 87.79 0.00 627.63
611.29 597.75 639.11 167.78 451.66 717.62 584.64 362.32 679.84 384.50 209.81 630.99 395.95 698.89 477.60 472.27 101.01 210.74 49.09 637.15 185.66 249.72 643.54 364.18 331.76 573.53 268.35 588.20 575.46 588.92 396.51 537.27 679.10 456.63 558.88 621.58 618.04 620.39 616.35 627.63 0.00
DEMAND_SECTION
1 0
2 84
3 78
4 78
5 86
6 98
7 98
8 67
9 65
10 55
11 57
12 70
13 78
14 62
15 78
16 86
17 73
18 98
19 100
20 54
21 97
22 90
23 64
24 54
25 93
26 79
27 76
28 100
29 86
30 88
31 97
32 84
33 65
34 59
35 68
36 50
37 70
38 92
39 72
40 78
41 76
DEPOT_SECTION
1
-1
EOF
