NAME: LDG55_1332_rain_55_0255
COMMENT: CVRP with travel times.  rootPos=1,custPos=3,demandType=3,avgRouteSizeIndex=2,weather=rain,lambda_cluster=1,lambda_random=4, T1=300,T2=700,beta=1, alpha(i,j) ~ U(0.8,1.2)
TYPE: CVRP
DIMENSION: 56
EDGE_WEIGHT_TYPE: EXPLICIT
EDGE_WEIGHT_FORMAT: FULL_MATRIX
CAPACITY: 54
NODE_COORD_SECTION
1 373 175
2 115 755
3 917 695
4 407 744
5 188 146
6 485 92
7 796 536
8 64 132
9 369 244
10 499 261
11 178 292
12 239 683
13 181 311
14 637 54
15 852 12
16 136 742
17 43 706
18 694 37
19 145 195
20 352 103
21 234 125
22 41 601
23 63 611
24 864 15
25 41 480
26 553 102
27 160 88
28 592 90
29 32 256
30 276 177
31 609 808
32 354 200
33 999 898
34 867 841
35 938 610
36 496 917
37 531 79
38 230 261
39 848 6
40 91 550
41 391 25
42 368 954
43 244 98
44 4 651
45 859 837
46 638 646
47 841 368
48 423 51
49 106 592
50 133 168
51 72 567
52 726 684
53 210 411
54 10 560
55 96 198
56 890 719
EDGE_WEIGHT_SECTION
0.00 763.37 933.12 788.47 263.02 160.72 605.62 366.38 123.60 319.92 271.48 687.10 273.23 341.73 550.57 718.52 700.21 408.69 226.36 112.96 201.12 637.44 638.97 560.96 506.57 258.26 299.85 254.48 388.80 114.72 746.59 54.73 1061.98 882.46 837.90 902.47 272.70 210.98 540.78 559.47 197.44 1077.37 204.15 638.98 880.71 608.17 708.31 156.69 559.46 279.94 609.79 733.09 379.80 633.55 302.00 884.22
763.37 0.00 880.80 326.86 713.84 865.01 858.83 676.53 771.03 705.81 578.24 235.96 546.14 1003.24 1163.13 44.85 139.98 1057.35 617.60 804.49 739.13 194.66 164.09 1144.20 347.71 836.60 711.44 915.99 547.78 704.65 677.07 735.40 1034.75 855.23 889.82 618.85 880.85 629.21 1172.92 264.15 881.59 625.13 760.43 178.95 877.36 682.15 1091.20 840.84 230.67 609.48 255.12 655.61 502.21 291.70 634.58 838.88
933.12 880.80 0.00 602.41 1129.01 899.56 327.50 1092.39 974.49 847.34 966.45 795.04 1021.70 908.44 816.82 835.95 1020.78 837.62 1087.93 958.15 1012.39 971.45 940.88 845.93 1080.81 964.22 1129.29 995.69 1187.88 1047.84 429.13 903.55 351.92 222.93 123.42 641.11 919.97 1059.80 816.20 994.65 974.97 763.57 1072.65 1011.01 224.54 350.11 518.48 934.22 920.27 1141.51 970.60 225.19 935.82 1059.95 1132.26 90.39
788.47 326.86 602.41 0.00 715.23 897.17 585.86 776.44 673.64 851.38 570.49 306.53 515.24 790.65 917.35 342.24 466.84 824.20 599.26 786.63 760.15 494.08 490.95 946.46 510.01 799.63 748.57 877.90 761.70 673.75 350.21 746.23 707.89 528.37 686.29 355.32 843.88 624.10 927.14 418.39 913.00 298.27 803.79 505.81 550.50 355.29 837.41 926.62 474.01 652.84 433.62 480.21 513.25 523.94 674.90 512.02
263.02 713.84 1129.01 715.23 0.00 347.50 813.32 229.80 263.89 453.35 174.37 691.58 229.62 562.96 776.85 695.47 666.45 587.69 115.97 170.86 119.96 538.91 569.48 747.74 417.09 443.07 108.50 477.30 212.53 148.30 935.75 243.89 1243.96 1064.44 1045.60 1070.55 398.82 267.63 769.16 508.71 321.45 963.80 91.76 593.98 1042.31 782.24 806.25 310.85 564.88 130.84 527.30 907.16 370.01 544.07 125.73 1038.62
160.72 865.01 899.56 897.17 347.50 0.00 666.04 485.99 269.43 159.20 381.59 842.91 433.95 215.46 429.35 820.16 739.17 247.97 387.08 204.10 320.73 768.30 795.74 400.24 667.29 97.54 401.12 176.93 533.97 275.44 907.31 215.45 1113.90 934.38 898.32 970.69 111.98 371.70 439.14 713.07 165.84 1145.59 266.41 799.70 956.51 612.78 547.59 157.65 720.18 417.36 761.98 737.70 475.01 794.27 447.17 809.60
605.62 858.83 327.50 585.86 813.32 666.04 0.00 914.39 646.99 764.62 638.95 880.47 694.20 774.78 705.66 903.68 994.48 703.96 760.43 718.58 806.74 910.81 880.24 682.05 910.01 733.96 835.81 768.19 860.38 720.34 456.16 660.35 656.12 522.74 232.28 672.78 689.71 732.42 695.87 818.39 803.06 790.60 809.77 968.76 514.59 230.57 376.23 762.31 800.73 814.01 851.06 355.49 608.32 940.41 836.07 406.55
366.38 676.53 1092.39 776.44 229.80 485.99 914.39 0.00 367.25 479.88 275.44 696.17 306.90 691.73 915.34 700.06 649.37 733.96 177.18 364.54 165.26 543.01 512.44 886.23 472.22 541.77 237.39 620.86 152.14 251.66 1044.68 352.82 1289.26 1109.74 1146.67 1106.39 552.77 313.28 907.16 498.26 461.57 942.14 225.52 572.32 1087.61 827.54 868.27 493.60 568.70 135.43 570.88 952.46 404.20 497.23 104.07 1127.10
123.60 771.03 974.49 673.64 263.89 269.43 646.99 367.25 0.00 202.49 272.35 745.10 259.79 458.12 622.32 752.06 676.34 389.90 265.92 193.52 201.99 576.37 606.94 615.43 482.70 291.48 316.43 370.87 428.36 115.59 764.45 72.59 1017.34 837.82 879.27 1026.07 292.67 187.11 612.53 555.96 321.04 971.91 220.41 656.84 815.69 626.03 590.88 280.29 566.24 319.50 515.91 750.95 357.35 606.23 341.56 959.44
319.92 705.81 847.34 851.38 453.35 159.20 764.62 479.88 202.49 0.00 474.84 683.71 462.28 374.66 564.25 660.96 776.60 407.17 468.41 325.02 355.42 609.10 639.67 559.44 606.11 256.74 472.32 295.22 534.33 318.08 961.93 270.07 954.70 775.18 783.45 1089.87 216.74 389.60 574.04 645.85 325.04 1036.81 415.68 728.19 797.31 629.91 388.39 295.63 684.52 485.07 669.56 676.73 407.79 706.14 447.53 756.95
271.48 578.24 966.45 570.49 174.37 381.59 638.95 275.44 272.35 474.84 0.00 577.10 55.25 597.05 810.94 569.95 492.08 629.56 121.48 269.64 243.16 444.72 414.15 781.83 318.92 468.61 257.59 525.96 221.68 156.76 907.09 249.72 1129.15 949.63 871.23 925.81 469.80 93.47 812.26 350.65 434.63 868.76 266.13 502.67 927.50 803.16 793.75 409.63 390.51 175.06 423.27 928.08 195.64 445.90 197.12 1045.50
687.10 235.96 795.04 306.53 691.58 842.91 880.47 696.17 745.10 683.71 577.10 0.00 544.72 787.68 1080.23 253.52 295.76 858.50 614.32 787.70 690.39 285.92 255.35 1084.03 347.13 910.21 662.70 874.93 603.15 674.82 551.27 691.32 980.17 834.90 804.06 410.22 875.74 557.99 1081.13 260.97 781.47 431.65 711.69 309.89 836.45 649.90 1005.44 740.72 186.59 560.74 236.92 569.85 387.75 326.27 646.35 818.55
273.23 546.14 1021.70 515.24 229.62 433.95 694.20 306.90 259.79 462.28 55.25 544.72 0.00 555.68 823.80 515.47 436.83 626.50 176.73 271.39 244.91 392.36 382.05 834.19 263.67 482.78 305.97 527.71 276.93 158.51 865.45 265.11 1125.03 945.51 926.48 870.56 485.19 108.86 814.01 296.17 450.02 813.51 305.17 470.57 967.64 818.55 738.50 411.38 366.18 204.01 368.79 943.47 156.97 390.65 214.50 1027.26
341.73 1003.24 908.44 790.65 562.96 215.46 774.78 691.73 458.12 374.66 597.05 787.68 555.68 0.00 303.24 958.39 954.63 70.82 568.09 393.69 530.11 924.94 894.37 296.35 819.35 166.64 601.63 87.25 728.71 443.71 991.06 385.53 972.39 998.35 815.13 1145.97 165.73 541.78 293.45 851.85 312.83 1088.92 481.87 911.14 1020.48 694.39 420.07 300.75 890.26 556.30 905.47 819.31 690.47 943.27 641.91 977.06
550.57 1163.13 816.82 917.35 776.85 429.35 705.66 915.34 622.32 564.25 810.94 1080.23 823.80 303.24 0.00 1128.46 1135.97 232.42 776.93 608.09 750.08 1029.61 999.04 29.11 1051.77 381.04 816.03 301.65 939.37 665.29 944.83 599.93 989.35 867.52 888.72 1204.78 380.13 756.18 9.79 1104.42 544.34 1215.62 695.76 1087.56 889.65 819.21 519.92 503.59 1078.55 830.51 1090.07 694.29 904.36 1126.65 852.57 726.43
718.52 44.85 835.95 342.24 695.47 820.16 903.68 700.06 752.06 660.96 569.95 253.52 515.47 958.39 1128.46 0.00 184.83 1012.50 618.21 786.86 694.28 239.51 208.94 1099.35 310.92 791.75 666.59 871.14 565.42 673.98 692.45 690.55 1050.13 870.61 844.97 663.70 836.00 606.51 1138.25 219.30 836.74 633.39 715.58 223.80 890.02 697.53 1046.35 795.99 185.82 564.63 236.15 610.76 457.36 293.80 650.24 854.26
700.21 139.98 1020.78 466.84 666.45 739.17 994.48 649.37 676.34 776.60 492.08 295.76 436.83 954.63 1135.97 184.83 0.00 987.14 590.44 708.22 681.74 167.50 136.93 1139.41 291.05 836.71 704.76 916.10 505.83 595.34 745.45 645.48 1126.25 946.73 1029.80 478.87 851.15 489.23 1145.76 242.31 830.39 518.20 703.08 85.32 968.86 763.91 1096.57 803.92 193.75 639.18 225.05 795.59 456.01 164.07 553.57 978.86
408.69 1057.35 837.62 824.20 587.69 247.97 703.96 733.96 389.90 407.17 629.56 858.50 626.50 70.82 232.42 1012.50 987.14 0.00 635.05 416.83 568.70 966.27 965.19 225.53 872.60 220.75 620.68 158.07 781.94 505.49 920.24 439.64 1043.21 1038.42 747.96 1179.52 236.55 577.01 222.63 922.67 371.43 1122.47 514.38 981.96 1030.27 714.68 485.80 371.57 944.37 627.12 905.81 839.60 722.98 996.13 695.14 922.23
226.36 617.60 1087.93 599.26 115.97 387.08 760.43 177.18 265.92 468.41 121.48 614.32 176.73 568.09 776.93 618.21 590.44 635.05 0.00 253.22 183.23 422.94 453.51 787.32 440.40 457.35 149.31 480.84 162.44 150.33 930.32 238.46 1245.71 1066.19 992.71 954.58 458.54 151.66 767.14 472.13 402.35 897.53 204.53 542.03 1048.98 791.90 856.80 383.05 511.99 53.58 483.40 916.82 317.12 507.53 75.64 1110.58
112.96 804.49 958.15 786.63 170.86 204.10 718.58 364.54 193.52 325.02 269.64 787.70 271.39 393.69 608.09 786.86 708.22 416.83 253.22 0.00 199.28 609.83 640.40 604.34 535.06 272.21 227.93 306.44 378.39 112.88 812.79 120.93 1128.18 948.66 950.86 914.58 227.96 266.76 598.30 567.56 179.24 1049.20 221.59 705.18 946.91 674.37 664.97 139.99 625.66 301.70 640.18 799.29 399.95 662.04 291.59 867.76
201.12 739.13 1012.39 760.15 119.96 320.73 806.74 165.26 201.99 355.42 243.16 690.39 244.91 530.11 750.08 694.28 681.74 568.70 183.23 199.28 0.00 555.47 586.04 720.97 508.58 376.51 116.90 455.60 272.99 86.40 879.42 187.56 1124.00 944.48 1018.06 1100.61 387.51 240.28 741.90 541.08 296.31 1053.33 60.26 626.72 922.35 662.28 743.81 328.34 611.09 129.65 613.70 787.20 373.47 618.08 215.26 1037.16
637.44 194.66 971.45 494.08 538.91 768.30 910.81 543.01 576.37 609.10 444.72 285.92 392.36 924.94 1029.61 239.51 167.50 966.27 422.94 609.83 555.47 0.00 30.57 1058.72 165.41 803.46 572.25 837.69 442.13 550.87 612.29 600.93 1041.19 920.82 980.47 646.37 759.21 461.00 1039.40 96.19 761.00 685.70 615.73 119.09 898.69 680.24 969.82 720.25 110.08 476.52 60.46 746.26 334.25 97.04 498.58 973.27
638.97 164.09 940.88 490.95 569.48 795.74 880.24 512.44 606.94 639.67 414.15 255.35 382.05 894.37 999.04 208.94 136.93 965.19 453.51 640.40 586.04 30.57 0.00 1028.15 183.62 772.89 602.82 807.12 451.50 540.56 642.86 584.24 1071.76 951.39 949.90 615.80 728.64 479.21 1008.83 105.38 730.43 655.13 646.30 88.52 929.26 649.67 1000.39 689.68 79.51 507.09 91.03 715.69 343.44 127.61 529.15 942.70
560.96 1144.20 845.93 946.46 747.74 400.24 682.05 886.23 615.43 559.44 781.83 1084.03 834.19 296.35 29.11 1099.35 1139.41 225.53 787.32 604.34 720.97 1058.72 1028.15 0.00 1067.53 410.15 801.36 330.76 934.21 675.68 973.94 615.69 960.24 896.63 914.33 1233.89 409.24 771.94 38.90 1113.31 515.23 1244.73 666.65 1116.67 918.76 848.32 549.03 474.48 1084.65 817.60 1119.18 723.40 875.25 1155.76 847.41 755.54
506.57 347.71 1080.81 510.01 417.09 667.29 910.01 472.22 482.70 606.11 318.92 347.13 263.67 819.35 1051.77 310.92 291.05 872.60 440.40 535.06 508.58 165.41 183.62 1067.53 0.00 670.73 507.85 750.12 437.74 422.18 777.70 451.84 1150.09 970.57 1089.83 720.85 671.92 295.59 1041.98 91.62 636.75 763.60 508.85 266.06 948.44 730.70 994.50 663.26 160.54 405.89 110.21 855.62 329.68 126.98 378.89 1022.03
258.26 836.60 964.22 799.63 443.07 97.54 733.96 541.77 291.48 256.74 468.61 910.21 482.78 166.64 381.04 791.75 836.71 220.75 457.35 272.21 376.51 803.46 772.89 410.15 670.73 0.00 434.99 79.39 587.97 324.27 910.75 218.89 1139.03 962.47 963.21 1068.23 44.25 375.14 371.25 723.63 220.02 1097.90 363.95 803.14 940.34 659.92 586.71 179.27 723.62 506.16 773.95 739.03 545.38 797.71 501.17 907.14
299.85 711.44 1129.29 748.57 108.50 401.12 835.81 237.39 316.43 472.32 257.59 662.70 305.97 601.63 816.03 666.59 704.76 620.68 149.31 227.93 116.90 572.25 602.82 801.36 507.85 434.99 0.00 514.38 274.37 200.84 996.32 304.46 1240.90 1061.38 1068.09 1072.92 455.89 215.53 806.24 599.47 358.23 1025.64 134.71 655.82 1039.25 779.18 849.20 367.92 614.09 101.96 618.06 904.10 385.77 584.69 187.57 1068.94
254.48 915.99 995.69 877.90 477.30 176.93 768.19 620.86 370.87 295.22 525.96 874.93 527.71 87.25 301.65 871.14 916.10 158.07 480.84 306.44 455.60 837.69 807.12 330.76 750.12 79.39 514.38 0.00 643.28 369.20 990.14 298.28 1059.64 1041.86 883.82 1147.62 78.48 454.53 291.86 803.02 254.25 1176.17 405.73 882.53 1019.73 694.15 507.32 213.50 803.01 534.42 853.34 773.26 624.77 877.10 556.48 986.53
388.80 547.78 1187.88 761.70 212.53 533.97 860.38 152.14 428.36 534.33 221.68 603.15 276.93 728.71 939.37 565.42 505.83 781.94 162.44 378.39 272.99 442.13 451.50 934.21 437.74 587.97 274.37 643.28 0.00 312.77 963.51 369.08 1220.12 1040.60 1092.66 975.35 581.06 296.01 929.58 346.12 489.79 861.90 267.56 493.75 1062.73 922.52 922.72 518.38 416.56 172.41 418.74 1047.44 252.06 345.09 86.80 1128.67
114.72 704.65 1047.84 673.75 148.30 275.44 720.34 251.66 115.59 318.08 156.76 674.82 158.51 443.71 665.29 673.98 595.34 505.49 150.33 112.88 86.40 550.87 540.56 675.68 422.18 324.27 200.84 369.20 312.77 0.00 861.31 169.45 1132.93 953.41 952.62 1017.19 340.84 153.88 655.50 454.68 292.12 972.02 146.66 629.08 931.28 722.89 706.47 252.87 524.69 203.91 527.30 847.81 287.07 549.16 225.97 980.64
746.59 677.07 429.13 350.21 935.75 907.31 456.16 1044.68 764.45 961.93 907.09 551.27 865.45 991.06 944.83 692.45 745.45 920.24 930.32 812.79 879.42 612.29 642.86 973.94 777.70 910.75 996.32 990.14 963.51 861.31 0.00 691.86 428.90 390.71 552.55 266.58 911.94 848.11 954.62 708.48 944.03 334.44 903.37 731.38 368.58 339.40 767.02 903.28 722.37 983.81 672.75 331.43 711.45 709.33 974.14 519.52
54.73 735.40 903.55 746.23 243.89 215.45 660.35 352.82 72.59 270.07 249.72 691.32 265.11 385.53 599.93 690.55 645.48 439.64 238.46 120.93 187.56 600.93 584.24 615.69 451.84 218.89 304.46 298.28 369.08 169.45 691.86 0.00 1007.25 827.73 892.63 957.20 220.08 156.25 590.14 504.74 252.17 1026.30 211.51 584.25 825.98 553.44 658.46 211.42 504.73 291.95 555.06 678.36 326.49 578.82 282.28 928.32
1061.98 1034.75 351.92 707.89 1243.96 1113.90 656.12 1289.26 1017.34 954.70 1129.15 980.17 1125.03 972.39 989.35 1050.13 1126.25 1043.21 1245.71 1128.18 1124.00 1041.19 1071.76 960.24 1150.09 1139.03 1240.90 1059.64 1220.12 1132.93 428.90 1007.25 0.00 179.52 423.84 647.38 1131.00 1138.30 999.14 1112.50 1230.69 763.34 1184.26 1160.28 201.65 590.37 615.85 1189.94 1090.21 1253.65 1039.88 480.91 968.06 1083.81 1289.53 316.73
882.46 855.23 222.93 528.37 1064.44 934.38 522.74 1109.74 837.82 775.18 949.63 834.90 945.51 998.35 867.52 870.61 946.73 1038.42 1066.19 948.66 944.48 920.82 951.39 896.63 970.57 962.47 1061.38 1041.86 1040.60 953.41 390.71 827.73 179.52 0.00 290.46 467.86 991.92 958.78 866.90 932.98 1051.17 642.76 1004.74 1027.64 22.13 426.31 578.28 1010.42 910.69 1074.13 860.36 301.39 788.54 950.68 1110.01 141.09
837.90 889.82 123.42 686.29 1045.60 898.32 232.28 1146.67 879.27 783.45 871.23 804.06 926.48 815.13 888.72 844.97 1029.80 747.96 992.71 950.86 1018.06 980.47 949.90 914.33 1089.83 963.21 1068.09 883.82 1092.66 952.62 552.55 892.63 423.84 290.46 0.00 744.70 921.99 964.70 878.93 1003.67 974.11 797.58 1042.05 1020.03 282.31 359.13 395.06 933.36 929.29 1046.29 979.62 234.21 840.60 1068.97 1068.35 174.27
902.47 618.85 641.11 355.32 1070.55 970.69 672.78 1106.39 1026.07 1089.87 925.81 410.22 870.56 1145.97 1204.78 663.70 478.87 1179.52 954.58 914.58 1100.61 646.37 615.80 1233.89 720.85 1068.23 1072.92 1147.62 975.35 1017.19 266.58 957.20 647.38 467.86 744.70 0.00 1082.67 968.10 1214.57 629.23 1093.82 174.90 1106.62 564.19 489.99 518.13 946.08 1054.57 596.81 970.96 647.14 510.49 797.97 642.94 1012.97 608.95
272.70 880.85 919.97 843.88 398.82 111.98 689.71 552.77 292.67 216.74 469.80 875.74 485.19 165.73 380.13 836.00 851.15 236.55 458.54 227.96 387.51 759.21 728.64 409.24 671.92 44.25 455.89 78.48 581.06 340.84 911.94 220.08 1131.00 991.92 921.99 1082.67 0.00 376.33 370.34 724.82 175.77 1142.15 327.25 804.33 974.04 615.67 585.80 135.02 724.81 478.20 775.14 694.78 546.57 798.90 502.36 921.58
210.98 629.21 1059.80 624.10 267.63 371.70 732.42 313.28 187.11 389.60 93.47 557.99 108.86 541.78 756.18 606.51 489.23 577.01 151.66 266.76 240.28 461.00 479.21 771.94 295.59 375.14 215.53 454.53 296.01 153.88 848.11 156.25 1138.30 958.78 964.70 968.10 376.33 0.00 746.39 387.21 341.16 922.37 213.85 561.65 980.91 709.69 771.03 367.67 456.13 192.82 405.80 834.61 170.24 422.57 209.21 1084.57
540.78 1172.92 816.20 927.14 769.16 439.14 695.87 907.16 612.53 574.04 812.26 1081.13 814.01 293.45 9.79 1138.25 1145.76 222.63 767.14 598.30 741.90 1039.40 1008.83 38.90 1041.98 371.25 806.24 291.86 929.58 655.50 954.62 590.14 999.14 866.90 878.93 1214.57 370.34 746.39 0.00 1094.88 546.11 1225.41 697.59 1097.35 889.03 829.00 529.71 505.36 1088.34 820.72 1099.86 704.08 914.15 1136.44 842.78 725.81
559.47 264.15 994.65 418.39 508.71 713.07 818.39 498.26 555.96 645.85 350.65 260.97 296.17 851.85 1104.42 219.30 242.31 922.67 472.13 567.56 541.08 96.19 105.38 1113.31 91.62 723.63 599.47 803.02 346.12 454.68 708.48 504.74 1112.50 932.98 1003.67 629.23 724.82 387.21 1094.88 0.00 725.30 692.62 600.47 174.44 910.85 644.54 1034.24 684.55 74.38 497.51 72.62 769.46 238.06 155.15 432.92 930.41
197.44 881.59 974.97 913.00 321.45 165.84 803.06 461.57 321.04 325.04 434.63 781.47 450.02 312.83 544.34 836.74 830.39 371.43 402.35 179.24 296.31 761.00 730.43 515.23 636.75 220.02 358.23 254.25 489.79 292.12 944.03 252.17 1230.69 1051.17 974.11 1093.82 175.77 341.16 546.11 725.30 0.00 1070.86 236.05 818.95 1029.04 778.62 667.90 40.75 650.92 387.00 701.25 749.78 511.40 763.73 416.81 975.44
1077.37 625.13 763.57 298.27 963.80 1145.59 790.60 942.14 971.91 1036.81 868.76 431.65 813.51 1088.92 1215.62 633.39 518.20 1122.47 897.53 1049.20 1053.33 685.70 655.13 1244.73 763.60 1097.90 1025.64 1176.17 861.90 972.02 334.44 1026.30 763.34 642.76 797.58 174.90 1142.15 922.37 1225.41 692.62 1070.86 0.00 1018.83 603.52 664.89 651.61 1087.84 1111.61 618.24 923.68 668.57 652.25 809.34 682.27 838.07 783.85
204.15 760.43 1072.65 803.79 91.76 266.41 809.77 225.52 220.41 415.68 266.13 711.69 305.17 481.87 695.76 715.58 703.08 514.38 204.53 221.59 60.26 615.73 646.30 666.65 508.85 363.95 134.71 405.73 267.56 146.66 903.37 211.51 1184.26 1004.74 1042.05 1106.62 327.25 213.85 697.59 600.47 236.05 1018.83 0.00 649.01 982.61 722.54 714.49 268.08 637.15 150.95 619.06 847.46 384.09 563.30 180.76 1076.01
638.98 178.95 1011.01 505.81 593.98 799.70 968.76 572.32 656.84 728.19 502.67 309.89 470.57 911.14 1087.56 223.80 85.32 981.96 542.03 705.18 626.72 119.09 88.52 1116.67 266.06 803.14 655.82 882.53 493.75 629.08 731.38 584.25 1160.28 1027.64 1020.03 564.19 804.33 561.65 1097.35 174.44 818.95 603.52 649.01 0.00 1005.51 738.19 1011.25 778.20 168.03 553.86 167.28 785.82 412.50 148.66 468.25 1017.83
880.71 877.36 224.54 550.50 1042.31 956.51 514.59 1087.61 815.69 797.31 927.50 836.45 967.64 1020.48 889.65 890.02 968.86 1030.27 1048.98 946.91 922.35 898.69 929.26 918.76 948.44 940.34 1039.25 1019.73 1062.73 931.28 368.58 825.98 201.65 22.13 282.31 489.99 974.04 980.91 889.03 910.85 1029.04 664.89 982.61 1005.51 0.00 404.18 600.41 988.29 888.56 1052.00 838.23 279.26 810.67 928.55 1108.26 163.22
608.17 682.15 350.11 355.29 782.24 612.78 230.57 827.54 626.03 629.91 803.16 649.90 818.55 694.39 819.21 697.53 763.91 714.68 791.90 674.37 662.28 680.24 649.67 848.32 730.70 659.92 779.18 694.15 922.52 722.89 339.40 553.44 590.37 426.31 359.13 518.13 615.67 709.69 829.00 644.54 778.62 651.61 722.54 738.19 404.18 0.00 482.12 750.69 570.16 791.93 620.49 124.92 714.26 709.84 835.72 374.88
708.31 1091.20 518.48 837.41 806.25 547.59 376.23 868.27 590.88 388.39 793.75 1005.44 738.50 420.07 519.92 1046.35 1096.57 485.80 856.80 664.97 743.81 969.82 1000.39 549.03 994.50 586.71 849.20 507.32 922.72 706.47 767.02 658.46 615.85 578.28 395.06 946.08 585.80 771.03 529.71 1034.24 667.90 1087.84 714.49 1011.25 600.41 482.12 0.00 684.02 1052.28 865.44 1030.28 435.59 796.18 1066.86 835.92 569.33
156.69 840.84 934.22 926.62 310.85 157.65 762.31 493.60 280.29 295.63 409.63 740.72 411.38 300.75 503.59 795.99 803.92 371.57 383.05 139.99 328.34 720.25 689.68 474.48 663.26 179.27 367.92 213.50 518.38 252.87 903.28 211.42 1189.94 1010.42 933.36 1054.57 135.02 367.67 505.36 684.55 40.75 1111.61 268.08 778.20 988.29 750.69 684.02 0.00 610.17 419.03 660.50 709.03 531.65 749.85 431.58 958.99
559.46 230.67 920.27 474.01 564.88 720.18 800.73 568.70 566.24 684.52 390.51 186.59 366.18 890.26 1078.55 185.82 193.75 944.37 511.99 625.66 611.09 110.08 79.51 1084.65 160.54 723.62 614.09 803.01 416.56 524.69 722.37 504.73 1090.21 910.69 929.29 596.81 724.81 456.13 1088.34 74.38 650.92 618.24 637.15 168.03 888.56 570.16 1052.28 610.17 0.00 512.13 50.33 695.08 312.44 139.68 503.36 863.19
279.94 609.48 1141.51 652.84 130.84 417.36 814.01 135.43 319.50 485.07 175.06 560.74 204.01 556.30 830.51 564.63 639.18 627.12 53.58 301.70 129.65 476.52 507.09 817.60 405.89 506.16 101.96 534.42 172.41 203.91 983.81 291.95 1253.65 1074.13 1046.29 970.96 478.20 192.82 820.72 497.51 387.00 923.68 150.95 553.86 1052.00 791.93 865.44 419.03 512.13 0.00 516.10 916.85 306.84 511.78 85.61 1127.48
609.79 255.12 970.60 433.62 527.30 761.98 851.06 570.88 515.91 669.56 423.27 236.92 368.79 905.47 1090.07 236.15 225.05 905.81 483.40 640.18 613.70 60.46 91.03 1119.18 110.21 773.95 618.06 853.34 418.74 527.30 672.75 555.06 1039.88 860.36 979.62 647.14 775.14 405.80 1099.86 72.62 701.25 668.57 619.06 167.28 838.23 620.49 1030.28 660.50 50.33 516.10 0.00 745.41 286.97 90.32 489.10 913.52
733.09 655.61 225.19 480.21 907.16 737.70 355.49 952.46 750.95 676.73 928.08 569.85 943.47 819.31 694.29 610.76 795.59 839.60 916.82 799.29 787.20 746.26 715.69 723.40 855.62 739.03 904.10 773.26 1047.44 847.81 331.43 678.36 480.91 301.39 234.21 510.49 694.78 834.61 704.08 769.46 749.78 652.25 847.46 785.82 279.26 124.92 435.59 709.03 695.08 916.85 745.41 0.00 839.18 834.76 960.64 249.96
379.80 502.21 935.82 513.25 370.01 475.01 608.32 404.20 357.35 407.79 195.64 387.75 156.97 690.47 904.36 457.36 456.01 722.98 317.12 399.95 373.47 334.25 343.44 875.25 329.68 545.38 385.77 624.77 252.06 287.07 711.45 326.49 968.06 788.54 840.60 797.97 546.57 170.24 914.15 238.06 511.40 809.34 384.09 412.50 810.67 714.26 796.18 531.65 312.44 306.84 286.97 839.18 0.00 377.29 338.86 929.63
633.55 291.70 1059.95 523.94 544.07 794.27 940.41 497.23 606.23 706.14 445.90 326.27 390.65 943.27 1126.65 293.80 164.07 996.13 507.53 662.04 618.08 97.04 127.61 1155.76 126.98 797.71 584.69 877.10 345.09 549.16 709.33 578.82 1083.81 950.68 1068.97 642.94 798.90 422.57 1136.44 155.15 763.73 682.27 563.30 148.66 928.55 709.84 1066.86 749.85 139.68 511.78 90.32 834.76 377.29 0.00 431.89 1002.87
302.00 634.58 1132.26 674.90 125.73 447.17 836.07 104.07 341.56 447.53 197.12 646.35 214.50 641.91 852.57 650.24 553.57 695.14 75.64 291.59 215.26 498.58 529.15 847.41 378.89 501.17 187.57 556.48 86.80 225.97 974.14 282.28 1289.53 1110.01 1068.35 1012.97 502.36 209.21 842.78 432.92 416.81 838.07 180.76 468.25 1108.26 835.72 835.92 431.58 503.36 85.61 489.10 960.64 338.86 431.89 0.00 1041.87
884.22 838.88 90.39 512.02 1038.62 809.60 406.55 1127.10 959.44 756.95 1045.50 818.55 1027.26 977.06 726.43 854.26 978.86 922.23 1110.58 867.76 1037.16 973.27 942.70 755.54 1022.03 907.14 1068.94 986.53 1128.67 980.64 519.52 928.32 316.73 141.09 174.27 608.95 921.58 1084.57 725.81 930.41 975.44 783.85 1076.01 1017.83 163.22 374.88 569.33 958.99 863.19 1127.48 913.52 249.96 929.63 1002.87 1041.87 0.00
DEMAND_SECTION
1 0
2 5
3 5
4 7
5 5
6 10
7 9
8 6
9 7
10 6
11 5
12 9
13 6
14 10
15 10
16 6
17 9
18 10
19 5
20 10
21 6
22 9
23 5
24 7
25 9
26 7
27 9
28 7
29 9
30 9
31 5
32 10
33 5
34 8
35 7
36 10
37 9
38 9
39 8
40 5
41 5
42 6
43 8
44 6
45 9
46 10
47 7
48 6
49 9
50 6
51 9
52 10
53 5
54 9
55 5
56 9
DEPOT_SECTION
1
-1
EOF
