NAME: LDG50_3171_snow_50_0266
COMMENT: CVRP with travel times.  rootPos=3,custPos=1,demandType=7,avgRouteSizeIndex=1,weather=snow,lambda_cluster=1,lambda_random=4, T1=300,T2=700,beta=1, alpha(i,j) ~ U(0.8,1.2)
TYPE: CVRP
DIMENSION: 51
EDGE_WEIGHT_TYPE: EXPLICIT
EDGE_WEIGHT_FORMAT: FULL_MATRIX
CAPACITY: 124
NODE_COORD_SECTION
1 0 0
2 59 33
3 52 686
4 892 984
5 268 827
6 872 945
7 434 333
8 986 582
9 937 521
10 793 468
11 452 310
12 200 623
13 101 470
14 96 7
15 261 978
16 289 564
17 776 101
18 786 903
19 357 632
20 27 555
21 725 531
22 80 982
23 175 912
24 811 595
25 896 514
26 561 732
27 249 919
28 350 820
29 554 679
30 802 249
31 902 959
32 528 925
33 535 404
34 766 595
35 294 126
36 40 131
37 596 663
38 215 757
39 472 419
40 279 780
41 290 189
42 174 955
43 408 259
44 952 915
45 489 231
46 920 997
47 941 904
48 811 239
49 533 101
50 915 107
51 979 584
EDGE_WEIGHT_SECTION
0.00 79.30 812.05 1476.47 1087.25 1495.26 686.00 1276.00 1144.57 1112.09 667.60 772.74 550.82 154.33 1205.00 844.25 998.77 1368.43 902.66 714.16 1012.72 1149.38 1175.21 1198.57 1207.28 992.12 1109.26 991.04 1011.66 1004.77 1486.44 1264.02 758.47 1118.89 358.83 202.07 1066.21 988.48 762.71 1053.94 443.70 1181.72 576.11 1387.06 642.59 1497.09 1408.97 1027.34 720.05 1102.74 1257.71
79.30 0.00 766.18 1481.90 1007.95 1464.65 606.70 1196.70 1065.27 1032.79 588.30 726.87 471.52 75.03 1159.13 838.32 948.08 1374.89 823.36 634.86 933.42 1070.08 1095.91 1119.27 1127.98 1034.96 1063.39 911.74 977.60 1033.44 1440.57 1184.72 679.17 1060.94 438.13 156.20 1004.13 942.61 683.41 993.02 437.77 1108.38 496.81 1341.19 635.68 1451.22 1363.10 1022.52 711.48 1146.34 1178.41
812.05 766.18 0.00 1116.31 365.53 1098.70 699.32 1168.99 1113.75 922.97 655.10 336.65 346.82 828.60 482.25 400.22 1081.71 976.68 462.85 183.48 902.21 362.47 381.84 943.07 1058.15 694.13 418.06 377.31 637.83 908.66 1074.98 670.96 766.57 888.32 801.05 609.98 678.00 239.46 629.14 321.49 787.85 478.72 600.50 1148.57 739.37 1057.98 1126.66 931.23 815.17 1142.36 1160.06
1476.47 1481.90 1116.31 0.00 751.76 104.99 980.29 500.10 605.17 717.16 1024.51 955.98 1161.89 1506.64 686.83 928.14 1008.58 188.05 845.43 1193.86 648.25 959.49 831.30 557.90 564.64 544.33 782.57 745.05 536.74 873.97 41.33 493.77 952.07 631.04 1189.57 1325.70 591.29 876.85 830.93 794.82 1183.20 857.18 1058.22 140.71 1098.01 64.38 130.66 896.54 1131.81 1106.99 518.39
1087.25 1007.95 365.53 751.76 0.00 733.17 682.70 936.92 855.29 794.29 726.92 348.60 543.80 1082.98 188.17 302.63 1092.79 611.15 308.38 524.19 768.25 311.64 183.45 767.86 918.00 407.25 187.10 96.21 424.33 1063.34 793.09 305.43 565.76 674.82 788.05 919.27 478.88 132.86 577.15 107.99 703.18 245.67 701.19 856.63 770.77 776.88 842.78 1040.77 915.86 1251.90 918.63
1495.26 1464.65 1098.70 104.99 733.17 0.00 978.66 488.91 587.92 699.91 1022.88 897.06 1136.12 1479.94 677.09 920.18 991.33 141.06 804.24 1116.20 621.55 949.75 821.56 556.52 579.35 503.14 772.83 768.75 560.50 768.98 63.66 444.68 927.22 542.47 1213.33 1308.45 542.03 866.03 854.69 801.03 1205.28 847.44 1088.55 123.46 1071.31 88.08 145.37 791.55 1114.56 1002.68 507.20
686.00 606.70 699.32 980.29 682.70 978.66 0.00 723.01 651.41 639.46 44.22 448.54 478.16 658.64 803.94 402.24 591.10 909.01 374.32 641.50 439.28 872.12 764.18 625.13 588.70 532.70 708.20 586.49 475.34 487.68 954.58 735.68 248.97 551.96 337.01 637.69 529.89 569.83 181.15 618.01 252.14 803.06 109.89 855.20 134.59 965.23 877.11 465.11 272.50 631.23 704.72
1276.00 1196.70 1168.99 500.10 936.92 488.91 723.01 0.00 132.46 323.24 755.13 953.96 1073.27 1151.27 1053.58 847.25 662.08 542.01 721.43 1119.66 292.88 1154.23 1057.56 241.21 134.31 601.82 957.84 840.71 545.54 487.28 464.83 824.81 587.86 340.78 985.13 1209.42 490.99 929.53 719.62 861.88 916.89 964.08 699.89 365.45 701.37 475.48 387.36 487.30 746.81 698.43 18.29
1144.57 1065.27 1113.75 605.17 855.29 587.92 651.41 132.46 0.00 190.78 660.15 938.33 1049.12 1140.30 967.35 718.53 529.62 528.16 737.99 990.94 304.07 1126.04 997.85 257.77 62.71 565.78 898.13 759.08 560.74 354.82 563.84 833.88 455.40 308.58 913.53 1175.31 571.13 874.29 592.83 875.41 864.38 992.99 664.28 464.46 629.77 574.49 486.37 354.84 696.03 565.97 114.17
1112.09 1032.79 922.97 717.16 794.29 699.91 639.46 323.24 190.78 0.00 666.06 880.98 997.80 1058.57 776.57 689.19 670.95 599.96 657.91 885.85 200.18 985.80 859.72 177.69 198.70 427.32 804.60 744.14 369.96 411.13 675.83 649.23 461.31 164.42 871.77 1116.72 418.01 683.51 598.74 686.30 847.44 899.46 630.44 576.45 588.01 686.48 598.36 395.96 605.00 607.09 304.95
667.60 588.30 655.10 1024.51 726.92 1022.88 44.22 755.13 660.15 666.06 0.00 492.76 522.38 663.33 848.16 446.46 572.70 899.63 418.54 679.85 483.50 916.34 808.40 591.22 632.92 560.80 752.42 630.71 503.44 486.83 998.80 779.90 204.75 571.94 315.89 616.57 503.13 614.05 209.25 662.23 231.02 847.28 91.49 899.42 90.37 1009.45 921.33 509.33 290.24 587.01 748.94
772.74 726.87 336.65 955.98 348.60 897.06 448.54 953.96 938.33 880.98 492.76 0.00 445.88 789.29 458.53 219.80 1039.64 852.33 271.64 282.54 752.34 518.03 447.67 731.94 927.00 506.21 458.55 359.94 517.52 882.86 960.72 633.00 631.75 725.52 705.22 570.67 462.97 215.74 494.32 281.20 620.35 408.98 558.43 1001.63 583.13 891.60 1002.98 905.43 721.04 995.90 945.03
550.82 471.52 346.82 1161.89 543.80 1136.12 478.16 1073.27 1049.12 997.80 522.38 445.88 0.00 546.55 731.97 435.75 875.13 1009.29 351.84 163.34 846.59 598.56 624.39 832.06 1027.12 632.98 685.72 564.01 627.84 909.00 1120.56 713.20 593.72 937.12 463.84 392.53 682.39 550.16 571.73 521.50 548.71 669.11 430.93 1120.34 569.80 1209.81 1098.43 931.57 645.60 1108.78 1054.98
154.33 75.03 828.60 1506.64 1082.98 1479.94 658.64 1151.27 1140.30 1058.57 663.33 789.29 546.55 0.00 1221.55 913.35 1008.12 1338.88 898.39 709.89 858.39 1145.11 1170.94 1044.24 1203.01 1060.22 1125.81 986.77 1002.86 970.06 1465.31 1259.75 754.20 985.91 442.47 218.62 1057.41 1005.03 708.67 1068.05 512.80 1183.41 571.84 1365.93 710.71 1475.96 1387.84 947.49 738.91 1132.25 1152.11
1205.00 1159.13 482.25 686.83 188.17 677.09 803.94 1053.58 967.35 776.57 848.16 458.53 731.97 1221.55 0.00 490.80 1279.23 625.34 429.62 665.73 760.70 272.66 144.47 909.84 975.27 566.44 95.74 284.38 530.38 1187.14 728.16 319.62 752.20 847.48 951.43 1002.93 584.93 242.79 754.39 294.43 866.56 170.35 889.36 800.55 938.53 751.21 817.49 1172.53 1025.35 1383.66 1054.42
844.25 838.32 400.22 928.14 302.63 920.18 402.24 847.25 718.53 689.19 446.46 219.80 435.75 913.35 490.80 0.00 939.51 813.19 161.31 272.41 554.37 614.27 486.08 641.53 781.24 436.88 486.16 373.48 457.36 762.37 969.47 522.67 411.95 681.89 485.42 786.10 506.27 356.22 274.52 287.47 400.55 538.55 458.30 929.81 536.83 897.72 907.90 784.94 672.97 996.07 832.70
998.77 948.08 1081.71 1008.58 1092.79 991.33 591.10 662.08 529.62 670.95 572.70 1039.64 875.13 1008.12 1279.23 939.51 0.00 1057.78 965.42 1038.47 686.26 1341.46 1213.27 568.93 592.33 882.89 1183.49 1130.51 883.89 259.82 967.25 1158.81 596.00 567.31 771.25 1056.02 829.34 1066.83 733.43 984.80 698.21 1278.35 481.21 867.87 617.89 977.90 889.78 281.53 418.02 268.03 643.79
1368.43 1374.89 976.68 188.05 611.15 141.06 909.01 542.01 528.16 599.96 899.63 852.33 1009.29 1338.88 625.34 813.19 1057.78 0.00 667.08 1025.84 480.49 844.11 715.92 546.07 590.87 376.31 721.08 648.63 433.67 882.98 204.72 305.72 800.00 608.01 1086.50 1350.26 484.00 744.01 727.86 662.07 1078.45 732.05 984.15 248.70 930.25 229.14 231.63 883.00 1130.12 1094.13 523.72
902.66 823.36 462.85 845.43 308.38 804.24 374.32 721.43 737.99 657.91 418.54 271.64 351.84 898.39 429.62 161.31 965.42 667.08 0.00 433.72 494.75 525.68 401.79 480.22 675.28 301.10 333.88 212.17 358.46 862.00 862.30 361.36 407.14 585.28 646.73 744.37 413.01 223.39 372.48 243.69 561.86 428.74 484.21 768.50 508.91 857.97 746.59 839.43 646.82 1005.55 703.14
714.16 634.86 183.48 1193.86 524.19 1116.20 641.50 1119.66 990.94 885.85 679.85 282.54 163.34 709.89 665.73 272.41 1038.47 1025.84 433.72 0.00 826.78 468.39 565.32 913.94 1053.65 649.53 600.63 560.79 706.89 1034.78 1179.86 795.08 684.36 954.30 617.57 555.87 745.51 422.94 546.93 504.97 604.37 505.77 594.27 1202.22 733.14 1170.13 1180.31 1057.35 808.94 1266.86 1105.11
1012.72 933.42 902.21 648.25 768.25 621.55 439.28 292.88 304.07 200.18 483.50 752.34 846.59 858.39 760.70 554.37 686.26 480.49 494.75 826.78 0.00 861.35 764.68 185.85 366.78 401.28 664.96 691.92 343.92 426.44 606.92 623.19 319.51 127.52 733.52 916.54 289.37 662.75 456.94 660.26 691.42 759.82 549.17 507.54 449.76 617.57 529.45 449.01 649.63 660.14 293.72
1149.38 1070.08 362.47 959.49 311.64 949.75 872.12 1154.23 1126.04 985.80 916.34 518.03 598.56 1145.11 272.66 614.27 1341.46 844.11 525.68 468.39 861.35 0.00 128.19 965.39 1120.98 715.95 227.91 399.13 662.55 1265.56 1000.82 592.28 814.43 923.49 1020.95 972.45 696.25 302.29 813.89 356.66 936.08 201.26 962.97 1072.43 911.77 1023.87 1075.74 1242.99 1111.64 1368.46 1155.07
1175.21 1095.91 381.84 831.30 183.45 821.56 764.18 1057.56 997.85 859.72 808.40 447.67 624.39 1170.94 144.47 486.08 1213.27 715.92 401.79 565.32 764.68 128.19 0.00 837.20 1002.91 590.70 99.72 279.66 534.36 1162.00 872.63 464.09 686.24 795.30 971.50 991.82 588.91 231.93 743.53 228.47 886.63 97.70 874.07 945.02 898.77 895.68 947.55 1139.43 1036.68 1240.27 1058.40
1198.57 1119.27 943.07 557.90 767.86 556.52 625.13 241.21 257.77 177.69 591.22 731.94 832.06 1044.24 909.84 641.53 568.93 546.07 480.22 913.94 185.85 965.39 837.20 0.00 195.06 360.61 814.10 677.43 398.31 584.72 523.87 636.53 505.36 105.06 863.28 1102.39 343.76 703.61 578.94 671.89 797.21 887.31 682.71 433.06 635.61 543.09 454.97 564.83 682.13 775.96 222.92
1207.28 1127.98 1058.15 564.64 918.00 579.35 588.70 134.31 62.71 198.70 632.92 927.00 1027.12 1203.01 975.27 781.24 592.33 590.87 675.28 1053.65 366.78 1120.98 1002.91 195.06 0.00 555.67 960.84 821.79 537.57 417.53 549.69 816.84 518.11 245.87 850.82 1151.50 508.42 818.69 585.31 812.70 801.67 1055.70 698.59 455.89 567.06 545.36 433.98 417.55 758.74 608.67 116.02
992.12 1034.96 694.13 544.33 407.25 503.14 532.70 601.82 565.78 427.32 560.80 506.21 632.98 1060.22 566.44 436.88 882.89 376.31 301.10 649.53 401.28 715.95 590.70 360.61 555.67 0.00 492.00 316.82 57.36 673.49 566.80 275.92 424.08 315.58 710.19 978.17 111.91 455.73 351.55 373.70 702.14 526.70 631.96 625.01 650.14 591.22 607.94 651.25 805.20 862.38 583.53
1109.26 1063.39 418.06 782.57 187.10 772.83 708.20 957.84 898.13 804.60 752.42 458.55 685.72 1125.81 95.74 486.16 1183.49 721.08 333.88 600.63 664.96 227.91 99.72 814.10 960.84 492.00 0.00 211.10 434.64 1091.40 823.90 415.36 656.46 751.74 971.58 907.19 489.19 280.72 706.36 198.69 886.71 94.86 794.40 882.06 842.79 846.95 903.97 1080.06 980.70 1291.19 958.68
991.04 911.74 377.31 745.05 96.21 768.75 586.49 840.71 759.08 744.14 630.71 359.94 564.01 986.77 284.38 373.48 1130.51 648.63 212.17 560.79 691.92 399.13 279.66 677.43 821.79 316.82 211.10 0.00 374.18 990.31 786.38 342.91 603.48 632.40 811.95 930.61 402.55 227.74 584.65 145.71 774.03 305.96 696.38 790.70 721.08 680.67 792.05 968.07 858.99 1179.20 822.42
1011.66 977.60 637.83 536.74 424.33 560.50 475.34 545.54 560.74 369.96 503.44 517.52 627.84 1002.86 530.38 457.36 883.89 433.67 358.46 706.89 343.92 662.55 534.36 398.31 537.57 57.36 434.64 374.18 0.00 667.99 578.07 279.27 415.33 317.10 652.83 920.81 54.55 398.37 294.19 316.34 691.58 529.50 574.60 643.06 593.81 601.12 621.15 645.42 747.84 856.55 536.61
1004.77 1033.44 908.66 873.97 1063.34 768.98 487.68 487.28 354.82 411.13 486.83 882.86 909.00 970.06 1187.14 762.37 259.82 882.98 862.00 1034.78 426.44 1265.56 1162.00 584.72 417.53 673.49 1091.40 990.31 667.99 0.00 832.64 947.26 685.97 553.96 645.94 946.62 613.44 1051.98 653.53 984.33 595.67 1064.30 552.81 819.28 456.51 857.06 841.19 22.57 597.87 233.70 468.99
1486.44 1440.57 1074.98 41.33 793.09 63.66 954.58 464.83 563.84 675.83 998.80 960.72 1120.56 1465.31 728.16 969.47 967.25 204.72 862.30 1179.86 606.92 1000.82 872.63 523.87 549.69 566.80 823.90 786.38 578.07 832.64 0.00 508.34 926.43 589.71 1230.90 1284.37 590.38 835.52 872.26 753.49 1206.72 898.51 1064.47 99.38 1056.68 105.71 115.71 855.21 1090.48 1066.34 483.12
1264.02 1184.72 670.96 493.77 305.43 444.68 735.68 824.81 833.88 649.23 779.90 633.00 713.20 1259.75 319.62 522.67 1158.81 305.72 361.36 795.08 623.19 592.28 464.09 636.53 816.84 275.92 415.36 342.91 279.27 947.26 508.34 0.00 694.60 591.50 932.10 1105.73 333.82 438.29 573.46 356.35 923.22 489.97 845.57 554.42 870.27 532.76 537.35 924.69 845.49 1135.82 815.88
758.47 679.17 766.57 952.07 565.76 927.22 248.97 587.86 455.40 461.31 204.75 631.75 593.72 754.20 752.20 411.95 596.00 800.00 407.14 684.36 319.51 814.43 686.24 505.36 518.11 424.08 656.46 603.48 415.33 685.97 926.43 694.60 0.00 447.03 505.55 719.91 421.75 539.80 137.43 457.77 435.77 751.32 296.24 827.05 267.15 937.08 848.96 663.40 467.02 723.22 569.57
1118.89 1060.94 888.32 631.04 674.82 542.47 551.96 340.78 308.58 164.42 571.94 725.52 937.12 985.91 847.48 681.89 567.31 608.01 585.28 954.30 127.52 923.49 795.30 105.06 245.87 315.58 751.74 632.40 317.10 553.96 589.71 591.50 447.03 0.00 861.04 1044.06 262.55 648.86 523.56 566.83 802.96 842.28 661.85 538.12 577.28 629.43 560.03 560.38 769.42 695.87 327.98
358.83 438.13 801.05 1189.57 788.05 1213.33 337.01 985.13 913.53 871.77 315.89 705.22 463.84 442.47 951.43 485.42 771.25 1086.50 646.73 617.57 733.52 1020.95 971.50 863.28 850.82 710.19 971.58 811.95 652.83 645.94 1230.90 932.10 505.55 861.04 0.00 300.68 707.38 841.64 518.16 772.89 84.87 1023.97 290.04 1192.21 283.76 1253.95 1214.12 668.51 361.22 762.28 966.84
202.07 156.20 609.98 1325.70 919.27 1308.45 637.69 1209.42 1175.31 1116.72 616.57 570.67 392.53 218.62 1002.93 786.10 1056.02 1350.26 744.37 555.87 916.54 972.45 991.82 1102.39 1151.50 978.17 907.19 930.61 920.81 946.62 1284.37 1105.73 719.91 1044.06 300.68 0.00 866.26 786.41 818.84 851.87 385.55 979.65 590.72 1184.99 584.44 1295.02 1206.90 969.19 661.90 1035.46 1210.26
1066.21 1004.13 678.00 591.29 478.88 542.03 529.89 490.99 571.13 418.01 503.13 462.97 682.39 1057.41 584.93 506.27 829.34 484.00 413.01 745.51 289.37 696.25 588.91 343.76 508.42 111.91 489.19 402.55 54.55 613.44 590.38 333.82 421.75 262.55 707.38 866.26 0.00 438.54 348.74 370.89 734.15 584.05 594.62 588.51 593.50 553.06 566.60 590.87 793.37 802.00 482.06
988.48 942.61 239.46 876.85 132.86 866.03 569.83 929.53 874.29 683.51 614.05 215.74 550.16 1005.03 242.79 356.22 1066.83 744.01 223.39 422.94 662.75 302.29 231.93 703.61 818.69 455.73 280.72 227.74 398.37 1051.98 835.52 438.29 539.80 648.86 841.64 786.41 438.54 0.00 511.60 82.03 756.77 280.83 667.38 909.11 704.42 908.41 887.20 1029.41 842.33 1201.06 920.60
762.71 683.41 629.14 830.93 577.15 854.69 181.15 719.62 592.83 598.74 209.25 494.32 571.73 708.67 754.39 274.52 733.43 727.86 372.48 546.93 456.94 813.89 743.53 578.94 585.31 351.55 706.36 584.65 294.19 653.53 872.26 573.46 137.43 523.56 518.16 818.84 348.74 511.60 0.00 561.99 433.29 792.43 280.41 937.25 299.62 895.31 915.34 630.96 453.65 796.26 701.33
1053.94 993.02 321.49 794.82 107.99 801.03 618.01 861.88 875.41 686.30 662.23 281.20 521.50 1068.05 294.43 287.47 984.80 662.07 243.69 504.97 660.26 356.66 228.47 671.89 812.70 373.70 198.69 145.71 316.34 984.33 753.49 356.35 457.77 566.83 772.89 851.87 370.89 82.03 561.99 0.00 688.02 293.55 727.90 827.08 724.92 826.38 805.17 961.76 890.51 1172.89 852.95
443.70 437.77 787.85 1183.20 703.18 1205.28 252.14 916.89 864.38 847.44 231.02 620.35 548.71 512.80 866.56 400.55 698.21 1078.45 561.86 604.37 691.42 936.08 886.63 797.21 801.67 702.14 886.71 774.03 691.58 595.67 1206.72 923.22 435.77 802.96 84.87 385.55 734.15 756.77 433.29 688.02 0.00 939.10 217.00 1107.34 279.56 1217.37 1129.25 618.24 427.10 818.03 898.60
1181.72 1108.38 478.72 857.18 245.67 847.44 803.06 964.08 992.99 899.46 847.28 408.98 669.11 1183.41 170.35 538.55 1278.35 732.05 428.74 505.77 759.82 201.26 97.70 887.31 1055.70 526.70 94.86 305.96 529.50 1064.30 898.51 489.97 751.32 842.28 1023.97 979.65 584.05 280.83 792.43 293.55 939.10 0.00 889.26 871.17 937.65 921.56 893.08 1041.73 1075.56 1252.86 982.37
576.11 496.81 600.50 1058.22 701.19 1088.55 109.89 699.89 664.28 630.44 91.49 558.43 430.93 571.84 889.36 458.30 481.21 984.15 484.21 594.27 549.17 962.97 874.07 682.71 698.59 631.96 794.40 696.38 574.60 552.81 1064.47 845.57 296.24 661.85 290.04 590.72 594.62 667.38 280.41 727.90 217.00 889.26 0.00 965.09 138.87 1075.12 987.00 530.24 214.67 678.50 681.60
1387.06 1341.19 1148.57 140.71 856.63 123.46 855.20 365.45 464.46 576.45 899.42 1001.63 1120.34 1365.93 800.55 929.81 867.87 248.70 768.50 1202.22 507.54 1072.43 945.02 433.06 455.89 625.01 882.06 790.70 643.06 819.28 99.38 554.42 827.05 538.12 1192.21 1184.99 588.51 909.11 937.25 827.08 1107.34 871.17 965.09 0.00 957.30 110.03 21.91 819.30 991.10 998.24 383.74
642.59 635.68 739.37 1098.01 770.77 1071.31 134.59 701.37 629.77 588.01 90.37 583.13 569.80 710.71 938.53 536.83 617.89 930.25 508.91 733.14 449.76 911.77 898.77 635.61 567.06 650.14 842.79 721.08 593.81 456.51 1056.68 870.27 267.15 577.28 283.76 584.44 593.50 704.42 299.62 724.92 279.56 937.65 138.87 957.30 0.00 1067.33 979.21 479.08 199.87 647.15 683.08
1497.09 1451.22 1057.98 64.38 776.88 88.08 965.23 475.48 574.49 686.48 1009.45 891.60 1209.81 1475.96 751.21 897.72 977.90 229.14 857.97 1170.13 617.57 1023.87 895.68 543.09 545.36 591.22 846.95 680.67 601.12 857.06 105.71 532.76 937.08 629.43 1253.95 1295.02 553.06 908.41 895.31 826.38 1217.37 921.56 1075.12 110.03 1067.33 0.00 111.38 879.63 1101.13 1087.71 493.77
1408.97 1363.10 1126.66 130.66 842.78 145.37 877.11 387.36 486.37 598.36 921.33 1002.98 1098.43 1387.84 817.49 907.90 889.78 231.63 746.59 1180.31 529.45 1075.74 947.55 454.97 433.98 607.94 903.97 792.05 621.15 841.19 115.71 537.35 848.96 560.03 1214.12 1206.90 566.60 887.20 915.34 805.17 1129.25 893.08 987.00 21.91 979.21 111.38 0.00 841.21 1013.01 976.33 405.65
1027.34 1022.52 931.23 896.54 1040.77 791.55 465.11 487.30 354.84 395.96 509.33 905.43 931.57 947.49 1172.53 784.94 281.53 883.00 839.43 1057.35 449.01 1242.99 1139.43 564.83 417.55 651.25 1080.06 968.07 645.42 22.57 855.21 924.69 663.40 560.38 668.51 969.19 590.87 1029.41 630.96 961.76 618.24 1041.73 530.24 819.30 479.08 879.63 841.21 0.00 575.30 211.13 469.01
720.05 711.48 815.17 1131.81 915.86 1114.56 272.50 746.81 696.03 605.00 290.24 721.04 645.60 738.91 1025.35 672.97 418.02 1130.12 646.82 808.94 649.63 1111.64 1036.68 682.13 758.74 805.20 980.70 858.99 747.84 597.87 1090.48 845.49 467.02 769.42 361.22 661.90 793.37 842.33 453.65 890.51 427.10 1075.56 214.67 991.10 199.87 1101.13 1013.01 575.30 0.00 574.15 765.10
1102.74 1146.34 1142.36 1106.99 1251.90 1002.68 631.23 698.43 565.97 607.09 587.01 995.90 1108.78 1132.25 1383.66 996.07 268.03 1094.13 1005.55 1266.86 660.14 1368.46 1240.27 775.96 608.67 862.38 1291.19 1179.20 856.55 233.70 1066.34 1135.82 723.22 695.87 762.28 1035.46 802.00 1201.06 796.26 1172.89 818.03 1252.86 678.50 998.24 647.15 1087.71 976.33 211.13 574.15 0.00 680.14
1257.71 1178.41 1160.06 518.39 918.63 507.20 704.72 18.29 114.17 304.95 748.94 945.03 1054.98 1152.11 1054.42 832.70 643.79 523.72 703.14 1105.11 293.72 1155.07 1058.40 222.92 116.02 583.53 958.68 822.42 536.61 468.99 483.12 815.88 569.57 327.98 966.84 1210.26 482.06 920.60 701.33 852.95 898.60 982.37 681.60 383.74 683.08 493.77 405.65 469.01 765.10 680.14 0.00
DEMAND_SECTION
1 0
2 68
3 80
4 96
5 77
6 85
7 68
8 50
9 75
10 84
11 90
12 92
13 97
14 50
15 62
16 90
17 4
18 2
19 3
20 7
21 9
22 5
23 9
24 7
25 3
26 1
27 8
28 6
29 6
30 3
31 6
32 7
33 4
34 3
35 5
36 1
37 3
38 8
39 5
40 8
41 7
42 2
43 10
44 8
45 1
46 6
47 5
48 6
49 5
50 8
51 1
DEPOT_SECTION
1
-1
EOF
