NAME: LDG50_1152_rain_50_0105
COMMENT: CVRP with travel times.  rootPos=1,custPos=1,demandType=5,avgRouteSizeIndex=2,weather=rain,lambda_cluster=1,lambda_random=4, T1=300,T2=700,beta=1, alpha(i,j) ~ U(0.8,1.2)
TYPE: CVRP
DIMENSION: 51
EDGE_WEIGHT_TYPE: EXPLICIT
EDGE_WEIGHT_FORMAT: FULL_MATRIX
CAPACITY: 541
NODE_COORD_SECTION
1 572 972
2 875 14
3 485 10
4 323 862
5 2 211
6 189 840
7 964 209
8 301 149
9 367 6
10 31 737
11 313 884
12 287 990
13 175 885
14 560 10
15 925 738
16 405 100
17 533 381
18 676 425
19 133 897
20 35 799
21 130 25
22 421 284
23 530 647
24 66 46
25 583 541
26 587 567
27 107 15
28 437 828
29 562 874
30 252 507
31 861 57
32 579 875
33 27 698
34 634 969
35 812 120
36 630 312
37 564 917
38 722 748
39 16 574
40 773 973
41 417 416
42 593 484
43 444 377
44 475 335
45 866 404
46 935 5
47 561 204
48 641 375
49 604 98
50 794 311
51 473 525
EDGE_WEIGHT_SECTION
0.00 1029.10 1008.63 317.29 1007.90 459.73 875.08 802.44 965.70 610.48 303.40 399.97 404.51 1005.81 484.54 907.69 644.30 636.62 432.57 520.49 1011.76 663.43 398.16 941.01 456.82 465.14 991.49 202.80 128.31 628.34 984.50 106.12 615.10 74.84 896.45 704.44 53.08 237.63 739.11 254.98 562.65 526.89 624.13 664.96 654.67 1022.72 814.48 629.99 893.59 778.89 432.23
1029.10 0.00 454.78 922.59 992.73 1085.93 259.79 612.83 573.19 1119.49 961.62 1066.08 1022.18 373.21 781.42 559.96 558.16 497.55 1079.65 1166.45 762.50 567.05 772.93 826.75 678.99 641.55 808.14 1035.63 1016.81 798.31 44.60 986.77 1071.84 1025.66 132.65 443.59 1039.81 791.47 1113.31 1041.77 661.10 621.14 602.46 550.72 458.50 100.77 409.27 464.35 311.03 367.23 697.75
1008.63 454.78 0.00 944.31 594.22 960.12 616.39 311.27 118.75 843.27 983.34 1087.80 1014.08 81.57 1010.83 126.50 438.29 508.36 984.87 888.75 391.97 345.20 708.52 431.22 621.29 616.55 380.74 917.18 927.75 627.93 410.18 928.73 794.14 1024.50 420.66 354.33 955.55 839.36 798.39 1089.66 471.54 531.88 431.93 380.19 599.12 511.29 286.41 433.52 194.75 563.17 576.40
317.29 922.59 944.31 0.00 743.53 164.87 971.28 847.59 920.12 383.24 39.03 143.49 214.44 954.25 726.49 817.81 593.64 647.95 241.83 361.05 943.31 617.85 345.71 938.61 462.51 482.55 957.01 114.49 282.67 435.71 967.19 284.28 334.11 350.93 991.45 716.60 264.21 479.58 441.72 513.60 571.65 567.22 512.38 564.12 850.61 1023.36 767.82 656.87 847.57 790.22 549.65
1007.90 992.73 594.22 743.53 0.00 699.83 1007.29 379.90 475.47 515.61 704.50 808.96 686.42 648.62 1127.27 543.16 509.97 681.35 705.69 561.09 259.12 518.94 647.72 195.08 733.20 712.05 213.48 858.02 976.01 516.90 948.13 1006.05 466.48 1020.11 860.08 697.81 954.82 880.36 436.73 1130.66 641.87 627.38 624.41 585.14 855.59 1039.16 668.24 618.62 710.59 818.51 729.55
459.73 1085.93 960.12 164.87 699.83 0.00 1127.25 876.39 841.37 282.48 156.33 234.57 63.75 1012.50 829.99 851.76 673.24 796.20 121.22 196.18 843.01 690.43 510.58 847.85 627.38 647.42 797.37 279.36 382.01 483.37 1041.33 387.78 233.35 493.37 1085.84 750.55 406.65 583.08 357.36 678.47 653.08 626.71 649.81 598.07 919.14 1142.44 848.21 781.89 881.52 938.47 549.16
875.08 259.79 616.39 971.28 1007.29 1127.25 0.00 783.42 673.41 1121.31 975.71 966.76 1063.50 543.80 738.41 670.57 497.32 331.05 1120.97 1090.62 873.11 635.08 633.29 939.19 516.49 553.93 918.75 869.13 798.97 806.56 215.19 787.57 1148.47 908.72 303.24 390.24 822.00 749.17 1107.01 948.78 603.63 500.54 594.46 542.72 220.41 316.30 486.58 411.73 421.64 188.78 593.91
802.44 612.83 311.27 847.59 379.90 876.39 783.42 0.00 302.37 733.06 808.56 913.02 831.50 392.84 984.20 184.77 372.35 540.50 867.44 680.21 209.32 273.28 574.15 305.44 518.21 551.14 254.96 814.41 783.40 411.88 568.23 802.40 761.21 818.31 480.18 405.34 749.36 750.89 726.88 1001.19 357.25 489.76 348.92 297.18 688.90 659.26 371.27 451.06 433.70 674.01 370.21
965.70 573.19 118.75 920.12 475.47 841.37 673.41 302.37 0.00 825.26 959.15 1063.61 905.12 200.32 1052.28 117.60 446.46 614.78 962.59 915.25 307.63 302.27 737.41 312.47 669.69 642.10 261.99 874.25 903.56 619.03 528.59 897.78 848.00 981.57 539.41 473.08 912.62 869.61 723.99 1079.29 440.59 563.87 407.74 371.29 609.01 629.70 319.98 525.34 262.16 484.63 533.47
610.48 1119.49 843.27 383.24 515.61 282.48 1121.31 733.06 825.26 0.00 379.02 426.45 269.07 918.06 966.25 822.61 667.69 796.69 238.75 89.99 695.85 680.00 602.02 700.69 664.12 626.68 650.21 497.73 664.49 321.18 1074.89 667.52 49.13 685.32 1107.46 772.17 629.34 719.34 173.14 865.46 535.79 692.06 574.53 619.69 977.80 1176.00 787.62 767.23 903.14 938.96 533.83
303.40 961.62 983.34 39.03 704.50 156.33 975.71 808.56 959.15 379.02 0.00 104.46 188.66 993.28 732.57 856.84 632.67 644.66 242.91 352.51 927.49 656.88 384.74 899.58 501.54 521.58 917.98 153.52 292.98 396.68 1006.22 303.36 373.14 337.04 1021.51 715.38 250.32 485.66 480.75 541.85 610.68 606.25 551.41 603.15 851.91 1062.39 783.90 636.19 886.60 786.93 588.68
399.97 1066.08 1087.80 143.49 808.96 234.57 966.76 913.02 1063.61 426.45 104.46 0.00 216.71 1095.36 797.13 961.30 683.17 703.97 196.10 336.46 1031.95 761.34 489.20 1004.04 518.53 481.09 1022.44 257.98 384.96 501.14 1078.04 354.92 431.07 433.61 989.99 743.31 346.89 550.22 555.08 638.42 626.98 565.76 655.87 707.61 849.15 1153.41 862.87 735.18 969.09 777.98 662.02
404.51 1022.18 1014.08 214.44 686.42 63.75 1063.50 831.50 905.12 269.07 188.66 216.71 0.00 1016.50 889.05 915.51 680.37 732.45 57.47 244.70 894.97 750.50 560.15 881.50 668.78 647.63 849.33 302.91 445.76 419.62 977.58 451.53 219.94 479.35 1065.63 740.51 411.69 642.14 343.95 659.49 589.33 562.96 645.03 661.82 957.86 1078.69 841.16 732.38 945.27 874.72 612.91
1005.81 373.21 81.57 954.25 648.62 1012.50 543.80 392.84 200.32 918.06 993.28 1095.36 1016.50 0.00 1008.55 208.07 416.90 483.58 1023.45 970.32 467.17 342.38 716.93 453.54 619.01 614.27 462.31 896.05 928.18 596.88 328.61 930.67 875.71 1021.68 339.09 352.05 952.73 837.08 879.96 1087.38 473.48 529.60 441.87 414.43 595.05 429.72 294.82 431.24 130.98 481.60 573.58
484.54 781.42 1010.83 726.49 1127.27 829.99 738.41 984.20 1052.28 966.25 732.57 797.13 889.05 1008.55 0.00 949.97 635.14 618.98 875.38 969.75 1133.79 750.01 479.55 1171.77 470.50 433.06 1179.43 612.00 472.25 826.64 826.02 442.21 1015.38 473.95 738.26 656.50 495.25 246.91 978.46 335.02 670.23 517.73 644.54 696.28 557.80 882.19 814.84 687.15 921.06 682.18 613.99
907.69 559.96 126.50 817.81 543.16 851.76 670.57 184.77 117.60 822.61 856.84 961.30 915.51 208.07 949.97 0.00 328.86 497.18 858.37 854.54 284.04 249.38 624.49 380.16 552.09 530.94 329.68 802.20 801.25 501.43 515.36 802.23 795.90 923.56 476.48 404.91 854.61 753.75 671.89 1004.05 345.04 446.27 305.43 253.69 645.58 529.76 202.38 407.74 248.93 596.02 475.46
644.30 558.16 438.29 593.64 509.97 673.24 497.32 372.35 446.46 667.69 632.67 683.17 680.37 416.90 635.14 328.86 0.00 171.38 696.91 738.77 551.31 167.53 338.92 647.43 223.23 202.08 596.95 479.15 515.99 346.51 513.56 546.03 676.74 651.32 510.17 187.84 591.22 424.89 661.51 675.19 131.90 117.41 126.91 75.17 345.62 614.67 314.01 108.65 285.92 308.54 224.29
636.62 497.55 508.36 647.95 681.35 796.20 331.05 540.50 614.78 796.69 644.66 703.97 732.45 483.58 618.98 497.18 171.38 0.00 789.92 759.57 722.69 338.91 302.24 799.31 185.44 222.88 762.18 538.08 560.54 475.51 452.95 530.50 818.12 652.31 376.85 154.03 583.54 418.12 775.96 668.42 303.28 169.49 288.70 246.55 225.41 517.70 294.80 89.44 443.04 142.27 262.86
432.57 1079.65 984.87 241.83 705.69 121.22 1120.97 867.44 962.59 238.75 242.91 196.10 57.47 1023.45 875.38 858.37 696.91 789.92 0.00 187.23 934.60 693.03 587.54 900.77 679.69 642.25 888.96 356.32 439.76 477.09 1035.05 433.17 277.41 507.41 1123.10 791.78 468.19 628.47 401.42 687.55 646.80 620.43 587.56 639.30 1000.33 1136.16 850.81 767.05 922.75 932.19 670.38
520.49 1166.45 888.75 361.05 561.09 196.18 1090.62 680.21 915.25 89.99 352.51 336.46 244.70 970.32 969.75 854.54 738.77 759.57 187.23 0.00 769.64 769.99 560.57 756.17 574.13 536.69 724.00 475.54 578.19 411.17 1121.85 583.96 94.61 595.33 1045.59 798.91 573.57 758.12 218.62 775.47 625.78 621.36 664.52 709.68 904.75 1094.79 877.61 790.78 978.10 901.84 623.82
1011.76 762.50 391.97 943.31 259.12 843.01 873.11 209.32 307.63 695.85 927.49 1031.95 894.97 467.17 1133.79 284.04 551.31 722.69 934.60 769.64 0.00 383.78 783.47 96.12 727.53 723.61 45.64 955.76 985.07 530.81 717.90 1011.72 675.03 1027.63 689.50 614.66 958.68 923.14 673.40 1173.44 566.57 662.78 489.25 476.14 858.47 813.80 486.42 659.96 451.47 792.26 579.53
663.43 567.05 345.20 617.85 518.94 690.43 635.08 273.28 302.27 680.00 656.88 761.34 750.50 342.38 750.01 249.38 167.53 338.91 693.03 769.99 383.78 0.00 435.14 479.90 377.27 339.83 429.42 571.98 601.29 358.82 527.72 631.33 717.37 679.30 476.81 244.84 610.35 567.34 673.82 817.56 195.85 279.00 105.47 92.36 513.15 628.83 157.78 276.18 321.62 476.07 231.20
398.16 772.93 708.52 345.71 647.72 510.58 633.29 574.15 737.41 602.02 384.74 489.20 560.15 716.93 479.55 624.49 338.92 302.24 587.54 560.57 783.47 435.14 0.00 842.80 116.80 136.84 829.11 425.97 328.29 398.53 733.79 358.33 552.89 372.39 645.74 383.76 345.08 232.64 676.90 482.94 329.18 221.51 371.20 414.09 504.90 808.40 422.11 349.05 585.95 444.51 203.94
941.01 826.75 431.22 938.61 195.08 847.85 939.19 305.44 312.47 700.69 899.58 1004.04 881.50 453.54 1171.77 380.16 647.43 799.31 900.77 756.17 96.12 479.90 842.80 0.00 823.65 819.73 50.48 1051.88 1069.32 626.93 782.15 1047.13 661.56 1015.85 785.62 658.63 994.09 1019.26 577.28 1195.99 598.77 758.90 585.37 572.26 921.48 883.26 582.54 709.87 517.55 797.10 675.65
456.82 678.99 621.29 462.51 733.20 627.38 516.49 518.21 669.69 664.12 501.54 518.53 668.78 619.01 470.50 552.09 223.23 185.44 679.69 574.13 727.53 377.27 116.80 823.65 0.00 37.44 773.17 422.16 380.74 360.65 634.39 350.70 668.74 466.87 546.34 266.96 403.74 232.68 590.52 482.98 274.61 105.82 271.80 298.40 405.50 691.60 413.97 232.25 509.15 327.71 148.00
465.14 641.55 616.55 482.55 712.05 647.42 553.93 551.14 642.10 626.68 521.58 481.09 647.63 614.27 433.06 530.94 202.08 222.88 642.25 536.69 723.61 339.83 136.84 819.73 37.44 0.00 769.25 425.25 418.18 393.58 596.95 388.14 631.30 461.70 508.90 262.22 441.18 227.51 627.96 477.73 237.17 84.67 234.36 277.25 368.06 698.06 381.78 254.09 488.00 365.15 180.93
991.49 808.14 380.74 957.01 213.48 797.37 918.75 254.96 261.99 650.21 917.98 1022.44 849.33 462.31 1179.43 329.68 596.95 762.18 888.96 724.00 45.64 429.42 829.11 50.48 773.17 769.25 0.00 1001.40 1030.71 576.45 763.54 1005.48 629.39 1066.33 735.14 608.15 1004.32 968.78 627.76 1219.08 548.29 708.42 534.89 521.78 871.00 859.44 532.06 687.34 497.11 746.62 625.17
202.80 1035.63 917.18 114.49 858.02 279.36 869.13 814.41 874.25 497.73 153.52 257.98 302.91 896.05 612.00 802.20 479.15 538.08 356.32 475.54 955.76 571.98 425.97 1051.88 422.16 425.25 1001.40 0.00 168.18 550.20 991.03 169.79 448.60 236.44 914.93 666.99 149.72 365.09 556.21 441.25 457.16 504.56 547.54 554.32 736.95 1055.78 708.99 587.80 765.07 680.35 528.87
128.31 1016.81 927.75 282.67 976.01 382.01 798.97 783.40 903.56 664.49 292.98 384.96 445.76 928.18 472.25 801.25 515.99 560.54 439.76 578.19 985.07 601.29 328.29 1069.32 380.74 418.18 1030.71 168.18 0.00 500.03 972.21 30.04 615.36 161.95 884.16 576.13 75.23 225.34 622.23 342.07 487.23 398.58 495.82 547.56 578.56 946.64 739.06 568.00 801.91 702.81 413.19
628.34 798.31 627.93 435.71 516.90 483.37 806.56 411.88 619.03 321.18 396.68 501.14 419.62 596.88 826.64 501.43 346.51 475.51 477.09 411.17 530.81 358.82 398.53 626.93 360.65 393.58 576.45 550.20 500.03 0.00 753.71 530.07 370.31 660.75 786.28 450.99 575.26 593.33 315.00 816.71 214.61 370.88 253.35 298.51 656.62 854.82 466.44 446.05 581.96 617.78 212.65
984.50 44.60 410.18 967.19 948.13 1041.33 215.19 568.23 528.59 1074.89 1006.22 1078.04 977.58 328.61 826.02 515.36 513.56 452.95 1035.05 1121.85 717.90 527.72 733.79 782.15 634.39 596.95 763.54 991.03 972.21 753.71 0.00 942.17 1027.24 981.06 88.05 398.99 995.21 746.87 1068.71 997.17 645.46 576.54 601.62 549.88 413.90 101.11 411.45 478.18 266.43 322.63 711.58
106.12 986.77 928.73 284.28 1006.05 387.78 787.57 802.40 897.78 667.52 303.36 354.92 451.53 930.67 442.21 802.23 546.03 530.50 433.17 583.96 1011.72 631.33 358.33 1047.13 350.70 388.14 1005.48 169.79 30.04 530.07 942.17 0.00 618.39 139.76 854.12 606.17 53.04 195.30 652.27 312.03 457.19 428.62 525.86 577.60 567.16 916.60 709.02 582.95 831.95 672.77 432.19
615.10 1071.84 794.14 334.11 466.48 233.35 1148.47 761.21 848.00 49.13 373.14 431.07 219.94 875.71 1015.38 795.90 676.74 818.12 277.41 94.61 675.03 717.37 552.89 661.56 668.74 631.30 629.39 448.60 615.36 370.31 1027.24 618.39 0.00 685.04 1115.29 814.14 598.32 768.47 124.01 847.71 544.84 715.97 611.90 663.64 999.36 1128.35 796.67 785.39 883.49 959.69 582.96
74.84 1025.66 1024.50 350.93 1020.11 493.37 908.72 818.31 981.57 685.32 337.04 433.61 479.35 1021.68 473.95 923.56 651.32 652.31 507.41 595.33 1027.63 679.30 372.39 1015.85 466.87 461.70 1066.33 236.44 161.95 660.75 981.06 139.76 685.04 0.00 893.01 719.22 86.72 234.19 784.18 271.21 578.52 541.67 657.77 680.83 688.31 1056.36 794.50 681.50 927.23 794.58 448.10
896.45 132.65 420.66 991.45 860.08 1085.84 303.24 480.18 539.41 1107.46 1021.51 989.99 1065.63 339.09 738.26 476.48 510.17 376.85 1123.10 1045.59 689.50 476.81 645.74 785.62 546.34 508.90 735.14 914.93 884.16 786.28 88.05 854.12 1115.29 893.01 0.00 335.29 907.16 658.82 1099.03 909.12 591.76 503.62 539.51 487.77 358.96 189.16 339.93 401.52 354.48 234.58 634.92
704.44 443.59 354.33 716.60 697.81 750.55 390.24 405.34 473.08 772.17 715.38 743.31 740.51 352.05 656.50 404.91 187.84 154.03 791.78 798.91 614.66 244.84 383.76 658.63 266.96 262.22 608.15 666.99 576.13 450.99 398.99 606.17 814.14 719.22 335.29 0.00 651.36 485.03 763.74 735.33 269.30 177.55 204.22 152.48 317.03 500.10 206.93 79.19 321.04 279.45 312.59
53.08 1039.81 955.55 264.21 954.82 406.65 822.00 749.36 912.62 629.34 250.32 346.89 411.69 952.73 495.25 854.61 591.22 583.54 468.19 573.57 958.68 610.35 345.08 994.09 403.74 441.18 1004.32 149.72 75.23 575.26 995.21 53.04 598.32 86.72 907.16 651.36 0.00 248.34 697.46 291.53 509.57 473.81 571.05 611.88 601.59 969.64 761.40 612.55 840.51 725.81 379.15
237.63 791.47 839.36 479.58 880.36 583.08 749.17 750.89 869.61 719.34 485.66 550.22 642.14 837.08 246.91 753.75 424.89 418.12 628.47 758.12 923.14 567.34 232.64 1019.26 232.68 227.51 968.78 365.09 225.34 593.33 746.87 195.30 768.47 234.19 658.82 485.03 248.34 0.00 731.55 250.30 464.68 307.48 461.87 500.06 595.57 847.98 609.29 464.93 710.81 560.39 380.68
739.11 1113.31 798.39 441.72 436.73 357.36 1107.01 726.88 723.99 173.14 480.75 555.08 343.95 879.96 978.46 671.89 661.51 775.96 401.42 218.62 673.40 673.82 676.90 577.28 590.52 627.96 627.76 556.21 622.23 315.00 1068.71 652.27 124.01 784.18 1099.03 763.74 697.46 731.55 0.00 955.32 529.61 630.66 568.35 611.26 971.62 1169.82 781.44 761.05 894.71 918.23 527.65
254.98 1041.77 1089.66 513.60 1130.66 678.47 948.78 1001.19 1079.29 865.46 541.85 638.42 659.49 1087.38 335.02 1004.05 675.19 668.42 687.55 775.47 1173.44 817.56 482.94 1195.99 482.98 477.73 1219.08 441.25 342.07 816.71 997.17 312.03 847.71 271.21 909.12 735.33 291.53 250.30 955.32 0.00 714.90 557.78 712.09 750.36 728.37 1098.28 859.51 715.23 961.11 810.69 630.98
562.65 661.10 471.54 571.65 641.87 653.08 603.63 357.25 440.59 535.79 610.68 626.98 589.33 473.48 670.23 345.04 131.90 303.28 646.80 625.78 566.57 195.85 329.18 598.77 274.61 237.17 548.29 457.16 487.23 214.61 645.46 457.19 544.84 578.52 591.76 269.30 509.57 464.68 529.61 714.90 0.00 242.90 90.38 142.12 477.52 734.20 251.83 240.55 415.67 414.85 130.42
526.89 621.14 531.88 567.22 627.38 626.71 500.54 489.76 563.87 692.06 606.25 565.76 562.96 529.60 517.73 446.27 117.41 169.49 620.43 621.36 662.78 279.00 221.51 758.90 105.82 84.67 708.42 504.56 398.58 370.88 576.54 428.62 715.97 541.67 503.62 177.55 473.81 307.48 630.66 557.78 242.90 0.00 243.13 192.58 394.90 677.65 374.78 169.42 403.33 311.76 158.23
624.13 602.46 431.93 512.38 624.41 649.81 594.46 348.92 407.74 574.53 551.41 655.87 645.03 441.87 644.54 305.43 126.91 288.70 587.56 664.52 489.25 105.47 371.20 585.37 271.80 234.36 534.89 547.54 495.82 253.35 601.62 525.86 611.90 657.77 539.51 204.22 571.05 461.87 568.35 712.09 90.38 243.13 0.00 51.74 437.10 643.82 263.25 199.26 335.19 422.21 220.80
664.96 550.72 380.19 564.12 585.14 598.07 542.72 297.18 371.29 619.69 603.15 707.61 661.82 414.43 696.28 253.69 75.17 246.55 639.30 709.68 476.14 92.36 414.09 572.26 298.40 277.25 521.78 554.32 547.56 298.51 549.88 577.60 663.64 680.83 487.77 152.48 611.88 500.06 611.26 750.36 142.12 192.58 51.74 0.00 420.79 592.08 250.14 183.82 283.45 383.71 232.73
654.67 458.50 599.12 850.61 855.59 919.14 220.41 688.90 609.01 977.80 851.91 849.15 957.86 595.05 557.80 645.58 345.62 225.41 1000.33 904.75 858.47 513.15 504.90 921.48 405.50 368.06 871.00 736.95 578.56 656.62 413.90 567.16 999.36 688.31 358.96 317.03 601.59 595.57 971.62 728.37 477.52 394.90 437.10 420.79 0.00 499.81 443.20 237.84 520.11 124.38 443.97
1022.72 100.77 511.29 1023.36 1039.16 1142.44 316.30 659.26 629.70 1176.00 1062.39 1153.41 1078.69 429.72 882.19 529.76 614.67 517.70 1136.16 1094.79 813.80 628.83 808.40 883.26 691.60 698.06 859.44 1055.78 946.64 854.82 101.11 916.60 1128.35 1056.36 189.16 500.10 969.64 847.98 1169.82 1098.28 734.20 677.65 643.82 592.08 499.81 0.00 510.04 522.75 367.54 375.43 756.15
814.48 409.27 286.41 767.82 668.24 848.21 486.58 371.27 319.98 787.62 783.90 862.87 841.16 294.82 814.84 202.38 314.01 294.80 850.81 877.61 486.42 157.78 422.11 582.54 413.97 381.78 532.06 708.99 739.06 466.44 411.45 709.02 796.67 794.50 339.93 206.93 761.40 609.29 781.44 859.51 251.83 374.78 263.25 250.14 443.20 510.04 0.00 205.36 163.84 428.31 382.25
629.99 464.35 433.52 656.87 618.62 781.89 411.73 451.06 525.34 767.23 636.19 735.18 732.38 431.24 687.15 407.74 108.65 89.44 767.05 790.78 659.96 276.18 349.05 709.87 232.25 254.09 687.34 587.80 568.00 446.05 478.18 582.95 785.39 681.50 401.52 79.19 612.55 464.93 761.05 715.23 240.55 169.42 199.26 183.82 237.84 522.75 205.36 0.00 369.20 222.95 233.40
893.59 311.03 194.75 847.57 710.59 881.52 421.64 433.70 262.16 903.14 886.60 969.09 945.27 130.98 921.06 248.93 285.92 443.04 922.75 978.10 451.47 321.62 585.95 517.55 509.15 488.00 497.11 765.07 801.91 581.96 266.43 831.95 883.49 927.23 354.48 321.04 840.51 710.81 894.71 961.11 415.67 403.33 335.19 283.45 520.11 367.54 163.84 369.20 0.00 395.73 510.21
778.89 367.23 563.17 790.22 818.51 938.47 188.78 674.01 484.63 938.96 786.93 777.98 874.72 481.60 682.18 596.02 308.54 142.27 932.19 901.84 792.26 476.07 444.51 797.10 327.71 365.15 746.62 680.35 702.81 617.78 322.63 672.77 959.69 794.58 234.58 279.45 725.81 560.39 918.23 810.69 414.85 311.76 422.21 383.71 124.38 375.43 428.31 222.95 395.73 0.00 405.13
432.23 697.75 576.40 549.65 729.55 549.16 593.91 370.21 533.47 533.83 588.68 662.02 612.91 573.58 613.99 475.46 224.29 262.86 670.38 623.82 579.53 231.20 203.94 675.65 148.00 180.93 625.17 528.87 413.19 212.65 711.58 432.19 582.96 448.10 634.92 312.59 379.15 380.68 527.65 630.98 130.42 158.23 220.80 232.73 443.97 756.15 382.25 233.40 510.21 405.13 0.00
DEMAND_SECTION
1 0
2 100
3 80
4 66
5 74
6 75
7 66
8 86
9 87
10 60
11 95
12 51
13 59
14 59
15 86
16 57
17 85
18 89
19 60
20 78
21 92
22 72
23 73
24 93
25 92
26 50
27 72
28 65
29 96
30 68
31 84
32 66
33 54
34 92
35 98
36 88
37 89
38 67
39 63
40 94
41 88
42 58
43 50
44 53
45 89
46 88
47 72
48 77
49 53
50 80
51 53
DEPOT_SECTION
1
-1
EOF
