NAME: LDG55_1314_rain_55_0117
COMMENT: CVRP with travel times.  rootPos=1,custPos=3,demandType=1,avgRouteSizeIndex=4,weather=rain,lambda_cluster=1,lambda_random=4, T1=300,T2=700,beta=1, alpha(i,j) ~ U(0.8,1.2)
TYPE: CVRP
DIMENSION: 56
EDGE_WEIGHT_TYPE: EXPLICIT
EDGE_WEIGHT_FORMAT: FULL_MATRIX
CAPACITY: 15
NODE_COORD_SECTION
1 975 537
2 311 883
3 789 874
4 868 787
5 783 779
6 971 723
7 931 15
8 670 395
9 123 730
10 157 47
11 784 452
12 137 163
13 216 57
14 196 25
15 208 651
16 255 463
17 730 773
18 570 497
19 480 712
20 465 643
21 830 813
22 218 649
23 704 964
24 275 915
25 224 656
26 612 87
27 98 322
28 417 731
29 656 738
30 146 358
31 9 127
32 911 570
33 176 309
34 17 601
35 751 54
36 863 323
37 214 659
38 831 747
39 603 526
40 809 453
41 210 662
42 678 438
43 594 225
44 388 93
45 597 855
46 640 425
47 170 88
48 553 984
49 505 613
50 626 975
51 360 55
52 890 773
53 803 502
54 941 513
55 157 999
56 786 249
EDGE_WEIGHT_SECTION
0.00 741.91 473.81 327.81 385.29 384.36 646.99 334.39 987.31 1032.39 286.59 888.38 1038.67 1021.37 855.54 801.65 464.36 429.80 667.83 595.61 411.54 852.25 555.59 809.90 844.96 677.40 1018.90 652.91 563.63 971.99 1046.42 108.29 899.10 1075.13 643.09 296.81 845.23 317.12 485.96 223.64 832.89 366.98 606.09 850.42 546.31 394.36 961.12 712.61 520.54 644.36 932.01 356.66 220.93 60.64 948.63 417.75
741.91 0.00 639.00 724.87 615.52 825.84 1133.92 730.62 271.36 897.06 799.07 891.67 970.56 899.20 320.88 514.31 591.11 596.72 331.91 393.23 672.76 306.82 488.82 67.99 289.54 1067.32 752.46 307.29 640.66 663.91 886.90 744.33 730.07 536.40 1084.25 915.63 315.84 683.69 651.41 787.07 327.44 733.55 919.64 806.40 449.79 670.65 891.85 383.39 468.30 400.05 897.86 762.37 733.41 802.55 264.43 858.91
473.81 639.00 0.00 146.00 187.34 317.33 937.37 514.81 827.59 1081.83 485.52 1059.27 951.37 1022.73 709.32 806.56 172.49 491.13 431.69 503.84 130.10 708.55 257.07 671.02 718.64 902.70 996.62 473.62 271.76 941.68 1192.31 386.45 897.67 944.92 893.99 656.62 699.01 177.62 550.83 532.90 686.67 522.81 725.38 912.87 189.21 499.10 1080.69 355.51 455.24 291.37 952.89 189.61 474.40 427.75 807.11 733.63
327.81 724.87 146.00 0.00 109.35 171.33 791.37 527.68 807.04 1131.93 361.44 1035.98 1097.37 1122.47 736.77 894.98 218.51 530.90 477.71 524.42 86.45 736.00 332.33 724.58 752.02 847.24 997.39 453.07 265.44 962.26 1194.02 291.98 930.54 972.37 801.39 517.92 726.46 85.02 494.70 406.77 714.12 523.85 788.31 958.89 335.21 550.50 1035.97 501.51 503.70 421.10 998.91 43.61 396.41 281.75 793.04 609.55
385.29 615.52 187.34 109.35 0.00 274.57 819.46 509.08 813.00 1078.47 352.72 982.79 1078.57 1019.37 651.60 823.47 109.16 427.80 368.36 415.07 57.24 675.85 222.98 652.20 682.94 813.63 933.29 471.40 208.43 852.91 1140.83 277.00 821.19 916.83 769.25 469.28 670.92 68.17 385.35 345.56 674.25 433.11 750.72 849.54 281.07 474.47 1027.25 392.76 403.98 311.75 889.56 146.85 287.06 360.01 683.69 600.83
384.36 825.84 317.33 171.33 274.57 0.00 838.99 482.11 952.65 1086.36 315.87 1106.41 1119.72 1077.81 820.88 964.59 353.64 591.11 596.58 689.64 255.52 820.11 493.41 883.74 836.13 864.13 1156.79 624.40 392.10 1119.71 1257.79 276.07 1041.46 1056.48 789.32 523.70 810.57 206.40 571.20 380.63 798.23 484.89 753.81 950.38 500.19 542.08 990.40 609.61 629.67 519.72 961.29 127.72 341.48 375.90 958.26 563.98
646.99 1133.92 937.37 791.37 819.46 838.99 0.00 605.35 1124.85 936.83 523.12 1083.01 969.95 955.34 987.64 1043.62 928.62 692.27 924.99 830.36 876.70 973.58 1042.44 1114.52 956.30 581.12 1059.36 941.09 884.51 998.78 1087.70 686.18 953.32 1229.71 176.71 350.18 983.80 826.44 662.35 500.87 994.20 563.47 546.62 740.92 963.10 545.38 1032.79 1024.80 883.99 1105.51 832.38 747.76 532.40 586.35 1310.96 275.01
334.39 730.62 514.81 527.68 509.08 482.11 605.35 0.00 669.13 783.68 166.24 726.31 782.99 798.43 542.11 511.83 492.99 206.86 507.57 435.12 547.80 517.86 682.26 662.63 535.14 449.02 684.51 496.29 393.72 637.60 884.35 298.20 564.71 788.10 462.73 381.69 542.19 453.38 176.94 231.00 539.74 75.97 271.70 643.74 544.13 59.97 746.78 605.96 398.58 631.77 713.56 532.06 222.02 273.75 859.07 330.34
987.31 271.36 827.59 807.04 813.00 952.65 1124.85 669.13 0.00 792.71 835.37 686.62 836.91 805.50 161.40 364.49 703.84 582.59 444.64 464.70 827.73 151.27 691.44 305.44 168.55 919.96 523.69 353.97 613.52 504.73 636.98 905.22 557.05 265.04 1040.22 983.11 142.08 851.08 626.33 832.42 154.42 689.37 796.35 745.32 638.38 609.16 718.09 654.75 466.77 602.67 836.78 824.93 835.42 926.67 408.83 849.84
1032.39 897.06 1081.83 1131.93 1078.47 1086.36 936.83 783.68 792.71 0.00 770.49 146.18 130.46 59.10 631.31 502.87 969.31 650.67 836.91 751.07 1095.12 655.56 1221.16 940.37 662.65 618.66 324.46 831.31 979.14 313.23 206.47 1018.64 307.78 573.09 857.91 817.47 650.63 1116.55 710.37 835.25 653.96 707.71 665.74 293.70 1065.70 784.80 95.96 1192.55 826.14 1146.00 290.32 1168.79 811.46 973.92 1033.81 661.82
286.59 799.07 485.52 361.44 352.72 315.87 523.12 166.24 835.37 770.49 0.00 790.54 803.85 761.94 704.17 649.17 461.88 275.24 574.01 407.15 409.96 684.10 575.70 828.87 701.38 548.26 840.92 517.88 417.77 803.84 941.92 272.84 725.59 920.57 473.45 215.45 708.43 397.55 255.33 64.76 705.98 169.02 437.94 634.51 496.36 226.21 674.53 644.80 466.96 664.47 645.42 405.05 65.66 264.41 897.74 248.11
888.38 891.67 1059.27 1035.98 982.79 1106.41 1083.01 726.31 686.62 146.18 790.54 0.00 150.29 179.62 586.88 434.98 889.03 639.05 743.21 679.35 949.53 586.11 1140.88 866.31 602.13 534.70 178.28 722.60 855.90 241.51 158.04 927.57 161.60 559.99 939.11 935.79 576.57 1036.27 698.75 790.02 564.23 718.17 712.02 379.32 993.98 666.34 116.01 1102.02 754.42 1074.28 364.05 1079.59 848.52 827.74 1020.71 808.00
1038.67 970.56 951.37 1097.37 1078.57 1119.72 969.95 782.99 836.91 130.46 803.85 150.29 0.00 71.36 724.65 536.23 969.41 662.93 893.50 824.16 1081.47 729.66 1208.44 995.07 732.83 503.93 328.57 872.89 1006.19 386.32 308.33 1065.70 311.89 703.55 793.24 947.93 705.33 1116.65 722.63 868.61 714.52 838.17 601.07 229.03 1079.23 809.82 129.32 1199.94 774.27 1185.63 268.16 1140.98 858.52 978.03 1078.21 792.28
1021.37 899.20 1022.73 1122.47 1019.37 1077.81 955.34 798.43 805.50 59.10 761.94 179.62 71.36 0.00 682.74 469.67 910.21 591.57 868.09 782.25 1036.02 682.89 1162.06 953.16 690.92 575.29 357.90 862.49 970.59 344.41 246.97 1034.78 319.95 632.19 798.81 876.57 663.42 1057.45 651.27 826.70 675.76 766.81 606.64 234.60 1082.12 738.46 87.41 1143.44 783.29 1143.72 272.18 1123.50 827.60 960.73 1092.91 720.92
855.54 320.88 709.32 736.77 651.60 820.88 987.64 542.11 161.40 631.31 704.17 586.88 724.65 682.74 0.00 237.47 542.44 428.93 283.24 337.89 689.30 24.25 692.21 309.06 31.34 792.94 431.58 324.30 490.76 363.72 582.11 768.01 425.28 265.23 880.68 856.09 19.32 689.68 488.63 705.40 22.65 562.35 661.60 618.30 560.77 482.14 595.33 700.29 335.00 719.89 709.76 693.16 708.40 794.90 505.50 712.63
801.65 514.31 806.56 894.98 823.47 964.59 1043.62 511.83 364.49 502.87 649.17 434.98 536.23 469.67 237.47 0.00 714.31 596.32 455.11 526.86 861.17 213.22 781.59 527.29 230.50 741.49 277.13 488.85 629.54 291.41 469.14 693.36 371.32 432.64 866.91 792.28 237.55 861.55 542.38 681.61 235.10 480.15 564.17 612.03 617.35 560.36 406.91 783.65 547.45 787.70 696.41 905.61 623.11 785.58 718.70 799.64
464.36 591.11 172.49 218.51 109.16 353.64 928.62 492.99 703.84 969.31 461.88 889.03 969.41 910.21 542.44 714.31 0.00 318.64 259.20 412.60 146.86 566.69 251.85 543.04 573.78 789.24 824.13 362.24 99.27 782.88 1047.07 356.07 793.57 807.67 863.61 578.44 561.76 147.24 378.34 454.72 565.09 484.87 641.56 740.38 171.91 465.53 982.45 283.60 337.53 265.54 780.40 225.92 396.22 455.90 725.20 709.99
429.80 596.72 491.13 530.90 427.80 591.11 692.27 206.86 582.59 650.67 275.24 639.05 662.93 591.57 428.93 596.32 318.64 0.00 375.32 266.79 444.45 453.18 570.49 619.93 460.27 470.60 597.25 289.43 417.91 557.36 797.09 468.99 477.45 645.33 606.10 462.43 448.25 465.88 59.70 311.74 451.58 227.10 322.92 629.57 490.55 146.89 678.98 602.24 191.72 584.18 721.03 531.93 340.90 369.16 669.29 417.26
667.83 331.91 431.69 477.71 368.36 596.58 924.99 507.57 444.64 836.91 574.01 743.21 893.50 868.09 283.24 455.11 259.20 375.32 0.00 169.15 406.06 307.49 511.05 399.90 314.58 752.18 564.93 103.04 313.20 523.68 814.53 615.27 603.59 548.47 835.59 684.17 302.56 406.44 330.63 533.48 305.89 509.68 698.24 889.37 387.45 447.60 780.68 476.15 183.60 447.81 820.31 485.12 586.12 643.50 466.00 649.98
595.61 393.23 503.84 524.42 415.07 689.64 830.36 435.12 464.70 751.07 407.15 679.35 824.16 782.25 337.89 526.86 412.60 266.79 169.15 0.00 472.31 313.64 478.87 461.22 330.92 737.39 577.72 110.73 313.33 437.84 790.51 516.45 517.75 583.88 778.62 599.19 337.97 483.24 258.18 471.91 335.52 391.86 570.56 803.53 314.63 375.15 694.84 480.93 75.07 394.93 723.11 561.92 416.97 534.97 490.59 645.52
411.54 672.76 130.10 86.45 57.24 255.52 876.70 547.80 827.73 1095.12 409.96 949.53 1081.47 1036.02 689.30 861.17 146.86 444.45 406.06 472.31 0.00 709.98 280.22 638.13 713.15 856.64 970.99 509.10 246.13 910.15 1107.57 303.25 878.43 931.56 810.79 526.52 685.65 94.42 442.59 402.80 697.99 490.35 767.37 887.24 291.94 531.71 1052.37 430.46 461.22 353.84 927.26 130.06 344.30 368.20 740.93 658.07
852.25 306.82 708.55 736.00 675.85 820.11 973.58 517.86 151.27 655.56 684.10 586.11 729.66 682.89 24.25 213.22 566.69 453.18 307.49 313.64 709.98 0.00 667.96 314.07 17.28 768.69 455.83 318.08 495.77 357.09 581.34 753.95 424.51 270.24 888.95 831.84 24.33 713.93 508.58 681.15 21.88 538.10 663.81 594.05 546.71 457.89 600.34 690.21 334.23 705.83 685.51 692.39 684.15 791.61 505.48 698.57
555.59 488.82 257.07 332.33 222.98 493.41 1042.44 682.26 691.44 1221.16 575.70 1140.88 1208.44 1162.06 692.21 781.59 251.85 570.49 511.05 478.87 280.22 667.96 0.00 556.81 685.24 1016.76 992.97 448.65 288.54 916.71 1167.34 499.98 982.84 938.20 992.23 692.26 692.29 291.15 608.33 568.54 689.84 632.40 844.12 992.23 164.24 697.45 1145.08 227.60 526.80 88.77 1032.25 365.69 510.04 549.52 753.25 823.81
809.90 67.99 671.02 724.58 652.20 883.74 1114.52 662.63 305.44 940.37 828.87 866.31 995.07 953.16 309.06 527.29 543.04 619.93 399.90 461.22 638.13 314.07 556.81 0.00 317.24 1082.76 693.46 362.09 642.31 671.16 861.54 812.32 704.71 535.65 1069.63 983.62 289.74 690.28 591.31 841.87 302.08 682.87 928.93 874.39 481.81 602.66 865.75 451.38 477.87 468.04 965.85 768.19 801.40 870.54 196.44 873.03
844.96 289.54 718.64 752.02 682.94 836.13 956.30 535.14 168.55 662.65 701.38 602.13 732.83 690.92 31.34 230.50 573.78 460.27 314.58 330.92 713.15 17.28 685.24 317.24 0.00 785.97 462.92 300.80 498.94 374.37 597.36 736.67 440.53 273.41 906.23 836.94 27.50 700.52 511.75 698.43 37.90 555.38 679.83 611.33 529.43 475.17 603.51 672.93 350.25 688.55 702.79 708.41 701.43 808.89 513.68 681.29
677.40 1067.32 902.70 847.24 813.63 864.13 581.12 449.02 919.96 618.66 548.26 534.70 503.93 575.29 792.94 741.49 789.24 470.60 752.18 737.39 856.64 768.69 1016.76 1082.76 785.97 0.00 682.24 760.03 837.99 711.57 692.74 716.59 696.30 924.86 404.41 468.23 793.02 762.22 523.24 490.89 790.57 499.27 177.32 419.80 852.52 508.99 617.84 1018.82 662.32 1022.87 328.34 840.90 549.39 616.76 1139.89 312.58
1018.90 752.46 996.62 997.39 933.29 1156.79 1059.36 684.51 523.69 324.46 840.92 178.28 328.57 357.90 431.58 277.13 824.13 597.25 564.93 577.72 970.99 455.83 992.97 693.46 462.92 682.24 0.00 544.32 814.10 139.88 249.60 969.02 119.80 381.71 882.65 941.01 450.90 971.37 585.59 865.31 454.23 676.37 569.87 505.57 828.73 624.54 294.29 923.74 652.79 972.65 455.41 1041.00 821.40 958.26 842.43 841.48
652.91 307.29 473.62 453.07 471.40 624.40 941.09 496.29 353.97 831.31 517.88 722.60 872.89 862.49 324.30 488.85 362.24 289.43 103.04 110.73 509.10 318.08 448.65 362.09 300.80 760.03 544.32 0.00 338.21 518.08 793.92 627.18 597.99 550.89 813.02 630.47 304.98 509.48 349.13 479.78 317.32 426.26 612.35 808.73 284.41 436.32 775.08 450.71 185.80 454.76 717.27 496.68 517.06 645.70 379.86 706.69
563.63 640.66 271.76 265.44 208.43 392.10 884.51 393.72 613.52 979.14 417.77 855.90 1006.19 970.59 490.76 629.54 99.27 417.91 313.20 313.33 246.13 495.77 288.54 642.31 498.94 837.99 814.10 338.21 0.00 751.17 1013.94 455.34 694.30 717.35 772.36 534.33 471.44 246.51 369.27 410.61 483.78 385.60 660.67 839.65 210.57 419.66 883.18 297.43 238.26 352.30 879.67 309.05 352.11 547.19 718.07 665.88
971.99 663.91 941.68 962.26 852.91 1119.71 998.78 637.60 504.73 313.23 803.84 241.51 386.32 344.41 363.72 291.41 782.88 557.36 523.68 437.84 910.15 357.09 916.71 671.16 374.37 711.57 139.88 518.08 751.17 0.00 389.48 929.13 79.91 359.21 822.07 937.72 381.42 921.08 617.06 840.61 378.97 636.48 566.58 365.69 752.47 577.63 257.00 918.77 512.91 832.77 457.15 999.76 782.53 911.35 819.93 838.19
1046.42 886.90 1192.31 1194.02 1140.83 1257.79 1087.70 884.35 636.98 206.47 941.92 158.04 308.33 246.97 582.11 469.14 1047.07 797.09 814.53 790.51 1107.57 581.34 1167.34 861.54 597.36 692.74 249.60 793.92 1013.94 389.48 0.00 1085.61 319.64 631.31 910.99 1023.94 571.80 1194.31 835.19 948.06 559.46 876.21 819.47 481.57 1003.10 824.38 267.39 1072.96 865.58 1173.45 496.79 1229.97 984.10 985.78 1045.81 868.29
108.29 744.33 386.45 291.98 277.00 276.07 686.18 298.20 905.22 1018.64 272.84 927.57 1065.70 1034.78 768.01 693.36 356.07 468.99 615.27 516.45 303.25 753.95 499.98 812.32 736.67 716.59 969.02 627.18 455.34 929.13 1085.61 0.00 849.22 1010.08 617.16 336.00 764.17 208.83 475.14 265.68 753.73 351.45 569.90 836.67 527.98 358.17 947.37 639.67 441.38 588.75 918.26 248.37 207.18 99.83 960.69 456.94
899.10 730.07 897.67 930.54 821.19 1041.46 953.32 564.71 557.05 307.78 725.59 161.60 311.89 319.95 425.28 371.32 793.57 477.45 603.59 517.75 878.43 424.51 982.84 704.71 440.53 696.30 119.80 597.99 694.30 79.91 319.64 849.22 0.00 439.12 901.98 868.70 414.97 889.36 537.15 760.70 402.63 556.57 646.49 439.95 832.38 504.74 232.54 991.73 592.82 912.68 522.04 968.04 702.62 838.46 899.84 775.11
1075.13 536.40 944.92 972.37 916.83 1056.48 1229.71 788.10 265.04 573.09 920.57 559.99 703.55 632.19 265.23 432.64 807.67 645.33 548.47 583.88 931.56 270.24 938.20 535.65 273.41 924.86 381.71 550.89 717.35 359.21 631.31 1010.08 439.12 0.00 1145.91 1031.98 245.91 954.91 705.03 881.29 258.25 806.18 747.54 724.90 802.84 728.13 616.21 919.79 570.60 867.71 676.56 928.76 885.84 1014.49 460.72 954.70
643.09 1084.25 893.99 801.39 769.25 789.32 176.71 462.73 1040.22 857.91 473.45 939.11 793.24 798.81 880.68 866.91 863.61 606.10 835.59 778.62 810.79 888.95 992.23 1069.63 906.23 404.41 882.65 813.02 772.36 822.07 910.99 617.16 901.98 1145.91 0.00 364.00 900.00 716.37 546.40 423.69 903.33 386.76 496.95 564.21 854.92 466.97 886.22 975.13 797.82 942.56 655.67 766.21 482.19 582.45 1192.88 225.34
296.81 915.63 656.62 517.92 469.28 523.70 350.18 381.69 983.11 817.47 215.45 935.79 947.93 876.57 856.09 792.28 578.44 462.43 684.17 599.19 526.52 831.84 692.26 983.62 836.94 468.23 941.01 630.47 534.33 937.72 1023.94 336.00 868.70 1031.98 364.00 0.00 856.17 511.83 430.41 150.69 853.72 312.13 371.14 743.18 612.92 385.39 872.48 761.36 654.15 781.03 744.04 539.55 182.22 236.17 1010.33 155.65
845.23 315.84 699.01 726.46 670.92 810.57 983.80 542.19 142.08 650.63 708.43 576.57 705.33 663.42 19.32 237.55 561.76 448.25 302.56 337.97 685.65 24.33 692.29 289.74 27.50 793.02 450.90 304.98 471.44 381.42 571.80 764.17 414.97 245.91 900.00 856.17 0.00 709.00 484.25 705.48 12.34 562.43 654.27 618.38 556.93 482.22 576.01 680.97 324.69 715.89 709.84 682.85 708.48 784.59 486.18 708.79
317.12 683.69 177.62 85.02 68.17 206.40 826.44 453.38 851.08 1116.55 397.55 1036.27 1116.65 1057.45 689.68 861.55 147.24 465.88 406.44 483.24 94.42 713.93 291.15 690.28 700.52 762.22 971.37 509.48 246.51 921.08 1194.31 208.83 889.36 954.91 716.37 511.83 709.00 0.00 453.52 361.14 712.33 477.94 725.08 887.62 319.15 465.48 1072.08 430.84 423.27 379.92 927.64 78.68 331.89 308.66 751.86 621.21
485.96 651.41 550.83 494.70 385.35 571.20 662.35 176.94 626.33 710.37 255.33 698.75 722.63 651.27 488.63 542.38 378.34 59.70 330.63 258.18 442.59 508.58 608.33 591.31 511.75 523.24 585.59 349.13 369.27 617.06 835.19 475.14 537.15 705.03 546.40 430.41 484.25 453.52 0.00 279.72 489.45 179.05 382.62 689.27 466.68 116.97 738.68 632.98 251.42 637.03 780.73 472.23 281.77 425.32 728.99 387.34
223.64 787.07 532.90 406.77 345.56 380.63 500.87 231.00 832.42 835.25 64.76 790.02 868.61 826.70 705.40 681.61 454.72 311.74 533.48 471.91 402.80 681.15 568.54 841.87 698.43 490.89 865.31 479.78 410.61 840.61 948.06 265.68 760.70 881.29 423.69 150.69 705.48 361.14 279.72 0.00 703.03 204.13 469.18 687.99 489.20 276.45 739.29 637.64 503.46 657.31 710.18 415.83 58.50 199.65 859.64 260.07
832.89 327.44 686.67 714.12 674.25 798.23 994.20 539.74 154.42 653.96 705.98 564.23 714.52 675.76 22.65 235.10 565.09 451.58 305.89 335.52 697.99 21.88 689.84 302.08 37.90 790.57 454.23 317.32 483.78 378.97 559.46 753.73 402.63 258.25 903.33 853.72 12.34 712.33 489.45 703.03 0.00 559.98 641.93 615.93 567.33 479.77 588.35 693.31 312.35 726.45 707.39 670.51 706.03 772.25 498.52 719.19
366.98 733.55 522.81 523.85 433.11 484.89 563.47 75.97 689.37 707.71 169.02 718.17 838.17 766.81 562.35 480.15 484.87 227.10 509.68 391.86 490.35 538.10 632.40 682.87 555.38 499.27 676.37 426.26 385.60 636.48 876.21 351.45 556.57 806.18 386.76 312.13 562.43 477.94 179.05 204.13 559.98 0.00 321.95 693.99 468.16 80.21 772.25 634.46 418.82 555.80 642.83 480.24 146.05 349.72 806.12 319.49
606.09 919.64 725.38 788.31 750.72 753.81 546.62 271.70 796.35 665.74 437.94 712.02 601.07 606.64 661.60 564.17 641.56 322.92 698.24 570.56 767.37 663.81 844.12 928.93 679.83 177.32 569.87 612.35 660.67 566.58 819.47 569.90 646.49 747.54 496.95 371.14 654.27 725.08 382.62 469.18 641.93 321.95 0.00 372.04 790.11 331.67 679.34 877.66 514.64 877.75 441.86 744.70 468.00 545.45 992.21 271.61
850.42 806.40 912.87 958.89 849.54 950.38 740.92 643.74 745.32 293.70 634.51 379.32 229.03 234.60 618.30 612.03 740.38 629.57 889.37 803.53 887.24 594.05 992.23 874.39 611.33 419.80 505.57 808.73 839.65 365.69 481.57 836.67 439.95 724.90 564.21 743.18 618.38 887.62 689.27 687.99 615.93 693.99 372.04 0.00 912.29 694.43 322.01 1023.98 739.50 1005.92 91.46 966.30 629.49 843.32 1070.83 643.65
546.31 449.79 189.21 335.21 281.07 500.19 963.10 544.13 638.38 1065.70 496.36 993.98 1079.23 1082.12 560.77 617.35 171.91 490.55 387.45 314.63 291.94 546.71 164.24 481.81 529.43 852.52 828.73 284.41 210.57 752.47 1003.10 527.98 832.38 802.84 854.92 612.92 556.93 319.15 466.68 489.20 567.33 468.16 790.11 912.29 0.00 548.37 1009.47 166.30 389.70 170.35 909.39 372.47 430.70 606.95 617.90 744.47
394.36 670.65 499.10 550.50 474.47 542.08 545.38 59.97 609.16 784.80 226.21 666.34 809.82 738.46 482.14 560.36 465.53 146.89 447.60 375.15 531.71 457.89 697.45 602.66 475.17 508.99 624.54 436.32 419.66 577.63 824.38 358.17 504.74 728.13 466.97 385.39 482.22 465.48 116.97 276.45 479.77 80.21 331.67 694.43 548.37 0.00 692.04 665.93 338.61 636.01 723.04 544.16 226.26 333.72 799.10 270.37
961.12 891.85 1080.69 1035.97 1027.25 990.40 1032.79 746.78 718.09 95.96 674.53 116.01 129.32 87.41 595.33 406.91 982.45 678.98 780.68 694.84 1052.37 600.34 1145.08 865.75 603.51 617.84 294.29 775.08 883.18 257.00 267.39 947.37 232.54 616.21 886.22 872.48 576.01 1072.08 738.68 739.29 588.35 772.25 679.34 322.01 1009.47 692.04 0.00 1096.59 764.68 1056.31 289.50 1079.58 740.19 938.94 1062.19 757.78
712.61 383.39 355.51 501.51 392.76 609.61 1024.80 605.96 654.75 1192.55 644.80 1102.02 1199.94 1143.44 700.29 783.65 283.60 602.24 476.15 480.93 430.46 690.21 227.60 451.38 672.93 1018.82 923.74 450.71 297.43 918.77 1072.96 639.67 991.73 919.79 975.13 761.36 680.97 430.84 632.98 637.64 693.31 634.46 877.66 1023.98 166.30 665.93 1096.59 0.00 535.69 138.83 1064.00 509.52 579.14 739.50 647.82 749.79
520.54 468.30 455.24 503.70 403.98 629.67 883.99 398.58 466.77 826.14 466.96 754.42 774.27 783.29 335.00 547.45 337.53 191.72 183.60 75.07 461.22 334.23 526.80 477.87 350.25 662.32 652.79 185.80 238.26 512.91 865.58 441.38 592.82 570.60 797.82 654.15 324.69 423.27 251.42 503.46 312.35 418.82 514.64 739.50 389.70 338.61 764.68 535.69 0.00 470.00 648.04 501.95 492.04 459.90 521.66 608.98
644.36 400.05 291.37 421.10 311.75 519.72 1105.51 631.77 602.67 1146.00 664.47 1074.28 1185.63 1143.72 719.89 787.70 265.54 584.18 447.81 394.93 353.84 705.83 88.77 468.04 688.55 1022.87 972.65 454.76 352.30 832.77 1173.45 588.75 912.68 867.71 942.56 781.03 715.89 379.92 637.03 657.31 726.45 555.80 877.75 1005.92 170.35 636.01 1056.31 138.83 470.00 0.00 1045.94 454.46 598.81 638.29 664.48 875.29
932.01 897.86 952.89 998.91 889.56 961.29 832.38 713.56 836.78 290.32 645.42 364.05 268.16 272.18 709.76 696.41 780.40 721.03 820.31 723.11 927.26 685.51 1032.25 965.85 702.79 328.34 455.41 717.27 879.67 457.15 496.79 918.26 522.04 676.56 655.67 744.04 709.84 927.64 780.73 710.18 707.39 642.83 441.86 91.46 909.39 723.04 289.50 1064.00 648.04 1045.94 0.00 1006.32 711.08 909.83 1097.13 588.39
356.66 762.37 189.61 43.61 146.85 127.72 747.76 532.06 824.93 1168.79 405.05 1079.59 1140.98 1123.50 693.16 905.61 225.92 531.93 485.12 561.92 130.06 692.39 365.69 768.19 708.41 840.90 1041.00 496.68 309.05 999.76 1229.97 248.37 968.04 928.76 766.21 539.55 682.85 78.68 472.23 415.83 670.51 480.24 744.70 966.30 372.47 544.16 1079.58 509.52 501.95 454.46 1006.32 0.00 357.33 325.36 830.54 653.16
220.93 733.41 474.40 396.41 287.06 341.48 532.40 222.02 835.42 811.46 65.66 848.52 858.52 827.60 708.40 623.11 396.22 340.90 586.12 416.97 344.30 684.15 510.04 801.40 701.43 549.39 821.40 517.06 352.11 782.53 984.10 207.18 702.62 885.84 482.19 182.22 708.48 331.89 281.77 58.50 706.03 146.05 468.00 629.49 430.70 226.26 740.19 579.14 492.04 598.81 711.08 357.33 0.00 213.83 896.92 313.77
60.64 802.55 427.75 281.75 360.01 375.90 586.35 273.75 926.67 973.92 264.41 827.74 978.03 960.73 794.90 785.58 455.90 369.16 643.50 534.97 368.20 791.61 549.52 870.54 808.89 616.76 958.26 645.70 547.19 911.35 985.78 99.83 838.46 1014.49 582.45 236.17 784.59 308.66 425.32 199.65 772.25 349.72 545.45 843.32 606.95 333.72 938.94 739.50 459.90 638.29 909.83 325.36 213.83 0.00 981.56 357.11
948.63 264.43 807.11 793.04 683.69 958.26 1310.96 859.07 408.83 1033.81 897.74 1020.71 1078.21 1092.91 505.50 718.70 725.20 669.29 466.00 490.59 740.93 505.48 753.25 196.44 513.68 1139.89 842.43 379.86 718.07 819.93 1045.81 960.69 899.84 460.72 1192.88 1010.33 486.18 751.86 728.99 859.64 498.52 806.12 992.21 1070.83 617.90 799.10 1062.19 647.82 521.66 664.48 1097.13 830.54 896.92 981.56 0.00 1069.47
417.75 858.91 733.63 609.55 600.83 563.98 275.01 330.34 849.84 661.82 248.11 808.00 792.28 720.92 712.63 799.64 709.99 417.26 649.98 645.52 658.07 698.57 823.81 873.03 681.29 312.58 841.48 706.69 665.88 838.19 868.29 456.94 775.11 954.70 225.34 155.65 708.79 621.21 387.34 260.07 719.19 319.49 271.61 643.65 744.47 270.37 757.78 749.79 608.98 875.29 588.39 653.16 313.77 357.11 1069.47 0.00
DEMAND_SECTION
1 0
2 1
3 1
4 1
5 1
6 1
7 1
8 1
9 1
10 1
11 1
12 1
13 1
14 1
15 1
16 1
17 1
18 1
19 1
20 1
21 1
22 1
23 1
24 1
25 1
26 1
27 1
28 1
29 1
30 1
31 1
32 1
33 1
34 1
35 1
36 1
37 1
38 1
39 1
40 1
41 1
42 1
43 1
44 1
45 1
46 1
47 1
48 1
49 1
50 1
51 1
52 1
53 1
54 1
55 1
56 1
DEPOT_SECTION
1
-1
EOF
