NAME: LDG55_1365_snow_55_0057
COMMENT: CVRP with travel times.  rootPos=1,custPos=3,demandType=6,avgRouteSizeIndex=5,weather=snow,lambda_cluster=1,lambda_random=4, T1=300,T2=700,beta=1, alpha(i,j) ~ U(0.8,1.2)
TYPE: CVRP
DIMENSION: 56
EDGE_WEIGHT_TYPE: EXPLICIT
EDGE_WEIGHT_FORMAT: FULL_MATRIX
CAPACITY: 1325
NODE_COORD_SECTION
1 75 431
2 676 641
3 831 718
4 366 324
5 519 511
6 633 408
7 673 595
8 169 885
9 9 29
10 819 589
11 846 897
12 318 559
13 660 68
14 331 473
15 52 966
16 251 988
17 322 467
18 173 254
19 986 97
20 96 55
21 939 637
22 402 720
23 757 711
24 311 438
25 62 842
26 726 605
27 509 793
28 510 745
29 855 661
30 335 517
31 340 825
32 76 287
33 534 125
34 985 613
35 301 409
36 328 363
37 901 224
38 939 764
39 786 533
40 713 622
41 903 448
42 757 641
43 850 695
44 130 461
45 289 395
46 764 717
47 332 769
48 946 68
49 246 200
50 726 313
51 86 100
52 608 488
53 848 525
54 858 825
55 170 575
56 413 212
EDGE_WEIGHT_SECTION
0.00 915.35 1070.29 455.01 700.65 778.11 877.49 929.66 616.56 1148.29 1355.16 430.70 1098.02 420.82 832.94 834.03 400.91 527.72 1438.60 585.69 1166.37 701.73 1071.72 358.20 723.82 964.97 795.52 723.48 1169.79 487.16 745.48 351.30 844.56 1268.46 329.89 418.77 1178.97 1238.18 1075.16 960.57 1083.21 1056.45 1132.88 95.88 368.77 1087.68 737.21 1415.75 594.95 902.29 663.10 653.71 1079.67 1236.07 222.39 696.36
915.35 0.00 238.80 725.30 347.26 453.09 108.35 795.16 1282.61 300.44 521.70 694.69 867.38 621.42 988.17 774.55 600.72 903.32 902.89 1216.21 406.32 579.69 169.71 628.65 860.34 112.90 498.02 432.45 254.44 619.54 563.30 998.27 801.61 475.90 589.66 678.54 717.16 406.69 230.32 79.29 442.20 149.34 331.73 885.84 628.54 198.00 460.57 938.88 902.97 546.74 1153.56 261.64 270.77 402.61 701.26 716.45
1070.29 238.80 0.00 880.24 485.65 593.46 347.15 882.95 1466.65 301.03 284.87 833.08 993.22 759.66 1172.29 897.67 780.36 1122.91 890.51 1353.25 182.64 613.16 117.68 822.28 1086.31 224.50 520.80 465.92 183.61 803.84 783.55 1119.74 913.21 284.73 828.46 881.06 754.17 167.89 362.70 273.93 429.82 211.35 92.93 1084.60 867.34 145.97 699.37 968.03 1133.84 723.44 1373.15 416.58 380.82 165.78 940.06 955.25
455.01 725.30 880.24 0.00 422.32 655.11 661.23 1006.17 615.90 869.96 1122.89 365.32 709.94 226.76 1087.58 921.05 247.46 426.72 1117.12 490.91 976.32 588.01 886.12 207.10 854.40 774.92 819.67 727.88 854.04 317.75 686.67 423.18 442.04 1078.41 168.11 103.59 903.22 1013.76 913.44 754.23 893.16 816.25 829.82 359.13 189.34 857.83 679.80 1039.33 463.77 740.51 522.07 463.66 889.62 1003.80 476.31 263.59
700.65 347.26 485.65 422.32 0.00 335.30 238.91 818.90 1038.22 447.64 770.52 347.43 785.32 340.23 922.16 790.28 360.93 684.42 1051.07 913.23 623.92 618.46 477.39 402.85 854.84 378.87 424.09 530.71 584.98 318.19 497.29 779.37 677.56 726.01 370.76 395.41 791.93 653.54 491.12 331.91 590.38 427.74 494.30 665.17 409.64 449.10 544.85 999.11 657.23 418.73 934.66 160.88 578.69 651.43 589.78 685.91
778.11 453.09 593.46 655.11 335.30 0.00 415.23 1008.34 1154.50 401.27 792.96 446.67 617.82 578.30 1213.03 1002.40 590.86 847.85 909.40 1133.31 577.55 658.33 517.16 633.57 1054.09 368.96 754.08 659.07 477.93 517.44 832.59 952.12 383.19 548.73 611.95 661.17 624.43 661.29 393.73 397.77 477.84 496.63 568.61 781.49 573.07 545.45 822.45 831.61 764.43 251.23 1055.90 191.45 481.30 673.87 723.37 450.43
877.49 108.35 347.15 661.23 238.91 415.23 0.00 903.51 1174.26 327.50 590.47 586.34 804.98 579.14 1075.70 882.90 599.84 923.33 971.90 1152.14 459.35 620.78 238.48 641.76 968.69 139.96 525.08 540.80 346.07 557.10 671.65 1018.28 798.42 502.96 609.67 634.32 796.04 439.33 252.21 119.84 511.21 215.58 255.39 904.08 648.55 210.19 568.92 1007.89 896.14 438.39 1173.57 223.78 339.78 471.38 809.61 608.10
929.66 795.16 882.95 1006.17 818.90 1008.34 903.51 0.00 1287.70 1095.60 998.63 767.45 1395.50 786.37 299.46 275.06 807.07 865.83 1634.46 1162.71 1065.59 498.71 964.87 799.07 205.84 908.06 676.53 630.93 1049.60 728.21 413.78 1042.25 1141.24 1167.68 838.06 910.80 1319.89 1050.84 1025.48 874.45 1237.36 944.50 975.88 833.78 870.03 993.16 334.59 1556.67 1061.21 1205.30 1085.30 979.78 1065.93 1048.73 849.41 1180.71
616.56 1282.61 1466.65 615.90 1038.22 1154.50 1174.26 1287.70 0.00 1463.96 1712.55 906.04 917.15 804.99 1449.50 1433.08 785.08 452.64 1343.51 124.99 1550.65 1136.60 1360.56 742.37 1232.27 1314.22 1297.64 1191.02 1469.94 871.33 1140.09 346.91 901.62 1652.74 703.38 719.49 1355.72 1518.41 1426.47 1294.10 1509.06 1376.43 1429.65 626.26 664.50 1377.94 1090.32 1421.30 390.07 1169.17 202.40 1079.56 1397.97 1593.46 807.74 709.11
1148.29 300.44 301.03 869.96 447.64 401.27 327.50 1095.60 1463.96 0.00 430.09 795.07 872.22 787.87 1192.83 942.61 795.21 1085.95 750.59 1360.87 176.28 658.10 220.18 837.92 1131.25 187.54 572.66 510.86 296.93 765.83 835.41 1227.01 784.46 278.37 818.40 843.05 468.54 346.99 120.96 236.97 289.90 258.10 208.10 1100.24 857.28 191.89 761.01 705.32 1073.89 505.63 1336.19 498.80 147.49 311.00 1001.70 754.85
1355.16 521.70 284.87 1122.89 770.52 792.96 590.47 998.63 1712.55 430.09 0.00 1114.45 1130.48 1044.53 1251.38 912.97 1065.23 1368.49 1175.38 1587.56 362.91 847.47 351.99 1107.15 1204.47 470.08 627.98 700.23 320.87 1028.44 890.73 1404.61 1158.79 465.00 1111.36 1165.93 898.63 276.98 551.05 519.51 714.69 480.06 377.80 1299.54 1150.24 380.28 982.27 1135.41 1368.15 916.34 1618.73 701.45 552.16 119.09 1201.32 1184.94
430.70 694.69 833.08 365.32 347.43 446.67 586.34 767.45 906.04 795.07 1114.45 0.00 936.49 150.31 766.36 555.73 144.19 508.49 1334.50 836.14 971.35 271.03 766.51 186.90 652.40 726.30 502.69 418.27 924.60 158.44 418.62 614.17 740.74 982.78 225.89 296.29 1019.93 972.72 818.44 679.34 888.61 761.25 841.73 334.82 264.77 794.80 432.86 1256.71 539.20 697.90 758.73 459.11 885.07 998.86 276.70 490.14
1098.02 867.38 993.22 709.94 785.32 617.82 804.98 1395.50 917.15 872.22 1130.48 936.49 0.00 882.26 1561.07 1429.19 862.35 764.69 426.36 792.16 938.51 1073.18 979.60 819.64 1463.45 837.52 1152.78 1046.16 809.61 948.60 1136.20 941.11 363.88 1040.60 780.65 691.77 739.79 992.97 772.29 788.09 780.95 886.95 900.29 1048.91 773.94 982.32 1060.91 504.15 704.05 366.59 869.57 698.92 740.33 1150.86 1091.20 446.35
420.82 621.42 759.66 226.76 340.23 578.30 579.14 786.37 804.99 787.87 1044.53 150.31 882.26 0.00 860.82 706.04 20.70 415.27 1210.32 717.67 899.51 361.25 791.13 62.62 627.64 672.53 592.91 508.49 875.86 90.99 568.93 510.22 634.94 1001.60 101.61 190.49 950.69 927.55 694.95 625.97 816.35 724.83 792.90 324.94 140.49 789.33 525.37 1187.47 414.92 670.19 665.51 386.85 782.52 925.44 249.55 468.08
832.94 988.17 1172.29 1087.58 922.16 1213.03 1075.70 299.46 1449.50 1192.83 1251.38 766.36 1561.07 860.82 0.00 338.41 840.12 1145.03 1552.34 1377.81 1354.93 643.61 1054.61 882.83 387.94 1005.29 687.62 770.16 1224.60 924.59 424.87 1141.83 1440.70 1368.29 921.82 1010.70 1617.35 1340.18 1129.37 955.86 1388.37 1054.72 1201.50 925.20 960.70 1082.90 527.60 1630.13 1235.13 1248.26 1300.40 1083.04 1216.94 1256.52 947.96 1256.50
834.03 774.55 897.67 921.05 790.28 1002.40 882.90 275.06 1433.08 942.61 912.97 555.73 1429.19 706.04 338.41 0.00 699.92 1064.22 1593.51 1391.87 1080.31 558.23 779.99 742.63 416.14 857.91 538.37 431.75 949.98 714.17 292.99 1139.13 1296.47 1182.40 781.62 852.02 1278.94 1065.56 1004.87 853.84 1149.43 908.06 943.79 890.55 820.50 808.28 395.72 1515.72 1094.93 1111.32 1314.46 899.37 1045.32 1012.89 771.51 1045.87
400.91 600.72 780.36 247.46 360.93 590.86 599.84 807.07 785.08 795.21 1065.23 144.19 862.35 20.70 840.12 699.92 0.00 395.36 1190.41 723.01 920.21 381.95 770.43 42.71 622.90 675.93 613.61 529.19 855.16 86.25 562.81 490.31 615.03 993.47 81.70 170.58 930.78 948.25 674.25 626.50 837.05 725.36 772.20 305.03 120.58 798.72 546.07 1167.56 395.01 650.28 645.60 407.55 761.82 946.14 228.85 448.17
527.72 903.32 1122.91 426.72 684.42 847.85 923.33 865.83 452.64 1085.95 1368.49 508.49 764.69 415.27 1145.03 1064.22 395.36 0.00 1191.05 327.65 1167.76 746.88 1043.59 352.65 1018.26 898.41 978.54 894.12 1140.48 481.61 832.22 176.42 762.22 1261.41 313.66 323.13 1122.76 1245.41 1050.47 848.98 1231.62 923.79 1128.58 450.91 274.78 1040.65 899.34 1268.84 263.47 829.57 250.24 802.12 1131.36 1276.49 624.21 582.51
1438.60 902.89 890.51 1117.12 1051.07 909.40 971.90 1634.46 1343.51 750.59 1175.38 1334.50 426.36 1210.32 1552.34 1593.51 1190.41 1191.05 0.00 1218.52 830.30 1273.17 886.08 1147.70 1714.37 866.41 1251.53 1161.76 863.41 1276.66 1310.60 1367.47 785.26 779.43 1108.71 1107.89 314.57 981.52 719.69 914.50 460.69 910.13 797.58 1404.89 1128.42 914.37 1363.46 77.79 1130.41 658.17 1295.93 890.19 632.12 1056.29 1419.26 853.53
585.69 1216.21 1353.25 490.91 913.23 1133.31 1152.14 1162.71 124.99 1360.87 1587.56 836.14 792.16 717.67 1377.81 1391.87 723.01 327.65 1218.52 0.00 1467.23 1074.53 1235.57 680.30 1267.52 1226.06 1172.65 1066.03 1344.95 776.92 1159.87 360.23 776.63 1569.32 641.31 594.50 1230.73 1497.22 1378.12 1176.63 1384.07 1251.44 1320.73 639.58 602.43 1263.86 1095.50 1296.31 368.88 1147.98 77.41 954.57 1376.78 1468.47 729.67 687.92
1166.37 406.32 182.64 976.32 623.92 577.55 459.35 1065.59 1550.65 176.28 362.91 971.35 938.51 899.51 1354.93 1080.31 920.21 1167.76 830.30 1467.23 0.00 795.80 300.32 893.09 1266.66 363.82 703.44 648.56 151.88 940.68 966.19 1203.74 960.74 102.09 854.10 942.98 571.53 198.22 285.75 400.43 369.61 301.57 203.96 1150.28 892.98 328.61 866.89 808.31 1167.41 571.92 1418.00 512.66 198.18 348.42 1107.58 887.04
701.73 579.69 613.16 588.01 618.46 658.33 620.78 498.71 1136.60 658.10 847.47 271.03 1073.18 361.25 643.61 558.23 381.95 746.88 1273.17 1074.53 795.80 0.00 495.48 408.98 473.15 573.40 231.66 147.24 665.47 307.54 265.24 856.58 981.30 841.60 447.97 536.85 994.43 701.69 725.46 553.71 864.92 623.55 659.28 605.85 472.10 523.77 164.12 1195.38 746.53 706.59 997.12 576.96 803.19 728.38 484.33 682.00
1071.72 169.71 117.68 886.12 477.39 517.16 238.48 964.87 1360.56 220.18 351.99 766.51 979.60 791.13 1054.61 779.99 770.43 1043.59 886.08 1235.57 300.32 495.48 0.00 798.36 968.63 182.08 403.12 348.24 169.99 734.86 665.87 1075.95 870.79 402.41 759.37 848.25 688.72 285.57 328.24 194.61 425.39 128.07 163.80 1020.93 798.25 28.29 630.28 925.50 1016.16 676.87 1293.83 431.35 307.71 232.90 849.33 846.58
358.20 628.65 822.28 207.10 402.85 633.57 641.76 799.07 742.37 837.92 1107.15 186.90 819.64 62.62 882.83 742.63 42.71 352.65 1147.70 680.30 893.09 408.98 798.36 0.00 665.61 684.07 640.64 542.58 873.18 128.96 557.55 447.60 572.32 995.18 38.99 127.87 888.07 990.17 716.96 634.64 878.97 733.50 814.91 262.32 77.87 826.65 573.10 1124.85 352.30 607.57 602.89 449.47 804.53 988.06 271.56 405.46
723.82 860.34 1086.31 854.40 854.84 1054.09 968.69 205.84 1232.27 1131.25 1204.47 652.40 1463.45 627.64 387.94 416.14 622.90 1018.26 1714.37 1267.52 1266.66 473.15 968.63 665.61 0.00 973.24 704.81 620.39 1114.78 536.65 505.27 907.29 1237.93 1314.75 704.60 793.48 1467.58 1174.84 1062.81 939.63 1253.68 1009.68 1132.43 627.94 743.48 996.92 402.54 1668.53 1017.91 1179.74 1268.50 1014.49 1082.25 1201.53 851.75 1071.07
964.97 112.90 224.50 774.92 378.87 368.96 139.96 908.06 1314.22 187.54 470.08 726.30 837.52 672.53 1005.29 857.91 675.93 898.41 866.41 1226.06 363.82 573.40 182.08 684.07 973.24 0.00 385.12 426.16 320.85 589.68 647.87 1074.83 688.71 363.00 702.56 774.28 656.08 392.39 152.06 49.43 405.72 148.29 230.17 946.39 741.44 180.45 573.47 892.86 1015.87 498.94 1148.65 311.26 239.63 390.28 814.16 748.06
795.52 498.02 520.80 819.67 424.09 754.08 525.08 676.53 1297.64 572.66 627.98 502.69 1152.78 592.91 687.62 538.37 613.61 978.54 1251.53 1172.65 703.44 231.66 403.12 640.64 704.81 385.12 0.00 106.62 562.54 539.20 262.75 1088.24 1073.83 748.12 679.63 768.51 953.81 688.69 537.18 434.55 790.84 459.66 566.92 837.51 703.76 431.41 365.48 1190.59 978.19 786.19 1095.24 574.24 624.75 629.32 607.71 840.10
723.48 432.45 465.92 727.88 530.71 659.07 540.80 630.93 1191.02 510.86 700.23 418.27 1046.16 508.49 770.16 431.75 529.19 894.12 1161.76 1066.03 648.56 147.24 348.24 542.58 620.39 426.16 106.62 0.00 518.23 454.78 369.37 990.18 1042.26 750.65 581.57 670.45 847.19 633.81 578.22 475.59 717.68 476.31 512.04 753.09 619.34 376.53 311.36 1083.97 893.77 679.57 988.62 467.62 655.95 581.14 501.09 733.48
1169.79 254.44 183.61 854.04 584.98 477.93 346.07 1049.60 1469.94 296.93 320.87 924.60 809.61 875.86 1224.60 949.98 855.16 1140.48 863.41 1344.95 151.88 665.47 169.99 873.18 1114.78 320.85 562.54 518.23 0.00 855.80 817.74 1245.94 861.12 253.33 844.10 932.98 704.41 183.36 307.35 315.55 402.72 216.69 90.68 1135.50 882.98 198.28 715.01 899.40 1157.41 605.03 1376.11 516.08 231.29 341.25 955.70 920.15
487.16 619.54 803.84 317.75 318.19 517.44 557.10 728.21 871.33 765.83 1028.44 158.44 948.60 90.99 924.59 714.17 86.25 481.61 1276.66 776.92 940.68 307.54 734.86 128.96 536.65 589.68 539.20 454.78 855.80 0.00 572.78 576.56 701.28 952.68 167.95 256.83 1017.03 960.73 741.74 540.25 907.34 639.11 812.49 391.28 206.83 734.48 471.66 1253.81 481.26 736.53 731.85 477.84 822.63 909.35 315.10 534.42
745.48 563.30 783.55 686.67 497.29 832.59 671.65 413.78 1140.09 835.41 890.73 418.62 1136.20 568.93 424.87 292.99 562.81 832.22 1310.60 1159.87 966.19 265.24 665.87 557.55 505.27 647.87 262.75 369.37 817.74 572.78 0.00 846.14 1051.89 1010.87 518.56 607.44 1216.56 951.44 793.62 642.59 1005.50 712.64 829.67 753.44 557.44 694.16 102.73 1232.81 829.35 916.02 1082.46 658.17 834.07 831.65 523.09 885.03
351.30 998.27 1119.74 423.18 779.37 952.12 1018.28 1042.25 346.91 1227.01 1404.61 614.17 941.11 510.22 1141.83 1139.13 490.31 176.42 1367.47 360.23 1203.74 856.58 1075.95 447.60 907.29 1074.83 1088.24 990.18 1245.94 576.56 846.14 0.00 865.22 1305.83 408.61 497.49 1237.35 1287.63 1164.56 1025.40 1316.34 1100.21 1212.67 279.35 444.22 1047.66 743.41 1393.67 298.89 981.01 426.66 886.84 1252.13 1285.52 573.69 617.93
844.56 801.61 913.21 442.04 677.56 383.19 798.42 1141.24 901.62 784.46 1158.79 740.74 363.88 634.94 1440.70 1296.47 615.03 762.22 785.26 776.63 960.74 981.30 870.79 572.32 1237.93 688.71 1073.83 1042.26 861.12 701.28 1051.89 865.22 0.00 931.92 533.33 444.45 500.37 1044.48 697.32 738.14 705.67 837.00 918.88 748.68 532.55 869.16 1020.66 737.15 688.83 519.11 813.93 574.64 784.89 1057.06 843.88 369.79
1268.46 475.90 284.73 1078.41 726.01 548.73 502.96 1167.68 1652.74 278.37 465.00 982.78 1040.60 1001.60 1368.29 1182.40 993.47 1261.41 779.43 1569.32 102.09 841.60 402.41 995.18 1314.75 363.00 748.12 750.65 253.33 952.68 1010.87 1305.83 931.92 0.00 956.19 1045.07 673.62 300.31 387.84 412.43 318.74 403.66 306.05 1248.86 995.07 430.70 936.47 857.22 1269.50 674.01 1511.65 614.75 300.27 370.61 1177.16 989.13
329.89 589.66 828.46 168.11 370.76 611.95 609.67 838.06 703.38 818.40 1111.36 225.89 780.65 101.61 921.82 781.62 81.70 313.66 1108.71 641.31 854.10 447.97 759.37 38.99 704.60 702.56 679.63 581.57 844.10 167.95 518.56 408.61 533.33 956.19 0.00 88.88 849.08 996.35 755.95 668.95 917.96 739.00 853.90 296.18 38.88 787.66 612.09 1085.86 313.31 572.40 563.90 488.46 843.52 992.27 310.55 366.47
418.77 678.54 881.06 103.59 395.41 661.17 634.32 910.80 719.49 843.05 1165.93 296.29 691.77 190.49 1010.70 852.02 170.58 323.13 1107.89 594.50 942.98 536.85 848.25 127.87 793.48 774.28 768.51 670.45 932.98 256.83 607.44 497.49 444.45 1045.07 88.88 0.00 799.63 1048.95 844.83 727.32 941.36 823.15 889.71 369.84 88.10 844.51 576.21 1036.41 362.53 661.28 573.37 511.86 890.39 1046.84 399.43 367.18
1178.97 717.16 754.17 903.22 791.93 624.43 796.04 1319.89 1355.72 468.54 898.63 1019.93 739.79 950.69 1617.35 1278.94 930.78 1122.76 314.57 1230.73 571.53 994.43 688.72 888.07 1467.58 656.08 953.81 847.19 704.41 1017.03 1216.56 1237.35 500.37 673.62 849.08 799.63 0.00 769.75 589.50 705.51 742.44 726.64 676.64 1145.26 887.73 660.43 1158.55 236.78 984.49 373.20 1275.96 705.53 616.03 779.54 1159.63 665.45
1238.18 406.69 167.89 1013.76 653.54 661.29 439.33 1050.84 1518.41 346.99 276.98 972.72 992.97 927.55 1340.18 1065.56 948.25 1245.41 981.52 1497.22 198.22 701.69 285.57 990.17 1174.84 392.39 688.69 633.81 183.36 960.73 951.44 1287.63 1044.48 300.31 996.35 1048.95 769.75 0.00 467.95 420.48 520.83 321.62 183.94 1217.18 1035.23 313.86 865.81 1006.53 1128.34 770.14 1419.81 584.47 396.40 157.89 1107.95 1047.43
1075.16 230.32 362.70 913.44 491.12 393.73 252.21 1025.48 1426.47 120.96 551.05 818.44 772.29 694.95 1129.37 1004.87 674.25 1050.47 719.69 1378.12 285.75 725.46 328.24 716.96 1062.81 152.06 537.18 578.22 307.35 741.74 793.62 1164.56 697.32 387.84 755.95 844.83 589.50 467.95 0.00 201.49 259.00 296.99 329.06 979.28 794.83 312.85 690.89 755.68 1069.26 405.70 1300.71 463.32 87.57 431.96 903.10 776.43
960.57 79.29 273.93 754.23 331.91 397.77 119.84 874.45 1294.10 236.97 519.51 679.34 788.09 625.97 955.86 853.84 626.50 848.98 914.50 1176.63 400.43 553.71 194.61 634.64 939.63 49.43 434.55 475.59 315.55 540.25 642.59 1025.40 738.14 412.43 668.95 727.32 705.51 420.48 201.49 0.00 453.81 98.86 279.60 896.96 707.83 194.23 539.86 942.29 982.26 548.37 1099.22 306.86 282.38 427.51 780.55 727.94
1083.21 442.20 429.82 893.16 590.38 477.84 511.21 1237.36 1509.06 289.90 714.69 888.61 780.95 816.35 1388.37 1149.43 837.05 1231.62 460.69 1384.07 369.61 864.92 425.39 878.97 1253.68 405.72 790.84 717.68 402.72 907.34 1005.50 1316.34 705.67 318.74 917.96 941.36 742.44 520.83 259.00 453.81 0.00 449.44 336.89 1141.29 956.84 453.68 902.77 538.48 1179.33 414.36 1415.23 429.50 171.43 595.60 1065.90 860.29
1056.45 149.34 211.35 816.25 427.74 496.63 215.58 944.50 1376.43 258.10 480.06 761.25 886.95 724.83 1054.72 908.06 725.36 923.79 910.13 1251.44 301.57 623.55 128.07 733.50 1009.68 148.29 459.66 476.31 216.69 639.11 712.64 1100.21 837.00 403.66 739.00 823.15 726.64 321.62 296.99 98.86 449.44 0.00 269.99 995.82 777.88 116.86 609.91 946.12 1052.31 602.10 1174.03 402.74 278.01 360.97 850.60 823.68
1132.88 331.73 92.93 829.82 494.30 568.61 255.39 975.88 1429.65 208.10 377.80 841.73 900.29 792.90 1201.50 943.79 772.20 1128.58 797.58 1320.73 203.96 659.28 163.80 814.91 1132.43 230.17 566.92 512.04 90.68 812.49 829.67 1212.67 918.88 306.05 853.90 889.71 676.64 183.94 329.06 279.60 336.89 269.99 0.00 1077.23 892.78 192.09 792.30 875.37 1151.53 693.78 1351.89 479.17 321.97 258.71 1001.05 863.49
95.88 885.84 1084.60 359.13 665.17 781.49 904.08 833.78 626.26 1100.24 1299.54 334.82 1048.91 324.94 925.20 890.55 305.03 450.91 1404.89 639.58 1150.28 605.85 1020.93 262.32 627.94 946.39 837.51 753.09 1135.50 391.28 753.44 279.35 748.68 1248.86 296.18 369.84 1145.26 1217.18 979.28 896.96 1141.29 995.82 1077.23 0.00 327.81 1049.22 767.68 1378.44 578.24 868.58 701.15 711.79 1066.85 1250.38 318.27 622.72
368.77 628.54 867.34 189.34 409.64 573.07 648.55 870.03 664.50 857.28 1150.24 264.77 773.94 140.49 960.70 820.50 120.58 274.78 1128.42 602.43 892.98 472.10 798.25 77.87 743.48 741.44 703.76 619.34 882.98 206.83 557.44 444.22 532.55 995.07 38.88 88.10 887.73 1035.23 794.83 707.83 956.84 777.88 892.78 327.81 0.00 826.54 636.22 1050.63 274.43 611.28 525.02 527.34 882.40 1031.15 349.43 327.59
1087.68 198.00 145.97 857.83 449.10 545.45 210.19 993.16 1377.94 191.89 380.28 794.80 982.32 789.33 1082.90 808.28 798.72 1040.65 914.37 1263.86 328.61 523.77 28.29 826.65 996.92 180.45 431.41 376.53 198.28 734.48 694.16 1047.66 869.16 430.70 787.66 844.51 660.43 313.86 312.85 194.23 453.68 116.86 192.09 1049.22 826.54 0.00 658.57 897.21 987.87 648.58 1279.34 433.97 336.00 261.19 877.62 818.29
737.21 460.57 699.37 679.80 544.85 822.45 568.92 334.59 1090.32 761.01 982.27 432.86 1060.91 525.37 527.60 395.72 546.07 899.34 1363.46 1095.50 866.89 164.12 630.28 573.10 402.54 573.47 365.48 311.36 715.01 471.66 102.73 743.41 1020.66 936.47 612.09 576.21 1158.55 865.81 690.89 539.86 902.77 609.91 792.30 767.68 636.22 658.57 0.00 1335.54 726.62 870.71 1018.09 705.73 731.34 863.18 514.82 846.12
1415.75 938.88 968.03 1039.33 999.11 831.61 1007.89 1556.67 1421.30 705.32 1135.41 1256.71 504.15 1187.47 1630.13 1515.72 1167.56 1268.84 77.79 1296.31 808.31 1195.38 925.50 1124.85 1668.53 892.86 1190.59 1083.97 899.40 1253.81 1232.81 1393.67 737.15 857.22 1085.86 1036.41 236.78 1006.53 755.68 942.29 538.48 946.12 875.37 1378.44 1050.63 897.21 1335.54 0.00 1094.78 580.38 1373.72 882.69 668.11 1016.32 1396.41 775.74
594.95 902.97 1133.84 463.77 657.23 764.43 896.14 1061.21 390.07 1073.89 1368.15 539.20 704.05 414.92 1235.13 1094.93 395.01 263.47 1130.41 368.88 1167.41 746.53 1016.16 352.30 1017.91 1015.87 978.19 893.77 1157.41 481.26 829.35 298.89 688.83 1269.50 313.31 362.53 984.49 1128.34 1069.26 982.26 1179.33 1052.31 1151.53 578.24 274.43 987.87 726.62 1094.78 0.00 779.10 291.47 801.77 1007.90 1249.06 623.86 319.04
902.29 546.74 723.44 740.51 418.73 251.23 438.39 1205.30 1169.17 505.63 916.34 697.90 366.59 670.19 1248.26 1111.32 650.28 829.57 658.17 1147.98 571.92 706.59 676.87 607.57 1179.74 498.94 786.19 679.57 605.03 736.53 916.02 981.01 519.11 674.01 572.40 661.28 373.20 770.14 405.70 548.37 414.36 602.10 693.78 868.58 611.28 648.58 870.71 580.38 779.10 0.00 1070.57 332.33 373.74 797.25 879.13 605.38
663.10 1153.56 1373.15 522.07 934.66 1055.90 1173.57 1085.30 202.40 1336.19 1618.73 758.73 869.57 665.51 1300.40 1314.46 645.60 250.24 1295.93 77.41 1418.00 997.12 1293.83 602.89 1268.50 1148.65 1095.24 988.62 1376.11 731.85 1082.46 426.66 813.93 1511.65 563.90 573.37 1275.96 1419.81 1300.71 1099.22 1415.23 1174.03 1351.89 701.15 525.02 1279.34 1018.09 1373.72 291.47 1070.57 0.00 985.73 1299.37 1525.87 652.26 610.51
653.71 261.64 416.58 463.66 160.88 191.45 223.78 979.78 1079.56 498.80 701.45 459.11 698.92 386.85 1083.04 899.37 407.55 802.12 890.19 954.57 512.66 576.96 431.35 449.47 1014.49 311.26 574.24 467.62 516.08 477.84 658.17 886.84 574.64 614.75 488.46 511.86 705.53 584.47 463.32 306.86 429.50 402.74 479.17 711.79 527.34 433.97 705.73 882.69 801.77 332.33 985.73 0.00 425.96 582.36 636.40 641.88
1079.67 270.77 380.82 889.62 578.69 481.30 339.78 1065.93 1397.97 147.49 552.16 885.07 740.33 782.52 1216.94 1045.32 761.82 1131.36 632.12 1376.78 198.18 803.19 307.71 804.53 1082.25 239.63 624.75 655.95 231.29 822.63 834.07 1252.13 784.89 300.27 843.52 890.39 616.03 396.40 87.57 282.38 171.43 278.01 321.97 1066.85 882.40 336.00 731.34 668.11 1007.90 373.74 1299.37 425.96 0.00 458.49 972.03 688.86
1236.07 402.61 165.78 1003.80 651.43 673.87 471.38 1048.73 1593.46 311.00 119.09 998.86 1150.86 925.44 1256.52 1012.89 946.14 1276.49 1056.29 1468.47 348.42 728.38 232.90 988.06 1201.53 390.28 629.32 581.14 341.25 909.35 831.65 1285.52 1057.06 370.61 992.27 1046.84 779.54 157.89 431.96 427.51 595.60 360.97 258.71 1250.38 1031.15 261.19 863.18 1016.32 1249.06 797.25 1525.87 582.36 458.49 0.00 1082.23 1065.85
222.39 701.26 940.06 476.31 589.78 723.37 809.61 849.41 807.74 1001.70 1201.32 276.70 1091.20 249.55 947.96 771.51 228.85 624.21 1419.26 729.67 1107.58 484.33 849.33 271.56 851.75 814.16 607.71 501.09 955.70 315.10 523.09 573.69 843.88 1177.16 310.55 399.43 1159.63 1107.95 903.10 780.55 1065.90 850.60 1001.05 318.27 349.43 877.62 514.82 1396.41 623.86 879.13 652.26 636.40 972.03 1082.23 0.00 677.02
696.36 716.45 955.25 263.59 685.91 450.43 608.10 1180.71 709.11 754.85 1184.94 490.14 446.35 468.08 1256.50 1045.87 448.17 582.51 853.53 687.92 887.04 682.00 846.58 405.46 1071.07 748.06 840.10 733.48 920.15 534.42 885.03 617.93 369.79 989.13 366.47 367.18 665.45 1047.43 776.43 727.94 860.29 823.68 863.49 622.72 327.59 818.29 846.12 775.74 319.04 605.38 610.51 641.88 688.86 1065.85 677.02 0.00
DEMAND_SECTION
1 0
2 60
3 76
4 56
5 97
6 50
7 63
8 42
9 72
10 82
11 79
12 42
13 7
14 65
15 47
16 44
17 90
18 79
19 3
20 62
21 92
22 27
23 63
24 89
25 7
26 95
27 90
28 99
29 58
30 2
31 35
32 62
33 12
34 96
35 62
36 74
37 24
38 68
39 66
40 86
41 12
42 75
43 65
44 70
45 53
46 91
47 36
48 31
49 52
50 1
51 85
52 12
53 54
54 61
55 47
56 74
DEPOT_SECTION
1
-1
EOF
