NAME: LDG50_1134_fog_50_0037
COMMENT: CVRP with travel times.  rootPos=1,custPos=1,demandType=3,avgRouteSizeIndex=4,weather=fog,lambda_cluster=1,lambda_random=4, T1=300,T2=700,beta=1, alpha(i,j) ~ U(0.8,1.2)
TYPE: CVRP
DIMENSION: 51
EDGE_WEIGHT_TYPE: EXPLICIT
EDGE_WEIGHT_FORMAT: FULL_MATRIX
CAPACITY: 119
NODE_COORD_SECTION
1 2 110
2 910 182
3 764 516
4 826 734
5 94 56
6 532 689
7 897 574
8 943 781
9 492 921
10 339 847
11 991 350
12 581 563
13 568 770
14 395 606
15 610 243
16 82 446
17 394 597
18 474 83
19 451 527
20 92 569
21 814 546
22 162 422
23 870 310
24 565 602
25 353 2
26 135 580
27 837 665
28 862 819
29 3 862
30 79 962
31 140 606
32 60 835
33 720 714
34 122 110
35 384 333
36 12 139
37 854 245
38 49 279
39 302 633
40 842 140
41 677 909
42 836 467
43 296 287
44 999 582
45 123 879
46 515 910
47 103 644
48 51 764
49 80 112
50 362 397
51 35 675
EDGE_WEIGHT_SECTION
0.00 940.20 945.94 1033.92 195.17 815.09 1041.25 1173.24 963.59 860.51 1142.54 732.08 928.10 660.05 821.92 404.89 671.64 612.84 725.57 564.52 908.60 384.11 965.68 789.16 398.14 511.37 1038.24 1194.35 816.31 945.00 548.27 807.94 990.43 147.39 517.03 57.45 1055.50 167.52 662.48 961.24 1108.95 1006.30 438.30 1183.99 807.58 935.40 609.29 750.32 106.85 514.57 691.21
940.20 0.00 492.61 641.59 876.55 723.86 432.03 690.47 907.49 965.82 205.17 531.84 735.12 753.45 439.78 949.19 765.04 437.41 717.71 989.69 468.04 909.95 169.14 588.92 652.11 936.54 597.68 658.96 1186.65 1260.69 964.13 1129.84 680.33 792.81 636.18 919.85 169.90 994.70 873.41 106.45 888.49 382.07 805.31 536.84 1187.82 939.07 1024.85 1058.95 844.70 714.08 1034.73
945.94 492.61 0.00 288.38 1006.06 405.88 201.95 333.94 520.51 665.06 307.18 213.86 450.61 420.81 379.31 804.23 409.22 770.13 363.96 758.22 69.30 757.78 323.47 270.94 839.25 705.07 198.94 343.41 876.49 942.71 704.72 811.86 392.08 968.18 598.54 888.49 360.22 913.34 517.59 503.22 529.64 179.01 651.23 266.85 832.00 490.01 692.21 740.97 922.44 610.78 787.94
1033.92 641.59 288.38 0.00 970.27 364.20 257.37 180.77 458.41 569.33 436.42 327.97 315.11 473.50 667.69 877.82 485.09 808.05 526.60 831.81 219.08 843.40 517.98 371.59 907.43 778.66 89.44 160.43 818.57 913.40 788.39 737.89 103.70 886.53 712.65 1002.60 592.28 966.03 591.18 725.86 246.90 319.34 813.87 263.35 771.88 423.96 744.90 808.78 938.42 734.98 840.63
195.17 876.55 1006.06 970.27 0.00 876.45 1009.65 1151.04 1016.09 950.50 1081.72 796.90 989.46 721.41 626.75 466.25 731.03 574.37 708.89 625.88 1031.06 474.10 952.57 755.16 377.29 572.73 1019.52 1128.42 877.67 957.67 609.63 826.82 868.03 83.74 453.38 147.44 896.63 228.88 752.89 983.00 1092.34 942.65 421.62 1152.39 868.94 1050.54 655.36 755.93 88.32 477.33 745.77
815.09 723.86 405.88 364.20 876.45 0.00 440.54 512.63 299.37 366.67 675.25 192.02 130.69 155.04 559.94 552.63 166.63 720.58 263.19 503.40 364.86 547.11 636.72 134.94 817.41 453.47 301.83 471.56 644.76 699.66 463.20 660.53 342.10 798.26 444.28 813.75 726.54 647.57 265.99 799.60 310.36 423.79 540.59 475.74 584.65 333.82 426.44 589.64 822.93 404.67 522.17
1041.25 432.03 201.95 257.37 1009.65 440.54 0.00 258.44 656.26 674.07 374.22 415.81 474.33 583.07 581.26 869.28 594.66 781.86 565.91 898.29 132.65 830.04 262.89 472.89 922.43 845.14 167.93 337.66 997.73 1032.70 854.87 995.26 361.07 925.91 556.27 1052.95 352.71 924.88 657.66 477.09 504.27 160.48 725.40 142.74 931.10 623.26 854.47 942.92 977.80 640.80 950.20
1173.24 690.47 333.94 180.77 1151.04 512.63 258.44 0.00 561.38 746.59 549.03 473.63 492.37 601.35 713.25 984.77 589.76 929.41 626.12 938.76 264.64 970.24 521.33 526.79 1028.79 885.61 210.80 168.65 999.34 1090.66 895.34 918.66 284.47 1067.30 814.71 1148.26 611.15 1093.88 698.13 735.53 357.61 404.01 913.39 217.36 949.14 526.93 872.75 989.55 1119.19 853.98 968.48
963.59 907.49 520.51 458.41 1016.09 299.37 656.26 561.38 0.00 304.70 827.69 375.65 181.93 303.54 743.57 710.14 315.13 869.08 411.69 645.79 575.64 655.90 747.91 384.60 1001.04 610.98 489.78 426.26 582.26 529.33 594.69 537.38 393.34 932.35 592.78 962.25 837.73 796.07 423.50 851.32 226.37 677.59 698.96 663.69 433.55 34.45 533.67 527.97 971.43 579.35 585.62
860.51 965.82 665.06 569.33 950.50 366.67 674.07 746.59 304.70 0.00 970.95 451.20 254.22 304.23 664.18 572.69 307.46 819.01 412.38 437.52 679.77 476.40 796.68 487.38 997.06 384.37 638.77 593.44 438.20 416.34 421.27 385.89 465.63 930.10 585.11 803.06 886.50 728.22 319.85 958.48 435.07 790.46 699.65 812.68 289.49 272.10 433.82 456.78 878.21 571.68 507.43
1142.54 205.17 307.18 436.42 1081.72 675.25 374.22 549.03 827.69 970.95 0.00 521.04 742.84 675.08 501.87 916.93 663.49 642.58 671.14 997.41 376.48 1013.22 176.86 578.12 758.14 944.26 481.36 537.67 1150.63 1088.89 969.07 1119.04 540.12 997.98 740.73 1117.13 231.99 1036.85 771.86 311.62 683.32 251.46 766.07 331.67 1086.27 797.19 946.48 1048.15 1049.87 776.17 1042.21
732.08 531.84 213.86 327.97 796.90 192.02 415.81 473.63 375.65 451.20 521.04 0.00 322.71 221.61 367.92 628.21 233.20 714.93 205.90 562.36 283.16 553.91 537.33 57.08 625.39 527.76 386.68 488.40 662.63 728.85 490.86 598.00 258.35 754.32 384.68 674.63 574.08 714.14 341.57 607.58 428.25 392.87 493.17 480.71 655.98 407.23 493.01 527.11 708.58 407.01 588.74
928.10 735.12 450.61 315.11 989.46 130.69 474.33 492.37 181.93 254.22 742.84 322.71 0.00 268.05 690.63 674.65 279.64 833.59 376.20 537.44 425.55 629.98 565.98 265.63 948.10 575.49 384.55 377.14 605.48 598.29 585.22 560.60 211.41 926.93 557.29 926.76 655.80 760.58 388.01 798.80 180.85 554.48 663.47 558.46 456.77 204.60 539.45 625.12 935.94 535.36 635.18
660.05 753.45 420.81 473.50 721.41 155.04 583.07 601.35 303.54 304.23 675.08 221.61 268.05 0.00 452.96 406.60 11.59 565.54 108.15 360.59 453.62 392.07 636.18 191.51 701.19 307.44 415.14 584.87 498.73 553.63 317.17 505.49 369.80 658.88 289.24 658.71 653.53 492.53 119.96 654.25 448.90 516.32 395.42 589.05 434.37 337.99 271.40 434.60 667.89 275.81 367.13
821.92 439.78 379.31 667.69 626.75 559.94 581.26 713.25 743.57 664.18 501.87 367.92 690.63 452.96 0.00 673.11 464.55 466.66 482.60 798.43 448.61 633.87 359.70 425.00 463.40 760.40 578.25 722.72 951.69 983.64 770.13 958.45 626.27 710.49 360.10 774.19 269.88 728.71 572.92 412.88 796.17 487.87 523.55 646.16 887.33 775.15 724.36 887.56 715.07 403.95 820.09
404.89 949.19 804.23 877.82 466.25 552.63 869.28 984.77 710.14 572.69 916.93 628.21 674.65 406.60 673.11 0.00 395.01 692.00 490.11 206.66 811.65 96.29 918.68 574.93 737.22 191.92 821.74 849.83 454.62 583.31 155.02 463.35 774.12 464.62 313.01 403.55 849.28 237.37 286.64 925.31 855.50 802.28 336.66 995.65 488.13 744.59 216.04 392.46 412.73 305.10 303.59
671.64 765.04 409.22 485.09 731.03 166.63 594.66 589.76 315.13 307.46 663.49 233.20 279.64 11.59 464.55 395.01 0.00 553.95 119.74 349.00 465.21 380.48 624.59 179.92 689.60 295.85 426.73 596.46 487.14 542.04 305.58 493.90 381.39 647.29 277.65 670.30 641.94 504.12 108.37 665.84 460.49 527.91 400.14 600.64 422.78 349.58 282.99 423.01 679.48 264.22 378.72
612.84 437.41 770.13 808.05 574.37 720.58 781.86 929.41 869.08 819.01 642.58 714.93 833.59 565.54 466.66 692.00 553.95 0.00 638.37 624.19 839.43 656.16 574.61 733.87 214.70 677.34 718.61 888.34 945.51 1011.73 714.24 880.88 768.86 490.63 382.39 573.69 607.31 699.47 662.32 543.86 954.30 787.54 503.20 892.52 889.22 903.53 736.31 809.99 542.52 386.90 759.74
725.57 717.71 363.96 526.60 708.89 263.19 565.91 626.12 411.69 412.38 671.14 205.90 376.20 108.15 482.60 490.11 119.74 638.37 0.00 420.11 433.26 393.82 637.63 155.01 702.45 366.96 523.29 662.76 597.37 652.27 403.86 582.65 422.90 625.62 255.98 717.74 547.81 558.05 218.60 690.81 557.05 512.13 287.27 630.81 542.52 446.14 379.55 511.76 642.59 312.28 475.28
564.52 989.69 758.22 831.81 625.88 503.40 898.29 938.76 645.79 437.52 997.41 562.36 537.44 360.59 798.43 206.66 349.00 624.19 420.11 0.00 765.64 198.44 820.55 523.83 819.35 53.15 775.73 803.82 321.32 387.54 90.05 256.69 728.11 624.25 438.33 525.10 910.37 397.00 240.63 947.73 718.29 857.79 354.13 949.64 349.36 675.94 112.12 185.80 572.36 424.17 135.55
908.60 468.04 69.30 219.08 1031.06 364.86 132.65 264.64 575.64 679.77 376.48 283.16 425.55 453.62 448.61 811.65 465.21 839.43 433.26 765.64 0.00 790.03 298.90 340.24 901.32 712.49 129.64 299.37 903.78 900.05 722.22 881.16 322.78 947.32 628.64 957.79 373.20 946.15 525.01 516.20 465.98 139.37 720.53 275.39 882.32 541.19 725.02 810.27 991.74 668.22 817.62
384.11 909.95 757.78 843.40 474.10 547.11 830.04 970.24 655.90 476.40 1013.22 553.91 629.98 392.07 633.87 96.29 380.48 656.16 393.82 198.44 790.03 0.00 879.44 513.38 685.65 196.72 807.21 946.12 501.66 585.98 233.62 423.83 739.70 453.70 273.77 326.66 816.29 284.91 382.93 829.02 810.83 763.04 336.36 972.78 492.93 690.35 286.37 384.24 401.81 305.67 333.99
965.68 169.14 323.47 517.98 952.57 636.72 262.89 521.33 747.91 796.68 176.86 537.33 565.98 636.18 359.70 918.68 624.59 574.61 637.63 820.55 298.90 879.44 0.00 570.05 752.02 767.40 428.54 598.27 1072.34 1164.27 804.30 1077.24 616.62 868.83 605.67 995.87 89.82 974.28 732.96 232.82 734.65 212.93 769.92 405.63 1022.75 770.58 865.32 1006.35 920.72 634.00 947.24
789.16 588.92 270.94 371.59 755.16 134.94 472.89 526.79 384.60 487.38 578.12 57.08 265.63 191.51 425.00 574.93 179.92 733.87 155.01 523.83 340.24 513.38 570.05 0.00 682.47 470.68 436.77 528.28 667.06 721.96 433.78 655.08 267.89 780.63 410.99 731.71 631.16 684.04 288.29 664.66 445.30 357.12 442.28 537.79 602.70 350.15 462.91 584.19 765.66 444.14 558.64
398.14 652.11 839.25 907.43 377.29 817.41 922.43 1028.79 1001.04 997.06 758.14 625.39 948.10 701.19 463.40 737.22 689.60 214.70 702.45 819.35 901.32 685.65 752.02 682.47 0.00 766.20 817.99 987.72 1005.91 1072.13 803.10 941.28 880.55 397.38 446.47 358.99 662.20 515.07 797.97 722.20 1053.64 761.95 615.60 972.30 1038.74 1032.62 864.12 870.39 410.05 531.00 946.04
511.37 936.54 705.07 778.66 572.73 453.47 845.14 885.61 610.98 384.37 944.26 527.76 575.49 307.44 760.40 191.92 295.85 677.34 366.96 53.15 712.49 196.72 767.40 470.68 766.20 0.00 722.58 750.67 304.94 433.63 36.90 309.84 674.96 571.10 470.49 510.03 857.22 343.85 187.48 894.58 756.34 804.64 407.28 896.49 296.21 622.79 97.92 238.95 519.21 452.17 179.84
1038.24 597.68 198.94 89.44 1019.52 301.83 167.93 210.80 489.78 638.77 481.36 386.68 384.55 415.14 578.25 821.74 426.73 718.61 523.29 775.73 129.64 807.21 428.54 436.77 817.99 722.58 0.00 169.73 908.01 968.77 732.31 827.33 193.14 935.78 704.38 1061.31 502.84 907.67 535.10 636.42 336.34 229.90 810.56 173.91 841.32 455.33 686.54 849.74 987.67 690.95 782.27
1194.35 658.96 343.41 160.43 1128.42 471.56 337.66 168.65 426.26 593.44 537.67 488.40 377.14 584.87 722.72 849.83 596.46 888.34 662.76 803.82 299.37 946.12 598.27 528.28 987.72 750.67 169.73 0.00 941.96 955.59 760.40 898.32 260.39 1046.96 870.13 1163.03 672.57 1077.40 563.19 765.41 276.25 399.63 921.52 343.64 833.91 391.81 821.42 887.58 1098.85 785.60 855.80
816.31 1186.65 876.49 818.57 877.67 644.76 997.73 999.34 582.26 438.20 1150.63 662.63 605.48 498.73 951.69 454.62 487.14 945.51 597.37 321.32 903.78 501.66 1072.34 667.06 1005.91 304.94 908.01 941.96 0.00 128.69 299.60 80.68 774.36 876.04 662.63 814.97 1122.28 648.79 378.77 1152.98 786.33 995.93 675.45 1081.92 148.71 616.71 322.59 135.52 824.15 578.10 226.86
945.00 1260.69 942.71 913.40 957.67 699.66 1032.70 1090.66 529.33 416.34 1088.89 728.85 598.29 553.63 983.64 583.31 542.04 1011.73 652.27 387.54 900.05 585.98 1164.27 721.96 1072.13 433.63 968.77 955.59 128.69 0.00 428.29 209.37 809.70 906.56 737.08 912.64 1183.98 777.48 433.67 1207.88 755.70 1039.42 741.67 1142.68 141.52 563.78 387.41 201.74 879.29 652.55 291.68
548.27 964.13 704.72 788.39 609.63 463.20 854.87 895.34 594.69 421.27 969.07 490.86 585.22 317.17 770.13 155.02 305.58 714.24 403.86 90.05 722.22 233.62 804.30 433.78 803.10 36.90 732.31 760.40 299.60 428.29 0.00 317.15 684.69 608.00 468.03 546.93 894.12 380.75 197.21 857.68 766.07 790.90 444.18 906.22 333.11 629.14 61.02 248.09 556.11 415.27 156.75
807.94 1129.84 811.86 737.89 826.82 660.53 995.26 918.66 537.38 385.89 1119.04 598.00 560.60 505.49 958.45 463.35 493.90 880.88 582.65 256.69 881.16 423.83 1077.24 655.08 941.28 309.84 827.33 898.32 80.68 209.37 317.15 0.00 758.43 824.26 695.02 750.49 1130.46 645.14 395.28 1090.51 741.45 981.36 610.82 1001.24 103.83 571.83 256.13 70.89 820.50 614.86 162.23
990.43 680.33 392.08 103.70 868.03 342.10 361.07 284.47 393.34 465.63 540.12 258.35 211.41 369.80 626.27 774.12 381.39 768.86 422.90 728.11 322.78 739.70 616.62 267.89 880.55 674.96 193.14 260.39 774.36 809.70 684.69 758.43 0.00 951.77 643.03 932.98 695.98 862.33 487.48 786.78 224.31 403.69 710.17 367.05 668.18 383.86 641.20 758.60 942.84 645.61 736.93
147.39 792.81 968.18 886.53 83.74 798.26 925.91 1067.30 932.35 930.10 997.98 754.32 926.93 658.88 710.49 464.62 647.29 490.63 625.62 624.25 947.32 453.70 868.83 780.63 397.38 571.10 935.78 1046.96 876.04 906.56 608.00 824.26 951.77 0.00 369.64 127.04 912.16 227.25 681.48 899.26 1044.75 858.91 407.21 1068.65 867.31 966.80 618.93 753.37 51.89 393.59 662.03
517.03 636.18 598.54 712.65 453.38 444.28 556.27 814.71 592.78 585.11 740.73 384.68 557.29 289.24 360.10 313.01 277.65 382.39 255.98 438.33 628.64 273.77 605.67 410.99 446.47 470.49 704.38 870.13 662.63 737.08 468.03 695.02 643.03 369.64 0.00 496.68 542.52 368.61 372.42 685.52 735.69 489.27 169.13 699.01 595.56 627.23 440.04 624.13 421.53 84.53 535.77
57.45 919.85 888.49 1002.60 147.44 813.75 1052.95 1148.26 962.25 803.06 1117.13 674.63 926.76 658.71 774.19 403.55 670.30 573.69 717.74 525.10 957.79 326.66 995.87 731.71 358.99 510.03 1061.31 1163.03 814.97 912.64 546.93 750.49 932.98 127.04 496.68 0.00 1020.29 166.18 690.19 903.79 1102.88 985.95 430.47 1155.34 806.24 992.85 607.95 710.90 75.15 493.63 660.65
1055.50 169.90 360.22 592.28 896.63 726.54 352.71 611.15 837.73 886.50 231.99 574.08 655.80 653.53 269.88 849.28 641.94 607.31 547.81 910.37 373.20 816.29 89.82 631.16 662.20 857.22 502.84 672.57 1122.28 1183.98 894.12 1130.46 695.98 912.16 542.52 1020.29 0.00 891.23 750.31 143.00 824.47 302.75 680.10 426.87 1055.21 850.23 924.93 1059.57 964.05 544.18 994.55
167.52 994.70 913.34 966.03 228.88 647.57 924.88 1093.88 796.07 728.22 1036.85 714.14 760.58 492.53 728.71 237.37 504.12 699.47 558.05 397.00 946.15 284.91 974.28 684.04 515.07 343.85 907.67 1077.40 648.79 777.48 380.75 645.14 862.33 227.25 368.61 166.18 891.23 0.00 524.01 972.76 941.43 857.88 270.78 1067.62 640.06 830.52 441.77 582.80 175.36 347.05 523.69
662.48 873.41 517.59 591.18 752.89 265.99 657.66 698.13 423.50 319.85 771.86 341.57 388.01 119.96 572.92 286.64 108.37 662.32 218.60 240.63 525.01 382.93 732.96 288.29 797.97 187.48 535.10 563.19 378.77 433.67 197.21 395.28 487.48 681.48 372.42 690.19 750.31 524.01 0.00 774.21 568.86 617.16 423.81 709.01 432.96 457.95 258.23 324.39 699.37 287.89 292.61
961.24 106.45 503.22 725.86 983.00 799.60 477.09 735.53 851.32 958.48 311.62 607.58 798.80 654.25 412.88 925.31 665.84 543.86 690.81 947.73 516.20 829.02 232.82 664.66 722.20 894.58 636.42 765.41 1152.98 1207.88 857.68 1090.51 786.78 899.26 685.52 903.79 143.00 972.76 774.21 0.00 967.47 406.52 701.98 569.87 1088.62 885.77 918.70 1019.62 929.33 687.18 928.28
1108.95 888.49 529.64 246.90 1092.34 310.36 504.27 357.61 226.37 435.07 683.32 428.25 180.85 448.90 796.17 855.50 460.49 954.30 557.05 718.29 465.98 810.83 734.65 445.30 1053.64 756.34 336.34 276.25 786.33 755.70 766.07 741.45 224.31 1044.75 735.69 1102.88 824.47 941.43 568.86 967.47 0.00 566.24 787.08 510.25 637.62 191.92 720.30 703.24 1096.64 651.16 772.91
1006.30 382.07 179.01 319.34 942.65 423.79 160.48 404.01 677.59 790.46 251.46 392.87 554.48 516.32 487.87 802.28 527.91 787.54 512.13 857.79 139.37 763.04 212.93 357.12 761.95 804.64 229.90 399.63 995.93 1039.42 790.90 981.36 403.69 858.91 489.27 985.95 302.75 857.88 617.16 406.52 566.24 0.00 658.40 210.35 950.69 669.02 787.72 910.47 910.80 573.80 883.45
438.30 805.31 651.23 813.87 421.62 540.59 725.40 913.39 698.96 699.65 766.07 493.17 663.47 395.42 523.55 336.66 400.14 503.20 287.27 354.13 720.53 336.36 769.92 442.28 615.60 407.28 810.56 921.52 675.45 741.67 444.18 610.82 710.17 407.21 169.13 430.47 680.10 270.78 423.81 701.98 787.08 658.40 0.00 868.14 646.95 733.41 466.25 539.93 355.32 135.92 480.13
1183.99 536.84 266.85 263.35 1152.39 475.74 142.74 217.36 663.69 812.68 331.67 480.71 558.46 589.05 646.16 995.65 600.64 892.52 630.81 949.64 275.39 972.78 405.63 537.79 972.30 896.49 173.91 343.64 1081.92 1142.68 906.22 1001.24 367.05 1068.65 699.01 1155.34 426.87 1067.62 709.01 569.87 510.25 210.35 868.14 0.00 1015.23 629.24 860.45 1007.82 1120.54 783.54 956.18
807.58 1187.82 832.00 771.88 868.94 584.65 931.10 949.14 433.55 289.49 1086.27 655.98 456.77 434.37 887.33 488.13 422.78 889.22 542.52 349.36 882.32 492.93 1022.75 602.70 1038.74 296.21 841.32 833.91 148.71 141.52 333.11 103.83 668.18 867.31 595.56 806.24 1055.21 640.06 432.96 1088.62 637.62 950.69 646.95 1015.23 0.00 468.00 313.67 168.35 815.42 511.03 217.94
935.40 939.07 490.01 423.96 1050.54 333.82 623.26 526.93 34.45 272.10 797.19 407.23 204.60 337.99 775.15 744.59 349.58 903.53 446.14 675.94 541.19 690.35 770.58 350.15 1032.62 622.79 455.33 391.81 616.71 563.78 629.14 571.83 383.86 966.80 627.23 992.85 850.23 830.52 457.95 885.77 191.92 669.02 733.41 629.24 468.00 0.00 568.12 562.42 1005.88 613.80 580.99
609.29 1024.85 692.21 744.90 655.36 426.44 854.47 872.75 533.67 433.82 946.48 493.01 539.45 271.40 724.36 216.04 282.99 736.31 379.55 112.12 725.02 286.37 865.32 462.91 864.12 97.92 686.54 821.42 322.59 387.41 61.02 256.13 641.20 618.93 440.04 607.95 924.93 441.77 258.23 918.70 720.30 787.72 466.25 860.45 313.67 568.12 0.00 187.07 567.04 476.29 95.73
750.32 1058.95 740.97 808.78 755.93 589.64 942.92 989.55 527.97 456.78 1048.15 527.11 625.12 434.60 887.56 392.46 423.01 809.99 511.76 185.80 810.27 384.24 1006.35 584.19 870.39 238.95 849.74 887.58 135.52 201.74 248.09 70.89 758.60 753.37 624.13 710.90 1059.57 582.80 324.39 1019.62 703.24 910.47 539.93 1007.82 168.35 562.42 187.07 0.00 754.11 585.27 91.34
106.85 844.70 922.44 938.42 88.32 822.93 977.80 1119.19 971.43 878.21 1049.87 708.58 935.94 667.89 715.07 412.73 679.48 542.52 642.59 572.36 991.74 401.81 920.72 765.66 410.05 519.21 987.67 1098.85 824.15 879.29 556.11 820.50 942.84 51.89 421.53 75.15 964.05 175.36 699.37 929.33 1096.64 910.80 355.32 1120.54 815.42 1005.88 567.04 754.11 0.00 445.48 662.77
514.57 714.08 610.78 734.98 477.33 404.67 640.80 853.98 579.35 571.68 776.17 407.01 535.36 275.81 403.95 305.10 264.22 386.90 312.28 424.17 668.22 305.67 634.00 444.14 531.00 452.17 690.95 785.60 578.10 652.55 415.27 614.86 645.61 393.59 84.53 493.63 544.18 347.05 287.89 687.18 651.16 573.80 135.92 783.54 511.03 613.80 476.29 585.27 445.48 0.00 538.63
691.21 1034.73 787.94 840.63 745.77 522.17 950.20 968.48 585.62 507.43 1042.21 588.74 635.18 367.13 820.09 303.59 378.72 759.74 475.28 135.55 817.62 333.99 947.24 558.64 946.04 179.84 782.27 855.80 226.86 291.68 156.75 162.23 736.93 662.03 535.77 660.65 994.55 523.69 292.61 928.28 772.91 883.45 480.13 956.18 217.94 580.99 95.73 91.34 662.77 538.63 0.00
DEMAND_SECTION
1 0
2 6
3 9
4 10
5 8
6 5
7 10
8 8
9 5
10 9
11 7
12 6
13 9
14 8
15 5
16 7
17 6
18 5
19 8
20 10
21 6
22 5
23 6
24 6
25 10
26 10
27 8
28 5
29 10
30 9
31 10
32 10
33 10
34 6
35 6
36 10
37 9
38 8
39 8
40 10
41 6
42 6
43 9
44 9
45 8
46 7
47 9
48 8
49 9
50 9
51 10
DEPOT_SECTION
1
-1
EOF
