NAME: LDG60_3123_fog_60_0169
COMMENT: CVRP with travel times.  rootPos=3,custPos=1,demandType=2,avgRouteSizeIndex=3,weather=fog,lambda_cluster=1,lambda_random=4, T1=300,T2=700,beta=1, alpha(i,j) ~ U(0.8,1.2)
TYPE: CVRP
DIMENSION: 61
EDGE_WEIGHT_TYPE: EXPLICIT
EDGE_WEIGHT_FORMAT: FULL_MATRIX
CAPACITY: 51
NODE_COORD_SECTION
1 0 0
2 935 739
3 572 871
4 589 742
5 481 981
6 929 386
7 934 348
8 917 675
9 519 752
10 888 993
11 334 880
12 167 970
13 610 767
14 519 402
15 518 529
16 403 708
17 979 585
18 408 569
19 71 708
20 236 314
21 812 950
22 656 353
23 490 315
24 363 651
25 813 674
26 471 913
27 137 281
28 493 736
29 461 843
30 832 720
31 42 973
32 279 91
33 39 314
34 818 624
35 520 706
36 686 146
37 288 889
38 210 398
39 508 756
40 899 746
41 182 638
42 815 255
43 689 72
44 580 121
45 812 102
46 818 867
47 708 460
48 678 231
49 605 237
50 69 699
51 654 133
52 291 678
53 504 367
54 771 316
55 654 248
56 913 865
57 949 628
58 677 48
59 245 931
60 722 426
61 495 234
EDGE_WEIGHT_SECTION
0.00 1385.34 1079.73 1039.49 1203.92 1070.49 1021.20 1307.68 931.40 1445.89 961.92 962.76 1056.92 902.08 999.59 895.56 1303.35 931.38 841.22 572.48 1405.19 828.48 849.23 975.57 1262.20 1127.37 614.37 948.51 1059.06 1281.04 1125.56 617.11 470.09 1239.18 991.68 763.90 1050.39 522.96 946.40 1365.47 862.05 929.19 692.86 813.94 909.70 1297.90 938.52 834.65 788.35 828.32 711.24 976.80 858.10 991.86 849.64 1396.59 1234.22 751.66 1091.00 974.92 727.14
1385.34 0.00 455.27 425.09 657.87 362.11 411.40 77.66 476.82 278.08 675.63 934.03 383.39 660.39 535.07 563.12 208.27 561.56 898.09 971.15 301.62 556.86 693.18 670.07 143.92 567.48 1062.15 517.54 530.12 152.03 944.98 1012.00 1068.49 202.06 514.00 680.93 764.10 883.16 491.82 60.09 834.79 577.57 780.22 797.00 738.27 261.57 453.83 593.49 677.90 900.98 716.90 720.04 617.81 523.16 645.91 162.88 151.12 813.97 816.43 461.67 709.60
1079.73 455.27 0.00 130.74 211.38 726.93 684.72 478.15 148.33 471.48 286.93 530.99 172.44 507.72 346.29 292.57 480.09 395.85 577.29 671.02 364.96 555.95 609.00 342.79 349.84 164.44 805.44 189.05 141.42 403.80 655.72 952.35 871.44 407.98 210.22 729.22 375.40 614.60 163.33 477.75 533.98 694.36 842.41 815.30 804.36 257.67 525.89 688.84 699.03 590.19 781.88 419.23 570.74 618.92 661.72 356.36 516.76 892.03 413.39 573.83 704.78
1039.49 425.09 130.74 0.00 327.35 603.27 553.98 375.45 108.09 463.43 370.21 601.12 41.70 376.98 215.55 231.80 506.06 265.11 538.96 629.46 423.90 478.58 488.00 250.26 307.64 236.96 712.91 96.52 224.70 273.06 729.52 821.61 789.69 365.78 128.47 598.48 408.63 522.07 118.76 376.78 418.14 563.62 711.67 684.56 691.99 328.51 455.49 558.10 568.29 526.06 651.14 303.39 440.00 488.18 576.46 392.27 441.75 761.29 472.88 493.10 610.09
1203.92 657.87 211.38 327.35 0.00 798.29 841.65 647.77 272.52 553.28 255.84 349.07 324.44 676.06 542.90 346.46 691.47 519.33 579.00 825.83 419.33 710.08 692.93 407.10 519.46 90.39 810.40 311.14 182.96 555.80 511.87 1007.22 950.67 577.60 334.41 925.77 263.98 719.06 287.52 597.78 500.68 862.99 1008.54 964.06 1015.74 429.88 629.29 838.33 830.76 566.10 939.28 462.83 617.56 809.66 785.91 528.57 686.38 1062.03 264.31 668.45 815.02
1070.49 362.11 726.93 603.27 798.29 0.00 49.29 310.07 578.60 640.19 843.26 1086.70 636.66 487.38 598.46 722.84 260.49 685.28 1062.22 720.36 659.93 314.75 547.85 773.06 403.53 800.55 900.63 619.32 712.49 405.30 1193.58 794.43 993.32 365.26 596.58 376.62 894.21 837.78 593.60 398.60 939.33 249.34 485.67 502.72 376.16 589.34 357.73 393.41 450.58 1075.12 414.21 832.33 472.48 221.94 367.72 521.19 236.61 515.92 958.46 317.46 537.70
1021.20 411.40 684.72 553.98 841.65 49.29 0.00 359.36 609.18 689.48 856.92 1095.06 595.68 486.21 549.17 725.74 282.15 684.11 1012.93 769.65 709.22 265.46 498.56 744.20 452.82 751.26 887.39 590.46 711.41 454.59 1144.29 776.09 958.25 414.55 547.29 327.33 902.57 798.98 607.09 422.95 890.04 219.39 440.52 453.43 386.95 638.63 322.04 344.12 401.29 1025.83 364.92 815.05 423.19 234.19 318.43 570.48 285.90 485.97 966.82 268.17 502.63
1307.68 77.66 478.15 375.45 647.77 310.07 359.36 0.00 461.21 355.74 660.02 921.27 370.98 594.44 496.31 547.51 130.61 639.22 842.57 940.13 377.79 479.20 627.23 625.71 128.31 605.03 999.38 471.97 514.51 139.62 932.57 946.05 1015.94 136.11 501.59 686.69 748.49 867.55 476.21 133.65 793.59 499.91 714.27 769.47 667.47 279.27 376.17 608.10 642.78 855.47 724.28 678.84 551.86 493.24 585.88 240.54 73.46 763.16 795.23 384.01 637.62
931.40 476.82 148.33 108.09 272.52 578.60 609.18 461.21 0.00 571.52 264.66 508.10 125.52 405.64 276.60 144.24 533.51 252.68 517.45 583.69 507.72 437.56 460.67 194.46 332.90 226.46 657.11 40.72 133.89 356.88 636.50 804.50 723.11 372.69 61.89 653.25 315.61 466.27 15.00 460.60 385.65 615.45 736.95 707.05 783.01 406.00 377.56 565.81 558.24 507.81 666.76 270.90 468.66 540.01 513.39 467.44 499.82 789.51 379.86 451.03 582.76
1445.89 278.08 471.48 463.43 553.28 640.19 689.48 355.74 571.52 0.00 608.26 869.51 450.49 840.41 678.98 653.23 486.35 728.54 974.97 1038.25 133.95 813.76 917.46 713.69 422.00 549.75 1113.77 559.95 489.73 395.03 986.40 1261.29 1209.14 480.14 547.92 959.01 696.73 922.93 582.19 323.47 806.37 796.99 1033.32 1048.37 964.55 231.11 731.91 871.57 937.58 962.14 994.98 766.82 895.89 801.24 923.99 186.21 429.20 1063.57 760.98 739.75 952.60
961.92 675.63 286.93 370.21 255.84 843.26 856.92 660.02 264.66 608.26 0.00 261.25 360.82 523.30 524.34 233.50 766.25 406.37 409.24 676.22 581.25 685.30 661.69 310.16 531.71 165.45 749.64 273.69 145.51 592.18 409.36 891.13 855.31 589.85 309.63 848.85 88.47 558.80 279.66 659.62 396.97 825.54 907.80 875.00 993.10 532.67 642.22 830.47 714.61 422.14 823.13 282.22 586.32 788.74 778.05 631.36 698.63 945.88 152.72 631.00 734.11
962.76 934.03 530.99 601.12 349.07 1086.70 1095.06 921.27 508.10 869.51 261.25 0.00 600.60 752.19 701.18 381.42 1011.08 554.29 285.02 726.69 768.40 923.44 825.13 491.07 792.96 366.55 800.11 504.60 406.76 831.96 162.80 982.08 751.38 851.10 547.77 1077.74 192.49 609.27 517.15 873.94 424.68 1064.74 1136.69 1058.17 1099.77 778.95 879.71 1043.73 943.50 297.92 1052.02 400.83 815.21 1017.63 1015.54 877.64 959.88 1097.75 128.24 870.20 882.03
1056.92 383.39 172.44 41.70 324.44 636.66 595.68 370.98 125.52 450.49 360.82 600.60 0.00 418.68 257.25 269.76 474.48 306.81 580.66 587.76 382.20 506.28 466.97 291.96 265.94 234.05 754.61 138.22 228.99 231.36 751.15 810.80 791.83 324.08 130.61 640.18 436.43 563.77 140.52 335.08 451.40 605.32 753.37 642.86 733.69 286.81 469.13 599.80 609.99 567.76 692.84 336.65 481.70 529.88 618.16 350.57 400.05 802.99 483.00 460.60 589.06
902.08 660.39 507.72 376.98 676.06 487.38 486.21 594.44 405.64 840.41 523.30 752.19 418.68 0.00 161.43 370.77 592.65 197.90 620.12 345.69 800.88 220.75 138.39 343.99 516.47 585.67 525.96 364.92 493.10 614.08 890.25 457.21 602.04 458.33 376.14 325.55 611.77 463.11 415.18 644.38 512.52 340.88 384.50 351.70 498.29 705.49 300.13 318.12 191.31 626.67 299.83 397.77 63.02 265.44 274.17 769.25 538.96 422.58 654.75 228.41 260.48
999.59 535.07 346.29 215.55 542.90 598.46 549.17 496.31 276.60 678.98 524.34 701.18 257.25 161.43 0.00 320.16 625.69 152.74 546.90 507.12 639.45 382.18 299.48 283.69 391.15 452.51 653.33 257.88 378.83 488.61 793.24 618.64 672.53 403.84 214.71 429.99 544.44 476.63 274.51 519.06 415.10 473.19 543.18 513.13 626.03 544.06 351.12 342.55 352.74 559.80 461.26 300.35 224.45 397.75 360.91 607.82 508.37 584.01 572.94 389.84 421.57
895.56 563.12 292.57 231.80 346.46 722.84 725.74 547.51 144.24 653.23 233.50 381.42 269.76 370.77 320.16 0.00 653.74 172.87 377.32 490.02 635.06 554.12 456.71 109.65 419.20 256.07 563.44 135.28 163.50 497.22 539.00 764.09 621.81 477.34 178.45 696.32 321.97 372.60 148.38 547.11 290.44 711.65 755.27 676.75 869.06 527.77 510.94 662.71 562.08 364.42 670.60 175.69 433.79 636.21 644.94 611.68 586.12 716.33 290.69 576.55 500.61
1303.35 208.27 480.09 506.06 691.47 260.49 282.15 130.61 533.51 486.35 766.25 1011.08 474.48 592.65 625.69 653.74 0.00 754.50 973.18 938.34 471.34 510.68 683.67 706.93 234.54 644.53 1035.35 568.77 620.74 270.23 1063.18 1017.71 1015.21 228.90 578.31 609.48 849.12 973.78 518.51 264.26 873.46 501.54 722.67 735.58 636.65 409.88 412.14 623.60 680.88 986.08 647.07 774.41 623.52 444.19 598.02 371.15 117.81 743.21 893.48 364.24 709.04
931.38 561.56 395.85 265.11 519.33 685.28 684.11 639.22 252.68 728.54 406.37 554.29 306.81 197.90 152.74 172.87 754.50 0.00 441.67 432.69 689.01 418.65 336.29 146.09 519.96 428.94 500.59 233.96 336.37 517.59 692.35 655.11 543.09 556.58 190.79 523.45 443.96 408.42 250.59 531.97 314.62 538.78 582.40 513.60 696.19 593.62 498.03 495.29 389.21 428.77 497.73 199.87 260.92 463.34 472.07 657.38 661.11 543.46 463.56 426.31 432.52
841.22 898.09 577.29 538.96 579.00 1062.22 1012.93 842.57 517.45 974.97 409.24 285.02 580.66 620.12 546.90 377.32 973.18 441.67 0.00 534.99 904.41 775.55 693.19 374.06 754.17 488.61 532.61 479.99 501.30 812.02 300.46 888.12 466.36 812.31 523.16 898.49 477.51 459.70 502.45 853.79 168.60 942.71 1000.18 955.27 1052.67 820.05 739.56 830.99 806.99 12.90 915.51 246.55 617.82 885.56 843.87 918.74 916.03 985.13 413.26 748.17 815.28
572.48 971.15 671.02 629.46 825.83 720.36 769.65 940.13 583.69 1038.25 676.22 726.69 587.76 345.69 507.12 490.02 938.34 432.69 534.99 0.00 969.96 566.44 348.61 460.60 853.70 735.44 180.27 542.97 642.87 819.12 835.45 353.71 281.30 804.02 586.14 500.72 693.24 117.42 593.23 922.84 366.39 622.52 595.58 550.76 646.52 874.57 645.82 566.78 456.20 547.89 448.06 481.14 408.71 547.08 539.06 938.33 884.65 570.81 713.74 574.10 470.70
1405.19 301.62 364.96 423.90 419.33 659.93 709.22 377.79 507.72 133.95 581.25 768.40 382.20 800.88 639.45 635.06 471.34 689.01 904.41 969.96 0.00 746.82 849.17 659.40 325.91 415.80 1073.07 505.66 506.19 294.26 852.45 1181.00 1174.03 384.05 512.81 896.46 604.50 882.23 513.31 297.08 833.60 780.59 962.21 914.42 948.15 107.29 649.41 827.10 836.81 891.51 945.33 718.85 799.80 705.15 833.82 138.74 423.32 1019.94 664.75 605.83 851.83
828.48 556.86 555.95 478.58 710.08 314.75 265.46 479.20 437.56 813.76 685.30 923.44 506.28 220.75 382.18 554.12 510.68 418.65 775.55 566.44 746.82 0.00 233.10 564.74 458.69 632.36 621.93 418.84 539.79 452.56 963.63 551.92 692.79 427.45 375.67 258.93 730.95 533.52 435.47 556.28 624.58 340.98 299.39 319.47 454.97 639.53 126.79 171.49 170.70 788.45 279.22 565.41 157.73 307.16 141.31 681.87 405.74 358.19 795.20 146.44 237.17
849.23 693.18 609.00 488.00 692.93 547.85 498.56 627.23 460.67 917.46 661.69 825.13 466.97 138.39 299.48 456.71 683.67 336.29 693.19 348.61 849.17 233.10 0.00 482.38 549.26 602.54 388.83 495.93 562.10 649.65 987.93 343.83 533.11 491.12 505.47 304.65 750.16 349.78 445.67 677.17 542.22 463.81 363.60 298.23 477.39 753.78 342.32 260.27 170.41 706.09 278.93 536.16 75.37 398.86 253.27 817.54 629.98 401.68 747.40 319.43 122.09
975.57 670.07 342.79 250.26 407.10 773.06 744.20 625.71 194.46 713.69 310.16 491.07 291.96 343.99 283.69 109.65 706.93 146.09 374.06 460.60 659.40 564.74 482.38 0.00 527.36 349.76 640.87 153.74 270.38 518.04 636.93 654.44 689.18 508.84 196.91 669.54 388.13 452.61 203.50 621.76 215.93 684.87 728.49 659.69 842.28 578.77 547.61 626.24 535.30 361.16 643.82 144.04 407.01 609.43 618.16 642.53 589.12 689.55 400.34 572.40 578.61
1262.20 143.92 349.84 307.64 519.46 403.53 452.82 128.31 332.90 422.00 531.71 792.96 265.94 516.47 391.15 419.20 234.54 519.96 754.17 853.70 325.91 458.69 549.26 527.36 0.00 478.77 930.08 373.62 386.20 118.73 911.68 868.08 1035.19 58.14 394.79 607.20 620.18 739.24 347.90 127.91 709.64 454.68 636.30 694.37 622.24 218.62 358.80 530.13 533.98 767.07 642.50 594.89 473.89 379.24 507.91 286.25 166.92 694.03 684.43 340.40 671.35
1127.37 567.48 164.44 236.96 90.39 800.55 751.26 605.03 226.46 549.75 165.45 366.55 234.05 585.67 452.51 256.07 644.53 428.94 488.61 735.44 415.80 632.36 602.54 349.76 478.77 0.00 763.26 220.75 92.57 465.41 517.10 916.83 877.88 525.85 256.69 835.44 253.92 628.67 241.46 507.39 487.19 772.60 931.75 873.67 928.95 422.11 565.16 792.27 750.35 475.71 858.87 372.44 527.17 725.14 739.85 520.80 634.10 972.40 248.95 578.06 724.63
614.37 1062.15 805.44 712.91 810.40 900.63 887.39 999.38 657.11 1113.77 749.64 800.11 754.61 525.96 653.33 563.44 1035.35 500.59 532.61 180.27 1073.07 621.93 388.83 640.87 930.08 763.26 0.00 616.39 726.94 978.36 833.07 391.71 144.28 879.95 659.56 680.99 773.57 190.84 666.65 1032.56 529.93 802.79 749.81 613.10 826.79 965.78 623.21 649.10 559.24 519.71 628.33 644.68 464.20 727.35 642.10 1064.47 1007.23 751.08 837.82 696.68 510.92
948.51 517.54 189.05 96.52 311.14 619.32 590.46 471.97 40.72 559.95 273.69 504.60 138.22 364.92 257.88 135.28 568.77 233.96 479.99 542.97 505.66 418.84 495.93 153.74 373.62 220.75 616.39 0.00 128.18 369.58 633.00 808.18 704.39 413.41 43.17 677.77 312.11 425.55 50.26 473.30 369.67 635.81 718.23 706.94 788.51 425.03 393.87 590.33 546.55 467.09 655.07 297.78 427.94 574.24 548.65 488.79 538.27 777.03 376.36 441.27 594.63
1059.06 530.12 141.42 224.70 182.96 712.49 711.41 514.51 133.89 489.73 145.51 406.76 228.99 493.10 378.83 163.50 620.74 336.37 501.30 642.87 506.19 539.79 562.10 270.38 386.20 92.57 726.94 128.18 0.00 460.35 554.87 880.92 785.31 444.34 164.12 787.14 233.98 536.10 148.89 514.11 453.94 680.03 839.18 827.89 847.59 399.09 511.45 699.70 667.50 514.20 776.02 339.19 486.73 670.82 647.28 497.78 553.12 879.83 298.23 485.49 664.11
1281.04 152.03 403.80 273.06 555.80 405.30 454.59 139.62 356.88 395.03 592.18 831.96 231.36 614.08 488.61 497.22 270.23 517.59 812.02 819.12 294.26 452.56 649.65 518.04 118.73 465.41 978.36 369.58 460.35 0.00 792.95 961.01 916.46 158.53 361.97 602.20 667.79 795.13 371.88 103.72 682.76 544.83 715.39 702.94 712.39 186.97 355.15 532.84 542.55 799.12 651.07 568.01 574.28 469.39 585.26 229.31 168.69 765.01 714.36 385.67 557.57
1125.56 944.98 655.72 729.52 511.87 1193.58 1144.29 932.57 636.50 986.40 409.36 162.80 751.15 890.25 793.24 539.00 1063.18 692.35 300.46 835.45 852.45 963.63 987.93 636.93 911.68 517.10 833.07 633.00 554.87 792.95 0.00 930.19 766.82 951.48 642.15 1105.70 320.89 760.16 642.69 896.67 469.06 1094.91 1210.47 1159.50 1262.47 913.39 985.90 1018.26 1048.70 313.36 1130.15 492.89 918.28 1019.47 965.84 991.19 961.64 1235.81 291.04 1033.00 1026.18
617.11 1012.00 952.35 821.61 1007.22 794.43 776.09 946.05 804.50 1261.29 891.13 982.08 810.80 457.21 618.64 764.09 1017.71 655.11 888.12 353.71 1181.00 551.92 343.83 654.44 868.08 916.83 391.71 808.18 880.92 961.01 930.19 0.00 535.99 809.94 833.35 463.83 802.66 471.13 789.50 995.99 720.10 642.03 523.99 502.11 609.63 1086.70 678.71 534.58 514.24 875.22 411.17 798.48 394.19 626.74 526.52 1146.84 957.66 465.19 853.84 663.26 403.44
470.09 1068.49 871.44 789.69 950.67 993.32 958.25 1015.94 723.11 1209.14 855.31 751.38 791.83 602.04 672.53 621.81 1015.21 543.09 466.36 281.30 1174.03 692.79 533.11 689.18 1035.19 877.88 144.28 704.39 785.31 916.46 766.82 535.99 0.00 1024.23 661.22 757.86 883.65 335.12 721.02 1020.18 634.96 890.57 768.47 631.76 927.82 1078.64 767.49 724.96 691.08 479.26 729.36 639.56 608.48 815.13 673.32 1142.40 1085.15 791.88 879.62 800.42 455.62
1239.18 202.06 407.98 365.78 577.60 365.26 414.55 136.11 372.69 480.14 589.85 851.10 324.08 458.33 403.84 477.34 228.90 556.58 812.31 804.02 384.05 427.45 491.12 508.84 58.14 525.85 879.95 413.41 444.34 158.53 951.48 809.94 1024.23 0.00 396.51 559.43 678.32 797.38 371.68 186.05 724.77 432.57 578.16 643.43 600.13 276.76 300.66 471.99 532.63 825.21 595.40 627.58 415.75 357.13 449.77 344.39 181.30 636.96 742.57 282.26 613.21
991.68 514.00 210.22 128.47 334.41 596.58 547.29 501.59 61.89 547.92 309.63 547.77 130.61 376.14 214.71 178.45 578.31 190.79 523.16 586.14 512.81 375.67 505.47 196.91 394.79 256.69 659.56 43.17 164.12 361.97 642.15 833.35 661.22 396.51 0.00 634.60 355.28 468.72 59.80 465.69 412.84 592.64 675.06 663.77 760.20 417.42 350.70 547.16 503.38 510.26 611.90 315.70 439.16 531.07 516.98 481.18 530.66 733.86 419.53 398.10 612.84
763.90 680.93 729.22 598.48 925.77 376.62 327.33 686.69 653.25 959.01 848.85 1077.74 640.18 325.55 429.99 696.32 609.48 523.45 898.49 500.72 896.46 258.93 304.65 669.54 607.20 835.44 680.99 677.77 787.14 602.20 1105.70 463.83 757.86 559.43 634.60 0.00 919.13 596.12 638.25 705.92 749.83 219.40 113.19 126.10 196.04 789.17 385.72 87.44 134.24 885.59 52.66 723.32 357.42 227.96 139.86 831.51 613.23 162.81 980.30 320.93 302.24
1050.39 764.10 375.40 408.63 263.98 894.21 902.57 748.49 315.61 696.73 88.47 192.49 436.43 611.77 544.44 321.97 849.12 443.96 477.51 693.24 604.50 730.95 750.16 388.13 620.18 253.92 773.57 312.11 233.98 667.79 320.89 802.66 883.65 678.32 355.28 919.13 0.00 582.73 330.61 748.09 326.85 914.01 978.08 881.43 1075.16 621.14 693.17 881.42 784.89 467.48 876.70 244.09 674.79 855.62 829.00 719.83 787.10 987.42 64.25 719.47 705.29
522.96 883.16 614.60 522.07 719.06 837.78 798.98 867.55 466.27 922.93 558.80 609.27 563.77 463.11 476.63 372.60 973.78 408.42 459.70 117.42 882.23 533.52 349.78 452.61 739.24 628.67 190.84 425.55 536.10 795.13 760.16 471.13 335.12 797.38 468.72 596.12 582.73 0.00 475.81 867.15 339.09 739.94 654.64 618.92 716.97 774.94 660.31 610.05 520.19 446.80 565.48 453.84 425.15 664.50 603.05 873.63 906.16 688.23 646.98 636.21 471.87
946.40 491.82 163.33 118.76 287.52 593.60 607.09 476.21 15.00 582.19 279.66 517.15 140.52 415.18 274.51 148.38 518.51 250.59 502.45 593.23 513.31 435.47 445.67 203.50 347.90 241.46 666.65 50.26 148.89 371.88 642.69 789.50 721.02 371.68 59.80 638.25 330.61 475.81 0.00 475.60 370.65 600.45 734.86 692.05 768.01 406.02 362.56 550.81 543.24 512.80 651.76 255.90 478.20 525.01 498.39 482.44 514.82 774.51 388.91 436.03 567.76
1365.47 60.09 477.75 376.78 597.78 398.60 422.95 133.65 460.60 323.47 659.62 873.94 335.08 644.38 519.06 547.11 264.26 531.97 853.79 922.84 297.08 556.28 677.17 621.76 127.91 507.39 1032.56 473.30 514.11 103.72 896.67 995.99 1020.18 186.05 465.69 705.92 748.09 867.15 475.60 0.00 786.48 582.59 764.21 806.66 750.15 245.43 451.07 636.56 646.27 840.89 754.79 671.73 601.80 507.15 635.82 158.34 161.99 753.88 756.34 468.31 661.29
862.05 834.79 533.98 418.14 500.68 939.33 890.04 793.59 385.65 806.37 396.97 424.68 451.40 512.52 415.10 290.44 873.46 314.62 168.60 366.39 833.60 624.58 542.22 215.93 709.64 487.19 529.93 369.67 453.94 682.76 469.06 720.10 634.96 724.77 412.84 749.83 326.85 339.09 370.65 786.48 0.00 853.40 831.58 798.78 945.37 726.38 607.76 662.39 638.39 181.50 746.91 114.75 466.85 777.96 692.90 801.97 755.65 858.08 347.35 681.23 664.31
929.19 577.57 694.36 563.62 862.99 249.34 219.39 499.91 615.45 796.99 825.54 1064.74 605.32 340.88 473.19 711.65 501.54 538.78 942.71 622.52 780.59 340.98 463.81 684.87 454.68 772.60 802.79 635.81 680.03 544.83 1094.91 642.03 890.57 432.57 592.64 219.40 914.01 739.94 600.45 582.59 853.40 0.00 236.33 269.56 167.56 673.30 255.81 203.54 318.67 955.61 230.86 738.65 398.93 75.44 255.96 708.06 485.95 266.58 936.50 194.54 434.95
692.86 780.22 842.41 711.67 1008.54 485.67 440.52 714.27 736.95 1033.32 907.80 1136.69 753.37 384.50 543.18 755.27 722.67 582.40 1000.18 595.58 962.21 299.39 363.60 728.49 636.30 931.75 749.81 718.23 839.18 715.39 1210.47 523.99 768.47 578.16 675.06 113.19 978.08 654.64 734.86 764.21 831.58 236.33 0.00 136.71 222.97 854.92 379.25 200.63 193.19 998.78 147.52 782.27 416.37 311.77 244.63 922.55 705.13 58.80 1039.25 430.87 312.85
813.94 797.00 815.30 684.56 964.06 502.72 453.43 769.47 707.05 1048.37 875.00 1058.17 642.86 351.70 513.13 676.75 735.58 513.60 955.27 550.76 914.42 319.47 298.23 659.69 694.37 873.67 613.10 706.94 827.89 702.94 1159.50 502.11 631.76 643.43 663.77 126.10 881.43 618.92 692.05 806.66 798.78 269.56 136.71 0.00 301.16 872.08 444.42 203.51 160.39 942.37 102.70 713.47 346.50 321.27 193.66 932.25 725.21 184.44 945.68 427.44 176.14
909.70 738.27 804.36 691.99 1015.74 376.16 386.95 667.47 783.01 964.55 993.10 1099.77 733.69 498.29 626.03 869.06 636.65 696.19 1052.67 646.52 948.15 454.97 477.39 842.28 622.24 928.95 826.79 788.51 847.59 712.39 1262.47 609.63 927.82 600.13 760.20 196.04 1075.16 716.97 768.01 750.15 945.37 167.56 222.97 301.16 0.00 840.86 423.37 283.48 306.98 1056.60 198.46 896.06 530.16 243.00 335.90 875.62 612.77 164.17 1036.86 362.10 477.30
1297.90 261.57 257.67 328.51 429.88 589.34 638.63 279.27 406.00 231.11 532.67 778.95 286.81 705.49 544.06 527.77 409.88 593.62 820.05 874.57 107.29 639.53 753.78 578.77 218.62 422.11 965.78 425.03 399.09 186.97 913.39 1086.70 1078.64 276.76 417.42 789.17 621.14 774.94 406.02 245.43 726.38 673.30 854.92 872.08 840.86 0.00 542.12 719.81 729.52 807.15 838.04 622.72 692.51 597.86 726.53 98.69 352.73 912.65 671.06 559.02 744.54
938.52 453.83 525.89 455.49 629.29 357.73 322.04 376.17 377.56 731.91 642.22 879.71 469.13 300.13 351.12 510.94 412.14 498.03 739.56 645.82 649.41 126.79 342.32 547.61 358.80 565.16 623.21 393.87 511.45 355.15 985.90 678.71 767.49 300.66 350.70 385.72 693.17 660.31 362.56 451.07 607.76 255.81 379.25 444.42 423.37 542.12 0.00 298.28 297.49 752.46 406.01 493.01 284.52 180.37 250.76 584.46 384.02 438.05 751.47 73.47 363.96
834.65 593.49 688.84 558.10 838.33 393.41 344.12 608.10 565.81 871.57 830.47 1043.73 599.80 318.12 342.55 662.71 623.60 495.29 830.99 566.78 827.10 171.49 260.27 626.24 530.13 792.27 649.10 590.33 699.70 532.84 1018.26 534.58 724.96 471.99 547.16 87.44 881.42 610.05 550.81 636.56 662.39 203.54 200.63 203.51 283.48 719.81 298.28 0.00 126.81 843.89 123.41 642.90 278.47 179.41 52.42 756.37 577.23 246.16 915.49 286.20 269.34
788.35 677.90 699.03 568.29 830.76 450.58 401.29 642.78 558.24 937.58 714.61 943.50 609.99 191.31 352.74 562.08 680.88 389.21 806.99 456.20 836.81 170.70 170.41 535.30 533.98 750.35 559.24 546.55 667.50 542.55 1048.70 514.24 691.08 532.63 503.38 134.24 784.89 520.19 543.24 646.27 638.39 318.67 193.19 160.39 306.98 729.52 297.49 126.81 0.00 817.98 108.52 589.08 223.18 250.55 82.86 771.86 576.44 231.27 846.06 316.64 235.46
828.32 900.98 590.19 526.06 566.10 1075.12 1025.83 855.47 507.81 962.14 422.14 297.92 567.76 626.67 559.80 364.42 986.08 428.77 12.90 547.89 891.51 788.45 706.09 361.16 767.07 475.71 519.71 467.09 514.20 799.12 313.36 875.22 479.26 825.21 510.26 885.59 467.48 446.80 512.80 840.89 181.50 955.61 998.78 942.37 1056.60 807.15 752.46 843.89 817.98 0.00 926.50 259.45 630.72 892.11 856.77 905.84 928.93 972.23 403.23 761.07 828.18
711.24 716.90 781.88 651.14 939.28 414.21 364.92 724.28 666.76 994.98 823.13 1052.02 692.84 299.83 461.26 670.60 647.07 497.73 915.51 448.06 945.33 279.22 278.93 643.82 642.50 858.87 628.33 655.07 776.02 651.07 1130.15 411.17 729.36 595.40 611.90 52.66 876.70 565.48 651.76 754.79 746.91 230.86 147.52 102.70 198.46 838.04 406.01 123.41 108.52 926.50 0.00 697.60 331.70 280.62 164.31 879.78 650.82 122.75 940.95 345.86 278.84
976.80 720.04 419.23 303.39 462.83 832.33 815.05 678.84 270.90 766.82 282.22 400.83 336.65 397.77 300.35 175.69 774.41 199.87 246.55 481.14 718.85 565.41 536.16 144.04 594.89 372.44 644.68 297.78 339.19 568.01 492.89 798.48 639.56 627.58 315.70 723.32 244.09 453.84 255.90 671.73 114.75 738.65 782.27 713.47 896.06 622.72 493.01 642.90 589.08 259.45 697.60 0.00 460.79 663.21 661.26 687.22 685.60 743.33 272.59 566.48 632.39
858.10 617.81 570.74 440.00 617.56 472.48 423.19 551.86 468.66 895.89 586.32 815.21 481.70 63.02 224.45 433.79 623.52 260.92 617.82 408.71 799.80 157.73 75.37 407.01 473.89 527.17 464.20 427.94 486.73 574.28 918.28 394.19 608.48 415.75 439.16 357.42 674.79 425.15 478.20 601.80 466.85 398.93 416.37 346.50 530.16 692.51 284.52 278.47 223.18 630.72 331.70 460.79 0.00 323.49 226.05 760.14 563.47 454.45 717.77 291.43 197.46
991.86 523.16 618.92 488.18 809.66 221.94 234.19 493.24 540.01 801.24 788.74 1017.63 529.88 265.44 397.75 636.21 444.19 463.34 885.56 547.08 705.15 307.16 398.86 609.43 379.24 725.14 727.35 574.24 670.82 469.39 1019.47 626.74 815.13 357.13 531.07 227.96 855.62 664.50 525.01 507.15 777.96 75.44 311.77 321.27 243.00 597.86 180.37 179.41 250.55 892.11 280.62 663.21 323.49 0.00 210.54 665.49 458.55 342.02 892.82 185.33 359.51
849.64 645.91 661.72 576.46 785.91 367.72 318.43 585.88 513.39 923.99 778.05 1015.54 618.16 274.17 360.91 644.94 598.02 472.07 843.87 539.06 833.82 141.31 253.27 618.16 507.91 739.85 642.10 548.65 647.28 585.26 965.84 526.52 673.32 449.77 516.98 139.86 829.00 603.05 498.39 635.82 692.90 255.96 244.63 193.66 335.90 726.53 250.76 52.42 82.86 856.77 164.31 661.26 226.05 210.54 0.00 794.16 544.33 287.06 887.30 233.78 217.70
1396.59 162.88 356.36 392.27 528.57 521.19 570.48 240.54 467.44 186.21 631.36 877.64 350.57 769.25 607.82 611.68 371.15 657.38 918.74 938.33 138.74 681.87 817.54 642.53 286.25 520.80 1064.47 488.79 497.78 229.31 991.19 1146.84 1142.40 344.39 481.18 831.51 719.83 873.63 482.44 158.34 801.97 708.06 922.55 932.25 875.62 98.69 584.46 756.37 771.86 905.84 879.78 687.22 760.14 665.49 794.16 0.00 284.58 912.22 769.75 595.13 786.88
1234.22 151.12 516.76 441.75 686.38 236.61 285.90 73.46 499.82 429.20 698.63 959.88 400.05 538.96 508.37 586.12 117.81 661.11 916.03 884.65 423.32 405.74 629.98 589.12 166.92 634.10 1007.23 538.27 553.12 168.69 961.64 957.66 1085.15 181.30 530.66 613.23 787.10 906.16 514.82 161.99 755.65 485.95 705.13 725.21 612.77 352.73 384.02 577.23 576.44 928.93 650.82 685.60 563.47 458.55 544.33 284.58 0.00 689.70 834.43 310.55 642.91
751.66 813.97 892.03 761.29 1062.03 515.92 485.97 763.16 789.51 1063.57 945.88 1097.75 802.99 422.58 584.01 716.33 743.21 543.46 985.13 570.81 1019.94 358.19 401.68 689.55 694.03 972.40 751.08 777.03 879.83 765.01 1235.81 465.19 791.88 636.96 733.86 162.81 987.42 688.23 774.51 753.88 858.08 266.58 58.80 184.44 164.17 912.65 438.05 246.16 231.27 972.23 122.75 743.33 454.45 342.02 287.06 912.22 689.70 0.00 1007.02 461.12 336.26
1091.00 816.43 413.39 472.88 264.31 958.46 966.82 795.23 379.86 760.98 152.72 128.24 483.00 654.75 572.94 290.69 893.48 463.56 413.26 713.74 664.75 795.20 747.40 400.34 684.43 248.95 837.82 376.36 298.23 714.36 291.04 853.84 879.62 742.57 419.53 980.30 64.25 646.98 388.91 756.34 347.35 936.50 1039.25 945.68 1036.86 671.06 751.47 915.49 846.06 403.23 940.95 272.59 717.77 892.82 887.30 769.75 834.43 1007.02 0.00 741.96 769.54
974.92 461.67 573.83 493.10 668.45 317.46 268.17 384.01 451.03 739.75 631.00 870.20 460.60 228.41 389.84 576.55 364.24 426.31 748.17 574.10 605.83 146.44 319.43 572.40 340.40 578.06 696.68 441.27 485.49 385.67 1033.00 663.26 800.42 282.26 398.10 320.93 719.47 636.21 436.03 468.31 681.23 194.54 430.87 427.44 362.10 559.02 73.47 286.20 316.64 761.07 345.86 566.48 291.43 185.33 233.78 595.13 310.55 461.12 741.96 0.00 344.80
727.14 709.60 704.78 610.09 815.02 537.70 502.63 637.62 582.76 952.60 734.11 882.03 589.06 260.48 421.57 500.61 709.04 432.52 815.28 470.70 851.83 237.17 122.09 578.61 671.35 724.63 510.92 594.63 664.11 557.57 1026.18 403.44 455.62 613.21 612.84 302.24 705.29 471.87 567.76 661.29 664.31 434.95 312.85 176.14 477.30 744.54 363.96 269.34 235.46 828.18 278.84 632.39 197.46 359.51 217.70 786.88 642.91 336.26 769.54 344.80 0.00
DEMAND_SECTION
1 0
2 3
3 4
4 5
5 8
6 6
7 3
8 9
9 10
10 10
11 6
12 9
13 7
14 4
15 1
16 8
17 3
18 1
19 2
20 3
21 6
22 7
23 3
24 4
25 6
26 7
27 3
28 10
29 8
30 4
31 1
32 7
33 8
34 8
35 2
36 10
37 6
38 10
39 5
40 1
41 5
42 5
43 10
44 10
45 3
46 1
47 6
48 2
49 2
50 3
51 7
52 10
53 2
54 1
55 4
56 9
57 4
58 1
59 5
60 3
61 9
DEPOT_SECTION
1
-1
EOF
