NAME: LDG65_1272_rain_65_0233
COMMENT: CVRP with travel times.  rootPos=1,custPos=2,demandType=7,avgRouteSizeIndex=2,weather=rain,lambda_cluster=1,lambda_random=4, T1=300,T2=700,beta=1, alpha(i,j) ~ U(0.8,1.2)
TYPE: CVRP
DIMENSION: 66
EDGE_WEIGHT_TYPE: EXPLICIT
EDGE_WEIGHT_FORMAT: FULL_MATRIX
CAPACITY: 134
NODE_COORD_SECTION
1 522 5
2 482 79
3 843 39
4 85 656
5 614 321
6 541 239
7 674 313
8 591 276
9 922 999
10 389 850
11 442 809
12 887 958
13 383 862
14 30 557
15 630 201
16 908 38
17 592 54
18 382 845
19 269 421
20 398 933
21 19 637
22 499 18
23 576 252
24 741 16
25 900 4
26 806 15
27 584 828
28 932 999
29 411 809
30 768 70
31 406 845
32 486 33
33 45 512
34 385 345
35 546 217
36 609 197
37 405 835
38 1 602
39 361 799
40 479 48
41 697 186
42 585 307
43 721 47
44 67 481
45 33 456
46 508 7
47 533 292
48 588 414
49 796 31
50 107 593
51 457 911
52 650 216
53 402 745
54 491 853
55 534 245
56 126 571
57 400 86
58 344 146
59 505 204
60 723 133
61 752 120
62 638 228
63 494 929
64 670 374
65 30 563
66 37 530
EDGE_WEIGHT_SECTION
0.00 151.00 438.11 1013.54 436.55 322.98 461.82 343.67 1176.26 957.62 999.42 1091.50 989.45 899.03 264.87 481.15 161.66 966.23 688.15 1110.60 972.90 66.71 354.97 355.29 395.88 413.44 903.04 1170.82 983.60 327.99 986.15 66.06 901.29 561.33 301.02 236.15 985.25 978.78 884.70 119.57 292.72 394.56 390.15 866.13 808.97 46.54 350.05 508.24 411.08 896.46 991.65 292.41 938.75 1073.03 313.54 874.14 195.32 318.17 235.12 283.39 392.93 297.43 1127.41 529.52 887.10 907.00
151.00 0.00 475.16 862.54 391.80 237.83 442.14 331.82 1193.60 895.52 986.24 1108.84 927.57 864.67 291.91 551.98 164.77 908.37 537.15 966.35 911.67 88.43 292.34 377.01 546.88 365.78 918.55 1188.16 954.80 396.07 926.57 84.94 802.01 516.14 237.78 320.63 936.06 890.87 894.97 65.11 334.91 355.53 442.85 867.81 754.51 127.98 256.47 455.75 398.21 797.62 937.19 346.36 952.95 1053.35 261.05 841.95 111.29 218.89 245.39 336.09 445.63 314.77 1031.39 499.24 870.60 843.41
438.11 475.16 0.00 1193.05 439.87 458.33 497.23 437.63 1184.37 1038.66 947.94 1104.67 1021.79 1161.94 375.62 160.28 361.16 1040.43 867.66 1118.26 1197.10 432.04 460.01 143.46 168.24 109.38 965.34 1183.99 1040.97 110.12 1034.93 457.77 1126.25 695.66 453.98 404.34 1005.60 1219.27 1068.49 491.56 280.66 525.36 175.77 1060.45 1180.96 391.57 499.05 577.65 76.95 1097.95 1118.68 327.82 956.77 1048.86 458.35 1142.28 567.16 630.01 491.81 282.53 197.68 367.54 1135.08 562.57 1173.87 1149.48
1013.54 862.54 1193.05 0.00 753.18 758.59 946.22 807.56 1090.99 403.13 481.20 1126.95 383.46 181.19 859.80 1221.43 889.21 390.28 325.39 567.21 81.32 950.97 795.89 1116.61 1228.53 1140.99 651.26 1077.92 436.71 1128.82 433.59 947.48 243.85 564.28 799.19 863.50 424.40 189.45 471.81 927.65 942.31 789.65 1123.28 184.74 313.79 990.52 819.78 753.85 1116.10 118.97 486.52 912.34 462.28 540.11 781.81 163.30 942.86 786.48 780.31 1016.52 1047.51 874.41 614.32 851.17 169.26 220.63
436.55 391.80 439.87 753.18 0.00 166.03 210.18 92.88 893.84 713.01 744.50 956.60 745.06 763.99 204.85 489.68 406.94 723.88 427.79 835.06 802.31 435.59 126.59 429.43 545.53 395.35 731.61 907.07 727.13 392.44 681.96 428.67 781.50 320.91 193.71 215.48 711.29 867.60 775.28 432.94 246.84 90.52 370.10 715.70 755.95 390.01 158.98 144.16 362.92 688.26 848.12 178.19 663.56 751.99 142.81 732.59 419.70 403.57 217.87 263.34 332.83 162.53 848.25 122.70 775.92 789.92
322.98 237.83 458.33 758.59 166.03 0.00 206.85 118.72 995.29 698.34 789.06 910.53 730.39 792.11 133.63 480.05 313.66 711.19 556.71 862.42 753.67 323.77 54.51 375.23 502.36 387.26 680.72 989.85 757.62 370.23 729.39 275.56 759.39 356.75 40.60 104.91 738.88 861.80 744.34 295.68 183.72 118.51 377.70 741.54 755.01 341.76 93.91 217.92 381.38 639.62 833.45 153.75 715.12 818.06 23.22 683.95 270.15 270.56 94.76 293.20 296.90 116.46 905.09 262.22 780.18 741.28
461.82 442.14 497.23 946.22 210.18 206.85 0.00 138.66 899.36 753.69 662.97 965.45 760.71 862.97 197.63 574.60 399.72 761.04 637.97 822.10 960.52 437.79 202.87 477.24 551.44 464.17 764.22 886.13 756.00 387.11 736.29 454.45 827.28 402.01 247.45 226.35 720.63 966.58 814.48 497.31 238.06 212.54 415.62 761.48 878.51 435.79 185.67 346.85 441.77 846.47 756.04 169.41 717.89 611.21 183.63 856.61 465.48 477.41 262.05 308.86 378.61 209.13 775.33 177.03 874.90 851.13
343.67 331.82 437.63 807.56 92.88 118.72 138.66 0.00 985.94 785.12 754.69 901.18 817.17 724.31 154.03 489.75 356.12 797.97 520.67 925.01 837.97 342.71 64.21 357.92 499.62 379.30 799.44 980.50 754.18 335.29 774.84 360.89 688.62 366.45 127.38 168.39 789.55 827.92 754.63 376.13 215.48 87.73 331.08 622.82 751.87 297.13 116.34 237.04 360.68 758.34 868.80 146.83 642.91 749.87 126.59 756.66 326.82 357.34 124.99 286.28 239.95 107.11 909.67 215.58 736.24 712.47
1176.26 1193.60 1184.37 1090.99 893.84 995.29 899.36 985.94 0.00 700.67 609.95 84.76 707.69 1177.04 925.75 1252.00 1127.84 700.71 1035.43 727.06 1130.34 1234.88 989.68 1172.16 1246.36 1139.85 443.37 13.23 702.98 1082.03 696.94 1186.67 1190.96 973.16 990.19 940.11 667.61 1172.87 761.46 1237.74 987.20 914.85 1119.99 1256.76 1234.20 1196.47 1052.82 945.88 1107.42 1078.29 608.11 918.55 721.73 550.88 1018.51 1122.62 1235.41 1220.15 1090.05 1058.00 986.69 878.83 667.74 771.14 1188.97 1179.95
957.62 895.52 1038.66 403.13 713.01 698.34 753.69 785.12 700.67 0.00 90.72 738.07 32.05 525.13 798.83 1092.37 964.84 12.85 630.81 164.08 484.45 940.91 724.86 1018.67 1092.87 1009.32 262.81 687.44 59.28 928.54 31.05 892.70 587.79 662.38 657.74 803.25 40.54 592.58 72.92 912.82 846.66 734.02 989.46 587.87 650.91 929.50 764.10 619.25 976.89 451.22 135.11 795.71 170.55 162.68 721.56 495.55 918.17 887.70 722.50 904.57 856.16 769.10 211.19 590.31 537.06 552.88
999.42 986.24 947.94 481.20 744.50 789.06 662.97 754.69 609.95 90.72 0.00 676.04 97.74 605.76 748.91 1001.65 951.00 99.57 696.50 170.32 562.52 1031.63 812.84 927.95 1002.15 953.34 172.09 596.72 93.03 837.82 86.99 983.42 611.40 678.38 748.46 763.27 57.66 562.92 151.51 1003.54 787.89 789.96 903.47 659.65 668.03 1019.63 805.10 698.38 920.91 468.34 184.54 741.71 111.78 100.92 812.28 512.67 983.86 975.63 801.09 881.16 921.85 701.99 187.14 646.25 593.83 570.00
1091.50 1108.84 1104.67 1126.95 956.60 910.53 965.45 901.18 84.76 738.07 676.04 0.00 745.55 1097.64 840.99 1214.91 1043.08 736.67 1120.19 797.73 1166.30 1150.12 904.92 1094.23 1209.72 1060.15 528.13 79.32 739.98 1051.49 733.08 1101.91 1160.30 1057.92 905.43 855.35 704.61 1201.25 805.16 1155.42 902.44 988.91 1080.00 1199.13 1261.01 1111.71 1004.44 1030.64 1027.72 1115.29 692.87 833.79 787.82 586.84 933.75 1159.62 1150.65 1135.39 1005.29 973.24 1037.65 794.07 750.96 855.90 1109.57 1164.49
989.45 927.57 1021.79 383.46 745.06 730.39 760.71 817.17 707.69 32.05 97.74 745.55 0.00 557.18 830.88 1089.42 996.67 23.22 598.76 185.14 464.78 972.96 756.91 1009.58 1083.78 977.27 267.80 694.46 69.65 919.45 63.10 924.75 594.68 694.43 689.79 835.30 40.94 572.91 104.75 944.87 857.03 766.07 957.41 568.20 651.31 961.55 757.46 629.62 944.84 451.62 103.06 827.76 180.92 173.05 753.61 495.95 886.12 919.75 754.33 933.65 824.11 799.73 243.24 622.36 552.72 553.28
899.03 864.67 1161.94 181.19 763.99 792.11 862.97 724.31 1177.04 525.13 605.76 1097.64 557.18 0.00 820.29 1202.80 805.96 537.98 336.20 689.21 113.66 883.00 788.52 1066.55 1189.02 1057.74 777.85 1176.96 584.41 1059.60 556.18 906.28 62.66 575.09 832.71 849.01 563.17 103.61 598.05 852.77 915.25 800.46 1055.39 101.49 163.37 928.58 830.59 734.29 1084.99 152.49 625.16 871.14 572.85 626.16 815.33 161.64 818.17 645.78 813.83 1010.07 964.26 831.42 736.32 755.75 11.93 66.85
264.87 291.91 375.62 859.80 204.85 133.63 197.63 154.03 925.75 798.83 748.91 840.99 830.88 820.29 0.00 454.00 202.09 811.68 534.41 919.23 887.30 330.66 157.77 340.64 368.73 331.10 695.61 920.31 841.94 280.65 829.88 311.85 784.60 375.04 141.09 28.72 806.57 923.90 795.38 327.82 94.96 162.76 296.54 718.80 847.85 285.08 198.82 291.67 298.67 773.25 860.35 62.95 731.32 808.84 156.85 817.58 324.02 371.05 182.63 189.78 259.80 46.92 919.98 274.35 832.22 808.45
481.15 551.98 160.28 1221.43 489.68 480.05 574.60 489.75 1252.00 1092.37 1001.65 1214.91 1089.42 1202.80 454.00 0.00 437.98 1101.22 917.47 1171.97 1189.44 497.21 425.54 253.70 85.27 186.20 1061.43 1265.23 1094.68 187.49 1088.64 517.83 1177.35 727.78 492.66 482.72 1059.31 1266.66 1153.16 556.73 390.90 577.48 253.14 1112.57 1218.11 451.63 525.27 516.91 187.19 1119.67 1186.19 405.19 1067.01 1102.57 502.73 1164.00 627.22 706.83 545.39 323.45 265.31 444.91 1188.79 612.38 1201.07 1135.95
161.66 164.77 361.16 889.21 406.94 313.66 399.72 356.12 1127.84 964.84 951.00 1043.08 996.67 805.96 202.09 437.98 0.00 973.45 701.92 1121.32 919.62 184.85 359.86 260.59 466.82 251.78 897.70 1122.40 990.82 350.72 993.37 145.98 770.27 577.06 343.18 230.81 992.47 858.11 891.92 199.49 293.34 364.85 363.68 704.47 833.52 139.27 357.27 417.66 284.21 895.78 1062.44 265.04 933.41 1010.93 320.76 937.39 206.38 378.77 242.34 382.33 313.93 249.01 1121.75 476.44 817.89 794.12
966.23 908.37 1040.43 390.28 723.88 711.19 761.04 797.97 700.71 12.85 99.57 736.67 23.22 537.98 811.68 1101.22 973.45 0.00 621.98 176.93 471.60 953.76 737.71 1020.44 1094.64 1000.49 271.66 696.29 46.43 930.31 43.31 905.55 595.54 674.64 670.59 816.10 41.91 579.73 81.53 925.67 833.81 746.28 980.63 575.02 652.28 942.35 776.95 606.40 968.06 452.59 126.28 808.56 157.70 149.83 734.41 496.92 909.34 900.55 731.11 913.18 847.33 781.95 224.04 602.57 549.91 554.25
688.15 537.15 867.66 325.39 427.79 556.71 637.97 520.67 1035.43 630.81 696.50 1120.19 598.76 336.20 534.41 917.47 701.92 621.98 0.00 783.90 374.52 625.58 541.13 857.22 903.14 823.14 592.06 1048.66 668.41 806.44 661.86 622.09 398.86 238.89 582.01 563.13 639.70 439.81 646.78 602.26 629.37 464.26 797.89 347.85 328.16 665.13 494.39 566.03 790.71 260.47 701.82 588.74 736.12 771.81 564.38 304.80 646.93 536.14 573.61 691.13 760.62 549.02 816.43 525.78 348.13 362.13
1110.60 966.35 1118.26 567.21 835.06 862.42 822.10 925.01 727.06 164.08 170.32 797.73 185.14 689.21 919.23 1171.97 1121.32 176.93 783.90 0.00 648.53 1050.55 888.94 1098.27 1172.47 1123.66 283.69 740.29 191.33 1008.14 153.10 1044.54 709.70 784.43 821.82 933.59 155.96 733.24 232.77 991.03 956.97 856.07 1073.79 727.51 766.33 1093.58 888.42 783.33 1091.23 566.64 118.95 912.03 282.10 210.89 885.64 560.80 1071.26 923.85 882.35 1051.48 1009.25 872.31 111.35 712.36 701.14 668.30
972.90 911.67 1197.10 81.32 802.31 753.67 960.52 837.97 1130.34 484.45 562.52 1166.30 464.78 113.66 887.30 1189.44 919.62 471.60 374.52 648.53 0.00 906.19 808.18 1128.90 1251.31 1140.93 732.58 1143.57 518.03 1086.98 514.91 954.40 176.32 613.41 794.27 858.58 505.72 108.13 553.13 934.08 937.39 826.86 1115.49 215.15 244.68 951.77 847.58 672.53 1135.05 114.05 567.84 869.28 543.60 579.46 776.89 158.38 861.54 753.44 775.39 1008.73 1050.57 870.13 695.64 847.27 101.73 166.85
66.71 88.43 432.04 950.97 435.59 323.77 437.79 342.71 1234.88 940.91 1031.63 1150.12 972.96 883.00 330.66 497.21 184.85 953.76 625.58 1050.55 906.19 0.00 350.29 288.58 462.59 387.52 968.83 1229.44 1000.19 327.03 971.96 48.21 834.58 545.20 283.17 301.94 981.45 923.44 940.65 59.52 318.74 400.92 392.68 877.97 748.92 45.58 344.90 541.69 355.09 860.46 931.60 359.12 985.62 1049.00 346.99 816.13 199.72 251.46 291.07 350.10 391.07 356.05 1063.96 526.12 894.93 846.95
354.97 292.34 460.01 795.89 126.59 54.51 202.87 64.21 989.68 724.86 812.84 904.92 756.91 788.52 157.77 425.54 359.86 737.71 541.13 888.94 808.18 350.29 0.00 320.72 510.81 419.66 735.23 984.24 784.14 349.89 755.91 302.08 752.83 302.24 67.12 159.42 765.40 892.13 769.43 322.20 214.28 151.94 395.29 687.03 792.57 361.34 99.73 203.02 387.23 694.13 859.97 149.31 707.12 810.85 77.19 738.46 324.06 297.08 119.85 288.76 304.16 110.85 907.11 249.29 800.45 776.68
355.29 377.01 143.46 1116.61 429.43 375.23 477.24 357.92 1172.16 1018.67 927.95 1094.23 1009.58 1066.55 340.64 253.70 260.59 1020.44 857.22 1098.27 1128.90 288.58 320.72 0.00 249.12 98.94 954.90 1173.55 1020.98 90.13 1014.94 336.79 1030.86 622.96 375.24 318.66 985.61 1118.70 1045.61 348.10 270.22 445.65 107.20 965.06 1037.50 334.16 420.45 523.74 66.51 1014.85 1108.24 307.83 946.33 1028.87 397.91 1059.18 466.97 540.04 440.57 213.96 185.47 347.55 1115.09 522.62 1078.48 1054.71
395.88 546.88 168.24 1228.53 545.53 502.36 551.44 499.62 1246.36 1092.87 1002.15 1209.72 1083.78 1189.02 368.73 85.27 466.82 1094.64 903.14 1172.47 1251.31 462.59 510.81 249.12 0.00 215.04 976.16 1259.59 1095.18 164.33 1089.14 461.94 1153.33 743.77 509.82 397.45 1059.81 1292.63 1129.75 515.45 386.32 531.49 229.98 1087.53 1204.85 442.42 553.26 602.18 182.61 1141.98 1140.90 382.03 1046.19 1103.07 512.56 1186.31 591.20 714.05 551.36 298.10 259.67 415.65 1189.29 643.08 1200.95 1177.18
413.44 365.78 109.38 1140.99 395.35 387.26 464.17 379.30 1139.85 1009.32 953.34 1060.15 977.27 1057.74 331.10 186.20 251.78 1000.49 823.14 1123.66 1140.93 387.52 419.66 98.94 215.04 0.00 920.82 1139.47 982.40 115.52 1027.57 397.76 1022.05 672.63 409.46 359.82 1011.00 1109.89 1023.97 430.89 236.14 467.03 111.90 956.25 1085.30 391.05 476.02 533.13 32.43 1026.88 1074.16 304.79 912.25 1035.35 364.04 1071.21 458.16 520.63 442.46 218.66 153.16 344.51 1140.48 518.05 1069.67 1045.90
903.04 918.55 965.34 651.26 731.61 680.72 764.22 799.44 443.37 262.81 172.09 528.13 267.80 777.85 695.61 1061.43 897.70 271.66 592.06 283.69 732.58 968.83 735.23 954.90 976.16 920.82 0.00 456.60 265.12 910.21 259.08 956.28 747.59 641.78 721.32 666.89 229.75 735.01 323.60 959.45 684.68 752.62 910.78 813.39 790.83 923.25 774.63 725.25 888.39 640.43 164.74 745.87 283.87 191.68 703.94 684.76 950.87 939.03 775.48 836.44 920.82 728.17 224.37 608.91 765.92 742.09
1170.82 1188.16 1183.99 1077.92 907.07 989.85 886.13 980.50 13.23 687.44 596.72 79.32 694.46 1176.96 920.31 1265.23 1122.40 696.29 1048.66 740.29 1143.57 1229.44 984.24 1173.55 1259.59 1139.47 456.60 0.00 689.75 1095.26 683.71 1181.23 1204.19 986.39 984.75 934.67 654.38 1159.64 748.23 1234.74 981.76 928.08 1133.22 1256.37 1247.43 1191.03 1066.05 959.11 1107.04 1065.06 621.34 913.11 708.50 564.11 1013.07 1109.39 1229.97 1214.71 1084.61 1052.56 999.92 873.39 680.97 784.37 1188.89 1166.72
983.60 954.80 1040.97 436.71 727.13 757.62 756.00 754.18 702.98 59.28 93.03 739.98 69.65 584.41 841.94 1094.68 990.82 46.43 668.41 191.33 518.03 1000.19 784.14 1020.98 1095.18 982.40 265.12 689.75 0.00 930.85 45.17 951.98 549.11 676.50 717.02 813.87 35.37 626.16 98.90 972.10 787.38 748.14 996.50 614.91 645.74 988.78 814.17 652.83 991.09 446.05 136.58 834.74 111.27 188.57 780.84 490.38 955.77 946.98 748.48 930.55 893.76 795.02 202.72 604.43 586.61 547.71
327.99 396.07 110.12 1128.82 392.44 370.23 387.11 335.29 1082.03 928.54 837.82 1051.49 919.45 1059.60 280.65 187.49 350.72 930.31 806.44 1008.14 1086.98 327.03 349.89 90.13 164.33 115.52 910.21 1095.26 930.85 0.00 924.81 347.65 1023.91 585.54 351.64 296.68 895.48 1163.21 989.33 386.55 225.53 423.02 65.65 958.11 1075.95 281.45 388.93 502.17 83.09 1009.85 1022.36 217.70 901.64 938.74 348.23 1054.18 457.04 578.49 426.65 172.41 95.34 257.42 1024.96 501.33 1071.53 1039.36
986.15 926.57 1034.93 433.59 681.96 729.39 736.29 774.84 696.94 31.05 86.99 733.08 63.10 556.18 829.88 1088.64 993.37 43.31 661.86 153.10 514.91 971.96 755.91 1014.94 1089.14 1027.57 259.08 683.71 45.17 924.81 0.00 923.75 583.07 631.33 688.79 834.30 29.33 623.04 101.45 943.87 832.55 702.97 990.46 618.33 639.70 960.55 795.15 649.71 1007.90 440.01 166.16 826.76 156.44 146.24 752.61 484.34 949.22 915.44 751.03 933.10 887.21 788.98 242.24 559.26 568.11 541.67
66.06 84.94 457.77 947.48 428.67 275.56 454.45 360.89 1186.67 892.70 983.42 1101.91 924.75 906.28 311.85 517.83 145.98 905.55 622.09 1044.54 954.40 48.21 302.08 336.79 461.94 397.76 956.28 1181.23 951.98 347.65 923.75 0.00 844.18 558.31 234.96 302.21 933.24 933.04 892.44 53.51 328.28 352.71 413.30 850.45 742.91 66.20 341.32 493.48 403.30 852.41 925.59 347.56 990.68 1055.38 298.78 808.08 196.23 261.06 242.86 349.45 439.28 307.84 1065.83 496.42 901.95 840.94
901.29 802.01 1126.25 243.85 781.50 759.39 827.28 688.62 1190.96 587.79 611.40 1160.30 594.68 62.66 784.60 1177.35 770.27 595.54 398.86 709.70 176.32 834.58 752.83 1030.86 1153.33 1022.05 747.59 1204.19 549.11 1023.91 583.07 844.18 0.00 543.59 799.99 813.32 553.74 166.27 569.99 826.95 879.56 776.35 1019.70 65.80 139.43 880.16 804.96 796.95 1049.30 143.06 685.69 835.45 635.51 688.82 782.61 187.39 755.51 583.12 804.40 974.38 928.57 795.73 751.83 736.78 74.59 41.40
561.33 516.14 695.66 564.28 320.91 356.75 402.01 366.45 973.16 662.38 678.38 1057.92 694.43 575.09 375.04 727.78 577.06 674.64 238.89 784.43 613.41 545.20 302.24 622.96 743.77 672.63 641.78 986.39 676.50 585.54 631.33 558.31 543.59 0.00 369.36 389.40 660.66 678.70 709.93 541.08 436.49 380.68 614.05 477.79 567.05 514.79 401.97 452.28 640.20 499.36 797.49 367.84 787.77 777.57 379.43 543.69 408.04 297.25 334.72 507.29 571.70 328.12 838.00 443.61 587.02 564.25
301.02 237.78 453.98 799.19 193.71 40.60 247.45 127.38 990.19 657.74 748.46 905.43 689.79 832.71 141.09 492.66 343.18 670.59 582.01 821.82 794.27 283.17 67.12 375.24 509.82 409.46 721.32 984.75 717.02 351.64 688.79 234.96 799.99 369.36 0.00 145.51 698.28 901.94 730.66 255.08 190.70 117.75 372.14 750.20 795.61 301.16 106.36 258.52 377.03 680.22 792.85 137.97 755.72 820.42 63.82 723.77 310.75 229.96 115.05 265.38 256.30 111.36 868.93 261.46 820.78 781.88
236.15 320.63 404.34 863.50 215.48 104.91 226.35 168.39 940.11 803.25 763.27 855.35 835.30 849.01 28.72 482.72 230.81 816.10 563.13 933.59 858.58 301.94 159.42 318.66 397.45 359.82 666.89 934.67 813.87 296.68 834.30 302.21 813.32 389.40 145.51 0.00 820.93 952.62 809.74 323.77 123.68 158.41 325.19 747.52 859.92 256.36 170.10 306.03 327.39 744.53 831.63 78.98 702.60 837.56 128.13 788.86 295.30 375.47 189.15 218.43 254.13 61.28 891.26 302.12 860.94 837.17
985.25 936.06 1005.60 424.40 711.29 738.88 720.63 789.55 667.61 40.54 57.66 704.61 40.94 563.17 806.57 1059.31 992.47 41.91 639.70 155.96 505.72 981.45 765.40 985.61 1059.81 1011.00 229.75 654.38 35.37 895.48 29.33 933.24 553.74 660.66 698.28 820.93 0.00 613.85 100.55 953.36 822.75 732.30 961.13 601.99 610.37 970.04 798.40 640.72 978.57 410.68 144.00 799.37 146.64 158.58 762.10 455.01 927.06 928.24 750.13 932.20 865.05 759.65 238.09 588.59 551.24 512.34
978.78 890.87 1219.27 189.45 867.60 861.80 966.58 827.92 1172.87 592.58 562.92 1201.25 572.91 103.61 923.90 1266.66 858.11 579.73 439.81 733.24 108.13 923.44 892.13 1118.70 1292.63 1109.89 735.01 1159.64 626.16 1163.21 623.04 933.04 166.27 678.70 901.94 952.62 613.85 0.00 661.26 915.81 1012.78 904.07 1159.00 205.10 228.74 969.02 921.58 780.66 1142.32 222.18 675.97 974.75 651.73 663.84 885.02 256.52 844.37 671.98 883.52 1113.68 1067.87 935.03 655.31 859.36 91.68 130.71
884.70 894.97 1068.49 471.81 775.28 744.34 814.48 754.63 761.46 72.92 151.51 805.16 104.75 598.05 795.38 1153.16 891.92 81.53 646.78 232.77 553.13 940.65 769.43 1045.61 1129.75 1023.97 323.60 748.23 98.90 989.33 101.45 892.44 569.99 709.93 730.66 809.74 100.55 661.26 0.00 900.72 787.83 796.29 938.41 635.79 709.42 931.24 715.27 687.93 991.54 511.23 207.81 788.18 111.72 231.36 728.00 555.56 990.87 873.45 649.58 831.65 928.86 748.46 277.68 652.58 609.98 611.39
119.57 65.11 491.56 927.65 432.94 295.68 497.31 376.13 1237.74 912.82 1003.54 1155.42 944.87 852.77 327.82 556.73 199.49 925.67 602.26 991.03 934.08 59.52 322.20 348.10 515.45 430.89 959.45 1234.74 972.10 386.55 943.87 53.51 826.95 541.08 255.08 323.77 953.36 915.81 900.72 0.00 274.77 372.83 383.61 818.45 689.40 105.10 321.58 513.60 414.61 862.73 872.08 343.42 950.88 1016.91 318.90 861.59 176.40 243.83 251.14 334.01 422.35 361.35 1012.32 466.60 852.55 787.43
292.72 334.91 280.66 942.31 246.84 183.72 238.06 215.48 987.20 846.66 787.89 902.44 857.03 915.25 94.96 390.90 293.34 833.81 629.37 956.97 937.39 318.74 214.28 270.22 386.32 236.14 684.68 981.76 787.38 225.53 832.55 328.28 879.56 436.49 190.70 123.68 822.75 1012.78 787.83 274.77 0.00 257.72 226.10 813.76 930.97 339.26 239.88 296.99 203.71 823.34 838.02 68.65 676.11 849.27 199.18 867.67 418.98 420.66 211.15 151.76 236.14 108.37 909.05 322.98 921.10 903.41
394.56 355.53 525.36 789.65 90.52 118.51 212.54 87.73 914.85 734.02 789.96 988.91 766.07 800.46 162.76 577.48 364.85 746.28 464.26 856.07 826.86 400.92 151.94 445.65 531.49 467.03 752.62 928.08 748.14 423.02 702.97 352.71 776.35 380.68 117.75 158.41 732.30 904.07 796.29 372.83 257.72 0.00 418.81 710.55 792.42 384.86 140.21 154.33 448.41 724.73 869.13 225.71 684.57 762.16 141.73 769.06 388.66 347.71 212.72 352.54 327.68 194.84 858.42 143.71 812.39 800.20
390.15 442.85 175.77 1123.28 370.10 377.70 415.62 331.08 1119.99 989.46 903.47 1080.00 957.41 1055.39 296.54 253.14 363.68 980.63 797.89 1073.79 1115.49 392.68 395.29 107.20 229.98 111.90 910.78 1133.22 996.50 65.65 990.46 413.30 1019.70 614.05 372.14 325.19 961.13 1159.00 938.41 383.61 226.10 418.81 0.00 953.90 1073.01 347.10 417.44 514.26 141.35 1017.32 1060.47 246.21 902.21 1004.39 376.74 1061.65 522.69 602.10 437.25 106.76 133.30 285.93 1090.61 492.80 1067.32 1043.55
866.13 867.81 1060.45 184.74 715.70 741.54 761.48 622.82 1256.76 587.87 659.65 1199.13 568.20 101.49 718.80 1112.57 704.47 575.02 347.85 727.51 215.15 877.97 687.03 965.06 1087.53 956.25 813.39 1256.37 614.91 958.11 618.33 850.45 65.80 477.79 750.20 747.52 601.99 205.10 635.79 818.45 813.76 710.55 953.90 0.00 129.05 843.74 739.16 835.78 983.50 191.31 671.26 769.65 647.02 724.85 736.20 232.92 821.31 648.92 747.81 908.58 862.77 729.93 799.06 802.58 113.42 89.65
808.97 754.51 1180.96 313.79 755.95 755.01 878.51 751.87 1234.20 650.91 668.03 1261.01 651.31 163.37 847.85 1218.11 833.52 652.28 328.16 766.33 244.68 748.92 792.57 1037.50 1204.85 1085.30 790.83 1247.43 645.74 1075.95 639.70 742.91 139.43 567.05 795.61 859.92 610.37 228.74 709.42 689.40 930.97 792.42 1073.01 129.05 0.00 794.50 692.84 885.51 1104.01 199.69 689.99 862.32 724.07 768.95 731.79 244.02 740.41 568.02 807.77 1001.77 991.82 858.98 830.23 853.94 163.15 98.03
46.54 127.98 391.57 990.52 390.01 341.76 435.79 297.13 1196.47 929.50 1019.63 1111.71 961.55 928.58 285.08 451.63 139.27 942.35 665.13 1093.58 951.77 45.58 361.34 334.16 442.42 391.05 923.25 1191.03 988.78 281.45 960.55 66.20 880.16 514.79 301.16 256.36 970.04 969.02 931.24 105.10 339.26 384.86 347.10 843.74 794.50 0.00 364.23 503.09 364.54 884.46 977.18 335.34 940.04 1047.00 360.08 861.71 175.59 297.04 281.66 329.93 376.79 317.64 1109.54 512.71 933.64 892.53
350.05 256.47 499.05 819.78 158.98 93.91 185.67 116.34 1052.82 764.10 805.10 1004.44 757.46 830.59 198.82 525.27 357.27 776.95 494.39 888.42 847.58 344.90 99.73 420.45 553.26 476.02 774.63 1066.05 814.17 388.93 795.15 341.32 804.96 401.97 106.36 170.10 798.40 921.58 715.27 321.58 239.88 140.21 417.44 739.16 692.84 364.23 0.00 294.54 443.59 733.53 769.47 171.23 705.31 796.88 117.13 777.86 364.06 336.32 114.93 310.68 356.29 210.37 909.71 281.68 842.52 790.87
508.24 455.75 577.65 753.85 144.16 217.92 346.85 237.04 945.88 619.25 698.38 1030.64 629.62 734.29 291.67 516.91 417.66 606.40 566.03 783.33 672.53 541.69 203.02 523.74 602.18 533.13 725.25 959.11 652.83 502.17 649.71 493.48 796.95 452.28 258.52 306.03 640.72 780.66 687.93 513.60 296.99 154.33 514.26 835.78 885.51 503.09 294.54 0.00 500.70 786.58 732.68 284.47 693.10 607.83 194.70 830.91 488.07 488.48 273.12 407.50 476.99 244.75 704.09 174.74 722.36 787.48
411.08 398.21 76.95 1116.10 362.92 381.38 441.77 360.68 1107.42 976.89 920.91 1027.72 944.84 1084.99 298.67 187.19 284.21 968.06 790.71 1091.23 1135.05 355.09 387.23 66.51 182.61 32.43 888.39 1107.04 991.09 83.09 1007.90 403.30 1049.30 640.20 377.03 327.39 978.57 1142.32 991.54 414.61 203.71 448.41 141.35 983.50 1104.01 364.54 443.59 500.70 0.00 1021.00 1041.73 272.36 879.82 1002.92 396.47 1065.33 490.59 553.06 414.86 230.27 120.73 312.08 1108.05 485.62 1096.92 1073.15
896.46 797.62 1097.95 118.97 688.26 639.62 846.47 758.34 1078.29 451.22 468.34 1115.29 451.62 152.49 773.25 1119.67 895.78 452.59 260.47 566.64 114.05 860.46 694.13 1014.85 1141.98 1026.88 640.43 1065.06 446.05 1009.85 440.01 852.41 143.06 499.36 680.22 744.53 410.68 222.18 511.23 862.73 823.34 724.73 1017.32 191.31 199.69 884.46 733.53 786.58 1021.00 0.00 554.68 793.37 557.32 569.26 662.84 44.33 824.94 667.51 661.34 932.82 936.52 756.08 648.77 786.25 140.56 101.66
991.65 937.19 1118.68 486.52 848.12 833.45 756.04 868.80 608.11 135.11 184.54 692.87 103.06 625.16 860.35 1186.19 1062.44 126.28 701.82 118.95 567.84 931.60 859.97 1108.24 1140.90 1074.16 164.74 621.34 136.58 1022.36 166.16 925.59 685.69 797.49 792.85 831.63 144.00 675.97 207.81 872.08 838.02 869.13 1060.47 671.26 689.99 977.18 769.47 732.68 1041.73 554.68 0.00 906.67 225.89 144.83 856.67 599.01 989.18 952.74 833.06 989.78 927.17 886.53 140.24 725.42 637.09 656.34
292.41 346.36 327.82 912.34 178.19 153.75 169.41 146.83 918.55 795.71 741.71 833.79 827.76 871.14 62.95 405.19 265.04 808.56 588.74 912.03 869.28 359.12 149.31 307.83 382.03 304.79 745.87 913.11 834.74 217.70 826.76 347.56 835.45 367.84 137.97 78.98 799.37 974.75 788.18 343.42 68.65 225.71 246.21 769.65 862.32 335.34 171.23 284.47 272.36 793.37 906.67 0.00 744.76 780.62 130.53 837.70 374.28 367.93 208.95 139.45 244.93 39.72 928.85 283.63 883.07 859.30
938.75 952.95 956.77 462.28 663.56 715.12 717.89 642.91 721.73 170.55 111.78 787.82 180.92 572.85 731.32 1067.01 933.41 157.70 736.12 282.10 543.60 985.62 707.12 946.33 1046.19 912.25 283.87 708.50 111.27 901.64 156.44 990.68 635.51 787.77 755.72 702.60 146.64 651.73 111.72 950.88 676.11 684.57 902.21 647.02 724.07 940.04 705.31 693.10 879.82 557.32 225.89 744.76 0.00 212.70 738.34 601.65 969.73 985.17 761.30 827.87 882.86 750.02 298.92 540.86 560.92 626.04
1073.03 1053.35 1048.86 540.11 751.99 818.06 611.21 749.87 550.88 162.68 100.92 586.84 173.05 626.16 808.84 1102.57 1010.93 149.83 771.81 210.89 579.46 1049.00 810.85 1028.87 1103.07 1035.35 191.68 564.11 188.57 938.74 146.24 1055.38 688.82 777.57 820.42 837.56 158.58 663.84 231.36 1016.91 849.27 762.16 1004.39 724.85 768.95 1047.00 796.88 607.83 1002.92 569.26 144.83 780.62 212.70 0.00 794.84 613.59 1059.17 976.62 873.26 920.07 882.19 802.91 164.12 705.50 638.09 670.92
313.54 261.05 458.35 781.81 142.81 23.22 183.63 126.59 1018.51 721.56 812.28 933.75 753.61 815.33 156.85 502.73 320.76 734.41 564.38 885.64 776.89 346.99 77.19 397.91 512.56 364.04 703.94 1013.07 780.84 348.23 752.61 298.78 782.61 379.43 63.82 128.13 762.10 885.02 728.00 318.90 199.18 141.73 376.74 736.20 731.79 360.08 117.13 194.70 396.47 662.84 856.67 130.53 738.34 794.84 0.00 707.17 293.37 293.78 78.42 269.98 320.12 139.68 898.79 265.51 803.40 764.50
874.14 841.95 1142.28 163.30 732.59 683.95 856.61 756.66 1122.62 495.55 512.67 1159.62 495.95 161.64 817.58 1164.00 937.39 496.92 304.80 560.80 158.38 816.13 738.46 1059.18 1186.31 1071.21 684.76 1109.39 490.38 1054.18 484.34 808.08 187.39 543.69 723.77 788.86 455.01 256.52 555.56 861.59 867.67 769.06 1061.65 232.92 244.02 861.71 777.86 830.91 1065.33 44.33 599.01 837.70 601.65 613.59 707.17 0.00 780.61 711.84 705.67 977.15 980.07 800.41 672.15 769.75 164.84 145.99
195.32 111.29 567.16 942.86 419.70 270.15 465.48 326.82 1235.41 918.17 983.86 1150.65 886.12 818.17 324.02 627.22 206.38 909.34 646.93 1071.26 861.54 199.72 324.06 466.97 591.20 458.16 950.87 1229.97 955.77 457.04 949.22 196.23 755.51 408.04 310.75 295.30 927.06 844.37 990.87 176.40 418.98 388.66 522.69 821.31 740.41 175.59 364.06 488.07 490.59 824.94 989.18 374.28 969.73 1059.17 293.37 780.61 0.00 172.39 356.68 418.15 520.31 356.58 984.89 532.37 824.10 796.91
318.17 218.89 630.01 786.48 403.57 270.56 477.41 357.34 1220.15 887.70 975.63 1135.39 919.75 645.78 371.05 706.83 378.77 900.55 536.14 923.85 753.44 251.46 297.08 540.04 714.05 520.63 939.03 1214.71 946.98 578.49 915.44 261.06 583.12 297.25 229.96 375.47 928.24 671.98 873.45 243.83 420.66 347.71 602.10 648.92 568.02 297.04 336.32 488.48 553.06 667.51 952.74 367.93 985.17 976.62 293.78 711.84 172.39 0.00 307.68 495.34 486.26 341.32 812.50 491.42 651.71 624.52
235.12 245.39 491.81 780.31 217.87 94.76 262.05 124.99 1090.05 722.50 801.09 1005.29 754.33 813.83 182.63 545.39 242.34 731.11 573.61 882.35 775.39 291.07 119.85 440.57 551.36 442.46 775.48 1084.61 748.48 426.65 751.03 242.86 804.40 334.72 115.05 189.15 750.13 883.52 649.58 251.14 211.15 212.72 437.25 747.81 807.77 281.66 114.93 273.12 414.86 661.34 833.06 208.95 761.30 873.26 78.42 705.67 356.68 307.68 0.00 348.40 364.94 211.22 927.26 330.56 801.90 763.00
283.39 336.09 282.53 1016.52 263.34 293.20 308.86 286.28 1058.00 904.57 881.16 973.24 933.65 1010.07 189.78 323.45 382.33 913.18 691.13 1051.48 1008.73 350.10 288.76 213.96 298.10 218.66 836.44 1052.56 930.55 172.41 933.10 349.45 974.38 507.29 265.38 218.43 932.20 1113.68 831.65 334.01 151.76 352.54 106.76 908.58 1001.77 329.93 310.68 407.50 230.27 932.82 989.78 139.45 827.87 920.07 269.98 977.15 418.15 495.34 348.40 0.00 109.54 179.17 1060.81 386.04 1022.00 998.23
392.93 445.63 197.68 1047.51 332.83 296.90 378.61 239.95 986.69 856.16 921.85 1037.65 824.11 964.26 259.80 265.31 313.93 847.33 760.62 1009.25 1050.57 391.07 304.16 185.47 259.67 153.16 920.82 999.92 893.76 95.34 887.21 439.28 928.57 571.70 256.30 254.13 865.05 1067.87 928.86 422.35 236.14 327.68 133.30 862.77 991.82 376.79 356.29 476.99 120.73 936.52 927.17 244.93 882.86 882.19 320.12 980.07 520.31 486.26 364.94 109.54 0.00 243.58 1046.31 429.82 976.19 952.42
297.43 314.77 367.54 874.41 162.53 116.46 209.13 107.11 878.83 769.10 701.99 794.07 799.73 831.42 46.92 444.91 249.01 781.95 549.02 872.31 870.13 356.05 110.85 347.55 415.65 344.51 728.17 873.39 795.02 257.42 788.98 307.84 795.73 328.12 111.36 61.28 759.65 935.03 748.46 361.35 108.37 194.84 285.93 729.93 858.98 317.64 210.37 244.75 312.08 756.08 886.53 39.72 750.02 802.91 139.68 800.41 356.58 341.32 211.22 179.17 243.58 0.00 889.13 243.91 843.35 819.58
1127.41 1031.39 1135.08 614.32 848.25 905.09 775.33 909.67 667.74 211.19 187.14 750.96 243.24 736.32 919.98 1188.79 1121.75 224.04 816.43 111.35 695.64 1063.96 907.11 1115.09 1189.29 1140.48 224.37 680.97 202.72 1024.96 242.24 1065.83 751.83 838.00 868.93 891.26 238.09 655.31 277.68 1012.32 909.05 858.42 1090.61 799.06 830.23 1109.54 909.71 704.09 1108.05 648.77 140.24 928.85 298.92 164.12 898.79 672.15 984.89 812.50 927.26 1060.81 1046.31 889.13 0.00 801.50 746.99 750.43
529.52 499.24 562.57 851.17 122.70 262.22 177.03 215.58 771.14 590.31 646.25 855.90 622.36 755.75 274.35 612.38 476.44 602.57 525.78 712.36 847.27 526.12 249.29 522.62 643.08 518.05 608.91 784.37 604.43 501.33 559.26 496.42 736.78 443.61 261.46 302.12 588.59 859.36 652.58 466.60 322.98 143.71 492.80 802.58 853.94 512.71 281.68 174.74 485.62 786.25 725.42 283.63 540.86 705.50 265.51 769.75 532.37 491.42 330.56 386.04 429.82 243.91 801.50 0.00 767.68 778.18
887.10 870.60 1173.87 169.26 775.92 780.18 874.90 736.24 1188.97 537.06 593.83 1109.57 552.72 11.93 832.22 1201.07 817.89 549.91 348.13 701.14 101.73 894.93 800.45 1078.48 1200.95 1069.67 765.92 1188.89 586.61 1071.53 568.11 901.95 74.59 587.02 820.78 860.94 551.24 91.68 609.98 852.55 921.10 812.39 1067.32 113.42 163.15 933.64 842.52 722.36 1096.92 140.56 637.09 883.07 560.92 638.09 803.40 164.84 824.10 651.71 801.90 1022.00 976.19 843.35 746.99 767.68 0.00 65.12
907.00 843.41 1149.48 220.63 789.92 741.28 851.13 712.47 1179.95 552.88 570.00 1164.49 553.28 66.85 808.45 1135.95 794.12 554.25 362.13 668.30 166.85 846.95 776.68 1054.71 1177.18 1045.90 742.09 1166.72 547.71 1039.36 541.67 840.94 41.40 564.25 781.88 837.17 512.34 130.71 611.39 787.43 903.41 800.20 1043.55 89.65 98.03 892.53 790.87 787.48 1073.15 101.66 656.34 859.30 626.04 670.92 764.50 145.99 796.91 624.52 763.00 998.23 952.42 819.58 750.43 778.18 65.12 0.00
DEMAND_SECTION
1 0
2 73
3 87
4 99
5 93
6 85
7 87
8 71
9 77
10 92
11 68
12 54
13 94
14 75
15 81
16 64
17 2
18 1
19 7
20 9
21 5
22 5
23 6
24 7
25 7
26 1
27 10
28 9
29 6
30 5
31 8
32 8
33 3
34 1
35 3
36 2
37 3
38 9
39 3
40 7
41 4
42 9
43 6
44 2
45 6
46 10
47 10
48 3
49 5
50 1
51 7
52 3
53 2
54 5
55 9
56 9
57 9
58 10
59 3
60 4
61 10
62 2
63 1
64 3
65 10
66 8
DEPOT_SECTION
1
-1
EOF
