NAME: LDG60_3263_rain_60_0139
COMMENT: CVRP with travel times.  rootPos=3,custPos=2,demandType=6,avgRouteSizeIndex=3,weather=rain,lambda_cluster=1,lambda_random=4, T1=300,T2=700,beta=1, alpha(i,j) ~ U(0.8,1.2)
TYPE: CVRP
DIMENSION: 61
EDGE_WEIGHT_TYPE: EXPLICIT
EDGE_WEIGHT_FORMAT: FULL_MATRIX
CAPACITY: 406
NODE_COORD_SECTION
1 0 0
2 427 509
3 459 197
4 813 61
5 397 121
6 419 616
7 336 304
8 930 896
9 745 326
10 948 856
11 361 891
12 475 313
13 229 304
14 484 456
15 460 273
16 929 700
17 417 824
18 896 38
19 978 861
20 503 792
21 479 389
22 241 682
23 899 17
24 530 316
25 456 390
26 232 883
27 422 565
28 391 758
29 530 441
30 481 90
31 632 316
32 767 318
33 904 19
34 228 13
35 880 113
36 977 865
37 411 905
38 455 362
39 821 961
40 840 169
41 496 453
42 423 905
43 508 205
44 403 871
45 496 399
46 348 922
47 891 14
48 914 70
49 474 328
50 495 458
51 425 718
52 303 605
53 408 854
54 776 937
55 441 831
56 898 24
57 373 943
58 282 549
59 381 828
60 799 39
61 486 681
EDGE_WEIGHT_SECTION
0.00 885.88 846.83 1387.92 827.37 976.27 847.48 1511.04 1109.91 1495.54 1250.78 777.87 648.43 704.92 860.39 1266.98 1214.51 1339.87 1542.06 1131.98 837.05 1196.96 1323.92 845.02 820.61 1404.73 862.34 1098.46 792.17 797.93 949.71 1110.89 1331.52 457.71 1282.71 1550.10 1263.53 821.94 1485.51 1209.99 732.00 1239.67 916.28 1251.99 834.22 1302.96 1342.30 1311.15 754.52 738.75 1099.41 1049.25 1208.73 1385.47 1194.97 1304.66 1321.45 1067.00 1197.98 1368.58 1011.34
885.88 0.00 413.36 853.32 506.13 132.74 398.32 856.09 515.61 904.36 500.64 299.57 541.61 180.96 333.14 709.47 370.14 897.43 908.94 349.50 270.83 423.56 856.67 359.68 246.36 575.17 88.94 268.90 247.35 608.68 427.58 473.54 877.05 782.54 890.68 916.98 470.92 208.80 827.20 731.69 179.81 480.47 445.98 447.33 310.26 509.16 882.32 885.31 276.22 181.24 255.88 275.85 407.26 727.16 418.67 874.84 505.72 298.12 386.98 821.79 271.41
846.83 413.36 0.00 698.15 171.86 486.59 320.35 1100.55 444.05 1086.80 820.27 151.65 264.18 347.95 177.51 870.85 765.26 624.80 1033.80 720.85 242.68 670.42 584.04 227.64 266.07 886.47 454.64 665.59 316.82 221.17 245.88 407.06 604.42 389.12 590.83 1025.76 808.40 204.56 1000.74 583.77 320.87 784.54 93.38 766.91 236.46 863.95 609.69 659.96 137.14 342.62 600.79 522.71 750.55 900.70 779.15 603.30 883.00 491.44 706.56 649.43 600.21
1387.92 853.32 698.15 0.00 807.04 906.04 789.68 1035.95 387.48 1022.35 1195.68 620.98 835.04 713.13 674.55 827.07 1097.09 94.90 969.35 995.12 685.37 1055.47 114.11 543.19 726.40 1287.31 855.36 981.04 625.88 623.18 537.30 425.61 128.57 930.21 222.09 977.39 1144.10 694.07 1119.45 196.81 691.45 1167.96 605.52 1175.66 655.91 1143.50 139.76 152.96 633.69 710.97 1029.18 907.76 1140.87 1154.98 1088.21 130.11 1206.87 976.50 1151.75 49.47 970.79
827.37 506.13 171.86 807.04 0.00 631.67 492.21 1208.80 615.91 1205.60 935.29 323.51 362.63 454.91 347.16 977.04 825.19 747.46 1166.97 696.02 359.36 744.05 710.66 322.48 372.01 877.64 517.74 717.20 417.08 255.47 417.74 578.92 709.28 369.66 712.10 1175.01 932.92 297.33 1172.60 755.63 427.83 910.36 214.65 870.99 403.45 957.46 685.01 768.69 309.00 448.81 717.47 596.34 869.26 1072.56 794.34 722.65 954.02 525.92 853.38 770.70 697.47
976.27 132.74 486.59 906.04 631.67 0.00 450.31 826.27 648.35 792.76 374.55 406.66 625.25 271.35 396.23 766.99 303.99 847.19 845.76 237.90 294.22 361.27 833.97 362.85 335.40 494.21 113.93 187.94 295.71 660.00 544.76 606.28 841.57 851.00 834.53 853.80 338.18 341.54 726.46 766.53 280.37 362.04 529.34 317.78 250.13 377.36 852.35 789.13 408.17 277.56 123.14 213.56 274.52 626.42 319.25 814.71 412.78 252.74 294.33 872.12 170.67
847.48 398.32 320.35 789.68 492.21 450.31 0.00 989.37 516.31 973.87 757.61 168.70 202.52 250.91 252.59 745.31 631.59 766.56 1026.87 638.81 291.94 577.47 725.80 248.16 301.76 813.27 401.84 515.54 306.37 524.51 387.24 548.42 746.18 400.69 802.48 1034.91 739.03 232.65 1017.79 600.82 238.83 741.92 360.18 710.16 325.23 755.80 751.45 812.34 192.05 217.08 573.45 429.76 675.37 917.75 665.94 745.06 752.36 359.34 686.25 839.15 518.17
1511.04 856.09 1100.55 1035.95 1208.80 826.27 989.37 0.00 884.29 78.64 571.02 948.90 1110.07 806.12 1018.18 244.06 701.52 941.05 88.46 633.50 916.00 806.23 981.81 957.31 874.82 769.12 838.07 752.38 791.72 1201.37 955.22 842.22 983.57 1294.37 901.28 96.50 658.52 911.47 230.32 1034.03 794.04 634.66 1061.97 674.07 872.08 623.20 1003.50 970.41 972.25 772.29 755.60 951.66 671.05 199.85 711.97 976.26 641.69 990.04 646.26 1074.60 655.60
1109.91 515.61 444.05 387.48 615.91 648.35 516.31 884.29 0.00 805.65 840.11 347.61 708.23 404.99 362.21 899.39 709.61 441.42 848.16 750.78 461.18 834.75 419.28 371.76 473.69 899.83 562.41 593.56 375.14 578.62 203.25 42.07 398.90 833.17 459.21 856.20 817.03 438.38 1114.61 340.62 392.91 793.17 448.45 788.18 455.50 833.82 423.17 493.04 370.96 371.16 658.36 741.75 753.39 1028.57 743.96 425.76 830.38 699.41 764.27 436.95 672.25
1495.54 904.36 1086.80 1022.35 1205.60 792.76 973.87 78.64 805.65 0.00 649.66 935.15 1118.03 790.62 988.37 228.56 684.03 953.05 53.00 554.86 900.50 884.87 993.81 968.48 859.32 847.76 857.97 769.90 802.89 1265.63 924.76 763.58 995.57 1278.87 865.82 61.04 689.66 908.27 308.96 1018.53 778.54 665.80 1028.84 744.70 883.25 701.84 1015.50 934.95 958.50 756.79 705.10 912.16 728.10 278.49 653.18 988.26 720.33 982.58 724.90 1039.14 675.50
1250.78 500.64 820.27 1195.68 935.29 374.55 757.61 571.02 840.11 649.66 0.00 725.86 744.75 545.86 749.88 768.36 130.50 1169.92 659.48 239.27 629.39 412.76 1133.12 722.64 643.06 198.10 449.35 246.55 586.32 1019.79 819.27 882.18 1131.74 1157.26 1209.08 667.52 117.35 649.28 676.06 1037.58 518.78 141.21 856.57 103.05 624.68 52.18 1107.47 1163.68 702.51 540.53 271.28 380.64 100.03 576.02 140.95 1145.11 70.67 451.06 113.71 1160.76 324.58
777.87 299.57 151.65 620.98 323.51 406.66 168.70 948.90 347.61 935.15 725.86 0.00 371.22 234.16 83.89 757.06 662.20 597.86 882.15 607.06 123.24 590.49 557.10 79.46 139.69 734.82 340.85 546.15 210.52 355.81 218.54 379.72 577.48 540.77 633.78 874.11 712.38 90.77 849.09 432.12 207.08 704.61 191.48 664.43 156.53 778.04 582.75 643.64 23.35 228.83 481.35 442.78 648.72 749.05 670.05 576.36 782.97 416.89 676.49 670.45 486.42
648.43 541.61 264.18 835.04 362.63 625.25 202.52 1110.07 708.23 1118.03 744.75 371.22 0.00 360.65 441.69 889.47 688.79 888.98 1171.03 787.71 438.77 607.95 848.22 450.68 451.42 942.85 511.32 715.59 447.90 399.88 510.06 671.24 868.60 587.52 855.01 1179.07 708.38 376.74 1010.26 803.34 387.73 732.24 357.56 687.98 430.68 796.93 873.87 913.10 394.57 394.48 748.39 606.45 644.72 910.22 734.43 867.48 782.98 536.03 688.71 785.57 667.07
704.92 180.96 347.95 713.13 454.91 271.35 250.91 806.12 404.99 790.62 545.86 234.16 360.65 0.00 258.18 562.06 509.59 729.09 837.14 427.06 132.13 492.04 713.14 242.02 115.69 699.81 157.42 393.54 87.25 496.89 273.41 434.59 720.74 651.60 713.70 845.18 558.61 157.58 780.59 613.90 27.08 534.75 357.50 547.07 129.30 598.04 731.52 744.11 210.81 33.83 394.49 344.33 503.81 680.55 490.05 693.88 616.53 362.08 493.06 663.66 306.42
860.39 333.14 177.51 674.55 347.16 396.23 252.59 1018.18 362.21 988.37 749.88 83.89 441.69 258.18 0.00 781.08 700.22 681.75 966.04 631.08 190.19 509.00 640.99 131.36 199.45 815.86 391.06 584.17 226.46 398.68 301.06 404.28 661.37 566.63 693.89 958.00 718.04 135.57 921.25 516.01 231.10 694.18 196.44 709.23 146.10 773.59 666.64 704.38 105.87 252.85 519.37 432.35 670.75 821.21 688.79 660.25 792.64 461.69 690.56 724.02 510.44
1266.98 709.47 870.85 827.07 977.04 766.99 745.31 244.06 899.39 228.56 768.36 757.06 889.47 562.06 781.08 0.00 658.26 881.68 281.56 529.09 671.94 888.05 922.44 783.11 630.76 933.42 719.48 627.15 617.52 1058.95 711.16 872.34 924.20 1050.31 990.16 289.60 765.99 679.71 474.38 789.97 549.98 743.43 887.77 736.83 674.15 820.54 944.13 939.74 733.71 528.23 679.33 860.20 702.33 443.91 627.41 916.89 826.24 856.48 716.96 876.54 625.68
1214.51 370.14 765.26 1097.09 825.19 303.99 631.59 701.52 709.61 684.03 130.50 662.20 688.79 509.59 700.22 658.26 0.00 1039.42 723.13 129.17 538.96 318.92 1002.62 592.14 578.29 323.51 394.34 116.05 510.86 889.29 741.79 751.68 1001.24 1032.28 1129.14 731.17 107.73 578.94 594.48 927.48 497.51 110.33 764.30 78.57 554.12 176.05 976.97 1081.89 646.36 475.76 180.85 324.68 44.07 545.14 48.53 1014.61 167.98 395.10 58.70 1087.27 232.16
1339.87 897.43 624.80 94.90 747.46 847.19 766.56 941.05 441.42 953.05 1169.92 597.86 888.98 729.09 681.75 881.68 1039.42 0.00 900.05 960.24 643.88 1033.75 40.76 631.08 685.06 1269.55 886.51 1034.98 680.15 571.28 561.21 469.57 42.52 911.50 127.19 908.09 1147.15 688.63 1168.97 220.72 744.50 1147.87 611.02 1117.99 599.79 1215.47 62.45 58.06 621.21 745.71 970.33 886.04 1083.49 1068.93 1058.56 35.21 1163.95 933.25 1098.12 144.37 998.54
1542.06 908.94 1033.80 969.35 1166.97 845.76 1026.87 88.46 848.16 53.00 659.48 882.15 1171.03 837.14 966.04 281.56 723.13 900.05 0.00 607.86 874.34 894.69 940.81 915.48 912.32 857.58 910.97 822.90 749.89 1212.63 897.01 816.58 942.57 1331.87 812.82 8.04 636.66 869.64 314.14 1014.48 817.43 612.80 975.84 691.70 830.25 711.66 962.50 881.95 905.50 809.79 758.10 906.20 700.32 288.31 706.18 935.26 700.74 937.11 734.72 986.14 728.50
1131.98 349.50 720.85 995.12 696.02 237.90 638.81 633.50 750.78 554.86 239.27 607.06 787.71 427.06 631.08 529.09 129.17 960.24 607.86 0.00 508.35 377.35 944.29 600.75 524.26 437.37 303.11 215.04 467.52 865.72 700.47 708.71 951.89 1036.22 999.97 615.90 236.90 520.78 494.17 798.31 399.98 214.34 737.77 207.74 488.03 291.45 962.67 992.31 583.71 421.73 150.24 444.29 173.24 576.39 98.32 925.03 297.15 475.44 187.87 1041.96 120.64
837.05 270.83 242.68 685.37 359.36 294.22 291.94 916.00 461.18 900.50 629.39 123.24 438.77 132.13 190.19 671.94 538.96 643.88 874.34 508.35 0.00 478.05 627.93 156.81 41.18 713.85 289.55 422.91 124.45 449.85 324.64 419.11 635.53 631.80 628.49 882.38 614.58 62.03 819.24 555.36 122.81 592.17 309.14 548.88 44.09 663.17 646.31 675.95 129.45 143.71 358.11 330.34 568.74 719.20 554.22 608.67 659.73 318.88 588.55 700.86 402.15
1196.96 423.56 670.42 1055.47 744.05 361.27 577.47 806.23 834.75 884.87 412.76 590.49 607.95 492.04 509.00 888.05 318.92 1033.75 894.69 377.35 478.05 0.00 1017.80 546.68 519.23 473.55 334.62 260.90 514.32 796.10 754.89 876.82 1025.40 978.16 1018.36 902.73 403.16 540.08 828.92 950.36 519.12 427.02 705.44 359.40 433.96 413.17 1036.18 1065.82 592.00 525.87 276.07 147.71 339.50 728.88 367.45 998.54 476.54 218.13 299.05 1006.00 368.80
1323.92 856.67 584.04 114.11 710.66 833.97 725.80 981.81 419.28 993.81 1133.12 557.10 848.22 713.14 640.99 922.44 1002.62 40.76 940.81 944.29 627.93 1017.80 0.00 636.56 669.11 1253.60 870.56 1012.84 664.20 599.76 547.94 461.35 20.38 886.43 155.67 948.85 1110.35 647.87 1146.83 215.00 728.55 1112.95 594.86 1081.19 583.84 1178.67 25.65 86.54 580.45 729.76 957.11 870.09 1046.69 1046.79 1042.61 19.26 1148.00 940.51 1061.32 163.58 982.59
845.02 359.68 227.64 543.19 322.48 362.85 248.16 957.31 371.76 968.48 722.64 79.46 450.68 242.02 131.36 783.11 592.14 631.08 915.48 600.75 156.81 546.68 636.56 0.00 183.21 782.48 395.07 550.79 165.59 297.15 208.21 369.39 656.94 616.76 610.51 923.52 684.66 150.88 887.87 511.58 233.13 660.80 172.16 670.71 112.72 740.21 662.21 573.02 90.50 254.88 485.99 398.97 636.21 787.83 627.92 640.30 759.26 469.39 650.84 592.66 508.43
820.61 246.36 266.07 726.40 372.01 335.40 301.76 874.82 473.69 859.32 643.06 139.69 451.42 115.69 199.45 630.76 578.29 685.06 912.32 524.26 41.18 519.23 669.11 183.21 0.00 755.03 273.11 462.24 165.63 446.10 300.65 460.29 676.71 648.42 669.67 920.36 655.76 74.68 860.42 571.81 124.28 631.95 293.97 590.06 85.27 695.24 687.49 717.13 142.10 102.53 399.29 371.52 601.01 760.38 587.25 649.85 699.06 310.37 608.75 742.04 403.62
1404.73 575.17 886.47 1287.31 877.64 494.21 813.27 769.12 899.83 847.76 198.10 734.82 942.85 699.81 815.86 933.42 323.51 1269.55 857.58 437.37 713.85 473.55 1253.60 782.48 755.03 0.00 570.42 306.27 750.12 1079.63 953.36 941.90 1261.20 1213.96 1254.16 865.62 315.45 775.88 809.33 1166.94 687.73 339.31 926.30 267.33 669.76 250.28 1271.98 1283.34 758.17 665.98 371.07 383.51 298.13 709.29 339.05 1234.34 268.77 453.93 311.81 1241.80 429.53
862.34 88.94 454.64 855.36 517.74 113.93 401.84 838.07 562.41 857.97 449.35 340.85 511.32 157.42 391.06 719.48 394.34 886.51 910.97 303.11 289.55 334.62 870.56 395.07 273.11 570.42 0.00 301.87 229.48 649.96 430.83 562.48 857.39 802.53 871.12 915.81 443.29 255.49 738.26 771.32 184.50 439.89 499.73 395.99 286.72 491.29 881.66 901.53 317.50 191.25 237.07 186.91 379.63 638.22 366.10 851.30 517.89 257.33 335.64 805.89 182.47
1098.46 268.90 665.59 981.04 717.20 187.94 515.54 752.38 593.56 769.90 246.55 546.15 715.59 393.54 584.17 627.15 116.05 1034.98 822.90 215.04 422.91 260.90 1012.84 550.79 462.24 306.27 301.87 0.00 449.00 847.94 654.35 635.63 992.46 916.23 1022.47 830.94 223.49 477.70 616.59 934.18 381.46 226.38 714.88 194.62 438.07 240.26 1016.73 977.07 545.12 359.71 64.80 233.05 159.83 600.51 150.40 1002.65 236.82 303.47 170.71 1023.44 200.90
792.17 247.35 316.82 625.88 417.08 295.71 306.37 791.72 375.14 802.89 586.32 210.52 447.90 87.25 226.46 617.52 510.86 680.15 749.89 467.52 124.45 514.32 664.20 165.59 165.63 750.12 229.48 449.00 0.00 462.74 360.66 417.21 671.80 693.49 664.76 757.93 599.07 119.75 855.51 564.69 67.54 575.21 270.25 575.06 80.36 587.22 682.58 712.22 187.17 89.29 418.85 366.61 544.27 755.47 462.33 644.94 650.59 350.62 547.78 576.41 346.88
797.93 608.68 221.17 623.18 255.47 660.00 524.51 1201.37 578.62 1265.63 1019.79 355.81 399.88 496.89 398.68 1058.95 889.29 571.28 1212.63 865.72 449.85 796.10 599.76 297.15 446.10 1079.63 649.96 847.94 462.74 0.00 375.37 536.55 607.36 340.22 582.35 1220.67 981.81 399.88 1185.02 692.20 516.19 957.95 314.55 967.86 409.87 1037.36 618.14 513.22 332.46 530.72 783.14 696.12 933.36 1084.98 925.07 580.50 1056.41 712.61 927.73 573.71 745.08
949.71 427.58 245.88 537.30 417.74 544.76 387.24 955.22 203.25 924.76 819.27 218.54 510.06 273.41 301.06 711.16 741.79 561.21 897.01 700.47 324.64 754.89 547.94 208.21 300.65 953.36 430.83 654.35 360.66 375.37 0.00 161.18 546.56 635.00 542.15 888.97 784.52 262.61 1054.00 340.49 300.49 808.16 290.17 729.58 320.93 853.09 522.29 611.28 195.19 294.64 634.88 607.18 772.84 953.96 693.26 559.93 857.31 588.73 766.47 586.77 579.83
1110.89 473.54 407.06 425.61 578.92 606.28 548.42 842.22 42.07 763.58 882.18 379.72 671.24 434.59 404.28 872.34 751.68 469.57 816.58 708.71 419.11 876.82 461.35 369.39 460.29 941.90 562.48 635.63 417.21 536.55 161.18 0.00 440.97 796.18 417.14 824.62 774.96 423.79 1072.54 298.55 434.98 751.10 451.35 830.00 463.20 866.27 465.24 486.27 356.37 413.23 700.43 749.39 795.46 1042.07 786.03 467.83 849.56 737.99 806.34 475.08 714.32
1331.52 877.05 604.42 128.57 709.28 841.57 746.18 983.57 398.90 995.57 1131.74 577.48 868.60 720.74 661.37 924.20 1001.24 42.52 942.57 951.89 635.53 1025.40 20.38 656.94 676.71 1261.20 857.39 992.46 671.80 607.36 546.56 440.97 0.00 906.81 155.88 950.61 1108.97 668.25 1126.45 213.62 736.15 1111.57 602.67 1079.81 591.44 1177.29 24.27 94.14 600.83 737.36 964.71 877.69 1045.31 1026.41 1049.77 26.86 1155.60 948.11 1059.94 178.04 990.19
457.71 782.54 389.12 930.21 369.66 851.00 400.69 1294.37 833.17 1278.87 1157.26 540.77 587.52 651.60 566.63 1050.31 1032.28 911.50 1331.87 1036.22 631.80 978.16 886.43 616.76 648.42 1213.96 802.53 916.23 693.49 340.22 635.00 796.18 906.81 0.00 922.57 1339.91 1139.72 573.74 1389.86 972.89 639.52 1142.61 482.50 1110.85 625.58 1156.49 912.08 853.44 526.26 617.77 885.98 830.45 1076.06 1289.82 1066.63 905.69 1153.05 760.03 1086.94 913.93 918.86
1282.71 890.68 590.83 222.09 712.10 834.53 802.48 901.28 459.21 865.82 1209.08 633.78 855.01 713.70 693.89 990.16 1129.14 127.19 812.82 999.97 628.49 1018.36 155.67 610.51 669.67 1254.16 871.12 1022.47 664.76 582.35 542.15 417.14 155.88 922.57 0.00 820.86 1156.34 690.52 1126.96 201.66 729.11 1132.48 497.45 1152.31 584.40 1211.89 174.05 69.13 657.13 730.32 957.67 870.65 1109.05 1101.13 1098.29 136.41 1230.94 941.07 1128.86 173.32 983.15
1550.10 916.98 1025.76 977.39 1175.01 853.80 1034.91 96.50 856.20 61.04 667.52 874.11 1179.07 845.18 958.00 289.60 731.17 908.09 8.04 615.90 882.38 902.73 948.85 923.52 920.36 865.62 915.81 830.94 757.93 1220.67 888.97 824.62 950.61 1339.91 820.86 0.00 644.70 877.68 322.18 1022.52 825.47 620.84 983.88 699.74 838.29 719.70 970.54 889.99 897.46 817.83 766.14 914.24 708.36 296.35 714.22 943.30 692.70 945.15 742.76 994.18 733.34
1263.53 470.92 808.40 1144.10 932.92 338.18 739.03 658.52 817.03 689.66 117.35 712.38 708.38 558.61 718.04 765.99 107.73 1147.15 636.66 236.90 614.58 403.16 1110.35 684.66 655.76 315.45 443.29 223.49 599.07 981.81 784.52 774.96 1108.97 1139.72 1156.34 644.70 0.00 662.03 558.71 1035.21 531.53 23.86 851.15 98.88 571.94 107.49 1084.70 1127.31 715.26 553.28 288.29 344.27 63.66 458.67 139.88 1122.34 74.60 414.69 107.65 1173.51 281.28
821.94 208.80 204.56 694.07 297.33 341.54 232.65 911.47 438.38 908.27 649.28 90.77 376.74 157.58 135.57 679.71 578.94 688.63 869.64 520.78 62.03 540.08 647.87 150.88 74.68 775.88 255.49 477.70 119.75 399.88 262.61 423.79 668.25 573.74 690.52 877.68 662.03 0.00 877.04 522.89 130.50 638.17 247.11 573.66 106.12 697.17 673.52 676.51 67.42 151.48 420.14 392.37 607.23 777.00 582.08 667.13 701.39 326.12 591.13 678.78 400.14
1485.51 827.20 1000.74 1119.45 1172.60 726.46 1017.79 230.32 1114.61 308.96 676.06 849.09 1010.26 780.59 921.25 474.38 594.48 1168.97 314.14 494.17 819.24 828.92 1146.83 887.87 860.42 809.33 738.26 616.59 855.51 1185.02 1054.00 1072.54 1126.45 1389.86 1126.96 322.18 558.71 877.04 0.00 1264.35 807.67 534.85 1040.57 613.75 775.15 650.02 1150.72 1196.09 872.44 814.42 644.41 849.64 622.37 100.04 592.49 1153.31 633.31 862.72 653.18 1168.92 555.79
1209.99 731.69 583.77 196.81 755.63 766.53 600.82 1034.03 340.62 1018.53 1037.58 432.12 803.34 613.90 516.01 789.97 927.48 220.72 1014.48 798.31 555.36 950.36 215.00 511.58 571.81 1166.94 771.32 934.18 564.69 692.20 340.49 298.55 213.62 972.89 201.66 1022.52 1035.21 522.89 1264.35 0.00 632.23 1012.65 623.60 1001.47 516.40 1089.76 189.35 270.79 455.47 635.13 889.67 802.65 971.55 1181.17 896.63 226.99 1095.46 849.01 986.18 246.28 911.57
732.00 179.81 320.87 691.45 427.83 280.37 238.83 794.04 392.91 778.54 518.78 207.08 387.73 27.08 231.10 549.98 497.51 744.50 817.43 399.98 122.81 519.12 728.55 233.13 124.28 687.73 184.50 381.46 67.54 516.19 300.49 434.98 736.15 639.52 729.11 825.47 531.53 130.50 807.67 632.23 0.00 507.67 337.79 519.99 144.71 570.96 746.93 771.19 183.73 21.75 403.51 371.41 476.73 707.63 462.97 709.29 589.45 350.00 520.14 641.98 279.34
1239.67 480.47 784.54 1167.96 910.36 362.04 741.92 634.66 793.17 665.80 141.21 704.61 732.24 534.75 694.18 743.43 110.33 1147.87 612.80 214.34 592.17 427.02 1112.95 660.80 631.95 339.31 439.89 226.38 575.21 957.95 808.16 751.10 1111.57 1142.61 1132.48 620.84 23.86 638.17 534.85 1012.65 507.67 0.00 827.29 78.90 548.08 115.17 1087.30 1151.17 691.40 529.42 291.18 368.13 87.52 434.81 116.02 1112.66 98.46 438.55 131.51 1149.65 257.42
916.28 445.98 93.38 605.52 214.65 529.34 360.18 1061.97 448.45 1028.84 856.57 191.48 357.56 357.50 196.44 887.77 764.30 611.02 975.84 737.77 309.14 705.44 594.86 172.16 293.97 926.30 499.73 714.88 270.25 314.55 290.17 451.35 602.67 482.50 497.45 983.88 851.15 247.11 1040.57 623.60 337.79 827.29 0.00 820.77 279.21 857.47 613.45 566.58 208.16 359.54 652.48 565.46 803.86 940.53 732.58 575.81 920.84 573.23 799.94 556.05 617.13
1251.99 447.33 766.91 1175.66 870.99 317.78 710.16 674.07 788.18 744.70 103.05 664.43 687.98 547.07 709.23 736.83 78.57 1117.99 691.70 207.74 548.88 359.40 1081.19 670.71 590.06 267.33 395.99 194.62 575.06 967.86 729.58 830.00 1079.81 1110.85 1152.31 699.74 98.88 573.66 613.75 1001.47 519.99 78.90 820.77 0.00 567.91 123.51 1055.54 1106.91 641.08 541.74 259.42 323.87 43.26 513.71 112.73 1093.18 127.73 394.29 60.35 1151.47 296.36
834.22 310.26 236.46 655.91 403.45 250.13 325.23 872.08 455.50 883.25 624.68 156.53 430.68 129.30 146.10 674.15 554.12 599.79 830.25 488.03 44.09 433.96 583.84 112.72 85.27 669.76 286.72 438.07 80.36 409.87 320.93 463.20 591.44 625.58 584.40 838.29 571.94 106.12 775.15 516.40 144.71 548.08 279.21 567.91 0.00 627.49 602.22 631.86 158.04 145.92 373.27 286.25 524.65 675.11 542.69 564.58 646.54 356.67 544.46 656.77 398.75
1302.96 509.16 863.95 1143.50 957.46 377.36 755.80 623.20 833.82 701.84 52.18 778.04 796.93 598.04 773.59 820.54 176.05 1215.47 711.66 291.45 663.17 413.17 1178.67 740.21 695.24 250.28 491.29 240.26 587.22 1037.36 853.09 866.27 1177.29 1156.49 1211.89 719.70 107.49 697.17 650.02 1089.76 570.96 115.17 857.47 123.51 627.49 0.00 1153.02 1166.49 754.69 592.71 305.06 432.82 152.21 549.98 193.13 1190.66 63.37 503.24 165.89 1163.63 311.32
1342.30 882.32 609.69 139.76 685.01 852.35 751.45 1003.50 423.17 1015.50 1107.47 582.75 873.87 731.52 666.64 944.13 976.97 62.45 962.50 962.67 646.31 1036.18 25.65 662.21 687.49 1271.98 881.66 1016.73 682.58 618.14 522.29 465.24 24.27 912.08 174.05 970.54 1084.70 673.52 1150.72 189.35 746.93 1087.30 613.45 1055.54 602.22 1153.02 0.00 104.92 606.10 748.14 975.49 888.47 1021.04 1050.68 1025.50 37.64 1144.95 958.89 1035.67 162.85 1000.97
1311.15 885.31 659.96 152.96 768.69 789.13 812.34 970.41 493.04 934.95 1163.68 643.64 913.10 744.11 704.38 939.74 1081.89 58.06 881.95 992.31 675.95 1065.82 86.54 573.02 717.13 1283.34 901.53 977.07 712.22 513.22 611.28 486.27 94.14 853.44 69.13 889.99 1127.31 676.51 1196.09 270.79 771.19 1151.17 566.58 1106.91 631.86 1166.49 104.92 0.00 640.47 777.78 912.27 918.11 1063.65 1120.55 1090.63 67.28 1196.02 988.53 1083.46 202.43 959.80
754.52 276.22 137.14 633.69 309.00 408.17 192.05 972.25 370.96 958.50 702.51 23.35 394.57 210.81 105.87 733.71 646.36 621.21 905.50 583.71 129.45 592.00 580.45 90.50 142.10 758.17 317.50 545.12 187.17 332.46 195.19 356.37 600.83 526.26 657.13 897.46 715.26 67.42 872.44 455.47 183.73 691.40 208.16 641.08 158.04 754.69 606.10 640.47 0.00 205.48 487.56 444.29 659.39 772.40 646.70 599.71 768.81 393.54 653.14 683.16 463.07
738.75 181.24 342.62 710.97 448.81 277.56 217.08 772.29 371.16 756.79 540.53 228.83 394.48 33.83 252.85 528.23 475.76 745.71 809.79 421.73 143.71 525.87 729.76 254.88 102.53 665.98 191.25 359.71 89.29 530.72 294.64 413.23 737.36 617.77 730.32 817.83 553.28 151.48 814.42 635.13 21.75 529.42 359.54 541.74 145.92 592.71 748.14 777.78 205.48 0.00 400.70 378.16 498.48 714.38 484.72 710.50 596.53 328.25 526.89 663.73 301.09
1099.41 255.88 600.79 1029.18 717.47 123.14 573.45 755.60 658.36 705.10 271.28 481.35 748.39 394.49 519.37 679.33 180.85 970.33 758.10 150.24 358.11 276.07 957.11 485.99 399.29 371.07 237.07 64.80 418.85 783.14 634.88 700.43 964.71 885.98 957.67 766.14 288.29 420.14 644.41 889.67 403.51 291.18 652.48 259.42 373.27 305.06 975.49 912.27 487.56 400.70 0.00 297.85 224.63 555.75 196.11 937.85 301.62 368.27 235.51 995.26 167.03
1049.25 275.85 522.71 907.76 596.34 213.56 429.76 951.66 741.75 912.16 380.64 442.78 606.45 344.33 432.35 860.20 324.68 886.04 906.20 444.29 330.34 147.71 870.09 398.97 371.52 383.51 186.91 233.05 366.61 696.12 607.18 749.39 877.69 830.45 870.65 914.24 344.27 392.37 849.64 802.65 371.41 368.13 565.46 323.87 286.25 432.82 888.47 918.11 444.29 378.16 297.85 0.00 280.61 802.94 345.97 850.83 407.95 70.42 324.60 858.29 369.38
1208.73 407.26 750.55 1140.87 869.26 274.52 675.37 671.05 753.39 728.10 100.03 648.72 644.72 503.81 670.75 702.33 44.07 1083.49 700.32 173.24 568.74 339.50 1046.69 636.21 601.01 298.13 379.63 159.83 544.27 933.36 772.84 795.46 1045.31 1076.06 1109.05 708.36 63.66 607.23 622.37 971.55 476.73 87.52 803.86 43.26 524.65 152.21 1021.04 1063.65 659.39 498.48 224.63 280.61 0.00 522.33 89.71 1058.68 138.26 351.03 43.99 1118.71 273.34
1385.47 727.16 900.70 1154.98 1072.56 626.42 917.75 199.85 1028.57 278.49 576.02 749.05 910.22 680.55 821.21 443.91 545.14 1068.93 288.31 576.39 719.20 728.88 1046.79 787.83 760.38 709.29 638.22 600.51 755.47 1084.98 953.96 1042.07 1026.41 1289.82 1101.13 296.35 458.67 777.00 100.04 1181.17 707.63 434.81 940.53 513.71 675.11 549.98 1050.68 1120.55 772.40 714.38 555.75 802.94 522.33 0.00 523.67 1053.27 533.27 790.19 566.32 1204.45 455.75
1194.97 418.67 779.15 1088.21 794.34 319.25 665.94 711.97 743.96 653.18 140.95 670.05 734.43 490.05 688.79 627.41 48.53 1058.56 706.18 98.32 554.22 367.45 1042.61 627.92 587.25 339.05 366.10 150.40 462.33 925.07 693.26 786.03 1049.77 1066.63 1098.29 714.22 139.88 582.08 592.49 896.63 462.97 116.02 732.58 112.73 542.69 193.13 1025.50 1090.63 646.70 484.72 196.11 345.97 89.71 523.67 0.00 1023.35 211.62 416.39 98.66 1038.74 183.63
1304.66 874.84 603.30 130.11 722.65 814.71 745.06 976.26 425.76 988.26 1145.11 576.36 867.48 693.88 660.25 916.89 1014.61 35.21 935.26 925.03 608.67 998.54 19.26 640.30 649.85 1234.34 851.30 1002.65 644.94 580.50 559.93 467.83 26.86 905.69 136.41 943.30 1122.34 667.13 1153.31 226.99 709.29 1112.66 575.81 1093.18 564.58 1190.66 37.64 67.28 599.71 710.50 937.85 850.83 1058.68 1053.27 1023.35 0.00 1128.74 921.25 1073.31 178.50 963.33
1321.45 505.72 883.00 1206.87 954.02 412.78 752.36 641.69 830.38 720.33 70.67 782.97 782.98 616.53 792.64 826.24 167.98 1163.95 700.74 297.15 659.73 476.54 1148.00 759.26 699.06 268.77 517.89 236.82 650.59 1056.41 857.31 849.56 1155.60 1153.05 1230.94 692.70 74.60 701.39 633.31 1095.46 589.45 98.46 920.84 127.73 646.54 63.37 1144.95 1196.02 768.81 596.53 301.62 407.95 138.26 533.27 211.62 1128.74 0.00 478.37 182.25 1227.00 355.88
1067.00 298.12 491.44 976.50 525.92 252.74 359.34 990.04 699.41 982.58 451.06 416.89 536.03 362.08 461.69 856.48 395.10 933.25 937.11 475.44 318.88 218.13 940.51 469.39 310.37 453.93 257.33 303.47 350.62 712.61 588.73 737.99 948.11 760.03 941.07 945.15 414.69 326.12 862.72 849.01 350.00 438.55 573.23 394.29 356.67 503.24 958.89 988.53 393.54 328.25 368.27 70.42 351.03 790.19 416.39 921.25 478.37 0.00 395.02 927.03 354.80
1197.98 386.98 706.56 1151.75 853.38 294.33 686.25 646.26 764.27 724.90 113.71 676.49 688.71 493.06 690.56 716.96 58.70 1098.12 734.72 187.87 588.55 299.05 1061.32 650.84 608.75 311.81 335.64 170.71 547.78 927.73 766.47 806.34 1059.94 1086.94 1128.86 742.76 107.65 591.13 653.18 986.18 520.14 131.51 799.94 60.35 544.46 165.89 1035.67 1083.46 653.14 526.89 235.51 324.60 43.99 566.32 98.66 1073.31 182.25 395.02 0.00 1124.19 282.29
1368.58 821.79 649.43 49.47 770.70 872.12 839.15 1074.60 436.95 1039.14 1160.76 670.45 785.57 663.66 724.02 876.54 1087.27 144.37 986.14 1041.96 700.86 1006.00 163.58 592.66 742.04 1241.80 805.89 1023.44 576.41 573.71 586.77 475.08 178.04 913.93 173.32 994.18 1173.51 678.78 1168.92 246.28 641.98 1149.65 556.05 1151.47 656.77 1163.63 162.85 202.43 683.16 663.73 995.26 858.29 1118.71 1204.45 1038.74 178.50 1227.00 927.03 1124.19 0.00 921.32
1011.34 271.41 600.21 970.79 697.47 170.67 518.17 655.60 672.25 675.50 324.58 486.42 667.07 306.42 510.44 625.68 232.16 998.54 728.50 120.64 402.15 368.80 982.59 508.43 403.62 429.53 182.47 200.90 346.88 745.08 579.83 714.32 990.19 918.86 983.15 733.34 281.28 400.14 555.79 911.57 279.34 257.42 617.13 296.36 398.75 311.32 1000.97 959.80 463.07 301.09 167.03 369.38 273.34 455.75 183.63 963.33 355.88 354.80 282.29 921.32 0.00
DEMAND_SECTION
1 0
2 16
3 71
4 13
5 54
6 29
7 93
8 68
9 39
10 90
11 39
12 59
13 77
14 67
15 62
16 83
17 12
18 41
19 54
20 71
21 89
22 11
23 13
24 5
25 98
26 13
27 22
28 40
29 29
30 59
31 15
32 26
33 24
34 92
35 25
36 67
37 37
38 72
39 52
40 38
41 82
42 41
43 20
44 33
45 55
46 43
47 32
48 1
49 87
50 87
51 5
52 43
53 31
54 66
55 6
56 34
57 4
58 38
59 49
60 30
61 39
DEPOT_SECTION
1
-1
EOF
