NAME: LDG65_3351_fog_65_0212
COMMENT: CVRP with travel times.  rootPos=3,custPos=3,demandType=5,avgRouteSizeIndex=1,weather=fog,lambda_cluster=1,lambda_random=4, T1=300,T2=700,beta=1, alpha(i,j) ~ U(0.8,1.2)
TYPE: CVRP
DIMENSION: 66
EDGE_WEIGHT_TYPE: EXPLICIT
EDGE_WEIGHT_FORMAT: FULL_MATRIX
CAPACITY: 261
NODE_COORD_SECTION
1 0 0
2 430 497
3 859 577
4 249 488
5 995 680
6 399 594
7 734 880
8 326 456
9 893 339
10 386 429
11 632 441
12 734 108
13 912 706
14 968 683
15 317 445
16 388 431
17 488 133
18 387 617
19 384 567
20 328 425
21 916 866
22 382 587
23 565 845
24 302 211
25 894 739
26 263 438
27 256 105
28 579 512
29 200 633
30 194 680
31 939 585
32 960 777
33 813 847
34 263 591
35 349 674
36 466 148
37 344 713
38 37 687
39 366 530
40 930 469
41 14 612
42 34 513
43 131 352
44 751 215
45 816 621
46 347 453
47 399 287
48 9 599
49 458 164
50 171 263
51 124 587
52 660 727
53 24 496
54 748 134
55 269 460
56 858 40
57 397 241
58 386 141
59 329 425
60 404 597
61 1 598
62 884 997
63 724 691
64 827 904
65 623 839
66 661 304
EDGE_WEIGHT_SECTION
0.00 778.84 1245.27 778.91 1339.76 844.67 1373.98 697.61 1304.56 701.59 984.62 968.25 1338.57 1382.75 693.29 711.91 705.04 883.61 826.89 655.03 1504.53 857.65 1202.26 669.97 1375.08 700.27 488.16 956.72 793.36 851.66 1377.07 1469.56 1444.45 881.24 958.36 663.17 969.56 840.57 819.35 1350.15 742.02 838.09 748.35 999.35 1278.69 701.03 608.65 708.22 696.44 786.69 686.15 1205.90 843.30 1030.13 740.47 1111.30 672.55 576.87 663.43 857.50 723.23 1546.62 1263.67 1447.04 1205.24 988.46
778.84 0.00 492.93 251.83 691.68 147.81 673.54 163.98 537.25 107.14 390.20 717.90 559.73 665.81 162.07 96.82 485.19 176.13 129.12 123.81 733.59 159.88 423.42 474.67 596.24 235.06 539.81 204.38 328.49 365.69 690.69 690.72 679.72 240.61 281.67 443.32 315.36 512.19 169.88 582.09 533.98 483.24 372.29 618.25 526.35 159.38 314.33 523.43 469.28 449.33 357.77 427.06 492.99 684.20 199.98 823.05 378.23 520.05 132.21 134.98 538.44 859.32 511.41 753.14 504.80 464.56
1245.27 492.93 0.00 700.95 257.34 544.80 514.83 619.44 330.83 556.14 276.85 683.24 185.29 291.37 619.60 566.46 741.81 589.84 574.84 590.24 338.62 592.65 502.26 791.96 242.56 656.97 911.78 288.55 790.82 809.02 197.76 316.14 363.97 732.92 702.11 783.68 620.38 984.39 633.64 185.60 949.77 940.77 811.24 530.66 73.22 601.08 652.82 982.21 749.24 841.88 847.38 312.43 942.11 677.63 649.10 727.41 716.72 860.90 581.84 554.39 997.22 491.74 233.63 437.39 420.88 452.09
778.91 251.83 700.95 0.00 939.20 195.38 724.69 129.03 789.08 179.66 462.72 762.77 811.56 896.21 127.68 189.98 501.88 240.42 234.60 140.50 907.90 217.69 602.02 356.28 848.07 78.64 505.63 412.40 236.38 229.96 859.39 942.55 858.32 157.27 339.48 460.01 370.48 394.64 222.72 828.22 393.83 286.58 258.42 722.58 734.37 127.42 346.29 360.03 496.15 324.77 343.59 651.59 321.20 700.89 51.85 836.03 373.22 431.34 145.75 208.21 353.25 925.22 657.50 864.71 555.95 537.08
1339.76 691.68 257.34 939.20 0.00 783.05 459.58 855.66 446.31 794.39 534.19 754.32 131.95 42.99 853.75 788.50 803.70 828.09 820.80 815.49 293.48 814.51 566.81 971.73 189.22 895.22 1117.78 526.80 989.11 1001.14 160.51 177.60 319.46 901.23 805.28 845.57 788.43 1171.38 800.64 301.08 1166.66 1174.92 1049.49 766.14 309.23 839.33 910.16 1200.46 843.42 1077.89 1049.45 395.16 1180.36 816.20 887.35 800.20 876.68 934.49 820.09 792.64 1215.25 403.97 398.61 379.93 488.74 709.43
844.67 147.81 544.80 195.38 783.05 0.00 529.31 220.41 685.06 189.76 424.78 695.10 707.54 740.06 217.44 200.08 573.11 45.04 39.87 211.73 755.10 49.74 429.07 535.64 744.05 236.03 627.73 256.25 249.26 264.22 734.98 792.19 663.33 191.36 164.32 531.24 188.08 439.59 98.67 729.90 473.95 481.96 443.21 670.12 541.77 233.71 417.59 485.24 523.37 457.64 319.58 456.21 476.73 633.22 195.83 762.59 475.92 528.17 203.33 12.83 500.25 757.27 493.10 669.33 360.57 520.61
1373.98 673.54 514.83 724.69 459.58 529.31 0.00 733.84 718.71 719.07 551.29 982.92 349.96 416.59 730.87 729.39 896.72 574.35 553.30 725.16 276.16 579.05 250.12 1030.62 292.69 765.34 1141.16 519.56 778.57 769.76 506.84 334.46 153.84 694.87 658.21 938.59 582.80 907.77 612.10 645.20 932.32 931.74 956.64 899.05 441.61 763.02 841.09 966.12 974.73 971.07 833.01 248.09 984.28 921.04 725.14 1126.14 902.20 1021.42 716.76 542.14 980.91 256.77 355.99 202.53 168.74 726.53
697.61 163.98 619.44 129.03 855.66 220.41 733.84 0.00 701.23 92.44 375.50 664.85 723.71 814.70 27.59 82.12 403.96 229.17 180.54 42.58 806.92 211.30 574.60 334.84 760.22 97.07 458.58 330.89 281.17 313.50 751.24 854.70 830.90 259.34 260.75 362.09 331.32 407.96 121.74 741.00 453.00 348.76 276.61 635.31 652.86 52.92 246.20 419.20 398.23 354.48 253.54 591.04 396.43 602.97 103.42 735.94 305.70 413.59 37.60 214.95 434.21 866.56 636.58 798.93 565.10 449.86
1304.56 537.25 330.83 789.08 446.31 685.06 718.71 701.23 0.00 616.30 333.24 352.41 457.89 437.41 699.32 626.62 615.62 713.38 666.37 661.06 604.65 697.13 821.17 886.43 467.30 772.31 816.40 528.85 865.74 902.94 302.72 572.02 564.87 777.86 818.92 656.01 795.85 1049.44 707.13 145.23 1071.23 1020.49 909.54 319.83 404.05 668.54 709.21 1060.68 692.15 851.68 895.02 643.26 1030.24 414.29 737.23 578.10 773.11 746.41 669.46 672.23 1075.69 744.47 564.46 638.29 751.71 438.09
701.59 107.14 556.14 179.66 794.39 189.76 719.07 92.44 616.30 0.00 283.06 646.31 666.87 751.40 92.25 10.32 421.21 234.80 205.73 98.24 831.47 236.49 502.80 417.36 703.38 165.24 514.24 267.59 346.54 383.74 753.90 797.86 759.10 258.66 313.97 417.75 377.23 500.40 167.65 648.56 502.72 413.42 334.36 545.69 589.56 52.24 227.83 508.97 382.78 353.80 345.98 534.20 439.38 584.43 146.37 715.91 291.73 412.91 101.25 202.59 501.30 845.03 600.93 798.25 550.33 357.42
984.62 390.20 276.85 462.72 534.19 424.78 551.29 375.50 333.24 283.06 0.00 464.13 462.14 568.22 375.31 293.38 500.80 440.62 402.13 368.83 615.47 432.89 598.85 565.50 519.41 448.30 754.19 195.61 629.60 666.80 474.61 592.99 640.82 541.72 551.26 508.53 462.61 783.46 406.46 462.45 785.78 696.48 617.31 358.70 350.07 335.30 375.97 792.03 472.39 636.86 629.04 385.01 722.44 402.25 429.43 612.84 439.87 584.05 360.43 411.95 784.36 768.59 387.64 672.42 574.89 175.24
968.25 717.90 683.24 762.77 754.32 695.10 982.92 664.85 352.41 646.31 464.13 0.00 747.50 757.81 660.53 656.63 263.21 683.82 665.74 622.27 827.58 696.50 974.61 534.02 690.23 733.52 577.29 553.25 885.06 939.51 593.81 830.44 857.20 814.43 803.10 305.08 816.52 1062.25 606.94 497.64 1043.07 941.58 766.18 208.85 666.29 668.27 456.59 1027.10 341.22 629.81 907.83 787.84 994.12 61.88 724.57 225.69 451.39 394.00 630.67 700.15 1012.09 1030.61 705.98 930.62 893.23 288.89
1338.57 559.73 185.29 811.56 131.95 707.54 349.96 723.71 457.89 666.87 462.14 747.50 0.00 106.08 721.80 656.55 900.16 728.04 688.85 683.54 194.62 694.65 480.54 977.25 57.27 794.79 1068.95 473.84 888.22 925.42 270.08 130.99 224.24 800.34 752.27 858.29 735.42 1071.92 729.61 312.66 1034.71 1042.97 932.02 687.83 230.39 719.11 838.11 1068.51 861.83 999.05 917.50 342.15 1052.72 685.62 759.71 863.29 895.52 981.40 691.94 694.71 1083.30 397.65 266.66 297.66 453.91 637.38
1382.75 665.81 291.37 896.21 42.99 740.06 416.59 814.70 437.41 751.40 568.22 757.81 106.08 0.00 814.86 761.72 846.69 785.10 779.93 785.50 250.49 787.91 527.13 1014.28 163.35 852.23 1160.77 483.81 946.12 983.32 164.00 134.61 276.47 858.24 848.27 883.05 831.42 1178.00 835.69 321.49 1140.79 1136.03 1006.50 757.24 336.47 796.34 899.55 1174.59 846.91 1097.90 1023.58 438.15 1137.37 791.70 844.36 757.21 880.17 966.48 777.10 749.65 1189.38 404.26 372.74 336.94 445.75 709.02
693.29 162.07 619.60 127.68 853.75 217.44 730.87 27.59 699.32 92.25 375.31 660.53 721.80 814.86 0.00 81.93 399.64 256.76 177.57 38.26 813.77 208.33 574.41 362.43 758.31 72.99 454.26 331.05 308.76 341.09 751.40 852.79 830.71 245.06 288.34 357.77 338.17 435.55 128.59 740.81 450.52 321.17 249.02 637.94 653.02 48.39 218.61 416.72 393.91 349.95 281.13 589.13 368.84 598.65 75.83 708.35 282.51 409.06 37.76 221.80 431.73 873.41 608.99 794.40 562.13 449.67
711.91 96.82 566.46 189.98 788.50 200.08 729.39 82.12 626.62 10.32 293.38 656.63 656.55 761.72 81.93 0.00 410.89 245.12 216.05 99.33 830.41 236.12 492.48 407.04 693.06 154.92 515.33 277.91 356.86 394.06 764.22 787.54 748.78 268.98 324.29 408.60 366.91 490.08 157.33 658.88 492.40 403.10 330.95 556.01 599.88 62.56 217.51 498.65 372.46 364.12 335.66 523.88 449.70 594.75 156.69 726.23 281.41 423.23 90.93 212.91 511.62 834.71 590.61 808.57 560.65 367.74
705.04 485.19 741.81 501.88 803.70 573.11 896.72 403.96 615.62 421.21 500.80 263.21 900.16 846.69 399.64 410.89 0.00 589.96 533.24 361.38 980.24 564.00 862.47 270.81 842.89 472.63 314.08 549.91 676.60 716.27 760.92 981.30 945.10 613.80 664.71 41.87 733.00 811.92 525.70 697.08 782.18 678.37 522.48 378.05 815.03 407.38 193.38 770.45 78.01 448.44 657.50 648.63 730.91 325.09 463.68 488.90 188.18 130.79 369.78 575.75 755.44 1124.70 770.06 1018.52 895.56 375.16
883.61 176.13 589.84 240.42 828.09 45.04 574.35 229.17 713.38 234.80 440.62 683.82 728.04 785.10 256.76 245.12 589.96 0.00 84.24 228.58 710.06 57.16 474.11 564.01 772.37 281.07 644.58 301.29 258.19 295.39 692.29 831.63 708.37 170.31 119.28 548.09 143.04 394.55 143.04 758.22 445.04 477.85 477.06 715.16 586.81 255.48 413.19 443.21 567.74 502.01 277.55 501.25 434.70 621.94 240.87 806.96 477.09 572.54 236.98 57.87 458.22 764.69 461.38 714.37 405.61 565.65
826.89 129.12 574.84 234.60 820.80 39.87 553.30 180.54 666.37 205.73 402.13 665.74 688.85 779.93 177.57 216.05 533.24 84.24 0.00 171.86 743.98 30.76 463.14 515.38 725.36 222.95 587.86 296.12 251.51 288.71 731.14 800.12 687.32 163.63 152.55 491.37 227.28 434.13 58.80 711.21 476.20 466.11 403.34 694.71 519.25 217.86 396.18 445.37 483.50 417.77 279.71 467.86 436.86 667.20 182.75 722.72 436.05 488.30 163.46 46.90 460.38 738.29 532.97 689.81 384.56 520.04
655.03 123.81 590.24 140.50 815.49 211.73 725.16 42.58 661.06 98.24 368.83 622.27 683.54 785.50 38.26 99.33 361.38 228.58 171.86 0.00 849.50 202.62 547.23 350.86 720.05 111.25 416.00 301.69 315.22 356.08 722.04 814.53 803.53 252.42 303.33 319.51 371.62 450.54 164.32 705.90 420.80 359.43 248.48 641.16 623.66 46.00 256.85 454.60 355.65 325.52 296.12 550.87 391.98 560.39 102.30 746.61 280.99 406.32 8.40 214.37 469.39 909.14 608.64 792.01 556.42 455.66
1504.53 733.59 338.62 907.90 293.48 755.10 276.16 806.92 604.65 831.47 615.47 827.58 194.62 250.49 813.77 830.41 980.24 710.06 743.98 849.50 0.00 767.22 405.62 1130.58 137.35 886.76 1223.30 563.88 938.25 903.37 351.50 128.48 149.32 850.37 829.21 938.37 781.86 1063.27 685.18 507.28 1087.82 1087.24 1062.79 850.53 393.09 859.84 979.62 1087.37 941.91 1012.03 986.07 445.79 1139.78 765.70 856.05 976.29 1043.52 1016.90 844.52 752.58 1072.36 294.38 353.47 166.06 402.89 790.71
857.65 159.88 592.65 217.69 814.51 49.74 579.05 211.30 697.13 236.49 432.89 696.50 694.65 787.91 208.33 236.12 564.00 57.16 30.76 202.62 767.22 0.00 454.50 526.22 751.92 253.42 594.10 304.10 255.50 300.07 749.45 825.64 710.80 174.99 121.79 522.13 200.20 451.71 89.56 741.97 480.19 435.35 434.10 697.25 550.01 232.73 426.94 476.13 514.26 448.53 310.47 481.64 467.62 679.10 213.51 753.48 466.81 519.06 194.22 38.26 491.14 707.53 514.41 659.05 410.31 550.80
1202.26 423.42 502.26 602.02 566.81 429.07 250.12 574.60 821.17 502.80 598.85 974.61 480.54 527.13 574.41 492.48 862.47 474.11 463.14 547.23 405.62 454.50 0.00 843.06 423.27 647.40 925.79 485.31 532.63 519.64 637.42 468.34 256.30 444.75 423.59 866.74 376.24 657.65 509.45 687.86 682.20 681.62 795.71 886.48 429.04 555.04 709.99 716.00 864.94 856.60 639.84 213.84 734.16 912.73 623.40 1091.89 708.95 915.71 555.63 416.24 730.79 435.90 268.63 329.72 81.38 749.67
669.97 474.67 791.96 356.28 971.73 535.64 1030.62 334.84 886.43 417.36 565.50 534.02 977.25 1014.28 362.43 407.04 270.81 564.01 515.38 350.86 1130.58 526.22 843.06 0.00 1034.52 299.61 200.91 605.27 557.04 586.24 850.28 1096.15 1070.46 513.55 517.88 237.39 606.53 663.92 456.58 831.19 580.52 574.75 252.83 573.57 815.28 387.76 189.53 614.32 273.53 199.66 509.50 783.87 522.21 595.90 339.81 685.52 134.11 202.88 359.26 548.47 629.11 1141.49 850.61 1013.17 896.21 508.35
1375.08 596.24 242.56 848.07 189.22 744.05 292.69 760.22 467.30 703.38 519.41 690.23 57.27 163.35 758.31 693.06 842.89 772.37 725.36 720.05 137.35 751.92 423.27 1034.52 0.00 831.30 1101.85 531.11 924.73 942.91 214.15 140.21 166.97 836.85 759.27 801.02 742.42 1080.92 766.12 369.93 1091.98 1079.48 968.53 733.81 276.37 755.62 895.38 1119.67 804.56 1045.03 954.01 349.15 1089.23 628.35 796.22 838.94 930.32 924.13 728.45 731.22 1134.68 340.38 323.93 240.39 416.63 694.65
700.27 235.06 656.97 78.64 895.22 236.03 765.34 97.07 772.31 165.24 448.30 733.52 794.79 852.23 72.99 154.92 472.63 281.07 222.95 111.25 886.76 253.42 647.40 299.61 831.30 0.00 500.52 368.42 315.02 308.60 824.39 925.78 899.36 235.91 264.01 430.76 352.66 473.28 201.58 813.80 377.53 343.37 305.98 710.93 690.39 121.38 291.60 343.73 466.90 395.83 340.10 639.89 318.28 671.64 40.20 781.34 305.11 352.70 110.75 248.86 358.74 946.40 645.85 867.39 596.60 522.66
488.16 539.81 911.78 505.63 1117.78 627.73 1141.16 458.58 816.40 514.24 754.19 577.29 1068.95 1160.77 454.26 515.33 314.08 644.58 587.86 416.00 1223.30 594.10 925.79 200.91 1101.85 500.52 0.00 717.69 568.92 606.12 1008.88 1119.43 1073.98 481.04 713.21 300.83 763.98 763.62 580.32 961.63 748.05 702.05 434.90 637.01 838.56 462.00 378.22 762.53 325.97 298.53 609.20 962.71 649.51 639.17 495.70 748.96 314.32 206.40 424.40 630.37 747.52 1253.58 945.45 1147.40 972.42 617.99
956.72 204.38 288.55 412.40 526.80 256.25 519.56 330.89 528.85 267.59 195.61 553.25 473.84 483.81 331.05 277.91 549.91 301.29 296.12 301.69 563.88 304.10 485.31 605.27 531.11 368.42 717.69 0.00 502.27 520.47 486.31 602.84 567.94 444.37 420.57 508.04 418.72 695.84 354.92 474.15 661.22 652.22 522.69 413.87 321.97 312.53 415.74 693.66 535.45 614.09 558.83 271.47 653.56 491.37 360.55 675.26 479.64 623.82 293.29 265.84 708.67 740.49 392.90 641.36 483.92 264.36
793.36 328.49 790.82 236.38 989.11 249.26 778.57 281.17 865.74 346.54 629.60 885.06 888.22 946.12 308.76 356.86 676.60 258.19 251.51 315.22 938.25 255.50 532.63 557.04 924.73 315.02 568.92 502.27 0.00 58.30 925.54 874.10 788.93 87.88 314.41 634.73 270.95 261.63 295.37 910.58 224.69 307.51 347.33 889.46 770.76 294.30 527.37 258.49 670.87 483.70 107.21 664.22 264.36 875.61 288.23 974.23 571.99 601.38 306.82 236.43 270.64 963.03 638.95 862.35 609.83 703.96
851.66 365.69 809.02 229.96 1001.14 264.22 769.76 313.50 902.94 383.74 666.80 939.51 925.42 983.32 341.09 394.06 716.27 295.39 288.71 356.08 903.37 300.07 519.64 586.24 942.91 308.60 606.12 520.47 58.30 0.00 965.48 911.30 775.94 125.08 256.11 675.59 271.38 319.93 332.57 947.78 282.99 314.97 405.63 926.66 770.09 331.50 559.70 316.79 705.05 520.17 165.51 664.65 322.66 897.44 281.81 1011.43 603.18 585.48 351.10 277.05 328.94 955.54 676.15 849.36 601.02 741.16
1377.07 690.69 197.76 859.39 160.51 734.98 506.84 751.24 302.72 753.90 474.61 593.81 270.08 164.00 751.40 764.22 760.92 692.29 731.14 722.04 351.50 749.45 637.42 850.28 214.15 824.39 1008.88 486.31 925.54 965.48 0.00 298.61 381.12 862.60 743.37 719.05 818.14 1086.84 789.94 157.49 1137.33 1072.57 970.52 622.55 211.89 768.04 780.07 1135.50 682.91 980.55 969.84 448.85 1097.22 655.69 807.54 732.26 716.17 802.48 713.64 747.81 1150.51 472.73 372.30 454.54 559.55 645.66
1469.56 690.72 316.14 942.55 177.60 792.19 334.46 854.70 572.02 797.86 592.99 830.44 130.99 134.61 852.79 787.54 981.30 831.63 800.12 814.53 128.48 825.64 468.34 1096.15 140.21 925.78 1119.43 602.84 874.10 911.30 298.61 0.00 212.04 786.22 878.76 941.23 844.58 1125.99 813.66 443.65 1098.79 1149.96 1063.01 738.31 280.87 850.10 968.96 1104.40 944.77 1049.53 981.31 468.64 1138.46 768.56 890.70 891.82 992.05 1064.34 822.93 805.02 1119.41 269.65 370.25 252.55 431.62 768.23
1444.45 679.72 363.97 858.32 319.46 663.33 153.84 830.90 564.87 759.10 640.82 857.20 224.24 276.47 830.71 748.78 945.10 708.37 687.32 803.53 149.32 710.80 256.30 1070.46 166.97 899.36 1073.98 567.94 788.93 775.94 381.12 212.04 0.00 701.05 679.89 909.02 632.54 913.95 746.12 536.90 938.50 937.92 1052.01 748.19 290.75 811.34 896.68 972.30 872.88 1059.41 896.14 296.47 990.46 795.32 859.16 1005.91 960.58 867.58 811.93 672.54 979.72 179.60 365.32 73.42 302.76 816.06
881.24 240.61 732.92 157.27 901.23 191.36 694.87 259.34 777.86 258.66 541.72 814.43 800.34 858.24 245.06 268.98 613.80 170.31 163.63 252.42 850.37 174.99 444.75 513.55 836.85 235.91 481.04 444.37 87.88 125.08 862.60 786.22 701.05 0.00 232.17 571.93 282.94 349.51 207.49 822.70 312.57 395.39 415.69 801.58 682.88 206.42 440.27 318.18 608.07 482.04 195.09 621.91 352.24 792.25 209.12 886.35 504.17 567.09 260.82 178.53 333.19 880.65 551.07 774.47 526.13 616.08
958.36 281.67 702.11 339.48 805.28 164.32 658.21 260.75 818.92 313.97 551.26 803.10 752.27 848.27 288.34 324.29 664.71 119.28 152.55 303.33 829.21 121.79 423.59 517.88 759.27 264.01 713.21 420.57 314.41 256.11 743.37 878.76 679.89 232.17 0.00 622.84 88.65 414.63 211.35 863.76 475.61 528.60 537.36 795.77 628.89 313.67 506.95 441.81 636.05 570.32 390.25 410.12 495.13 741.22 304.21 875.27 484.93 616.71 298.35 160.05 456.82 738.70 531.55 753.31 504.97 671.39
663.17 443.32 783.68 460.01 845.57 531.24 938.59 362.09 656.01 417.75 508.53 305.08 858.29 883.05 357.77 408.60 41.87 548.09 491.37 319.51 938.37 522.13 866.74 237.39 801.02 430.76 300.83 508.04 634.73 675.59 719.05 941.23 909.02 571.93 622.84 0.00 691.13 770.05 483.83 738.95 740.31 636.50 490.22 336.18 793.62 365.51 222.68 766.37 36.14 437.05 615.63 690.50 689.04 366.96 421.81 448.13 222.02 151.90 327.91 533.88 773.59 1088.62 811.93 982.44 875.93 333.29
969.56 315.36 620.38 370.48 788.43 188.08 582.80 331.32 795.85 377.23 462.61 816.52 735.42 831.42 338.17 366.91 733.00 143.04 227.28 371.62 781.86 200.20 376.24 606.53 742.42 352.66 763.98 418.72 270.95 271.38 818.14 844.58 632.54 282.94 88.65 691.13 0.00 382.95 209.58 805.98 495.64 439.95 587.19 707.12 675.11 384.24 556.23 529.44 669.46 645.05 372.38 393.27 492.49 764.98 380.45 923.91 573.58 705.36 368.92 200.91 541.59 770.69 514.70 705.96 457.62 637.85
840.57 512.19 984.39 394.64 1171.38 439.59 907.77 407.96 1049.44 500.40 783.46 1062.25 1071.92 1178.00 435.55 490.08 811.92 394.55 434.13 450.54 1063.27 451.71 657.65 663.92 1080.92 473.28 763.62 695.84 261.63 319.93 1086.84 1125.99 913.95 349.51 414.63 770.05 382.95 0.00 455.31 1094.28 185.48 281.55 508.35 1043.27 953.38 460.88 654.16 151.68 806.19 547.07 154.42 776.22 238.97 1010.93 446.49 1143.90 713.66 787.58 445.56 435.66 162.93 1093.55 855.93 987.37 739.03 857.82
819.35 169.88 633.64 222.72 800.64 98.67 612.10 121.74 707.13 167.65 406.46 606.94 729.61 835.69 128.59 157.33 525.70 143.04 58.80 164.32 685.18 89.56 509.45 456.58 766.12 201.58 580.32 354.92 295.37 332.57 789.94 813.66 746.12 207.49 211.35 483.83 209.58 455.31 0.00 751.97 500.35 424.56 377.61 635.91 578.05 174.66 347.20 466.55 459.88 450.82 300.89 526.66 458.04 668.82 170.87 714.33 411.10 535.33 159.34 93.21 466.11 744.82 591.77 748.61 443.36 461.24
1350.15 582.09 185.60 828.22 301.08 729.90 645.20 741.00 145.23 648.56 462.45 497.64 312.66 321.49 740.81 658.88 697.08 758.22 711.21 705.90 507.28 741.97 687.86 831.19 369.93 813.80 961.63 474.15 910.58 947.78 157.49 443.65 536.90 822.70 863.76 738.95 805.98 1094.28 751.97 0.00 1116.07 1061.98 954.38 465.06 258.82 700.80 760.98 1105.52 775.09 996.91 939.86 498.03 1075.08 559.52 782.07 723.33 697.08 827.87 714.30 717.07 1120.53 630.22 419.23 610.32 606.48 488.17
742.02 533.98 949.77 393.83 1166.66 473.95 932.32 453.00 1071.23 502.72 785.78 1043.07 1034.71 1140.79 450.52 492.40 782.18 445.04 476.20 420.80 1087.82 480.19 682.20 580.52 1091.98 377.53 748.05 661.22 224.69 282.99 1137.33 1098.79 938.50 312.57 475.61 740.31 495.64 185.48 500.35 1116.07 0.00 160.69 402.05 1042.97 928.46 466.80 662.50 33.80 766.72 449.52 199.46 885.73 132.67 981.19 417.73 1158.87 682.64 673.24 429.20 461.12 48.59 1083.21 768.05 954.89 763.58 854.70
838.09 483.24 940.77 286.58 1174.92 481.96 931.74 348.76 1020.49 413.42 696.48 941.58 1042.97 1136.03 321.17 403.10 678.37 477.85 466.11 359.43 1087.24 435.35 681.62 574.75 1079.48 343.37 702.05 652.22 307.51 314.97 1072.57 1149.96 937.92 395.39 528.60 636.50 439.95 281.55 424.56 1061.98 160.69 0.00 321.92 959.11 972.31 369.56 539.78 129.87 672.64 458.29 200.30 833.22 52.54 919.82 338.43 1029.52 603.68 620.72 358.93 473.61 137.09 1117.52 928.74 1011.34 763.00 770.84
748.35 372.29 811.24 258.42 1049.49 443.21 956.64 276.61 909.54 334.36 617.31 766.18 932.02 1006.50 249.02 330.95 522.48 477.06 403.34 248.48 1062.79 434.10 795.71 252.83 968.53 305.98 434.90 522.69 347.33 405.63 970.52 1063.01 1052.01 415.69 537.36 490.22 587.19 508.35 377.61 954.38 402.05 321.92 0.00 799.79 844.66 282.12 442.36 389.89 515.00 136.37 370.15 794.16 269.38 808.87 265.78 938.35 386.94 395.43 256.88 450.24 404.90 1122.43 857.12 1028.13 787.90 611.52
999.35 618.25 530.66 722.58 766.14 670.12 899.05 635.31 319.83 545.69 358.70 208.85 687.83 757.24 637.94 556.01 378.05 715.16 694.71 641.16 850.53 697.25 886.48 573.57 733.81 710.93 637.01 413.87 889.46 926.66 622.55 738.31 748.19 801.58 795.77 336.18 707.12 1043.27 635.91 465.06 1042.97 959.11 799.79 0.00 457.44 595.16 558.86 1054.51 372.32 773.23 888.85 685.34 985.07 146.97 692.06 357.56 558.20 488.08 646.94 658.99 1044.22 875.96 617.85 821.61 805.10 188.27
1278.69 526.35 73.22 734.37 309.23 541.77 441.61 652.86 404.05 589.56 350.07 666.29 230.39 336.47 653.02 599.88 815.03 586.81 519.25 623.66 393.09 550.01 429.04 815.28 276.37 690.39 838.56 321.97 770.76 770.09 211.89 280.87 290.75 682.88 628.89 793.62 675.11 953.38 578.05 258.82 928.46 972.31 844.66 457.44 0.00 634.50 717.72 962.26 822.46 768.66 798.96 281.84 956.11 604.41 682.52 800.63 711.18 925.80 615.26 554.60 977.05 418.52 160.41 364.17 347.66 525.31
701.03 159.38 601.08 127.42 839.33 233.71 763.02 52.92 668.54 52.24 335.30 668.27 719.11 796.34 48.39 62.56 407.38 255.48 217.86 46.00 859.84 232.73 555.04 387.76 755.62 121.38 462.00 312.53 294.30 331.50 768.04 850.10 811.34 206.42 313.67 365.51 384.24 460.88 174.66 700.80 466.80 369.56 282.12 595.16 634.50 0.00 233.85 464.07 401.65 301.56 306.46 584.00 417.23 606.39 124.22 756.74 297.75 360.67 54.40 236.95 449.06 874.33 653.17 746.01 594.28 409.66
608.65 314.33 652.82 346.29 910.16 417.59 841.09 246.20 709.21 227.83 375.97 456.59 838.11 899.55 218.61 217.51 193.38 413.19 396.18 256.85 979.62 426.94 709.99 189.53 895.38 291.60 378.22 415.74 527.37 559.70 780.07 968.96 896.68 440.27 506.95 222.68 556.23 654.16 347.20 760.98 662.50 539.78 442.36 558.86 717.72 233.85 0.00 628.70 258.82 314.81 499.74 600.21 575.20 491.24 294.44 670.81 63.90 208.08 248.45 430.42 643.71 1052.22 661.08 952.98 778.16 487.96
708.22 523.43 982.21 360.03 1200.46 485.24 966.12 419.20 1060.68 508.97 792.03 1027.10 1068.51 1174.59 416.72 498.65 770.45 443.21 445.37 454.60 1087.37 476.13 716.00 614.32 1119.67 343.73 762.53 693.66 258.49 316.79 1135.50 1104.40 972.30 318.18 441.81 766.37 529.44 151.68 466.55 1105.52 33.80 129.87 389.89 1054.51 962.26 464.07 628.70 0.00 759.23 483.32 165.66 851.93 166.47 1014.99 383.93 1125.07 648.84 639.66 454.48 492.27 15.01 1049.63 801.85 921.31 797.38 866.39
696.44 469.28 749.24 496.15 843.42 523.37 974.73 398.23 692.15 382.78 472.39 341.22 861.83 846.91 393.91 372.46 78.01 567.74 483.50 355.65 941.91 514.26 864.94 273.53 804.56 466.90 325.97 535.45 670.87 705.05 682.91 944.77 872.88 608.07 636.05 36.14 669.46 806.19 459.88 775.09 766.72 672.64 515.00 372.32 822.46 401.65 258.82 759.23 0.00 473.19 651.77 726.64 725.18 348.45 457.95 484.27 249.09 119.57 364.05 530.40 744.22 1052.48 848.07 946.30 868.06 297.15
786.69 449.33 841.88 324.77 1077.89 457.64 971.07 354.48 851.68 353.80 636.86 629.81 999.05 1097.90 349.95 364.12 448.44 502.01 417.77 325.52 1012.03 448.53 856.60 199.66 1045.03 395.83 298.53 614.09 483.70 520.17 980.55 1049.53 1059.41 482.04 570.32 437.05 645.05 547.07 450.82 996.91 449.52 458.29 136.37 773.23 768.66 301.56 314.81 483.32 473.19 0.00 483.08 876.39 405.75 691.69 376.62 855.50 333.77 366.97 333.92 464.67 498.11 1116.89 891.14 988.57 802.33 708.01
686.15 357.77 847.38 343.59 1049.45 319.58 833.01 253.54 895.02 345.98 629.04 907.83 917.50 1023.58 281.13 335.66 657.50 277.55 279.71 296.12 986.07 310.47 639.84 509.50 954.01 340.10 609.20 558.83 107.21 165.51 969.84 981.31 896.14 195.09 390.25 615.63 372.38 154.42 300.89 939.86 199.46 200.30 370.15 888.85 798.96 306.46 499.74 165.66 651.77 483.08 0.00 747.57 157.15 856.51 299.90 989.48 559.24 667.13 291.14 326.61 180.67 1018.00 738.93 969.52 664.27 703.40
1205.90 427.06 312.43 651.59 395.16 456.21 248.09 591.04 643.26 534.20 385.01 787.84 342.15 438.15 589.13 523.88 648.63 501.25 467.86 550.87 445.79 481.64 213.84 783.87 349.15 639.89 962.71 271.47 664.22 664.65 448.85 468.64 296.47 621.91 410.12 690.50 393.27 776.22 526.66 498.03 885.73 833.22 794.16 685.34 281.84 584.00 600.21 851.93 726.64 876.39 747.57 0.00 885.76 762.84 627.04 878.05 664.11 779.42 559.27 443.38 866.94 476.07 121.43 369.89 246.93 535.83
843.30 492.99 942.11 321.20 1180.36 476.73 984.28 396.43 1030.24 439.38 722.44 994.12 1052.72 1137.37 368.84 449.70 730.91 434.70 436.86 391.98 1139.78 467.62 734.16 522.21 1089.23 318.28 649.51 653.56 264.36 322.66 1097.22 1138.46 990.46 352.24 495.13 689.04 492.49 238.97 458.04 1075.08 132.67 52.54 269.38 985.07 956.11 417.23 575.20 166.47 725.18 405.75 157.15 885.76 0.00 952.37 293.01 1077.19 623.39 664.81 383.58 483.76 181.26 1170.06 896.08 1063.88 815.54 796.80
1030.13 684.20 677.63 700.89 816.20 633.22 921.04 602.97 414.29 584.43 402.25 61.88 685.62 791.70 598.65 594.75 325.09 621.94 667.20 560.39 765.70 679.10 912.73 595.90 628.35 671.64 639.17 491.37 875.61 897.44 655.69 768.56 795.32 792.25 741.22 366.96 764.98 1010.93 668.82 559.52 981.19 919.82 808.87 146.97 604.41 606.39 491.24 1014.99 348.45 691.69 856.51 762.84 952.37 0.00 662.69 210.59 513.27 455.88 568.79 646.05 1029.78 968.73 644.10 868.74 831.35 227.01
740.47 199.98 649.10 51.85 887.35 195.83 725.14 103.42 737.23 146.37 429.43 724.57 759.71 844.36 75.83 156.69 463.68 240.87 182.75 102.30 856.05 213.51 623.40 339.81 796.22 40.20 495.70 360.55 288.23 281.81 807.54 890.70 859.16 209.12 304.21 421.81 380.45 446.49 170.87 782.07 417.73 338.43 265.78 692.06 682.52 124.22 294.44 383.93 457.95 376.62 299.90 627.04 293.01 662.69 0.00 784.18 345.31 392.90 93.90 208.66 398.94 915.69 605.65 865.16 556.40 503.79
1111.30 823.05 727.41 836.03 800.20 762.59 1126.14 735.94 578.10 715.91 612.84 225.69 863.29 757.21 708.35 726.23 488.90 806.96 722.72 746.61 976.29 753.48 1091.89 685.52 838.94 781.34 748.96 675.26 974.23 1011.43 732.26 891.82 1005.91 886.35 875.27 448.13 923.91 1143.90 714.33 723.33 1158.87 1029.52 938.35 357.56 800.63 756.74 670.81 1125.07 484.27 855.50 989.48 878.05 1077.19 210.59 784.18 0.00 670.15 600.03 746.11 769.62 1140.08 1144.68 854.69 1079.33 1041.94 437.60
672.55 378.23 716.72 373.22 876.68 475.92 902.20 305.70 773.11 291.73 439.87 451.39 895.52 880.17 282.51 281.41 188.18 477.09 436.05 280.99 1043.52 466.81 708.95 134.11 930.32 305.11 314.32 479.64 571.99 603.18 716.17 992.05 960.58 504.17 484.93 222.02 573.58 713.66 411.10 697.08 682.64 603.68 386.94 558.20 711.18 297.75 63.90 648.84 249.09 333.77 559.24 664.11 623.39 513.27 345.31 670.15 0.00 229.15 272.59 478.56 663.85 1081.12 724.98 952.80 790.33 424.06
576.87 520.05 860.90 431.34 934.49 528.17 1021.42 413.59 746.41 412.91 584.05 394.00 981.40 966.48 409.06 423.23 130.79 572.54 488.30 406.32 1016.90 519.06 915.71 202.88 924.13 352.70 206.40 623.82 601.38 585.48 802.48 1064.34 867.58 567.09 616.71 151.90 705.36 787.58 535.33 827.87 673.24 620.72 395.43 488.08 925.80 360.67 208.08 639.66 119.57 366.97 667.13 779.42 664.81 455.88 392.90 600.03 229.15 0.00 414.72 535.20 624.65 1047.18 869.16 941.00 872.86 411.59
663.43 132.21 581.84 145.75 820.09 203.33 716.76 37.60 669.46 101.25 360.43 630.67 691.94 777.10 37.76 90.93 369.78 236.98 163.46 8.40 844.52 194.22 555.63 359.26 728.45 110.75 424.40 293.29 306.82 351.10 713.64 822.93 811.93 260.82 298.35 327.91 368.92 445.56 159.34 714.30 429.20 358.93 256.88 646.94 615.26 54.40 248.45 454.48 364.05 333.92 291.14 559.27 383.58 568.79 93.90 746.11 272.59 414.72 0.00 205.97 469.49 901.75 617.04 800.41 548.02 458.67
857.50 134.98 554.39 208.21 792.64 12.83 542.14 214.95 672.23 202.59 411.95 700.15 694.71 749.65 221.80 212.91 575.75 57.87 46.90 214.37 752.58 38.26 416.24 548.47 731.22 248.86 630.37 265.84 236.43 277.05 747.81 805.02 672.54 178.53 160.05 533.88 200.91 435.66 93.21 717.07 461.12 473.61 450.24 658.99 554.60 236.95 430.42 492.27 530.40 464.67 326.61 443.38 483.76 646.05 208.66 769.62 478.56 535.20 205.97 0.00 507.07 745.79 505.93 682.16 373.40 530.20
723.23 538.44 997.22 353.25 1215.25 500.25 980.91 434.21 1075.69 501.30 784.36 1012.09 1083.30 1189.38 431.73 511.62 755.44 458.22 460.38 469.39 1072.36 491.14 730.79 629.11 1134.68 358.74 747.52 708.67 270.64 328.94 1150.51 1119.41 979.72 333.19 456.82 773.59 541.59 162.93 466.11 1120.53 48.59 137.09 404.90 1044.22 977.05 449.06 643.71 15.01 744.22 498.11 180.67 866.94 181.26 1029.78 398.94 1140.08 663.85 624.65 469.49 507.07 0.00 1034.62 816.64 906.30 812.17 858.72
1546.62 859.32 491.74 925.22 403.97 757.27 256.77 866.56 744.47 845.03 768.59 1030.61 397.65 404.26 873.41 834.71 1124.70 764.69 738.29 909.14 294.38 707.53 435.90 1141.49 340.38 946.40 1253.58 740.49 963.03 955.54 472.73 269.65 179.60 880.65 738.70 1088.62 770.69 1093.55 744.82 630.22 1083.21 1117.52 1122.43 875.96 418.52 874.33 1052.22 1049.63 1052.48 1116.89 1018.00 476.07 1170.06 968.73 915.69 1144.68 1081.12 1047.18 901.75 745.79 1034.62 0.00 420.22 128.32 425.51 943.83
1263.67 511.41 233.63 657.50 398.61 493.10 355.99 636.58 564.46 600.93 387.64 705.98 266.66 372.74 608.99 590.61 770.06 461.38 532.97 608.64 353.47 514.41 268.63 850.61 323.93 645.85 945.45 392.90 638.95 676.15 372.30 370.25 365.32 551.07 531.55 811.93 514.70 855.93 591.77 419.23 768.05 928.74 857.12 617.85 160.41 653.17 661.08 801.85 848.07 891.14 738.93 121.43 896.08 644.10 605.65 854.69 724.98 869.16 617.04 505.93 816.64 420.22 0.00 291.90 187.25 562.88
1447.04 753.14 437.39 864.71 379.93 669.33 202.53 798.93 638.29 798.25 672.42 930.62 297.66 336.94 794.40 808.57 1018.52 714.37 689.81 792.01 166.06 659.05 329.72 1013.17 240.39 867.39 1147.40 641.36 862.35 849.36 454.54 252.55 73.42 774.47 753.31 982.44 705.96 987.37 748.61 610.32 954.89 1011.34 1028.13 821.61 364.17 746.01 952.98 921.31 946.30 988.57 969.52 369.89 1063.88 868.74 865.16 1079.33 952.80 941.00 800.41 682.16 906.30 128.32 291.90 0.00 308.76 847.66
1205.24 504.80 420.88 555.95 488.74 360.57 168.74 565.10 751.71 550.33 574.89 893.23 453.91 445.75 562.13 560.65 895.56 405.61 384.56 556.42 402.89 410.31 81.38 896.21 416.63 596.60 972.42 483.92 609.83 601.02 559.55 431.62 302.76 526.13 504.97 875.93 457.62 739.03 443.36 606.48 763.58 763.00 787.90 805.10 347.66 594.28 778.16 797.38 868.06 802.33 664.27 246.93 815.54 831.35 556.40 1041.94 790.33 872.86 548.02 373.40 812.17 425.51 187.25 308.76 0.00 748.28
988.46 464.56 452.09 537.08 709.43 520.61 726.53 449.86 438.09 357.42 175.24 288.89 637.38 709.02 449.67 367.74 375.16 565.65 520.04 455.66 790.71 550.80 749.67 508.35 694.65 522.66 617.99 264.36 703.96 741.16 645.66 768.23 816.06 616.08 671.39 333.29 637.85 857.82 461.24 488.17 854.70 770.84 611.52 188.27 525.31 409.66 487.96 866.39 297.15 708.01 703.40 535.83 796.80 227.01 503.79 437.60 424.06 411.59 458.67 530.20 858.72 943.83 562.88 847.66 748.28 0.00
DEMAND_SECTION
1 0
2 100
3 51
4 67
5 53
6 71
7 100
8 83
9 70
10 86
11 63
12 52
13 68
14 52
15 99
16 81
17 66
18 98
19 99
20 76
21 66
22 89
23 65
24 82
25 94
26 56
27 88
28 87
29 85
30 59
31 62
32 74
33 50
34 61
35 79
36 78
37 67
38 63
39 94
40 84
41 77
42 78
43 89
44 81
45 75
46 88
47 55
48 68
49 68
50 68
51 66
52 59
53 83
54 53
55 77
56 65
57 87
58 65
59 94
60 80
61 66
62 68
63 90
64 87
65 88
66 54
DEPOT_SECTION
1
-1
EOF
