NAME: LDG60_3322_snow_60_0048
COMMENT: CVRP with travel times.  rootPos=3,custPos=3,demandType=2,avgRouteSizeIndex=2,weather=snow,lambda_cluster=1,lambda_random=4, T1=300,T2=700,beta=1, alpha(i,j) ~ U(0.8,1.2)
TYPE: CVRP
DIMENSION: 61
EDGE_WEIGHT_TYPE: EXPLICIT
EDGE_WEIGHT_FORMAT: FULL_MATRIX
CAPACITY: 34
NODE_COORD_SECTION
1 0 0
2 671 930
3 642 117
4 859 891
5 663 917
6 854 179
7 631 882
8 112 161
9 179 904
10 56 114
11 374 60
12 70 100
13 263 915
14 296 101
15 625 457
16 670 432
17 859 237
18 497 393
19 580 570
20 862 176
21 13 122
22 202 29
23 915 86
24 680 85
25 655 928
26 680 710
27 611 972
28 238 498
29 292 976
30 799 482
31 119 443
32 984 494
33 593 920
34 356 398
35 756 101
36 239 53
37 232 191
38 889 975
39 171 373
40 642 144
41 99 73
42 487 522
43 277 928
44 670 356
45 135 462
46 811 202
47 296 167
48 828 807
49 327 978
50 450 534
51 726 823
52 13 108
53 373 737
54 208 72
55 181 170
56 224 102
57 842 179
58 697 306
59 756 717
60 516 782
61 708 656
EDGE_WEIGHT_SECTION
0.00 1326.16 848.99 1400.30 1313.12 1091.63 1245.92 289.55 1106.62 230.48 547.45 205.23 1162.24 445.88 910.45 1020.37 1132.97 882.05 890.84 1065.67 164.47 294.95 1157.10 890.52 1295.14 1166.25 1383.20 646.94 1178.62 1022.48 653.75 1288.91 1256.85 701.30 945.67 361.21 357.26 1533.14 485.84 898.40 261.70 860.32 1137.98 937.32 609.40 1066.22 471.45 1295.01 1248.12 785.30 1275.40 198.25 1003.15 362.16 387.79 385.83 1070.47 997.09 1199.69 1049.52 1079.23
1326.16 0.00 1036.43 248.66 24.74 859.14 80.24 1109.58 602.16 1188.17 1083.19 1165.30 489.25 1011.74 633.75 634.36 920.74 635.95 481.65 875.10 1161.69 1126.49 983.38 1038.53 32.18 318.68 126.64 766.81 495.21 576.52 874.06 692.25 109.12 784.17 1043.68 1107.05 1077.62 264.63 927.91 1010.07 1198.17 620.21 470.96 788.17 824.59 901.86 1024.49 340.37 478.40 557.45 174.81 1195.47 457.13 1059.28 1062.42 1090.84 831.82 774.80 367.30 276.64 345.13
848.99 1036.43 0.00 971.58 1022.23 340.53 997.06 683.76 1161.50 710.77 509.71 685.52 1035.74 521.40 425.73 402.07 412.21 488.53 607.96 352.37 720.69 620.87 338.38 89.24 1004.25 743.18 1086.74 757.45 1056.95 540.77 806.21 636.95 1026.47 741.69 155.99 615.10 543.06 1036.47 638.30 49.41 740.75 601.92 1060.00 271.31 761.86 315.73 415.50 866.29 1017.25 676.94 884.67 754.47 741.87 601.86 589.84 600.50 367.85 312.76 761.20 819.14 732.17
1400.30 248.66 971.58 0.00 234.46 915.02 314.05 1125.89 796.82 1169.82 1095.92 1195.07 689.88 1128.47 653.01 651.02 916.27 753.80 585.32 908.30 1250.97 1202.61 1084.43 989.08 216.48 309.91 310.94 952.27 679.51 497.34 1059.52 592.87 293.42 752.87 994.79 1172.72 1129.42 160.20 1038.36 922.17 1248.28 694.20 665.62 700.27 1010.05 844.69 1079.06 105.29 662.70 737.74 283.26 1235.57 641.43 1155.42 1111.90 1111.73 891.57 725.35 299.75 462.10 396.93
1313.12 24.74 1022.23 234.46 0.00 844.94 84.67 1096.54 577.42 1165.81 1101.54 1140.56 470.48 987.00 619.70 620.16 906.54 640.38 506.39 860.90 1148.65 1137.93 1008.12 1024.33 17.98 304.48 112.44 753.77 481.01 580.95 861.02 678.20 94.92 798.11 1029.48 1127.09 1082.05 239.89 914.87 996.02 1197.03 624.64 446.22 774.12 811.55 887.66 1049.23 326.17 464.20 582.19 160.76 1182.43 442.93 1084.02 1048.37 1066.10 817.62 760.60 353.10 263.60 349.56
1091.63 859.14 340.53 915.02 844.94 0.00 908.97 840.66 1253.63 946.82 589.10 924.83 1129.63 761.28 440.84 398.31 76.42 503.64 623.07 25.96 965.74 796.68 175.64 299.69 826.96 728.43 921.42 793.95 1121.95 417.68 925.21 473.40 903.90 702.30 184.54 777.24 806.16 1021.23 837.68 347.18 868.36 617.03 1153.89 286.42 875.74 70.33 741.75 828.97 1061.66 660.01 815.28 995.72 864.48 729.47 876.04 797.35 27.32 270.01 682.03 801.93 644.08
1245.92 80.24 997.06 314.05 84.67 908.97 0.00 1029.34 594.35 1122.24 1163.43 1147.49 487.41 1071.67 589.81 594.99 854.25 555.71 453.28 883.01 1081.45 1171.68 1063.62 988.02 97.57 276.93 147.93 686.57 510.76 496.28 793.82 668.74 137.86 792.40 1070.50 1153.00 997.38 324.56 847.67 966.13 1200.70 539.97 463.15 744.23 744.35 843.63 966.31 329.27 543.79 614.99 151.30 1115.23 485.87 1105.23 1038.91 1101.98 890.51 724.29 366.58 196.40 264.89
289.55 1109.58 683.76 1125.89 1096.54 840.66 1029.34 0.00 977.86 122.21 392.72 126.89 1007.47 299.35 840.37 900.63 917.08 680.20 769.38 852.50 125.08 172.90 867.55 734.56 1078.56 932.24 1166.62 518.18 1028.68 983.15 557.20 1087.06 1040.27 411.75 656.12 239.16 198.22 1282.26 398.23 733.17 179.38 664.18 1031.73 783.84 507.73 908.39 269.60 1020.60 988.98 638.47 1015.95 155.06 713.60 206.20 128.34 220.25 867.98 804.57 1051.17 832.94 930.71
1106.62 602.16 1161.50 796.82 577.42 1253.63 594.35 977.86 0.00 997.88 1014.86 1014.95 125.76 980.82 888.65 998.57 1207.69 838.46 706.42 1277.04 942.15 992.60 1305.79 1250.74 580.34 666.31 566.43 459.68 197.86 977.06 611.69 1105.52 503.40 675.80 1194.44 962.71 889.16 817.31 620.78 1210.91 1056.02 718.87 131.20 1011.88 613.38 1183.30 918.36 829.79 241.34 643.85 738.18 975.93 419.63 969.60 890.67 901.72 1253.34 1014.10 784.65 561.42 753.33
230.48 1188.17 710.77 1169.82 1165.81 946.82 1122.24 122.21 997.88 0.00 362.44 25.25 1098.60 311.86 845.36 947.92 1002.41 683.91 838.11 920.86 99.38 233.90 989.76 745.71 1155.99 1054.45 1250.45 538.20 1113.33 1058.25 547.17 1112.73 1133.17 533.96 778.33 265.12 245.51 1328.85 420.55 760.18 78.46 722.13 1082.43 804.82 497.70 881.21 295.27 1064.53 1111.19 760.68 1097.42 65.75 835.81 217.35 209.81 232.76 951.25 830.24 1098.46 925.84 978.00
547.45 1083.19 509.71 1095.92 1101.54 589.10 1163.43 392.72 1014.86 362.44 0.00 387.69 1053.08 228.04 588.40 698.32 639.97 652.26 770.63 615.06 461.82 263.53 634.28 591.71 1115.37 994.68 1061.75 555.18 1095.48 820.22 532.88 1036.95 1158.54 567.85 651.99 197.27 217.06 1254.95 501.49 489.35 383.93 692.71 1028.82 689.06 483.41 518.77 241.66 990.63 1085.91 617.69 1047.34 428.19 810.53 245.04 286.94 258.26 588.81 613.06 941.66 981.81 949.55
205.23 1165.30 685.52 1195.07 1140.56 924.83 1147.49 126.89 1014.95 25.25 387.69 0.00 1081.44 289.87 820.11 922.67 982.72 680.62 812.86 898.87 74.13 237.08 994.44 723.72 1158.54 1039.77 1253.00 556.40 1088.08 1033.00 563.21 1087.48 1158.42 538.64 783.01 243.13 220.26 1349.81 395.30 734.93 56.47 696.88 1057.18 784.26 518.86 906.46 270.02 1089.78 1108.65 765.36 1083.50 91.00 833.27 195.36 195.89 210.77 942.15 804.99 1073.21 951.09 952.75
1162.24 489.25 1035.74 689.88 470.48 1129.63 487.41 1007.47 125.76 1098.60 1053.08 1081.44 0.00 917.32 762.89 872.81 1081.93 731.52 580.66 1155.59 1054.94 1016.79 1280.11 1124.98 473.40 695.63 459.49 572.47 90.92 869.91 724.48 1119.18 396.46 768.12 1068.68 1011.02 938.98 710.37 733.57 1085.15 1137.91 607.03 24.26 886.12 726.17 1102.21 811.42 722.85 134.40 607.65 631.24 1088.72 293.87 1001.14 985.76 996.42 1156.95 888.34 736.63 454.48 664.55
445.88 1011.74 521.40 1128.47 987.00 761.28 1071.67 299.35 980.82 311.86 228.04 289.87 917.32 0.00 695.63 804.80 822.88 516.50 648.74 765.42 359.95 150.93 859.78 596.53 1004.98 896.09 1099.44 563.36 959.72 868.88 512.28 923.36 1073.06 375.60 677.39 140.09 233.46 1226.89 402.26 566.32 233.40 627.12 893.06 620.14 462.81 735.31 105.90 1023.18 1003.20 552.10 1049.02 326.17 849.85 98.31 171.01 79.10 733.96 640.87 957.59 1010.76 837.13
910.45 633.75 425.73 653.01 619.70 440.84 589.81 840.37 888.65 845.36 588.40 820.11 762.89 695.63 0.00 109.92 401.27 179.13 182.23 466.80 745.98 775.71 609.42 444.55 637.68 406.28 727.09 520.13 759.20 231.82 632.49 601.76 600.74 428.62 538.96 756.27 654.53 702.56 655.15 376.32 847.39 176.19 787.15 154.42 673.83 370.51 589.73 547.72 764.73 251.21 458.94 779.76 489.35 708.50 724.41 774.73 440.55 230.42 353.26 393.41 370.62
1020.37 634.36 402.07 651.02 620.16 398.31 594.99 900.63 998.57 947.92 698.32 922.67 872.81 804.80 109.92 0.00 321.89 289.05 292.15 405.74 855.90 728.87 517.80 474.79 602.18 341.11 684.67 630.05 858.31 341.74 742.41 569.83 679.12 538.54 476.16 795.13 702.41 749.13 735.92 406.56 909.48 286.11 897.07 184.66 783.75 400.75 698.90 545.73 874.65 361.13 535.85 889.68 599.27 796.08 772.29 819.75 410.81 260.66 450.56 472.66 330.10
1132.97 920.74 412.21 916.27 906.54 76.42 854.25 917.08 1207.69 1002.41 639.97 982.72 1081.93 822.88 401.27 321.89 0.00 464.07 583.50 83.85 968.50 854.57 238.09 361.37 888.56 663.00 983.02 844.82 1066.02 418.93 917.43 396.98 965.50 720.17 260.96 835.13 856.12 1043.27 785.97 362.80 926.25 577.46 1097.03 246.85 909.53 121.20 728.56 841.83 986.89 583.59 801.25 985.92 788.06 787.36 902.90 855.24 88.92 193.59 709.82 794.55 589.36
882.05 635.95 488.53 753.80 640.38 503.64 555.71 680.20 838.46 683.91 652.26 680.62 731.52 516.50 179.13 289.05 464.07 0.00 350.51 529.60 754.75 615.97 672.22 482.78 653.28 585.41 703.64 467.96 640.60 410.95 453.36 780.89 693.57 269.53 597.93 604.84 538.16 879.76 555.02 439.12 695.96 144.17 707.26 217.22 502.83 433.31 410.60 648.51 719.73 219.19 613.45 749.66 457.33 557.07 584.94 595.60 503.35 293.22 532.39 572.54 538.90
890.84 481.65 607.96 585.32 506.39 623.07 453.28 769.38 706.42 838.11 770.63 812.86 580.66 648.74 182.23 292.15 583.50 350.51 0.00 598.69 886.99 748.21 747.37 626.78 513.83 275.41 601.21 544.72 655.04 289.25 677.07 659.19 590.77 357.63 721.19 742.44 670.40 642.30 643.12 558.55 869.33 222.82 604.92 336.65 632.92 552.74 542.84 480.03 615.34 297.84 400.28 903.86 339.96 732.56 716.66 716.49 622.78 408.75 308.85 470.25 188.39
1065.67 875.10 352.37 908.30 860.90 25.96 883.01 852.50 1277.04 920.86 615.06 898.87 1155.59 765.42 466.80 405.74 83.85 529.60 598.69 0.00 973.00 770.72 181.65 277.52 842.92 705.14 937.38 819.91 1114.83 437.51 927.60 480.83 919.86 728.26 196.38 751.28 832.12 1047.19 863.64 359.02 842.40 642.99 1145.84 312.38 878.13 96.29 757.71 803.01 1035.70 667.44 830.01 969.78 871.91 703.51 863.30 771.39 43.28 277.44 697.99 817.89 618.12
164.47 1161.69 720.69 1250.97 1148.65 965.74 1081.45 125.08 942.15 99.38 461.82 74.13 1054.94 359.95 745.98 855.90 968.50 754.75 886.99 973.00 0.00 293.55 992.63 797.85 1130.67 1057.32 1218.73 482.47 1014.15 977.80 489.28 1161.61 1092.38 536.83 781.20 317.26 259.12 1377.24 321.37 770.10 130.60 771.01 1030.68 772.85 444.93 980.59 344.15 1145.68 1093.28 725.31 1110.93 33.78 838.68 269.49 223.32 284.90 993.06 848.85 1099.24 885.05 991.61
294.95 1126.49 620.87 1202.61 1137.93 796.68 1171.68 172.90 992.60 233.90 263.53 237.08 1016.79 150.93 775.71 728.87 854.57 615.97 748.21 770.72 293.55 0.00 897.81 595.57 1132.46 970.23 1181.87 575.14 1059.19 898.26 581.95 1022.83 1055.52 449.74 710.72 66.26 219.14 1336.71 414.04 619.66 180.61 632.47 992.53 719.61 537.60 782.30 205.37 1097.32 1102.67 676.46 1070.40 299.65 886.50 67.21 182.79 90.88 814.00 702.14 1057.06 1005.84 936.60
1157.10 983.38 338.38 1084.43 1008.12 175.64 1063.62 867.55 1305.79 989.76 634.28 994.44 1280.11 859.78 609.42 517.80 238.09 672.22 747.37 181.65 992.63 897.81 0.00 326.58 994.40 858.91 1088.86 969.59 1290.53 588.99 1100.16 590.56 1071.34 843.52 211.43 831.55 851.34 1196.87 932.25 374.07 993.83 785.61 1304.37 455.00 1051.38 245.97 753.88 984.66 1217.35 821.68 990.92 1022.61 1026.15 854.94 921.22 892.54 194.76 431.68 849.47 969.37 799.77
890.52 1038.53 89.24 989.08 1024.33 299.69 988.02 734.56 1250.74 745.71 591.71 723.72 1124.98 596.53 444.55 474.79 361.37 482.78 626.78 277.52 797.85 595.57 326.58 0.00 1006.35 802.49 1087.44 846.69 1123.38 491.74 895.45 726.19 1045.29 752.31 115.15 576.13 632.30 1089.42 727.54 102.36 667.25 614.89 1149.24 290.13 851.10 357.35 504.74 885.11 1057.03 689.91 903.49 794.63 831.11 528.36 679.08 596.24 287.31 263.73 797.81 837.96 723.13
1295.14 32.18 1004.25 216.48 17.98 826.96 97.57 1078.56 580.34 1155.99 1115.37 1158.54 473.40 1004.98 637.68 602.18 888.56 653.28 513.83 842.92 1130.67 1132.46 994.40 1006.35 0.00 286.50 94.46 735.79 463.03 593.85 843.04 696.18 76.94 780.13 1011.50 1139.23 1080.77 257.87 896.89 1005.97 1215.01 637.54 449.14 786.84 793.57 869.68 1056.67 308.19 446.22 589.63 178.74 1164.45 424.95 1091.46 1066.35 1084.08 799.64 742.62 335.12 245.62 362.46
1166.25 318.68 743.18 309.91 304.48 728.43 276.93 932.24 666.31 1054.45 994.68 1039.77 695.63 896.09 406.28 341.11 663.00 585.41 275.41 705.14 1057.32 970.23 858.91 802.49 286.50 0.00 343.56 696.75 712.13 310.75 833.45 439.21 363.44 520.49 817.27 940.34 819.51 414.64 805.98 747.67 1033.65 498.23 671.37 525.77 789.10 658.10 818.25 204.62 720.56 427.83 194.74 1067.37 445.18 909.91 879.52 879.35 704.98 538.76 149.25 241.15 87.02
1383.20 126.64 1086.74 310.94 112.44 921.42 147.93 1166.62 566.43 1250.45 1061.75 1253.00 459.49 1099.44 727.09 684.67 983.02 703.64 601.21 937.38 1218.73 1181.87 1088.86 1087.44 94.46 343.56 0.00 823.85 368.57 644.21 931.10 782.77 126.35 829.54 1105.96 1233.69 1145.31 350.10 984.95 1038.12 1309.47 687.90 435.23 816.22 881.63 964.14 1114.24 389.37 446.13 684.09 273.20 1252.51 463.51 1185.92 1160.81 1178.54 894.10 837.08 429.58 333.68 412.82
646.94 766.81 757.45 952.27 753.77 793.95 686.57 518.18 459.68 538.20 555.18 556.40 572.47 563.36 520.13 630.05 844.82 467.96 544.72 819.91 482.47 575.14 969.59 846.69 735.79 696.75 823.85 0.00 614.87 722.76 152.01 1092.70 697.50 216.12 881.92 512.11 429.48 993.66 161.10 806.86 603.98 343.94 548.21 674.55 153.70 723.62 510.61 863.70 618.77 268.92 762.47 516.25 414.12 552.14 430.99 484.26 793.66 742.70 772.32 490.17 712.32
1178.62 495.21 1056.95 679.51 481.01 1121.95 510.76 1028.68 197.86 1113.33 1095.48 1088.08 90.92 959.72 759.20 858.31 1066.02 640.60 655.04 1114.83 1014.15 1059.19 1290.53 1123.38 463.03 712.13 368.57 614.87 0.00 917.15 766.88 1084.53 405.16 783.46 1159.60 1053.42 977.21 718.67 692.78 1057.43 1135.66 628.24 66.66 835.53 768.57 1051.62 853.82 731.55 79.13 639.85 641.77 1047.93 315.08 1043.54 962.67 1015.94 1121.66 872.43 701.98 496.88 685.76
1022.48 576.52 540.77 497.34 580.95 417.68 496.28 983.15 977.06 1058.25 820.22 1033.00 869.91 868.88 231.82 341.74 418.93 410.95 289.25 437.51 977.80 898.26 588.99 491.74 593.85 310.75 644.21 722.76 917.15 0.00 864.31 369.94 610.30 571.40 574.22 832.00 886.35 657.54 820.39 491.36 1018.66 408.01 894.17 304.01 876.46 347.35 762.98 515.37 849.55 453.84 443.28 1011.58 602.07 879.77 930.43 892.99 394.23 228.01 351.85 491.13 231.39
653.75 874.06 806.21 1059.52 861.02 925.21 793.82 557.20 611.69 547.17 532.88 563.21 724.48 512.28 632.49 742.41 917.43 453.36 677.07 927.60 489.28 581.95 1100.16 895.45 843.04 833.45 931.10 152.01 766.88 864.31 0.00 1223.84 804.75 368.13 888.73 552.06 424.38 1100.91 167.91 855.62 601.85 493.71 700.22 670.58 49.47 854.88 406.38 1015.71 746.99 420.93 869.72 492.68 471.61 558.95 428.86 491.07 924.92 746.58 866.89 597.42 746.43
1288.91 692.25 636.95 592.87 678.20 473.40 668.74 1087.06 1105.52 1112.73 1036.95 1087.48 1119.18 923.36 601.76 569.83 396.98 780.89 659.19 480.83 1161.61 1022.83 590.56 726.19 696.18 439.21 782.77 1092.70 1084.53 369.94 1223.84 0.00 773.12 941.34 657.94 1017.06 945.02 751.90 1164.75 686.36 1143.95 777.95 1094.92 643.83 1174.37 518.18 817.46 487.58 1081.89 823.78 517.44 1178.48 867.38 1007.18 991.80 1002.46 485.90 572.37 382.55 664.70 503.01
1256.85 109.12 1026.47 293.42 94.92 903.90 137.86 1040.27 503.40 1133.17 1158.54 1158.42 396.46 1073.06 600.74 679.12 965.50 693.57 590.77 919.86 1092.38 1055.52 1071.34 1045.29 76.94 363.44 126.35 697.50 405.16 610.30 804.75 773.12 0.00 703.19 1088.44 1121.78 1042.48 334.81 858.60 977.06 1211.63 661.17 372.20 755.16 755.28 946.62 1029.38 326.39 482.34 666.57 255.68 1126.16 348.01 1122.73 1062.22 1062.05 876.58 819.56 412.06 207.33 402.75
701.30 784.17 741.69 752.87 798.11 702.30 792.40 411.75 675.80 533.96 567.85 538.64 768.12 375.60 428.62 538.54 720.17 269.53 357.63 728.26 536.83 449.74 843.52 752.31 780.13 520.49 829.54 216.12 783.46 571.40 368.13 941.34 703.19 0.00 867.46 419.85 428.91 911.90 285.49 708.65 513.16 252.43 764.33 486.75 369.82 631.97 326.19 647.58 749.63 226.72 715.23 566.81 474.25 426.74 359.03 358.86 702.01 526.58 666.48 706.29 546.02
945.67 1043.68 155.99 994.79 1029.48 184.54 1070.50 656.12 1194.44 778.33 651.99 783.01 1068.68 677.39 538.96 476.16 260.96 597.93 721.19 196.38 781.20 710.72 211.43 115.15 1011.50 817.27 1105.96 881.92 1159.60 574.22 888.73 657.94 1088.44 867.46 0.00 691.28 699.05 1149.70 720.82 162.64 782.40 715.15 1092.94 384.54 844.38 252.27 571.49 976.50 1139.51 790.17 997.22 811.18 869.76 643.51 745.83 711.39 211.86 346.21 866.57 932.37 805.61
361.21 1107.05 615.10 1172.72 1127.09 777.24 1153.00 239.16 962.71 265.12 197.27 243.13 1011.02 140.09 756.27 795.13 835.13 604.84 742.44 751.28 317.26 66.26 831.55 576.13 1139.23 940.34 1233.69 512.11 1053.42 832.00 552.06 1017.06 1121.78 419.85 691.28 0.00 199.70 1306.82 384.15 600.22 186.66 613.03 986.76 713.84 507.71 716.04 199.60 1067.43 1038.51 646.57 1040.51 314.04 894.10 47.77 152.90 60.99 786.08 734.57 1051.29 1002.28 930.83
357.26 1077.62 543.06 1129.42 1082.05 806.16 997.38 198.22 889.16 245.51 217.06 220.26 938.98 233.46 654.53 702.41 856.12 538.16 670.40 832.12 259.12 219.14 851.34 632.30 1080.77 819.51 1145.31 429.48 977.21 886.35 424.38 945.02 1042.48 428.91 699.05 199.70 0.00 1186.40 284.43 592.47 242.87 579.15 914.72 641.80 374.91 735.83 127.56 1024.13 1024.86 654.17 944.38 247.86 843.60 151.93 69.88 161.79 805.87 662.53 852.95 835.15 732.49
1533.14 264.63 1036.47 160.20 239.89 1021.23 324.56 1282.26 817.31 1328.85 1254.95 1349.81 710.37 1226.89 702.56 749.13 1043.27 879.76 642.30 1047.19 1377.24 1336.71 1196.87 1089.42 257.87 414.64 350.10 993.66 718.67 657.54 1100.91 751.90 334.81 911.90 1149.70 1306.82 1186.40 0.00 1154.76 987.06 1326.91 735.59 686.11 823.10 1051.44 950.90 1185.14 264.32 704.09 775.34 266.31 1394.60 682.82 1300.85 1153.92 1245.83 1020.94 885.55 458.78 503.49 453.91
485.84 927.91 638.30 1038.36 914.87 837.68 847.67 398.23 620.78 420.55 501.49 395.30 733.57 402.26 655.15 735.92 785.97 555.02 643.12 863.64 321.37 414.04 932.25 727.54 896.89 805.98 984.95 161.10 692.78 820.39 167.91 1164.75 858.60 285.49 720.82 384.15 284.43 1154.76 0.00 687.71 442.88 478.96 709.31 551.26 123.56 767.35 411.99 933.07 771.91 403.94 923.57 355.15 575.22 391.04 269.89 323.16 837.39 592.38 933.42 651.27 831.51
898.40 1010.07 49.41 922.17 996.02 347.18 966.13 733.17 1210.91 760.18 489.35 734.93 1085.15 566.32 376.32 406.56 362.80 439.12 558.55 359.02 770.10 619.66 374.07 102.36 1005.97 747.67 1038.12 806.86 1057.43 491.36 855.62 686.36 977.06 708.65 162.64 600.22 592.47 987.06 687.71 0.00 691.34 552.51 1109.41 221.90 811.27 358.21 464.91 816.88 1056.65 627.53 835.26 803.88 791.28 552.45 639.25 604.35 351.77 263.35 729.58 769.73 709.36
261.70 1198.17 740.75 1248.28 1197.03 868.36 1200.70 179.38 1056.02 78.46 383.93 56.47 1137.91 233.40 847.39 909.48 926.25 695.96 869.33 842.40 130.60 180.61 993.83 667.25 1215.01 1033.65 1309.47 603.98 1135.66 1018.66 601.85 1143.95 1211.63 513.16 782.40 186.66 242.87 1326.91 442.88 691.34 0.00 704.15 1113.65 765.14 552.38 902.70 326.49 1142.99 1165.12 739.88 1060.60 127.38 889.74 138.89 172.99 154.30 885.68 841.14 1095.82 1004.30 975.36
860.32 620.21 601.92 694.20 624.64 617.03 539.97 664.18 718.87 722.13 692.71 696.88 607.03 627.12 176.19 286.11 577.46 144.17 222.82 642.99 771.01 632.47 785.61 614.89 637.54 498.23 687.90 343.94 628.24 408.01 493.71 777.95 661.17 252.43 715.15 613.03 579.15 735.59 478.96 552.51 704.15 0.00 631.29 330.61 497.64 546.70 554.77 647.25 588.54 75.02 469.28 787.88 313.16 565.26 611.46 611.29 616.74 406.61 529.45 569.60 411.21
1137.98 470.96 1060.00 665.62 446.22 1153.89 463.15 1031.73 131.20 1082.43 1028.82 1057.18 24.26 893.06 787.15 897.07 1097.03 707.26 604.92 1145.84 1030.68 992.53 1304.37 1149.24 449.14 671.37 435.23 548.21 66.66 894.17 700.22 1094.92 372.20 764.33 1092.94 986.76 914.72 686.11 709.31 1109.41 1113.65 631.29 0.00 902.19 701.91 1118.28 787.16 698.59 110.14 631.91 606.98 1064.46 318.13 976.88 961.50 972.16 1181.21 903.44 712.37 430.22 688.81
937.32 788.17 271.31 700.27 774.12 286.42 744.23 783.84 1011.88 804.82 689.06 784.26 886.12 620.14 154.42 184.66 246.85 217.22 336.65 312.38 772.85 719.61 455.00 290.13 786.84 525.77 816.22 674.55 835.53 304.01 670.58 643.83 755.16 486.75 384.54 713.84 641.80 823.10 551.26 221.90 765.14 330.61 902.19 0.00 674.82 216.09 514.24 594.98 869.30 405.63 613.36 739.07 643.77 703.96 688.58 699.24 286.13 76.00 507.68 547.83 487.46
609.40 824.59 761.86 1010.05 811.55 875.74 744.35 507.73 613.38 497.70 483.41 518.86 726.17 462.81 673.83 783.75 909.53 502.83 632.92 878.13 444.93 537.60 1051.38 851.10 793.57 789.10 881.63 153.70 768.57 876.46 49.47 1174.37 755.28 369.82 844.38 507.71 374.91 1051.44 123.56 811.27 552.38 497.64 701.91 674.82 0.00 805.41 356.91 993.72 765.65 422.62 820.25 478.71 521.08 514.60 379.39 446.72 875.45 715.94 830.10 547.95 795.90
1066.22 901.86 315.73 844.69 887.66 70.33 843.63 908.39 1183.30 881.21 518.77 906.46 1102.21 735.31 370.51 400.75 121.20 433.31 552.74 96.29 980.59 782.30 245.97 357.35 869.68 658.10 964.14 723.62 1051.62 347.35 854.88 518.18 946.62 631.97 252.27 716.04 735.83 950.90 767.35 358.21 902.70 546.70 1118.28 216.09 805.41 0.00 730.33 811.07 1073.73 621.72 744.95 946.96 859.86 763.81 805.71 777.03 70.04 280.43 656.14 763.92 578.74
471.45 1024.49 415.50 1079.06 1049.23 741.75 966.31 269.60 918.36 295.27 241.66 270.02 811.42 105.90 589.73 698.90 728.56 410.60 542.84 757.71 344.15 205.37 753.88 504.74 1056.67 818.25 1114.24 510.61 853.82 762.98 406.38 817.46 1029.38 326.19 571.49 199.60 127.56 1185.14 411.99 464.91 326.49 554.77 787.16 514.24 356.91 730.33 0.00 973.77 897.30 552.91 943.12 361.02 800.44 189.72 174.34 185.00 714.43 534.97 851.69 904.86 731.23
1295.01 340.37 866.29 105.29 326.17 828.97 329.27 1020.60 829.79 1064.53 990.63 1089.78 722.85 1023.18 547.72 545.73 841.83 648.51 480.03 803.01 1145.68 1097.32 984.66 885.11 308.19 204.62 389.37 863.70 731.55 515.37 1015.71 487.58 326.39 647.58 976.50 1067.43 1024.13 264.32 933.07 816.88 1142.99 647.25 698.59 594.98 993.72 811.07 973.77 0.00 733.48 632.45 177.97 1130.28 649.80 1050.13 1006.61 1006.44 846.29 670.28 194.46 445.77 291.64
1248.12 478.40 1017.25 662.70 464.20 1061.66 543.79 988.98 241.34 1111.19 1085.91 1108.65 134.40 1003.20 764.73 874.65 986.89 719.73 615.34 1035.70 1093.28 1102.67 1217.35 1057.03 446.22 720.56 446.13 618.77 79.13 849.55 746.99 1081.89 482.34 749.63 1139.51 1038.51 1024.86 704.09 771.91 1056.65 1165.12 588.54 110.14 869.30 765.65 1073.73 897.30 733.48 0.00 560.72 624.96 1127.06 275.38 1086.28 1041.80 1082.30 1075.81 793.30 760.21 540.36 646.06
785.30 557.45 676.94 737.74 582.19 660.01 614.99 638.47 643.85 760.68 617.69 765.36 607.65 552.10 251.21 361.13 583.59 219.19 297.84 667.44 725.31 676.46 821.68 689.91 589.63 427.83 684.09 268.92 639.85 453.84 420.93 823.78 666.57 226.72 790.17 646.57 654.17 775.34 403.94 627.53 739.88 75.02 631.91 405.63 422.62 621.72 552.91 632.45 560.72 0.00 544.30 730.32 388.18 640.28 585.75 585.58 672.51 481.63 577.08 581.59 474.16
1275.40 174.81 884.67 283.26 160.76 815.28 151.30 1015.95 738.18 1097.42 1047.34 1083.50 631.24 1049.02 458.94 535.85 801.25 613.45 400.28 830.01 1110.93 1070.40 990.92 903.49 178.74 194.74 273.20 762.47 641.77 443.28 869.72 517.44 255.68 715.23 997.22 1040.51 944.38 266.31 923.57 835.26 1060.60 469.28 606.98 613.36 820.25 744.95 943.12 177.97 624.96 544.30 0.00 1129.72 526.82 1034.54 887.61 979.52 814.99 671.29 306.94 272.30 211.89
198.25 1195.47 754.47 1235.57 1182.43 995.72 1115.23 155.06 975.93 65.75 428.19 91.00 1088.72 326.17 779.76 889.68 985.92 749.66 903.86 969.78 33.78 299.65 1022.61 794.63 1164.45 1067.37 1252.51 516.25 1047.93 1011.58 492.68 1178.48 1126.16 566.81 811.18 314.04 247.86 1394.60 355.15 803.88 127.38 787.88 1064.46 739.07 478.71 946.96 361.02 1130.28 1127.06 730.32 1129.72 0.00 868.66 266.27 242.11 281.68 1013.06 815.07 1100.81 918.83 980.35
1003.15 457.13 741.87 641.43 442.93 864.48 485.87 713.60 419.63 835.81 810.53 833.27 293.87 849.85 489.35 599.27 788.06 457.33 339.96 871.91 838.68 886.50 1026.15 831.11 424.95 445.18 463.51 414.12 315.08 602.07 471.61 867.38 348.01 474.25 869.76 894.10 843.60 682.82 575.22 791.28 889.74 313.16 318.13 643.77 521.08 859.86 800.44 649.80 275.38 388.18 526.82 868.66 0.00 878.42 813.03 833.11 876.98 594.47 484.83 303.11 370.68
362.16 1059.28 601.86 1155.42 1084.02 729.47 1105.23 206.20 969.60 217.35 245.04 195.36 1001.14 98.31 708.50 796.08 787.36 557.07 732.56 703.51 269.49 67.21 854.94 528.36 1091.46 909.91 1185.92 552.14 1043.54 879.77 558.95 1007.18 1122.73 426.74 643.51 47.77 151.93 1300.85 391.04 552.45 138.89 565.26 976.88 703.96 514.60 763.81 189.72 1050.13 1086.28 640.28 1034.54 266.27 878.42 0.00 159.79 67.88 746.79 724.69 1004.88 987.08 884.42
387.79 1062.42 589.84 1111.90 1048.37 876.04 1038.91 128.34 890.67 209.81 286.94 195.89 985.76 171.01 724.41 772.29 902.90 584.94 716.66 863.30 223.32 182.79 921.22 679.08 1066.35 879.52 1160.81 430.99 962.67 930.43 428.86 991.80 1062.22 359.03 745.83 152.90 69.88 1153.92 269.89 639.25 172.99 611.46 961.50 688.58 379.39 805.71 174.34 1006.61 1041.80 585.75 887.61 242.11 813.03 159.79 0.00 91.91 875.75 709.31 922.83 896.68 802.37
385.83 1090.84 600.50 1111.73 1066.10 797.35 1101.98 220.25 901.72 232.76 258.26 210.77 996.42 79.10 774.73 819.75 855.24 595.60 716.49 771.39 284.90 90.88 892.54 596.24 1084.08 879.35 1178.54 484.26 1015.94 892.99 491.07 1002.46 1062.05 358.86 711.39 60.99 161.79 1245.83 323.16 604.35 154.30 611.29 972.16 699.24 446.72 777.03 185.00 1006.44 1082.30 585.58 979.52 281.68 833.11 67.88 91.91 0.00 813.06 719.97 1014.74 974.43 894.28
1070.47 831.82 367.85 891.57 817.62 27.32 890.51 867.98 1253.34 951.25 588.81 942.15 1156.95 733.96 440.55 410.81 88.92 503.35 622.78 43.28 993.06 814.00 194.76 287.31 799.64 704.98 894.10 793.66 1121.66 394.23 924.92 485.90 876.58 702.01 211.86 786.08 805.87 1020.94 837.39 351.77 885.68 616.74 1181.21 286.13 875.45 70.04 714.43 846.29 1075.81 672.51 814.99 1013.06 876.98 746.79 875.75 813.06 0.00 282.51 654.71 774.61 625.62
997.09 774.80 312.76 725.35 760.60 270.01 724.29 804.57 1014.10 830.24 613.06 804.99 888.34 640.87 230.42 260.66 193.59 293.22 408.75 277.44 848.85 702.14 431.68 263.73 742.62 538.76 837.08 742.70 872.43 228.01 746.58 572.37 819.56 526.58 346.21 734.57 662.53 885.55 592.38 263.35 841.14 406.61 903.44 76.00 715.94 280.43 534.97 670.28 793.30 481.63 671.29 815.07 594.47 724.69 709.31 719.97 282.51 0.00 579.86 623.83 459.40
1199.69 367.30 761.20 299.75 353.10 682.03 366.58 1051.17 784.65 1098.46 941.66 1073.21 736.63 957.59 353.26 450.56 709.82 532.39 308.85 697.99 1099.24 1057.06 849.47 797.81 335.12 149.25 429.58 772.32 701.98 351.85 866.89 382.55 412.06 666.48 866.57 1051.29 852.95 458.78 933.42 729.58 1095.82 529.45 712.37 507.68 830.10 656.14 851.69 194.46 760.21 577.08 306.94 1100.81 484.83 1004.88 922.83 1014.74 654.71 579.86 0.00 282.15 120.46
1049.52 276.64 819.14 462.10 263.60 801.93 196.40 832.94 561.42 925.84 981.81 951.09 454.48 1010.76 393.41 472.66 794.55 572.54 470.25 817.89 885.05 1005.84 969.37 837.96 245.62 241.15 333.68 490.17 496.88 491.13 597.42 664.70 207.33 706.29 932.37 1002.28 835.15 503.49 651.27 769.73 1004.30 569.60 430.22 547.83 547.95 763.92 904.86 445.77 540.36 581.59 272.30 918.83 303.11 987.08 896.68 974.43 774.61 623.83 282.15 0.00 328.17
1079.23 345.13 732.17 396.93 349.56 644.08 264.89 930.71 753.33 978.00 949.55 952.75 664.55 837.13 370.62 330.10 589.36 538.90 188.39 618.12 991.61 936.60 799.77 723.13 362.46 87.02 412.82 712.32 685.76 231.39 746.43 503.01 402.75 546.02 805.61 930.83 732.49 453.91 831.51 709.36 975.36 411.21 688.81 487.46 795.90 578.74 731.23 291.64 646.06 474.16 211.89 980.35 370.68 884.42 802.37 894.28 625.62 459.40 120.46 328.17 0.00
DEMAND_SECTION
1 0
2 6
3 1
4 6
5 2
6 7
7 3
8 2
9 7
10 8
11 6
12 2
13 9
14 2
15 4
16 8
17 1
18 2
19 2
20 3
21 6
22 6
23 7
24 10
25 2
26 7
27 5
28 10
29 8
30 10
31 7
32 1
33 10
34 8
35 2
36 3
37 2
38 6
39 2
40 10
41 8
42 7
43 4
44 9
45 8
46 5
47 9
48 8
49 8
50 1
51 6
52 1
53 5
54 2
55 10
56 10
57 1
58 5
59 5
60 4
61 6
DEPOT_SECTION
1
-1
EOF
