NAME: LDG60_3111_rain_60_0184
COMMENT: CVRP with travel times.  rootPos=3,custPos=1,demandType=1,avgRouteSizeIndex=1,weather=rain,lambda_cluster=1,lambda_random=4, T1=300,T2=700,beta=1, alpha(i,j) ~ U(0.8,1.2)
TYPE: CVRP
DIMENSION: 61
EDGE_WEIGHT_TYPE: EXPLICIT
EDGE_WEIGHT_FORMAT: FULL_MATRIX
CAPACITY: 3
NODE_COORD_SECTION
1 0 0
2 906 208
3 373 311
4 418 26
5 472 714
6 611 193
7 629 818
8 127 393
9 488 972
10 702 266
11 528 960
12 323 389
13 358 208
14 57 877
15 2 927
16 169 603
17 427 463
18 954 578
19 635 863
20 484 393
21 187 597
22 246 124
23 43 378
24 521 492
25 771 863
26 680 215
27 810 167
28 122 438
29 34 382
30 277 94
31 231 389
32 529 730
33 148 701
34 738 838
35 305 818
36 468 647
37 875 97
38 460 105
39 767 954
40 325 361
41 681 802
42 260 482
43 804 378
44 352 452
45 937 371
46 691 113
47 923 161
48 413 80
49 191 218
50 758 335
51 305 803
52 671 541
53 717 823
54 663 495
55 591 104
56 734 265
57 322 36
58 442 910
59 139 191
60 387 87
61 260 934
EDGE_WEIGHT_SECTION
0.00 1000.38 593.99 552.01 928.65 706.68 1027.10 437.02 1079.46 818.90 1153.52 593.88 556.55 934.34 1034.84 646.82 719.31 1258.54 1100.25 719.15 617.56 413.20 364.09 820.31 1186.99 786.55 872.95 479.27 354.17 471.88 526.37 979.37 668.52 1148.04 907.97 844.39 1015.60 511.96 1272.01 534.64 1061.13 583.92 999.41 634.37 1078.46 765.30 1002.08 501.71 339.66 925.47 884.41 924.78 1111.05 871.10 678.10 855.43 387.84 1021.75 287.41 491.01 959.83
1000.38 0.00 565.50 572.74 729.72 293.70 760.83 806.42 890.70 220.94 868.70 649.00 533.32 1023.09 1123.59 891.80 602.59 434.22 729.79 487.28 874.54 659.87 896.05 513.34 730.58 213.83 174.63 780.87 892.10 628.57 713.39 691.15 930.21 681.57 921.59 663.50 154.08 499.97 805.54 589.76 768.48 713.24 281.84 650.42 220.03 308.54 106.22 512.42 700.18 217.67 940.54 503.89 718.56 450.21 383.14 211.46 626.29 923.96 760.50 547.63 1012.44
593.99 565.50 0.00 335.54 451.29 331.01 584.21 319.47 706.68 475.87 767.73 117.78 162.94 689.18 789.68 381.78 212.38 790.21 657.36 209.53 411.04 364.96 370.66 313.38 750.71 410.88 547.30 377.68 380.58 349.65 212.41 518.04 424.75 701.70 464.86 429.66 639.93 303.53 825.67 137.06 639.49 244.02 508.19 173.04 710.34 413.39 634.35 320.52 254.33 549.80 441.30 430.49 664.71 463.92 363.11 444.65 286.32 623.52 328.01 285.31 577.91
552.01 572.74 335.54 0.00 711.59 279.04 810.29 474.77 999.49 380.09 995.76 426.41 229.92 903.89 1004.39 630.22 472.68 739.95 856.85 474.34 600.96 184.83 547.90 482.04 919.37 358.91 459.27 532.98 557.82 243.51 437.84 768.43 709.30 870.36 780.26 689.96 587.96 143.17 994.33 367.17 842.12 522.20 569.66 474.62 652.18 369.10 588.40 60.32 295.46 497.83 756.70 652.62 833.37 609.36 250.76 416.62 166.68 916.33 338.06 79.21 893.31
928.65 729.72 451.29 711.59 0.00 600.78 187.83 506.65 287.90 552.21 361.96 405.21 599.15 522.10 622.60 341.53 238.91 669.83 245.80 335.90 312.27 662.82 585.58 261.53 368.44 588.74 688.92 523.02 575.66 610.65 499.84 87.27 362.28 319.43 268.75 109.65 816.75 712.53 434.48 439.74 249.25 344.73 501.16 323.85 702.13 665.31 765.75 651.27 618.56 512.05 245.19 275.47 299.17 329.15 630.97 588.74 703.44 204.74 686.97 686.48 319.01
706.68 293.70 331.01 279.04 600.78 0.00 703.62 563.06 888.68 146.00 847.53 448.79 254.81 934.41 1034.91 627.01 397.86 551.86 708.62 349.48 656.27 390.53 680.34 407.08 777.07 79.87 246.33 621.27 670.42 419.15 523.69 627.48 738.18 758.71 759.37 525.68 308.92 299.41 871.11 421.68 687.53 508.00 292.73 408.31 408.87 125.97 315.15 218.72 501.16 218.79 735.81 392.39 721.72 338.71 139.26 168.15 332.59 805.52 466.80 253.93 872.42
1027.10 760.83 584.21 810.29 187.83 703.62 0.00 694.48 262.94 585.90 212.06 551.70 659.33 628.75 729.25 529.36 426.74 482.00 73.15 523.73 500.10 743.50 773.41 421.50 185.05 637.65 687.56 710.85 763.49 798.48 646.33 224.06 550.11 136.04 456.58 297.48 777.38 667.12 246.65 492.46 61.42 532.56 536.92 511.68 609.40 741.04 746.82 749.97 745.60 585.27 433.02 382.17 111.34 364.91 805.80 549.37 863.36 284.83 739.69 760.19 411.52
437.02 806.42 319.47 474.77 506.65 563.06 694.48 0.00 674.82 646.47 748.88 219.50 341.47 572.99 673.49 265.59 324.92 962.87 752.45 387.88 268.96 289.94 117.28 415.21 815.93 625.25 772.16 58.21 107.36 348.62 124.87 593.92 344.40 776.98 501.82 521.97 835.97 505.56 900.95 216.66 690.07 161.92 684.02 261.61 810.67 663.19 855.91 461.75 201.61 620.59 478.26 561.31 739.99 565.75 681.77 683.00 441.41 697.63 275.29 439.27 522.81
1079.46 890.70 706.68 999.49 287.90 888.68 262.94 674.82 0.00 775.59 74.06 588.90 815.01 509.39 543.28 547.50 526.81 676.28 212.97 616.87 559.74 899.18 735.21 549.43 346.37 852.78 859.67 704.57 725.29 898.55 683.53 315.97 436.39 297.36 285.69 390.62 983.89 890.82 421.33 648.14 310.29 512.90 608.86 611.75 811.01 952.19 936.50 939.17 868.77 682.80 309.25 551.06 260.37 562.04 918.87 799.17 921.87 83.16 895.37 936.10 292.16
818.90 220.94 475.87 380.09 552.21 146.00 585.90 646.47 775.59 0.00 701.53 448.68 397.19 927.26 1027.76 670.86 381.65 471.59 562.62 266.34 653.60 523.74 703.44 379.81 696.27 77.70 180.78 588.26 713.36 529.55 543.31 518.04 732.40 649.27 700.65 442.56 264.54 342.76 773.24 450.85 578.09 492.30 189.57 429.48 272.09 176.60 233.98 364.72 479.24 137.99 719.60 282.95 612.28 229.27 219.90 36.53 436.76 750.85 552.92 399.93 791.50
1153.52 868.70 767.73 995.76 361.96 847.53 212.06 748.88 74.06 701.53 0.00 662.96 871.39 566.08 617.34 532.02 597.41 602.22 138.91 662.97 561.28 883.86 809.27 561.89 295.20 779.23 827.90 739.40 799.35 825.18 757.59 334.97 510.45 246.19 347.90 436.72 966.07 879.18 370.16 704.52 251.77 586.96 682.92 594.69 816.41 878.13 904.73 962.03 889.40 651.03 371.46 478.86 267.78 532.54 921.43 738.06 917.97 157.22 951.75 936.03 366.22
593.88 649.00 117.78 426.41 405.21 448.79 551.70 219.50 588.90 448.68 662.96 0.00 226.11 623.52 724.02 316.12 166.30 753.74 615.47 182.34 318.21 310.28 319.87 267.30 686.51 484.78 577.60 277.71 326.86 357.39 94.63 405.34 377.66 637.50 441.57 383.58 664.05 313.39 761.47 59.24 567.98 137.56 525.40 81.36 689.23 443.69 682.66 382.41 308.84 515.77 418.01 437.88 617.90 405.35 480.89 485.21 336.59 505.74 306.47 347.20 554.62
556.55 533.32 162.94 229.92 599.15 254.81 659.33 341.47 815.01 397.19 871.39 226.11 0.00 824.27 856.20 516.87 367.70 791.48 732.48 263.25 532.98 232.12 441.73 416.79 822.10 319.49 493.67 399.68 448.83 186.71 276.41 627.76 587.69 795.37 627.80 489.50 548.54 164.09 905.98 166.87 720.75 363.67 542.46 282.76 649.63 380.78 569.96 185.92 282.22 468.52 604.24 557.59 768.12 540.81 370.47 407.77 253.88 731.85 269.14 150.71 740.85
934.34 1023.09 689.18 903.89 522.10 934.41 628.75 572.99 509.39 927.26 566.08 623.52 824.27 0.00 100.50 307.40 569.12 1110.75 651.67 684.43 336.66 753.15 609.97 670.12 771.83 992.53 1106.54 514.78 600.05 811.83 547.86 609.37 296.29 735.92 300.47 484.70 1168.34 936.91 736.60 682.76 690.17 485.96 928.22 585.65 1109.64 980.66 1129.31 877.30 716.40 965.79 276.91 749.79 740.09 803.47 961.18 963.79 904.62 426.23 786.82 902.48 217.23
1034.84 1123.59 789.68 1004.39 622.60 1034.91 729.25 673.49 543.28 1027.76 617.34 724.02 856.20 100.50 0.00 407.90 669.62 1159.41 737.43 784.93 428.88 853.65 699.16 770.62 725.89 1093.03 1206.79 615.28 689.24 912.33 648.36 704.71 374.89 774.90 400.97 585.20 1268.84 995.09 818.67 689.33 790.67 586.46 1028.72 686.15 1210.14 1072.88 1229.81 969.52 808.62 1066.29 377.41 850.29 803.65 903.97 1061.68 1064.29 1005.12 526.73 882.30 977.29 317.73
646.82 891.80 381.78 630.22 341.53 627.01 529.36 265.59 547.50 670.86 532.02 316.12 516.87 307.40 407.90 0.00 363.19 915.94 553.98 404.52 29.26 519.63 302.57 464.19 679.03 706.88 807.17 207.38 292.65 535.35 240.46 428.80 135.59 659.26 261.81 311.11 860.94 629.51 697.94 375.36 590.78 178.56 642.13 278.25 807.92 673.26 904.84 569.90 409.00 710.85 238.25 580.21 622.27 602.24 703.61 707.39 628.14 464.34 479.42 605.11 374.86
719.31 602.59 212.38 472.68 238.91 397.86 426.74 324.92 526.81 381.65 597.41 166.30 367.70 569.12 669.62 363.19 0.00 641.12 465.40 115.31 363.56 423.91 442.20 101.00 538.33 428.21 537.42 338.81 432.28 482.59 260.93 326.18 424.73 489.32 361.51 217.28 646.19 478.21 613.29 200.83 427.11 184.63 359.10 84.94 561.25 463.44 615.63 412.36 379.65 396.67 337.95 271.58 452.33 251.54 392.06 418.18 498.70 443.65 448.06 447.57 474.56
1258.54 434.22 790.21 739.95 669.83 551.86 482.00 962.87 676.28 471.59 602.22 753.74 791.48 1110.75 1159.41 915.94 641.12 0.00 533.44 698.53 886.68 918.03 1026.84 564.21 433.52 471.99 532.83 979.79 1016.92 915.86 840.63 583.22 1007.59 435.80 853.51 686.73 504.86 767.76 448.89 791.29 420.58 800.95 282.02 726.06 214.19 575.38 497.43 770.58 945.11 355.96 877.07 404.19 430.48 413.67 652.53 446.62 884.45 745.49 1018.66 805.79 893.52
1100.25 729.79 657.36 856.85 245.80 708.62 73.15 752.45 212.97 562.62 138.91 615.47 732.48 651.67 737.43 553.98 465.40 533.44 0.00 524.06 558.07 816.65 778.11 472.94 156.29 640.32 688.99 761.36 788.03 856.45 710.10 210.13 608.08 107.28 466.66 297.81 827.16 740.27 231.25 565.61 112.86 590.53 565.64 550.34 682.55 739.22 765.82 823.12 818.75 512.12 490.22 339.95 128.87 393.63 782.52 599.15 929.06 264.13 812.84 833.34 473.13
719.15 487.28 209.53 474.34 335.90 349.48 523.73 387.88 616.87 266.34 662.97 182.34 263.25 684.43 784.93 404.52 115.31 698.53 524.06 0.00 387.26 435.55 460.41 153.54 570.64 344.04 447.12 417.63 470.33 449.96 276.97 366.89 466.06 541.86 476.82 226.25 530.88 400.65 664.68 184.51 513.62 225.96 427.23 163.14 506.89 442.94 500.32 414.02 437.65 353.29 453.26 294.34 504.87 304.08 486.24 302.87 489.87 540.64 431.74 413.96 575.19
617.56 874.54 411.04 600.96 312.27 656.27 500.10 268.96 559.74 653.60 561.28 318.21 532.98 336.66 428.88 29.26 363.56 886.68 558.07 387.26 0.00 490.37 273.31 464.56 649.77 731.30 777.91 210.75 263.39 506.09 269.72 399.54 164.85 630.00 291.07 281.85 861.31 623.49 727.20 377.45 561.52 180.65 671.39 278.62 837.18 644.00 887.58 540.64 379.74 681.59 267.51 550.95 593.01 602.61 674.35 690.13 598.88 493.60 453.42 575.85 404.12
413.20 659.87 364.96 184.83 662.82 390.53 743.50 289.94 899.18 523.74 883.86 310.28 232.12 753.15 853.65 519.63 423.91 918.03 816.65 435.55 490.37 0.00 363.07 524.91 928.55 446.04 605.05 348.15 372.99 58.68 313.27 711.93 524.47 879.54 739.15 631.56 675.09 242.40 990.15 251.04 804.92 447.84 683.26 366.93 795.83 492.21 705.68 171.81 110.63 609.32 728.29 639.07 854.84 642.07 396.54 534.32 151.47 816.02 153.23 149.33 812.75
364.09 896.05 370.66 547.90 585.58 680.34 773.41 117.28 735.21 703.44 809.27 319.87 441.73 609.97 699.16 302.57 442.20 1026.84 778.11 460.41 273.31 363.07 0.00 532.49 847.63 682.22 856.40 115.18 9.92 421.75 225.24 626.66 324.27 801.67 564.38 480.30 911.27 542.47 925.64 312.26 721.77 279.20 744.82 378.89 863.08 763.56 912.24 534.88 252.44 720.96 540.82 661.68 771.69 683.03 733.77 714.79 458.05 677.50 250.56 512.40 640.09
820.31 513.34 313.38 482.04 261.53 407.08 421.50 415.21 549.43 379.81 561.89 267.30 416.79 670.12 770.62 464.19 101.00 564.21 472.94 153.54 464.56 524.91 532.49 0.00 437.33 327.21 472.54 439.81 522.57 513.47 361.93 334.18 525.73 388.32 462.51 318.28 556.26 554.19 512.29 301.83 360.08 285.63 322.55 185.94 485.75 403.78 549.37 513.36 480.65 295.67 438.95 170.58 351.33 150.54 493.06 410.98 599.70 466.27 549.06 548.57 575.56
1186.99 730.58 750.71 919.37 368.44 777.07 185.05 815.93 346.37 696.27 295.20 686.51 822.10 771.83 725.89 679.03 538.33 433.52 156.29 570.64 649.77 928.55 847.63 437.33 0.00 747.06 735.15 845.68 857.55 950.80 731.80 281.17 711.93 49.01 561.23 397.16 832.29 852.17 94.04 677.51 125.86 654.01 632.22 623.27 647.71 841.11 811.98 935.02 847.33 558.28 553.73 415.33 86.00 469.01 916.17 674.65 1004.44 358.70 921.01 945.24 567.70
786.55 213.83 410.88 358.91 588.74 79.87 637.65 625.25 852.78 77.70 779.23 484.78 319.49 992.53 1093.03 706.88 428.21 471.99 640.32 344.04 731.30 446.04 682.22 327.21 747.06 0.00 174.18 567.04 692.14 499.02 579.41 580.47 810.10 711.70 765.92 507.83 229.05 295.77 835.67 486.36 640.52 570.00 243.92 488.18 349.79 103.39 281.94 298.59 556.67 188.78 766.16 345.38 674.71 291.70 219.13 88.28 412.46 793.48 546.67 333.80 856.77
872.95 174.63 547.30 459.27 688.92 246.33 687.56 772.16 859.67 180.78 827.90 577.60 493.67 1106.54 1206.79 807.17 537.42 532.83 688.99 447.12 777.91 605.05 856.40 472.54 735.15 174.18 0.00 741.22 853.87 577.90 672.23 650.35 877.39 715.17 881.43 623.34 184.59 387.25 829.19 555.50 711.80 673.08 250.81 610.26 366.95 133.91 129.13 448.81 660.02 176.87 875.37 434.41 750.09 380.73 208.51 149.00 485.11 883.16 709.18 464.21 972.28
479.27 780.87 377.68 532.98 523.02 621.27 710.85 58.21 704.57 588.26 739.40 277.71 399.68 514.78 615.28 207.38 338.81 979.79 761.36 417.63 210.75 348.15 115.18 439.81 845.68 567.04 741.22 0.00 125.10 406.83 183.08 610.29 332.24 806.73 469.19 492.60 796.09 563.72 905.32 274.87 719.82 191.67 697.91 291.36 860.35 670.43 822.24 519.96 259.82 678.80 445.63 575.60 769.74 590.35 707.21 624.79 499.62 671.72 330.20 497.48 581.02
354.17 892.10 380.58 557.82 575.66 670.42 763.49 107.36 725.29 713.36 799.35 326.86 448.83 600.05 689.24 292.65 432.28 1016.92 788.03 470.33 263.39 372.99 9.92 522.57 857.55 692.14 853.87 125.10 0.00 431.67 232.23 636.58 314.35 811.59 554.46 490.22 921.19 552.39 935.56 302.34 731.69 269.28 734.90 368.97 853.16 770.55 902.32 544.80 262.36 727.95 530.90 668.67 781.61 673.11 743.69 704.87 467.97 667.58 240.64 522.32 630.17
471.88 628.57 349.65 243.51 610.65 419.15 798.48 348.62 898.55 529.55 825.18 357.39 186.71 811.83 912.33 535.35 482.59 915.86 856.45 449.96 506.09 58.68 421.75 513.47 950.80 499.02 577.90 406.83 431.67 0.00 371.95 697.92 583.15 901.79 680.47 676.21 659.61 218.07 1025.76 309.72 859.90 403.55 633.84 425.61 749.98 471.41 707.03 206.66 169.31 559.90 704.03 681.90 864.80 664.01 424.45 530.03 92.79 815.39 211.91 194.91 840.64
526.37 713.39 212.41 437.84 499.84 523.69 646.33 124.87 683.53 543.31 757.59 94.63 276.41 547.86 648.36 240.46 260.93 840.63 710.10 276.97 269.72 313.27 225.24 361.93 731.80 579.41 672.23 183.08 232.23 371.95 0.00 499.97 376.05 682.79 502.27 478.21 758.68 408.02 806.76 153.87 662.61 202.84 569.66 175.99 685.80 538.32 749.42 462.33 214.21 495.72 478.71 436.44 712.53 490.12 556.90 572.28 431.22 600.37 238.96 427.12 587.00
979.37 691.15 518.04 768.43 87.27 627.48 224.06 593.92 315.97 518.04 334.97 405.34 627.76 609.37 704.71 428.80 326.18 583.22 210.13 366.89 399.54 711.93 626.66 334.18 281.17 580.47 650.35 610.29 636.58 697.92 499.97 0.00 449.55 232.16 346.28 146.36 777.22 625.26 356.13 460.89 162.64 432.00 460.78 345.00 662.93 683.86 727.18 708.11 639.71 473.48 332.46 235.09 212.56 288.77 718.24 549.21 741.93 232.81 708.12 718.33 406.28
668.52 930.21 424.75 709.30 362.28 738.18 550.11 344.40 436.39 732.40 510.45 377.66 587.69 296.29 374.89 135.59 424.73 1007.59 608.08 466.06 164.85 524.47 324.27 525.73 711.93 810.10 877.39 332.24 314.35 583.15 376.05 449.55 0.00 662.92 277.97 446.70 922.48 691.05 714.10 436.90 611.53 240.10 777.72 339.79 943.51 808.85 966.38 696.28 514.72 804.51 254.41 603.40 652.86 657.08 766.69 768.93 675.94 353.23 554.99 673.80 364.56
1148.04 681.57 701.70 870.36 319.43 758.71 136.04 776.98 297.36 649.27 246.19 637.50 795.37 735.92 774.90 659.26 489.32 435.80 107.28 541.86 630.00 879.54 801.67 388.32 49.01 711.70 715.17 806.73 811.59 901.79 682.79 232.16 662.92 0.00 512.22 348.15 805.74 803.16 123.97 628.50 86.91 615.06 592.01 574.26 649.99 792.10 787.79 886.01 808.38 607.29 535.78 366.32 36.99 420.00 869.17 638.08 955.43 309.69 875.73 896.23 518.69
907.97 921.59 464.86 780.26 268.75 759.37 456.58 501.82 285.69 700.65 347.90 441.57 627.80 300.47 400.97 261.81 361.51 853.51 466.66 476.82 291.07 739.15 564.38 462.51 561.23 765.92 881.43 469.19 554.46 680.47 502.27 346.28 277.97 512.22 0.00 258.09 965.19 754.96 483.25 500.81 450.64 339.90 675.01 439.59 809.17 824.95 925.97 736.26 670.81 748.95 23.56 449.32 500.56 503.00 742.92 737.18 751.18 202.53 620.56 701.05 160.17
844.39 663.50 429.66 689.96 109.65 525.68 297.48 521.97 390.62 442.56 436.72 383.58 489.50 484.70 585.20 311.11 217.28 686.73 297.81 226.25 281.85 631.56 480.30 318.28 397.16 507.83 623.34 492.60 490.22 676.21 478.21 146.36 446.70 348.15 258.09 0.00 707.10 626.90 472.12 380.52 309.00 401.91 508.23 302.22 710.38 611.22 667.88 629.64 596.93 579.54 281.65 282.54 311.16 336.22 609.34 479.09 715.98 314.39 627.75 640.21 348.94
1015.60 154.08 639.93 587.96 816.75 308.92 777.38 835.97 983.89 264.54 966.07 664.05 548.54 1168.34 1268.84 860.94 646.19 504.86 827.16 530.88 861.31 675.09 911.27 556.26 832.29 229.05 184.59 796.09 921.19 659.61 758.68 777.22 922.48 805.74 965.19 707.10 0.00 514.43 926.33 619.31 790.81 682.38 375.03 582.69 299.11 262.94 96.38 527.64 743.78 344.38 984.14 542.13 768.75 488.45 381.28 228.01 641.51 1010.03 775.72 562.85 1056.04
511.96 499.97 303.53 143.17 712.53 299.41 667.12 505.56 890.82 342.76 879.18 313.39 164.09 936.91 995.09 629.51 478.21 767.76 740.27 400.65 623.49 242.40 542.47 554.19 852.17 295.77 387.25 563.72 552.39 218.07 408.02 625.26 691.05 803.16 754.96 626.90 514.43 0.00 913.77 305.76 728.54 450.95 490.88 393.27 614.85 253.34 516.38 82.85 330.69 476.18 731.40 625.71 778.46 572.03 206.38 379.29 196.24 819.13 395.63 93.07 868.01
1272.01 805.54 825.67 994.33 434.48 871.11 246.65 900.95 421.33 773.24 370.16 761.47 905.98 736.60 818.67 697.94 613.29 448.89 231.25 664.68 727.20 990.15 925.64 512.29 94.04 835.67 829.19 905.32 935.56 1025.76 806.76 356.13 714.10 123.97 483.25 472.12 926.33 913.77 0.00 739.11 210.88 739.03 715.98 698.23 663.08 916.07 872.57 996.62 932.35 652.32 459.69 490.29 160.96 543.97 969.11 762.05 1079.40 433.66 986.34 1006.84 530.20
534.64 589.76 137.06 367.17 439.74 421.68 492.46 216.66 648.14 450.85 704.52 59.24 166.87 682.76 689.33 375.36 200.83 791.29 565.61 184.51 377.45 251.04 312.26 301.83 677.51 486.36 555.50 274.87 302.34 309.72 153.87 460.89 436.90 628.50 500.81 380.52 619.31 305.76 739.11 0.00 553.88 196.80 509.27 115.89 646.61 499.12 684.63 323.17 253.14 456.53 477.25 472.41 603.80 439.88 470.20 487.38 391.13 564.98 247.23 287.96 613.86
1061.13 768.48 639.49 842.12 249.25 687.53 61.42 690.07 310.29 578.09 251.77 567.98 720.75 690.17 790.67 590.78 427.11 420.58 112.86 513.62 561.52 804.92 721.77 360.08 125.86 640.52 711.80 719.82 731.69 859.90 662.61 162.64 611.53 86.91 450.64 309.00 790.81 728.54 210.88 553.88 0.00 528.15 520.83 507.64 634.77 743.91 760.25 811.39 721.47 594.77 474.20 320.75 49.92 348.82 797.99 562.80 904.57 326.31 795.15 821.61 472.94
583.92 713.24 244.02 522.20 344.73 508.00 532.56 161.92 512.90 492.30 586.96 137.56 363.67 485.96 586.46 178.56 184.63 800.95 590.53 225.96 180.65 447.84 279.20 285.63 654.01 570.00 673.08 191.67 269.28 403.55 202.84 432.00 240.10 615.06 339.90 401.91 682.38 450.95 739.03 196.80 528.15 0.00 543.73 99.69 732.85 581.25 726.28 513.99 355.87 564.41 316.34 456.21 578.07 423.68 531.54 528.83 474.15 542.43 422.60 484.76 450.18
999.41 281.84 508.19 569.66 501.16 292.73 536.92 684.02 608.86 189.57 682.92 525.40 542.46 928.22 1028.72 642.13 359.10 282.02 565.64 427.23 671.39 683.26 744.82 322.55 632.22 243.92 250.81 697.91 734.90 633.84 569.66 460.78 777.72 592.01 675.01 508.23 375.03 490.88 715.98 509.27 520.83 543.73 0.00 444.04 202.15 347.31 327.64 511.45 668.81 73.94 697.05 225.69 555.02 172.01 409.47 190.31 625.32 692.02 742.49 546.66 820.17
634.37 650.42 173.04 474.62 323.85 408.31 511.68 261.61 611.75 429.48 594.69 81.36 282.76 585.65 686.15 278.25 84.94 726.06 550.34 163.14 278.62 366.93 378.89 185.94 623.27 488.18 610.26 291.36 368.97 425.61 175.99 345.00 339.79 574.26 439.59 302.22 582.69 393.27 698.23 115.89 507.64 99.69 444.04 0.00 646.19 525.05 663.46 414.30 294.71 464.72 416.03 356.52 537.27 323.99 431.85 466.01 417.95 528.59 363.12 403.85 549.87
1078.46 220.03 710.34 652.18 702.13 408.87 609.40 810.67 811.01 272.09 816.41 689.23 649.63 1109.64 1210.14 807.92 561.25 214.19 682.55 506.89 837.18 795.83 863.08 485.75 647.71 349.79 366.95 860.35 853.16 749.98 685.80 662.93 943.51 649.99 809.17 710.38 299.11 614.85 663.08 646.61 634.77 732.85 202.15 646.19 0.00 448.69 283.24 627.59 751.33 190.08 832.73 427.84 644.67 374.16 491.99 306.39 708.85 894.17 825.01 662.80 969.34
765.30 308.54 413.39 369.10 665.31 125.97 741.04 663.19 952.19 176.60 878.13 443.69 380.78 980.66 1072.88 673.26 463.44 575.38 739.22 442.94 644.00 492.21 763.56 403.78 841.11 103.39 133.91 670.43 770.55 471.41 538.32 683.86 808.85 792.10 824.95 611.22 262.94 253.34 916.07 499.12 743.91 581.25 347.31 525.05 448.69 0.00 263.04 320.40 584.03 292.17 801.39 448.77 755.11 395.09 118.34 191.67 434.27 870.05 575.27 346.41 938.00
1002.08 106.22 634.35 588.40 765.75 315.15 746.82 855.91 936.50 233.98 904.73 682.66 569.96 1129.31 1229.81 904.84 615.63 497.43 765.82 500.32 887.58 705.68 912.24 549.37 811.98 281.94 129.13 822.24 902.32 707.03 749.42 727.18 966.38 787.79 925.97 667.88 96.38 516.38 872.57 684.63 760.25 726.28 327.64 663.46 283.24 263.04 0.00 533.87 713.22 253.70 949.53 511.57 766.15 457.89 337.64 197.45 614.24 959.99 781.95 569.08 1016.82
501.71 512.42 320.52 60.32 651.27 218.72 749.97 461.75 939.17 364.72 962.03 382.41 185.92 877.30 969.52 569.90 412.36 770.58 823.12 414.02 540.64 171.81 534.88 513.36 935.02 298.59 448.81 519.96 544.80 206.66 462.33 708.11 696.28 886.01 736.26 629.64 527.64 82.85 996.62 323.17 811.39 513.99 511.45 414.30 627.59 320.40 533.87 0.00 282.44 437.51 712.70 611.11 861.31 557.43 240.30 386.87 113.87 856.01 325.04 35.21 849.31
339.66 700.18 254.33 295.46 618.56 501.16 745.60 201.61 868.77 479.24 889.40 308.84 282.22 716.40 808.62 409.00 379.65 945.11 818.75 437.65 379.74 110.63 252.44 480.65 847.33 556.67 660.02 259.82 262.36 169.31 214.21 639.71 514.72 808.38 670.81 596.93 743.78 330.69 932.35 253.14 721.47 355.87 668.81 294.71 751.33 584.03 713.22 282.44 0.00 617.23 647.25 585.12 771.39 531.44 502.79 515.77 262.10 814.58 73.68 259.96 724.42
925.47 217.67 549.80 497.83 512.05 218.79 585.27 620.59 682.80 137.99 651.03 515.77 468.52 965.79 1066.29 710.85 396.67 355.96 512.12 353.29 681.59 609.32 720.96 295.67 558.28 188.78 176.87 678.80 727.95 559.90 495.72 473.48 804.51 607.29 748.95 579.54 344.38 476.18 652.32 456.53 594.77 564.41 73.94 464.72 190.08 292.17 253.70 437.51 617.23 0.00 734.62 299.63 628.96 245.95 357.89 116.37 551.38 706.29 685.59 472.72 802.29
884.41 940.54 441.30 756.70 245.19 735.81 433.02 478.26 309.25 719.60 371.46 418.01 604.24 276.91 377.41 238.25 337.95 877.07 490.22 453.26 267.51 728.29 540.82 438.95 553.73 766.16 875.37 445.63 530.90 704.03 478.71 332.46 254.41 535.78 23.56 281.65 984.14 731.40 459.69 477.25 474.20 316.34 697.05 416.03 832.73 801.39 949.53 712.70 647.25 734.62 0.00 472.88 505.52 526.56 719.36 756.13 727.62 226.09 597.00 677.49 136.61
924.78 503.89 430.49 652.62 275.47 392.39 382.17 561.31 551.06 282.95 478.86 437.88 557.59 749.79 850.29 580.21 271.58 404.19 339.95 294.34 550.95 639.07 661.68 170.58 415.33 345.38 434.41 575.60 668.67 681.90 436.44 235.09 603.40 366.32 449.32 282.54 542.13 625.71 490.29 472.41 320.75 456.21 225.69 356.52 427.84 448.77 511.57 611.11 585.12 299.63 472.88 0.00 329.33 53.68 502.85 314.12 589.11 467.90 658.80 646.32 594.48
1111.05 718.56 664.71 833.37 299.17 721.72 111.34 739.99 260.37 612.28 267.78 617.90 768.12 740.09 803.65 622.27 452.33 430.48 128.87 504.87 593.01 854.84 771.69 351.33 86.00 674.71 750.09 769.74 781.61 864.80 712.53 212.56 652.86 36.99 500.56 311.16 768.75 778.46 160.96 603.80 49.92 578.07 555.02 537.27 644.67 755.11 766.15 861.31 771.39 628.96 505.52 329.33 0.00 383.01 832.18 601.09 918.44 343.53 845.07 871.53 522.86
871.10 450.21 463.92 609.36 329.15 338.71 364.91 565.75 562.04 229.27 532.54 405.35 540.81 803.47 903.97 602.24 251.54 413.67 393.63 304.08 602.61 642.07 683.03 150.54 469.01 291.70 380.73 590.35 673.11 664.01 490.12 288.77 657.08 420.00 503.00 336.22 488.45 572.03 543.97 439.88 348.82 423.68 172.01 323.99 374.16 395.09 457.89 557.43 531.44 245.95 526.56 53.68 383.01 0.00 449.17 260.44 642.79 521.58 605.12 592.64 648.16
678.10 383.14 363.11 250.76 630.97 139.26 805.80 681.77 918.87 219.90 921.43 480.89 370.47 961.18 1061.68 703.61 392.06 652.53 782.52 486.24 674.35 396.54 733.77 493.06 916.17 219.13 208.51 707.21 743.69 424.45 556.90 718.24 766.69 869.17 742.92 609.34 381.28 206.38 969.11 470.20 797.99 531.54 409.47 431.85 491.99 118.34 337.64 240.30 502.79 357.89 719.36 502.85 832.18 449.17 0.00 256.43 354.17 835.71 549.77 275.51 855.97
855.43 211.46 444.65 416.62 588.74 168.15 549.37 683.00 799.17 36.53 738.06 485.21 407.77 963.79 1064.29 707.39 418.18 446.62 599.15 302.87 690.13 534.32 714.79 410.98 674.65 88.28 149.00 624.79 704.87 530.03 572.28 549.21 768.93 638.08 737.18 479.09 228.01 379.29 762.05 487.38 562.80 528.83 190.31 466.01 306.39 191.67 197.45 386.87 515.77 116.37 756.13 314.12 601.09 260.44 256.43 0.00 473.29 782.02 589.45 422.08 828.03
387.84 626.29 286.32 166.68 703.44 332.59 863.36 441.41 921.87 436.76 917.97 336.59 253.88 904.62 1005.12 628.14 498.70 884.45 929.06 489.87 598.88 151.47 458.05 599.70 1004.44 412.46 485.11 499.62 467.97 92.79 431.22 741.93 675.94 955.43 751.18 715.98 641.51 196.24 1079.40 391.13 904.57 474.15 625.32 417.95 708.85 434.27 614.24 113.87 262.10 551.38 727.62 589.11 918.44 642.79 354.17 473.29 0.00 838.71 304.70 103.17 864.23
1021.75 923.96 623.52 916.33 204.74 805.52 284.83 697.63 83.16 750.85 157.22 505.74 731.85 426.23 526.73 464.34 443.65 745.49 264.13 540.64 493.60 816.02 677.50 466.27 358.70 793.48 883.16 671.72 667.58 815.39 600.37 232.81 353.23 309.69 202.53 314.39 1010.03 819.13 433.66 564.98 326.31 542.43 692.02 528.59 894.17 870.05 959.99 856.01 814.58 706.29 226.09 467.90 343.53 521.58 835.71 782.02 838.71 0.00 812.21 852.94 209.00
287.41 760.50 328.01 338.06 686.97 466.80 739.69 275.29 895.37 552.92 951.75 306.47 269.14 786.82 882.30 479.42 448.06 1018.66 812.84 431.74 453.42 153.23 250.56 549.06 921.01 546.67 709.18 330.20 240.64 211.91 238.96 708.12 554.99 875.73 620.56 627.75 775.72 395.63 986.34 247.23 795.15 422.60 742.49 363.12 825.01 575.27 781.95 325.04 73.68 685.59 597.00 658.80 845.07 605.12 549.77 589.45 304.70 812.21 0.00 302.56 733.61
491.01 547.63 285.31 79.21 686.48 253.93 760.19 439.27 936.10 399.93 936.03 347.20 150.71 902.48 977.29 605.11 447.57 805.79 833.34 413.96 575.85 149.33 512.40 548.57 945.24 333.80 464.21 497.48 522.32 194.91 427.12 718.33 673.80 896.23 701.05 640.21 562.85 93.07 1006.84 287.96 821.61 484.76 546.66 403.85 662.80 346.41 569.08 35.21 259.96 472.72 677.49 646.32 871.53 592.64 275.51 422.08 103.17 852.94 302.56 0.00 814.10
959.83 1012.44 577.91 893.31 319.01 872.42 411.52 522.81 292.16 791.50 366.22 554.62 740.85 217.23 317.73 374.86 474.56 893.52 473.13 575.19 404.12 812.75 640.09 575.56 567.70 856.77 972.28 581.02 630.17 840.64 587.00 406.28 364.56 518.69 160.17 348.94 1056.04 868.01 530.20 613.86 472.94 450.18 820.17 549.87 969.34 938.00 1016.82 849.31 724.42 802.29 136.61 594.48 522.86 648.16 855.97 828.03 864.23 209.00 733.61 814.10 0.00
DEMAND_SECTION
1 0
2 1
3 1
4 1
5 1
6 1
7 1
8 1
9 1
10 1
11 1
12 1
13 1
14 1
15 1
16 1
17 1
18 1
19 1
20 1
21 1
22 1
23 1
24 1
25 1
26 1
27 1
28 1
29 1
30 1
31 1
32 1
33 1
34 1
35 1
36 1
37 1
38 1
39 1
40 1
41 1
42 1
43 1
44 1
45 1
46 1
47 1
48 1
49 1
50 1
51 1
52 1
53 1
54 1
55 1
56 1
57 1
58 1
59 1
60 1
61 1
DEPOT_SECTION
1
-1
EOF
