NAME: LDG75_1331_rain_75_0060
COMMENT: CVRP with travel times.  rootPos=1,custPos=3,demandType=3,avgRouteSizeIndex=1,weather=rain,lambda_cluster=1,lambda_random=4, T1=300,T2=700,beta=1, alpha(i,j) ~ U(0.8,1.2)
TYPE: CVRP
DIMENSION: 76
EDGE_WEIGHT_TYPE: EXPLICIT
EDGE_WEIGHT_FORMAT: FULL_MATRIX
CAPACITY: 23
NODE_COORD_SECTION
1 921 824
2 89 494
3 229 230
4 715 62
5 193 696
6 227 390
7 919 183
8 801 155
9 24 182
10 165 777
11 659 715
12 500 4
13 303 219
14 226 352
15 897 73
16 260 593
17 827 7
18 874 159
19 348 120
20 293 371
21 418 495
22 256 227
23 308 364
24 328 160
25 209 669
26 841 566
27 15 583
28 777 185
29 290 418
30 183 312
31 807 574
32 192 650
33 298 624
34 906 60
35 68 206
36 803 113
37 950 528
38 427 924
39 205 152
40 154 728
41 970 36
42 990 815
43 795 167
44 764 926
45 307 178
46 299 727
47 853 360
48 355 928
49 161 316
50 234 357
51 884 20
52 275 293
53 295 217
54 392 619
55 864 728
56 957 358
57 203 582
58 73 177
59 266 330
60 144 627
61 231 556
62 230 425
63 258 156
64 199 304
65 210 274
66 9 599
67 449 44
68 77 335
69 573 138
70 897 110
71 56 201
72 893 943
73 337 484
74 245 137
75 684 514
76 195 612
EDGE_WEIGHT_SECTION
0.00 1106.95 1167.89 994.14 925.18 1016.58 903.59 815.00 1336.40 953.94 536.78 1038.96 1068.39 1046.98 942.98 884.44 959.15 821.98 1127.64 1025.97 794.91 1118.86 1055.52 1105.25 968.62 476.33 1151.77 822.53 964.36 1098.53 518.69 985.82 850.01 945.62 1271.22 830.86 486.24 855.48 1163.36 885.91 1020.06 102.35 786.57 432.84 1050.98 961.27 679.75 951.88 1089.26 1030.21 990.42 1068.63 1088.62 947.29 206.82 587.89 1008.30 1281.43 988.13 998.18 949.92 965.60 1119.47 1071.39 1106.96 1116.12 1141.99 1171.97 923.15 888.65 1248.90 247.88 898.84 1094.84 555.10 980.19
1106.95 0.00 347.60 815.25 245.29 242.53 965.93 866.12 453.98 373.99 748.02 708.58 380.81 253.36 1019.54 255.15 992.12 948.83 507.31 295.69 406.77 349.13 289.06 478.71 288.73 786.09 182.37 873.65 256.19 257.60 828.45 249.34 314.86 1026.37 362.95 899.40 995.28 574.32 435.36 318.37 1083.18 1068.12 837.69 897.47 439.85 397.79 950.49 601.40 223.52 261.85 1022.16 304.45 389.57 388.67 932.77 998.67 158.58 404.99 266.26 207.35 225.62 179.17 417.13 239.19 285.30 201.69 632.58 290.68 664.46 966.64 385.27 1022.34 298.08 431.56 637.44 207.55
1167.89 347.60 0.00 613.70 501.72 193.99 741.14 615.48 264.81 592.63 773.53 417.47 99.50 153.80 766.17 427.90 759.63 667.52 167.08 210.13 372.98 58.02 239.68 208.87 458.28 797.79 464.92 623.01 227.07 138.40 755.43 479.03 487.61 778.55 209.33 646.03 815.01 784.72 148.38 524.60 851.44 1089.08 587.05 986.80 160.76 593.14 772.94 792.07 124.08 170.57 737.73 155.68 119.73 481.61 965.29 849.90 394.46 251.37 183.98 450.03 409.12 248.82 114.20 111.26 65.15 500.57 329.30 242.63 368.01 734.19 231.65 1085.84 345.16 112.22 705.68 417.44
994.14 815.25 613.70 0.00 919.30 667.62 312.62 202.65 718.42 1013.63 904.11 422.74 608.43 683.01 227.59 868.62 176.87 231.01 481.93 719.69 709.92 626.52 737.88 536.96 875.86 618.66 929.72 200.86 762.94 603.20 651.15 930.34 926.59 255.36 772.30 215.49 685.94 1162.87 491.49 961.34 341.89 891.79 207.57 1123.67 558.59 957.91 471.51 1210.21 626.21 674.81 263.45 686.54 615.76 793.36 888.17 455.64 862.70 747.64 659.32 925.97 874.74 721.57 553.63 576.06 622.17 959.70 319.71 725.26 245.69 297.68 768.02 1053.71 818.61 590.73 677.48 900.73
925.18 245.29 501.72 919.30 0.00 352.16 1023.99 854.64 586.02 128.70 648.71 849.31 513.84 379.09 1008.49 160.97 1018.72 942.38 640.34 386.33 378.16 528.52 389.53 606.08 43.44 760.67 276.48 869.97 356.66 433.94 718.31 78.84 185.83 1017.71 586.99 909.92 869.35 494.46 565.02 73.08 1063.13 822.83 883.07 809.62 582.00 163.95 854.05 356.11 399.60 362.32 993.61 462.11 516.94 328.50 838.59 969.33 163.52 591.77 421.59 111.39 225.13 279.64 576.91 425.15 436.57 303.29 754.57 492.58 774.09 1001.29 583.09 903.57 314.64 587.07 633.95 125.99
1016.58 242.53 193.99 667.62 352.16 0.00 860.41 755.23 377.48 459.72 641.37 549.07 240.09 40.19 820.09 302.38 841.36 788.13 358.41 135.66 311.74 189.62 146.33 330.88 328.55 694.99 318.11 719.35 145.09 133.52 680.96 291.23 320.94 826.76 312.30 699.95 853.71 616.21 305.72 391.69 878.29 975.22 755.31 825.91 281.75 427.77 751.87 674.72 139.09 56.96 866.25 154.30 250.19 366.43 809.76 848.52 200.47 320.41 94.53 304.36 236.90 72.52 271.55 131.76 162.24 353.76 449.21 197.28 421.93 823.91 289.98 1010.87 229.08 306.21 530.79 233.11
903.59 965.93 741.14 312.62 1023.99 860.41 0.00 169.35 980.83 1116.29 713.07 555.88 649.63 844.04 132.30 917.99 255.55 81.61 574.06 726.70 757.78 700.10 756.25 653.85 980.55 470.41 1132.82 215.50 788.31 810.25 512.77 1019.37 928.53 146.04 889.80 184.57 518.99 1130.11 757.40 1066.03 241.54 866.37 182.15 898.85 650.72 980.93 260.31 1120.02 841.91 829.40 204.13 779.52 669.86 816.38 733.24 360.16 953.52 923.81 775.21 974.08 983.47 843.22 695.26 810.04 774.13 1097.17 632.33 942.75 438.48 86.31 894.33 842.51 866.47 713.19 593.42 987.04
815.00 866.12 615.48 202.65 854.64 755.23 169.35 0.00 868.68 948.97 776.54 436.45 604.25 746.14 153.85 764.27 164.08 87.74 585.21 698.82 604.06 596.71 728.37 524.47 811.20 482.19 988.06 64.39 760.43 733.79 524.55 865.65 823.98 163.07 809.87 55.28 568.42 1034.78 683.17 896.68 301.88 712.65 28.43 975.94 570.79 829.82 323.78 1082.12 739.56 762.91 221.58 650.23 584.02 665.27 751.70 338.12 850.67 851.91 730.73 822.97 829.75 815.34 639.28 706.65 680.63 1018.21 522.36 855.85 333.30 146.65 832.19 905.98 712.75 643.84 511.45 860.02
1336.40 453.98 264.81 718.42 586.02 377.48 980.83 868.68 0.00 679.89 949.52 615.05 332.20 337.29 889.23 602.49 895.29 900.22 406.77 394.90 605.68 322.83 424.45 384.38 589.54 982.56 500.85 876.21 442.19 265.47 940.20 586.82 629.09 917.00 91.03 890.51 1079.82 911.79 226.93 659.10 1044.70 1281.92 840.25 1171.57 330.11 705.25 990.76 938.98 270.99 354.06 912.60 341.97 352.43 664.72 1129.58 1036.19 498.80 92.43 348.27 581.84 537.01 380.67 289.07 279.46 249.92 465.20 553.64 278.19 612.49 903.12 87.50 1312.86 528.65 282.62 832.75 510.59
953.94 373.99 592.63 1013.63 128.70 459.72 1116.29 948.97 679.89 0.00 670.52 900.98 567.21 448.47 1102.82 255.30 1113.05 1036.71 693.71 436.92 469.84 597.90 466.47 676.58 137.77 879.29 309.98 918.34 485.36 503.07 836.93 192.25 280.16 1089.71 629.50 1003.46 998.05 365.76 676.62 68.03 1157.46 951.53 954.30 868.58 635.37 185.76 948.38 351.06 528.30 465.24 1087.94 546.56 587.44 317.46 932.92 964.36 275.58 587.46 497.29 180.30 309.43 408.34 666.92 530.21 527.48 298.24 855.93 575.96 865.13 1029.98 645.12 925.38 408.97 704.85 728.28 226.61
536.78 748.02 773.53 904.11 648.71 641.37 713.07 776.54 949.52 670.52 0.00 930.58 735.85 639.99 803.69 605.18 835.09 794.68 848.89 563.40 549.08 737.97 533.85 792.21 638.32 295.32 900.75 713.12 625.01 705.16 252.96 684.91 545.47 790.18 883.62 798.24 456.10 440.74 780.24 642.67 885.68 434.43 749.08 314.83 772.23 484.76 452.76 583.30 724.82 623.22 860.71 664.88 756.08 497.67 435.22 550.30 706.14 895.95 623.77 735.66 662.94 568.85 793.40 707.03 708.38 872.81 862.54 797.08 872.58 730.45 876.44 499.79 657.77 824.36 451.71 679.42
1038.96 708.58 417.47 422.74 849.31 549.07 555.88 436.45 615.05 900.98 930.58 0.00 335.47 508.88 423.58 734.52 546.83 524.19 265.25 464.06 608.95 359.45 493.61 345.04 805.87 719.98 822.61 500.84 525.67 496.09 677.62 781.64 709.91 451.35 549.87 491.73 874.82 1088.21 427.61 848.47 579.05 997.60 464.88 1224.66 315.23 847.07 698.11 1098.45 517.26 495.18 502.26 450.63 355.70 761.33 832.14 644.52 690.88 584.67 505.78 795.65 710.55 577.86 378.70 469.39 449.48 834.53 103.03 618.59 278.29 496.82 527.55 1100.79 605.02 374.05 832.75 724.40
1068.39 380.81 99.50 608.43 513.84 240.09 649.63 604.25 332.20 567.21 735.85 335.47 0.00 199.90 689.02 399.05 748.40 568.02 126.50 194.62 273.48 50.47 202.00 109.37 470.40 722.93 487.14 579.18 256.23 160.62 739.92 475.32 458.76 691.66 267.02 645.50 807.46 752.74 169.26 555.88 751.94 1027.86 575.82 949.12 68.16 577.63 704.05 789.47 192.28 208.95 652.82 174.10 20.23 425.86 912.32 824.81 384.56 276.72 198.51 483.39 401.57 291.63 107.12 160.41 124.50 522.79 288.72 293.12 370.74 634.69 244.70 986.34 296.69 145.26 661.01 433.53
1046.98 253.36 153.80 683.01 379.09 40.19 844.04 746.14 337.29 448.47 639.99 508.88 199.90 0.00 829.20 274.10 815.96 762.43 320.88 119.47 271.55 149.43 106.14 295.08 368.74 707.13 358.30 753.90 104.90 93.33 664.77 331.42 333.81 843.45 272.11 709.06 828.01 656.40 265.53 408.50 838.10 944.63 740.85 853.26 246.92 458.47 711.68 691.53 108.02 16.77 842.59 114.11 210.00 393.36 849.95 808.33 240.66 280.22 68.83 296.23 272.01 99.45 231.36 106.95 122.05 393.95 409.02 157.09 462.12 783.72 249.79 984.41 191.36 266.02 557.72 273.30
942.98 1019.54 766.17 227.59 1008.49 820.09 132.30 153.85 889.23 1102.82 803.69 423.58 689.02 829.20 0.00 911.32 123.25 121.00 631.38 780.37 757.91 739.49 750.82 656.27 965.05 602.71 1059.65 205.26 841.98 830.79 645.07 993.15 971.03 27.77 943.11 120.14 609.61 1175.65 662.30 1050.53 155.47 866.50 182.28 1003.09 708.04 970.69 350.93 1087.65 853.80 829.55 78.68 715.09 709.25 806.14 756.72 399.55 902.39 925.36 795.59 963.84 935.85 860.71 702.21 803.65 807.14 1095.30 526.61 952.85 398.16 73.24 933.72 933.13 866.60 714.74 567.11 951.36
884.44 255.15 427.90 868.62 160.97 302.38 917.99 764.27 602.49 255.30 605.18 734.52 399.05 274.10 911.32 0.00 878.08 852.01 525.55 282.52 292.83 416.58 312.07 508.42 117.53 698.47 298.64 771.80 283.53 337.02 740.79 101.38 59.71 903.17 537.31 811.06 883.03 461.05 534.06 203.01 969.76 843.08 735.84 785.67 467.21 184.37 727.93 436.67 371.36 257.33 832.64 371.79 419.28 177.85 677.62 808.36 123.86 554.32 316.60 167.00 65.48 238.04 471.92 348.32 394.43 333.25 649.58 429.22 724.31 910.92 514.99 923.99 184.14 510.06 558.63 95.75
959.15 992.12 759.63 176.87 1018.72 841.36 255.55 164.08 895.29 1113.05 835.09 546.83 748.40 815.96 123.25 878.08 0.00 226.39 658.80 826.03 748.21 731.06 851.00 668.62 975.28 626.34 1079.99 208.54 780.21 780.07 668.70 958.89 930.07 113.69 949.17 191.28 641.01 1178.93 668.36 1060.76 165.02 856.80 172.58 1034.49 722.89 973.97 382.33 1107.29 803.08 832.73 98.32 786.23 728.17 809.42 855.26 467.91 879.64 924.51 836.19 967.12 812.60 857.23 721.85 752.93 799.04 1089.03 496.58 902.13 419.43 173.42 944.89 964.53 856.90 759.99 655.60 928.61
821.98 948.83 667.52 231.01 942.38 788.13 81.61 87.74 900.22 1036.71 794.68 524.19 568.02 762.43 121.00 852.01 226.39 0.00 531.63 753.97 691.80 618.49 744.25 611.42 898.94 551.69 1055.16 133.89 815.58 728.64 575.89 953.39 911.72 123.64 835.04 141.57 508.85 1104.28 685.47 984.42 221.90 800.39 116.17 980.46 608.29 899.32 341.92 1151.62 760.30 752.87 168.44 736.52 588.25 734.77 775.83 278.55 938.41 844.74 693.60 892.47 917.49 835.55 623.33 728.43 692.52 1087.71 550.72 861.14 419.59 66.67 812.72 924.12 792.65 661.47 599.19 947.76
1127.64 507.31 167.08 481.93 640.34 358.41 574.06 585.21 406.77 693.71 848.89 265.25 126.50 320.88 631.38 525.55 658.80 531.63 0.00 321.12 399.98 176.97 315.04 79.79 596.90 849.43 613.64 530.85 357.42 287.12 866.42 601.82 585.26 655.27 315.74 529.93 864.54 879.24 183.34 682.38 753.53 1086.28 566.81 1062.16 76.66 694.71 605.86 915.97 291.16 326.52 645.30 212.06 133.83 552.36 920.82 726.62 511.06 349.75 282.98 606.03 528.07 409.20 121.20 278.34 232.23 649.29 162.22 409.71 251.91 598.30 338.06 1112.84 410.29 139.13 787.51 560.03
1025.97 295.69 210.13 719.69 386.33 135.66 726.70 698.82 394.90 436.92 563.40 464.06 194.62 119.47 780.37 282.52 826.03 753.97 321.12 0.00 238.76 174.57 29.55 287.91 355.78 587.66 406.12 634.43 61.61 141.76 545.30 317.58 342.23 766.86 320.22 699.58 796.85 642.56 275.94 384.41 862.36 923.62 670.39 776.67 245.04 383.01 797.61 635.31 176.10 102.70 818.95 109.64 214.85 344.09 832.98 803.86 226.82 362.26 60.37 331.59 265.74 116.52 230.00 143.63 144.98 370.47 483.34 274.26 541.50 707.13 313.04 917.96 140.96 268.14 534.58 260.34
794.91 406.77 372.98 709.92 378.16 311.74 757.78 604.06 605.68 469.84 549.08 608.95 273.48 271.55 757.91 292.83 748.21 691.80 399.98 238.76 0.00 323.95 268.31 382.85 334.72 449.45 483.74 611.59 279.11 351.60 491.81 375.44 299.98 767.13 540.50 650.85 658.64 479.26 442.74 420.20 875.34 754.38 575.63 811.73 341.64 316.93 720.64 550.10 379.57 254.78 817.15 348.40 293.71 152.38 676.41 602.93 304.96 550.20 299.13 410.27 237.92 265.25 380.60 353.53 383.74 514.35 562.20 428.64 644.22 750.71 518.18 712.86 108.69 418.74 387.53 348.89
1118.86 349.13 58.02 626.52 528.52 189.62 700.10 596.71 322.83 597.90 737.97 359.45 50.47 149.43 739.49 416.58 731.06 618.49 176.97 174.57 323.95 0.00 204.12 153.84 516.30 762.23 463.60 629.65 236.18 137.08 719.87 477.71 468.57 742.13 267.35 651.99 756.99 783.40 135.03 557.93 796.41 1078.33 606.65 951.24 102.74 557.58 754.52 739.00 160.09 166.20 697.29 153.70 64.70 476.33 946.90 847.92 390.09 309.39 193.20 445.66 351.10 248.88 91.99 109.94 123.17 499.25 335.61 259.14 415.41 685.16 289.67 1036.81 315.53 123.09 704.36 422.73
1055.52 289.06 239.68 737.88 389.53 146.33 756.25 728.37 424.45 466.47 533.85 493.61 202.00 106.14 750.82 312.07 851.00 744.25 315.04 29.55 268.31 204.12 0.00 258.36 385.33 617.21 435.67 663.98 91.16 171.31 574.85 347.13 356.12 737.31 349.77 725.98 826.40 672.11 246.39 413.96 832.81 953.17 699.94 747.12 238.38 412.56 784.28 664.86 190.97 89.37 789.40 131.03 222.23 369.24 853.31 825.25 256.37 362.10 89.92 361.14 282.45 109.89 259.55 173.18 174.53 400.02 477.26 263.23 511.95 677.58 342.59 888.41 170.51 290.51 505.03 289.89
1105.25 478.71 208.87 536.96 606.08 330.88 653.85 524.47 384.38 676.58 792.21 345.04 109.37 295.08 656.27 508.42 668.62 611.42 79.79 287.91 382.85 153.84 258.36 0.00 579.77 832.30 593.18 532.00 277.63 266.66 833.21 580.69 551.45 669.20 293.35 536.13 846.01 862.11 166.65 652.86 764.70 1063.89 496.04 1005.48 54.27 614.92 685.65 867.22 261.19 295.43 702.43 180.97 89.14 535.23 898.43 805.73 493.93 329.99 236.35 561.34 456.76 354.65 117.24 239.52 193.41 628.83 242.01 370.89 291.27 609.47 315.67 1095.71 365.60 119.37 763.39 542.90
968.62 288.73 458.28 875.86 43.44 328.55 980.55 811.20 589.54 137.77 638.32 805.87 470.40 368.74 965.05 117.53 975.28 898.94 596.90 355.78 334.72 516.30 385.33 579.77 0.00 754.71 303.54 875.59 388.31 449.39 761.75 54.48 142.39 974.27 583.51 866.48 912.79 503.53 538.85 85.48 1019.69 866.27 839.63 778.62 538.56 153.56 810.61 368.51 443.04 374.86 950.17 465.42 490.63 290.34 795.15 925.89 142.39 618.85 416.15 138.45 183.01 323.08 559.29 422.25 393.13 294.26 740.41 471.45 750.48 957.85 561.19 893.18 271.20 570.50 590.51 95.44
476.33 786.09 797.79 618.66 760.67 694.99 470.41 482.19 982.56 879.29 295.32 719.98 722.93 707.13 602.71 698.47 626.34 551.69 849.43 587.66 449.45 762.23 617.21 832.30 754.71 0.00 922.58 417.80 649.27 729.42 42.36 768.30 638.76 616.45 907.88 502.92 209.19 736.06 817.63 811.26 681.55 434.97 453.76 587.12 791.09 766.38 291.37 649.61 763.76 690.36 669.22 697.30 743.16 601.83 269.51 339.70 677.54 949.92 648.03 782.85 687.37 622.47 755.49 731.29 732.64 886.93 823.01 781.07 627.86 556.72 900.70 499.94 558.14 793.63 164.20 726.51
1151.77 182.37 464.92 929.72 276.48 318.11 1132.82 988.06 500.85 309.98 900.75 822.61 487.14 358.30 1059.65 298.64 1079.99 1055.16 613.64 406.12 483.74 463.60 435.67 593.18 303.54 922.58 0.00 923.67 416.63 326.52 951.42 312.57 358.35 1087.42 471.01 1008.79 1131.77 660.78 549.83 265.86 1187.42 1099.31 959.63 900.57 555.30 416.88 922.39 548.89 360.86 375.07 1131.28 462.37 504.04 476.49 976.26 1043.15 245.04 513.05 412.64 165.09 267.39 339.61 531.60 353.66 399.77 35.65 747.05 459.02 740.04 1113.25 493.33 1085.53 375.05 542.83 797.88 236.34
822.53 873.65 623.01 200.86 869.97 719.35 215.50 64.39 876.21 918.34 713.12 500.84 579.18 753.90 205.26 771.80 208.54 133.89 530.85 634.43 611.59 629.65 663.98 532.00 875.59 417.80 923.67 0.00 696.04 739.80 460.16 873.18 814.40 227.46 813.32 85.12 529.33 970.39 682.98 870.85 263.75 720.18 35.96 922.81 586.27 765.43 270.65 1017.73 747.09 737.13 251.42 680.07 591.55 600.88 687.31 345.65 861.25 855.36 694.80 758.58 837.28 750.95 620.84 734.27 688.16 953.82 520.57 865.64 297.42 200.56 823.88 852.85 720.28 651.37 476.62 829.83
964.36 256.19 227.07 762.94 356.66 145.09 788.31 760.43 442.19 485.36 625.01 525.67 256.23 104.90 841.98 283.53 780.21 815.58 357.42 61.61 279.11 236.18 91.16 277.63 388.31 649.27 416.63 696.04 0.00 184.95 606.91 336.68 281.06 828.47 377.01 743.80 850.92 661.66 306.10 429.74 909.46 862.01 732.00 838.28 284.25 444.62 783.04 683.41 212.92 88.13 874.02 148.85 241.43 370.93 835.80 843.07 245.92 385.12 121.98 351.23 249.58 77.02 291.61 186.88 206.59 380.98 480.38 261.99 567.02 768.74 354.69 979.57 170.42 329.75 491.77 294.89
1098.53 257.60 138.40 603.20 433.94 133.52 810.25 733.79 265.47 503.07 705.16 496.09 160.62 93.33 830.79 337.02 780.07 728.64 287.12 141.76 351.60 137.08 171.31 266.66 449.39 729.42 326.52 739.80 184.95 0.00 687.06 394.91 389.01 852.28 200.29 730.80 869.58 646.32 223.31 435.04 909.23 1024.68 725.45 918.43 228.78 521.39 738.44 702.33 34.34 96.82 810.11 135.85 177.52 412.40 891.71 830.07 333.99 226.51 110.40 322.77 271.54 156.57 205.08 27.14 73.25 362.17 420.53 132.50 506.41 795.31 177.97 1059.72 277.38 216.31 567.28 366.63
518.69 828.45 755.43 651.15 718.31 680.96 512.77 524.55 940.20 836.93 252.96 677.62 739.92 664.77 645.07 740.79 668.70 575.89 866.42 545.30 491.81 719.87 574.85 833.21 761.75 42.36 951.42 460.16 606.91 687.06 0.00 797.15 681.12 633.32 865.52 545.28 251.55 693.70 821.24 768.90 723.91 477.33 496.12 567.79 790.34 727.49 295.90 691.97 721.40 648.00 703.85 654.94 758.52 562.94 311.87 297.34 719.90 907.56 605.67 825.21 729.73 661.82 775.30 688.93 690.28 915.77 780.65 817.41 670.22 573.59 858.34 457.58 600.50 813.44 206.56 768.87
985.82 249.34 479.03 930.34 78.84 291.23 1019.37 865.65 586.82 192.25 684.91 781.64 475.32 331.42 993.15 101.38 958.89 953.39 601.82 317.58 375.44 477.71 347.13 580.69 54.48 768.30 312.57 873.18 336.68 394.91 797.15 0.00 158.28 965.38 582.05 912.44 948.19 506.50 563.94 139.96 1024.32 901.67 837.22 746.68 543.48 200.15 826.50 422.99 417.92 348.19 934.02 427.22 491.55 279.23 779.00 909.74 90.76 610.09 377.95 147.48 146.29 317.17 545.71 367.77 413.88 300.15 740.44 419.82 707.77 1012.30 559.73 931.64 266.75 549.05 644.99 76.23
850.01 314.86 487.61 926.59 185.83 320.94 928.53 823.98 629.09 280.16 545.47 709.91 458.76 333.81 971.03 59.71 930.07 911.72 585.26 342.23 299.98 468.57 356.12 551.45 142.39 638.76 358.35 814.40 281.06 389.01 681.12 158.28 0.00 954.15 581.19 870.77 847.95 475.38 587.16 214.55 1029.47 902.79 795.55 845.38 526.92 171.17 668.22 402.35 421.76 317.04 892.35 429.91 462.31 213.52 737.33 788.98 160.67 592.20 376.31 209.10 117.47 248.42 531.63 393.93 440.04 370.06 606.88 481.21 742.87 945.91 566.98 891.66 243.85 555.85 498.92 155.46
945.62 1026.37 778.55 255.36 1017.71 826.76 146.04 163.07 917.00 1089.71 790.18 451.35 691.66 843.45 27.77 903.17 113.69 123.64 655.27 766.86 767.13 742.13 737.31 669.20 974.27 616.45 1087.42 227.46 828.47 852.28 633.32 965.38 954.15 0.00 937.27 147.91 596.10 1197.85 690.07 1059.75 169.45 843.53 191.50 989.58 723.47 992.89 337.42 1079.50 875.17 826.68 70.53 742.86 703.12 828.34 784.49 386.85 874.62 897.59 817.24 979.93 926.29 847.20 694.06 831.42 807.39 1084.01 506.50 980.62 425.93 59.73 936.36 919.62 875.82 686.97 594.88 923.59
1271.22 362.95 209.33 772.30 586.99 312.30 889.80 809.87 91.03 629.50 883.62 549.87 267.02 272.11 943.11 537.31 949.17 835.04 315.74 320.22 540.50 267.35 349.77 293.35 583.51 907.88 471.01 813.32 377.01 200.29 865.52 582.05 581.19 937.27 0.00 829.48 1024.34 846.61 280.81 635.33 1003.86 1216.74 789.39 1096.89 239.08 703.23 921.60 855.38 187.39 288.88 866.74 282.43 287.25 599.54 1064.40 976.65 512.77 42.04 283.09 523.06 471.83 332.77 243.21 214.28 190.38 506.66 477.96 213.01 566.63 901.71 22.32 1238.18 461.18 252.66 767.57 545.41
830.86 899.40 646.03 215.49 909.92 699.95 184.57 55.28 890.51 1003.46 798.24 491.73 645.50 709.06 120.14 811.06 191.28 141.57 529.93 699.58 650.85 651.99 725.98 536.13 866.48 502.92 1008.79 85.12 743.80 730.80 545.28 912.44 870.77 147.91 829.48 0.00 608.37 1055.51 663.58 951.96 275.61 759.44 75.22 1007.93 590.40 850.55 355.77 1102.85 754.78 709.41 166.30 594.95 625.27 686.00 772.43 378.07 876.05 850.20 675.45 843.70 876.54 772.47 601.44 705.43 687.00 1038.94 535.20 854.63 278.02 143.46 847.56 937.97 759.54 639.58 558.24 906.81
486.24 995.28 815.01 685.94 869.35 853.71 518.99 568.42 1079.82 998.05 456.10 874.82 807.46 828.01 609.61 883.03 641.01 508.85 864.54 796.85 658.64 756.99 826.40 846.01 912.79 209.19 1131.77 529.33 850.92 869.58 251.55 948.19 847.95 596.10 1024.34 608.37 0.00 896.84 892.02 942.43 533.82 434.65 539.99 606.16 859.73 907.43 258.68 858.80 892.59 818.45 666.63 839.68 821.69 811.02 279.42 230.30 886.73 1066.38 759.18 980.74 896.56 817.42 848.98 842.44 878.01 1096.12 882.03 976.02 649.95 536.37 1019.95 548.07 767.33 880.08 359.15 923.30
855.48 574.32 784.72 1162.87 494.46 616.21 1130.11 1034.78 911.79 365.76 440.74 1088.21 752.74 656.40 1175.65 461.05 1178.93 1104.28 879.24 642.56 479.26 783.40 672.11 862.11 503.53 736.06 660.78 970.39 661.66 646.32 693.70 506.50 475.38 1197.85 846.61 1055.51 896.84 0.00 869.63 425.59 1216.75 838.18 1006.35 567.73 820.90 394.86 869.80 142.56 680.66 673.17 1151.53 752.20 772.97 369.51 816.76 990.56 415.74 872.83 702.93 521.05 482.78 655.34 851.40 673.46 719.57 625.13 1041.46 744.80 917.18 1147.49 824.29 706.31 572.64 862.63 793.35 464.71
1163.36 435.36 148.38 491.49 565.02 305.72 757.40 683.17 226.93 676.62 780.24 427.61 169.26 265.53 662.30 534.06 668.36 685.47 183.34 275.94 442.74 135.03 246.39 166.65 538.85 817.63 549.83 682.98 306.10 223.31 821.24 563.94 587.16 690.07 280.81 663.58 892.02 869.63 0.00 609.51 817.77 1079.36 662.69 993.51 112.38 658.95 789.20 874.03 217.84 276.73 685.67 232.92 149.03 581.43 956.54 815.66 502.76 264.38 268.89 544.89 486.13 341.68 62.14 196.17 150.06 585.48 345.56 327.54 385.56 676.19 299.79 1134.80 416.90 100.28 735.86 536.28
885.91 318.37 524.60 961.34 73.08 391.69 1066.03 896.68 659.10 68.03 642.67 848.47 555.88 408.50 1050.53 203.01 1060.76 984.42 682.38 384.41 420.20 557.93 413.96 652.86 85.48 811.26 265.86 870.85 429.74 435.04 768.90 139.96 214.55 1059.75 635.33 951.96 942.43 425.59 609.51 0.00 1105.17 895.91 906.81 824.38 624.04 157.91 882.77 283.03 469.38 425.27 1035.65 494.05 563.72 322.46 880.63 969.36 207.55 655.49 444.78 112.27 268.49 352.72 614.41 462.18 459.45 230.21 806.73 507.93 813.62 1043.33 613.01 897.53 356.68 636.82 675.99 158.58
1020.06 1083.18 851.44 341.89 1063.13 878.29 241.54 301.88 1044.70 1157.46 885.68 579.05 751.94 838.10 155.47 969.76 165.02 221.90 753.53 862.36 875.34 796.41 832.81 764.70 1019.69 681.55 1187.42 263.75 909.46 909.23 723.91 1024.32 1029.47 169.45 1003.86 275.61 533.82 1216.75 817.77 1105.17 0.00 968.47 299.71 1085.08 811.99 1029.18 432.92 1074.19 903.76 821.33 137.12 870.56 731.71 864.63 813.24 482.35 1044.07 1009.41 880.60 1022.33 977.62 904.01 760.65 882.09 835.98 1207.97 661.60 995.19 553.63 155.23 996.64 975.82 984.03 798.79 722.58 1065.51
102.35 1068.12 1089.08 891.79 822.83 975.22 866.37 712.65 1281.92 951.53 434.43 997.60 1027.86 944.63 866.50 843.08 856.80 800.39 1086.28 923.62 754.38 1078.33 953.17 1063.89 866.27 434.97 1099.31 720.18 862.01 1024.68 477.33 901.67 902.79 843.53 1216.74 759.44 434.65 838.18 1079.36 895.91 968.47 0.00 684.22 364.53 1009.62 919.19 638.39 910.52 1052.65 927.86 914.06 1010.86 1048.09 893.00 165.46 662.74 947.50 1224.85 946.77 934.22 908.56 924.24 1078.11 1026.61 1065.60 1126.12 1100.63 1101.72 1017.60 859.30 1194.42 255.50 857.48 1053.48 513.74 938.83
786.57 837.69 587.05 207.57 883.07 755.31 182.15 28.43 840.25 954.30 749.08 464.88 575.82 740.85 182.28 735.84 172.58 116.17 566.81 670.39 575.63 606.65 699.94 496.04 839.63 453.76 959.63 35.96 732.00 725.45 496.12 837.22 795.55 191.50 789.39 75.22 539.99 1006.35 662.69 906.81 299.71 684.22 0.00 958.77 550.31 801.39 306.61 1053.69 711.13 757.62 241.52 670.17 555.59 636.84 723.27 309.69 859.70 826.03 730.76 794.54 801.32 786.91 613.28 698.31 652.20 989.78 527.28 829.68 333.38 175.08 811.71 888.81 684.32 615.41 483.02 831.59
432.84 897.47 986.80 1123.67 809.62 825.91 898.85 975.94 1171.57 868.58 314.83 1224.66 949.12 853.26 1003.09 785.67 1034.49 980.46 1062.16 776.67 811.73 951.24 747.12 1005.48 778.62 587.12 900.57 922.81 838.28 918.43 567.79 746.68 845.38 989.58 1096.89 1007.93 606.16 567.73 993.51 824.38 1085.08 364.53 958.77 0.00 985.50 682.82 652.16 669.91 938.09 836.49 1060.11 878.15 969.35 812.50 453.61 772.92 738.89 1109.22 837.04 761.17 805.93 857.01 1006.67 920.30 921.65 936.22 1121.63 1006.81 1071.98 929.85 1089.71 184.96 917.63 1037.63 571.68 689.92
1050.98 439.85 160.76 558.59 582.00 281.75 650.72 570.79 330.11 635.37 772.23 315.23 68.16 246.92 708.04 467.21 722.89 608.29 76.66 245.04 341.64 102.74 238.38 54.27 538.56 791.09 555.30 586.27 284.25 228.78 790.34 543.48 526.92 723.47 239.08 590.40 859.73 820.90 112.38 624.04 811.99 1009.62 550.31 985.50 0.00 628.05 682.52 841.74 252.33 249.86 692.02 135.40 80.28 494.02 844.16 803.28 452.72 281.12 206.32 529.47 453.84 332.54 68.49 212.68 184.55 590.95 238.88 361.28 328.57 663.74 261.40 1054.50 356.74 90.15 729.17 501.69
961.27 397.79 593.14 957.91 163.95 427.77 980.93 829.82 705.25 185.76 484.76 847.07 577.63 458.47 970.69 184.37 973.97 899.32 694.71 383.01 316.93 557.58 412.56 614.92 153.56 766.38 416.88 765.43 444.62 521.39 727.49 200.15 171.17 992.89 703.23 850.55 907.43 394.86 658.95 157.91 1029.18 919.19 801.39 682.82 628.05 0.00 818.56 252.30 555.73 441.70 1016.85 492.65 597.86 164.55 861.99 811.45 241.10 738.69 443.38 265.91 249.85 419.59 613.01 526.64 527.99 388.12 778.05 570.16 712.22 965.99 696.05 739.62 367.68 651.15 670.09 194.66
679.75 950.49 772.94 471.51 854.05 751.87 260.31 323.78 990.76 948.38 452.76 698.11 704.05 711.68 350.93 727.93 382.33 341.92 605.86 797.61 720.64 754.52 784.28 685.65 810.61 291.37 922.39 270.65 783.04 738.44 295.90 826.50 668.22 337.42 921.60 355.77 258.68 869.80 789.20 882.77 432.92 638.39 306.61 652.16 682.52 818.56 0.00 940.98 761.45 694.91 407.95 752.28 724.28 654.01 472.93 120.76 828.89 941.01 754.18 877.32 785.69 777.59 727.06 711.30 757.41 958.04 693.30 860.50 419.82 277.69 903.26 582.20 813.38 730.39 333.11 823.68
951.88 601.40 792.07 1210.21 356.11 674.72 1120.02 1082.12 938.98 351.06 583.30 1098.45 789.47 691.53 1087.65 436.67 1107.29 1151.62 915.97 635.31 550.10 739.00 664.86 867.22 368.51 649.61 548.89 1017.73 683.41 702.33 691.97 422.99 402.35 1079.50 855.38 1102.85 858.80 142.56 874.03 283.03 1074.19 910.52 1053.69 669.91 841.74 252.30 940.98 0.00 667.99 694.00 1008.97 744.95 803.70 416.85 745.06 989.31 490.58 860.16 695.68 395.30 502.15 635.75 830.99 718.14 735.77 513.24 1009.23 790.96 964.52 1139.23 851.48 767.90 619.98 862.09 650.79 441.61
1089.26 223.52 124.08 626.21 399.60 139.09 841.91 739.56 270.99 528.30 724.82 517.26 192.28 108.02 853.80 371.36 803.08 760.30 291.16 176.10 379.57 160.09 190.97 261.19 443.04 763.76 360.86 747.09 212.92 34.34 721.40 417.92 421.76 875.17 187.39 754.78 892.59 680.66 217.84 469.38 903.76 1052.65 711.13 938.09 252.33 555.73 761.45 667.99 0.00 124.79 804.64 159.83 172.05 412.62 914.72 854.05 339.56 192.17 133.41 357.11 305.88 190.91 228.09 50.15 67.78 396.51 415.06 135.88 492.09 823.64 183.49 1079.38 299.38 236.30 601.62 372.20
1030.21 261.85 170.57 674.81 362.32 56.96 829.40 762.91 354.06 465.24 623.22 495.18 208.95 16.77 829.55 257.33 832.73 752.87 326.52 102.70 254.78 166.20 89.37 295.43 374.86 690.36 375.07 737.13 88.13 96.82 648.00 348.19 317.04 826.68 288.88 709.41 818.45 673.17 276.73 425.27 821.33 927.86 757.62 836.49 249.86 441.70 694.91 694.00 124.79 0.00 838.12 114.46 226.77 376.59 840.58 808.68 257.43 296.99 59.27 313.00 255.24 82.68 214.59 98.75 138.82 386.64 392.25 173.86 478.89 766.95 266.56 967.64 180.56 252.73 540.95 290.07
990.42 1022.16 737.73 263.45 993.61 866.25 204.13 221.58 912.60 1087.94 860.71 502.26 652.82 842.59 78.68 832.64 98.32 168.44 645.30 818.95 817.15 697.29 789.40 702.43 950.17 669.22 1131.28 251.42 874.02 810.11 703.85 934.02 892.35 70.53 866.74 166.30 666.63 1151.53 685.67 1035.65 137.12 914.06 241.52 1060.11 692.02 1016.85 407.95 1008.97 804.64 838.12 0.00 761.25 632.59 852.30 835.40 446.99 945.15 872.29 810.87 999.64 898.12 852.71 623.53 782.97 736.86 1116.40 577.03 914.34 444.32 130.26 869.65 990.15 909.05 661.67 645.79 928.39
1068.63 304.45 155.68 686.54 462.11 154.30 779.52 650.23 341.97 546.56 664.88 450.63 174.10 114.11 715.09 371.79 786.23 736.52 212.06 109.64 348.40 153.70 131.03 180.97 465.42 697.30 462.37 680.07 148.85 135.85 654.94 427.22 429.91 742.86 282.43 594.95 839.68 752.20 232.92 494.05 870.56 1010.86 670.17 878.15 135.40 492.65 752.28 744.95 159.83 114.46 761.25 0.00 178.49 437.66 861.81 694.22 336.46 281.29 80.50 410.34 369.70 197.14 203.89 110.48 92.05 480.11 374.28 259.68 463.97 738.41 260.11 1019.44 249.43 182.84 636.06 369.98
1088.62 389.57 119.73 615.76 516.94 250.19 669.86 584.02 352.43 587.44 756.08 355.70 20.23 210.00 709.25 419.28 728.17 588.25 133.83 214.85 293.71 64.70 222.23 89.14 490.63 743.16 504.04 591.55 241.43 177.52 758.52 491.55 462.31 703.12 287.25 625.27 821.69 772.97 149.03 563.72 731.71 1048.09 555.59 969.35 80.28 597.86 724.28 803.70 172.05 226.77 632.59 178.49 0.00 446.09 924.44 845.04 404.79 296.95 178.28 472.20 415.80 295.89 86.89 150.38 104.27 539.69 296.05 281.75 380.41 654.92 264.93 1006.57 276.46 125.03 681.24 453.76
947.29 388.67 481.61 793.36 328.50 366.43 816.38 665.27 664.72 317.46 497.67 761.33 425.86 393.36 806.14 177.85 809.42 734.77 552.36 344.09 152.38 476.33 369.24 535.23 290.34 601.83 476.49 600.88 370.93 412.40 562.94 279.23 213.52 828.34 599.54 686.00 811.02 369.51 581.43 322.46 864.63 893.00 636.84 812.50 494.02 164.55 654.01 416.85 412.62 376.59 852.30 437.66 446.09 0.00 828.79 646.90 279.22 604.79 357.16 344.85 243.33 293.91 532.98 385.26 431.37 488.61 714.58 534.46 547.67 801.44 577.22 865.24 203.13 571.12 539.91 273.60
206.82 932.77 965.29 888.17 838.59 809.76 733.24 751.70 1129.58 932.92 435.22 832.14 912.32 849.95 756.72 677.62 855.26 775.83 920.82 832.98 676.41 946.90 853.31 898.43 795.15 269.51 976.26 687.31 835.80 891.71 311.87 779.00 737.33 784.49 1064.40 772.43 279.42 816.76 956.54 880.63 813.24 165.46 723.27 453.61 844.16 861.99 472.93 745.06 914.72 840.58 835.40 861.81 924.44 828.79 0.00 497.28 801.48 1098.64 781.31 844.62 743.10 758.78 912.65 864.57 900.14 999.51 935.17 965.15 868.83 750.62 1042.08 268.65 692.02 888.02 348.28 773.37
587.89 998.67 849.90 455.64 969.33 848.52 360.16 338.12 1036.19 964.36 550.30 644.52 824.81 808.33 399.55 808.36 467.91 278.55 726.62 803.86 602.93 847.92 825.25 805.73 925.89 339.70 1043.15 345.65 843.07 830.07 297.34 909.74 788.98 386.85 976.65 378.07 230.30 990.56 815.66 969.36 482.35 662.74 309.69 772.92 803.28 811.45 120.76 989.31 854.05 808.68 446.99 694.22 845.04 646.90 497.28 0.00 907.89 975.51 774.72 975.36 840.85 868.18 847.82 804.70 786.27 1078.80 747.55 953.90 540.58 327.12 954.33 702.96 711.62 822.47 429.19 904.11
1008.30 158.58 394.46 862.70 163.52 200.47 953.52 850.67 498.80 275.58 706.14 690.88 384.56 240.66 902.39 123.86 879.64 938.41 511.06 226.82 304.96 390.09 256.37 493.93 142.39 677.54 245.04 861.25 245.92 333.99 719.90 90.76 160.67 874.62 512.77 876.05 886.73 415.74 502.76 207.55 1044.07 947.50 859.70 738.89 452.72 241.10 828.89 490.58 339.56 257.43 945.15 336.46 404.79 279.22 801.48 907.89 0.00 520.88 287.19 105.31 67.04 239.60 456.82 332.23 362.71 209.39 649.68 329.06 617.01 933.95 490.45 863.76 258.53 494.96 638.11 48.97
1281.43 404.99 251.37 747.64 591.77 320.41 923.81 851.91 92.43 587.46 895.95 584.67 276.72 280.22 925.36 554.32 924.51 844.74 349.75 362.26 550.20 309.39 362.10 329.99 618.85 949.92 513.05 855.36 385.12 226.51 907.56 610.09 592.20 897.59 42.04 850.20 1066.38 872.83 264.38 655.49 1009.41 1224.85 826.03 1109.22 281.12 738.69 941.01 860.16 192.17 296.99 872.29 281.29 296.95 604.79 1098.64 975.51 520.88 0.00 318.43 547.10 498.05 374.81 248.76 242.32 225.72 548.70 481.64 248.35 572.18 911.41 57.66 1250.51 471.58 210.62 793.79 553.52
988.13 266.26 183.98 659.32 421.59 94.53 775.21 730.73 348.27 497.29 623.77 505.78 198.51 68.83 795.59 316.60 836.19 693.60 282.98 60.37 299.13 193.20 89.92 236.35 416.15 648.03 412.64 694.80 121.98 110.40 605.67 377.95 376.31 817.24 283.09 675.45 759.18 702.93 268.89 444.78 880.60 946.77 730.76 837.04 206.32 443.38 754.18 695.68 133.41 59.27 810.87 80.50 178.28 357.16 781.31 774.72 287.19 318.43 0.00 365.06 314.51 141.95 221.74 83.26 118.83 430.84 445.20 225.92 515.97 760.27 260.77 978.33 201.33 259.88 594.95 320.71
998.18 207.35 450.03 925.97 111.39 304.36 974.08 822.97 581.84 180.30 735.66 795.65 483.39 296.23 963.84 167.00 967.12 892.47 606.03 331.59 410.27 445.66 361.14 561.34 138.45 782.85 165.09 758.58 351.23 322.77 825.21 147.48 209.10 979.93 523.06 843.70 980.74 521.05 544.89 112.27 1022.33 934.22 794.54 761.17 529.47 265.91 877.32 395.30 357.11 313.00 999.64 410.34 472.20 344.85 844.62 975.36 105.31 547.10 365.06 0.00 172.35 312.19 527.59 349.91 396.02 195.24 705.25 395.66 722.32 959.14 500.74 946.13 351.14 539.08 708.02 71.25
949.92 225.62 409.12 874.74 225.13 236.90 983.47 829.75 537.01 309.43 662.94 710.55 401.57 272.01 935.85 65.48 812.60 917.49 528.07 265.74 237.92 351.10 282.45 456.76 183.01 687.37 267.39 837.28 249.58 271.54 729.73 146.29 117.47 926.29 471.83 876.54 896.56 482.78 486.13 268.49 977.62 908.56 801.32 805.93 453.84 249.85 785.69 502.15 305.88 255.24 898.12 369.70 415.80 243.33 743.10 840.85 67.04 498.05 314.51 172.35 0.00 172.56 443.09 298.68 344.79 276.43 647.49 363.74 658.83 960.03 449.51 930.80 249.62 474.19 571.07 116.01
965.60 179.17 248.82 721.57 279.64 72.52 843.22 815.34 380.67 408.34 568.85 577.86 291.63 99.45 860.71 238.04 857.23 835.55 409.20 116.52 265.25 248.88 109.89 354.65 323.08 622.47 339.61 750.95 77.02 156.57 661.82 317.17 248.42 847.20 332.77 772.47 817.42 655.34 341.68 352.72 904.01 924.24 786.91 857.01 332.54 419.59 777.59 635.75 190.91 82.68 852.71 197.14 295.89 293.91 758.78 868.18 239.60 374.81 141.95 312.19 172.56 0.00 297.27 145.51 191.62 303.96 474.93 256.54 494.45 787.47 334.54 978.11 156.56 307.43 458.27 240.94
1119.47 417.13 114.20 553.63 576.91 271.55 695.26 639.28 289.07 666.92 793.40 378.70 107.12 231.36 702.21 471.92 721.85 623.33 121.20 230.00 380.60 91.99 259.55 117.24 559.29 755.49 531.60 620.84 291.61 205.08 775.30 545.71 531.63 694.06 243.21 601.44 848.98 851.40 62.14 614.41 760.65 1078.11 613.28 1006.67 68.49 613.01 727.06 830.99 228.09 214.59 623.53 203.89 86.89 532.98 912.65 847.82 456.82 248.76 221.74 527.59 443.09 297.27 0.00 177.94 166.16 567.25 283.42 323.43 323.42 690.00 246.12 1093.46 363.35 38.14 721.03 490.34
1071.39 239.19 111.26 576.06 425.15 131.76 810.04 706.65 279.46 530.21 707.03 469.39 160.41 106.95 803.65 348.32 752.93 728.43 278.34 143.63 353.53 109.94 173.18 239.52 422.25 731.29 353.66 734.27 186.88 27.14 688.93 367.77 393.93 831.42 214.28 705.43 842.44 673.46 196.17 462.18 882.09 1026.61 698.31 920.30 212.68 526.64 711.30 718.14 50.15 98.75 782.97 110.48 150.38 385.26 864.57 804.70 332.23 242.32 83.26 349.91 298.68 145.51 177.94 0.00 46.11 389.31 393.39 149.20 479.27 795.10 191.96 1061.59 279.31 192.37 594.42 364.87
1106.96 285.30 65.15 622.17 436.57 162.24 774.13 680.63 249.92 527.48 708.38 449.48 124.50 122.05 807.14 394.43 799.04 692.52 232.23 144.98 383.74 123.17 174.53 193.41 393.13 732.64 399.77 688.16 206.59 73.25 690.28 413.88 440.04 807.39 190.38 687.00 878.01 719.57 150.06 459.45 835.98 1065.60 652.20 921.65 184.55 527.99 757.41 735.77 67.78 138.82 736.86 92.05 104.27 431.37 900.14 786.27 362.71 225.72 118.83 396.02 344.79 191.62 166.16 46.11 0.00 435.42 347.28 177.48 433.16 755.86 168.06 1062.94 285.94 177.37 640.53 395.35
1116.12 201.69 500.57 959.70 303.29 353.76 1097.17 1018.21 465.20 298.24 872.81 834.53 522.79 393.95 1095.30 333.25 1089.03 1087.71 649.29 370.47 514.35 499.25 400.02 628.83 294.26 886.93 35.65 953.82 380.98 362.17 915.77 300.15 370.06 1084.01 506.66 1038.94 1096.12 625.13 585.48 230.21 1207.97 1126.12 989.78 936.22 590.95 388.12 958.04 513.24 396.51 386.64 1116.40 480.11 539.69 488.61 999.51 1078.80 209.39 548.70 430.84 195.24 276.43 303.96 567.25 389.31 435.42 0.00 778.89 492.37 775.69 1077.60 528.98 1073.15 410.70 578.48 762.23 258.36
1141.99 632.58 329.30 319.71 754.57 449.21 632.33 522.36 553.64 855.93 862.54 103.03 288.72 409.02 526.61 649.58 496.58 550.72 162.22 483.34 562.20 335.61 477.26 242.01 740.41 823.01 747.05 520.57 480.38 420.53 780.65 740.44 606.88 506.50 477.96 535.20 882.03 1041.46 345.56 806.73 661.60 1100.63 527.28 1121.63 238.88 778.05 693.30 1009.23 415.06 392.25 577.03 374.28 296.05 714.58 935.17 747.55 649.68 481.64 445.20 705.25 647.49 474.93 283.42 393.39 347.28 778.89 0.00 524.76 273.48 566.23 500.28 1203.82 572.51 271.02 827.94 682.32
1171.97 290.68 242.63 725.26 492.58 197.28 942.75 855.85 278.19 575.96 797.08 618.59 293.12 157.09 952.85 429.22 902.13 861.14 409.71 274.26 428.64 259.14 263.23 370.89 471.45 781.07 459.02 865.64 261.99 132.50 817.41 419.82 481.21 980.62 213.01 854.63 976.02 744.80 327.54 507.93 995.19 1101.72 829.68 1006.81 361.28 570.16 860.50 790.96 135.88 173.86 914.34 259.68 281.75 534.46 965.15 953.90 329.06 248.35 225.92 395.66 363.74 256.54 323.43 149.20 177.48 492.37 524.76 0.00 596.64 927.81 190.69 1141.50 348.45 341.57 616.87 378.03
923.15 664.46 368.01 245.69 774.09 421.93 438.48 333.30 612.49 865.13 872.58 278.29 370.74 462.12 398.16 724.31 419.43 419.59 251.91 541.50 644.22 415.41 511.95 291.27 750.48 627.86 740.04 297.42 567.02 506.41 670.22 707.77 742.87 425.93 566.63 278.02 649.95 917.18 385.56 813.62 553.63 1017.60 333.38 1071.98 328.57 712.22 419.82 964.52 492.09 478.89 444.32 463.97 380.41 547.67 868.83 540.58 617.01 572.18 515.97 722.32 658.83 494.45 323.42 479.27 433.16 775.69 273.48 596.64 0.00 421.48 569.54 1002.02 651.01 361.56 554.46 655.04
888.65 966.64 734.19 297.68 1001.29 823.91 86.31 146.65 903.12 1029.98 730.45 496.82 634.69 783.72 73.24 910.92 173.42 66.67 598.30 707.13 750.71 685.16 677.58 609.47 957.85 556.72 1113.25 200.56 768.74 795.31 573.59 1012.30 945.91 59.73 901.71 143.46 536.37 1147.49 676.19 1043.33 155.23 859.30 175.08 929.85 663.74 965.99 277.69 1139.23 823.64 766.95 130.26 738.41 654.92 801.44 750.62 327.12 933.95 911.41 760.27 959.14 960.03 787.47 690.00 795.10 755.86 1077.60 566.23 927.81 421.48 0.00 879.39 859.89 848.09 728.14 589.54 967.47
1248.90 385.27 231.65 768.02 583.09 289.98 894.33 832.19 87.50 645.12 876.44 527.55 244.70 249.79 933.72 514.99 944.89 812.72 338.06 313.04 518.18 289.67 342.59 315.67 561.19 900.70 493.33 823.88 354.69 177.97 858.34 559.73 566.98 936.36 22.32 847.56 1019.95 824.29 299.79 613.01 996.64 1194.42 811.71 1089.71 261.40 696.05 903.26 851.48 183.49 266.56 869.65 260.11 264.93 577.22 1042.08 954.33 490.45 57.66 260.77 500.74 449.51 334.54 246.12 191.96 168.06 528.98 500.28 190.69 569.54 879.39 0.00 1231.00 441.15 268.28 745.25 523.09
247.88 1022.34 1085.84 1053.71 903.57 1010.87 842.51 905.98 1312.86 925.38 499.79 1100.79 986.34 984.41 933.13 923.99 964.53 924.12 1112.84 917.96 712.86 1036.81 888.41 1095.71 893.18 499.94 1085.53 852.85 979.57 1059.72 457.58 931.64 891.66 919.62 1238.18 937.97 548.07 706.31 1134.80 897.53 975.82 255.50 888.81 184.96 1054.50 739.62 582.20 767.90 1079.38 967.64 990.15 1019.44 1006.57 865.24 268.65 702.96 863.76 1250.51 978.33 946.13 930.80 978.11 1093.46 1061.59 1062.94 1073.15 1203.82 1141.50 1002.02 859.89 1231.00 0.00 821.55 1131.60 600.52 874.88
898.84 298.08 345.16 818.61 314.64 229.08 866.47 712.75 528.65 408.97 657.77 605.02 296.69 191.36 866.60 184.14 856.90 792.65 410.29 140.96 108.69 315.53 170.51 365.60 271.20 558.14 375.05 720.28 170.42 277.38 600.50 266.75 243.85 875.82 461.18 759.54 767.33 572.64 416.90 356.68 984.03 857.48 684.32 917.63 356.74 367.68 813.38 619.98 299.38 180.56 909.05 249.43 276.46 203.13 692.02 711.62 258.53 471.58 201.33 351.14 249.62 156.56 363.35 279.31 285.94 410.70 572.51 348.45 651.01 848.09 441.15 821.55 0.00 401.49 496.22 279.89
1094.84 431.56 112.22 590.73 587.07 306.21 713.19 643.84 282.62 704.85 824.36 374.05 145.26 266.02 714.74 510.06 759.99 661.47 139.13 268.14 418.74 123.09 290.51 119.37 570.50 793.63 542.83 651.37 329.75 216.31 813.44 549.05 555.85 686.97 252.66 639.58 880.08 862.63 100.28 636.82 798.79 1053.48 615.41 1037.63 90.15 651.15 730.39 862.09 236.30 252.73 661.67 182.84 125.03 571.12 888.02 822.47 494.96 210.62 259.88 539.08 474.19 307.43 38.14 192.37 177.37 578.48 271.02 341.57 361.56 728.14 268.28 1131.60 401.49 0.00 759.17 528.48
555.10 637.44 705.68 677.48 633.95 530.79 593.42 511.45 832.75 728.28 451.71 832.75 661.01 557.72 567.11 558.63 655.60 599.19 787.51 534.58 387.53 704.36 505.03 763.39 590.51 164.20 797.88 476.62 491.77 567.28 206.56 644.99 498.92 594.88 767.57 558.24 359.15 793.35 735.86 675.99 722.58 513.74 483.02 571.68 729.17 670.09 333.11 650.79 601.62 540.95 645.79 636.06 681.24 539.91 348.28 429.19 638.11 793.79 594.95 708.02 571.07 458.27 721.03 594.42 640.53 762.23 827.94 616.87 554.46 589.54 745.25 600.52 496.22 759.17 0.00 654.38
980.19 207.55 417.44 900.73 125.99 233.11 987.04 860.02 510.59 226.61 679.42 724.40 433.53 273.30 951.36 95.75 928.61 947.76 560.03 260.34 348.89 422.73 289.89 542.90 95.44 726.51 236.34 829.83 294.89 366.63 768.87 76.23 155.46 923.59 545.41 906.81 923.30 464.71 536.28 158.58 1065.51 938.83 831.59 689.92 501.69 194.66 823.68 441.61 372.20 290.07 928.39 369.98 453.76 273.60 773.37 904.11 48.97 553.52 320.71 71.25 116.01 240.94 490.34 364.87 395.35 258.36 682.32 378.03 655.04 967.47 523.09 874.88 279.89 528.48 654.38 0.00
DEMAND_SECTION
1 0
2 7
3 7
4 10
5 9
6 9
7 7
8 6
9 9
10 5
11 9
12 5
13 7
14 6
15 9
16 9
17 8
18 8
19 7
20 7
21 5
22 9
23 6
24 9
25 6
26 5
27 7
28 5
29 5
30 8
31 7
32 9
33 9
34 7
35 9
36 10
37 5
38 8
39 5
40 10
41 9
42 5
43 10
44 7
45 9
46 9
47 9
48 6
49 5
50 10
51 5
52 9
53 8
54 8
55 5
56 7
57 6
58 6
59 9
60 10
61 7
62 7
63 9
64 5
65 10
66 7
67 6
68 6
69 7
70 7
71 8
72 10
73 8
74 5
75 5
76 7
DEPOT_SECTION
1
-1
EOF
