NAME: LDG75_1314_none_75_0174
COMMENT: CVRP with travel times.  rootPos=1,custPos=3,demandType=1,avgRouteSizeIndex=4,weather=none,lambda_cluster=1,lambda_random=4, T1=300,T2=700,beta=1, alpha(i,j) ~ U(0.8,1.2)
TYPE: CVRP
DIMENSION: 76
EDGE_WEIGHT_TYPE: EXPLICIT
EDGE_WEIGHT_FORMAT: FULL_MATRIX
CAPACITY: 13
NODE_COORD_SECTION
1 863 718
2 822 598
3 867 526
4 427 579
5 775 8
6 270 626
7 337 488
8 371 554
9 945 346
10 215 658
11 213 142
12 445 657
13 874 420
14 354 530
15 383 547
16 932 335
17 45 106
18 455 380
19 842 169
20 876 217
21 55 719
22 423 29
23 357 668
24 220 91
25 289 414
26 235 763
27 853 346
28 955 213
29 909 283
30 403 458
31 974 284
32 972 272
33 333 527
34 851 94
35 781 205
36 559 166
37 950 562
38 398 498
39 690 285
40 768 96
41 988 384
42 471 984
43 681 688
44 820 204
45 649 458
46 757 122
47 911 304
48 188 564
49 503 826
50 902 308
51 60 734
52 159 642
53 843 229
54 652 486
55 413 568
56 319 570
57 905 991
58 395 368
59 347 592
60 999 199
61 369 352
62 231 91
63 645 629
64 637 540
65 761 269
66 306 906
67 955 260
68 962 327
69 28 233
70 70 514
71 969 109
72 967 96
73 930 761
74 956 420
75 476 887
76 830 140
EDGE_WEIGHT_SECTION
0.00 284.36 215.07 505.88 721.63 522.77 613.56 556.88 443.73 589.00 851.32 389.16 324.53 564.05 534.24 460.41 1028.55 620.22 579.76 559.12 736.52 810.73 488.57 904.11 673.30 679.07 407.84 559.84 474.15 582.99 505.87 504.12 586.26 620.43 508.39 651.33 183.26 592.80 480.92 660.50 411.66 415.26 211.26 530.82 397.95 625.17 444.98 657.82 503.34 460.45 767.89 656.58 521.49 403.21 505.17 577.85 316.99 618.79 533.63 559.26 566.34 922.39 299.39 347.45 432.78 685.38 527.95 453.92 945.42 806.24 600.30 627.40 124.74 344.99 525.76 582.47
284.36 0.00 107.02 457.26 582.16 589.58 511.72 512.16 298.85 655.81 816.07 455.77 216.48 515.96 498.10 325.16 894.49 531.55 428.76 417.43 803.33 713.47 566.52 864.22 536.64 698.92 266.15 386.75 369.98 537.75 382.92 396.07 471.76 493.83 345.02 568.25 122.51 451.20 372.87 498.92 349.34 613.53 227.49 391.35 317.34 463.59 340.81 690.39 519.57 351.42 834.70 723.39 413.44 286.60 475.09 566.42 560.81 586.42 541.56 431.33 613.12 855.83 277.81 230.84 406.95 701.61 412.23 330.97 828.81 758.15 518.36 527.97 300.09 236.94 580.24 466.70
215.07 107.02 0.00 476.44 506.56 626.75 537.73 512.20 228.66 682.64 709.05 489.95 109.46 541.97 498.97 245.34 901.42 424.53 364.69 344.05 757.20 640.09 579.13 761.84 642.38 705.00 192.77 351.27 294.50 514.44 290.80 289.05 497.77 440.16 330.20 499.07 118.77 538.80 265.85 445.43 242.32 630.33 261.67 315.75 210.32 410.10 265.33 684.47 553.75 249.86 788.57 710.26 306.42 249.73 507.75 542.89 454.78 491.66 531.35 344.19 544.11 780.12 281.52 270.81 344.79 735.79 312.88 238.85 868.78 784.16 448.17 458.60 336.41 129.92 583.95 402.63
505.88 457.26 476.44 0.00 728.45 198.25 116.85 77.96 589.53 243.23 437.11 147.32 581.57 108.98 58.44 597.40 579.35 213.00 586.79 542.15 390.75 571.65 130.35 489.90 221.50 304.20 513.00 650.61 594.54 158.87 609.36 621.04 110.46 662.26 563.32 472.24 568.14 111.94 481.04 626.13 642.67 495.11 294.62 609.75 335.43 590.80 565.37 265.79 355.41 580.84 420.89 275.77 581.28 296.02 31.31 124.21 711.35 249.63 84.30 693.08 236.40 508.18 206.49 275.56 551.38 371.52 644.39 557.41 475.13 351.17 727.42 721.66 556.78 606.36 384.61 609.30
721.63 582.16 506.56 728.45 0.00 794.54 680.43 677.47 329.73 860.77 628.98 723.64 404.05 690.14 675.07 356.04 841.59 577.62 201.70 255.55 989.97 349.57 762.24 596.03 679.48 844.38 340.85 294.10 307.79 578.97 374.89 354.06 686.24 162.71 237.24 326.44 584.08 616.51 309.58 102.32 443.50 931.52 664.38 190.81 393.43 137.65 329.04 770.67 915.70 335.75 1018.55 855.62 231.63 432.84 697.55 762.67 939.00 591.58 721.40 337.53 604.38 614.31 601.22 488.60 312.85 1026.12 341.27 361.85 833.26 927.76 212.57 239.67 757.21 416.55 821.02 199.36
522.77 589.58 626.75 198.25 794.54 0.00 166.29 152.19 674.76 66.23 556.28 225.14 617.27 173.18 156.21 648.45 624.66 310.77 684.56 707.03 213.75 617.18 114.39 576.76 266.81 156.30 562.08 751.60 665.91 215.57 726.57 722.37 128.98 760.03 661.66 551.57 705.80 198.71 543.81 692.22 721.47 479.15 453.42 701.53 444.86 677.57 636.74 155.58 376.00 651.28 245.12 133.81 667.90 454.86 190.15 158.17 742.33 286.43 113.95 791.70 335.92 558.48 404.74 427.24 600.82 334.37 719.02 683.10 479.06 316.78 825.19 852.29 647.51 756.67 368.65 722.50
613.56 511.72 537.73 116.85 680.43 166.29 0.00 99.18 623.09 232.52 412.88 224.40 647.19 80.53 87.46 649.40 462.50 231.83 593.88 577.22 380.04 504.82 205.36 441.43 104.65 321.67 572.36 676.89 583.42 101.46 652.86 643.04 39.96 622.18 510.14 426.61 613.15 66.31 449.71 578.11 678.32 449.60 411.47 556.57 336.28 545.17 581.39 231.38 425.40 596.86 411.41 294.55 538.20 355.38 130.96 89.80 731.46 164.70 103.08 667.09 217.15 459.71 323.34 358.49 434.53 449.62 617.83 632.26 401.32 322.72 734.51 732.06 656.43 657.63 459.62 622.07
556.88 512.16 512.20 77.96 677.47 152.19 99.18 0.00 635.61 218.42 485.10 167.72 606.24 48.69 36.88 609.30 534.72 191.44 565.23 595.56 365.94 563.83 106.18 537.89 176.87 308.49 522.93 698.18 574.13 104.10 649.22 637.69 75.63 640.70 554.53 421.26 581.31 60.96 427.43 575.15 682.32 470.94 372.58 585.15 301.88 539.82 584.03 253.13 367.79 599.50 396.72 237.28 556.43 305.95 73.80 111.55 725.61 203.51 97.23 715.67 243.23 550.78 284.45 307.91 506.37 375.05 663.10 626.91 473.54 290.88 705.86 732.96 599.27 642.12 360.44 603.17
443.73 298.85 228.66 589.53 329.73 674.76 623.09 635.61 0.00 740.99 739.37 640.82 129.54 670.26 628.86 26.31 972.21 535.54 190.38 158.65 888.51 560.00 719.88 727.69 675.47 771.37 112.68 153.98 91.61 547.97 84.07 99.27 663.05 258.06 239.00 407.11 270.62 596.63 267.50 304.76 113.77 814.84 490.33 197.51 369.07 279.37 68.04 767.05 641.19 52.57 919.88 790.19 156.69 329.66 594.37 625.47 683.44 563.48 669.69 184.83 615.93 745.97 424.92 385.25 188.56 890.08 113.38 32.12 903.78 859.26 219.51 246.61 488.26 98.74 704.34 228.32
589.00 655.81 682.64 243.23 860.77 66.23 232.52 218.42 740.99 0.00 494.00 291.37 683.50 203.47 222.44 714.68 620.93 377.00 750.79 773.26 147.52 683.41 180.62 546.79 269.87 103.82 628.31 817.83 732.14 281.80 761.62 782.45 195.21 826.26 712.11 538.16 736.09 264.94 610.04 758.45 787.70 545.38 519.65 756.94 472.32 726.95 702.97 109.85 392.10 717.51 178.89 80.21 734.13 499.84 235.13 178.32 787.31 352.66 158.93 857.93 402.15 551.42 449.72 479.38 667.05 268.14 767.55 749.33 450.39 271.05 891.42 918.52 713.74 812.56 434.88 788.73
851.32 816.07 709.05 437.11 628.98 556.28 412.88 485.10 739.37 494.00 0.00 584.43 767.53 487.50 481.73 765.68 252.04 327.17 660.96 714.81 557.44 279.41 567.46 52.79 308.23 597.82 684.22 735.66 760.01 409.62 801.88 800.63 452.84 682.71 596.60 373.37 827.82 447.66 595.21 597.49 835.19 862.48 731.73 643.03 498.73 562.16 758.88 461.45 764.65 773.42 588.81 546.40 683.85 538.14 468.42 455.63 1070.71 337.43 442.33 763.82 284.98 71.07 643.60 593.90 591.92 762.14 775.22 749.93 257.29 529.98 786.59 784.18 976.06 770.77 768.05 623.02
389.16 455.77 489.95 147.32 723.64 225.14 224.40 167.72 640.82 291.37 584.43 0.00 599.41 174.89 145.08 648.69 641.99 299.64 673.43 679.03 432.66 656.35 110.75 637.22 284.14 347.59 586.60 725.81 682.33 193.83 660.65 675.85 197.10 735.62 597.35 554.21 501.80 203.64 541.07 670.48 661.61 423.58 228.28 643.78 330.21 682.50 661.26 268.66 298.91 663.00 401.29 320.05 646.16 369.62 116.01 188.69 645.01 289.07 144.47 761.41 321.10 643.98 316.41 346.59 547.97 379.62 695.68 608.70 580.81 417.08 814.06 821.36 513.90 619.87 313.08 694.00
324.53 216.48 109.46 581.57 404.05 617.27 647.19 606.24 129.54 683.50 767.53 599.41 0.00 642.67 608.43 135.88 903.78 515.25 255.23 234.59 831.02 530.63 688.07 714.74 545.93 670.15 83.31 241.81 185.04 599.83 213.61 221.83 607.23 330.70 220.74 428.49 228.23 589.36 247.21 342.92 143.96 696.71 371.13 213.24 319.78 307.59 155.87 737.68 511.65 140.40 844.89 751.08 196.96 300.29 565.00 596.10 564.24 558.91 640.32 254.31 611.36 733.02 375.08 356.05 296.35 829.76 203.42 161.66 842.60 877.70 349.05 368.84 445.87 182.23 633.87 293.17
564.05 515.96 541.97 108.98 690.14 173.18 80.53 48.69 670.26 203.47 487.50 174.89 642.67 0.00 74.77 645.73 537.12 229.33 603.12 612.15 350.99 532.40 154.87 521.96 179.27 286.27 559.36 719.10 612.02 129.73 671.19 650.36 44.20 678.59 585.96 391.45 532.62 73.63 458.86 587.82 718.75 453.84 403.17 613.84 350.57 552.49 609.66 222.13 399.83 617.69 382.36 268.98 573.02 342.38 77.67 121.73 705.89 166.23 77.51 747.62 212.27 540.24 315.47 321.92 515.06 423.74 675.77 639.58 458.49 242.19 743.75 770.85 603.14 628.79 409.13 629.39
534.24 498.10 498.97 58.44 675.07 156.21 87.46 36.88 628.86 222.44 481.73 145.08 608.43 74.77 0.00 606.97 549.96 154.56 528.35 582.20 369.96 540.22 136.06 528.89 192.11 284.91 542.81 661.30 537.25 140.98 613.90 634.71 52.02 603.82 549.70 418.86 607.39 58.56 422.60 572.75 666.63 461.66 353.06 580.32 288.65 537.42 566.42 229.18 385.22 581.89 401.33 256.48 593.31 325.83 61.12 87.60 693.39 191.19 65.01 678.79 243.64 513.90 264.93 271.03 501.54 404.93 648.93 615.85 466.31 316.96 668.98 696.08 586.59 628.89 390.32 566.29
460.41 325.16 245.34 597.40 356.04 648.45 649.40 609.30 26.31 714.68 765.68 648.69 135.88 645.73 606.97 0.00 971.73 535.38 164.07 184.96 862.20 533.69 694.81 717.80 654.93 745.06 86.37 142.01 69.72 549.28 78.12 98.95 658.99 239.54 212.69 416.55 282.94 592.42 293.81 278.45 108.09 788.53 507.01 171.66 342.76 266.01 69.35 740.74 647.53 78.88 893.57 763.88 166.66 303.35 568.06 599.16 700.12 561.97 643.38 178.88 592.52 736.08 434.69 359.11 214.87 891.39 87.07 39.99 930.09 832.95 245.82 268.50 500.58 122.60 678.03 202.01
1028.55 894.49 901.42 579.35 841.59 624.66 462.50 534.72 972.21 620.93 252.04 641.99 903.78 537.12 549.96 971.73 0.00 476.89 844.02 837.18 696.00 518.87 640.90 272.41 357.85 716.06 885.36 945.64 913.49 509.17 961.22 951.60 502.46 898.55 800.09 592.99 984.87 497.28 742.70 817.11 919.53 912.10 870.27 846.52 701.94 781.78 936.14 511.08 812.69 920.67 664.63 596.03 816.55 723.17 593.46 552.30 1193.96 409.76 565.58 946.88 462.21 254.13 785.84 768.51 811.54 889.07 926.19 959.52 170.54 476.28 969.65 967.24 1093.73 990.39 811.97 806.08
620.22 531.55 424.53 213.00 577.62 310.77 231.83 191.44 535.54 377.00 327.17 299.64 515.25 229.33 154.56 535.38 476.89 0.00 478.88 463.95 486.93 441.75 290.62 377.62 243.11 408.31 485.32 572.41 465.66 166.54 542.31 540.45 206.58 534.63 395.14 281.71 543.30 172.76 268.04 505.83 512.07 555.12 408.96 425.76 228.93 470.50 494.83 365.81 465.32 503.67 515.51 352.58 450.65 268.34 215.68 224.23 825.69 67.13 219.57 579.54 119.58 359.34 342.25 313.64 346.98 551.67 515.04 555.73 539.78 403.31 619.51 644.51 656.10 554.45 444.62 516.82
579.76 428.76 364.69 586.79 201.70 684.56 593.88 565.23 190.38 750.79 660.96 673.43 255.23 603.12 528.35 164.07 844.02 478.88 0.00 53.85 898.31 441.57 664.41 608.17 525.98 813.26 171.92 132.95 168.24 523.63 178.97 158.14 580.37 75.47 83.74 300.71 428.10 583.71 210.84 114.38 272.16 874.08 556.41 82.51 350.88 111.92 174.03 744.94 766.88 159.93 929.68 784.83 71.30 372.14 589.47 615.95 819.47 478.09 593.36 177.53 428.45 589.89 488.47 427.90 159.35 885.01 180.94 204.06 822.65 814.27 140.63 167.73 596.88 256.22 763.58 37.94
559.12 417.43 344.05 542.15 255.55 707.03 577.22 595.56 158.65 773.26 714.81 679.03 234.59 612.15 582.20 184.96 837.18 463.95 53.85 0.00 920.78 495.42 672.50 662.02 568.62 809.97 151.28 108.46 129.40 491.46 152.81 131.98 603.37 129.32 126.38 349.61 395.93 578.01 195.91 168.23 259.73 853.44 526.41 79.95 360.45 165.77 121.55 736.82 746.24 106.08 952.15 800.50 39.13 339.97 563.02 595.24 798.83 445.92 626.45 150.93 482.30 643.74 456.30 395.73 142.69 868.35 148.77 182.10 832.19 782.10 194.48 221.58 564.71 224.05 742.94 91.79
736.52 803.33 757.20 390.75 989.97 213.75 380.04 365.94 888.51 147.52 557.44 432.66 831.02 350.99 369.96 862.20 696.00 486.93 898.31 920.78 0.00 803.73 321.91 610.23 417.39 174.33 775.83 965.35 879.66 429.32 909.14 929.97 342.73 973.78 859.63 685.68 875.97 412.46 754.97 887.65 935.22 647.67 649.02 904.46 619.84 852.32 850.49 219.30 462.61 865.03 31.37 134.35 881.65 594.88 382.65 325.84 826.16 500.18 306.45 1005.45 549.67 628.51 597.24 626.90 814.57 383.03 915.07 896.85 525.46 219.72 1038.94 1066.04 861.26 887.12 576.17 929.22
810.73 713.47 640.09 571.65 349.57 617.18 504.82 563.83 560.00 683.41 279.41 656.35 530.63 532.40 540.22 533.69 518.87 441.75 441.57 495.42 803.73 0.00 667.09 246.46 550.60 769.91 447.32 574.52 551.15 474.03 611.81 594.65 488.20 403.30 465.76 242.53 758.86 547.96 475.75 404.48 606.71 897.84 706.23 477.16 553.85 382.81 521.98 584.43 857.96 536.52 832.31 669.38 512.87 593.26 540.34 582.86 1094.87 374.62 585.98 619.10 427.07 264.74 761.64 633.49 461.08 935.96 604.26 568.34 483.69 710.80 562.14 549.43 935.47 643.55 886.37 459.71
488.57 566.52 579.13 130.35 762.24 114.39 205.36 106.18 719.88 180.62 567.46 110.75 688.07 154.87 136.06 694.81 640.90 290.62 664.41 672.50 321.91 667.09 0.00 609.29 283.05 236.84 608.44 769.84 673.31 210.28 734.73 716.65 181.81 739.88 635.95 527.44 612.55 167.14 533.61 681.33 767.83 364.76 339.03 682.38 368.81 646.00 683.10 269.97 261.61 697.64 290.54 248.20 662.61 391.46 126.75 135.72 683.76 309.69 176.93 802.43 331.84 591.01 312.99 371.00 586.57 268.87 742.06 687.76 571.34 397.06 805.04 832.14 613.31 709.05 254.26 702.35
904.11 864.22 761.84 489.90 596.03 576.76 441.43 537.89 727.69 546.79 52.79 637.22 714.74 521.96 528.89 717.80 272.41 377.62 608.17 662.02 610.23 246.46 609.29 0.00 361.02 650.61 631.43 712.33 707.22 462.41 749.09 747.84 481.39 649.76 543.81 320.58 880.61 500.45 553.80 544.70 782.40 891.03 784.28 590.24 551.52 509.37 706.09 459.85 817.44 720.63 641.60 544.80 631.06 577.62 521.21 473.57 1123.50 390.22 495.12 711.03 337.77 18.28 696.39 633.38 539.13 814.93 722.43 697.14 237.23 528.27 733.80 731.39 1008.36 717.98 820.84 570.23
673.30 536.64 642.38 221.50 679.48 266.81 104.65 176.87 675.47 269.87 308.23 284.14 545.93 179.27 192.11 654.93 357.85 243.11 525.98 568.62 417.39 550.60 283.05 361.02 0.00 373.69 601.44 658.93 605.65 206.11 674.16 664.54 144.61 591.05 442.24 370.12 627.02 139.43 420.76 594.24 689.89 554.25 512.42 488.67 440.93 558.91 626.90 259.79 530.05 632.14 414.52 344.74 529.49 428.50 235.61 194.45 836.11 175.98 207.73 703.51 144.52 379.30 427.99 463.14 499.70 538.01 639.13 672.46 296.67 331.77 666.61 693.71 735.88 714.41 537.31 563.92
679.07 698.92 705.00 304.20 844.38 156.30 321.67 308.49 771.37 103.82 597.82 347.59 670.15 286.27 284.91 745.06 716.06 408.31 813.26 809.97 174.33 769.91 236.84 650.61 373.69 0.00 658.69 848.21 762.52 346.54 823.18 818.98 281.71 852.59 792.03 641.98 771.79 343.47 676.35 742.06 814.11 473.34 498.27 801.08 524.89 706.73 733.35 204.98 288.28 747.89 174.74 184.03 798.87 523.84 296.10 264.12 840.00 439.16 219.90 888.31 485.67 646.55 423.48 468.08 742.65 208.70 815.63 779.71 545.52 363.09 947.20 944.79 726.79 834.92 410.50 783.63
407.84 266.15 192.77 513.00 340.85 562.08 572.36 522.93 112.68 628.31 684.22 586.60 83.31 559.36 542.81 86.37 885.36 485.32 171.92 151.28 775.83 447.32 608.44 631.43 601.44 658.69 0.00 189.52 103.83 516.52 164.49 160.29 575.78 247.39 159.20 382.43 311.54 506.05 284.05 279.72 159.39 702.16 448.52 150.04 256.39 244.39 74.66 654.37 594.96 89.20 807.20 677.51 190.41 216.98 481.69 512.79 647.55 475.60 557.01 229.62 528.05 649.71 385.36 272.74 234.81 811.81 156.94 121.02 855.49 801.55 312.55 317.64 526.34 196.23 591.66 209.86
559.84 386.75 351.27 650.61 294.10 751.60 676.89 698.18 153.98 817.83 735.66 725.81 241.81 719.10 661.30 142.01 945.64 572.41 132.95 108.46 965.35 574.52 769.84 712.33 658.93 848.21 189.52 0.00 134.56 594.79 94.09 78.72 711.83 208.42 216.69 391.75 409.73 645.47 304.37 238.29 214.20 847.87 497.53 188.41 426.56 202.96 114.86 835.98 753.46 101.41 996.72 859.15 147.59 406.50 671.21 702.31 806.05 554.38 667.68 44.58 561.40 722.84 528.37 448.77 242.36 936.90 59.06 131.90 940.65 847.08 157.99 141.22 566.54 237.85 781.18 170.89
474.15 369.98 294.50 594.54 307.79 665.91 583.42 574.13 91.61 732.14 760.01 682.33 185.04 612.02 537.25 69.72 913.49 465.66 168.24 129.40 879.66 551.15 673.31 707.22 605.65 762.52 103.83 134.56 0.00 509.10 76.65 97.46 589.27 241.99 163.41 386.64 350.35 588.70 255.72 246.66 167.35 805.99 552.35 116.98 360.22 211.33 29.17 758.20 681.67 44.64 911.03 781.34 96.94 320.81 585.52 616.62 741.57 503.73 602.26 141.54 547.66 725.50 489.19 376.57 176.78 851.21 111.68 90.07 869.44 839.91 251.18 224.08 480.85 189.84 695.49 206.18
582.99 537.75 514.44 158.87 578.97 215.57 101.46 104.10 547.97 281.80 409.62 193.83 599.83 129.73 140.98 549.28 509.17 166.54 523.63 491.46 429.32 474.03 210.28 462.41 206.11 346.54 516.52 594.79 509.10 0.00 585.75 565.56 141.42 599.10 495.76 364.55 633.21 86.55 398.78 476.65 618.11 551.06 422.11 493.15 304.12 497.59 479.93 291.22 434.49 495.40 460.69 341.38 452.33 299.54 177.90 185.00 818.39 99.41 201.33 639.37 139.13 480.69 365.36 355.30 420.15 479.15 561.97 541.06 502.78 371.92 664.26 673.95 703.37 637.25 464.54 561.57
505.87 382.92 290.80 609.36 374.89 726.57 652.86 649.22 84.07 761.62 801.88 660.65 213.61 671.19 613.90 78.12 961.22 542.31 178.97 152.81 909.14 611.81 734.73 749.09 674.16 823.18 164.49 94.09 76.65 585.75 0.00 20.83 665.92 212.18 231.92 428.51 329.37 597.56 280.80 293.35 137.21 823.84 552.47 185.49 368.67 279.84 105.82 783.81 725.26 102.77 940.51 803.80 144.67 343.27 607.98 677.28 745.58 551.46 643.65 100.76 603.91 767.37 508.99 399.03 218.33 927.86 35.03 51.95 917.08 887.64 217.48 190.38 547.01 166.03 756.15 216.91
504.12 396.07 289.05 621.04 354.06 722.37 643.04 637.69 99.27 782.45 800.63 675.85 221.83 650.36 634.71 98.95 951.60 540.45 158.14 131.98 929.97 594.65 716.65 747.84 664.54 818.98 160.29 78.72 97.46 565.56 20.83 0.00 646.46 191.35 222.30 427.26 331.01 576.73 272.41 272.52 152.41 814.22 547.58 175.87 347.84 270.06 85.63 804.64 733.48 93.15 961.34 824.63 135.05 364.10 628.81 673.08 743.83 541.84 634.03 98.58 586.59 748.03 524.19 419.86 208.71 907.67 25.41 67.15 900.33 878.02 196.65 169.55 537.31 159.13 751.95 196.08
586.26 471.76 497.77 110.46 686.24 128.98 39.96 75.63 663.05 195.21 452.84 197.10 607.23 44.20 52.02 658.99 502.46 206.58 580.37 603.37 342.73 488.20 181.81 481.39 144.61 281.71 575.78 711.83 589.27 141.42 665.92 646.46 0.00 655.84 550.10 422.59 576.82 69.73 454.96 583.92 699.28 409.64 405.08 596.53 340.67 548.59 618.44 236.24 396.98 613.79 374.10 262.79 564.24 358.80 113.14 94.66 710.69 157.45 97.78 707.05 209.90 499.67 316.95 323.05 474.49 450.68 657.79 635.68 414.29 286.39 721.00 748.10 638.61 627.69 434.86 618.31
620.43 493.83 440.16 662.26 162.71 760.03 622.18 640.70 258.06 826.26 682.71 735.62 330.70 678.59 603.82 239.54 898.55 534.63 75.47 129.32 973.78 403.30 739.88 649.76 591.05 852.59 247.39 208.42 241.99 599.10 212.18 191.35 655.84 0.00 148.81 334.65 491.68 624.72 266.59 152.95 343.76 943.50 606.67 132.77 405.41 145.86 249.50 778.88 830.85 235.40 972.82 860.30 146.77 444.82 664.94 691.42 894.94 553.56 668.83 253.00 503.92 644.42 563.94 500.58 187.65 913.31 216.76 258.50 886.99 889.74 167.65 146.13 672.35 331.69 833.00 92.47
508.39 345.02 330.20 563.32 237.24 661.66 510.14 554.53 239.00 712.11 596.60 597.35 220.74 585.96 549.70 212.69 800.09 395.14 83.74 126.38 859.63 465.76 635.95 543.81 442.24 792.03 159.20 216.69 163.41 495.76 231.92 222.30 550.10 148.81 0.00 223.23 444.05 512.33 127.10 153.90 268.60 805.23 506.60 46.43 267.14 118.57 184.66 702.03 732.39 189.90 856.76 747.72 87.25 306.55 546.15 599.94 784.98 462.27 613.22 261.27 512.19 562.09 474.93 362.31 75.61 801.27 196.89 230.22 738.91 774.01 224.37 251.47 612.83 272.17 694.73 121.68
651.33 568.25 499.07 472.24 326.44 551.57 426.61 421.26 407.11 538.16 373.37 554.21 428.49 391.45 418.86 416.55 592.99 281.71 300.71 349.61 685.68 242.53 527.44 320.58 370.12 641.98 382.43 391.75 386.64 364.55 428.51 427.26 422.59 334.65 223.23 0.00 606.39 360.30 233.22 224.12 461.82 800.49 463.70 269.66 389.17 188.79 407.89 583.75 615.43 413.13 717.05 618.37 310.48 371.38 465.66 505.94 880.43 265.14 468.96 430.49 316.01 338.86 539.76 392.66 218.55 784.90 401.85 376.56 557.81 601.32 429.26 426.85 776.07 434.51 726.33 265.69
183.26 122.51 118.77 568.14 584.08 705.80 613.15 581.31 270.62 736.09 827.82 501.80 228.23 532.62 607.39 282.94 984.87 543.30 428.10 395.93 875.97 758.86 612.55 880.61 627.02 771.79 311.54 409.73 350.35 633.21 329.37 331.01 576.82 491.68 444.05 606.39 0.00 557.55 384.62 481.76 228.40 598.52 273.52 397.62 329.09 476.11 332.55 736.42 548.89 317.08 903.09 788.19 356.80 357.14 587.94 654.35 478.36 610.43 610.13 386.15 662.88 898.89 361.65 343.69 459.18 747.64 356.42 285.96 923.69 774.81 490.13 467.95 217.64 171.88 664.08 399.21
592.80 451.20 538.80 111.94 616.51 198.71 66.31 60.96 596.63 264.94 447.66 203.64 589.36 73.63 58.56 592.42 497.28 172.76 583.71 578.01 412.46 547.96 167.14 500.45 139.43 343.47 506.05 645.47 588.70 86.55 597.56 576.73 69.73 624.72 512.33 360.30 557.55 0.00 385.23 514.19 651.21 479.37 406.56 542.95 328.48 478.86 559.53 287.74 428.75 544.06 443.83 298.24 538.88 289.07 105.36 146.16 731.84 173.34 123.57 675.31 204.66 518.73 318.43 329.59 464.17 436.01 602.14 565.95 436.10 315.82 719.33 716.92 630.83 591.32 421.40 555.76
480.92 372.87 265.85 481.04 309.58 543.81 449.71 427.43 267.50 610.04 595.21 541.07 247.21 458.86 422.60 293.81 742.70 268.04 210.84 195.91 754.97 475.75 533.61 553.80 420.76 676.35 284.05 304.37 255.72 398.78 280.80 272.41 454.96 266.59 127.10 233.22 384.62 385.23 0.00 281.00 322.73 748.95 481.11 157.72 210.86 245.67 273.83 630.71 733.10 286.73 783.55 620.62 182.61 249.57 483.72 489.13 720.63 335.17 487.61 311.50 387.62 572.08 417.95 305.33 78.94 802.48 247.00 299.62 636.28 671.35 351.47 376.47 602.26 348.51 638.45 248.78
660.50 498.92 445.43 626.13 102.32 692.22 578.11 575.15 304.76 758.45 597.49 670.48 342.92 587.82 572.75 278.45 817.11 505.83 114.38 168.23 887.65 404.48 681.33 544.70 594.24 742.06 279.72 238.29 246.66 476.65 293.35 272.52 583.92 152.95 153.90 224.12 481.76 514.19 281.00 0.00 386.54 920.44 573.88 129.68 382.35 35.33 267.91 668.35 837.60 262.13 916.23 753.30 170.50 421.76 619.55 660.35 836.68 489.26 619.08 277.03 502.06 562.98 528.54 477.52 229.51 950.20 259.24 313.47 781.93 825.44 255.01 260.38 696.08 355.42 809.94 99.22
411.66 349.34 242.32 642.67 443.50 721.47 678.32 682.32 113.77 787.70 835.19 661.61 143.96 718.75 666.63 108.09 919.53 512.07 272.16 259.73 935.22 606.71 767.83 782.40 689.89 814.11 159.39 214.20 167.35 618.11 137.21 152.41 699.28 343.76 268.60 461.82 228.40 651.21 322.73 386.54 0.00 760.22 501.92 269.05 415.78 363.40 138.18 813.76 655.61 153.65 966.59 836.90 228.23 376.37 641.08 672.18 689.03 579.20 716.40 183.26 631.65 800.68 519.04 422.71 243.79 960.22 172.24 85.26 895.07 915.38 266.65 239.55 446.04 131.66 751.05 310.10
415.26 613.53 630.33 495.11 931.52 479.15 449.60 470.94 814.84 545.38 862.48 423.58 696.71 453.84 461.66 788.53 912.10 555.12 874.08 853.44 647.67 897.84 364.76 891.03 554.25 473.34 702.16 847.87 805.99 551.06 823.84 814.22 409.64 943.50 805.23 800.49 598.52 479.37 748.95 920.44 760.22 0.00 408.27 851.66 538.09 906.14 776.82 554.08 185.06 791.36 648.08 563.08 830.10 577.50 489.42 474.50 540.00 567.09 475.90 892.45 619.54 909.31 412.93 547.35 755.85 330.65 788.81 823.18 823.93 696.03 994.47 983.40 540.00 760.25 110.50 912.02
211.26 227.49 261.67 294.62 664.38 453.42 411.47 372.58 490.33 519.65 731.73 228.28 371.13 403.17 353.06 507.01 870.27 408.96 556.41 526.41 649.02 706.23 339.03 784.28 512.42 498.27 448.52 497.53 552.35 422.11 552.47 547.58 405.08 606.67 506.60 463.70 273.52 406.56 481.11 573.88 501.92 408.27 0.00 473.90 270.95 538.55 523.18 462.90 292.08 511.53 629.57 514.67 487.28 231.54 325.93 416.97 416.73 476.09 372.75 542.11 481.28 768.30 88.13 214.85 488.71 474.12 522.17 500.52 769.75 624.10 655.52 638.75 324.03 391.59 390.56 587.52
530.82 391.35 315.75 609.75 190.81 701.53 556.57 585.15 197.51 756.94 643.03 643.78 213.24 613.84 580.32 171.66 846.52 425.76 82.51 79.95 904.46 477.16 682.38 590.24 488.67 801.08 150.04 188.41 116.98 493.15 185.49 175.87 596.53 132.77 46.43 269.66 397.62 542.95 157.72 129.68 269.05 851.66 473.90 0.00 313.57 94.35 138.23 727.37 724.89 144.94 903.19 778.34 40.82 341.66 592.58 596.93 770.53 447.61 598.01 230.88 500.06 608.52 457.99 397.42 122.04 847.70 150.46 183.79 764.97 783.79 216.39 243.49 566.40 225.74 741.16 120.45
397.95 317.34 210.32 335.43 393.43 444.86 336.28 301.88 369.07 472.32 498.73 330.21 319.78 350.57 288.65 342.76 701.94 228.93 350.88 360.45 619.84 553.85 368.81 551.52 440.93 524.89 256.39 426.56 360.22 304.12 368.67 347.84 340.67 405.41 267.14 389.17 329.09 328.48 210.86 382.35 415.78 538.09 270.95 313.57 0.00 385.71 331.05 517.83 522.94 345.59 651.21 499.94 321.43 39.41 304.12 376.25 635.92 292.18 353.66 433.62 344.63 569.80 207.79 95.17 217.76 632.69 373.25 377.41 677.92 592.76 491.51 515.29 522.69 340.24 427.59 388.82
625.17 463.59 410.10 590.80 137.65 677.57 545.17 539.82 279.37 726.95 562.16 682.50 307.59 552.49 537.42 266.01 781.78 470.50 111.92 165.77 852.32 382.81 646.00 509.37 558.91 706.73 244.39 202.96 211.33 497.59 279.84 270.06 548.59 145.86 118.57 188.79 476.11 478.86 245.67 35.33 363.40 906.14 538.55 94.35 385.71 0.00 232.58 633.02 804.22 226.80 880.90 717.97 135.17 425.12 584.22 625.02 864.88 453.93 583.75 241.70 466.73 527.65 493.21 480.88 194.18 914.87 244.81 278.14 746.60 790.11 240.47 238.06 660.75 320.09 795.64 76.90
444.98 340.81 265.33 565.37 329.04 636.74 581.39 584.03 68.04 702.97 758.88 661.26 155.87 609.66 566.42 69.35 936.14 494.83 174.03 121.55 850.49 521.98 683.10 706.09 626.90 733.35 74.66 114.86 29.17 479.93 105.82 85.63 618.44 249.50 184.66 407.89 332.55 559.53 273.83 267.91 138.18 776.82 523.18 138.23 331.05 232.58 0.00 729.03 667.52 15.47 881.86 752.17 119.59 291.64 556.35 587.45 712.40 526.38 631.43 159.44 576.83 724.37 460.02 347.40 194.89 822.04 83.21 61.13 898.61 851.85 270.75 243.91 451.68 160.67 666.32 211.97
657.82 690.39 684.47 265.79 770.67 155.58 231.38 253.13 767.05 109.85 461.45 268.66 737.68 222.13 229.18 740.74 511.08 365.81 744.94 736.82 219.30 584.43 269.97 459.85 259.79 204.98 654.37 835.98 758.20 291.22 783.81 804.64 236.24 778.88 702.03 583.75 736.42 287.74 630.71 668.35 813.76 554.08 462.90 727.37 517.83 633.02 729.03 0.00 493.26 743.57 247.88 84.95 697.69 499.19 234.48 141.58 814.18 318.61 185.80 874.72 366.64 441.57 472.28 478.73 665.91 377.99 794.42 775.39 340.54 161.20 873.49 871.08 759.95 814.39 524.23 709.92
503.34 519.57 553.75 355.41 915.70 376.00 425.40 367.79 641.19 392.10 764.65 298.91 511.65 399.83 385.22 647.53 812.69 465.32 766.88 746.24 462.61 857.96 261.61 817.44 530.05 288.28 594.96 753.46 681.67 434.49 725.26 733.48 396.98 830.85 732.39 615.43 548.89 428.75 733.10 837.60 655.61 185.06 292.08 724.89 522.94 804.22 667.52 493.26 0.00 652.05 463.02 445.03 708.61 483.53 324.10 366.54 551.72 532.45 322.32 765.96 526.51 821.83 323.22 427.77 739.41 318.11 715.07 673.31 802.16 642.02 860.70 880.49 616.11 683.67 122.22 738.38
460.45 351.42 249.86 580.84 335.75 651.28 596.86 599.50 52.57 717.51 773.42 663.00 140.40 617.69 581.89 78.88 920.67 503.67 159.93 106.08 865.03 536.52 697.64 720.63 632.14 747.89 89.20 101.41 44.64 495.40 102.77 93.15 613.79 235.40 189.90 413.13 317.08 544.06 286.73 262.13 153.65 791.36 511.53 144.94 345.59 226.80 15.47 743.57 652.05 0.00 896.40 766.71 104.12 306.18 570.89 601.99 704.64 510.91 646.21 145.99 563.36 738.91 474.56 361.94 207.79 837.51 67.74 76.60 909.91 847.09 255.54 228.44 467.15 145.20 680.86 197.87
767.89 834.70 788.57 420.89 1018.55 245.12 411.41 396.72 919.88 178.89 588.81 401.29 844.89 382.36 401.33 893.57 664.63 515.51 929.68 952.15 31.37 832.31 290.54 641.60 414.52 174.74 807.20 996.72 911.03 460.69 940.51 961.34 374.10 972.82 856.76 717.05 903.09 443.83 783.55 916.23 966.59 648.08 629.57 903.19 651.21 880.90 881.86 247.88 463.02 896.40 0.00 162.93 913.02 623.46 414.02 357.21 794.79 524.53 337.82 1036.82 559.04 659.88 598.22 642.82 845.94 383.44 946.44 928.22 494.09 188.35 1070.31 1097.41 892.63 918.49 544.80 957.80
656.58 723.39 710.26 275.77 855.62 133.81 294.55 237.28 790.19 80.21 546.40 320.05 751.08 268.98 256.48 763.88 596.03 352.58 784.83 800.50 134.35 669.38 248.20 544.80 344.74 184.03 677.51 859.15 781.34 341.38 803.80 824.63 262.79 860.30 747.72 618.37 788.19 298.24 620.62 753.30 836.90 563.08 514.67 778.34 499.94 717.97 752.17 84.95 445.03 766.71 162.93 0.00 761.37 460.53 267.67 226.53 819.85 403.56 191.47 903.73 451.59 526.52 482.26 511.92 699.56 348.35 800.09 798.53 425.49 246.15 925.46 943.56 781.32 840.18 452.58 794.87
521.49 413.44 306.42 581.28 231.63 667.90 538.20 556.43 156.69 734.13 683.85 646.16 196.96 573.02 593.31 166.66 816.55 450.65 71.30 39.13 881.65 512.87 662.61 631.06 529.49 798.87 190.41 147.59 96.94 452.33 144.67 135.05 564.24 146.77 87.25 310.48 356.80 538.88 182.61 170.50 228.23 830.10 487.28 40.82 321.43 135.17 119.59 697.69 708.61 104.12 913.02 761.37 0.00 300.84 565.55 556.11 761.20 406.79 600.33 190.06 459.24 649.34 417.17 356.60 103.67 829.33 109.64 142.97 805.79 742.97 211.93 221.62 525.58 184.92 719.60 109.24
403.21 286.60 249.73 296.02 432.84 454.86 355.38 305.95 329.66 499.84 538.14 369.62 300.29 342.38 325.83 303.35 723.17 268.34 372.14 339.97 594.88 593.26 391.46 577.62 428.50 523.84 216.98 406.50 320.81 299.54 343.27 364.10 358.80 444.82 306.55 371.38 357.14 289.07 249.57 421.76 376.37 577.50 231.54 341.66 39.41 425.12 291.64 499.19 483.53 306.18 623.46 460.53 300.84 0.00 264.71 357.61 648.27 331.59 340.91 444.03 364.47 595.90 168.38 55.76 257.17 605.39 373.92 338.00 638.51 584.57 510.13 483.03 518.95 379.65 467.00 410.08
505.17 475.09 507.75 31.31 697.55 190.15 130.96 73.80 594.37 235.13 468.42 116.01 565.00 77.67 61.12 568.06 593.46 215.68 589.47 563.02 382.65 540.34 126.75 521.21 235.61 296.10 481.69 671.21 585.52 177.90 607.98 628.81 113.14 664.94 546.15 465.66 587.94 105.36 483.72 619.55 641.08 489.42 325.93 592.58 304.12 584.22 556.35 234.48 324.10 570.89 414.02 267.67 565.55 264.71 0.00 92.90 704.58 243.90 76.20 708.74 205.09 539.49 237.80 244.25 521.88 395.62 638.63 588.72 506.44 319.86 730.10 731.38 525.47 637.67 381.01 577.99
577.85 566.42 542.89 124.21 762.67 158.17 89.80 111.55 625.47 178.32 455.63 188.69 596.10 121.73 87.60 599.16 552.30 224.23 615.95 595.24 325.84 582.86 135.72 473.57 194.45 264.12 512.79 702.31 616.62 185.00 677.28 673.08 94.66 691.42 599.94 505.94 654.35 146.16 489.13 660.35 672.18 474.50 416.97 596.93 376.25 625.02 587.45 141.58 366.54 601.99 357.21 226.53 556.11 357.61 92.90 0.00 672.60 252.11 44.22 735.55 225.06 455.29 330.70 337.15 524.33 359.82 652.84 633.81 435.62 302.78 756.58 777.73 618.37 672.81 389.98 653.89
316.99 560.81 454.78 711.35 939.00 742.33 731.46 725.61 683.44 787.31 1070.71 645.01 564.24 705.89 693.39 700.12 1193.96 825.69 819.47 798.83 826.16 1094.87 683.76 1123.50 836.11 840.00 647.55 806.05 741.57 818.39 745.58 743.83 710.69 894.94 784.98 880.43 478.36 731.84 720.63 836.68 689.03 540.00 416.73 770.53 635.92 864.88 712.40 814.18 551.72 704.64 794.79 819.85 761.20 648.27 704.58 672.60 0.00 868.14 628.38 798.97 875.89 1127.89 504.86 631.58 749.77 649.65 767.66 693.63 1108.22 948.08 902.95 913.38 260.72 584.70 429.50 857.41
618.79 586.42 491.66 249.63 591.58 286.43 164.70 203.51 563.48 352.66 337.43 289.07 558.91 166.23 191.19 561.97 409.76 67.13 478.09 445.92 500.18 374.62 309.69 390.22 175.98 439.16 475.60 554.38 503.73 99.41 551.46 541.84 157.45 553.56 462.27 265.14 610.43 173.34 335.17 489.26 579.20 567.09 476.09 447.61 292.18 453.93 526.38 318.61 532.45 510.91 524.53 403.56 406.79 331.59 243.90 252.11 868.14 0.00 243.74 596.85 52.45 408.50 409.38 380.77 414.11 578.56 516.43 549.76 472.65 336.18 618.72 628.41 723.23 591.71 511.75 516.03
533.63 541.56 531.35 84.30 721.40 113.95 103.08 97.23 669.69 158.93 442.33 144.47 640.32 77.51 65.01 643.38 565.58 219.57 593.36 626.45 306.45 585.98 176.93 495.12 207.73 219.90 557.01 667.68 602.26 201.33 643.65 634.03 97.78 668.83 613.22 468.96 610.13 123.57 487.61 619.08 716.40 475.90 372.75 598.01 353.66 583.75 631.43 185.80 322.32 646.21 337.82 191.47 600.33 340.91 76.20 44.22 628.38 243.74 0.00 712.26 269.28 499.51 290.79 320.45 537.61 404.04 608.62 641.71 479.84 319.70 733.99 761.09 601.67 661.27 365.40 631.30
559.26 431.33 344.19 693.08 337.53 791.70 667.09 715.67 184.83 857.93 763.82 761.41 254.31 747.62 678.79 178.88 946.88 579.54 177.53 150.93 1005.45 619.10 802.43 711.03 703.51 888.31 229.62 44.58 141.54 639.37 100.76 98.58 707.05 253.00 261.27 430.49 386.15 675.31 311.50 277.03 183.26 892.45 542.11 230.88 433.62 241.70 159.44 874.72 765.96 145.99 1036.82 903.73 190.06 444.03 708.74 735.55 798.97 596.85 712.26 0.00 605.98 692.75 572.95 493.35 232.56 958.22 103.64 152.71 914.69 891.66 124.96 127.35 603.79 214.27 821.28 215.47
566.34 613.12 544.11 236.40 604.38 335.92 217.15 243.23 615.93 402.15 284.98 321.10 611.36 212.27 243.64 592.52 462.21 119.58 428.45 482.30 549.67 427.07 331.84 337.77 144.52 485.67 528.05 561.40 547.66 139.13 603.91 586.59 209.90 503.92 512.19 316.01 662.88 204.66 387.62 502.06 631.65 619.54 481.28 500.06 344.63 466.73 576.83 366.64 526.51 563.36 559.04 451.59 459.24 364.47 205.09 225.06 875.89 52.45 269.28 605.98 0.00 356.05 442.89 407.15 466.56 584.88 568.88 602.21 441.19 388.63 569.08 596.18 691.08 644.16 564.20 466.39
922.39 855.83 780.12 508.18 614.31 558.48 459.71 550.78 745.97 551.42 71.07 643.98 733.02 540.24 513.90 736.08 254.13 359.34 589.89 643.74 628.51 264.74 591.01 18.28 379.30 646.55 649.71 722.84 725.50 480.69 767.37 748.03 499.67 644.42 562.09 338.86 898.89 518.73 572.08 562.98 800.68 909.31 768.30 608.52 569.80 527.65 724.37 441.57 821.83 738.91 659.88 526.52 649.34 595.90 539.49 455.29 1127.89 408.50 499.51 692.75 356.05 0.00 701.59 651.66 557.41 815.11 740.71 715.42 255.51 509.99 715.52 713.11 1015.44 736.26 803.96 551.95
299.39 277.81 281.52 206.49 601.22 404.74 323.34 284.45 424.92 449.72 643.60 316.41 375.08 315.47 264.93 434.69 785.84 342.25 488.47 456.30 597.24 761.64 312.99 696.39 427.99 423.48 385.36 528.37 489.19 365.36 508.99 524.19 316.95 563.94 474.93 539.76 361.65 318.43 417.95 528.54 519.04 412.93 88.13 457.99 207.79 493.21 460.02 472.28 323.22 474.56 598.22 482.26 417.17 168.38 237.80 330.70 504.86 409.38 290.79 572.95 442.89 701.59 0.00 149.65 425.55 466.68 521.76 457.04 681.62 557.66 629.10 638.79 412.16 411.44 302.43 526.41
347.45 230.84 270.81 275.56 488.60 427.24 358.49 307.91 385.25 479.38 593.90 346.59 356.05 321.92 271.03 359.11 768.51 313.64 427.90 395.73 626.90 633.49 371.00 633.38 463.14 468.08 272.74 448.77 376.57 355.30 399.03 419.86 323.05 500.58 362.31 392.66 343.69 329.59 305.33 477.52 422.71 547.35 214.85 397.42 95.17 480.88 347.40 478.73 427.77 361.94 642.82 511.92 356.60 55.76 244.25 337.15 631.58 380.77 320.45 493.35 407.15 651.66 149.65 0.00 312.93 616.33 429.68 393.76 597.97 564.11 565.89 538.79 472.19 400.73 452.08 465.84
432.78 406.95 344.79 551.38 312.85 600.82 434.53 506.37 188.56 667.05 591.92 547.97 296.35 515.06 501.54 214.87 811.54 346.98 159.35 142.69 814.57 461.08 586.57 539.13 499.70 742.65 234.81 242.36 176.78 420.15 218.33 208.71 474.49 187.65 75.61 218.55 459.18 464.17 78.94 229.51 243.79 755.85 488.71 122.04 217.76 194.18 194.89 665.91 739.41 207.79 845.94 699.56 103.67 257.17 521.88 524.33 749.77 414.11 537.61 232.56 466.56 557.41 425.55 312.93 0.00 725.66 183.30 220.68 715.22 750.29 299.98 297.53 557.52 287.30 645.35 197.29
685.38 701.61 735.79 371.52 1026.12 334.37 449.62 375.05 890.08 268.14 762.14 379.62 829.76 423.74 404.93 891.39 889.07 551.67 885.01 868.35 383.03 935.96 268.87 814.93 538.01 208.70 811.81 936.90 851.21 479.15 927.86 907.67 450.68 913.31 801.27 784.90 747.64 436.01 802.48 950.20 960.22 330.65 474.12 847.70 632.69 914.87 822.04 377.99 318.11 837.51 383.44 348.35 829.33 605.39 395.62 359.82 649.65 578.56 404.04 958.22 584.88 815.11 466.68 616.33 725.66 0.00 905.25 883.17 718.53 539.19 1025.64 1023.19 791.60 865.71 220.15 922.95
527.95 412.23 312.88 644.39 341.27 719.02 617.83 663.10 113.38 767.55 775.22 695.68 203.42 675.77 648.93 87.07 926.19 515.04 180.94 148.77 915.07 604.26 742.06 722.43 639.13 815.63 156.94 59.06 111.68 561.97 35.03 25.41 657.79 216.76 196.89 401.85 356.42 602.14 247.00 259.24 172.24 788.81 522.17 150.46 373.25 244.81 83.21 794.42 715.07 67.74 946.44 800.09 109.64 373.92 638.63 652.84 767.66 516.43 608.62 103.64 568.88 740.71 521.76 429.68 183.30 905.25 0.00 86.98 883.28 852.61 217.05 194.59 534.89 184.54 748.60 218.88
453.92 330.97 238.85 557.41 361.85 683.10 632.26 626.91 32.12 749.33 749.93 608.70 161.66 639.58 615.85 39.99 959.52 555.73 204.06 182.10 896.85 568.34 687.76 697.14 672.46 779.71 121.02 131.90 90.07 541.06 51.95 67.15 635.68 258.50 230.22 376.56 285.96 565.95 299.62 313.47 85.26 823.18 500.52 183.79 377.41 278.14 61.13 775.39 673.31 76.60 928.22 798.53 142.97 338.00 588.72 633.81 693.63 549.76 641.71 152.71 602.21 715.42 457.04 393.76 220.68 883.17 86.98 0.00 934.37 872.94 251.63 236.70 503.60 114.08 712.68 242.00
945.42 828.81 868.78 475.13 833.26 479.06 401.32 473.54 903.78 450.39 257.29 580.81 842.60 458.49 466.31 930.09 170.54 539.78 822.65 832.19 525.46 483.69 571.34 237.23 296.67 545.52 855.49 940.65 869.44 502.78 917.08 900.33 414.29 886.99 738.91 557.81 923.69 436.10 636.28 781.93 895.07 823.93 769.75 764.97 677.92 746.60 898.61 340.54 802.16 909.91 494.09 425.49 805.79 638.51 506.44 435.62 1108.22 472.65 479.84 914.69 441.19 255.51 681.62 597.97 715.22 718.53 883.28 934.37 0.00 305.74 963.28 968.62 1031.91 955.21 825.60 807.46
806.24 758.15 784.16 351.17 927.76 316.78 322.72 290.88 859.26 271.05 529.98 417.08 877.70 242.19 316.96 832.95 476.28 403.31 814.27 782.10 219.72 710.80 397.06 528.27 331.77 363.09 801.55 847.08 839.91 371.92 887.64 878.02 286.39 889.74 774.01 601.32 774.81 315.82 671.35 825.44 915.38 696.03 624.10 783.79 592.76 790.11 851.85 161.20 642.02 847.09 188.35 246.15 742.97 584.57 319.86 302.78 948.08 336.18 319.70 891.66 388.63 509.99 557.66 564.11 750.29 539.19 852.61 872.94 305.74 0.00 954.90 964.59 845.33 870.98 651.32 852.21
600.30 518.36 448.17 727.42 212.57 825.19 734.51 705.86 219.51 891.42 786.59 814.06 349.05 743.75 668.98 245.82 969.65 619.51 140.63 194.48 1038.94 562.14 805.04 733.80 666.61 947.20 312.55 157.99 251.18 664.26 217.48 196.65 721.00 167.65 224.37 429.26 490.13 719.33 351.47 255.01 266.65 994.47 655.52 216.39 491.51 240.47 270.75 873.49 860.70 255.54 1070.31 925.46 211.93 510.13 730.10 756.58 902.95 618.72 733.99 124.96 569.08 715.52 629.10 565.89 299.98 1025.64 217.05 251.63 963.28 954.90 0.00 27.10 707.77 318.25 904.21 163.57
627.40 527.97 458.60 721.66 239.67 852.29 732.06 732.96 246.61 918.52 784.18 821.36 368.84 770.85 696.08 268.50 967.24 644.51 167.73 221.58 1066.04 549.43 832.14 731.39 693.71 944.79 317.64 141.22 224.08 673.95 190.38 169.55 748.10 146.13 251.47 426.85 467.95 716.92 376.47 260.38 239.55 983.40 638.75 243.49 515.29 238.06 243.91 871.08 880.49 228.44 1097.41 943.56 221.62 483.03 731.38 777.73 913.38 628.41 761.09 127.35 596.18 713.11 638.79 538.79 297.53 1023.19 194.59 236.70 968.62 964.59 27.10 0.00 685.59 328.68 909.30 161.16
124.74 300.09 336.41 556.78 757.21 647.51 656.43 599.27 488.26 713.74 976.06 513.90 445.87 603.14 586.59 500.58 1093.73 656.10 596.88 564.71 861.26 935.47 613.31 1008.36 735.88 726.79 526.34 566.54 480.85 703.37 547.01 537.31 638.61 672.35 612.83 776.07 217.64 630.83 602.26 696.08 446.04 540.00 324.03 566.40 522.69 660.75 451.68 759.95 616.11 467.15 892.63 781.32 525.58 518.95 525.47 618.37 260.72 723.23 601.67 603.79 691.08 1015.44 412.16 472.19 557.52 791.60 534.89 503.60 1031.91 845.33 707.77 685.59 0.00 389.52 571.45 616.85
344.99 236.94 129.92 606.36 416.55 756.67 657.63 642.12 98.74 812.56 770.77 619.87 182.23 628.79 628.89 122.60 990.39 554.45 256.22 224.05 887.12 643.55 709.05 717.98 714.41 834.92 196.23 237.85 189.84 637.25 166.03 159.13 627.69 331.69 272.17 434.51 171.88 591.32 348.51 355.42 131.66 760.25 391.59 225.74 340.24 320.09 160.67 814.39 683.67 145.20 918.49 840.18 184.92 379.65 637.67 672.81 584.70 591.71 661.27 214.27 644.16 736.26 411.44 400.73 287.30 865.71 184.54 114.08 955.21 870.98 318.25 328.68 389.52 0.00 713.87 294.16
525.76 580.24 583.95 384.61 821.02 368.65 459.62 360.44 704.34 434.88 768.05 313.08 633.87 409.13 390.32 678.03 811.97 444.62 763.58 742.94 576.17 886.37 254.26 820.84 537.31 410.50 591.66 781.18 695.49 464.54 756.15 751.95 434.86 833.00 694.73 726.33 664.08 421.40 638.45 809.94 751.05 110.50 390.56 741.16 427.59 795.64 666.32 524.23 122.22 680.86 544.80 452.58 719.60 467.00 381.01 389.98 429.50 511.75 365.40 821.28 564.20 803.96 302.43 452.08 645.35 220.15 748.60 712.68 825.60 651.32 904.21 909.30 571.45 713.87 0.00 801.52
582.47 466.70 402.63 609.30 199.36 722.50 622.07 603.17 228.32 788.73 623.02 694.00 293.17 629.39 566.29 202.01 806.08 516.82 37.94 91.79 929.22 459.71 702.35 570.23 563.92 783.63 209.86 170.89 206.18 561.57 216.91 196.08 618.31 92.47 121.68 265.69 399.21 555.76 248.78 99.22 310.10 912.02 587.52 120.45 388.82 76.90 211.97 709.92 738.38 197.87 957.80 794.87 109.24 410.08 577.99 653.89 857.41 516.03 631.30 215.47 466.39 551.95 526.41 465.84 197.29 922.95 218.88 242.00 807.46 852.21 163.57 161.16 616.85 294.16 801.52 0.00
DEMAND_SECTION
1 0
2 1
3 1
4 1
5 1
6 1
7 1
8 1
9 1
10 1
11 1
12 1
13 1
14 1
15 1
16 1
17 1
18 1
19 1
20 1
21 1
22 1
23 1
24 1
25 1
26 1
27 1
28 1
29 1
30 1
31 1
32 1
33 1
34 1
35 1
36 1
37 1
38 1
39 1
40 1
41 1
42 1
43 1
44 1
45 1
46 1
47 1
48 1
49 1
50 1
51 1
52 1
53 1
54 1
55 1
56 1
57 1
58 1
59 1
60 1
61 1
62 1
63 1
64 1
65 1
66 1
67 1
68 1
69 1
70 1
71 1
72 1
73 1
74 1
75 1
76 1
DEPOT_SECTION
1
-1
EOF
