NAME: LDG70_1115_fog_70_0152
COMMENT: CVRP with travel times.  rootPos=1,custPos=1,demandType=1,avgRouteSizeIndex=5,weather=fog,lambda_cluster=1,lambda_random=4, T1=300,T2=700,beta=1, alpha(i,j) ~ U(0.8,1.2)
TYPE: CVRP
DIMENSION: 71
EDGE_WEIGHT_TYPE: EXPLICIT
EDGE_WEIGHT_FORMAT: FULL_MATRIX
CAPACITY: 17
NODE_COORD_SECTION
1 926 37
2 872 707
3 794 540
4 250 79
5 984 308
6 813 446
7 671 972
8 930 792
9 12 247
10 824 952
11 276 758
12 938 735
13 325 216
14 252 3
15 693 63
16 659 773
17 383 351
18 975 30
19 760 614
20 985 873
21 379 59
22 468 330
23 597 40
24 162 998
25 85 504
26 821 672
27 127 317
28 38 190
29 706 760
30 633 128
31 291 270
32 904 171
33 592 859
34 50 470
35 865 127
36 422 734
37 210 745
38 818 295
39 663 522
40 873 856
41 867 741
42 455 804
43 542 927
44 72 598
45 670 973
46 726 146
47 906 162
48 371 312
49 129 577
50 282 288
51 287 15
52 201 84
53 498 873
54 615 922
55 430 557
56 390 194
57 440 617
58 813 83
59 891 564
60 864 940
61 743 658
62 203 822
63 289 147
64 927 127
65 432 878
66 503 286
67 89 78
68 191 540
69 91 858
70 322 369
71 819 473
EDGE_WEIGHT_SECTION
0.00 808.94 591.98 887.16 360.65 480.59 1032.75 794.53 1052.70 965.99 1092.73 801.76 751.18 825.67 323.51 870.35 702.69 71.06 716.88 947.91 721.53 602.75 409.26 1365.39 1125.71 771.80 939.20 1041.91 864.61 378.25 776.29 187.63 1015.74 1080.61 159.06 980.10 1131.25 354.67 662.83 934.05 812.64 1078.35 1057.94 1201.27 1024.58 369.56 161.19 756.39 1097.34 805.26 827.79 877.44 1036.88 972.95 845.55 694.68 897.08 189.47 629.71 964.11 736.28 1221.77 776.23 108.54 1058.12 539.96 1007.17 1037.53 1223.39 776.50 525.65
808.94 0.00 240.09 974.64 448.29 333.30 431.77 175.56 1154.41 335.54 700.63 89.13 823.18 1059.49 812.83 283.76 730.96 760.66 203.37 220.30 928.06 630.78 805.25 912.51 886.38 108.32 972.82 1144.64 269.36 771.70 856.73 672.87 380.69 908.80 650.96 489.12 773.49 465.21 364.31 169.09 55.42 515.52 440.42 929.45 439.94 700.78 647.75 752.38 881.76 867.10 1039.53 981.05 473.69 355.43 483.55 853.12 499.58 724.60 179.23 289.98 192.59 730.79 869.72 700.40 545.07 665.06 1140.22 809.58 867.12 729.85 284.37
591.98 240.09 0.00 770.14 368.15 111.39 511.96 387.97 934.95 544.44 640.32 315.48 688.03 853.34 605.98 278.37 551.47 618.94 131.55 460.39 687.97 495.63 565.16 878.29 751.85 226.60 821.18 972.28 295.38 531.61 640.65 480.05 423.76 824.26 454.03 463.75 713.18 268.28 146.48 409.18 295.51 527.07 587.60 864.27 514.44 493.93 506.49 522.86 829.58 647.64 826.70 770.54 566.33 521.48 399.01 613.03 448.53 534.96 144.56 530.07 203.96 705.42 659.21 507.71 573.92 447.23 917.23 804.79 841.75 645.31 87.44
887.16 974.64 770.14 0.00 929.36 776.49 1068.95 1084.29 399.16 1122.41 835.14 1038.45 175.73 98.04 602.15 938.32 329.28 852.65 771.27 1108.13 204.13 368.13 529.92 991.20 601.29 866.32 371.24 300.57 893.59 548.66 240.55 824.09 901.03 539.61 728.10 755.16 791.40 746.32 727.64 1083.43 937.45 791.84 967.14 656.14 1061.78 583.66 803.96 342.98 642.97 206.32 82.71 98.96 894.13 973.54 587.96 209.34 594.70 721.03 900.26 1107.92 845.15 766.99 110.93 847.46 933.57 433.95 257.32 525.27 816.20 341.66 757.00
360.65 448.29 368.15 929.36 0.00 325.50 771.65 582.49 1097.05 760.15 912.98 487.43 753.63 956.40 496.75 646.52 658.14 323.15 473.02 668.59 791.03 587.80 623.01 1219.76 1049.89 437.18 898.56 1075.09 608.88 525.63 832.30 224.58 759.42 1036.06 281.78 761.79 985.84 265.54 444.52 617.38 477.90 860.04 888.71 1068.61 763.48 419.76 199.46 732.57 1067.94 833.65 929.76 948.82 901.99 803.72 665.80 817.40 745.70 362.71 269.06 714.59 546.90 1003.46 856.40 252.11 923.80 495.41 1084.93 974.31 1123.85 761.55 280.71
480.59 333.30 111.39 776.49 325.50 0.00 623.35 479.89 971.66 655.83 681.95 394.04 649.52 823.88 502.72 389.76 557.30 536.09 241.24 542.35 702.97 457.12 573.79 928.74 787.61 309.09 830.81 970.98 406.77 464.31 685.49 379.50 535.15 860.02 371.18 499.51 754.81 229.77 182.24 491.11 335.92 597.76 660.76 900.03 625.83 390.67 405.94 634.25 851.29 684.35 809.99 806.33 658.36 575.77 434.77 567.15 514.67 452.11 175.67 612.00 315.12 741.18 695.00 458.59 685.31 482.99 965.50 840.55 877.51 584.56 48.93
1032.75 431.77 511.96 1068.95 771.65 623.35 0.00 372.40 1156.53 238.93 565.93 445.61 894.22 1130.53 1044.20 264.20 834.75 1093.87 429.44 385.12 1031.12 810.06 1030.67 602.25 875.79 398.93 996.70 1139.07 227.23 952.04 838.53 910.03 167.92 941.45 965.99 448.67 638.79 737.17 450.55 267.35 419.53 372.99 203.56 871.85 8.17 944.36 936.47 797.99 780.89 872.76 1127.83 1069.35 263.64 118.57 571.94 966.14 554.68 972.93 567.05 234.84 355.56 605.52 958.02 982.98 332.30 751.30 1132.51 825.91 638.95 750.45 599.40
794.53 175.56 387.97 1084.29 582.49 479.89 372.40 0.00 1250.16 224.32 690.59 112.22 957.02 1182.33 861.58 386.77 826.37 760.45 313.02 153.38 1047.82 764.62 953.13 924.35 965.23 228.74 1051.67 1261.62 338.25 902.33 977.21 606.90 380.15 1063.65 702.89 595.90 763.45 637.53 473.96 139.52 213.22 497.65 427.19 1008.30 364.23 749.53 633.34 885.20 988.54 1001.88 1167.00 1150.24 493.55 342.20 658.33 967.30 578.43 783.82 313.43 178.76 271.44 821.22 1045.28 685.99 544.53 747.26 1276.28 930.00 950.08 888.16 456.69
1052.70 1154.41 934.95 399.16 1097.05 971.66 1156.53 1250.16 0.00 1158.40 779.14 1218.90 397.46 423.49 811.03 892.33 462.82 1069.44 985.73 1312.99 584.94 563.00 643.44 835.27 428.54 1080.78 198.49 98.59 957.95 718.09 321.54 1013.86 1014.14 461.14 984.03 795.45 706.28 878.25 824.79 1173.20 1151.91 872.83 1022.20 498.34 1151.90 847.50 987.42 423.97 402.81 287.31 463.92 346.99 949.19 1055.42 670.86 449.15 671.73 903.10 1000.53 1162.71 978.72 753.27 446.86 1040.07 851.40 624.97 274.55 427.58 660.27 424.56 922.73
965.99 335.54 544.44 1122.41 760.15 655.83 238.93 224.32 1158.40 0.00 676.86 272.72 946.68 1182.99 1033.41 266.07 807.78 984.77 417.84 195.84 1077.48 822.04 1066.48 841.18 995.40 374.61 1000.95 1210.90 331.69 957.00 944.23 831.22 292.09 1015.66 927.21 582.17 717.66 789.47 509.36 166.45 321.64 483.92 387.84 957.58 230.76 951.06 857.66 834.48 905.06 971.14 1179.55 1152.81 434.66 302.85 607.61 941.66 527.71 969.59 491.09 45.56 417.38 719.85 1041.48 857.45 456.47 810.11 1199.97 849.40 856.18 853.91 608.63
1092.73 700.63 640.32 835.14 912.98 681.95 565.93 690.59 779.14 676.86 0.00 775.95 659.41 820.06 930.70 441.64 559.32 1133.26 508.77 779.39 871.87 620.25 832.14 385.07 350.60 603.82 580.65 727.05 507.26 796.41 620.36 1036.78 398.01 449.02 968.35 211.51 72.86 844.36 499.71 689.77 674.95 192.94 381.71 342.67 566.64 843.18 1045.77 516.01 440.58 630.73 779.63 840.91 308.70 460.05 247.18 736.05 327.08 985.19 730.45 712.02 582.65 140.67 751.13 1027.39 239.94 552.77 867.90 359.55 259.49 493.48 663.52
801.76 89.13 315.48 1038.45 487.43 394.04 445.61 112.22 1218.90 272.72 775.95 0.00 893.26 1129.57 888.64 363.00 797.77 730.70 267.18 185.95 1003.45 718.78 880.64 989.91 975.51 180.31 1061.52 1214.72 347.15 847.09 931.37 712.01 426.27 997.93 728.22 578.25 848.81 541.02 428.12 178.26 101.00 604.65 485.41 938.96 453.78 776.59 686.89 836.43 963.90 931.59 1121.16 1049.25 533.03 444.56 572.68 928.51 588.71 809.15 218.37 227.16 281.72 819.92 958.85 739.54 590.65 635.04 1164.06 845.78 956.25 818.98 361.63
751.18 823.18 688.03 175.73 753.63 649.52 894.22 957.02 397.46 946.68 659.41 893.26 0.00 236.31 507.22 762.59 153.55 751.62 644.00 980.86 242.53 192.40 424.88 922.88 503.98 739.05 296.63 321.46 717.86 372.93 103.77 725.54 755.51 468.76 642.33 586.96 640.01 666.98 551.91 914.57 810.18 676.00 830.36 582.94 886.05 505.06 699.10 191.17 486.77 138.00 258.44 214.10 757.35 797.81 412.23 106.71 418.97 561.71 743.85 992.24 708.48 698.67 102.77 733.07 761.78 258.22 373.27 391.44 747.88 165.93 600.59
825.67 1059.49 853.34 98.04 956.40 823.88 1130.53 1182.33 423.49 1182.99 820.06 1129.57 236.31 0.00 563.39 998.90 389.86 754.61 869.31 1206.17 165.37 428.71 491.16 1064.84 643.49 964.36 467.95 355.43 954.17 511.82 338.59 809.83 991.82 637.65 737.57 823.27 873.40 816.10 783.31 1118.89 1035.49 889.88 1065.18 664.21 1122.36 664.62 819.89 385.50 704.83 304.36 40.43 107.03 992.17 1034.12 648.54 283.27 655.28 657.68 980.16 1205.96 941.75 865.03 208.97 810.82 998.09 494.53 235.21 586.71 914.24 402.24 836.90
323.51 812.83 605.98 602.15 496.75 502.72 1044.20 861.58 811.03 1033.41 930.70 888.64 507.22 563.39 0.00 797.04 510.40 323.95 720.77 1014.96 398.02 476.95 167.59 1107.88 891.13 811.81 739.37 828.68 816.97 134.29 546.51 310.96 942.43 867.60 214.97 907.64 975.85 347.62 604.37 924.84 815.45 898.19 952.64 986.68 1036.03 112.05 297.29 432.88 898.20 565.07 536.75 633.48 1013.95 1037.63 690.15 463.71 739.65 134.04 671.72 987.85 700.85 1071.37 567.41 259.64 924.60 384.56 781.65 845.24 1130.68 577.36 528.46
870.35 283.76 278.37 938.32 646.52 389.76 264.20 386.77 892.33 266.07 441.64 363.00 762.59 998.90 797.04 0.00 623.69 889.67 225.24 420.66 893.39 637.95 843.53 675.40 774.07 237.32 816.86 990.92 65.62 792.66 760.14 705.83 145.39 749.59 732.40 346.95 514.50 532.97 386.18 316.86 262.00 248.70 309.23 773.49 272.37 684.99 732.27 650.39 739.59 787.05 977.80 968.72 287.96 243.11 423.52 757.57 343.62 813.33 405.44 270.38 151.36 582.31 857.39 779.10 295.55 686.93 933.90 701.62 687.23 669.82 365.81
702.69 730.96 551.47 329.28 658.14 557.30 834.75 826.37 462.82 807.78 559.32 797.77 153.55 389.86 510.40 623.69 0.00 743.22 551.78 888.64 396.08 100.18 442.10 845.13 468.15 646.83 315.64 475.01 674.59 413.00 195.31 666.73 673.10 508.80 578.31 448.06 486.46 574.76 404.99 863.94 717.96 537.10 724.71 519.41 842.92 499.48 640.29 77.52 409.80 175.51 403.51 345.03 651.70 742.51 346.35 260.26 280.07 601.78 651.63 853.34 554.93 620.87 233.70 646.46 625.13 162.73 504.20 334.84 673.09 120.63 508.37
71.06 760.66 618.94 852.65 323.15 536.09 1093.87 760.45 1069.44 984.77 1133.26 730.70 751.62 754.61 323.95 889.67 743.22 0.00 679.69 913.83 720.33 672.88 480.32 1365.83 1166.24 760.33 969.59 970.85 866.64 378.69 776.73 207.06 1035.06 1121.14 164.91 1012.58 1171.78 356.70 695.31 899.97 801.05 1081.58 1038.83 1203.30 1085.70 370.00 225.66 756.83 1153.02 805.70 795.04 861.64 965.82 1037.42 886.08 700.53 965.98 189.91 592.21 939.21 738.31 1254.25 782.08 173.01 1063.61 580.49 989.82 1065.47 1229.24 835.31 531.50
716.88 203.37 131.55 771.27 473.02 241.24 429.44 313.02 985.73 417.84 508.77 267.18 644.00 869.31 720.77 225.24 551.78 679.69 0.00 336.86 819.52 451.60 696.71 746.74 766.31 95.05 842.86 965.46 202.21 663.16 664.19 529.25 370.63 838.72 558.90 478.21 581.63 373.15 160.94 312.16 166.18 473.94 500.38 799.49 421.27 608.72 555.69 629.30 698.03 698.42 853.98 837.22 492.79 436.12 413.47 744.58 369.62 639.83 221.68 424.10 73.88 649.44 746.77 608.34 520.79 461.69 999.31 770.54 768.26 625.35 192.31
947.91 220.30 460.39 1108.13 668.59 542.35 385.12 153.38 1312.99 195.84 779.39 185.95 980.86 1206.17 1014.96 420.66 888.64 913.83 336.86 0.00 1086.58 788.46 1025.55 873.43 1012.57 328.62 1135.92 1302.32 419.91 931.58 1001.05 760.28 432.79 1110.99 856.27 684.70 852.25 674.26 497.80 141.03 275.72 586.45 495.30 1122.06 393.29 902.91 786.72 966.16 1034.89 1026.92 1190.84 1174.08 561.66 410.31 703.85 1073.42 703.44 937.20 399.53 150.28 396.45 822.73 1083.63 839.37 597.17 798.55 1336.17 1001.62 959.06 889.67 493.42
721.53 928.06 687.97 204.13 791.03 702.97 1031.12 1047.82 584.94 1077.48 871.87 1003.45 242.53 165.37 398.02 893.39 396.08 720.33 819.52 1086.58 0.00 434.93 325.79 1082.51 663.61 903.02 456.26 504.70 904.71 346.45 263.40 699.06 942.80 630.92 612.99 717.76 814.25 650.73 717.92 1097.15 973.69 806.80 989.99 754.45 1022.95 499.25 672.62 381.19 711.12 297.63 138.73 272.19 916.98 1012.21 624.69 135.82 549.77 532.06 832.53 1123.04 776.38 858.30 209.40 645.45 894.83 417.17 400.58 616.58 907.51 390.28 751.90
602.75 630.78 495.63 368.13 587.80 457.12 810.06 764.62 563.00 822.04 620.25 718.78 192.40 428.71 476.95 637.95 100.18 672.88 451.60 788.46 434.93 0.00 371.76 872.25 556.94 546.65 415.82 513.86 653.81 342.66 244.50 603.96 658.70 608.98 507.97 462.32 586.64 474.58 359.51 763.76 617.78 551.36 740.13 599.09 809.44 421.82 590.29 177.70 494.59 275.69 450.84 406.50 667.12 699.04 373.07 299.11 294.33 531.44 551.45 867.60 525.48 683.95 295.17 546.28 639.39 92.39 565.67 435.02 769.25 173.75 408.19
409.26 805.25 565.16 529.92 623.01 573.79 1030.67 953.13 643.44 1066.48 832.14 880.64 424.88 491.16 167.59 843.53 442.10 480.32 696.71 1025.55 325.79 371.76 0.00 1142.75 723.54 745.72 630.14 742.03 860.54 109.48 472.98 458.59 913.19 820.02 376.55 832.85 870.66 357.47 580.12 900.03 825.30 910.47 1028.80 867.51 1038.84 211.85 432.15 454.75 757.90 507.21 464.52 551.21 1026.23 1010.91 584.96 349.70 664.86 295.62 681.57 1020.92 739.08 972.81 439.88 427.23 1009.92 279.37 614.06 776.94 1043.01 545.51 538.31
1365.39 912.51 878.29 991.20 1219.76 928.74 602.25 924.35 835.27 841.18 385.07 989.91 922.88 1064.84 1107.88 675.40 845.13 1365.83 746.74 873.43 1082.51 872.25 1142.75 0.00 596.23 814.85 761.74 933.86 643.15 1113.65 819.11 1242.57 563.64 661.41 1239.33 486.07 358.67 1119.89 803.34 855.40 888.91 426.70 597.47 541.16 610.42 995.83 1216.13 826.62 500.85 784.88 1073.91 1012.41 524.46 661.36 557.79 946.72 634.02 1175.92 968.42 820.13 771.48 244.40 952.83 1259.63 426.67 863.38 1080.29 605.79 175.00 804.09 939.05
1125.71 886.38 751.85 601.29 1049.89 787.61 875.79 965.23 428.54 995.40 350.60 975.51 503.98 643.49 891.13 774.07 468.15 1166.24 766.31 1012.57 663.61 556.94 723.54 596.23 0.00 830.06 230.05 440.00 772.59 833.02 400.21 1095.24 730.44 98.42 1001.33 427.12 277.74 924.61 605.37 871.54 891.10 525.37 714.14 149.51 867.62 848.50 1068.80 518.00 193.76 424.47 683.92 590.97 641.13 757.22 514.29 527.82 507.43 987.03 896.41 992.43 693.79 394.79 533.93 1087.68 590.54 585.75 517.30 215.84 464.37 383.19 769.18
771.80 108.32 226.60 866.32 437.18 309.09 398.93 228.74 1080.78 374.61 603.82 180.31 739.05 964.36 811.81 237.32 646.83 760.33 95.05 328.62 903.02 546.65 745.72 814.85 830.06 0.00 911.57 1060.51 171.70 758.21 759.24 584.17 382.71 928.48 653.95 510.32 676.68 468.20 255.99 217.11 93.67 486.02 469.87 873.13 390.76 699.76 610.61 724.35 793.08 793.47 949.03 932.27 525.28 395.97 508.52 767.20 443.26 734.88 168.12 329.05 136.27 661.73 841.82 663.26 506.07 556.74 1094.36 701.26 793.31 720.40 287.36
939.20 972.82 821.18 371.24 898.56 830.81 996.70 1051.67 198.49 1000.95 580.65 1061.52 296.63 467.95 739.37 816.86 315.64 969.59 842.86 1135.92 456.26 415.82 630.14 761.74 230.05 911.57 0.00 209.95 882.48 657.87 192.86 895.39 835.83 328.47 842.06 641.23 507.79 857.83 696.11 994.89 962.52 690.99 874.75 379.56 988.53 711.56 921.83 310.65 279.78 227.09 453.95 360.92 801.74 878.13 492.55 320.47 473.24 779.68 914.10 1046.51 780.23 599.46 326.58 886.18 703.95 426.48 342.25 238.07 605.63 246.25 824.01
1041.91 1144.64 972.28 300.57 1075.09 970.98 1139.07 1261.62 98.59 1210.90 727.05 1214.72 321.46 355.43 828.68 990.92 475.01 970.85 965.46 1302.32 504.70 513.86 742.03 933.86 440.00 1060.51 209.95 0.00 1010.63 694.39 331.63 915.27 1022.54 538.42 963.79 745.48 654.19 976.84 834.88 1181.60 1131.64 843.73 1032.50 528.49 1147.24 826.52 888.83 449.42 489.73 365.86 381.86 248.40 959.49 1064.84 679.26 428.17 683.19 883.17 1052.87 1256.46 990.18 785.31 359.73 941.48 913.90 579.68 217.28 423.92 758.86 432.96 922.05
864.61 269.36 295.38 893.59 608.88 406.77 227.23 338.25 957.95 331.69 507.26 347.15 717.86 954.17 816.97 65.62 674.59 866.64 202.21 419.91 904.71 653.81 860.54 643.15 772.59 171.70 882.48 1010.63 0.00 826.99 821.63 682.80 211.01 815.21 749.41 345.47 580.12 509.94 363.15 278.88 252.90 314.32 298.17 839.11 219.06 717.13 709.24 716.01 738.11 835.01 976.30 931.96 353.58 285.42 474.29 823.19 409.24 830.34 339.82 336.00 128.33 555.68 820.63 756.07 334.37 663.90 999.52 767.24 621.61 697.76 382.82
378.25 771.70 531.61 548.66 525.63 464.31 952.04 902.33 718.09 957.00 796.41 847.09 372.93 511.82 134.29 792.66 413.00 378.69 663.16 931.58 346.45 342.66 109.48 1113.65 833.02 758.21 657.87 694.39 826.99 0.00 465.01 352.61 884.09 764.07 269.71 803.75 841.56 331.88 551.02 790.55 799.71 802.75 991.52 920.30 943.87 152.80 326.17 487.43 822.80 430.78 485.18 499.19 918.51 981.81 555.86 364.56 635.76 188.78 639.98 911.44 713.49 937.08 475.70 360.14 944.48 250.27 661.28 728.80 996.39 516.41 512.72
776.29 856.73 640.65 240.55 832.30 685.49 838.53 977.21 321.54 944.23 620.36 931.37 103.77 338.59 546.51 760.14 195.31 776.73 664.19 1001.05 263.40 244.50 472.98 819.11 400.21 759.24 192.86 331.63 821.63 465.01 0.00 759.22 716.46 367.52 663.23 514.61 550.85 719.08 503.25 875.52 830.37 612.86 726.59 491.05 830.36 525.96 745.55 117.79 447.72 34.23 303.53 245.05 653.58 758.76 373.18 127.61 416.52 586.82 721.24 989.79 723.51 594.90 133.72 758.18 722.73 336.89 343.53 353.18 644.11 126.88 652.69
187.63 672.87 480.05 824.09 224.58 379.50 910.03 606.90 1013.86 831.22 1036.78 712.01 725.54 809.83 310.96 705.83 666.73 207.06 529.25 760.28 699.06 603.96 458.59 1242.57 1095.24 584.17 895.39 915.27 682.80 352.61 759.22 0.00 851.22 1044.26 95.99 873.69 1102.86 211.77 556.42 746.42 648.54 954.53 927.06 1058.37 901.86 246.74 26.44 701.53 1032.89 783.39 793.13 778.08 864.06 919.45 808.95 631.61 861.46 176.92 493.64 785.66 554.47 1115.36 713.16 79.09 961.85 511.57 940.17 920.54 1160.32 712.05 392.61
1015.74 380.69 423.76 901.03 759.42 535.15 167.92 380.15 1014.14 292.09 398.01 426.27 755.51 991.82 942.43 145.39 673.10 1035.06 370.63 432.79 942.80 658.70 913.19 563.64 730.44 382.71 835.83 1022.54 211.01 884.09 716.46 851.22 0.00 773.53 877.79 303.32 470.87 678.36 395.32 291.76 325.27 205.07 174.05 722.58 176.09 830.38 877.66 672.85 612.97 726.83 959.91 901.43 142.57 97.72 404.02 806.98 393.03 917.70 490.36 334.85 296.75 501.72 790.10 924.49 164.38 633.82 1059.99 657.99 610.82 589.58 511.20
1080.61 908.80 824.26 539.61 1036.06 860.02 941.45 1063.65 461.14 1015.66 449.02 997.93 468.76 637.65 867.60 749.59 508.80 1121.14 838.72 1110.99 630.92 608.98 820.02 661.41 98.42 928.48 328.47 538.42 815.21 764.07 367.52 1044.26 773.53 0.00 956.23 525.54 376.16 987.45 677.78 969.96 964.22 623.79 779.95 188.80 935.85 877.40 1017.82 469.95 160.56 333.29 622.32 580.97 706.94 855.64 425.25 495.13 505.15 949.08 968.82 1019.97 792.21 493.21 501.24 989.26 609.15 540.65 418.88 278.68 486.41 448.96 841.59
159.06 650.96 454.03 728.10 281.78 371.18 965.99 702.89 984.03 927.21 968.35 728.22 642.33 737.57 214.97 732.40 578.31 164.91 558.90 856.27 612.99 507.97 376.55 1239.33 1001.33 653.95 842.06 963.79 749.41 269.71 663.23 95.99 877.79 956.23 0.00 847.67 1006.87 273.39 530.40 808.77 653.58 945.92 978.42 1097.72 968.47 261.02 82.32 647.85 988.11 696.72 697.14 728.50 960.05 893.43 721.17 535.62 801.07 80.93 509.85 881.65 632.78 1089.34 617.17 122.65 1027.95 415.58 848.11 913.15 1064.33 681.72 366.59
980.10 489.12 463.75 755.16 761.79 499.51 448.67 595.90 795.45 582.17 211.51 578.25 586.96 823.27 907.64 346.95 448.06 1012.58 478.21 684.70 717.76 462.32 832.85 486.07 427.12 510.32 641.23 745.48 345.47 803.75 514.61 873.69 303.32 525.54 847.67 0.00 284.37 661.92 317.27 595.08 544.54 98.25 287.02 502.25 440.50 843.89 864.72 474.76 392.64 548.84 817.46 758.98 214.01 330.10 247.89 581.94 167.99 839.65 583.06 617.33 473.80 241.67 647.65 901.35 239.98 553.48 858.14 423.34 378.00 494.19 481.08
1131.25 773.49 713.18 791.40 985.84 754.81 638.79 763.45 706.28 717.66 72.86 848.81 640.01 873.40 975.85 514.50 486.46 1171.78 581.63 852.25 814.25 586.64 870.66 358.67 277.74 676.68 507.79 654.19 580.12 841.56 550.85 1102.86 470.87 376.16 1006.87 284.37 0.00 917.22 572.57 762.63 747.81 265.80 454.57 271.80 639.50 916.04 1089.19 563.98 367.72 585.08 852.49 792.39 381.56 532.91 320.04 678.46 354.65 1030.34 803.31 763.22 655.51 134.41 684.57 1100.25 312.80 591.29 795.04 286.69 186.63 566.34 736.38
354.67 465.21 268.28 746.32 265.54 229.77 737.17 637.53 878.25 789.47 844.36 541.02 666.98 816.10 347.62 532.97 574.76 356.70 373.15 674.26 650.73 474.58 357.47 1119.89 924.61 468.20 857.83 976.84 509.94 331.88 719.08 211.77 678.36 987.45 273.39 661.92 917.22 0.00 344.65 623.02 467.83 760.17 715.29 846.60 729.00 235.57 238.21 652.28 826.89 706.11 789.46 831.07 788.30 707.68 597.18 600.49 677.08 354.32 324.10 743.91 381.61 903.59 769.75 246.13 779.57 542.14 971.53 708.77 1039.92 613.70 180.84
662.83 364.31 146.48 727.64 444.52 182.24 450.55 473.96 824.79 509.36 499.71 428.12 551.91 783.31 604.37 386.18 404.99 695.31 160.94 497.80 717.92 359.51 580.12 803.34 605.37 255.99 696.11 834.88 363.15 551.02 503.25 556.42 395.32 677.78 530.40 317.27 572.57 344.65 0.00 473.10 327.12 415.52 549.13 717.79 458.72 572.91 582.86 482.51 709.91 537.48 806.78 676.28 476.12 493.04 252.53 630.86 332.43 522.38 291.04 522.62 234.82 558.94 636.97 584.08 557.25 300.75 838.37 658.31 695.27 498.83 163.81
934.05 169.09 409.18 1083.43 617.38 491.11 267.35 139.52 1173.20 166.45 689.77 178.26 914.57 1118.89 924.84 316.86 863.94 899.97 312.16 141.03 1097.15 763.76 900.03 855.40 871.54 217.11 994.89 1181.60 278.88 790.55 875.52 746.42 291.76 969.96 808.77 595.08 762.63 623.02 473.10 0.00 155.19 496.83 354.27 1014.34 275.52 858.59 772.86 909.53 904.73 885.89 1159.32 1103.44 420.63 269.28 652.64 984.31 641.08 869.23 348.32 120.89 334.09 681.70 1009.24 825.51 456.14 773.85 1219.05 860.59 818.03 748.64 442.18
812.64 55.42 295.51 937.45 477.90 335.92 419.53 213.22 1151.91 321.64 674.95 101.00 810.18 1035.49 815.45 262.00 717.96 801.05 166.18 275.72 973.69 617.78 825.30 888.91 891.10 93.67 962.52 1131.64 252.90 799.71 830.37 648.54 325.27 964.22 653.58 544.54 747.81 467.83 327.12 155.19 0.00 510.70 464.38 907.11 427.70 703.40 674.98 795.48 864.21 864.60 1020.16 948.25 467.84 397.89 538.97 860.87 504.30 734.51 208.84 276.08 197.31 755.40 912.95 707.26 489.65 627.87 1110.34 794.93 874.51 785.27 286.99
1078.35 515.52 527.07 791.84 860.04 597.76 372.99 497.65 872.83 483.92 192.94 604.65 676.00 889.88 898.19 248.70 537.10 1081.58 473.94 586.45 806.80 551.36 910.47 426.70 525.37 486.02 690.99 843.73 314.32 802.75 612.86 954.53 205.07 623.79 945.92 98.25 265.80 760.17 415.52 496.83 510.70 0.00 188.77 535.61 377.51 921.51 962.97 563.80 490.89 585.52 874.55 857.23 115.76 267.11 325.51 670.98 257.03 937.90 654.14 519.08 400.06 333.61 745.90 999.60 141.73 631.10 956.39 452.92 452.43 571.81 579.33
1057.94 440.42 587.60 967.14 888.71 660.76 203.56 427.19 1022.20 387.84 381.71 485.41 830.36 1065.18 952.64 309.23 724.71 1038.83 500.38 495.30 989.99 740.13 1028.80 597.47 714.14 469.87 874.75 1032.50 298.17 991.52 726.59 927.06 174.05 779.95 978.42 287.02 454.57 715.29 549.13 354.27 464.38 188.77 0.00 724.38 195.39 950.86 953.50 730.76 619.39 760.82 1030.12 971.64 73.01 84.99 514.28 854.20 445.80 1059.35 619.65 433.40 426.50 503.79 860.31 949.40 170.80 807.87 1070.12 641.69 572.09 716.87 611.83
1201.27 929.45 864.27 656.14 1068.61 900.03 871.85 1008.30 498.34 957.58 342.67 938.96 582.94 664.21 986.68 773.49 519.41 1203.30 799.49 1122.06 754.45 599.09 867.51 541.16 149.51 873.13 379.56 528.49 839.11 920.30 491.05 1058.37 722.58 188.80 1097.72 502.25 271.80 846.60 717.79 1014.34 907.11 535.61 724.38 0.00 863.68 890.65 1084.81 553.80 109.61 510.45 690.64 557.18 651.37 753.28 509.77 618.66 429.87 1070.74 1008.83 1003.14 736.86 393.01 624.77 1092.73 558.20 682.14 607.68 191.50 366.16 425.34 881.60
1024.58 439.94 514.44 1061.78 763.48 625.83 8.17 364.23 1151.90 230.76 566.64 453.78 886.05 1122.36 1036.03 272.37 842.92 1085.70 421.27 393.29 1022.95 809.44 1038.84 610.42 867.62 390.76 988.53 1147.24 219.06 943.87 830.36 901.86 176.09 935.85 968.47 440.50 639.50 729.00 458.72 275.52 427.70 377.51 195.39 863.68 0.00 936.19 928.30 789.82 775.29 864.59 1133.89 1075.41 261.75 110.40 580.11 957.97 562.85 981.10 558.88 243.01 347.39 613.69 964.08 974.81 326.70 759.47 1124.34 829.44 647.12 742.28 601.88
369.56 700.78 493.93 583.66 419.76 390.67 944.36 749.53 847.50 951.06 843.18 776.59 505.06 664.62 112.05 684.99 499.48 370.00 608.72 902.91 499.25 421.82 211.85 995.83 848.50 699.76 711.56 826.52 717.13 152.80 525.96 246.74 830.38 877.40 261.02 843.89 916.04 235.57 572.91 858.59 703.40 921.51 950.86 890.65 936.19 0.00 220.30 454.79 786.15 560.19 637.98 651.99 972.95 928.10 596.00 398.35 675.90 180.09 559.67 928.29 588.80 983.85 540.89 263.80 980.54 336.75 811.39 754.73 1054.05 465.31 416.41
161.19 647.75 506.49 803.96 199.46 405.94 936.47 633.34 987.42 857.66 1045.77 686.89 699.10 819.89 297.29 732.27 640.29 225.66 555.69 786.72 672.62 590.29 432.15 1216.13 1068.80 610.61 921.83 888.83 709.24 326.17 745.55 26.44 877.66 1017.82 82.32 864.72 1089.19 238.21 582.86 772.86 674.98 962.97 953.50 1084.81 928.30 220.30 0.00 675.09 1006.45 756.95 779.46 751.64 890.50 917.06 798.59 617.94 878.49 163.25 468.52 812.10 580.91 1106.39 699.49 52.65 988.29 497.90 913.73 946.98 1146.65 685.61 419.05
756.39 752.38 522.86 342.98 732.57 634.25 797.99 885.20 423.97 834.48 516.01 836.43 191.17 385.50 432.88 650.39 77.52 756.83 629.30 966.16 381.19 177.70 454.75 826.62 518.00 724.35 310.65 449.42 716.01 487.43 117.79 701.53 672.85 469.95 647.85 474.76 563.98 652.28 482.51 909.53 795.48 563.80 730.76 553.80 789.82 454.79 675.09 0.00 481.73 136.66 345.07 362.84 679.56 769.21 268.83 245.40 306.77 566.92 618.06 880.04 613.76 656.68 251.51 692.52 651.83 237.16 461.32 412.36 726.88 160.89 585.89
1097.34 881.76 829.58 642.97 1067.94 851.29 780.89 988.54 402.81 905.06 440.58 963.90 486.77 704.83 898.20 739.59 409.80 1153.02 698.03 1034.89 711.12 494.59 757.90 500.85 193.76 793.08 279.78 489.73 738.11 822.80 447.72 1032.89 612.97 160.56 988.11 392.64 367.72 826.89 709.91 904.73 864.21 490.89 619.39 109.61 775.29 786.15 1006.45 481.73 0.00 437.07 701.85 640.70 546.38 697.73 501.27 575.33 421.37 966.24 919.71 947.82 728.36 350.46 532.04 1040.87 448.59 572.53 579.44 118.12 325.85 320.84 802.36
805.26 867.10 647.64 206.32 833.65 684.35 872.76 1001.88 287.31 971.14 630.73 931.59 138.00 304.36 565.07 787.05 175.51 805.70 698.42 1026.92 297.63 275.69 507.21 784.88 424.47 793.47 227.09 365.86 835.01 430.78 34.23 783.39 726.83 333.29 696.72 548.84 585.08 706.11 537.48 885.89 864.60 585.52 760.82 510.45 864.59 560.19 756.95 136.66 437.07 0.00 289.03 279.28 687.81 769.13 383.55 161.84 443.43 615.79 713.22 1006.78 730.44 560.67 167.95 787.15 727.25 338.24 377.76 318.95 609.88 137.25 635.42
827.79 1039.53 826.70 82.71 929.76 809.99 1127.83 1167.00 463.92 1179.55 779.63 1121.16 258.44 40.43 536.75 977.80 403.51 795.04 853.98 1190.84 138.73 450.84 464.52 1073.91 683.92 949.03 453.95 381.86 976.30 485.18 303.53 793.13 959.91 622.32 697.14 817.46 852.49 789.46 806.78 1159.32 1020.16 874.55 1030.12 690.64 1133.89 637.98 779.46 345.07 701.85 289.03 0.00 133.46 957.11 1056.25 613.90 242.84 651.84 638.32 959.14 1190.63 915.11 849.70 169.81 784.18 996.90 516.66 275.64 607.98 898.91 424.37 815.88
877.44 981.05 770.54 98.96 948.82 806.33 1069.35 1150.24 346.99 1152.81 840.91 1049.25 214.10 107.03 633.48 968.72 345.03 861.64 837.22 1174.08 272.19 406.50 551.21 1012.41 590.97 932.27 360.92 248.40 931.96 499.19 245.05 778.08 901.43 580.97 728.50 758.98 792.39 831.07 676.28 1103.44 948.25 857.23 971.64 557.18 1075.41 651.99 751.64 362.84 640.70 279.28 133.46 0.00 898.63 999.15 593.73 292.27 625.10 687.97 900.66 1198.37 899.96 768.01 111.33 804.29 967.78 472.32 162.09 586.71 889.16 371.93 757.40
1036.88 473.69 566.33 894.13 901.99 658.36 263.64 493.55 949.19 434.66 308.70 533.03 757.35 992.17 1013.95 287.96 651.70 965.82 492.79 561.66 916.98 667.12 1026.23 524.46 641.13 525.28 801.74 959.49 353.58 918.51 653.58 864.06 142.57 706.94 960.05 214.01 381.56 788.30 476.12 420.63 467.84 115.76 73.01 651.37 261.75 972.95 890.50 679.56 546.38 687.81 957.11 898.63 0.00 151.35 441.27 781.19 372.79 998.50 632.93 477.42 439.32 430.78 787.30 943.15 97.79 746.86 997.11 568.68 559.74 687.57 639.93
972.95 355.43 521.48 973.54 803.72 575.77 118.57 342.20 1055.42 302.85 460.05 444.56 797.81 1034.12 1037.63 243.11 742.51 1037.42 436.12 410.31 1012.21 699.04 1010.91 661.36 757.22 395.97 878.13 1064.84 285.42 981.81 758.76 919.45 97.72 855.64 893.43 330.10 532.91 707.68 493.04 269.28 397.89 267.11 84.99 753.28 110.40 928.10 917.06 769.21 697.73 769.13 1056.25 999.15 151.35 0.00 501.74 876.39 462.44 974.36 534.66 348.41 394.47 571.77 887.82 864.41 249.14 731.54 1013.94 720.03 657.08 631.88 526.84
845.55 483.55 399.01 587.96 665.80 434.77 571.94 658.33 670.86 607.61 247.18 572.68 412.23 648.54 690.15 423.52 346.35 886.08 413.47 703.85 624.69 373.07 584.96 557.79 514.29 508.52 492.55 679.26 474.29 555.86 373.18 808.95 404.02 425.25 721.17 247.89 320.04 597.18 252.53 652.64 538.97 325.51 514.28 509.77 580.11 596.00 798.59 268.83 501.27 383.55 613.90 593.73 441.27 501.74 0.00 488.87 79.90 744.64 543.57 653.17 386.89 387.85 506.90 780.21 424.96 305.59 716.71 405.78 458.05 246.30 416.34
694.68 853.12 613.03 209.34 817.40 567.15 966.14 967.30 449.15 941.66 736.05 928.51 106.71 283.27 463.71 757.57 260.26 700.53 744.58 1073.42 135.82 299.11 349.70 946.72 527.82 767.20 320.47 428.17 823.19 364.56 127.61 631.61 806.98 495.13 535.62 581.94 678.46 600.49 630.86 984.31 860.87 670.98 854.20 618.66 957.97 398.35 617.94 245.40 575.33 161.84 242.84 292.27 781.19 876.39 488.87 0.00 413.95 534.01 742.82 987.22 695.86 722.51 180.94 658.27 759.01 364.93 451.44 480.79 771.72 254.49 616.08
897.08 499.58 448.53 594.70 745.70 514.67 554.68 578.43 671.73 527.71 327.08 588.71 418.97 655.28 739.65 343.62 280.07 965.98 369.62 703.44 549.77 294.33 664.86 634.02 507.43 443.26 473.24 683.19 409.24 635.76 416.52 861.46 393.03 505.15 801.07 167.99 354.65 677.08 332.43 641.08 504.30 257.03 445.80 429.87 562.85 675.90 878.49 306.77 421.37 443.43 651.84 625.10 372.79 462.44 79.90 413.95 0.00 824.54 591.30 573.27 306.99 389.62 513.77 840.61 345.06 385.49 760.05 485.68 525.95 326.20 496.24
189.47 724.60 534.96 721.03 362.71 452.11 972.93 783.82 903.10 969.59 985.19 809.15 561.71 657.68 134.04 813.33 601.78 189.91 639.83 937.20 532.06 531.44 295.62 1175.92 987.03 734.88 779.68 883.17 830.34 188.78 586.82 176.92 917.70 949.08 80.93 839.65 1030.34 354.32 522.38 869.23 734.51 937.90 1059.35 1070.74 981.10 180.09 163.25 566.92 966.24 615.79 638.32 687.97 998.50 974.36 744.64 534.01 824.54 0.00 590.78 962.58 704.17 1081.32 664.48 171.36 1058.64 439.05 850.06 917.58 1145.26 645.40 447.52
629.71 179.23 144.56 900.26 269.06 175.67 567.05 313.43 1000.53 491.09 730.45 218.37 743.85 980.16 671.72 405.44 651.63 592.21 221.68 399.53 832.53 551.45 681.57 968.42 896.41 168.12 914.10 1052.87 339.82 639.98 721.24 493.64 490.36 968.82 509.85 583.06 803.31 324.10 291.04 348.32 208.84 654.14 619.65 1008.83 558.88 559.67 468.52 618.06 919.71 713.22 959.14 900.66 632.93 534.66 543.57 742.82 591.30 590.78 0.00 445.53 295.56 824.73 789.33 521.17 654.74 591.79 969.33 869.38 961.06 725.20 143.26
964.11 289.98 530.07 1107.92 714.59 612.00 234.84 178.76 1162.71 45.56 712.02 227.16 992.24 1205.96 987.85 270.38 853.34 939.21 424.10 150.28 1123.04 867.60 1020.92 820.13 992.43 329.05 1046.51 1256.46 336.00 911.44 989.79 785.66 334.85 1019.97 881.65 617.33 763.22 743.91 522.62 120.89 276.08 519.08 433.40 1003.14 243.01 928.29 812.10 880.04 947.82 1006.78 1190.63 1198.37 477.42 348.41 653.17 987.22 573.27 962.58 445.53 0.00 385.35 765.41 1087.04 864.75 499.23 823.37 1204.28 894.96 857.88 869.53 563.07
736.28 192.59 203.96 845.15 546.90 315.12 355.56 271.44 978.72 417.38 582.65 281.72 708.48 941.75 700.85 151.36 554.93 738.31 73.88 396.45 776.38 525.48 739.08 771.48 693.79 136.27 780.23 990.18 128.33 713.49 723.51 554.47 296.75 792.21 632.78 473.80 655.51 381.61 234.82 334.09 197.31 400.06 426.50 736.86 347.39 588.80 580.91 613.76 728.36 730.44 915.11 899.96 439.32 394.47 386.89 695.86 306.99 704.17 295.56 385.35 0.00 634.24 788.63 627.74 446.91 535.57 1059.13 696.66 749.94 633.19 266.19
1221.77 730.79 705.42 766.99 1003.46 741.18 605.52 821.22 753.27 719.85 140.67 819.92 698.67 865.03 1071.37 582.31 620.87 1254.25 649.44 822.73 858.30 683.95 972.81 244.40 394.79 661.73 599.46 785.31 555.68 937.08 594.90 1115.36 501.72 493.21 1089.34 241.67 134.41 903.59 558.94 681.70 755.40 333.61 503.79 393.01 613.69 983.85 1106.39 656.68 350.46 560.67 849.70 768.01 430.78 571.77 387.85 722.51 389.62 1081.32 824.73 765.41 634.24 0.00 728.62 1143.02 337.34 693.44 912.09 361.39 136.33 634.15 722.75
776.23 869.72 659.21 110.93 856.40 695.00 958.02 1045.28 446.86 1041.48 751.13 958.85 102.77 208.97 567.41 857.39 233.70 782.08 746.77 1083.63 209.40 295.17 439.88 952.83 533.93 841.82 326.58 359.73 820.63 475.70 133.72 713.16 790.10 501.24 617.17 647.65 684.57 769.75 636.97 1009.24 912.95 745.90 860.31 624.77 964.08 540.89 699.49 251.51 532.04 167.95 169.81 111.33 787.30 887.82 506.90 180.94 513.77 664.48 789.33 1087.04 788.63 728.62 0.00 739.82 856.45 360.99 270.50 486.90 777.83 260.60 646.07
108.54 700.40 507.71 847.46 252.11 458.59 982.98 685.99 1040.07 857.45 1027.39 739.54 733.07 810.82 259.64 779.10 646.46 173.01 608.34 839.37 645.45 546.28 427.23 1259.63 1087.68 663.26 886.18 941.48 756.07 360.14 758.18 79.09 924.49 989.26 122.65 901.35 1100.25 246.13 584.08 825.51 707.26 999.60 949.40 1092.73 974.81 263.80 52.65 692.52 1040.87 787.15 784.18 804.29 943.15 864.41 780.21 658.27 840.61 171.36 521.17 864.75 627.74 1143.02 739.82 0.00 949.58 538.23 966.38 954.90 1186.98 720.03 420.27
1058.12 545.07 573.92 933.57 923.80 685.31 332.30 544.53 851.40 456.47 239.94 590.65 761.78 998.09 924.60 295.55 625.13 1063.61 520.79 597.17 894.83 639.39 1009.92 426.67 590.54 506.07 703.95 913.90 334.37 944.48 722.73 961.85 164.38 609.15 1027.95 239.98 312.80 779.57 557.25 456.14 489.65 141.73 170.80 558.20 326.70 980.54 988.29 651.83 448.59 727.25 996.90 967.78 97.79 249.14 424.96 759.01 345.06 1058.64 654.74 499.23 446.91 337.34 856.45 949.58 0.00 730.55 958.87 502.74 461.95 595.85 661.36
539.96 665.06 447.23 433.95 495.41 482.99 751.30 747.26 624.97 810.11 552.77 635.04 258.22 494.53 384.56 686.93 162.73 580.49 461.69 798.55 417.17 92.39 279.37 863.38 585.75 556.74 426.48 579.68 663.90 250.27 336.89 511.57 633.82 540.65 415.58 553.48 591.29 542.14 300.75 773.85 627.87 631.10 807.87 682.14 759.47 336.75 497.90 237.16 572.53 338.24 516.66 472.32 746.86 731.54 305.59 364.93 385.49 439.05 591.79 823.37 535.57 693.44 360.99 538.23 730.55 0.00 631.49 497.57 763.64 266.14 464.56
1007.17 1140.22 917.23 257.32 1084.93 965.50 1132.51 1276.28 274.55 1199.97 867.90 1164.06 373.27 235.21 781.65 933.90 504.20 989.82 999.31 1336.17 400.58 565.67 614.06 1080.29 517.30 1094.36 342.25 217.28 999.52 661.28 343.53 940.17 1059.99 418.88 848.11 858.14 795.04 971.53 838.37 1219.05 1110.34 956.39 1070.12 607.68 1124.34 811.39 913.73 461.32 579.44 377.76 275.64 162.09 997.11 1013.94 716.71 451.44 760.05 850.06 969.33 1204.28 1059.13 912.09 270.50 966.38 958.87 631.49 0.00 580.32 905.29 470.41 916.57
1037.53 809.58 804.79 525.27 974.31 840.55 825.91 930.00 427.58 849.40 359.55 845.78 391.44 586.71 845.24 701.62 334.84 1065.47 770.54 1001.62 616.58 435.02 776.94 605.79 215.84 701.26 238.07 423.92 767.24 728.80 353.18 920.54 657.99 278.68 913.15 423.34 286.69 708.77 658.31 860.59 794.93 452.92 641.69 191.50 829.44 754.73 946.98 412.36 118.12 318.95 607.98 586.71 568.68 720.03 405.78 480.79 485.68 917.58 869.38 894.96 696.66 361.39 486.90 954.90 502.74 497.57 580.32 0.00 443.97 289.42 822.12
1223.39 867.12 841.75 816.20 1123.85 877.51 638.95 950.08 660.27 856.18 259.49 956.25 747.88 914.24 1130.68 687.23 673.09 1229.24 768.26 959.06 907.51 769.25 1043.01 175.00 464.37 793.31 605.63 758.86 621.61 996.39 644.11 1160.32 610.82 486.41 1064.33 378.00 186.63 1039.92 695.27 818.03 874.51 452.43 572.09 366.16 647.12 1054.05 1146.65 726.88 325.85 609.88 898.91 889.16 559.74 657.08 458.05 771.72 525.95 1145.26 961.06 857.88 749.94 136.33 777.83 1186.98 461.95 763.64 905.29 443.97 0.00 646.69 859.08
776.50 729.85 645.31 341.66 761.55 584.56 750.45 888.16 424.56 853.91 493.48 818.98 165.93 402.24 577.36 669.82 120.63 835.31 625.35 889.67 390.28 173.75 545.51 804.09 383.19 720.40 246.25 432.96 697.76 516.41 126.88 712.05 589.58 448.96 681.72 494.19 566.34 613.70 498.83 748.64 785.27 571.81 716.87 425.34 742.28 465.31 685.61 160.89 320.84 137.25 424.37 371.93 687.57 631.88 246.30 254.49 326.20 645.40 725.20 869.53 633.19 634.15 260.60 720.03 595.85 266.14 470.41 289.42 646.69 0.00 581.94
525.65 284.37 87.44 757.00 280.71 48.93 599.40 456.69 922.73 608.63 663.52 361.63 600.59 836.90 528.46 365.81 508.37 531.50 192.31 493.42 751.90 408.19 538.31 939.05 769.18 287.36 824.01 922.05 382.82 512.72 652.69 392.61 511.20 841.59 366.59 481.08 736.38 180.84 163.81 442.18 286.99 579.33 611.83 881.60 601.88 416.41 419.05 585.89 802.36 635.42 815.88 757.40 639.93 526.84 416.34 616.08 496.24 447.52 143.26 563.07 266.19 722.75 646.07 420.27 661.36 464.56 916.57 822.12 859.08 581.94 0.00
DEMAND_SECTION
1 0
2 1
3 1
4 1
5 1
6 1
7 1
8 1
9 1
10 1
11 1
12 1
13 1
14 1
15 1
16 1
17 1
18 1
19 1
20 1
21 1
22 1
23 1
24 1
25 1
26 1
27 1
28 1
29 1
30 1
31 1
32 1
33 1
34 1
35 1
36 1
37 1
38 1
39 1
40 1
41 1
42 1
43 1
44 1
45 1
46 1
47 1
48 1
49 1
50 1
51 1
52 1
53 1
54 1
55 1
56 1
57 1
58 1
59 1
60 1
61 1
62 1
63 1
64 1
65 1
66 1
67 1
68 1
69 1
70 1
71 1
DEPOT_SECTION
1
-1
EOF
