NAME: LDG70_2362_rain_70_0091
COMMENT: CVRP with travel times.  rootPos=2,custPos=3,demandType=6,avgRouteSizeIndex=2,weather=rain,lambda_cluster=1,lambda_random=4, T1=300,T2=700,beta=1, alpha(i,j) ~ U(0.8,1.2)
TYPE: CVRP
DIMENSION: 71
EDGE_WEIGHT_TYPE: EXPLICIT
EDGE_WEIGHT_FORMAT: FULL_MATRIX
CAPACITY: 328
NODE_COORD_SECTION
1 500 500
2 498 730
3 303 313
4 932 616
5 121 254
6 530 489
7 49 306
8 864 369
9 376 571
10 246 306
11 394 24
12 973 354
13 600 651
14 976 422
15 522 78
16 207 147
17 501 854
18 791 208
19 109 739
20 379 826
21 495 18
22 482 652
23 662 877
24 53 140
25 525 478
26 673 600
27 170 99
28 129 326
29 830 585
30 615 830
31 749 84
32 197 596
33 678 612
34 537 553
35 551 623
36 939 489
37 121 230
38 887 473
39 305 915
40 456 740
41 579 649
42 961 296
43 697 628
44 556 595
45 253 47
46 645 213
47 259 559
48 85 929
49 355 37
50 701 367
51 220 544
52 299 878
53 243 701
54 295 570
55 540 137
56 399 192
57 912 472
58 977 356
59 315 586
60 705 117
61 965 422
62 298 543
63 860 668
64 882 835
65 720 649
66 725 219
67 287 321
68 292 520
69 366 415
70 111 209
71 791 59
EDGE_WEIGHT_SECTION
0.00 269.86 372.70 488.18 595.79 45.57 610.77 492.21 263.47 453.37 577.73 562.19 204.49 580.39 490.52 514.88 427.50 549.61 596.26 425.80 589.93 227.92 493.62 700.87 70.66 256.21 608.21 483.30 439.50 413.60 579.69 355.11 273.44 82.16 166.90 462.05 615.92 467.43 557.22 250.93 212.89 610.44 297.77 128.28 655.44 449.58 284.54 759.59 589.62 288.52 331.14 534.17 475.89 233.76 533.33 499.19 517.03 545.45 268.89 593.38 556.48 279.71 540.95 598.14 297.21 496.21 400.62 275.00 306.59 623.96 679.43
269.86 0.00 574.07 545.58 684.10 263.59 659.89 612.06 268.06 592.64 776.13 657.52 162.22 653.94 708.54 718.43 157.64 684.69 401.10 237.51 751.98 81.24 258.89 764.78 274.21 266.69 811.76 547.21 387.65 171.13 795.22 461.79 277.52 187.70 159.17 557.74 690.56 511.45 368.93 62.64 130.74 723.47 275.46 186.61 833.81 588.74 342.70 571.30 807.64 423.88 389.30 345.88 337.48 297.23 689.23 604.73 557.83 640.78 332.36 713.01 630.03 343.84 383.36 510.83 297.81 601.75 544.28 325.31 401.75 728.34 832.20
372.70 574.07 0.00 793.55 224.96 376.70 313.75 752.15 378.74 80.67 408.86 787.01 562.96 702.72 385.72 240.56 680.32 571.64 572.69 611.69 485.13 495.50 757.35 362.70 401.79 542.17 333.89 193.43 704.61 745.20 557.54 314.06 524.94 414.23 519.32 738.44 243.22 750.97 666.13 511.43 549.03 835.97 562.88 486.75 454.65 389.99 327.62 795.93 347.29 587.70 307.34 671.78 447.31 276.84 402.35 222.93 681.48 770.27 311.97 489.19 726.63 283.29 751.54 790.78 606.03 488.70 29.79 251.43 257.39 251.26 618.46
488.18 545.58 793.55 0.00 958.93 533.75 928.97 360.95 636.18 870.58 914.98 338.40 446.32 227.95 794.21 974.53 605.05 498.19 934.74 713.21 772.54 568.91 532.44 1091.00 539.49 342.17 1067.86 901.90 210.87 438.79 661.70 798.02 338.55 406.02 507.42 255.02 995.57 208.56 822.78 580.71 445.33 392.01 300.61 478.54 1028.67 523.24 757.01 1011.87 943.67 449.41 800.40 821.58 785.39 721.51 697.12 823.05 198.06 321.66 695.64 667.04 251.86 674.90 162.22 398.63 315.76 575.09 763.76 706.76 655.52 957.79 687.35
595.79 684.10 224.96 958.93 0.00 574.62 207.06 863.88 516.98 192.40 407.29 952.39 743.65 927.68 524.95 209.66 831.14 728.84 649.90 777.07 549.73 703.80 922.73 199.37 549.53 756.25 220.22 136.89 856.42 855.23 692.49 475.19 749.90 617.93 706.06 903.82 49.42 867.45 817.39 662.25 752.05 992.48 714.69 667.44 340.98 601.74 449.19 941.17 460.95 683.68 402.59 754.98 608.44 427.66 427.86 420.38 846.86 935.65 462.79 605.33 951.59 470.73 916.92 956.16 772.14 700.45 195.17 476.39 413.90 66.16 734.60
45.57 263.59 376.70 533.75 574.62 0.00 565.20 537.78 309.04 439.62 532.16 588.28 228.39 545.83 444.95 469.31 414.01 524.81 576.36 459.61 544.36 182.35 496.48 655.30 25.09 254.00 562.64 437.73 403.24 402.83 534.12 379.67 271.23 127.73 190.80 507.62 592.18 435.49 591.03 284.74 213.48 622.66 295.56 152.18 678.92 404.01 297.91 788.52 544.05 334.09 344.51 567.98 453.03 279.33 487.76 496.84 495.70 591.02 261.74 547.81 555.79 256.55 526.77 606.65 323.14 502.72 383.44 288.41 261.02 610.21 633.86
610.77 659.89 313.75 928.97 207.06 565.20 0.00 911.71 434.71 240.23 520.71 975.56 641.68 1016.47 691.93 330.33 787.72 765.58 452.75 591.78 610.33 621.53 909.35 306.70 540.11 749.57 423.66 127.47 904.52 831.02 798.31 412.33 732.34 623.35 580.58 1037.20 207.44 990.91 762.56 597.25 652.54 1040.31 770.28 619.20 373.95 688.12 457.53 744.22 560.90 800.44 434.56 700.15 545.58 480.93 634.92 479.68 995.23 992.30 473.42 802.94 1040.38 481.17 1000.78 1051.12 782.95 786.83 343.54 449.31 461.73 186.83 898.05
492.21 612.06 752.15 360.95 863.88 537.78 911.71 0.00 539.02 671.48 680.55 138.82 512.80 162.57 503.95 863.55 620.51 203.67 935.50 751.57 603.36 604.90 707.28 919.33 562.64 435.95 770.22 784.24 371.41 692.87 367.18 758.58 432.33 574.37 551.45 219.85 858.99 232.38 909.64 674.70 481.32 204.77 394.39 533.08 826.34 375.34 694.10 1054.49 742.12 203.69 740.70 859.94 786.15 643.32 549.22 603.82 162.89 122.08 642.61 374.88 138.66 635.46 409.90 586.27 451.84 276.63 765.35 666.33 677.43 821.21 392.83
263.47 268.06 378.74 636.18 516.98 309.04 434.71 539.02 0.00 324.58 603.06 677.84 297.52 675.13 608.59 562.12 425.70 730.60 396.48 423.14 697.55 186.82 526.95 628.38 327.90 314.86 579.67 437.34 477.30 439.19 747.16 219.56 297.63 293.83 243.86 633.23 505.23 590.66 522.30 248.27 305.92 709.93 335.57 221.31 582.80 617.83 155.08 628.41 627.22 543.34 201.68 459.89 247.13 104.30 532.70 534.56 658.82 661.10 103.59 639.60 677.68 96.44 566.07 616.41 378.72 647.66 351.35 127.31 174.62 495.17 768.87
453.37 592.64 80.67 870.58 192.40 439.62 240.23 671.48 324.58 0.00 374.34 810.30 578.90 783.39 462.75 244.78 711.16 629.54 510.59 641.81 516.78 511.40 834.38 303.80 457.43 622.84 255.09 112.76 785.28 759.83 638.21 372.01 605.61 471.00 541.31 815.47 198.80 828.00 724.08 559.53 587.30 800.08 643.55 502.69 375.85 447.89 346.01 802.06 424.32 560.21 299.41 666.82 489.05 324.94 418.87 239.45 758.51 793.56 336.86 569.86 807.30 278.33 809.84 867.81 686.70 546.60 106.82 296.80 221.50 170.59 666.18
577.73 776.13 408.86 914.98 407.29 532.16 520.71 680.55 603.06 374.34 0.00 722.16 729.99 738.43 176.60 311.51 895.99 476.88 884.93 960.97 142.44 700.04 1010.44 416.63 507.07 762.48 267.52 456.17 905.54 934.99 386.35 663.34 779.71 588.43 687.56 808.95 456.71 766.51 1008.61 802.43 723.23 796.23 804.04 653.78 146.76 391.74 626.62 1145.21 61.57 597.87 624.42 1007.21 796.59 626.12 244.44 232.47 836.00 738.90 627.83 419.24 714.52 618.72 933.90 1088.63 787.22 490.45 379.07 650.58 503.18 455.01 486.09
562.19 657.52 787.01 338.40 952.39 588.28 975.56 138.82 677.84 810.30 722.16 0.00 565.54 119.92 576.33 957.56 759.33 276.05 915.85 809.50 675.74 576.28 752.21 1022.39 563.19 435.17 873.28 923.06 338.39 729.24 439.56 897.40 417.94 609.22 613.26 190.44 984.09 216.31 968.87 678.67 571.12 99.43 455.88 598.42 868.92 457.70 832.92 1143.29 783.73 328.79 879.52 917.87 850.43 782.14 622.08 737.27 214.77 16.74 781.43 380.88 96.01 774.28 410.04 556.86 499.03 358.99 757.22 805.15 678.01 946.31 449.19
204.49 162.22 562.96 446.32 743.65 228.39 641.68 512.80 297.52 578.90 729.99 565.54 0.00 493.44 673.34 667.14 319.86 635.61 520.89 301.73 713.01 139.03 318.69 812.65 222.92 151.36 663.54 606.76 311.00 272.93 662.80 478.86 168.59 148.73 61.10 395.52 738.28 349.23 472.51 224.86 31.48 609.68 169.27 76.21 769.44 598.45 398.63 635.52 772.44 324.62 445.23 410.10 371.54 347.85 591.16 565.76 399.47 582.28 312.72 666.00 469.53 367.23 385.01 467.89 141.27 558.14 592.75 359.24 357.40 700.50 669.98
580.39 653.94 702.72 227.95 927.68 545.83 1016.47 162.57 675.13 783.39 738.43 119.92 493.44 0.00 597.51 870.50 767.57 297.23 1014.33 795.17 696.92 620.03 704.44 1043.57 520.74 394.73 894.46 896.15 266.29 666.74 460.74 875.32 377.50 540.28 542.10 118.34 945.94 144.21 928.43 676.86 524.92 164.06 391.55 557.98 885.19 478.88 806.72 1043.53 800.00 356.76 853.32 889.04 864.98 777.28 636.55 766.39 105.41 136.66 742.15 468.44 23.91 752.20 352.42 467.05 447.70 380.17 732.51 784.06 695.53 953.98 486.39
490.52 708.54 385.72 794.21 524.95 444.95 691.93 503.95 608.59 462.75 176.60 576.33 673.34 597.51 0.00 488.11 858.96 300.28 900.23 809.80 99.41 627.30 935.78 592.26 470.04 618.74 443.15 575.51 728.94 847.78 324.56 640.20 635.97 572.68 627.15 715.85 574.37 589.91 980.58 729.69 658.43 675.76 660.30 597.13 322.39 270.97 630.09 1122.07 238.17 554.84 583.49 918.17 773.45 602.98 97.09 276.51 659.40 593.07 638.11 242.64 621.42 645.13 799.28 1030.91 717.06 353.90 355.93 613.27 455.17 591.11 333.61
514.88 718.43 240.56 974.53 209.66 469.31 330.33 863.55 562.12 244.78 311.51 957.56 667.14 870.50 488.11 0.00 833.14 681.51 713.70 792.67 422.42 637.19 938.33 242.44 444.22 723.31 93.33 251.42 872.55 857.38 675.60 469.56 739.58 577.69 624.71 919.42 181.28 904.80 821.63 692.41 675.54 989.01 745.59 590.93 214.09 499.86 443.56 951.43 251.29 761.02 396.96 834.26 602.81 457.82 448.49 391.36 862.46 951.25 492.95 643.66 894.41 504.43 932.52 971.76 742.27 598.57 210.77 491.99 460.51 143.50 772.93
427.50 157.64 680.32 605.05 831.14 414.01 787.72 620.51 425.70 711.16 895.99 759.33 319.86 767.57 858.96 833.14 0.00 824.18 555.04 263.95 909.62 238.88 259.91 922.42 388.92 424.33 913.15 704.85 501.28 166.26 937.24 497.81 435.16 345.34 316.81 710.20 804.41 625.91 289.13 190.47 288.38 825.28 432.51 344.25 921.72 746.38 454.26 534.27 957.56 581.52 500.86 323.23 412.05 403.48 846.87 762.37 695.40 742.59 438.61 870.65 743.66 446.43 459.38 495.45 430.39 759.39 650.53 478.29 489.66 842.19 989.84
549.61 684.69 571.64 498.19 728.84 524.81 765.58 203.67 730.60 629.54 476.88 276.05 635.61 297.23 300.28 681.51 824.18 0.00 953.97 879.85 399.69 680.01 801.29 746.34 499.72 484.25 597.23 742.30 428.66 787.21 163.51 757.28 467.02 496.99 602.08 415.57 742.85 289.63 897.34 747.33 609.60 375.48 504.96 569.51 622.67 181.65 716.27 1149.71 538.45 316.46 759.66 959.75 821.83 677.62 349.78 482.39 359.12 292.79 642.49 171.21 321.14 634.16 552.19 743.60 548.11 82.94 601.43 666.02 624.86 780.63 189.16
596.26 401.10 572.69 934.74 649.90 576.36 452.75 935.50 396.48 510.59 884.93 915.85 520.89 1014.33 900.23 713.70 555.04 953.97 0.00 291.09 880.53 423.50 659.99 730.58 551.27 625.36 765.68 513.01 775.86 572.23 940.17 271.26 642.59 588.69 501.43 916.41 660.19 870.12 430.35 463.74 489.41 1015.28 634.13 540.05 822.42 789.53 363.34 291.47 873.03 782.55 316.74 399.46 149.35 366.42 837.44 732.16 920.36 932.59 348.52 933.33 990.42 319.81 784.46 853.09 662.16 871.03 555.53 321.26 479.36 639.58 1020.91
425.80 237.51 611.69 713.21 777.07 459.61 591.78 751.57 423.14 641.81 960.97 809.50 301.73 795.17 809.80 792.67 263.95 879.85 291.09 0.00 909.21 277.26 428.15 898.48 470.23 406.20 884.02 684.59 556.70 395.15 964.53 411.67 423.43 405.05 342.21 697.25 799.22 650.96 170.78 174.87 270.25 886.47 414.97 354.86 965.73 818.78 445.59 333.79 899.40 563.39 484.27 108.37 278.42 409.46 872.27 801.60 700.45 826.24 422.01 908.17 771.26 363.48 620.87 696.74 439.82 796.91 581.90 395.34 553.44 778.61 971.71
589.93 751.98 485.13 772.54 549.73 544.36 610.33 603.36 697.55 516.78 142.44 675.74 713.01 696.92 99.41 422.42 909.62 399.69 880.53 909.21 0.00 726.71 983.41 559.07 569.45 708.89 409.96 598.61 828.35 889.76 386.67 739.61 691.66 564.28 669.37 756.06 599.15 689.32 1079.99 782.88 699.08 653.79 729.60 636.80 289.20 249.30 723.84 1172.00 171.13 455.43 682.90 1017.58 872.86 702.39 164.85 344.27 706.78 692.48 704.06 329.42 720.22 712.89 798.22 1034.63 756.20 348.01 455.34 681.03 522.93 565.92 433.02
227.92 81.24 495.50 568.91 703.80 182.35 621.53 604.90 186.82 511.40 700.04 576.28 139.03 620.03 627.30 637.19 238.88 680.01 423.50 277.26 726.71 0.00 340.13 810.85 192.97 259.53 730.52 593.28 410.03 252.37 716.47 399.05 273.25 183.02 77.93 534.55 692.05 488.26 408.68 102.39 123.58 642.23 268.30 116.55 752.57 571.89 320.52 611.05 726.40 416.72 355.13 385.63 274.15 291.12 607.99 533.21 538.50 559.54 290.41 708.33 596.12 275.93 464.60 429.59 256.55 597.07 525.29 244.07 320.51 681.99 809.01
493.62 258.89 757.35 532.44 922.73 496.48 909.35 707.28 526.95 834.38 1010.44 752.21 318.69 704.44 935.78 938.33 259.91 801.29 659.99 428.15 983.41 340.13 0.00 1023.67 512.05 317.04 982.23 806.10 454.62 93.65 964.80 626.67 334.27 422.01 359.17 610.55 947.62 592.84 388.98 312.10 287.21 820.68 312.89 365.34 1058.57 776.63 597.47 641.35 1040.53 580.35 554.07 451.39 596.37 546.69 880.90 839.04 661.00 768.95 581.82 920.43 680.53 593.30 450.00 521.53 336.90 813.87 727.56 584.20 646.53 973.78 956.92
700.87 764.78 362.70 1091.00 199.37 655.30 306.70 919.33 628.38 303.80 416.63 1022.39 812.65 1043.57 592.26 242.44 922.42 746.34 730.58 898.48 559.07 810.85 1023.67 0.00 630.21 859.03 149.11 217.57 994.62 935.91 802.98 563.43 876.26 684.98 752.88 1041.56 170.99 1035.97 915.50 806.51 819.78 1103.88 900.59 748.12 269.87 732.19 526.40 989.36 465.64 750.73 549.00 917.10 696.68 571.92 601.42 442.96 984.60 1039.13 607.05 701.03 1057.99 582.13 1054.66 1093.90 928.26 812.29 332.91 566.78 525.30 133.21 786.72
70.66 274.21 401.79 539.49 549.53 25.09 540.11 562.64 327.90 457.43 507.07 563.19 222.92 520.74 470.04 444.22 388.92 499.72 551.27 470.23 569.45 192.97 512.05 630.21 0.00 279.09 537.55 412.64 428.33 427.92 559.21 354.58 295.36 133.47 180.49 527.57 567.09 460.58 601.65 295.36 231.32 647.75 301.37 146.71 653.83 378.92 313.57 763.43 568.64 358.95 356.96 578.60 427.94 271.78 462.67 481.64 470.61 579.93 236.65 522.72 544.65 231.46 541.79 581.56 298.05 477.63 408.53 263.32 235.93 587.72 651.99
256.21 266.69 542.17 342.17 756.25 254.00 749.57 435.95 314.86 622.84 762.48 435.17 151.36 394.73 618.74 723.31 424.33 484.25 625.36 406.20 708.89 259.53 317.04 859.03 279.09 0.00 814.90 669.93 183.29 337.42 647.76 534.42 17.23 174.05 204.13 339.22 763.60 275.80 533.70 282.13 135.95 534.60 41.56 197.71 815.02 459.59 469.94 739.99 753.91 270.16 516.54 514.57 476.01 419.16 609.57 574.91 343.96 451.91 418.45 603.39 396.10 411.30 306.82 412.17 98.32 503.68 571.96 442.17 423.55 725.82 673.41
608.21 811.76 333.89 1067.86 220.22 562.64 423.66 770.22 579.67 255.09 267.52 873.28 663.54 894.46 443.15 93.33 913.15 597.23 765.68 884.02 409.96 730.52 982.23 149.11 537.55 814.90 0.00 324.07 965.88 936.47 653.87 562.89 832.13 671.02 718.04 990.07 269.64 886.86 914.96 785.74 695.02 972.71 832.81 684.26 120.76 593.19 536.89 1044.76 316.53 815.30 490.29 909.03 696.14 551.15 452.31 360.87 933.11 890.02 579.07 599.31 908.88 520.54 1011.83 1065.09 804.81 680.17 304.10 496.61 423.49 236.83 728.58
483.30 547.21 193.43 901.90 136.89 437.73 127.47 784.24 437.34 112.76 456.17 923.06 606.76 896.15 575.51 251.42 704.85 742.30 513.01 684.59 598.61 593.28 806.10 217.57 412.64 669.93 324.07 0.00 777.05 718.34 670.84 345.86 687.16 495.88 569.17 928.23 154.45 873.22 697.93 609.85 615.16 912.84 711.49 530.55 309.41 560.65 343.30 804.48 502.71 672.97 363.88 731.39 479.11 394.08 531.63 352.21 871.27 906.32 426.82 682.62 920.06 381.07 896.90 980.57 710.69 659.36 219.58 349.21 334.26 186.36 770.58
439.50 387.65 704.61 210.87 856.42 403.24 904.52 371.41 477.30 785.28 905.54 338.39 311.00 266.29 728.94 872.55 501.28 428.66 775.86 556.70 828.35 410.03 454.62 994.62 428.33 183.29 965.88 777.05 0.00 418.61 592.17 679.99 179.67 357.34 338.04 208.92 905.84 139.03 716.99 446.36 286.45 382.53 141.73 337.97 998.31 610.31 632.38 877.52 907.06 424.96 678.98 665.07 626.51 581.60 709.74 758.20 208.52 355.13 580.89 599.87 242.38 573.74 123.53 314.94 181.41 511.60 678.58 604.61 583.02 909.11 617.82
413.60 171.13 745.20 438.79 855.23 402.83 831.02 692.87 439.19 759.83 934.99 729.24 272.93 666.74 847.78 857.38 166.26 787.21 572.23 395.15 889.76 252.37 93.65 935.91 427.92 337.42 936.47 718.34 418.61 0.00 935.73 533.02 320.19 350.09 303.84 609.21 861.69 557.64 383.99 233.77 241.45 742.36 311.55 285.32 978.55 759.87 507.02 636.36 946.88 534.59 460.42 446.40 508.61 468.36 833.90 767.12 627.13 745.98 503.49 875.40 660.99 514.97 542.14 509.52 369.00 764.14 715.41 496.44 566.51 899.47 863.27
579.69 795.22 557.54 661.70 692.49 534.12 798.31 367.18 747.16 638.21 386.35 439.56 662.80 460.74 324.56 675.60 937.24 163.51 940.17 964.53 386.67 716.47 964.80 802.98 559.21 647.76 653.87 670.84 592.17 935.73 0.00 800.03 630.53 632.87 723.90 553.35 741.62 453.14 1010.85 818.86 694.28 441.89 668.47 686.30 533.11 206.48 759.02 1173.86 424.31 446.72 802.41 948.44 790.82 723.52 264.63 444.05 522.63 456.30 735.44 107.56 484.65 676.91 668.41 904.82 711.62 218.82 587.33 707.39 572.54 703.84 99.74
355.11 461.79 314.06 798.02 475.19 379.67 412.33 758.58 219.56 372.01 663.34 897.40 478.86 875.32 640.20 469.56 497.81 757.28 271.26 411.67 739.61 399.05 626.67 563.43 354.58 534.42 562.89 345.86 679.99 533.02 800.03 0.00 517.19 392.00 429.25 817.16 494.58 810.22 352.07 399.15 473.31 891.66 538.26 402.65 655.27 655.89 119.20 481.87 601.77 643.63 72.60 385.53 133.25 169.73 628.46 488.02 825.19 880.66 181.65 778.06 897.24 123.12 775.63 828.64 595.71 674.34 284.27 154.98 313.08 512.39 865.79
273.44 277.52 524.94 338.55 749.90 271.23 732.34 432.33 297.63 605.61 779.71 417.94 168.59 377.50 635.97 739.58 435.16 467.02 642.59 423.43 691.66 273.25 334.27 876.26 295.36 17.23 832.13 687.16 179.67 320.19 630.53 517.19 0.00 191.28 195.32 335.60 768.16 293.03 550.93 299.36 153.18 517.37 37.94 180.48 832.25 442.36 452.71 757.22 736.68 252.93 499.31 531.80 493.24 401.93 605.95 592.14 361.19 434.68 401.22 586.16 398.96 394.07 303.20 394.94 81.09 486.45 554.73 424.94 440.78 743.05 656.18
82.16 187.70 414.23 406.02 617.93 127.73 623.35 574.37 293.83 471.00 588.43 609.22 148.73 540.28 572.68 577.69 345.34 496.99 588.69 405.05 564.28 183.02 422.01 684.98 133.47 174.05 671.02 495.88 357.34 350.09 632.87 392.00 191.28 0.00 105.09 491.83 589.55 449.85 556.63 250.34 134.80 692.60 215.61 72.52 657.14 449.72 350.99 731.60 650.00 370.68 394.38 506.18 457.17 315.49 575.16 417.03 434.87 625.96 289.62 525.31 564.19 268.88 480.87 586.22 272.37 414.05 444.02 300.74 249.50 551.77 654.58
166.90 159.17 519.32 507.42 706.06 190.80 580.58 551.45 243.86 541.31 687.56 613.26 61.10 542.10 627.15 624.71 316.81 602.08 501.43 342.21 669.37 77.93 359.17 752.88 180.49 204.13 718.04 569.17 338.04 303.84 723.90 429.25 195.32 105.09 0.00 456.62 694.64 410.33 486.61 180.32 71.96 658.34 216.68 38.62 731.85 554.81 387.66 654.57 721.46 365.10 431.63 429.15 352.08 336.88 530.06 522.12 460.57 630.00 301.75 630.40 518.19 306.13 446.11 507.52 202.37 519.14 549.11 322.00 319.81 656.86 731.08
462.05 557.74 738.44 255.02 903.82 507.62 1037.20 219.85 633.23 815.47 808.95 190.44 395.52 118.34 715.85 919.42 710.20 415.57 916.41 697.25 756.06 534.55 610.55 1041.56 527.57 339.22 990.07 928.23 208.92 609.21 553.35 817.16 335.60 491.83 456.62 0.00 949.15 126.45 868.03 620.06 427.00 234.58 297.66 471.73 878.28 506.76 746.59 1031.04 870.52 308.31 793.19 805.62 767.06 695.81 680.64 787.67 56.96 207.18 708.24 519.31 94.43 729.67 303.97 366.42 355.11 408.05 708.65 737.05 622.53 925.83 568.94
615.92 690.56 243.22 995.57 49.42 592.18 207.44 858.99 505.23 198.80 456.71 984.09 738.28 945.94 574.37 181.28 804.41 742.85 660.19 799.22 599.15 692.05 947.62 170.99 567.09 763.60 269.64 154.45 905.84 861.69 741.62 494.58 768.16 589.55 694.64 949.15 0.00 916.87 846.65 635.52 724.35 998.88 764.11 662.07 356.77 561.20 430.97 891.75 432.57 655.30 421.98 804.40 627.83 400.93 477.28 438.25 892.19 967.35 436.06 654.75 969.85 447.54 962.25 1001.49 793.78 659.91 240.50 479.40 420.30 37.78 784.02
467.43 511.45 750.97 208.56 867.45 435.49 990.91 232.38 590.66 828.00 766.51 216.31 349.23 144.21 589.91 904.80 625.91 289.63 870.12 650.96 689.32 488.26 592.84 1035.97 460.58 275.80 886.86 873.22 139.03 557.64 453.14 810.22 293.03 449.85 410.33 126.45 916.87 0.00 807.24 557.93 380.71 260.45 280.76 425.44 901.33 471.28 733.40 970.25 828.08 297.41 780.00 744.83 720.77 694.96 639.41 661.22 69.49 233.05 661.95 460.84 120.30 687.10 262.56 453.97 320.44 372.57 721.18 708.47 696.51 905.95 478.79
557.22 368.93 666.13 822.78 817.39 591.03 762.56 909.64 522.30 724.08 1008.61 968.87 472.51 928.43 980.58 821.63 289.13 897.34 430.35 170.78 1079.99 408.68 388.98 915.50 601.65 533.70 914.96 697.93 716.99 383.99 1010.85 352.07 550.93 556.63 486.61 868.03 846.65 807.24 0.00 306.29 441.03 1050.91 575.26 525.23 1007.34 913.11 453.11 252.37 953.84 734.17 424.67 62.41 281.00 497.51 955.56 776.14 871.23 968.22 488.00 903.29 927.54 450.90 748.51 784.58 571.24 814.40 636.34 482.29 640.39 846.30 1032.56
250.93 62.64 511.43 580.71 662.25 284.74 597.25 674.70 248.27 559.53 802.43 678.67 224.86 676.86 729.69 692.41 190.47 747.33 463.74 174.87 782.88 102.39 312.10 806.51 295.36 282.13 785.74 609.85 446.36 233.77 818.86 399.15 299.36 250.34 180.32 620.06 635.52 557.93 306.29 0.00 193.38 744.62 322.40 218.94 831.07 651.38 285.37 508.66 799.14 486.52 331.97 283.24 352.04 234.59 710.38 635.60 620.47 661.93 269.72 775.65 678.23 281.20 446.00 521.87 264.95 664.39 481.64 313.06 422.89 673.30 894.84
212.89 130.74 549.03 445.33 752.05 213.48 652.54 481.32 305.92 587.30 723.23 571.12 31.48 524.92 658.43 675.54 288.38 609.60 489.41 270.25 699.08 123.58 287.21 819.78 231.32 135.95 695.02 615.16 286.45 241.45 694.28 473.31 153.18 134.80 71.96 427.00 724.35 380.71 441.03 193.38 0.00 616.22 144.72 84.61 777.84 584.52 430.11 604.04 757.53 293.14 476.71 378.62 340.06 379.33 602.02 551.83 430.95 587.86 344.20 637.92 501.01 378.09 409.98 499.37 172.75 526.66 578.82 367.65 365.80 686.57 701.46
610.44 723.47 835.97 392.01 992.48 622.66 1040.31 204.77 709.93 800.08 796.23 99.43 609.68 164.06 675.76 989.01 825.28 375.48 1015.28 886.47 653.79 642.23 820.68 1103.88 647.75 534.60 972.71 912.84 382.53 742.36 441.89 891.66 517.37 692.60 658.34 234.58 998.88 260.45 1050.91 744.62 616.22 0.00 507.79 677.78 942.99 489.15 779.49 1207.59 824.92 394.74 826.09 994.84 916.38 799.12 663.03 776.49 269.47 82.69 763.99 479.03 140.15 768.54 469.36 601.00 563.94 390.44 813.32 736.68 578.58 970.67 349.76
297.77 275.46 562.88 300.61 714.69 295.56 770.28 394.39 335.57 643.55 804.04 455.88 169.27 391.55 660.30 745.59 432.51 504.96 634.13 414.97 729.60 268.30 312.89 900.59 301.37 41.56 832.81 711.49 141.73 311.55 668.47 538.26 37.94 215.61 216.68 297.66 764.11 280.76 575.26 322.40 144.72 507.79 0.00 196.24 856.58 480.30 490.65 745.84 774.62 290.87 537.25 523.34 484.78 439.87 568.01 616.47 350.25 472.62 439.16 624.10 367.64 432.01 265.26 384.07 57.45 524.39 592.67 462.88 465.11 767.38 694.12
128.28 186.61 486.75 478.54 667.44 152.18 619.20 533.08 221.31 502.69 653.78 598.42 76.21 557.98 597.13 590.93 344.25 569.51 540.05 354.86 636.80 116.55 365.34 748.12 146.71 197.71 684.26 530.55 337.97 285.32 686.30 402.65 180.48 72.52 38.62 471.73 662.07 425.44 525.23 218.94 84.61 677.78 196.24 0.00 693.23 522.24 349.04 688.65 696.23 377.75 395.64 463.23 390.70 298.26 568.68 489.55 475.68 615.16 263.13 592.05 545.74 317.75 442.05 538.65 212.03 486.57 516.54 348.62 281.19 624.29 721.32
655.44 833.81 454.65 1028.67 340.98 678.92 373.95 826.34 582.80 375.85 146.76 868.92 769.44 885.19 322.39 214.09 921.72 622.67 822.42 965.73 289.20 752.57 1058.57 269.87 653.83 815.02 120.76 309.41 998.31 978.55 533.11 655.27 832.25 657.14 731.85 878.28 356.77 901.33 1007.34 831.07 777.84 942.99 856.58 693.23 0.00 505.43 632.97 1113.89 195.77 744.63 611.05 1010.51 788.52 665.82 331.55 240.11 935.24 885.66 630.69 565.03 861.28 622.02 941.54 1177.95 905.26 604.14 424.86 590.16 432.06 318.99 632.85
449.58 588.74 389.99 523.24 601.74 404.01 688.12 375.34 617.83 447.89 391.74 457.70 598.45 478.88 270.97 499.86 746.38 181.65 789.53 818.78 249.30 571.89 776.63 732.19 378.92 459.59 593.19 560.65 610.31 759.87 206.48 655.89 442.36 449.72 554.81 506.76 561.20 471.28 913.11 651.38 584.52 489.15 480.30 522.24 505.43 0.00 577.36 1064.74 420.43 332.07 611.97 892.46 640.18 540.52 173.88 300.74 475.74 474.44 575.65 143.80 470.92 532.77 548.92 785.33 523.45 98.71 419.78 500.91 443.21 598.98 273.07
284.54 342.70 327.62 757.01 449.19 297.91 457.53 694.10 155.08 346.01 626.62 832.92 398.63 806.72 630.09 443.56 454.26 716.27 363.34 445.59 723.84 320.52 597.47 526.40 313.57 469.94 536.89 343.30 632.38 507.02 759.02 119.20 452.71 350.99 387.66 746.59 430.97 733.40 453.11 285.37 430.11 779.49 490.65 349.04 632.97 577.36 0.00 531.29 615.33 573.06 46.60 390.70 252.45 50.78 558.99 394.15 784.18 816.18 85.91 665.89 782.81 82.11 721.15 740.46 533.80 633.33 297.83 76.45 200.91 393.19 795.16
759.59 571.30 795.93 1011.87 941.17 788.52 744.22 1054.49 628.41 802.06 1145.21 1143.29 635.52 1043.53 1122.07 951.43 534.27 1149.71 291.47 333.79 1172.00 611.05 641.35 989.36 763.43 739.99 1044.76 804.48 877.52 636.36 1173.86 481.87 757.22 731.60 654.57 1031.04 891.75 970.25 252.37 508.66 604.04 1207.59 745.84 688.65 1113.89 1064.74 531.29 0.00 1083.64 897.18 554.47 225.42 440.82 574.28 1080.01 925.44 1034.24 1160.03 590.50 1066.30 1067.44 531.97 939.85 1022.73 696.11 1066.77 766.14 563.83 721.93 924.48 1195.57
589.62 807.64 347.29 943.67 460.95 544.05 560.90 742.12 627.22 424.32 61.57 783.73 772.44 800.00 238.17 251.29 957.56 538.45 873.03 899.40 171.13 726.40 1040.53 465.64 568.64 753.91 316.53 502.71 907.06 946.88 424.31 601.77 736.68 650.00 721.46 870.52 432.57 828.08 953.84 799.14 757.53 824.92 774.62 696.23 195.77 420.43 615.33 1083.64 0.00 626.56 595.05 945.64 735.02 564.55 306.01 294.04 843.63 800.47 599.68 453.64 776.09 557.15 969.35 1052.27 725.65 466.60 317.50 589.01 564.75 394.79 524.05
288.52 423.88 587.70 449.41 683.68 334.09 800.44 203.69 543.34 560.21 597.87 328.79 324.62 356.76 554.84 761.02 581.52 316.46 782.55 563.39 455.43 416.72 580.35 750.73 358.95 270.16 815.30 672.97 424.96 534.59 446.72 643.63 252.93 370.68 365.10 308.31 655.30 297.41 734.17 486.52 293.14 394.74 290.87 377.75 744.63 332.07 573.06 897.18 626.56 0.00 619.66 671.76 633.20 522.28 505.95 632.81 251.35 312.05 557.41 344.78 342.35 549.38 428.98 647.87 334.02 233.52 561.66 563.52 501.62 617.52 452.30
331.14 389.30 307.34 800.40 402.59 344.51 434.56 740.70 201.68 299.41 624.42 879.52 445.23 853.32 583.49 396.96 500.86 759.66 316.74 484.27 682.90 355.13 554.07 549.00 356.96 516.54 490.29 363.88 678.98 460.42 802.41 72.60 499.31 394.38 431.63 793.19 421.98 780.00 424.67 331.97 476.71 826.09 537.25 395.64 611.05 611.97 46.60 554.47 595.05 619.66 0.00 437.30 205.85 97.38 576.43 415.42 827.57 862.78 132.51 712.49 829.41 125.50 703.03 784.72 580.40 676.72 277.55 111.06 247.51 439.79 841.76
534.17 345.88 671.78 821.58 754.98 567.98 700.15 859.94 459.89 666.82 1007.21 917.87 410.10 889.04 918.17 834.26 323.23 959.75 399.46 108.37 1017.58 385.63 451.39 917.10 578.60 514.57 909.03 731.39 665.07 446.40 948.44 385.53 531.80 506.18 429.15 805.62 804.40 744.83 62.41 283.24 378.62 994.84 523.34 463.23 1010.51 892.46 390.70 225.42 945.64 671.76 437.30 0.00 252.28 435.10 936.53 784.85 808.82 934.61 447.02 840.88 865.13 388.49 729.24 805.11 548.19 876.81 654.24 420.35 578.45 783.89 970.15
475.89 337.48 447.31 785.39 608.44 453.03 545.58 786.15 247.13 489.05 796.59 850.43 371.54 864.98 773.45 602.81 412.05 821.83 149.35 278.42 872.86 274.15 596.37 696.68 427.94 476.01 696.14 479.11 626.51 508.61 790.82 133.25 493.24 457.17 352.08 767.06 627.83 720.77 281.00 352.04 340.06 916.38 484.78 390.70 788.52 640.18 252.45 440.82 735.02 633.20 205.85 252.28 0.00 242.13 758.76 621.27 771.01 833.69 207.00 783.98 841.07 210.72 720.84 703.74 512.81 738.89 417.52 242.58 400.68 621.59 871.56
233.76 297.23 276.84 721.51 427.66 279.33 480.93 643.32 104.30 324.94 626.12 782.14 347.85 777.28 602.98 457.82 403.48 677.62 366.42 409.46 702.39 291.12 546.69 571.92 271.78 419.16 551.15 394.08 581.60 468.36 723.52 169.73 401.93 315.49 336.88 695.81 400.93 694.96 497.51 234.59 379.33 799.12 439.87 298.26 665.82 540.52 50.78 574.28 564.55 522.28 97.38 435.10 242.13 0.00 591.84 444.93 742.39 765.40 35.13 684.32 753.37 46.61 670.37 689.68 483.02 594.68 247.05 78.47 233.76 438.71 789.28
533.33 689.23 402.35 697.12 427.86 487.76 634.92 549.22 532.70 418.87 244.44 622.08 591.16 636.55 97.09 448.49 846.87 349.78 837.44 872.27 164.85 607.99 880.90 601.42 462.67 609.57 452.31 531.63 709.74 833.90 264.63 628.46 605.95 575.16 530.06 680.64 477.28 639.41 955.56 710.38 602.02 663.03 568.01 568.68 331.55 173.88 558.99 1080.01 306.01 505.95 576.43 936.53 758.76 591.84 0.00 179.42 649.62 638.82 556.71 241.20 644.80 548.04 702.19 938.60 625.46 272.59 411.60 516.18 358.08 494.02 325.47
499.19 604.73 222.93 823.05 420.38 496.84 479.68 603.82 534.56 239.45 232.47 737.27 565.76 766.39 276.51 391.36 762.37 482.39 732.16 801.60 344.27 533.21 839.04 442.96 481.64 574.91 360.87 352.21 758.20 767.12 444.05 488.02 592.14 417.03 522.12 787.67 438.25 661.22 776.14 635.60 551.83 776.49 616.47 489.55 240.11 300.74 394.15 925.44 294.04 632.81 415.42 784.85 621.27 444.93 179.42 0.00 730.71 725.90 480.06 420.62 742.48 438.12 701.43 937.84 673.23 399.45 232.18 469.98 440.00 410.04 426.73
517.03 557.83 681.48 198.06 846.86 495.70 995.23 162.89 658.82 758.51 836.00 214.77 399.47 105.41 659.40 862.46 695.40 359.12 920.36 700.45 706.78 538.50 661.00 984.60 470.61 343.96 933.11 871.27 208.52 627.13 522.63 825.19 361.19 434.87 460.57 56.96 892.19 69.49 871.23 620.47 430.95 269.47 350.25 475.68 935.24 475.74 784.18 1034.24 843.63 251.35 827.57 808.82 771.01 742.39 649.62 730.71 0.00 231.51 707.26 488.29 129.32 702.07 247.01 423.38 389.93 377.03 651.69 733.93 679.49 868.87 548.28
545.45 640.78 770.27 321.66 935.65 591.02 992.30 122.08 661.10 793.56 738.90 16.74 582.28 136.66 593.07 951.25 742.59 292.79 932.59 826.24 692.48 559.54 768.95 1039.13 579.93 451.91 890.02 906.32 355.13 745.98 456.30 880.66 434.68 625.96 630.00 207.18 967.35 233.05 968.22 661.93 587.86 82.69 472.62 615.16 885.66 474.44 816.18 1160.03 800.47 312.05 862.78 934.61 833.69 765.40 638.82 725.90 231.51 0.00 764.69 397.62 112.75 757.54 393.30 573.60 515.77 375.73 740.48 788.41 661.27 929.57 432.45
268.89 332.36 311.97 695.64 462.79 261.74 473.42 642.61 103.59 336.86 627.83 781.43 312.72 742.15 638.11 492.95 438.61 642.49 348.52 422.01 704.06 290.41 581.82 607.05 236.65 418.45 579.07 426.82 580.89 503.49 735.44 181.65 401.22 289.62 301.75 708.24 436.06 661.95 488.00 269.72 344.20 763.99 439.16 263.13 630.69 575.65 85.91 590.50 599.68 557.41 132.51 447.02 207.00 35.13 556.71 480.06 707.26 764.69 0.00 663.61 718.24 58.53 669.66 654.55 453.99 559.55 282.18 90.39 198.63 473.84 792.88
593.38 713.01 489.19 667.04 605.33 547.81 802.94 374.88 639.60 569.86 419.24 380.88 666.00 468.44 242.64 643.66 870.65 171.21 933.33 908.17 329.42 708.33 920.43 701.03 522.72 603.39 599.31 682.62 599.87 875.40 107.56 778.06 586.16 525.31 630.40 519.31 654.75 460.84 903.29 775.65 637.92 479.03 624.10 592.05 565.03 143.80 665.89 1066.30 453.64 344.78 712.49 840.88 783.98 684.32 241.20 420.62 488.29 397.62 663.61 0.00 476.89 654.94 560.85 797.26 667.25 111.26 518.98 623.08 464.98 671.49 129.27
556.48 630.03 726.63 251.86 951.59 555.79 1040.38 138.66 677.68 807.30 714.52 96.01 469.53 23.91 621.42 894.41 743.66 321.14 990.42 771.26 720.22 596.12 680.53 1057.99 544.65 396.10 908.88 920.06 242.38 660.99 484.65 897.24 398.96 564.19 518.19 94.43 969.85 120.30 927.54 678.23 501.01 140.15 367.64 545.74 861.28 470.92 782.81 1067.44 776.09 342.35 829.41 865.13 841.07 753.37 644.80 742.48 129.32 112.75 718.24 476.89 0.00 774.12 329.21 460.85 423.79 404.08 756.42 804.99 716.96 959.87 474.51
279.71 343.84 283.29 674.90 470.73 256.55 481.17 635.46 96.44 278.33 618.72 774.28 367.23 752.20 645.13 504.43 446.43 634.16 319.81 363.48 712.89 275.93 593.30 582.13 231.46 411.30 520.54 381.07 573.74 514.97 676.91 123.12 394.07 268.88 306.13 729.67 447.54 687.10 450.90 281.20 378.09 768.54 432.01 317.75 622.02 532.77 82.11 531.97 557.15 549.38 125.50 388.49 210.72 46.61 548.04 438.12 702.07 757.54 58.53 654.94 774.12 0.00 662.51 705.52 475.16 551.22 293.66 31.86 189.96 448.92 742.67
540.95 383.36 751.54 162.22 916.92 526.77 1000.78 409.90 566.07 809.84 933.90 410.04 385.01 352.42 799.28 932.52 459.38 552.19 784.46 620.87 798.22 464.60 450.00 1054.66 541.79 306.82 1011.83 896.90 123.53 542.14 668.41 775.63 303.20 480.87 446.11 303.97 962.25 262.56 748.51 446.00 409.98 469.36 265.26 442.05 941.54 548.92 721.15 939.85 969.35 428.98 703.03 729.24 720.84 670.37 702.19 701.43 247.01 393.30 669.66 560.85 329.21 662.51 0.00 236.41 243.74 624.04 721.75 693.38 588.34 980.43 690.12
598.14 510.83 790.78 398.63 956.16 606.65 1051.12 586.27 616.41 867.81 1088.63 556.86 467.89 467.05 1030.91 971.76 495.45 743.60 853.09 696.74 1034.63 429.59 521.53 1093.90 581.56 412.17 1065.09 980.57 314.94 509.52 904.82 828.64 394.94 586.22 507.52 366.42 1001.49 453.97 784.58 521.87 499.37 601.00 384.07 538.65 1177.95 785.33 740.46 1022.73 1052.27 647.87 784.72 805.11 703.74 689.68 938.60 937.84 423.38 573.60 654.55 797.26 460.85 705.52 236.41 0.00 326.62 774.47 760.99 673.66 750.10 1022.32 926.53
297.21 297.81 606.03 315.76 772.14 323.14 782.95 451.84 378.72 686.70 787.22 499.03 141.27 447.70 717.06 742.27 430.39 548.11 662.16 439.82 756.20 256.55 336.90 928.26 298.05 98.32 804.81 710.69 181.41 369.00 711.62 595.71 81.09 272.37 202.37 355.11 793.78 320.44 571.24 264.95 172.75 563.94 57.45 212.03 905.26 523.45 533.80 696.11 725.65 334.02 580.40 548.19 512.81 483.02 625.46 673.23 389.93 515.77 453.99 667.25 423.79 475.16 243.74 326.62 0.00 567.54 635.82 500.51 493.22 824.14 737.27
496.21 601.75 488.70 575.09 700.45 502.72 786.83 276.63 647.66 546.60 490.45 358.99 558.14 380.17 353.90 598.57 759.39 82.94 871.03 796.91 348.01 597.07 813.87 812.29 477.63 503.68 680.17 659.36 511.60 764.14 218.82 674.34 486.45 414.05 519.14 408.05 659.91 372.57 814.40 664.39 526.66 390.44 524.39 486.57 604.14 98.71 633.33 1066.77 466.60 233.52 676.72 876.81 738.89 594.68 272.59 399.45 377.03 375.73 559.55 111.26 404.08 551.22 624.04 774.47 567.54 0.00 518.49 583.08 541.92 697.69 240.53
400.62 544.28 29.79 763.76 195.17 383.44 343.54 765.35 351.35 106.82 379.07 757.22 592.75 732.51 355.93 210.77 650.53 601.43 555.53 581.90 455.34 525.29 727.56 332.91 408.53 571.96 304.10 219.58 678.58 715.41 587.33 284.27 554.73 444.02 549.11 708.65 240.50 721.18 636.34 481.64 578.82 813.32 592.67 516.54 424.86 419.78 297.83 766.14 317.50 561.66 277.55 654.24 417.52 247.05 411.60 232.18 651.69 740.48 282.18 518.98 756.42 293.66 721.75 760.99 635.82 518.49 0.00 281.22 249.74 261.33 648.25
275.00 325.31 251.43 706.76 476.39 288.41 449.31 666.33 127.31 296.80 650.58 805.15 359.24 784.06 613.27 491.99 478.29 666.02 321.26 395.34 681.03 244.07 584.20 566.78 263.32 442.17 496.61 349.21 604.61 496.44 707.39 154.98 424.94 300.74 322.00 737.05 479.40 708.47 482.29 313.06 367.65 736.68 462.88 348.62 590.16 500.91 76.45 563.83 589.01 563.52 111.06 420.35 242.58 78.47 516.18 469.98 733.93 788.41 90.39 623.08 804.99 31.86 693.38 673.66 500.51 583.08 281.22 0.00 158.10 467.39 752.35
306.59 401.75 257.39 655.52 413.90 261.02 461.73 677.43 174.62 221.50 503.18 678.01 357.40 695.53 455.17 460.51 489.66 624.86 479.36 553.44 522.93 320.51 646.53 525.30 235.93 423.55 423.49 334.26 583.02 566.51 572.54 313.08 440.78 249.50 319.81 622.53 420.30 696.51 640.39 422.89 365.80 578.58 465.11 281.19 432.06 443.21 200.91 721.93 564.75 501.62 247.51 578.45 400.68 233.76 358.08 440.00 679.49 661.27 198.63 464.98 716.96 189.96 588.34 750.10 493.22 541.92 249.74 158.10 0.00 392.09 594.25
623.96 728.34 251.26 957.79 66.16 610.21 186.83 821.21 495.17 170.59 455.01 946.31 700.50 953.98 591.11 143.50 842.19 780.63 639.58 778.61 565.92 681.99 973.78 133.21 587.72 725.82 236.83 186.36 909.11 899.47 703.84 512.39 743.05 551.77 656.86 925.83 37.78 905.95 846.30 673.30 686.57 970.67 767.38 624.29 318.99 598.98 393.19 924.48 394.79 617.52 439.79 783.89 621.59 438.71 494.02 410.04 868.87 929.57 473.84 671.49 959.87 448.92 980.43 1022.32 824.14 697.69 261.33 467.39 392.09 0.00 800.76
679.43 832.20 618.46 687.35 734.60 633.86 898.05 392.83 768.87 666.18 486.09 449.19 669.98 486.39 333.61 772.93 989.84 189.16 1020.91 971.71 433.02 809.01 956.92 786.72 651.99 673.41 728.58 770.58 617.82 863.27 99.74 865.79 656.18 654.58 731.08 568.94 784.02 478.79 1032.56 894.84 701.46 349.76 694.12 721.32 632.85 273.07 795.16 1195.57 524.05 452.30 841.76 970.15 871.56 789.28 325.47 426.73 548.28 432.45 792.88 129.27 474.51 742.67 690.12 926.53 737.27 240.53 648.25 752.35 594.25 800.76 0.00
DEMAND_SECTION
1 0
2 4
3 58
4 87
5 92
6 48
7 95
8 29
9 44
10 61
11 77
12 50
13 99
14 30
15 2
16 95
17 59
18 30
19 10
20 15
21 57
22 18
23 92
24 60
25 43
26 72
27 60
28 92
29 82
30 89
31 16
32 14
33 77
34 70
35 87
36 17
37 94
38 30
39 50
40 20
41 85
42 39
43 56
44 59
45 76
46 2
47 36
48 5
49 64
50 11
51 33
52 4
53 34
54 30
55 46
56 62
57 12
58 27
59 5
60 20
61 41
62 45
63 97
64 65
65 61
66 14
67 85
68 26
69 73
70 80
71 47
DEPOT_SECTION
1
-1
EOF
