NAME: LDG85_1342_fog_85_0278
COMMENT: CVRP with travel times.  rootPos=1,custPos=3,demandType=4,avgRouteSizeIndex=2,weather=fog,lambda_cluster=1,lambda_random=4, T1=300,T2=700,beta=1, alpha(i,j) ~ U(0.8,1.2)
TYPE: CVRP
DIMENSION: 86
EDGE_WEIGHT_TYPE: EXPLICIT
EDGE_WEIGHT_FORMAT: FULL_MATRIX
CAPACITY: 325
NODE_COORD_SECTION
1 316 639
2 399 354
3 778 392
4 918 343
5 297 944
6 332 570
7 20 835
8 603 437
9 148 37
10 865 256
11 981 869
12 291 67
13 625 800
14 37 758
15 957 196
16 465 467
17 950 34
18 725 528
19 604 317
20 457 69
21 705 943
22 468 256
23 167 77
24 19 636
25 346 386
26 850 162
27 233 17
28 732 482
29 375 400
30 859 353
31 953 117
32 296 110
33 962 485
34 438 162
35 723 799
36 511 198
37 771 944
38 826 879
39 961 962
40 376 503
41 339 111
42 628 986
43 194 387
44 879 325
45 345 685
46 499 33
47 574 117
48 933 148
49 440 445
50 1 789
51 659 553
52 662 716
53 267 434
54 990 346
55 178 774
56 458 894
57 183 591
58 626 842
59 539 624
60 410 884
61 698 72
62 5 53
63 922 249
64 598 654
65 407 356
66 122 759
67 249 17
68 40 60
69 940 449
70 52 901
71 846 307
72 420 781
73 110 14
74 419 244
75 332 103
76 587 578
77 311 423
78 352 196
79 24 891
80 914 324
81 227 246
82 444 391
83 5 840
84 60 709
85 227 510
86 595 911
EDGE_WEIGHT_SECTION
0.00 356.57 766.02 803.90 458.51 94.85 532.24 501.93 787.90 824.25 868.51 679.11 530.89 528.53 944.17 319.10 1080.08 604.14 546.09 680.51 681.70 534.38 768.64 455.34 330.42 821.26 737.47 642.50 333.20 683.59 987.61 611.68 902.21 578.34 637.42 606.65 777.66 780.82 1008.16 202.96 642.57 554.05 382.35 739.85 136.70 751.80 792.64 932.47 267.86 527.34 536.55 574.18 250.74 855.90 361.81 397.13 210.46 596.93 429.79 334.04 853.16 753.92 852.72 445.29 366.65 334.44 784.20 789.68 815.93 543.78 739.49 304.51 810.17 490.49 663.94 410.58 265.23 566.01 568.09 786.39 525.98 308.40 574.99 465.57 215.99 547.32
356.57 0.00 552.24 572.25 766.78 261.72 754.26 301.47 548.31 671.66 885.27 390.44 575.34 600.50 717.95 198.06 838.44 433.25 262.32 323.94 809.40 185.36 506.71 546.55 109.06 615.84 492.12 481.77 83.39 531.00 792.64 401.48 661.58 221.77 711.58 294.16 869.50 862.57 954.62 185.97 351.78 823.16 301.55 587.26 414.36 395.23 467.70 741.53 173.03 681.79 451.38 626.93 213.31 703.31 578.56 725.08 424.61 639.30 438.54 690.61 535.85 640.28 661.18 459.02 18.82 615.51 443.57 689.21 718.23 779.07 586.90 577.21 588.81 154.16 371.98 381.69 174.25 209.44 766.28 596.51 323.67 102.98 731.80 605.09 318.74 721.51
766.02 552.24 0.00 196.44 902.13 680.83 1090.63 309.11 982.00 265.38 662.08 809.67 535.54 1091.36 326.48 483.18 522.50 210.06 289.92 551.31 583.08 604.35 940.83 1001.86 623.24 320.15 897.32 134.14 567.25 124.72 400.48 748.76 241.06 634.79 609.76 576.87 686.37 639.38 731.43 626.93 710.13 716.37 774.14 180.98 673.39 667.82 535.91 391.51 507.82 1059.89 229.47 491.25 668.62 275.45 919.57 802.39 837.37 563.75 464.69 770.94 576.03 1056.73 235.03 368.49 556.24 927.76 848.77 1003.09 327.34 1072.25 180.62 674.64 979.15 547.70 731.50 363.62 630.15 652.08 1081.98 172.18 802.07 465.20 1090.44 996.40 774.05 668.10
803.90 572.25 196.44 0.00 1096.94 733.90 1266.14 475.10 968.43 150.15 700.67 827.98 665.43 1154.71 188.76 603.80 384.78 384.52 486.36 669.27 779.52 576.27 936.06 1087.29 681.31 285.36 875.99 294.80 655.64 120.31 252.56 770.77 232.26 625.59 651.14 467.47 768.15 782.70 836.42 723.96 731.46 893.68 873.80 77.33 775.10 634.63 551.61 307.70 655.04 1236.00 425.91 552.63 754.05 148.25 1087.25 932.28 965.91 731.47 639.91 956.58 518.86 1113.45 157.62 554.13 573.03 1072.78 827.44 1066.67 145.98 1268.69 147.43 860.28 983.48 685.42 713.00 560.06 746.50 682.61 1242.64 24.26 850.83 628.77 1225.96 1171.62 859.48 817.14
458.51 766.78 902.13 1096.94 0.00 542.99 351.70 817.28 1185.34 1136.60 890.83 1012.16 520.24 478.75 1228.61 604.39 1336.63 762.83 889.14 1056.62 488.66 854.28 1128.24 572.04 727.86 1183.06 1138.08 802.14 711.05 1026.85 1188.93 1009.12 1045.25 988.55 578.59 948.02 627.15 678.84 829.32 580.81 1004.37 355.37 768.97 1044.66 466.05 1102.32 1112.34 1244.07 655.63 407.05 672.66 563.37 651.35 1151.29 318.45 350.52 439.49 473.78 648.57 247.75 1138.45 1116.57 1137.16 542.81 765.60 355.72 1117.25 1152.33 1071.14 356.00 1074.74 236.66 1207.61 887.93 1025.74 581.72 662.67 955.73 312.97 1074.31 888.63 670.20 394.45 538.38 578.64 369.43
94.85 261.72 680.83 733.90 542.99 0.00 532.24 407.08 693.05 754.06 884.45 584.26 568.10 549.18 856.80 224.25 1040.46 509.29 451.24 585.66 721.26 447.08 705.34 388.27 235.57 805.52 716.24 547.65 238.35 613.59 892.76 516.83 807.36 483.49 542.57 550.85 682.81 748.83 913.31 108.11 568.09 648.90 361.12 669.85 152.64 656.95 697.79 837.62 173.01 557.80 451.36 479.33 229.51 785.90 449.61 491.94 305.31 634.14 375.91 428.89 758.31 753.21 782.72 449.08 280.54 355.09 689.35 788.97 721.08 564.43 669.49 344.07 715.32 395.64 574.60 427.06 170.38 471.16 588.23 716.39 478.91 294.74 574.99 539.77 215.28 586.88
532.24 754.26 1090.63 1266.14 351.70 532.24 0.00 880.30 921.85 1225.95 1183.80 956.80 745.77 153.76 1211.93 664.91 1407.95 945.40 949.66 1078.20 823.27 883.64 838.43 305.38 706.91 1214.23 968.56 1016.40 762.90 1145.83 1339.76 975.90 1241.18 976.03 849.89 992.44 978.85 1016.24 1131.00 640.35 950.34 707.07 603.93 1202.09 495.48 1149.49 1184.32 1344.86 705.25 72.47 864.64 811.82 600.00 1318.14 275.74 580.88 458.91 790.79 735.51 572.46 1198.97 1032.50 1259.57 757.07 735.44 197.80 1017.11 1034.25 1253.32 113.46 1201.73 485.11 969.73 870.78 971.71 727.01 675.34 963.70 85.57 1248.63 804.56 701.37 42.75 203.80 494.57 721.13
501.93 301.47 309.11 475.10 817.28 407.08 880.30 0.00 796.59 523.74 695.06 691.91 458.94 864.33 558.07 215.39 754.09 243.04 228.22 612.00 642.27 448.07 713.17 795.35 410.53 582.50 793.59 180.30 356.27 383.08 678.24 661.62 443.81 523.24 502.62 429.45 734.92 672.36 764.41 359.14 621.30 755.70 603.02 422.82 554.13 656.46 514.46 623.10 266.63 899.12 152.87 414.65 477.14 555.39 732.06 645.79 679.02 524.98 336.63 694.34 506.58 941.75 466.62 291.89 282.65 717.18 745.04 908.99 530.09 926.52 404.99 596.95 844.47 417.99 635.81 235.56 440.54 510.91 949.96 475.89 587.50 306.52 837.55 807.63 549.72 629.33
787.90 548.31 982.00 968.43 1185.34 693.05 921.85 796.59 0.00 931.53 1433.58 215.24 1123.65 994.32 993.05 690.13 1019.15 981.56 692.08 438.45 1303.52 440.24 83.42 818.74 587.86 927.68 138.84 899.98 604.28 910.51 1025.66 233.24 1082.35 412.95 1192.40 500.96 1345.60 1292.20 1502.93 668.47 312.38 1317.67 470.16 961.43 845.69 455.54 585.84 986.89 693.92 913.03 949.46 1112.42 598.01 1082.82 950.46 1096.55 775.22 1074.62 897.14 1121.94 671.80 196.25 984.68 972.12 567.13 855.94 140.99 180.51 1114.41 1035.31 921.23 948.68 130.50 452.15 291.01 855.25 522.67 396.24 1007.42 992.69 326.08 588.34 964.60 985.52 636.07 1178.97
824.25 671.66 265.38 150.15 1136.60 754.06 1225.95 523.74 931.53 0.00 830.10 756.94 759.19 1231.18 165.28 632.29 361.30 433.31 489.74 656.18 848.46 563.18 863.58 1130.09 674.29 135.46 862.27 343.59 618.30 140.66 219.22 698.29 361.69 612.50 622.95 454.38 828.66 803.05 954.68 748.54 661.89 970.81 861.89 101.07 882.84 607.60 576.50 189.72 581.05 1244.77 494.85 654.26 796.85 281.88 1111.35 1013.49 988.02 771.45 656.47 1005.37 391.34 1047.83 84.92 602.92 690.48 1109.15 813.72 994.19 275.41 1293.69 127.41 899.94 911.00 672.33 640.52 555.40 721.51 727.88 1291.43 125.89 832.45 643.12 1183.20 1177.40 848.87 832.11
868.51 885.27 662.08 700.67 890.83 884.45 1183.80 695.06 1433.58 830.10 0.00 1226.48 438.03 1177.30 889.43 839.54 1002.00 452.02 796.49 1089.71 404.67 1014.47 1391.98 1244.45 933.93 965.56 1377.39 541.74 877.94 696.13 904.12 1231.71 640.97 1107.04 428.18 1047.25 263.68 266.31 166.56 983.29 1187.78 535.46 1146.87 752.39 731.81 1142.87 1000.87 848.98 788.30 1188.71 542.19 583.95 1015.26 794.90 1029.52 653.75 1078.97 504.07 748.65 730.74 1001.02 1464.33 858.29 639.45 904.09 986.00 1328.84 1410.69 554.69 1114.48 752.03 721.61 1327.38 1039.43 1209.15 670.41 981.15 1094.71 1157.51 724.93 1182.02 917.80 1191.88 1168.50 1084.50 539.05
679.11 390.44 809.67 827.98 1012.16 584.26 956.80 691.91 215.24 756.94 1226.48 0.00 965.78 906.73 828.10 529.02 863.81 774.46 526.27 258.36 1141.48 345.70 248.60 817.55 479.07 737.75 153.64 684.74 473.83 766.23 870.82 67.43 916.54 247.14 1001.81 361.95 1251.06 1164.42 1295.83 576.41 117.87 1127.93 394.74 795.62 736.90 358.40 394.97 893.90 517.35 943.10 795.70 946.61 489.22 938.54 799.91 982.13 572.67 1028.05 681.90 1013.15 574.66 373.10 841.86 791.10 409.26 875.08 105.09 380.38 945.03 999.04 726.72 834.26 285.56 285.38 116.42 701.24 413.88 181.00 956.01 839.35 268.32 422.53 999.55 811.77 578.31 1064.01
530.89 575.34 535.54 665.43 520.24 568.10 745.77 458.94 1123.65 759.19 438.03 965.78 0.00 742.06 854.19 479.04 1050.21 396.24 648.77 899.28 261.84 728.93 1044.41 806.42 633.04 855.69 1067.46 458.59 577.05 660.26 917.99 960.26 637.51 797.11 136.24 760.62 294.16 342.50 497.81 605.48 886.89 309.09 788.32 701.11 415.46 838.48 782.50 927.05 487.41 750.68 306.07 198.10 696.80 748.07 599.31 266.85 741.35 66.04 310.62 292.71 914.48 1105.99 770.57 201.42 556.52 547.97 1018.91 1052.35 613.31 743.37 716.16 283.58 1112.79 691.86 908.26 333.46 680.26 784.78 781.62 689.69 861.37 605.16 788.52 732.65 678.71 170.39
528.53 600.50 1091.36 1154.71 478.75 549.18 153.76 864.33 994.32 1231.18 1177.30 906.73 742.06 0.00 1280.81 687.20 1337.76 946.13 848.00 924.44 867.84 785.86 966.61 232.86 598.07 1189.94 1048.66 971.78 612.88 1131.50 1190.06 953.68 1254.05 822.27 878.30 894.66 1029.13 910.99 1127.29 653.53 920.33 834.12 613.71 1187.76 491.77 995.73 1030.56 1245.20 702.52 81.29 865.37 817.36 561.93 1302.96 288.61 609.71 350.07 808.10 626.67 568.75 1098.71 1027.15 1235.28 735.87 581.68 194.09 1011.82 993.45 1242.86 208.81 1187.40 490.65 1077.82 717.02 934.84 727.74 607.23 809.94 165.78 1178.97 799.21 677.08 131.30 94.96 489.22 733.46
944.17 717.95 326.48 188.76 1228.61 856.80 1211.93 558.07 993.05 165.28 889.43 828.10 854.19 1280.81 0.00 735.03 196.02 536.54 471.42 740.29 909.56 672.94 909.63 1152.83 807.69 232.91 969.84 460.62 751.70 260.58 127.83 783.33 354.11 633.25 788.23 575.17 928.03 859.53 958.27 841.65 802.98 1042.85 951.20 234.60 963.86 621.44 606.77 132.93 683.79 1278.55 555.95 741.39 819.59 200.18 1246.05 1087.81 1031.45 890.23 730.79 1097.42 405.18 1099.01 91.45 694.97 699.13 1211.89 933.19 1105.45 334.74 1325.39 245.53 1001.12 1033.59 563.79 781.61 690.10 789.05 668.17 1297.50 213.02 818.16 649.65 1254.68 1262.50 925.02 994.58
319.10 198.06 483.18 603.80 604.39 224.25 664.91 215.39 690.13 632.29 839.54 529.02 479.04 687.20 735.03 0.00 877.71 387.52 284.75 515.89 687.61 249.89 656.88 611.44 196.87 639.03 655.57 395.69 140.88 598.47 770.99 491.59 659.20 408.03 592.88 343.63 755.38 778.71 908.89 143.75 450.72 686.51 409.81 638.21 352.04 497.93 570.99 715.85 51.24 683.73 329.59 435.11 278.20 704.88 572.40 597.50 490.06 500.32 240.48 641.30 534.06 806.69 682.01 337.23 214.00 579.34 607.02 787.49 728.07 732.65 620.38 463.31 676.62 334.13 433.82 245.25 225.15 407.50 734.57 628.06 444.96 180.74 622.16 592.24 383.63 604.67
1080.08 838.44 522.50 384.78 1336.63 1040.46 1407.95 754.09 1019.15 361.30 1002.00 863.81 1050.21 1337.76 196.02 877.71 0.00 732.56 592.96 701.82 1105.58 703.17 989.18 1302.94 929.72 258.82 912.01 656.64 873.73 434.83 147.70 796.38 550.13 616.67 984.25 594.37 1124.05 1055.55 1154.29 963.68 813.53 1173.93 1001.88 429.07 1159.88 563.61 548.94 202.84 867.45 1400.58 751.97 904.37 969.70 396.20 1368.90 1247.84 1164.56 1086.25 926.81 1175.03 347.35 1180.35 287.47 890.99 857.26 1371.80 878.16 1126.71 530.76 1518.68 378.93 1099.97 1032.24 729.04 798.39 886.12 894.36 774.36 1493.52 376.00 952.46 771.68 1450.70 1393.41 1075.13 1168.88
604.14 433.25 210.06 384.52 762.83 509.29 945.40 243.04 981.56 433.31 452.02 774.46 396.24 946.13 536.54 387.52 732.56 0.00 344.47 637.69 520.79 562.45 939.96 896.48 481.91 530.21 925.37 89.72 425.92 307.36 610.54 803.31 389.63 655.02 487.80 595.23 562.97 429.32 521.37 531.27 735.76 654.08 694.85 332.24 537.78 700.88 558.88 601.57 336.28 920.59 90.17 351.95 563.24 479.67 774.34 663.09 698.07 462.28 319.46 631.64 549.00 1012.31 445.09 229.19 452.07 788.46 876.82 958.67 475.91 932.95 363.26 535.34 961.66 587.41 757.13 218.39 529.13 642.69 975.98 382.24 730.00 465.78 945.21 851.17 668.67 566.63
546.09 262.32 289.92 486.36 889.14 451.24 949.66 228.22 692.08 489.74 796.49 526.27 648.77 848.00 471.42 284.75 592.96 344.47 0.00 418.65 860.15 361.06 650.91 794.05 367.44 354.28 640.70 291.01 345.71 414.64 548.68 458.84 530.98 344.87 688.61 469.86 851.11 773.79 865.84 428.50 420.21 846.60 563.87 470.90 603.88 428.24 286.24 543.27 278.23 885.62 381.09 530.84 460.81 565.37 798.72 757.59 672.67 714.81 400.57 792.43 352.55 793.00 524.95 509.77 266.32 806.33 592.15 752.59 515.05 1015.67 470.54 730.95 709.10 257.78 441.58 463.78 432.63 362.16 1000.84 462.10 512.15 256.72 906.91 867.41 566.24 751.70
680.51 323.94 551.31 669.27 1056.62 585.66 1078.20 612.00 438.45 656.18 1089.71 258.36 899.28 924.44 740.29 515.89 701.82 637.69 418.65 0.00 1091.76 266.00 401.06 840.39 433.00 550.66 346.01 547.97 407.33 640.94 612.46 243.32 745.25 107.86 963.13 201.80 1171.36 1067.01 1159.06 509.91 164.18 1147.10 558.42 656.34 738.30 138.21 160.30 659.23 496.97 1005.73 700.49 909.29 532.90 806.18 815.63 1008.52 744.76 963.24 713.59 1010.67 354.47 592.86 676.67 741.38 342.76 910.15 297.46 539.22 686.67 1009.87 625.41 860.65 427.84 232.30 185.55 665.13 457.56 265.55 1052.90 693.53 463.53 386.42 1048.62 884.60 638.33 1027.90
681.70 809.40 583.08 779.52 488.66 721.26 823.27 642.27 1303.52 848.46 404.67 1141.48 261.84 867.84 909.56 687.61 1105.58 520.79 860.15 1091.76 0.00 897.43 1220.10 912.03 782.00 903.23 1230.06 609.71 726.01 707.80 983.56 1091.45 665.90 1031.17 270.02 909.58 161.29 192.97 391.79 754.44 1035.85 133.29 933.47 764.06 606.58 1073.46 931.46 974.59 636.37 881.87 489.40 398.89 801.86 819.83 772.00 341.33 801.41 238.73 459.58 417.22 1069.79 1330.93 818.11 350.38 799.13 791.88 1181.51 1314.19 752.18 709.81 763.70 377.19 1261.75 919.26 1033.68 482.42 803.20 960.48 752.84 755.26 1030.09 761.13 820.30 838.45 827.67 134.38
534.38 185.36 604.35 576.27 854.28 447.08 883.64 448.07 440.24 563.18 1014.47 345.70 728.93 785.86 672.94 249.89 703.17 562.45 361.06 266.00 897.43 0.00 502.28 616.88 246.88 607.59 499.34 628.37 265.24 572.68 607.28 337.85 808.53 158.14 830.26 108.80 905.36 991.77 1083.82 371.33 290.62 936.40 415.25 628.94 599.72 331.60 367.09 662.42 301.13 849.79 552.64 672.49 283.64 724.52 690.96 847.39 495.50 750.21 490.37 744.67 490.84 595.54 592.52 547.05 204.18 685.84 450.79 620.75 722.25 895.18 560.30 708.31 570.74 109.15 311.99 415.01 291.40 164.70 878.84 578.24 363.52 288.34 872.05 749.99 389.07 854.56
768.64 506.71 940.83 936.06 1128.24 705.34 838.43 713.17 83.42 863.58 1391.98 248.60 1044.41 966.61 909.63 656.88 989.18 939.96 650.91 401.06 1220.10 502.28 0.00 850.41 555.82 864.31 130.13 863.66 546.74 827.09 942.24 192.80 1041.91 372.51 1108.98 468.59 1338.57 1304.04 1461.33 597.23 244.43 1286.51 467.47 883.35 857.98 478.53 561.07 903.47 636.38 910.90 866.04 1071.98 597.17 999.40 867.04 1113.13 691.80 1108.37 887.67 1059.52 694.79 249.46 948.50 922.37 487.89 772.52 178.68 195.82 1081.09 951.89 853.28 965.26 131.30 393.13 223.06 822.17 539.25 386.77 924.00 929.89 242.66 547.90 881.18 946.91 552.65 1184.86
455.34 546.55 1001.86 1087.29 572.04 388.27 305.38 795.35 818.74 1130.09 1244.45 817.55 806.42 232.86 1152.83 611.44 1302.94 896.48 794.05 840.39 912.03 616.88 850.41 0.00 473.77 1126.70 819.97 935.92 511.79 1001.86 1224.16 755.03 1195.63 758.28 930.84 725.68 1071.08 1071.07 1191.65 496.38 806.29 906.44 464.85 1058.12 529.48 931.74 935.99 1206.60 560.20 232.91 838.55 861.55 333.24 1174.17 352.97 681.53 244.88 792.68 698.49 633.11 1015.53 805.58 1061.38 807.69 527.73 258.45 832.44 760.59 1109.35 398.19 1028.26 534.84 903.99 633.84 812.80 799.56 408.58 738.22 355.16 1104.66 694.02 613.84 294.48 166.78 384.03 777.65
330.42 109.06 623.24 681.31 727.86 235.57 706.91 410.53 587.86 674.29 933.93 479.07 633.04 598.07 807.69 196.87 929.72 481.91 367.44 433.00 782.00 246.88 555.82 473.77 0.00 670.90 597.51 571.63 55.99 640.06 854.16 411.64 770.64 330.83 700.50 355.68 918.38 832.67 1003.28 178.39 433.49 795.76 272.14 696.32 388.21 504.29 526.96 810.24 145.63 634.44 423.98 599.53 140.53 730.50 542.79 639.07 315.55 668.57 408.03 664.46 643.19 669.60 716.24 431.62 127.88 542.73 552.63 623.15 822.46 741.92 632.14 491.20 479.75 261.50 412.12 436.75 65.19 318.50 698.89 705.57 313.16 158.04 696.01 503.11 245.96 694.11
821.26 615.84 320.15 285.36 1183.06 805.52 1214.23 582.50 927.68 135.46 965.56 737.75 855.69 1189.94 232.91 639.03 258.82 530.21 354.28 550.66 903.23 607.59 864.31 1126.70 670.90 0.00 820.54 454.29 614.91 276.12 194.40 699.02 409.45 645.60 758.41 498.79 964.12 914.87 1013.61 704.86 619.88 1036.52 821.80 236.53 957.96 472.14 457.47 188.99 632.51 1141.76 549.62 789.47 793.46 255.52 1110.08 1111.87 986.45 857.22 754.85 1091.09 255.88 1048.56 220.38 688.64 608.26 1112.98 786.69 994.92 410.87 1313.82 227.07 987.09 911.73 612.06 641.25 683.77 718.12 716.44 1295.33 261.10 866.43 512.86 1203.33 1174.01 897.09 961.57
737.47 492.12 897.32 875.99 1138.08 716.24 968.56 793.59 138.84 862.27 1377.39 153.64 1067.46 1048.66 969.84 655.57 912.01 925.37 640.70 346.01 1230.06 499.34 130.13 819.97 597.51 820.54 0.00 838.38 575.51 872.40 958.47 217.12 1066.23 396.83 1155.45 408.52 1361.62 1318.06 1446.74 678.09 220.49 1281.57 548.38 899.44 868.88 348.40 447.00 945.93 619.97 1041.03 898.32 1047.59 486.73 1024.24 925.83 1059.27 698.59 1079.36 835.54 1071.51 564.66 308.71 892.24 879.68 510.94 888.93 48.55 286.29 1021.97 1082.02 829.34 911.40 172.91 439.02 221.75 820.86 562.07 334.64 1054.13 900.25 339.09 554.66 1011.31 953.70 592.16 1154.21
642.50 481.77 134.14 294.80 802.14 547.65 1016.40 180.30 899.98 343.59 541.74 684.74 458.59 971.78 460.62 395.69 656.64 89.72 291.01 547.97 609.71 628.37 863.66 935.92 571.63 454.29 838.38 0.00 515.64 258.86 523.89 734.28 299.91 635.88 475.62 588.19 652.69 519.04 611.09 539.44 655.14 739.33 783.32 242.52 539.25 686.18 577.25 525.65 426.00 950.73 152.52 410.00 652.96 409.59 846.10 702.13 760.42 496.28 345.11 661.78 638.72 922.59 369.17 259.33 462.95 818.60 789.83 868.95 386.19 990.87 293.80 565.48 918.81 548.79 676.51 290.15 618.85 653.17 947.84 295.59 767.80 486.82 1012.30 876.82 713.20 600.63
333.20 83.39 567.25 655.64 711.05 238.35 762.90 356.27 604.28 618.30 877.94 473.83 577.05 612.88 751.70 140.88 873.73 425.92 345.71 407.33 726.01 265.24 546.74 511.79 55.99 614.91 575.51 515.64 0.00 604.96 809.31 449.66 744.97 305.16 644.51 312.50 863.81 850.77 947.29 130.24 435.17 739.77 310.16 653.49 390.99 478.62 470.97 754.25 89.64 690.43 367.99 543.54 178.55 777.27 495.17 677.09 371.54 612.58 381.36 667.24 619.24 665.81 660.25 375.63 102.21 580.75 526.96 679.14 766.47 790.09 660.86 529.22 535.74 237.55 455.37 380.76 103.21 292.83 753.53 679.90 304.08 102.05 728.16 559.10 283.98 638.12
683.59 531.00 124.72 120.31 1026.85 613.59 1145.83 383.08 910.51 140.66 696.13 766.23 660.26 1131.50 260.58 598.47 434.83 307.36 414.64 640.94 707.80 572.68 827.09 1001.86 640.06 276.12 872.40 258.86 604.96 0.00 331.10 698.80 255.40 546.40 653.95 463.88 699.44 662.39 828.73 684.03 664.75 841.09 832.55 56.26 766.23 543.10 660.63 315.71 632.54 1171.39 354.19 615.97 744.31 172.31 1044.29 927.11 894.05 688.47 572.48 895.66 531.08 1070.13 169.13 493.21 549.82 968.68 823.85 1016.49 254.00 1178.02 55.90 799.36 949.06 670.84 686.12 488.34 675.58 704.09 1201.82 102.80 854.67 589.92 1188.58 1104.19 828.87 792.82
987.61 792.64 400.48 252.56 1188.93 892.76 1339.76 678.24 1025.66 219.22 904.12 870.82 917.99 1190.06 127.83 770.99 147.70 610.54 548.68 612.46 983.56 607.28 942.24 1224.16 854.16 194.40 958.47 523.89 809.31 331.10 0.00 855.78 438.17 716.51 842.17 673.60 1020.71 987.36 1042.33 868.59 776.64 1097.72 1016.20 281.37 1027.66 666.54 554.07 55.14 719.75 1271.35 629.95 756.67 890.92 328.01 1244.10 1100.14 1016.86 964.23 850.96 1027.33 450.28 1191.70 211.62 768.97 777.85 1247.85 909.92 1138.06 398.54 1398.87 321.61 952.27 1040.30 691.62 798.01 764.10 898.68 771.98 1355.84 228.30 945.99 707.26 1321.36 1271.97 996.35 1021.18
611.68 401.48 748.76 770.77 1009.12 516.83 975.90 661.62 233.24 698.29 1231.71 67.43 960.26 953.68 783.33 491.59 796.38 803.31 458.84 243.32 1091.45 337.85 192.80 755.03 411.64 699.02 217.12 734.28 449.66 698.80 855.78 0.00 849.11 179.71 1033.49 303.30 1199.45 1186.50 1324.68 528.18 79.14 1135.28 371.97 728.19 669.47 353.17 368.27 841.08 478.62 957.01 756.97 879.18 421.79 871.11 860.89 920.33 633.65 982.34 722.38 945.72 569.43 383.97 783.21 764.61 410.93 823.99 172.52 330.33 916.75 1033.33 687.99 772.46 250.26 275.59 57.77 633.81 346.45 221.48 996.77 781.26 300.79 355.10 1007.96 858.72 527.22 996.58
902.21 661.58 241.06 232.26 1045.25 807.36 1241.18 443.81 1082.35 361.69 640.97 916.54 637.51 1254.05 354.11 659.20 550.13 389.63 530.98 745.25 665.90 808.53 1041.91 1195.63 770.64 409.45 1066.23 299.91 744.97 255.40 438.17 849.11 0.00 669.40 536.67 699.73 733.13 599.48 604.16 802.95 866.26 799.19 957.44 309.59 839.16 798.50 726.17 383.03 710.44 1238.06 452.43 694.44 874.89 153.93 965.44 829.39 970.52 571.47 645.02 923.43 665.33 1222.50 290.55 559.24 680.40 1059.96 1021.63 1168.86 86.28 1248.80 311.30 865.39 1099.37 788.76 851.12 590.06 835.83 827.09 1247.75 256.52 985.25 706.26 1198.43 1176.73 831.37 675.82
578.34 221.77 634.79 625.59 988.55 483.49 976.03 523.24 412.95 612.50 1107.04 247.14 797.11 822.27 633.25 408.03 616.67 655.02 344.87 107.86 1031.17 158.14 372.51 758.28 330.83 645.60 396.83 635.88 305.16 546.40 716.51 179.71 669.40 0.00 933.35 158.12 1063.50 1035.35 1176.39 407.74 196.86 1044.93 523.32 548.48 636.13 173.46 268.16 661.37 394.80 903.56 604.61 830.63 425.04 718.71 800.33 923.58 636.90 861.07 648.51 902.81 389.72 563.68 641.84 680.79 240.59 827.24 352.23 510.04 755.68 902.01 602.30 775.71 429.97 124.44 181.72 573.15 349.70 157.69 945.04 601.55 355.67 324.75 953.57 776.74 530.47 943.28
637.42 711.58 609.76 651.14 578.59 542.57 849.89 502.62 1192.40 622.95 428.18 1001.81 136.24 878.30 788.23 592.88 984.25 487.80 688.61 963.13 270.02 830.26 1108.98 930.84 700.50 758.41 1155.45 475.62 644.51 653.95 842.17 1033.49 536.67 933.35 0.00 871.04 270.48 206.26 411.23 623.49 954.35 347.86 855.33 597.69 551.70 974.72 892.92 812.67 554.87 886.92 419.55 157.77 723.72 690.60 681.77 403.09 847.88 148.50 370.40 386.76 992.61 1242.23 707.87 311.84 692.76 684.21 1106.90 1188.59 622.95 825.83 667.79 419.82 1180.25 828.10 975.72 415.25 712.95 871.30 868.86 650.76 948.59 681.85 892.64 868.89 738.49 209.16
606.65 294.16 576.87 467.47 948.02 550.85 992.44 429.45 500.96 454.38 1047.25 361.95 760.62 894.66 575.17 343.63 594.37 595.23 469.86 201.80 909.58 108.80 468.59 725.68 355.68 498.79 408.52 588.19 312.50 463.88 673.60 303.30 699.73 158.12 871.04 0.00 1014.16 1024.55 1089.84 442.74 263.99 963.56 407.51 520.14 695.67 255.40 322.23 640.20 394.87 927.15 582.32 727.11 392.44 615.72 799.76 874.55 604.30 796.15 517.53 853.47 471.66 652.84 483.72 559.20 312.98 794.64 359.97 599.20 613.45 1003.98 519.78 772.48 516.01 217.95 245.53 523.81 400.20 273.50 987.64 491.73 472.32 298.25 965.79 858.79 497.87 900.50
777.66 869.50 686.37 768.15 627.15 682.81 978.85 734.92 1345.60 828.66 263.68 1251.06 294.16 1029.13 928.03 755.38 1124.05 562.97 851.11 1171.36 161.29 905.36 1338.57 1071.08 918.38 964.12 1361.62 652.69 863.81 699.44 1020.71 1199.45 733.13 1063.50 270.48 1014.16 0.00 133.65 230.50 790.92 1173.65 271.78 1032.03 755.70 697.75 1132.64 1069.26 993.06 774.17 1034.20 582.05 320.27 900.42 793.00 893.47 496.69 939.90 360.20 597.38 570.12 1111.97 1400.15 836.58 488.18 850.68 842.13 1313.07 1346.51 758.15 871.10 755.34 538.48 1398.13 986.02 1176.86 577.75 853.19 1070.06 914.13 792.41 1155.53 844.35 981.59 999.74 898.09 295.67
780.82 862.57 639.38 782.70 678.84 748.83 1016.24 672.36 1292.20 803.05 266.31 1164.42 342.50 910.99 859.53 778.71 1055.55 429.32 773.79 1067.01 192.97 991.77 1304.04 1071.07 832.67 914.87 1318.06 519.04 850.77 662.39 987.36 1186.50 599.48 1035.35 206.26 1024.55 133.65 0.00 364.15 829.75 1150.10 323.47 1040.76 710.51 644.12 1032.19 988.20 978.10 761.13 992.28 519.49 351.41 909.15 659.35 811.66 534.30 991.28 278.39 576.66 593.02 978.32 1438.22 831.52 515.34 881.39 890.47 1269.51 1387.99 685.76 902.78 718.29 570.16 1312.42 910.91 1128.73 608.89 897.86 1015.29 945.81 763.58 1145.83 875.49 1013.27 1005.95 944.75 327.35
1008.16 954.62 731.43 836.42 829.32 913.31 1131.00 764.41 1502.93 954.68 166.56 1295.83 497.81 1127.29 958.27 908.89 1154.29 521.37 865.84 1159.06 391.79 1083.82 1461.33 1191.65 1003.28 1013.61 1446.74 611.09 947.29 828.73 1042.33 1324.68 604.16 1176.39 411.23 1089.84 230.50 364.15 0.00 1011.65 1257.13 473.95 1194.14 853.61 898.37 1222.25 1080.25 987.19 857.65 1135.91 611.54 550.77 1062.53 758.09 965.04 658.01 1079.92 431.77 777.92 760.78 1070.37 1533.68 894.71 668.72 973.44 933.20 1398.19 1480.04 690.44 1097.91 884.63 749.51 1483.03 1108.78 1278.50 739.76 1050.50 1164.06 1054.88 860.68 1251.37 987.15 1167.29 1117.88 1128.59 506.70
202.96 185.97 626.93 723.96 580.81 108.11 640.35 359.14 668.47 748.54 983.29 576.41 605.48 653.53 841.65 143.75 963.68 531.27 428.50 509.91 754.44 371.33 597.23 496.38 178.39 704.86 678.09 539.44 130.24 684.03 868.59 528.18 802.95 407.74 623.49 442.74 790.92 829.75 1011.65 0.00 526.17 740.89 355.64 740.29 260.75 581.20 601.21 813.45 194.99 665.91 456.58 571.97 227.29 848.63 428.65 600.05 389.33 641.01 294.86 537.00 671.62 756.36 750.20 404.06 204.79 463.20 629.54 793.05 829.19 672.54 739.93 452.18 658.14 340.13 547.54 318.95 181.73 395.41 696.34 699.70 425.64 192.00 661.64 644.44 250.18 694.99
642.57 351.78 710.13 731.46 1004.37 568.09 950.34 621.30 312.38 661.89 1187.78 117.87 886.89 920.33 802.98 450.72 813.53 735.76 420.21 164.18 1035.85 290.62 244.43 806.29 433.49 619.88 220.49 655.14 435.17 664.75 776.64 79.14 866.26 196.86 954.35 263.99 1173.65 1150.10 1257.13 526.17 0.00 1089.27 451.11 678.95 720.73 302.39 324.48 808.87 399.48 877.87 677.83 853.38 473.05 837.06 836.32 956.27 684.91 922.42 643.24 976.61 518.65 428.68 746.81 685.47 338.65 875.25 171.94 375.04 850.85 1049.93 608.85 808.40 291.85 239.19 21.37 612.88 397.71 142.34 1031.44 732.02 371.92 334.17 939.44 909.98 578.48 975.65
554.05 823.16 716.37 893.68 355.37 648.90 707.07 755.70 1317.67 970.81 535.46 1127.93 309.09 834.12 1042.85 686.51 1173.93 654.08 846.60 1147.10 133.29 936.40 1286.51 906.44 795.76 1036.52 1281.57 739.33 739.77 841.09 1097.72 1135.28 799.19 1044.93 347.86 963.56 271.78 323.47 473.95 740.89 1089.27 0.00 929.06 897.35 602.17 1147.57 1061.08 1105.62 703.15 762.42 602.83 341.05 797.45 928.97 673.82 224.91 668.12 243.05 446.03 311.56 1175.89 1282.07 951.40 480.00 841.98 686.22 1233.02 1228.43 885.47 711.37 896.99 372.78 1275.51 977.32 1110.64 547.10 798.79 946.93 668.34 869.42 1043.85 780.18 749.82 739.66 770.04 138.70
382.35 301.55 774.14 873.80 768.97 361.12 603.93 603.02 470.16 861.89 1146.87 394.74 788.32 613.71 951.20 409.81 1001.88 694.85 563.87 558.42 933.47 415.25 467.47 464.85 272.14 821.80 548.38 783.32 310.16 832.55 1016.20 371.97 957.44 523.32 855.33 407.51 1032.03 1040.76 1194.14 355.64 451.11 929.06 0.00 860.38 513.76 662.91 649.08 1010.79 358.57 598.98 636.92 782.59 131.61 1002.64 556.72 704.15 329.48 762.37 592.69 716.39 795.43 489.75 859.75 644.56 320.37 521.37 499.83 543.39 1019.78 717.39 826.63 556.28 547.47 413.74 429.74 587.65 206.95 397.29 689.50 898.06 267.18 308.94 635.99 518.75 224.60 799.09
739.85 587.26 180.98 77.33 1044.66 669.85 1202.09 422.82 961.43 101.07 752.39 795.62 701.11 1187.76 234.60 638.21 429.07 332.24 470.90 656.34 764.06 628.94 883.35 1058.12 696.32 236.53 899.44 242.52 653.49 56.26 281.37 728.19 309.59 548.48 597.69 520.14 755.70 710.51 853.61 740.29 678.95 897.35 860.38 0.00 781.77 557.30 628.94 290.79 668.52 1180.34 395.04 581.44 765.12 209.06 1016.29 944.65 950.31 738.80 587.63 904.30 492.41 1084.33 185.99 501.85 606.08 1024.94 850.89 1030.69 223.31 1233.39 70.10 808.00 970.80 672.92 700.32 532.67 689.78 706.17 1190.36 53.07 879.64 551.44 1241.91 1119.34 870.55 806.85
136.70 414.36 673.39 775.10 466.05 152.64 495.48 554.13 845.69 882.84 731.81 736.90 415.46 491.77 963.86 352.04 1159.88 537.78 603.88 738.30 606.58 599.72 857.98 529.48 388.21 957.96 868.88 539.25 390.99 766.23 1027.66 669.47 839.16 636.13 551.70 695.67 697.75 644.12 898.37 260.75 720.73 602.17 513.76 781.77 0.00 809.59 850.43 990.26 325.65 500.39 447.61 439.41 382.15 923.35 312.15 377.26 347.16 481.50 417.79 445.49 886.10 890.62 908.42 308.59 433.18 297.68 841.99 862.53 846.09 507.02 822.13 229.39 777.08 548.28 727.24 440.63 323.02 623.80 531.33 799.36 631.55 445.10 538.23 482.36 352.69 472.20
751.80 395.23 667.82 634.63 1102.32 656.95 1149.49 656.46 455.54 607.60 1142.87 358.40 838.48 995.73 621.44 497.93 563.61 700.88 428.24 138.21 1073.46 331.60 478.53 931.74 504.29 472.14 348.40 686.18 478.62 543.10 666.54 353.17 798.50 173.46 974.72 255.40 1132.64 1032.19 1222.25 581.20 302.39 1147.57 662.91 557.30 809.59 0.00 142.00 640.93 549.17 1077.02 643.80 890.99 598.50 715.41 953.84 1086.38 735.76 904.52 729.36 1076.27 216.26 643.48 666.85 723.08 414.05 1000.70 314.55 589.84 780.61 1075.47 487.20 949.17 500.79 297.90 323.76 743.18 523.16 297.16 1118.50 610.37 529.13 483.81 1120.09 950.20 703.93 1008.87
792.64 467.70 535.91 551.61 1112.34 697.79 1184.32 514.46 585.84 576.50 1000.87 394.97 782.50 1030.56 606.77 570.99 548.94 558.88 286.24 160.30 931.46 367.09 561.07 935.99 526.96 457.47 447.00 577.25 470.97 660.63 554.07 368.27 726.17 268.16 892.92 322.23 1069.26 988.20 1080.25 601.21 324.48 1061.08 649.08 628.94 850.43 142.00 0.00 498.93 560.61 1111.85 649.05 748.99 602.75 699.86 966.14 1035.10 767.66 818.03 686.81 983.53 201.59 752.24 612.24 581.08 448.88 1004.95 456.55 698.60 639.89 1170.17 629.20 887.23 588.14 343.64 345.85 713.12 527.41 425.85 1151.00 575.87 598.01 519.69 1161.86 1022.77 708.18 922.38
932.47 741.53 391.51 307.70 1244.07 837.62 1344.86 623.10 986.89 189.72 848.98 893.90 927.05 1245.20 132.93 715.85 202.84 601.57 543.27 659.23 974.59 662.42 903.47 1206.60 810.24 188.99 945.93 525.65 754.25 315.71 55.14 841.08 383.03 661.37 812.67 640.20 993.06 978.10 987.19 813.45 808.87 1105.62 1010.79 290.79 990.26 640.93 498.93 0.00 664.61 1326.49 620.98 811.81 884.62 333.11 1188.96 1111.22 961.72 954.50 795.82 1082.47 444.87 1152.93 156.48 760.00 722.71 1192.71 955.48 1099.29 453.68 1388.09 266.47 1007.41 1024.12 696.72 830.24 745.12 857.46 801.10 1345.06 283.44 951.09 701.85 1338.01 1216.83 990.05 976.24
267.86 173.03 507.82 655.04 655.63 173.01 705.25 266.63 693.92 581.05 788.30 517.35 487.41 702.52 683.79 51.24 867.45 336.28 278.23 496.97 636.37 301.13 636.38 560.20 145.63 632.51 619.97 426.00 89.64 632.54 719.75 478.62 710.44 394.80 554.87 394.87 774.17 761.13 857.65 194.99 399.48 703.15 358.57 668.52 325.65 549.17 560.61 664.61 0.00 693.24 278.35 453.90 226.96 756.12 584.81 648.74 438.82 522.94 291.72 601.90 585.30 755.45 665.97 285.99 162.76 528.10 571.42 768.78 676.83 737.44 671.62 514.55 625.38 282.89 420.85 296.49 192.85 382.47 722.61 645.56 393.72 129.50 673.40 643.48 332.39 601.01
527.34 681.79 1059.89 1236.00 407.05 557.80 72.47 899.12 913.03 1244.77 1188.71 943.10 750.68 81.29 1278.55 683.73 1400.58 920.59 885.62 1005.73 881.87 849.79 910.90 232.91 634.44 1141.76 1041.03 950.73 690.43 1171.39 1271.35 957.01 1238.06 903.56 886.92 927.15 1034.20 992.28 1135.91 665.91 877.87 762.42 598.98 1180.34 500.39 1077.02 1111.85 1326.49 693.24 0.00 830.42 859.31 566.15 1335.34 272.62 599.70 386.44 805.89 663.04 523.22 1180.00 1037.41 1187.10 691.40 662.97 202.71 1048.19 993.50 1228.90 172.06 1223.33 557.58 1042.20 798.31 899.24 764.11 641.49 891.23 153.57 1232.07 761.27 628.90 61.57 131.33 499.48 776.48
536.55 451.38 229.47 425.91 672.66 451.36 864.64 152.87 949.46 494.85 542.19 795.70 306.07 865.37 555.95 329.59 751.97 90.17 381.09 700.49 489.40 552.64 866.04 838.55 423.98 549.62 898.32 152.52 367.99 354.19 629.95 756.97 452.43 604.61 419.55 582.32 582.05 519.49 611.54 456.58 677.83 602.83 636.92 395.04 447.61 643.80 649.05 620.98 278.35 830.42 0.00 261.78 505.31 504.92 693.58 572.92 607.90 372.11 238.70 541.47 639.17 1033.80 464.50 139.02 435.52 698.29 849.77 1021.47 398.48 842.78 410.09 445.17 903.73 529.31 699.20 137.63 471.20 633.69 885.81 401.65 672.07 407.85 864.45 770.41 606.79 476.46
574.18 626.93 491.25 552.63 563.37 479.33 811.82 414.65 1112.42 654.26 583.95 946.61 198.10 817.36 741.39 435.11 904.37 351.95 530.84 909.29 398.89 672.49 1071.98 861.55 599.53 789.47 1047.59 410.00 543.54 615.97 756.67 879.18 694.44 830.63 157.77 727.11 320.27 351.41 550.77 571.97 853.38 341.05 782.59 581.44 439.41 890.99 748.99 811.81 453.90 859.31 261.78 0.00 650.98 587.92 730.48 464.95 765.10 224.77 277.11 490.81 834.84 1163.88 661.73 167.91 616.66 727.18 999.04 1199.64 660.26 902.10 651.54 326.71 1079.28 736.79 856.59 257.48 646.75 778.01 876.34 528.37 847.62 524.08 854.57 787.97 625.95 264.51
250.74 213.31 668.62 754.05 651.35 229.51 600.00 477.14 598.01 796.85 1015.26 489.22 696.80 561.93 819.59 278.20 969.70 563.24 460.81 532.90 801.86 283.64 597.17 333.24 140.53 793.46 486.73 652.96 178.55 744.31 890.92 421.79 874.89 425.04 723.72 392.44 900.42 909.15 1062.53 227.29 473.05 797.45 131.61 765.12 382.15 598.50 602.75 884.62 226.96 566.15 505.31 650.98 0.00 871.03 439.10 572.54 211.86 630.76 473.52 584.78 682.29 529.07 728.14 512.95 194.49 402.20 535.28 582.71 900.03 611.54 695.02 424.67 619.58 300.60 479.56 523.45 75.34 404.98 595.20 778.31 383.87 280.60 627.72 466.97 105.43 667.48
855.90 703.31 275.45 148.25 1151.29 785.90 1318.14 555.39 1082.82 281.88 794.90 938.54 748.07 1302.96 200.18 704.88 396.20 479.67 565.37 806.18 819.83 724.52 999.40 1174.17 730.50 255.52 1024.24 409.59 777.27 172.31 328.01 871.11 153.93 718.71 690.60 615.72 793.00 659.35 758.09 848.63 837.06 928.97 1002.64 209.06 923.35 715.41 699.86 333.11 756.12 1335.34 504.92 587.92 871.03 0.00 1119.37 983.32 1046.05 725.40 740.14 1040.78 511.40 1242.44 199.22 643.94 721.28 1140.99 975.69 1188.80 240.21 1347.70 228.21 914.63 1121.37 763.97 858.43 639.07 795.69 814.34 1357.43 155.99 982.56 740.65 1327.04 1233.61 976.46 829.75
361.81 578.56 919.57 1087.25 318.45 449.61 275.74 732.06 950.46 1111.35 1029.52 799.91 599.31 288.61 1246.05 572.40 1368.90 774.34 798.72 815.63 772.00 690.96 867.04 352.97 542.79 1110.08 925.83 846.10 495.17 1044.29 1244.10 860.89 965.44 800.33 681.77 799.76 893.47 811.66 965.04 428.65 836.32 673.82 556.72 1016.29 312.15 953.84 966.14 1188.96 584.81 272.62 693.58 730.48 439.10 1119.37 0.00 469.34 227.24 533.27 627.66 388.35 1100.27 891.73 1154.60 620.74 597.38 94.52 905.00 927.49 1051.72 303.86 1086.39 403.77 982.17 732.72 844.14 555.95 514.44 788.00 328.17 1069.36 663.79 597.22 232.99 279.20 353.80 637.62
397.13 725.08 802.39 932.28 350.52 491.94 580.88 645.79 1096.55 1013.49 653.75 982.13 266.85 609.71 1087.81 597.50 1247.84 663.09 757.59 1008.52 341.33 847.39 1113.13 681.53 639.07 1111.87 1059.27 702.13 677.09 927.11 1100.14 920.33 829.39 923.58 403.09 874.55 496.69 534.30 658.01 600.05 956.27 224.91 704.15 944.65 377.26 1086.38 1035.10 1111.22 648.74 599.70 572.92 464.95 572.54 983.32 469.34 0.00 574.20 257.92 357.02 102.77 1110.14 1101.61 996.36 454.02 717.50 477.43 1087.22 1155.25 880.16 586.21 983.01 147.87 1118.82 799.14 977.64 458.09 573.88 857.92 543.65 956.54 882.41 622.10 538.13 514.75 609.64 206.95
210.46 424.61 837.37 965.91 439.49 305.31 458.91 679.02 775.22 988.02 1078.97 572.67 741.35 350.07 1031.45 490.06 1164.56 698.07 672.67 744.76 801.41 495.50 691.80 244.88 315.55 986.45 698.59 760.42 371.54 894.05 1016.86 633.65 970.52 636.90 847.88 604.30 939.90 991.28 1079.92 389.33 684.91 668.12 329.48 950.31 347.16 735.76 767.66 961.72 438.82 386.44 607.90 765.10 211.86 1046.05 227.24 574.20 0.00 760.51 507.24 544.50 894.15 677.08 940.00 604.72 406.35 321.76 677.76 712.84 1006.38 426.37 906.88 514.97 795.30 512.46 689.09 608.31 287.20 616.84 383.34 990.17 449.14 473.59 448.01 255.11 139.15 757.78
596.93 639.30 563.75 731.47 473.78 634.14 790.79 524.98 1074.62 771.45 504.07 1028.05 66.04 808.10 890.23 500.32 1086.25 462.28 714.81 963.24 238.73 750.21 1108.37 792.68 668.57 857.22 1079.36 496.28 612.58 688.47 964.23 982.34 571.47 861.07 148.50 796.15 360.20 278.39 431.77 641.01 922.42 243.05 762.37 738.80 481.50 904.52 818.03 954.50 522.94 805.89 372.11 224.77 630.76 725.40 533.27 257.92 760.51 0.00 346.15 358.75 980.52 1159.83 798.78 236.95 620.48 614.01 1068.08 1118.39 657.75 677.33 744.37 326.61 1148.32 755.82 934.14 368.99 635.89 847.05 720.36 735.93 916.66 647.70 766.26 772.67 714.24 104.35
429.79 438.54 464.69 639.91 648.57 375.91 735.51 336.63 897.14 656.47 748.65 681.90 310.62 626.67 730.79 240.48 926.81 319.46 400.57 713.59 459.58 490.37 887.67 698.49 408.03 754.85 835.54 345.11 381.36 572.48 850.96 722.38 645.02 648.51 370.40 517.53 597.38 576.66 777.92 294.86 643.24 446.03 592.69 587.63 417.79 729.36 686.81 795.82 291.72 663.04 238.70 277.11 473.52 740.14 627.66 357.02 507.24 346.15 0.00 400.82 753.12 902.46 639.34 109.20 454.48 664.86 786.99 941.78 616.19 811.78 628.38 415.35 887.78 574.61 664.61 101.07 465.63 500.90 768.75 636.87 678.08 379.78 724.61 531.71 368.09 450.50
334.04 690.61 770.94 956.58 247.75 428.89 572.46 694.34 1121.94 1005.37 730.74 1013.15 292.71 568.75 1097.42 641.30 1175.03 631.64 792.43 1010.67 417.22 744.67 1059.52 633.11 664.46 1091.09 1071.51 661.78 667.24 895.66 1027.33 945.72 923.43 902.81 386.76 853.47 570.12 593.02 760.78 537.00 976.61 311.56 716.39 904.30 445.49 1076.27 983.53 1082.47 601.90 523.22 541.47 490.81 584.78 1040.78 388.35 102.77 544.50 358.75 400.82 0.00 1144.98 1044.80 1005.97 402.45 671.89 374.66 1104.97 1080.56 905.13 483.44 934.38 250.64 1144.21 807.23 997.98 501.89 599.27 900.05 526.47 943.12 816.86 642.44 584.79 559.34 506.87 282.84
853.16 535.85 576.03 518.86 1138.45 758.31 1198.97 506.58 671.80 391.34 1001.02 574.66 914.48 1098.71 405.18 534.06 347.35 549.00 352.55 354.47 1069.79 490.84 694.79 1015.53 643.19 255.88 564.66 638.72 619.24 531.08 450.28 569.43 665.33 389.72 992.61 471.66 1111.97 978.32 1070.37 671.62 518.65 1175.89 795.43 492.41 886.10 216.26 201.59 444.87 585.30 1180.00 639.17 834.84 682.29 511.40 1100.27 1110.14 894.15 980.52 753.12 1144.98 0.00 859.74 450.59 778.19 517.03 1084.49 530.81 806.10 664.84 1266.71 482.95 997.37 717.05 381.69 538.27 742.14 606.95 464.98 1257.27 494.60 636.06 609.27 1156.22 1119.22 787.72 1084.87
753.92 640.28 1056.73 1113.45 1116.57 753.21 1032.50 941.75 196.25 1047.83 1464.33 373.10 1105.99 1027.15 1099.01 806.69 1180.35 1012.31 793.00 592.86 1330.93 595.54 249.46 805.58 669.60 1048.56 308.71 922.59 665.81 1070.13 1191.70 383.97 1222.50 563.68 1242.23 652.84 1400.15 1438.22 1533.68 756.36 428.68 1282.07 489.75 1084.33 890.62 643.48 752.24 1152.93 755.45 1037.41 1033.80 1163.88 529.07 1242.44 891.73 1101.61 677.08 1159.83 902.46 1044.80 859.74 0.00 1112.90 1011.66 659.10 834.70 328.93 53.64 1259.43 1044.04 1014.23 953.74 197.04 535.22 407.31 1003.53 604.41 430.84 1060.42 1089.19 416.57 739.07 1075.25 932.19 537.93 1196.55
852.72 661.18 235.03 157.62 1137.16 782.72 1259.57 466.62 984.68 84.92 858.29 841.86 770.57 1235.28 91.45 682.01 287.47 445.09 524.95 676.67 818.11 592.52 948.50 1061.38 716.24 220.38 892.24 369.17 660.25 169.13 211.62 783.21 290.55 641.84 707.87 483.72 836.58 831.52 894.71 750.20 746.81 951.40 859.75 185.99 908.42 666.85 612.24 156.48 665.97 1187.10 464.50 661.73 728.14 199.22 1154.60 996.36 940.00 798.78 639.34 1005.97 450.59 1112.90 0.00 603.52 653.60 1130.34 843.69 1059.26 303.60 1307.28 181.01 909.67 995.92 590.56 725.44 598.65 763.46 694.94 1317.01 133.36 844.93 558.20 1248.67 1171.05 833.57 903.13
445.29 459.02 368.49 554.13 542.81 449.08 757.07 291.89 972.12 602.92 639.45 791.10 201.42 735.87 694.97 337.23 890.99 229.19 509.77 741.38 350.38 547.05 922.37 807.69 431.62 688.64 879.68 259.33 375.63 493.21 768.97 764.61 559.24 680.79 311.84 559.20 488.18 515.34 668.72 404.06 685.47 480.00 644.56 501.85 308.59 723.08 581.08 760.00 285.99 691.40 139.02 167.91 512.95 643.94 620.74 454.02 604.72 236.95 109.20 402.45 778.19 1011.66 603.52 0.00 448.75 559.27 831.13 1050.98 537.50 768.61 531.93 306.15 911.37 568.88 706.84 132.04 478.84 610.10 792.92 540.67 679.71 410.75 752.97 640.91 477.29 341.30
366.65 18.82 556.24 573.03 765.60 280.54 735.44 282.65 567.13 690.48 904.09 409.26 556.52 581.68 699.13 214.00 857.26 452.07 266.32 342.76 799.13 204.18 487.89 527.73 127.88 608.26 510.94 462.95 102.21 549.82 777.85 410.93 680.40 240.59 692.76 312.98 850.68 881.39 973.44 204.79 338.65 841.98 320.37 606.08 433.18 414.05 448.88 722.71 162.76 662.97 435.52 616.66 194.49 721.28 597.38 717.50 406.35 620.48 454.48 671.89 517.03 659.10 653.60 448.75 0.00 596.69 462.39 683.71 719.01 760.25 605.72 569.63 607.63 135.34 353.16 374.11 193.07 228.26 747.46 597.29 304.85 95.40 712.98 623.91 299.92 724.83
334.44 615.51 927.76 1072.78 355.72 355.09 197.80 717.18 855.94 1109.15 986.00 875.08 547.97 194.09 1211.89 579.34 1371.80 788.46 806.33 910.15 791.88 685.84 772.52 258.45 542.73 1112.98 888.93 818.60 580.75 968.68 1247.85 823.99 1059.96 827.24 684.21 794.64 842.13 890.47 933.20 463.20 875.25 686.22 521.37 1024.94 297.68 1000.70 1004.95 1192.71 528.10 202.71 698.29 727.18 402.20 1140.99 94.52 477.43 321.76 614.01 664.86 374.66 1084.49 834.70 1130.34 559.27 596.69 0.00 894.87 870.46 1076.17 209.34 1024.58 498.29 903.82 702.80 881.76 647.63 477.54 807.18 233.65 1071.48 606.76 600.12 240.55 184.68 296.77 657.50
784.20 443.57 848.77 827.44 1117.25 689.35 1017.11 745.04 140.99 813.72 1328.84 105.09 1018.91 1011.82 933.19 607.02 878.16 876.82 592.15 297.46 1181.51 450.79 178.68 832.44 552.63 786.69 48.55 789.83 526.96 823.85 909.92 172.52 1021.63 352.23 1106.90 359.97 1313.07 1269.51 1398.19 629.54 171.94 1233.02 499.83 850.89 841.99 314.55 456.55 955.48 571.42 1048.19 849.77 999.04 535.28 975.69 905.00 1087.22 677.76 1068.08 786.99 1104.97 530.81 328.93 843.69 831.13 462.39 894.87 0.00 275.29 973.42 1104.13 780.79 939.35 186.24 390.47 173.20 772.31 518.97 286.09 1061.10 851.70 373.41 506.11 1059.86 916.86 598.10 1147.59
789.68 689.21 1003.09 1066.67 1152.33 788.97 1034.25 908.99 180.51 994.19 1410.69 380.38 1052.35 993.45 1105.45 787.49 1126.71 958.67 752.59 539.22 1314.19 620.75 195.82 760.59 623.15 994.92 286.29 868.95 679.14 1016.49 1138.06 330.33 1168.86 510.04 1188.59 599.20 1346.51 1387.99 1480.04 793.05 375.04 1228.43 543.39 1030.69 862.53 589.84 698.60 1099.29 768.78 993.50 1021.47 1199.64 582.71 1188.80 927.49 1155.25 712.84 1118.39 941.78 1080.56 806.10 53.64 1059.26 1050.98 683.71 870.46 275.29 0.00 1212.65 1079.80 960.59 1007.38 143.40 571.49 353.67 952.78 658.05 479.77 1096.18 1083.76 386.12 685.43 1055.07 927.37 573.69 1222.74
815.93 718.23 327.34 145.98 1071.14 721.08 1253.32 530.09 1114.41 275.41 554.69 945.03 613.31 1242.86 334.74 728.07 530.76 475.91 515.05 686.67 752.18 722.25 1081.09 1109.35 822.46 410.87 1021.97 386.19 766.47 254.00 398.54 916.75 86.28 755.68 622.95 613.45 758.15 685.76 690.44 829.19 850.85 885.47 1019.78 223.31 846.09 780.61 639.89 453.68 676.83 1228.90 398.48 660.26 900.03 240.21 1051.72 880.16 1006.38 657.75 616.19 905.13 664.84 1259.43 303.60 537.50 719.01 1076.17 973.42 1212.65 0.00 1241.26 293.41 843.65 1114.51 772.83 858.98 536.11 869.68 828.59 1284.29 170.24 996.81 771.77 1262.93 1147.90 917.65 762.10
543.78 779.07 1072.25 1268.69 356.00 564.43 113.46 926.52 1035.31 1293.69 1114.48 999.04 743.37 208.81 1325.39 732.65 1518.68 932.95 1015.67 1009.87 709.81 895.18 951.89 398.19 741.92 1313.82 1082.02 990.87 790.09 1178.02 1398.87 1033.33 1248.80 902.01 825.83 1003.98 871.10 902.78 1097.91 672.54 1049.93 711.37 717.39 1233.39 507.02 1075.47 1170.17 1388.09 737.44 172.06 842.78 902.10 611.54 1347.70 303.86 586.21 426.37 677.33 811.78 483.44 1266.71 1044.04 1307.28 768.61 760.25 209.34 1104.13 1079.80 1241.26 0.00 1233.92 592.66 1083.19 895.59 1071.30 810.55 686.88 988.51 43.03 1244.43 816.10 800.96 110.49 286.23 506.11 655.79
739.49 586.90 180.62 147.43 1074.74 669.49 1201.73 404.99 921.23 127.41 752.03 726.72 716.16 1187.40 245.53 620.38 378.93 363.26 470.54 625.41 763.70 560.30 853.28 1028.26 632.14 227.07 829.34 293.80 660.86 55.90 321.61 687.99 311.30 602.30 667.79 519.78 755.34 718.29 884.63 739.93 608.85 896.99 826.63 70.10 822.13 487.20 629.20 266.47 671.62 1223.33 410.09 651.54 695.02 228.21 1086.39 983.01 906.88 744.37 628.38 934.38 482.95 1014.23 181.01 531.93 605.72 1024.58 780.79 960.59 293.41 1233.92 0.00 838.08 900.70 669.45 630.22 544.24 619.68 725.00 1241.64 123.17 910.57 621.54 1242.54 1131.95 800.45 848.72
304.51 577.21 674.64 860.28 236.66 344.07 485.11 596.95 948.68 899.94 721.61 834.26 283.58 490.65 1001.12 463.31 1099.97 535.34 730.95 860.65 377.19 708.31 965.26 534.84 491.20 987.09 911.40 565.48 529.22 799.36 952.27 772.46 865.39 775.71 419.82 772.48 538.48 570.16 749.51 452.18 808.40 372.78 556.28 808.00 229.39 949.17 887.23 1007.41 514.55 557.58 445.17 326.71 424.67 914.63 403.77 147.87 514.97 326.61 415.35 250.64 997.37 953.74 909.67 306.15 569.63 498.29 939.35 1007.38 843.65 592.66 838.08 0.00 970.95 651.27 829.77 438.19 426.01 755.65 549.63 846.82 734.54 474.23 527.86 461.26 520.50 242.81
810.17 588.81 979.15 983.48 1207.61 715.32 969.73 844.47 130.50 911.00 1327.38 285.56 1112.79 1077.82 1033.59 676.62 1032.24 961.66 709.10 427.84 1261.75 570.74 131.30 903.99 479.75 911.73 172.91 918.81 535.74 949.06 1040.30 250.26 1099.37 429.97 1180.25 516.01 1398.13 1312.42 1483.03 658.14 291.85 1275.51 547.47 970.80 777.08 500.79 588.14 1024.12 625.38 1042.20 903.73 1079.28 619.58 1121.37 982.17 1118.82 795.30 1148.32 887.78 1144.21 717.05 197.04 995.92 911.37 607.63 903.82 186.24 143.40 1114.51 1083.19 900.70 970.95 0.00 488.30 270.48 869.59 544.94 434.19 1055.30 1007.74 373.96 605.36 1012.48 982.86 683.95 1173.86
490.49 154.16 547.70 685.42 887.93 395.64 870.78 417.99 452.15 672.33 1039.43 285.38 691.86 717.02 563.79 334.13 729.04 587.41 257.78 232.30 919.26 109.15 393.13 633.84 261.50 612.06 439.02 548.79 237.55 670.84 691.62 275.59 788.76 124.44 828.10 217.95 986.02 910.91 1108.78 340.13 239.19 977.32 413.74 672.92 548.28 297.90 343.64 696.72 282.89 798.31 529.31 736.79 300.60 763.97 732.72 799.14 512.46 755.82 574.61 807.23 381.69 535.22 590.56 568.88 135.34 702.80 390.47 571.49 772.83 895.59 669.45 651.27 488.30 0.00 217.82 509.45 225.26 104.38 875.58 687.39 254.37 230.74 848.32 737.53 406.03 860.17
663.94 371.98 731.50 713.00 1025.74 574.60 971.71 635.81 291.01 640.52 1209.15 116.42 908.26 934.84 781.61 433.82 798.39 757.13 441.58 185.55 1033.68 311.99 223.06 812.80 412.12 641.25 221.75 676.51 455.37 686.12 798.01 57.77 851.12 181.72 975.72 245.53 1176.86 1128.73 1278.50 547.54 21.37 1110.64 429.74 700.32 727.24 323.76 345.85 830.24 420.85 899.24 699.20 856.59 479.56 858.43 844.14 977.64 689.09 934.14 664.61 997.98 538.27 407.31 725.44 706.84 353.16 881.76 173.20 353.67 858.98 1071.30 630.22 829.77 270.48 217.82 0.00 599.11 404.22 163.71 1052.81 737.26 350.55 355.54 960.81 915.23 584.99 997.02
410.58 381.69 363.62 560.06 581.72 427.06 727.01 235.56 855.25 555.40 670.41 701.24 333.46 727.74 690.10 245.25 886.12 218.39 463.78 665.13 482.42 415.01 822.17 799.56 436.75 683.77 820.86 290.15 380.76 488.34 764.10 633.81 590.06 573.15 415.25 523.81 577.75 608.89 739.76 318.95 612.88 547.10 587.65 532.67 440.63 743.18 713.12 745.12 296.49 764.11 137.63 257.48 523.45 639.07 555.95 458.09 608.31 368.99 101.07 501.89 742.14 1003.53 598.65 132.04 374.11 647.63 772.31 952.78 536.11 810.55 544.24 438.19 869.59 509.45 599.11 0.00 470.40 579.71 767.52 535.80 633.39 278.71 726.82 632.78 469.16 473.34
265.23 174.25 630.15 746.50 662.67 170.38 675.34 440.54 522.67 721.51 981.15 413.88 680.26 607.23 789.05 225.15 894.36 529.13 432.63 457.56 803.20 291.40 539.25 408.58 65.19 718.12 562.07 618.85 103.21 675.58 898.68 346.45 835.83 349.70 712.95 400.20 853.19 897.86 1050.50 181.73 397.71 798.79 206.95 689.78 323.02 523.16 527.41 857.46 192.85 641.49 471.20 646.75 75.34 795.69 514.44 573.88 287.20 635.89 465.63 599.27 606.95 604.41 763.46 478.84 193.07 477.54 518.97 658.05 869.68 686.88 619.68 426.01 544.94 225.26 404.22 470.40 0.00 329.64 650.32 742.85 308.53 205.26 703.06 512.27 180.77 668.82
566.01 209.44 652.08 682.61 955.73 471.16 963.70 510.91 396.24 727.88 1094.71 181.00 784.78 809.94 668.17 407.50 774.36 642.69 362.16 265.55 960.48 164.70 386.77 738.22 318.50 716.44 334.64 653.17 292.83 704.09 771.98 221.48 827.09 157.69 871.30 273.50 1070.06 1015.29 1164.06 395.41 142.34 946.93 397.29 706.17 623.80 297.16 425.85 801.10 382.47 891.23 633.69 778.01 404.98 814.34 788.00 857.92 616.84 847.05 500.90 900.05 464.98 430.84 694.94 610.10 228.26 807.18 286.09 479.77 828.59 988.51 725.00 755.65 434.19 104.38 163.71 579.71 329.64 0.00 975.72 658.35 232.12 312.42 941.24 814.53 510.41 930.95
568.09 766.28 1081.98 1242.64 312.97 588.23 85.57 949.96 1007.42 1291.43 1157.51 956.01 781.62 165.78 1297.50 734.57 1493.52 975.98 1000.84 1052.90 752.84 878.84 924.00 355.16 698.89 1295.33 1054.13 947.84 753.53 1201.82 1355.84 996.77 1247.75 945.04 868.86 987.64 914.13 945.81 1054.88 696.34 1031.44 668.34 689.50 1190.36 531.33 1118.50 1151.00 1345.06 722.61 153.57 885.81 876.34 595.20 1357.43 328.17 543.65 383.34 720.36 768.75 526.47 1257.27 1060.42 1317.01 792.92 747.46 233.65 1061.10 1096.18 1284.29 43.03 1241.64 549.63 1055.30 875.58 1052.81 767.52 650.32 975.72 0.00 1243.43 832.48 782.47 112.41 243.20 522.49 682.40
786.39 596.51 172.18 24.26 1074.31 716.39 1248.63 475.89 992.69 125.89 724.93 839.35 689.69 1178.97 213.02 628.06 376.00 382.24 462.10 693.53 755.26 578.24 929.89 1104.66 705.57 261.10 900.25 295.59 679.90 102.80 228.30 781.26 256.52 601.55 650.76 491.73 792.41 763.58 860.68 699.70 732.02 869.42 898.06 53.07 799.36 610.37 575.87 283.44 645.56 1232.07 401.65 528.37 778.31 155.99 1069.36 956.54 990.17 735.93 636.87 943.12 494.60 1089.19 133.36 540.67 597.29 1071.48 851.70 1083.76 170.24 1244.43 123.17 846.82 1007.74 687.39 737.26 535.80 742.85 658.35 1243.43 0.00 826.57 604.51 1250.22 1168.58 883.74 792.88
525.98 323.67 802.07 850.83 888.63 478.91 804.56 587.50 326.08 832.45 1182.02 268.32 861.37 799.21 818.16 444.96 952.46 730.00 512.15 463.53 1030.09 363.52 242.66 694.02 313.16 866.43 339.09 767.80 304.08 854.67 945.99 300.79 985.25 355.67 948.59 472.32 1155.53 1145.83 1251.37 425.64 371.92 1043.85 267.18 879.64 631.55 529.13 598.01 951.09 393.72 761.27 672.07 847.62 383.87 982.56 663.79 882.41 449.14 916.66 678.08 816.86 636.06 416.57 844.93 679.71 304.85 606.76 373.41 386.12 996.81 816.10 910.57 734.54 373.96 254.37 350.55 633.39 308.53 232.12 832.48 826.57 0.00 354.68 822.84 704.25 309.99 942.20
308.40 102.98 465.20 628.77 670.20 294.74 701.37 306.52 588.34 643.12 917.80 422.53 605.16 677.08 649.65 180.74 771.68 465.78 256.72 386.42 761.13 288.34 547.90 613.84 158.04 512.86 554.66 486.82 102.05 589.92 707.26 355.10 706.26 324.75 681.85 298.25 844.35 875.49 987.15 192.00 334.17 780.18 308.94 551.44 445.10 483.81 519.69 701.85 129.50 628.90 407.85 524.08 280.60 740.65 597.22 622.10 473.59 647.70 379.78 642.44 609.27 739.07 558.20 410.75 95.40 600.12 506.11 685.43 771.77 800.96 621.54 474.23 605.36 230.74 355.54 278.71 205.26 312.42 782.47 604.51 354.68 0.00 690.47 661.15 384.23 641.48
574.99 731.80 1090.44 1225.96 394.45 574.99 42.75 837.55 964.60 1183.20 1191.88 999.55 788.52 131.30 1254.68 622.16 1450.70 945.21 906.91 1048.62 820.30 872.05 881.18 294.48 696.01 1203.33 1011.31 1012.30 728.16 1188.58 1321.36 1007.96 1198.43 953.57 892.64 965.79 981.59 1013.27 1167.29 661.64 939.44 749.82 635.99 1241.91 538.23 1120.09 1161.86 1338.01 673.40 61.57 864.45 854.57 627.72 1327.04 232.99 538.13 448.01 766.26 724.61 584.79 1156.22 1075.25 1248.67 752.97 712.98 240.55 1059.86 1055.07 1262.93 110.49 1242.54 527.86 1012.48 848.32 960.81 726.82 703.06 941.24 112.41 1250.22 822.84 690.47 0.00 192.90 537.32 745.08
465.57 605.09 996.40 1171.62 538.38 539.77 203.80 807.63 985.52 1177.40 1168.50 811.77 732.65 94.96 1262.50 592.24 1393.41 851.17 867.41 884.60 838.45 749.99 946.91 166.78 503.11 1174.01 953.70 876.82 559.10 1104.19 1271.97 858.72 1176.73 776.74 868.89 858.79 999.74 1005.95 1117.88 644.44 909.98 739.66 518.75 1119.34 482.36 950.20 1022.77 1216.83 643.48 131.33 770.41 787.97 466.97 1233.61 279.20 514.75 255.11 772.67 531.71 559.34 1119.22 932.19 1171.05 640.91 623.91 184.68 916.86 927.37 1147.90 286.23 1131.95 461.26 982.86 737.53 915.23 632.78 512.27 814.53 243.20 1168.58 704.25 661.15 192.90 0.00 394.26 704.07
215.99 318.74 774.05 859.48 578.64 215.28 494.57 549.72 636.07 848.87 1084.50 578.31 678.71 489.22 925.02 383.63 1075.13 668.67 566.24 638.33 827.67 389.07 552.65 384.03 245.96 897.09 592.16 713.20 283.98 828.87 996.35 527.22 831.37 530.47 738.49 497.87 898.09 944.75 1128.59 250.18 578.48 770.04 224.60 870.55 352.69 703.93 708.18 990.05 332.39 499.48 606.79 625.95 105.43 976.46 353.80 609.64 139.15 714.24 368.09 506.87 787.72 537.93 833.57 477.29 299.92 296.77 598.10 573.69 917.65 506.11 800.45 520.50 683.95 406.03 584.99 469.16 180.77 510.41 522.49 883.74 309.99 384.23 537.32 394.26 0.00 763.31
547.32 721.51 668.10 817.14 369.43 586.88 721.13 629.33 1178.97 832.11 539.05 1064.01 170.39 733.46 994.58 604.67 1168.88 566.63 751.70 1027.90 134.38 854.56 1184.86 777.65 694.11 961.57 1154.21 600.63 638.12 792.82 1021.18 996.58 675.82 943.28 209.16 900.50 295.67 327.35 506.70 694.99 975.65 138.70 799.09 806.85 472.20 1008.87 922.38 976.24 601.01 776.48 476.46 264.51 667.48 829.75 637.62 206.95 757.78 104.35 450.50 282.84 1084.87 1196.55 903.13 341.30 724.83 657.50 1147.59 1222.74 762.10 655.79 848.72 242.81 1173.86 860.17 997.02 473.34 668.82 930.95 682.40 792.88 942.20 641.48 745.08 704.07 763.31 0.00
DEMAND_SECTION
1 0
2 40
3 86
4 16
5 79
6 36
7 32
8 65
9 97
10 71
11 34
12 38
13 21
14 65
15 19
16 53
17 55
18 39
19 64
20 29
21 98
22 85
23 28
24 3
25 79
26 55
27 89
28 97
29 6
30 40
31 55
32 97
33 37
34 76
35 93
36 14
37 43
38 48
39 96
40 9
41 66
42 14
43 90
44 37
45 56
46 6
47 42
48 96
49 33
50 10
51 72
52 100
53 54
54 76
55 13
56 48
57 82
58 92
59 77
60 95
61 41
62 21
63 11
64 39
65 83
66 40
67 64
68 27
69 31
70 68
71 59
72 28
73 77
74 70
75 27
76 44
77 50
78 65
79 19
80 1
81 13
82 99
83 52
84 14
85 30
86 4
DEPOT_SECTION
1
-1
EOF
