NAME: LDG80_1236_snow_80_0088
COMMENT: CVRP with travel times.  rootPos=1,custPos=2,demandType=3,avgRouteSizeIndex=6,weather=snow,lambda_cluster=1,lambda_random=4, T1=300,T2=700,beta=1, alpha(i,j) ~ U(0.8,1.2)
TYPE: CVRP
DIMENSION: 81
EDGE_WEIGHT_TYPE: EXPLICIT
EDGE_WEIGHT_FORMAT: FULL_MATRIX
CAPACITY: 360
NODE_COORD_SECTION
1 858 805
2 41 976
3 660 186
4 356 592
5 44 968
6 416 632
7 779 309
8 363 664
9 109 696
10 231 768
11 249 661
12 219 607
13 120 463
14 402 596
15 456 531
16 324 636
17 693 223
18 330 532
19 405 655
20 144 895
21 772 225
22 462 638
23 30 980
24 174 492
25 741 167
26 193 526
27 349 514
28 383 743
29 392 614
30 242 761
31 557 71
32 18 972
33 414 442
34 168 615
35 710 188
36 355 590
37 713 229
38 572 342
39 835 189
40 394 583
41 532 746
42 704 239
43 730 175
44 415 596
45 141 634
46 110 446
47 441 732
48 6 961
49 435 654
50 346 608
51 387 546
52 337 591
53 724 235
54 278 640
55 617 189
56 100 666
57 222 612
58 656 294
59 192 630
60 711 294
61 652 307
62 139 541
63 142 623
64 239 639
65 74 976
66 666 290
67 358 620
68 218 630
69 437 561
70 512 571
71 111 840
72 481 574
73 58 959
74 568 749
75 721 303
76 178 664
77 179 617
78 406 562
79 743 244
80 47 960
81 176 658
EDGE_WEIGHT_SECTION
0.00 1258.07 1217.39 798.73 1272.98 921.94 1240.25 942.34 1270.78 1084.28 1031.89 1032.19 1315.06 886.45 972.43 902.17 1250.88 932.48 950.79 1260.20 1225.83 872.34 1243.95 1165.61 1105.25 1163.96 1021.45 821.33 917.44 1073.04 1387.51 1207.09 800.04 1108.96 1180.23 808.93 1206.24 1157.18 1238.75 880.96 734.42 1254.23 1156.92 915.11 1156.25 1275.93 697.11 1281.54 905.07 841.30 901.69 835.44 1253.76 978.50 1112.57 1234.49 1045.97 1268.00 1088.57 1140.95 1237.53 1222.58 1149.15 1031.65 1373.77 1275.74 841.49 1065.66 937.53 919.03 1239.66 845.41 1302.43 821.37 1166.95 1143.60 1063.41 884.67 1265.12 1294.66 1152.99
1258.07 0.00 1512.84 687.33 32.44 810.54 1500.77 705.24 442.00 473.00 635.33 661.61 898.29 775.05 861.03 763.75 1500.93 801.66 835.21 241.05 1514.40 848.27 40.82 785.18 1550.91 757.23 886.80 711.00 753.86 442.48 1514.23 50.98 1000.41 669.02 1475.93 697.53 1456.29 1221.28 1556.48 769.56 817.96 1501.46 1521.69 803.71 640.11 859.16 812.48 103.16 752.51 697.05 790.29 724.04 1503.81 710.45 1476.28 541.83 650.31 1358.24 629.82 1407.22 1345.95 688.08 608.70 680.91 123.93 1383.29 730.09 666.95 836.49 949.01 293.05 901.74 61.41 904.91 1381.22 550.20 645.87 773.27 1549.93 37.95 559.79
1217.39 1512.84 0.00 825.51 1509.97 770.56 359.39 922.12 1192.70 1120.74 1034.38 947.81 1088.02 837.89 745.77 908.55 170.34 731.04 821.85 1366.45 279.65 861.65 1539.00 900.10 159.07 959.67 832.48 951.31 836.92 1090.22 355.09 1547.64 642.14 1046.27 130.87 815.31 201.28 407.05 321.81 801.03 980.97 194.37 107.40 834.05 1071.87 1048.89 993.78 1561.78 842.66 847.68 722.55 828.08 206.71 981.99 104.82 1174.07 957.19 217.22 1004.19 243.97 186.75 997.20 1103.28 971.33 1569.05 245.04 868.27 989.93 814.55 837.26 1316.37 788.50 1501.20 1067.92 245.26 1059.22 1020.01 773.59 235.79 1494.75 1077.07
798.73 687.33 825.51 0.00 716.89 123.21 850.97 143.61 472.05 327.66 233.16 233.46 516.33 87.72 173.70 103.44 816.15 133.75 156.68 643.43 827.07 219.60 728.15 366.88 863.58 365.23 222.72 285.71 118.71 297.14 846.32 738.31 313.08 330.09 788.60 10.20 841.22 533.95 869.15 82.23 385.83 814.13 834.36 116.38 357.52 477.20 244.88 768.70 195.31 42.57 102.96 36.71 829.11 179.77 788.95 448.33 247.24 670.91 289.84 719.89 678.04 423.85 388.93 232.92 787.65 695.96 42.76 266.93 149.16 263.43 598.33 214.41 724.84 472.78 693.89 344.87 305.66 85.94 875.16 701.67 354.26
1272.98 32.44 1509.97 716.89 0.00 792.17 1488.98 682.51 430.21 450.27 612.60 631.25 886.50 804.61 890.59 741.02 1468.49 778.93 802.77 229.07 1543.96 815.83 29.03 773.39 1524.84 745.44 875.01 688.27 761.26 419.75 1491.50 65.89 985.85 657.23 1505.49 706.69 1423.85 1238.19 1586.04 799.12 785.52 1471.84 1551.25 812.87 628.32 847.37 795.68 88.71 720.07 674.32 799.45 717.58 1471.37 687.72 1457.91 530.04 638.33 1345.61 621.28 1419.80 1323.22 676.29 596.91 658.18 100.79 1375.52 718.21 659.70 866.05 937.22 285.80 891.11 29.45 872.47 1410.78 542.95 638.62 802.83 1517.49 21.68 548.00
921.94 810.54 770.56 123.21 792.17 0.00 845.01 197.42 509.68 359.99 281.90 319.38 616.25 81.76 243.84 206.25 780.58 209.78 51.29 685.15 821.11 96.39 821.20 442.91 876.87 479.39 243.53 180.75 66.36 390.51 922.35 847.93 328.09 417.23 858.74 113.01 775.88 604.09 916.97 85.82 412.57 763.67 877.96 115.60 443.44 583.91 271.62 846.24 72.10 145.38 144.34 150.87 823.40 253.85 665.74 499.28 305.60 705.57 375.76 713.93 675.10 467.94 459.55 332.47 881.02 704.61 142.31 343.71 158.28 274.52 658.87 208.45 818.50 364.74 687.93 409.74 391.58 156.08 841.64 795.04 391.89
1240.25 1500.77 359.39 850.97 1488.98 845.01 0.00 901.51 1223.97 1175.53 1026.96 1028.44 1058.13 763.25 755.79 920.64 259.55 823.95 884.12 1451.48 223.38 803.89 1459.95 1057.08 283.47 1002.74 898.96 1013.58 811.42 1145.01 610.59 1496.81 812.35 1104.43 275.34 861.17 217.24 395.54 349.44 800.11 943.98 201.57 269.03 811.43 1152.50 1097.26 979.12 1522.29 899.65 893.54 828.56 887.68 169.72 970.48 365.97 1212.47 1042.22 263.44 1084.82 183.08 279.66 1148.42 1151.27 1054.00 1564.78 233.53 873.93 1028.33 765.77 600.03 1322.85 673.65 1518.43 1030.93 157.08 1124.03 1100.64 777.52 123.60 1510.66 1106.18
942.34 705.24 922.12 143.61 682.51 197.42 901.51 0.00 501.69 293.28 254.06 258.38 475.90 170.01 301.30 124.34 901.72 214.44 165.33 609.05 909.36 176.46 711.54 409.18 991.18 312.35 296.00 210.02 140.71 262.76 927.01 720.18 432.87 329.32 916.20 153.81 891.73 627.35 996.75 190.60 466.13 843.74 961.96 195.94 382.44 510.07 325.18 734.32 248.03 152.55 199.57 117.40 922.14 218.26 863.16 437.36 260.82 767.52 313.50 802.18 758.73 458.03 389.64 244.85 753.27 784.95 108.66 253.22 276.76 318.65 626.94 296.70 690.75 553.08 776.18 369.79 330.58 213.54 921.71 667.29 383.90
1270.78 442.00 1192.70 472.05 430.21 509.68 1223.97 501.69 0.00 349.29 298.38 244.89 466.13 460.72 589.77 428.10 1168.52 461.66 517.00 434.11 1200.07 597.22 401.18 396.60 1270.48 315.23 563.10 609.93 458.73 343.05 1174.23 438.04 654.78 227.02 1204.67 461.85 1169.49 920.92 1285.22 423.86 706.60 1121.50 1250.43 487.46 198.11 458.59 668.98 463.52 576.98 472.83 499.78 445.92 1181.48 350.88 1175.42 99.83 258.67 1023.28 191.07 1092.89 1005.95 354.05 166.70 268.16 531.00 1053.19 450.02 248.47 529.03 653.48 392.79 587.41 459.66 793.55 1066.89 135.64 221.15 526.86 1194.37 451.89 117.79
1084.28 473.00 1120.74 327.66 450.27 359.99 1175.53 293.28 349.29 0.00 208.75 320.14 545.18 415.38 501.36 338.47 1101.62 389.70 411.28 325.16 1154.73 456.38 479.30 478.46 1191.24 381.63 491.14 297.65 385.29 30.52 1102.27 487.94 596.62 368.06 1116.26 317.46 1121.85 810.41 1196.81 409.89 547.40 1090.59 1162.02 423.64 318.07 579.35 406.45 486.30 432.09 285.09 410.22 355.32 1082.33 298.49 1025.73 358.84 306.36 956.38 304.78 1030.57 933.99 490.75 349.48 268.95 521.03 972.42 328.98 304.93 476.82 575.50 466.87 501.88 458.51 634.35 1021.55 240.18 334.86 413.60 1128.45 435.05 231.50
1031.89 635.33 1034.38 233.16 612.60 281.90 1026.96 254.06 298.38 208.75 0.00 111.39 408.26 263.71 390.57 129.72 956.49 303.34 309.28 506.87 1003.06 374.36 633.74 372.90 1076.42 314.72 404.56 438.19 215.54 192.85 1015.91 619.04 500.21 186.81 1005.47 222.96 975.43 750.82 1086.02 299.29 574.34 949.72 1051.23 236.99 202.44 377.97 472.18 664.41 278.60 196.42 315.72 216.62 977.04 91.54 947.64 307.93 97.61 818.84 118.80 895.88 847.63 318.17 230.18 63.05 683.36 826.00 217.35 133.80 350.52 450.33 376.97 390.40 620.84 646.64 869.88 195.57 148.88 302.81 1023.16 597.38 180.59
1032.19 661.61 947.81 233.46 631.25 319.38 1028.44 258.38 244.89 320.14 111.39 0.00 296.87 307.20 400.88 212.00 928.69 216.77 370.67 423.04 1016.82 415.54 623.27 289.07 1052.32 223.04 318.21 388.48 288.71 304.24 929.34 610.63 465.46 98.46 977.34 243.66 953.77 676.03 1096.33 315.69 565.04 937.08 1023.10 337.22 124.06 294.14 424.09 685.08 355.22 249.84 336.42 270.17 941.65 105.99 956.64 226.26 13.78 783.45 56.38 857.64 761.06 234.48 155.47 89.57 625.64 813.36 243.00 42.12 364.97 428.41 368.56 431.24 601.80 651.99 883.64 111.41 72.20 319.40 987.77 625.26 129.26
1315.06 898.29 1088.02 516.33 886.50 616.25 1058.13 475.90 466.13 545.18 408.26 296.87 0.00 580.29 612.90 472.28 1061.53 421.05 641.23 666.23 1142.47 652.36 857.47 187.92 1154.41 163.55 432.49 685.35 564.47 575.70 1063.46 877.63 610.46 239.11 1122.47 510.03 1053.42 831.53 1268.53 598.56 859.51 1005.43 1145.87 551.75 330.84 39.13 720.96 905.59 652.09 522.72 570.11 492.07 1083.83 402.86 983.20 397.89 310.65 987.73 307.12 1023.85 965.34 210.21 299.43 386.44 868.83 993.54 539.87 315.21 588.36 702.63 635.56 680.48 897.08 877.22 1049.85 378.41 284.66 525.14 1042.69 873.62 380.40
886.45 775.05 837.89 87.72 804.61 81.76 763.25 170.01 460.72 415.38 263.71 307.20 580.29 0.00 175.23 191.16 793.11 191.59 133.05 712.45 739.35 136.50 815.87 424.72 828.18 446.00 161.77 262.51 48.17 384.86 845.74 826.03 279.13 341.18 790.13 97.92 759.90 535.48 835.21 36.86 430.49 735.13 835.89 48.18 394.99 557.26 311.73 854.78 153.86 130.29 115.34 124.43 781.93 255.81 747.50 449.22 303.19 667.10 354.10 632.17 697.57 386.18 401.50 308.96 873.73 637.19 118.80 265.08 142.03 192.76 617.93 126.69 811.21 446.50 606.17 360.78 379.40 87.47 787.44 787.75 342.93
972.43 861.03 745.77 173.70 890.59 243.84 755.79 301.30 589.77 501.36 390.57 400.88 612.90 175.23 0.00 277.14 666.38 253.28 271.22 817.13 764.23 262.35 901.85 486.41 689.88 499.60 218.71 326.01 211.94 470.84 869.54 912.01 314.90 499.34 614.90 183.90 671.69 360.25 695.45 177.16 388.32 640.43 660.66 153.58 524.94 635.20 380.08 908.29 261.83 216.27 138.80 210.41 710.37 334.74 750.38 599.32 414.66 552.17 457.26 657.05 582.64 550.47 550.89 387.89 890.05 522.26 197.73 439.27 91.04 226.17 746.98 152.55 898.54 475.27 631.05 489.83 473.08 87.76 718.40 875.37 471.98
902.17 763.75 908.55 103.44 741.02 206.25 920.64 124.34 428.10 338.47 129.72 212.00 472.28 191.16 277.14 0.00 885.47 183.94 227.57 607.48 930.51 300.80 763.46 417.07 960.74 380.36 285.38 309.84 163.58 321.27 896.51 748.76 378.23 233.17 892.04 93.24 859.75 637.39 972.59 169.57 444.62 834.04 937.80 177.22 273.59 478.58 342.46 792.83 273.32 66.70 186.00 86.90 898.43 144.13 871.99 416.11 198.22 740.23 248.52 823.33 728.23 436.50 293.49 192.77 729.06 710.32 87.63 236.33 252.60 320.61 506.69 287.91 749.26 531.57 797.33 323.41 278.60 189.38 912.01 725.80 310.31
1250.88 1500.93 170.34 816.15 1468.49 780.58 259.55 901.72 1168.52 1101.62 956.49 928.69 1061.53 793.11 666.38 885.47 0.00 711.92 831.12 1347.33 167.13 725.26 1461.81 873.61 145.63 970.44 809.55 949.24 841.28 1071.10 413.58 1498.67 682.43 1011.84 78.33 805.95 44.64 306.13 308.37 791.67 866.42 57.98 124.09 764.16 1052.75 1022.40 900.49 1522.56 748.42 838.32 713.19 808.96 92.16 864.95 162.16 1137.37 938.07 145.24 985.07 173.80 175.71 970.71 1052.03 948.47 1549.93 175.15 858.91 970.81 757.42 736.34 1290.03 666.42 1491.84 953.37 198.37 1032.88 966.29 754.14 135.95 1475.63 1050.73
932.48 801.66 731.04 133.75 778.93 209.78 823.95 214.44 461.66 389.70 303.34 216.77 421.05 191.59 253.28 183.94 711.92 0.00 237.16 635.41 800.05 306.17 807.96 233.13 836.88 329.96 101.44 366.62 143.42 359.18 712.57 816.60 348.50 315.23 775.57 125.90 737.00 459.26 895.91 187.15 448.91 720.31 821.33 170.49 340.83 381.92 352.60 830.74 278.93 158.27 169.71 97.04 724.88 262.95 764.89 443.03 226.15 566.68 273.15 640.87 544.29 330.23 372.24 240.29 838.01 596.59 176.51 258.89 228.74 343.01 585.33 318.28 785.17 535.86 666.87 328.18 288.97 165.52 771.00 763.71 346.03
950.79 835.21 821.85 156.68 802.77 51.29 884.12 165.33 517.00 411.28 309.28 370.67 641.23 133.05 271.22 227.57 831.12 237.16 0.00 667.17 872.40 146.19 831.80 470.29 887.47 477.68 248.43 129.46 93.74 397.98 929.52 855.40 346.57 433.40 876.96 146.48 786.48 631.47 966.67 104.30 394.63 813.47 922.72 166.89 477.57 617.38 253.68 856.84 82.70 160.87 182.78 184.34 834.00 304.72 717.03 494.11 356.89 750.73 417.93 765.22 726.39 519.23 473.59 359.85 869.77 748.54 169.69 385.23 209.47 284.09 638.51 210.47 825.97 416.03 739.22 381.36 387.85 192.01 880.12 802.51 399.21
1260.20 241.05 1366.45 643.43 229.07 685.15 1451.48 609.05 434.11 325.16 506.87 423.04 666.23 712.45 817.13 607.48 1347.33 635.41 667.17 0.00 1435.46 768.51 200.23 684.55 1447.80 628.29 736.85 537.71 701.06 346.29 1347.98 237.09 888.50 520.89 1372.82 633.23 1372.41 1094.67 1512.58 713.33 802.88 1355.72 1418.58 733.15 486.22 689.62 661.93 262.57 739.12 600.86 725.99 668.22 1360.29 501.92 1350.89 533.94 409.26 1202.09 469.03 1276.28 1179.70 657.52 509.83 485.05 202.60 1232.00 638.93 447.37 729.68 851.45 141.71 817.65 230.85 889.83 1302.28 389.41 485.08 729.37 1406.41 207.39 407.26
1225.83 1514.40 279.65 827.07 1543.96 821.11 223.38 909.36 1200.07 1154.73 1003.06 1016.82 1142.47 739.35 764.23 930.51 167.13 800.05 872.40 1435.46 0.00 837.76 1555.22 1011.51 120.58 978.92 836.03 1001.86 787.52 1124.21 530.81 1565.38 588.97 1068.15 195.56 837.27 122.49 403.98 156.48 776.21 920.16 170.48 172.25 787.53 1134.34 1136.78 1012.99 1594.13 826.27 869.64 822.03 863.78 145.90 978.92 313.24 1188.57 1026.20 254.08 1052.68 159.18 255.76 1108.61 1108.34 1026.13 1613.08 241.97 858.15 1004.43 829.72 727.76 1357.28 778.92 1550.56 1007.11 133.18 1100.13 1022.60 773.29 99.78 1527.10 1082.28
872.34 848.27 861.65 219.60 815.83 96.39 803.89 176.46 597.22 456.38 374.36 415.54 652.36 136.50 262.35 300.80 725.26 306.17 146.19 768.51 837.76 0.00 844.86 539.30 816.26 488.81 296.97 230.80 162.75 439.22 888.24 881.72 415.63 477.68 784.32 209.40 715.27 533.04 957.80 173.36 316.18 667.28 807.72 184.68 502.90 680.30 175.23 869.90 95.76 241.77 190.57 247.26 745.68 324.58 762.13 585.72 401.76 724.96 471.92 768.67 755.43 522.68 534.31 408.10 885.27 695.05 238.70 401.58 189.60 203.86 717.78 169.19 845.28 403.13 742.67 497.28 487.74 196.80 745.25 837.51 479.43
1243.95 40.82 1539.00 728.15 29.03 821.20 1459.95 711.54 401.18 479.30 633.74 623.27 857.47 815.87 901.85 763.46 1461.81 807.96 831.80 200.23 1555.22 844.86 0.00 744.36 1553.87 716.41 845.98 717.30 790.29 448.78 1520.53 36.86 1014.88 628.20 1516.75 735.72 1452.88 1262.10 1597.30 810.38 814.55 1500.87 1562.51 841.90 599.29 818.34 798.36 62.34 749.10 703.35 828.48 746.61 1500.40 702.15 1486.94 501.01 609.49 1374.64 592.25 1448.04 1352.25 647.26 567.88 646.44 129.82 1404.55 747.24 630.67 877.31 908.19 256.77 920.14 58.48 901.50 1422.04 513.92 609.59 814.09 1546.52 50.71 518.97
1165.61 785.18 900.10 366.88 773.39 442.91 1057.08 409.18 396.60 478.46 372.90 289.07 187.92 424.72 486.41 417.07 873.61 233.13 470.29 684.55 1011.51 539.30 744.36 0.00 1019.24 96.83 332.31 548.57 376.55 508.98 945.70 781.22 422.54 269.93 951.94 359.03 918.25 692.39 1129.04 420.28 682.04 931.59 997.70 403.62 256.88 148.79 585.73 806.70 512.06 391.40 402.84 330.17 958.01 367.95 795.28 378.47 275.29 799.81 296.47 874.00 777.42 97.10 245.36 351.08 874.18 829.72 409.64 277.75 461.87 576.14 582.42 551.41 802.84 768.99 900.00 325.27 278.87 398.65 975.97 795.07 343.12
1105.25 1550.91 159.07 863.58 1524.84 876.87 283.47 991.18 1270.48 1191.24 1076.42 1052.32 1154.41 828.18 689.88 960.74 145.63 836.88 887.47 1447.80 120.58 816.26 1553.87 1019.24 0.00 1039.01 736.34 1005.59 876.35 1160.72 410.23 1590.73 652.23 1131.41 74.98 873.78 100.99 412.43 162.74 865.04 922.77 148.98 51.67 839.43 1176.38 1115.28 938.05 1578.91 804.77 906.15 828.68 900.29 148.51 987.37 263.89 1256.94 1038.54 271.31 1108.70 196.01 292.59 1084.75 1171.60 1070.89 1579.93 250.42 887.61 1076.65 780.92 816.59 1416.10 757.42 1554.29 1009.72 222.01 1158.95 1085.86 777.64 159.87 1546.52 1152.69
1163.96 757.23 959.67 365.23 745.44 479.39 1002.74 312.35 315.23 381.63 314.72 223.04 163.55 446.00 499.60 380.36 970.44 329.96 477.68 628.29 978.92 488.81 716.41 96.83 1039.01 0.00 328.24 522.37 453.06 412.15 1042.53 753.27 519.37 208.85 1030.88 366.38 972.78 728.97 1104.98 447.46 725.03 957.11 1024.57 472.56 179.94 197.72 584.08 778.75 551.49 398.75 407.96 328.52 925.26 311.69 892.11 281.64 219.03 896.64 200.23 970.83 874.25 145.68 148.53 258.02 830.89 890.98 384.91 180.92 499.96 591.34 526.10 542.39 774.89 713.67 996.83 268.95 182.04 451.17 879.14 767.12 264.83
1021.45 886.80 832.48 222.72 875.01 243.53 898.96 296.00 563.10 491.14 404.56 318.21 432.49 161.77 218.71 285.38 809.55 101.44 248.43 736.85 836.03 296.97 845.98 332.31 736.34 328.24 0.00 377.89 189.02 460.62 814.01 882.84 247.06 416.67 811.32 227.34 814.86 503.42 899.08 198.63 509.22 783.60 788.01 171.96 442.27 459.10 454.04 908.32 315.63 219.54 141.85 198.48 826.32 357.63 866.33 544.39 327.59 668.12 374.59 742.31 645.73 348.41 458.04 341.73 939.45 665.43 263.43 360.33 189.57 343.69 686.77 273.74 886.61 596.17 767.94 429.62 373.31 166.20 861.57 865.15 447.47
821.33 711.00 951.31 285.71 688.27 180.75 1013.58 210.02 609.93 297.65 438.19 388.48 685.35 262.51 326.01 309.84 949.24 366.62 129.46 537.71 1001.86 230.80 717.30 548.57 1005.59 522.37 377.89 0.00 223.20 268.52 1043.89 725.94 476.03 486.33 940.91 275.51 904.60 686.26 1021.46 233.76 265.17 898.08 986.67 250.87 512.54 655.06 124.22 740.08 212.16 243.14 312.24 273.99 952.12 346.65 846.49 596.95 374.70 869.79 418.86 894.68 855.85 618.23 534.68 430.17 740.31 839.88 287.03 412.81 338.93 413.55 573.23 339.93 696.51 352.12 868.68 498.48 448.94 316.69 976.05 673.05 492.14
917.44 753.86 836.92 118.71 761.26 66.36 811.42 140.71 458.73 385.29 215.54 288.71 564.47 48.17 211.94 163.58 841.28 143.42 93.74 701.06 787.52 162.75 790.29 376.55 876.35 453.06 189.02 223.20 0.00 354.77 855.99 804.84 327.30 387.17 826.84 128.91 808.07 572.19 883.38 85.03 467.20 783.30 872.60 89.75 412.77 525.34 337.98 806.61 138.46 100.20 163.51 155.42 830.10 212.96 732.10 432.92 302.49 708.67 334.34 680.34 687.71 434.35 433.24 266.11 825.56 678.76 75.95 313.25 164.35 240.93 592.51 174.86 763.04 431.10 654.34 358.79 360.91 124.18 835.61 739.58 340.94
1073.04 442.48 1090.22 297.14 419.75 390.51 1145.01 262.76 343.05 30.52 192.85 304.24 575.70 384.86 470.84 321.27 1071.10 359.18 397.98 346.29 1124.21 439.22 448.78 508.98 1160.72 412.15 460.62 268.52 354.77 0.00 1071.75 457.42 566.10 350.51 1085.74 286.94 1096.18 818.44 1166.29 379.37 516.88 1079.49 1131.50 393.12 287.55 570.82 375.93 471.56 462.61 254.57 379.70 324.80 1084.06 267.97 1056.25 387.86 290.46 925.86 311.65 1000.05 903.47 460.23 318.96 238.43 490.51 955.77 298.46 274.41 446.30 544.98 443.06 471.36 427.99 603.83 991.03 270.70 341.73 383.08 1130.18 404.53 260.52
1387.51 1514.23 355.09 846.32 1491.50 922.35 610.59 927.01 1174.23 1102.27 1015.91 929.34 1063.46 845.74 869.54 896.51 413.58 712.57 929.52 1347.98 530.81 888.24 1520.53 945.70 410.23 1042.53 814.01 1043.89 855.99 1071.75 0.00 1529.17 706.40 1027.80 335.25 838.47 425.73 509.29 572.79 882.60 1081.05 452.29 381.01 883.06 1053.40 1094.49 1063.47 1543.31 981.96 870.84 882.28 809.61 440.87 975.52 274.94 1155.60 938.72 468.48 985.72 538.08 474.94 1042.80 1084.81 952.86 1550.58 438.57 889.08 971.46 811.17 792.67 1297.90 719.05 1497.74 1168.00 514.87 1040.75 1001.54 874.39 486.99 1476.28 1058.60
1207.09 50.98 1547.64 738.31 65.89 847.93 1496.81 720.18 438.04 487.94 619.04 610.63 877.63 826.03 912.01 748.76 1498.67 816.60 855.40 237.09 1565.38 881.72 36.86 781.22 1590.73 753.27 882.84 725.94 804.84 457.42 1529.17 0.00 1023.52 638.52 1526.91 744.36 1489.74 1272.26 1607.46 820.54 851.41 1520.78 1572.67 850.54 596.03 855.20 761.50 74.45 785.96 711.99 837.12 775.02 1537.26 710.58 1513.67 537.87 624.41 1383.28 578.84 1457.47 1360.89 684.12 604.74 631.74 166.68 1413.19 755.88 615.97 887.47 945.05 242.07 928.78 95.34 938.36 1432.20 499.22 594.89 824.25 1583.38 87.57 517.07
800.04 1000.41 642.14 313.08 985.85 328.09 812.35 432.87 654.78 596.62 500.21 465.46 610.46 279.13 314.90 378.23 682.43 348.50 346.57 888.50 588.97 415.63 1014.88 422.54 652.23 519.37 247.06 476.03 327.30 566.10 706.40 1023.52 0.00 479.18 727.21 323.28 672.44 675.15 745.45 242.27 570.16 624.45 703.90 292.96 550.78 571.33 472.21 1037.66 359.06 311.53 278.18 349.79 702.85 455.38 708.29 604.71 479.24 580.26 463.71 645.69 584.33 519.64 519.37 437.16 1039.76 610.17 324.21 507.58 240.75 404.63 786.45 332.87 994.09 657.11 671.69 529.30 433.63 227.14 688.75 970.63 536.99
1108.96 669.02 1046.27 330.09 657.23 417.23 1104.43 329.32 227.02 368.06 186.81 98.46 239.11 341.18 499.34 233.17 1011.84 315.23 433.40 520.89 1068.15 477.68 628.20 269.93 1131.41 208.85 416.67 486.33 387.17 350.51 1027.80 638.52 479.18 0.00 1075.19 319.89 1052.23 774.49 1176.39 378.04 663.50 1035.54 1120.95 389.36 91.73 278.24 522.55 666.48 453.52 287.52 366.20 320.07 1040.11 204.29 1054.49 182.94 111.63 881.91 68.01 956.10 859.52 203.33 60.32 153.20 721.42 911.82 320.80 76.10 454.59 526.87 396.45 467.87 685.18 750.45 947.35 139.30 45.55 416.03 1086.23 678.91 141.29
1180.23 1475.93 130.87 788.60 1505.49 858.74 275.34 916.20 1204.67 1116.26 1005.47 977.34 1122.47 790.13 614.90 892.04 78.33 775.57 876.96 1372.82 195.56 784.32 1516.75 951.94 74.98 1030.88 811.32 940.91 826.84 1085.74 335.25 1526.91 727.21 1075.19 0.00 798.80 90.48 384.46 237.72 792.06 879.88 117.04 45.76 768.48 1101.40 1083.34 883.00 1523.19 794.26 831.17 753.70 825.31 105.62 943.28 218.54 1185.81 963.56 208.89 1033.72 209.76 239.36 1049.04 1130.36 1002.79 1504.95 230.33 812.63 1001.67 705.94 799.10 1345.18 725.48 1513.44 966.83 234.33 1088.03 1044.62 702.66 151.74 1490.27 1086.88
808.93 697.53 815.31 10.20 706.69 113.01 861.17 153.81 461.85 317.46 222.96 243.66 510.03 97.92 183.90 93.24 805.95 125.90 146.48 633.23 837.27 209.40 735.72 359.03 873.78 366.38 227.34 275.51 128.91 286.94 838.47 744.36 323.28 319.89 798.80 0.00 831.03 544.15 879.35 92.43 396.03 814.34 844.56 106.18 366.83 470.90 255.08 758.50 185.11 32.37 92.76 37.86 818.91 176.07 778.75 440.87 257.44 660.71 292.71 730.09 670.19 413.65 380.21 243.12 777.45 690.62 52.96 256.73 159.36 273.63 599.48 224.61 714.93 477.75 704.09 355.07 315.86 96.14 865.03 691.47 344.06
1206.24 1456.29 201.28 841.22 1423.85 775.88 217.24 891.73 1169.49 1121.85 975.43 953.77 1053.42 759.90 671.69 859.75 44.64 737.00 786.48 1372.41 122.49 715.27 1452.88 918.25 100.99 972.78 814.86 904.60 808.07 1096.18 425.73 1489.74 672.44 1052.23 90.48 831.03 0.00 311.44 263.73 793.67 821.78 47.99 136.24 738.44 1077.83 1014.29 890.50 1477.92 703.78 863.40 738.27 834.04 47.52 886.38 206.80 1179.04 963.15 170.32 1010.15 136.39 200.79 1015.35 1096.67 969.90 1524.64 149.43 856.71 995.89 748.55 730.05 1315.11 656.43 1453.30 908.73 153.73 1057.96 1010.93 755.28 93.64 1445.53 1051.70
1157.18 1221.28 407.05 533.95 1238.19 604.09 395.54 627.35 920.92 810.41 750.82 676.03 831.53 535.48 360.25 637.39 306.13 459.26 631.47 1094.67 403.98 533.04 1262.10 692.39 412.43 728.97 503.42 686.26 572.19 818.44 509.29 1272.26 675.15 774.49 384.46 544.15 311.44 0.00 474.34 537.41 748.57 280.18 420.62 513.83 800.09 841.18 708.27 1268.54 622.08 576.52 499.05 556.30 350.12 694.99 390.13 902.29 685.41 191.92 732.41 296.80 222.39 789.49 831.50 699.55 1250.30 162.01 557.98 718.15 451.29 430.21 1044.59 503.83 1244.43 835.52 270.80 787.44 748.23 448.01 358.15 1222.97 805.29
1238.75 1556.48 321.81 869.15 1586.04 916.97 349.44 996.75 1285.22 1196.81 1086.02 1096.33 1268.53 835.21 695.45 972.59 308.37 895.91 966.67 1512.58 156.48 957.80 1597.30 1129.04 162.74 1104.98 899.08 1021.46 883.38 1166.29 572.79 1607.46 745.45 1176.39 237.72 879.35 263.73 474.34 0.00 872.07 1046.22 303.81 214.41 849.03 1220.39 1270.11 1075.53 1603.74 957.28 911.72 834.25 905.86 271.96 1030.19 426.63 1284.43 1110.11 342.24 1152.71 255.04 351.62 1221.39 1236.71 1083.34 1585.50 312.33 893.18 1100.29 786.49 823.62 1442.43 848.00 1593.99 1130.14 229.04 1185.28 1168.53 783.21 225.84 1570.82 1167.43
880.96 769.56 801.03 82.23 799.12 85.82 800.11 190.60 423.86 409.89 299.29 315.69 598.56 36.86 177.16 169.57 791.67 187.15 104.30 713.33 776.21 173.36 810.38 420.28 865.04 447.46 198.63 233.76 85.03 379.37 882.60 820.54 242.27 378.04 792.06 92.43 793.67 537.41 872.07 0.00 418.61 767.96 837.82 63.60 405.14 559.43 327.11 850.93 157.92 124.80 78.48 118.94 804.63 218.95 751.56 433.41 311.09 646.43 319.86 669.03 676.90 423.04 373.73 272.10 869.88 644.24 81.94 301.94 105.17 229.62 581.07 163.55 807.07 450.56 643.03 323.92 349.94 103.00 824.30 783.90 306.07
734.42 817.96 980.97 385.83 785.52 412.57 943.98 466.13 706.60 547.40 574.34 565.04 859.51 430.49 388.32 444.62 866.42 448.91 394.63 802.88 920.16 316.18 814.55 682.04 922.77 725.03 509.22 265.17 467.20 516.88 1081.05 851.41 570.16 663.50 879.88 396.03 821.78 748.57 1046.22 418.61 0.00 852.66 873.57 408.84 667.77 820.38 140.95 874.23 357.35 428.40 394.06 396.51 774.26 565.60 1028.58 716.15 578.82 932.46 621.42 924.02 962.93 779.14 691.38 618.75 850.99 910.58 428.59 607.16 406.24 435.62 683.50 362.00 814.97 86.95 950.02 570.96 637.24 343.02 820.38 807.20 588.81
1254.23 1501.46 194.37 814.13 1471.84 763.67 201.57 843.74 1121.50 1090.59 949.72 937.08 1005.43 735.13 640.43 834.04 57.98 720.31 813.47 1355.72 170.48 667.28 1500.87 931.59 148.98 957.11 783.60 898.08 783.30 1079.49 452.29 1520.78 624.45 1035.54 117.04 814.34 47.99 280.18 303.81 767.96 852.66 0.00 140.44 712.73 1061.14 966.30 842.51 1517.81 751.77 846.71 721.58 817.35 78.40 860.67 211.36 1131.05 946.46 153.63 993.46 115.82 184.10 1028.69 1092.55 944.19 1499.57 123.72 808.72 979.20 700.56 682.06 1278.71 608.44 1500.23 939.61 141.82 1021.56 1009.28 728.19 77.97 1484.02 1003.71
1156.92 1521.69 107.40 834.36 1551.25 877.96 269.03 961.96 1250.43 1162.02 1051.23 1023.10 1145.87 835.89 660.66 937.80 124.09 821.33 922.72 1418.58 172.25 807.72 1562.51 997.70 51.67 1024.57 788.01 986.67 872.60 1131.50 381.01 1572.67 703.90 1120.95 45.76 844.56 136.24 420.62 214.41 837.82 873.57 140.44 0.00 814.24 1147.16 1106.74 886.38 1568.95 840.02 876.93 799.46 871.07 99.31 989.04 212.22 1231.57 1009.32 254.65 1079.48 205.46 285.12 1094.80 1173.10 1048.55 1550.71 264.16 858.39 1047.43 751.70 822.50 1390.94 748.88 1559.20 960.52 231.46 1133.79 1090.38 748.42 145.43 1536.03 1132.64
915.11 803.71 834.05 116.38 812.87 115.60 811.43 195.94 487.46 423.64 236.99 337.22 551.75 48.18 153.58 177.22 764.16 170.49 166.89 733.15 787.53 184.68 841.90 403.62 839.43 472.56 171.96 250.87 89.75 393.12 883.06 850.54 292.96 389.36 768.48 106.18 738.44 513.83 849.03 63.60 408.84 712.73 814.24 0.00 439.43 552.41 296.34 864.68 179.81 138.55 116.86 144.04 751.97 231.23 781.34 497.01 323.89 618.92 355.79 680.35 649.39 434.36 437.33 300.04 883.63 589.01 145.54 313.26 127.92 240.94 613.96 174.87 821.11 480.34 654.35 387.52 385.87 65.82 790.70 797.65 369.67
1156.25 640.11 1071.87 357.52 628.32 443.44 1152.50 382.44 198.11 318.07 202.44 124.06 330.84 394.99 524.94 273.59 1052.75 340.83 477.57 486.22 1134.34 502.90 599.29 256.88 1176.38 179.94 442.27 512.54 412.77 287.55 1053.40 596.03 550.78 91.73 1101.40 366.83 1077.83 800.09 1220.39 405.14 667.77 1061.14 1147.16 439.43 0.00 328.84 548.15 661.63 479.28 340.29 457.93 356.38 1065.71 230.05 1052.16 147.67 137.84 907.51 101.53 981.70 885.12 172.68 31.41 198.54 678.93 937.42 361.22 129.91 488.11 552.47 353.96 521.68 649.91 754.72 1001.16 96.81 117.15 443.46 1059.08 650.00 114.66
1275.93 859.16 1048.89 477.20 847.37 583.91 1097.26 510.07 458.59 579.35 377.97 294.14 39.13 557.26 635.20 478.58 1022.40 381.92 617.38 689.62 1136.78 680.30 818.34 148.79 1115.28 197.72 459.10 655.06 525.34 570.82 1094.49 855.20 571.33 278.24 1083.34 470.90 1014.29 841.18 1270.11 559.43 820.38 966.30 1106.74 552.41 328.84 0.00 718.23 880.68 622.25 503.27 551.63 478.96 1044.70 373.02 944.07 358.76 280.36 948.60 346.25 1022.79 926.21 171.08 338.56 356.15 838.36 978.51 510.03 318.47 610.66 722.55 662.70 683.95 861.00 907.33 1048.79 405.55 323.79 547.44 1044.27 869.05 419.53
697.11 812.48 993.78 244.88 795.68 271.62 979.12 325.18 668.98 406.45 472.18 424.09 720.96 311.73 380.08 342.46 900.49 352.60 253.68 661.93 1012.99 175.23 798.36 585.73 938.05 584.08 454.04 124.22 337.98 375.93 1063.47 761.50 472.21 522.55 883.00 255.08 890.50 708.27 1075.53 327.11 140.95 842.51 886.38 296.34 548.15 718.23 0.00 835.95 270.99 287.45 347.84 255.56 915.21 424.65 895.29 650.35 437.87 900.19 480.47 943.90 874.36 658.57 579.56 477.80 710.04 870.28 287.64 466.21 289.04 379.09 542.55 344.42 781.38 227.90 917.90 535.50 496.29 330.82 920.48 780.46 553.35
1281.54 103.16 1561.78 768.70 88.71 846.24 1522.29 734.32 463.52 486.30 664.41 685.08 905.59 854.78 908.29 792.83 1522.56 830.74 856.84 262.57 1594.13 869.90 62.34 806.70 1578.91 778.75 908.32 740.08 806.61 471.56 1543.31 74.45 1037.66 666.48 1523.19 758.50 1477.92 1268.54 1603.74 850.93 874.23 1517.81 1568.95 864.68 661.63 880.68 835.95 0.00 774.14 726.13 851.26 778.62 1525.44 739.53 1511.98 563.35 671.83 1397.42 653.29 1471.61 1375.03 709.60 630.22 706.19 150.45 1427.33 770.02 690.42 817.25 970.53 316.52 909.37 90.49 961.18 1460.95 573.67 669.34 854.64 1571.56 67.03 581.31
905.07 752.51 842.66 195.31 720.07 72.10 899.65 248.03 576.98 432.09 278.60 355.22 652.09 153.86 261.83 273.32 748.42 278.93 82.70 739.12 826.27 95.76 749.10 512.06 804.77 551.49 315.63 212.16 138.46 462.61 981.96 785.96 359.06 453.52 794.26 185.11 703.78 622.08 957.28 157.92 357.35 751.77 840.02 179.81 479.28 622.25 270.99 774.14 0.00 217.48 216.44 222.97 751.30 249.23 737.84 564.14 341.89 774.60 397.40 786.03 747.20 540.04 499.88 332.75 820.86 768.82 207.12 380.00 170.79 299.62 655.57 262.91 749.52 436.84 760.03 464.06 427.42 220.88 797.42 741.75 459.19
841.30 697.05 847.68 42.57 674.32 145.38 893.54 152.55 472.83 285.09 196.42 249.84 522.72 130.29 216.27 66.70 838.32 158.27 160.87 600.86 869.64 241.77 703.35 391.40 906.15 398.75 219.54 243.14 100.20 254.57 870.84 711.99 311.53 287.52 831.17 32.37 863.40 576.52 911.72 124.80 428.40 846.71 876.93 138.55 340.29 503.27 287.45 726.13 217.48 0.00 125.13 70.23 851.28 143.85 811.12 408.50 236.51 693.08 306.22 762.46 702.56 446.02 347.84 227.37 745.08 722.99 43.89 224.36 191.73 306.00 573.39 244.17 682.56 510.12 736.46 341.11 322.04 128.51 897.40 659.10 355.04
901.69 790.29 722.55 102.96 799.45 144.34 828.56 199.57 499.78 410.22 315.72 336.42 570.11 115.34 138.80 186.00 713.19 169.71 182.78 725.99 822.03 190.57 828.48 402.84 828.68 407.96 141.85 312.24 163.51 379.70 882.28 837.12 278.18 366.20 753.70 92.76 738.27 499.05 834.25 78.48 394.06 721.58 799.46 116.86 457.93 551.63 347.84 851.26 216.44 125.13 0.00 125.36 726.15 268.83 766.16 511.89 350.20 567.95 380.21 695.00 598.42 411.67 426.52 335.88 849.99 597.86 145.72 349.49 92.00 228.53 659.55 184.12 778.65 481.01 688.85 402.40 408.62 51.04 772.27 784.23 384.55
835.44 724.04 828.08 36.71 717.58 150.87 887.68 117.40 445.92 355.32 216.62 270.17 492.07 124.43 210.41 86.90 808.96 97.04 184.34 668.22 863.78 247.26 746.61 330.17 900.29 328.52 198.48 273.99 155.42 324.80 809.61 775.02 349.79 320.07 825.31 37.86 834.04 556.30 905.86 118.94 396.51 817.35 871.07 144.04 356.38 478.96 255.56 778.62 222.97 70.23 125.36 0.00 821.92 213.93 816.61 411.62 258.96 663.72 254.85 737.91 641.33 427.27 370.67 267.27 759.47 693.63 79.47 294.59 185.87 300.14 561.62 251.12 688.13 483.46 730.60 334.47 284.93 122.65 868.04 711.59 328.13
1253.76 1503.81 206.71 829.11 1471.37 823.40 169.72 922.14 1181.48 1082.33 977.04 941.65 1083.83 781.93 710.37 898.43 92.16 724.88 834.00 1360.29 145.90 745.68 1500.40 958.01 148.51 925.26 826.32 952.12 830.10 1084.06 440.87 1537.26 702.85 1040.11 105.62 818.91 47.52 350.12 271.96 804.63 774.26 78.40 99.31 751.97 1065.71 1044.70 915.21 1525.44 751.30 851.28 726.15 821.92 0.00 925.06 254.32 1167.91 951.03 158.20 998.03 149.76 188.67 1055.11 1073.79 965.17 1541.21 188.11 833.98 983.77 742.20 760.46 1302.99 686.84 1500.82 861.21 175.76 1045.84 1013.85 777.19 46.12 1488.59 1063.69
978.50 710.45 981.99 179.77 687.72 253.85 970.48 218.26 350.88 298.49 91.54 105.99 402.86 255.81 334.74 144.13 864.95 262.95 304.72 501.92 978.92 324.58 702.15 367.95 987.37 311.69 357.63 346.65 212.96 267.97 975.52 710.58 455.38 204.29 943.28 176.07 886.38 694.99 1030.19 218.95 565.60 860.67 989.04 231.23 230.05 373.02 424.65 739.53 249.23 143.85 268.83 213.93 925.06 0.00 919.59 314.91 92.66 766.86 162.37 871.74 797.33 340.47 250.65 83.52 704.52 736.95 137.01 130.77 258.98 398.87 468.51 325.25 695.96 618.59 845.74 216.04 178.19 246.98 938.64 672.50 233.89
1112.57 1476.28 104.82 788.95 1457.91 665.74 365.97 863.16 1175.42 1025.73 947.64 956.64 983.20 747.50 750.38 871.99 162.16 764.89 717.03 1350.89 313.24 762.13 1486.94 795.28 263.89 892.11 866.33 846.49 732.10 1056.25 274.94 1513.67 708.29 1054.49 218.54 778.75 206.80 390.13 426.63 751.56 1028.58 211.36 212.22 781.34 1052.16 944.07 895.29 1511.98 737.84 811.12 766.16 816.61 254.32 919.59 0.00 1165.02 942.86 198.21 1013.02 263.14 228.68 892.38 1040.64 975.38 1546.76 228.12 808.05 980.97 824.02 820.34 1324.61 819.80 1484.24 1030.48 239.93 1068.05 1028.84 817.20 242.37 1460.78 1057.63
1234.49 541.83 1174.07 448.33 530.04 499.28 1212.47 437.36 99.83 358.84 307.93 226.26 397.89 449.22 599.32 416.11 1137.37 443.03 494.11 533.94 1188.57 585.72 501.01 378.47 1256.94 281.64 544.39 596.95 432.92 387.86 1155.60 537.87 604.71 182.94 1185.81 440.87 1179.04 902.29 1284.43 433.41 716.15 1131.05 1231.57 497.01 147.67 358.76 650.35 563.35 564.14 408.50 511.89 411.62 1167.91 314.91 1165.02 0.00 222.25 1009.71 196.29 1081.39 987.32 320.35 133.11 261.24 573.58 1039.62 451.40 184.14 538.58 641.98 402.34 575.91 502.24 803.10 1055.39 145.19 171.08 534.27 1160.78 525.70 127.34
1045.97 650.31 957.19 247.24 638.33 305.60 1042.22 260.82 258.67 306.36 97.61 13.78 310.65 303.19 414.66 198.22 938.07 226.15 356.89 409.26 1026.20 401.76 609.49 275.29 1038.54 219.03 327.59 374.70 302.49 290.46 938.72 624.41 479.24 111.63 963.56 257.44 963.15 685.41 1110.11 311.09 578.82 946.46 1009.32 323.89 137.84 280.36 437.87 671.83 341.89 236.51 350.20 258.96 951.03 92.66 942.86 222.25 0.00 792.83 70.16 867.02 770.44 248.26 169.25 75.79 611.86 822.74 229.67 38.11 351.64 442.19 382.34 417.91 615.58 665.77 893.02 125.19 85.98 333.18 997.15 616.65 143.04
1268.00 1358.24 217.22 670.91 1345.61 705.57 263.44 767.52 1023.28 956.38 818.84 783.45 987.73 667.10 552.17 740.23 145.24 566.68 750.73 1202.09 254.08 724.96 1374.64 799.81 271.31 896.64 668.12 869.79 708.67 925.86 468.48 1383.28 580.26 881.91 208.89 660.71 170.32 191.92 342.24 646.43 932.46 153.63 254.65 618.92 907.51 948.60 900.19 1397.42 774.60 693.08 567.95 663.72 158.20 766.86 198.21 1009.71 792.83 0.00 839.83 127.05 30.47 896.91 938.92 806.97 1404.69 29.91 713.67 825.57 643.21 622.13 1144.79 632.22 1346.60 913.24 120.90 887.64 855.65 618.99 204.32 1330.39 905.49
1088.57 629.82 1004.19 289.84 621.28 375.76 1084.82 313.50 191.07 304.78 118.80 56.38 307.12 354.10 457.26 248.52 985.07 273.15 417.93 469.03 1052.68 471.92 592.25 296.47 1108.70 200.23 374.59 418.86 334.34 311.65 985.72 578.84 463.71 68.01 1033.72 292.71 1010.15 732.41 1152.71 319.86 621.42 993.46 1079.48 355.79 101.53 346.25 480.47 653.29 397.40 306.22 380.21 254.85 998.03 162.37 1013.02 196.29 70.16 839.83 0.00 914.02 817.44 199.37 115.82 134.30 661.74 869.74 299.38 89.02 386.58 484.79 336.77 478.70 646.28 708.37 940.02 79.62 30.08 375.78 1044.15 642.96 73.28
1140.95 1407.22 243.97 719.89 1419.80 713.93 183.08 802.18 1092.89 1030.57 895.88 857.64 1023.85 632.17 657.05 823.33 173.80 640.87 765.22 1276.28 159.18 768.67 1448.04 874.00 196.01 970.83 742.31 894.68 680.34 1000.05 538.08 1457.47 645.69 956.10 209.76 730.09 136.39 296.80 255.04 669.03 924.02 115.82 205.46 680.35 981.70 1022.79 943.90 1471.61 786.03 762.46 695.00 737.91 149.76 871.74 263.14 1081.39 867.02 127.05 914.02 0.00 96.58 971.10 1013.11 881.16 1478.88 134.79 750.97 897.25 748.09 620.58 1226.20 694.20 1426.04 875.10 26.00 969.05 929.84 719.64 155.27 1404.58 975.10
1237.53 1345.95 186.75 678.04 1323.22 675.10 279.66 758.73 1005.95 933.99 847.63 761.06 965.34 697.57 582.64 728.23 175.71 544.29 726.39 1179.70 255.76 755.43 1352.25 777.42 292.59 874.25 645.73 855.85 687.71 903.47 474.94 1360.89 584.33 859.52 239.36 670.19 200.79 222.39 351.62 676.90 962.93 184.10 285.12 649.39 885.12 926.21 874.36 1375.03 747.20 702.56 598.42 641.33 188.67 797.33 228.68 987.32 770.44 30.47 817.44 96.58 0.00 874.52 916.53 784.58 1382.30 60.38 720.80 803.18 673.68 652.60 1129.62 601.75 1329.46 943.71 122.58 872.47 833.26 649.46 231.98 1308.00 890.32
1222.58 688.08 997.20 423.85 676.29 467.94 1148.42 458.03 354.05 490.75 318.17 234.48 210.21 386.18 550.47 436.50 970.71 330.23 519.23 657.52 1108.61 522.68 647.26 97.10 1084.75 145.68 348.41 618.23 434.35 460.23 1042.80 684.12 519.64 203.33 1049.04 413.65 1015.35 789.49 1221.39 423.04 779.14 1028.69 1094.80 434.36 172.68 171.08 658.57 709.60 540.04 446.02 411.67 427.27 1055.11 340.47 892.38 320.35 248.26 896.91 199.37 971.10 874.52 0.00 187.35 318.40 777.08 926.82 466.61 247.50 503.67 578.94 526.64 512.87 705.74 832.68 992.35 269.49 205.22 462.71 1024.82 697.97 272.65
1149.15 608.70 1103.28 388.93 596.91 459.55 1151.27 389.64 166.70 349.48 230.18 155.47 299.43 401.50 550.89 293.49 1052.03 372.24 473.59 509.83 1108.34 534.31 567.88 245.36 1171.60 148.53 458.04 534.68 433.24 318.96 1084.81 604.74 519.37 60.32 1130.36 380.21 1096.67 831.50 1236.71 373.73 691.38 1092.55 1173.10 437.33 31.41 338.56 579.56 630.22 499.88 347.84 426.52 370.67 1073.79 250.65 1040.64 133.11 169.25 938.92 115.82 1013.11 916.53 187.35 0.00 167.13 697.70 968.83 357.29 136.42 478.90 583.88 377.57 528.19 626.36 778.33 1007.67 120.42 85.74 467.26 1027.67 618.59 123.90
1031.65 680.91 971.33 232.92 658.18 332.47 1054.00 244.85 268.16 268.95 63.05 89.57 386.44 308.96 387.89 192.77 948.47 240.29 359.85 485.05 1026.13 408.10 646.44 351.08 1070.89 258.02 341.73 430.17 266.11 238.43 952.86 631.74 437.16 153.20 1002.79 243.12 969.90 699.55 1083.34 272.10 618.75 944.19 1048.55 300.04 198.54 356.15 477.80 706.19 332.75 227.37 335.88 267.27 965.17 83.52 975.38 261.24 75.79 806.97 134.30 881.16 784.58 318.40 167.13 0.00 652.24 820.47 190.16 77.10 342.50 464.06 389.67 390.44 666.42 697.21 907.16 132.52 113.18 300.13 1011.29 642.96 150.37
1373.77 123.93 1569.05 787.65 100.79 881.02 1564.78 753.27 531.00 521.03 683.36 625.64 868.83 873.73 890.05 729.06 1549.93 838.01 869.77 202.60 1613.08 885.27 129.82 874.18 1579.93 830.89 939.45 740.31 825.56 490.51 1550.58 166.68 1039.76 721.42 1504.95 777.45 1524.64 1250.30 1585.50 869.88 850.99 1499.57 1550.71 883.63 678.93 838.36 710.04 150.45 820.86 745.08 849.99 759.47 1541.21 704.52 1546.76 573.58 611.86 1404.69 661.74 1478.88 1382.30 777.08 697.70 652.24 0.00 1412.31 788.97 649.97 799.01 964.75 324.97 891.13 71.34 937.94 1479.90 582.12 677.79 862.23 1577.54 85.98 599.97
1275.74 1383.29 245.04 695.96 1375.52 704.61 233.53 784.95 1053.19 972.42 826.00 813.36 993.54 637.19 522.26 710.32 175.15 596.59 748.54 1232.00 241.97 695.05 1404.55 829.72 250.42 890.98 665.43 839.88 678.76 955.77 438.57 1413.19 610.17 911.82 230.33 690.62 149.43 162.01 312.33 644.24 910.58 123.72 264.16 589.01 937.42 978.51 870.28 1427.33 768.82 722.99 597.86 693.63 188.11 736.95 228.12 1039.62 822.74 29.91 869.74 134.79 60.38 926.82 968.83 820.47 1412.31 0.00 719.99 855.48 613.30 592.22 1174.70 662.13 1376.51 943.15 108.79 917.55 885.56 610.02 201.69 1360.30 935.40
841.49 730.09 868.27 42.76 718.21 142.31 873.93 108.66 450.02 328.98 217.35 243.00 539.87 118.80 197.73 87.63 858.91 176.51 169.69 638.93 858.15 238.70 747.24 409.64 887.61 384.91 263.43 287.03 75.95 298.46 889.08 755.88 324.21 320.80 812.63 52.96 856.71 557.98 893.18 81.94 428.59 808.72 858.39 145.54 361.22 510.03 287.64 770.02 207.12 43.89 145.72 79.47 833.98 137.01 808.05 451.40 229.67 713.67 299.38 750.97 720.80 466.61 357.29 190.16 788.97 719.99 0.00 267.26 173.19 273.90 571.53 200.28 726.45 507.05 724.97 314.38 303.34 109.97 880.10 702.99 332.23
1065.66 666.95 989.93 266.93 659.70 343.71 1028.33 253.22 248.47 304.93 133.80 42.12 315.21 265.08 439.27 236.33 970.81 258.89 385.23 447.37 1004.43 401.58 630.67 277.75 1076.65 180.92 360.33 412.81 313.25 274.41 971.46 615.97 507.58 76.10 1001.67 256.73 995.89 718.15 1100.29 301.94 607.16 979.20 1047.43 313.26 129.91 318.47 466.21 690.42 380.00 224.36 349.49 294.59 983.77 130.77 980.97 184.14 38.11 825.57 89.02 897.25 803.18 247.50 136.42 77.10 649.97 855.48 267.26 0.00 389.75 457.84 373.90 391.77 643.92 694.11 871.25 116.75 114.32 352.55 1029.89 654.76 130.68
937.53 836.49 814.55 149.16 866.05 158.28 765.77 276.76 529.03 476.82 350.52 364.97 588.36 142.03 91.04 252.60 757.42 228.74 209.47 729.68 829.72 189.60 877.31 461.87 780.92 499.96 189.57 338.93 164.35 446.30 811.17 887.47 240.75 454.59 705.94 159.36 748.55 451.29 786.49 105.17 406.24 700.56 751.70 127.92 488.11 610.66 289.04 817.25 170.79 191.73 92.00 185.87 742.20 258.98 824.02 538.58 351.64 643.21 386.58 748.09 673.68 503.67 478.90 342.50 799.01 613.30 173.19 389.75 0.00 165.74 686.24 92.12 870.35 493.19 722.09 429.09 416.66 63.22 778.53 850.83 411.24
919.03 949.01 837.26 263.43 937.22 274.52 600.03 318.65 653.48 575.50 450.33 428.41 702.63 192.76 226.17 320.61 736.34 343.01 284.09 851.45 727.76 203.86 908.19 576.14 816.59 591.34 343.69 413.55 240.93 544.98 792.67 945.05 404.63 526.87 799.10 273.63 730.05 430.21 823.62 229.62 435.62 682.06 822.50 240.94 552.47 722.55 379.09 970.53 299.62 306.00 228.53 300.14 760.46 398.87 820.34 641.98 442.19 622.13 484.79 620.58 652.60 578.94 583.88 464.06 964.75 592.22 273.90 457.84 165.74 0.00 796.97 73.62 966.67 522.57 594.58 539.82 500.61 177.49 723.63 949.51 535.69
1239.66 293.05 1316.37 598.33 285.80 658.87 1322.85 626.94 392.79 466.87 376.97 368.56 635.56 617.93 746.98 506.69 1290.03 585.33 638.51 141.71 1357.28 717.78 256.77 582.42 1416.10 526.10 686.77 573.23 592.51 443.06 1297.90 242.07 786.45 396.45 1345.18 599.48 1315.11 1044.59 1442.43 581.07 683.50 1278.71 1390.94 613.96 353.96 662.70 542.55 316.52 655.57 573.39 659.55 561.62 1302.99 468.51 1324.61 402.34 382.34 1144.79 336.77 1226.20 1129.62 526.64 377.57 389.67 324.97 1174.70 571.53 373.90 686.24 796.97 0.00 744.62 309.51 770.45 1224.10 257.15 352.82 679.78 1349.11 307.48 275.00
845.41 901.74 788.50 214.41 891.11 208.45 673.65 296.70 587.41 501.88 390.40 431.24 680.48 126.69 152.55 287.91 666.42 318.28 210.47 817.65 778.92 169.19 920.14 551.41 757.42 542.39 273.74 339.93 174.86 471.36 719.05 928.78 332.87 467.87 725.48 224.61 656.43 503.83 848.00 163.55 362.00 608.44 748.88 174.87 521.68 683.95 344.42 909.37 262.91 244.17 184.12 251.12 686.84 325.25 819.80 575.91 417.91 632.22 478.70 694.20 601.75 512.87 528.19 390.44 891.13 662.13 200.28 391.77 92.12 73.62 744.62 0.00 899.35 448.95 668.20 487.47 503.44 155.34 686.41 875.89 469.62
1302.43 61.41 1501.20 724.84 29.45 818.50 1518.43 690.75 459.66 458.51 620.84 601.80 897.08 811.21 898.54 749.26 1491.84 785.17 825.97 230.85 1550.56 845.28 58.48 802.84 1554.29 774.89 886.61 696.51 763.04 427.99 1497.74 95.34 994.09 685.18 1513.44 714.93 1453.30 1244.43 1593.99 807.07 814.97 1500.23 1559.20 821.11 649.91 861.00 781.38 90.49 749.52 682.56 778.65 688.13 1500.82 695.96 1484.24 502.24 615.58 1346.60 646.28 1426.04 1329.46 705.74 626.36 666.42 71.34 1376.51 726.45 643.92 870.35 966.67 309.51 899.35 0.00 901.92 1417.38 566.66 662.33 810.78 1546.94 23.46 577.45
821.37 904.91 1067.92 472.78 872.47 364.74 1030.93 553.08 793.55 634.35 646.64 651.99 877.22 446.50 475.27 531.57 953.37 535.86 416.03 889.83 1007.11 403.13 901.50 768.99 1009.72 713.67 596.17 352.12 431.10 603.83 1168.00 938.36 657.11 750.45 966.83 477.75 908.73 835.52 1130.14 450.56 86.95 939.61 960.52 480.34 754.72 907.33 227.90 961.18 436.84 510.12 481.01 483.46 861.21 618.59 1030.48 803.10 665.77 913.24 708.37 875.10 943.71 832.68 778.33 697.21 937.94 943.15 507.05 694.11 493.19 522.57 770.45 448.95 901.92 0.00 901.10 657.91 724.19 429.97 907.33 894.15 675.76
1166.95 1381.22 245.26 693.89 1410.78 687.93 157.08 776.18 1066.89 1021.55 869.88 883.64 1049.85 606.17 631.05 797.33 198.37 666.87 739.22 1302.28 133.18 742.67 1422.04 900.00 222.01 996.83 767.94 868.68 654.34 991.03 514.87 1432.20 671.69 947.35 234.33 704.09 153.73 270.80 229.04 643.03 950.02 141.82 231.46 654.35 1001.16 1048.79 917.90 1460.95 760.03 736.46 688.85 730.60 175.76 845.74 239.93 1055.39 893.02 120.90 940.02 26.00 122.58 992.35 1007.67 907.16 1479.90 108.79 724.97 871.25 722.09 594.58 1224.10 668.20 1417.38 901.10 0.00 966.95 955.84 693.64 181.27 1393.92 949.10
1143.60 550.20 1059.22 344.87 542.95 409.74 1124.03 369.79 135.64 240.18 195.57 111.41 378.41 360.78 489.83 323.41 1032.88 328.18 381.36 389.41 1100.13 497.28 513.92 325.27 1158.95 268.95 429.62 498.48 358.79 270.70 1040.75 499.22 529.30 139.30 1088.03 355.07 1057.96 787.44 1185.28 323.92 570.96 1021.56 1133.79 387.52 96.81 405.55 535.50 573.67 464.06 341.11 402.40 334.47 1045.84 216.04 1068.05 145.19 125.19 887.64 79.62 969.05 872.47 269.49 120.42 132.52 582.12 917.55 314.38 116.75 429.09 539.82 257.15 487.47 566.66 657.91 966.95 0.00 95.67 424.35 1091.96 564.63 17.85
1063.41 645.87 1020.01 305.66 638.62 391.58 1100.64 330.58 221.15 334.86 148.88 72.20 284.66 379.40 473.08 278.60 966.29 288.97 387.85 485.08 1022.60 487.74 609.59 278.87 1085.86 182.04 373.31 448.94 360.91 341.73 1001.54 594.89 433.63 45.55 1044.62 315.86 1010.93 748.23 1168.53 349.94 637.24 1009.28 1090.38 385.87 117.15 323.79 496.29 669.34 427.42 322.04 408.62 284.93 1013.85 178.19 1028.84 171.08 85.98 855.65 30.08 929.84 833.26 205.22 85.74 113.18 677.79 885.56 303.34 114.32 416.66 500.61 352.82 503.44 662.33 724.19 955.84 95.67 0.00 391.60 1059.97 660.30 103.36
884.67 773.27 773.59 85.94 802.83 156.08 777.52 213.54 526.86 413.60 302.81 319.40 525.14 87.47 87.76 189.38 754.14 165.52 192.01 729.37 773.29 196.80 814.09 398.65 777.64 451.17 166.20 316.69 124.18 383.08 874.39 824.25 227.14 416.03 702.66 96.14 755.28 448.01 783.21 103.00 343.02 728.19 748.42 65.82 443.46 547.44 330.82 854.64 220.88 128.51 51.04 122.65 777.19 246.98 817.20 534.27 333.18 618.99 375.78 719.64 649.46 462.71 467.26 300.13 862.23 610.02 109.97 352.55 63.22 177.49 679.78 155.34 810.78 429.97 693.64 424.35 391.60 0.00 806.16 787.61 409.07
1265.12 1549.93 235.79 875.16 1517.49 841.64 123.60 921.71 1194.37 1128.45 1023.16 987.77 1042.69 787.44 718.40 912.01 135.95 771.00 880.12 1406.41 99.78 745.25 1546.52 975.97 159.87 879.14 861.57 976.05 835.61 1130.18 486.99 1583.38 688.75 1086.23 151.74 865.03 93.64 358.15 225.84 824.30 820.38 77.97 145.43 790.70 1059.08 1044.27 920.48 1571.56 797.42 897.40 772.27 868.04 46.12 938.64 242.37 1160.78 997.15 204.32 1044.15 155.27 231.98 1024.82 1027.67 1011.29 1577.54 201.69 880.10 1029.89 778.53 723.63 1349.11 686.41 1546.94 907.33 181.27 1091.96 1059.97 806.16 0.00 1534.71 1081.68
1294.66 37.95 1494.75 701.67 21.68 795.04 1510.66 667.29 451.89 435.05 597.38 625.26 873.62 787.75 875.37 725.80 1475.63 763.71 802.51 207.39 1527.10 837.51 50.71 795.07 1546.52 767.12 865.15 673.05 739.58 404.53 1476.28 87.57 970.63 678.91 1490.27 691.47 1445.53 1222.97 1570.82 783.90 807.20 1484.02 1536.03 797.65 650.00 869.05 780.46 67.03 741.75 659.10 784.23 711.59 1488.59 672.50 1460.78 525.70 616.65 1330.39 642.96 1404.58 1308.00 697.97 618.59 642.96 85.98 1360.30 702.99 654.76 850.83 949.51 307.48 875.89 23.46 894.15 1393.92 564.63 660.30 787.61 1534.71 0.00 569.68
1152.99 559.79 1077.07 354.26 548.00 391.89 1106.18 383.90 117.79 231.50 180.59 129.26 380.40 342.93 471.98 310.31 1050.73 346.03 399.21 407.26 1082.28 479.43 518.97 343.12 1152.69 264.83 447.47 492.14 340.94 260.52 1058.60 517.07 536.99 141.29 1086.88 344.06 1051.70 805.29 1167.43 306.07 588.81 1003.71 1132.64 369.67 114.66 419.53 553.35 581.31 459.19 355.04 384.55 328.13 1063.69 233.89 1057.63 127.34 143.04 905.49 73.28 975.10 890.32 272.65 123.90 150.37 599.97 935.40 332.23 130.68 411.24 535.69 275.00 469.62 577.45 675.76 949.10 17.85 103.36 409.07 1081.68 569.68 0.00
DEMAND_SECTION
1 0
2 8
3 6
4 6
5 7
6 8
7 9
8 9
9 6
10 9
11 5
12 5
13 8
14 7
15 7
16 10
17 5
18 8
19 5
20 6
21 8
22 8
23 7
24 7
25 6
26 7
27 8
28 10
29 10
30 9
31 5
32 9
33 6
34 10
35 10
36 7
37 6
38 9
39 10
40 5
41 9
42 5
43 8
44 9
45 10
46 5
47 6
48 6
49 5
50 7
51 6
52 6
53 8
54 5
55 10
56 6
57 6
58 7
59 8
60 5
61 8
62 10
63 7
64 6
65 5
66 8
67 9
68 10
69 10
70 10
71 7
72 5
73 6
74 10
75 8
76 8
77 8
78 10
79 6
80 8
81 7
DEPOT_SECTION
1
-1
EOF
