NAME: LDG85_3146_fog_85_0074
COMMENT: CVRP with travel times.  rootPos=3,custPos=1,demandType=4,avgRouteSizeIndex=6,weather=fog,lambda_cluster=1,lambda_random=4, T1=300,T2=700,beta=1, alpha(i,j) ~ U(0.8,1.2)
TYPE: CVRP
DIMENSION: 86
EDGE_WEIGHT_TYPE: EXPLICIT
EDGE_WEIGHT_FORMAT: FULL_MATRIX
CAPACITY: 1280
NODE_COORD_SECTION
1 0 0
2 249 686
3 471 701
4 52 978
5 1 728
6 14 751
7 223 893
8 45 233
9 343 164
10 388 382
11 318 405
12 384 503
13 994 699
14 536 971
15 445 880
16 514 601
17 741 586
18 392 933
19 381 101
20 875 660
21 318 858
22 494 531
23 230 260
24 341 842
25 372 429
26 758 436
27 563 35
28 577 427
29 42 580
30 245 682
31 495 486
32 301 640
33 387 740
34 334 768
35 97 776
36 401 827
37 616 451
38 706 775
39 172 63
40 962 726
41 537 409
42 57 803
43 147 52
44 636 230
45 216 156
46 437 420
47 301 126
48 289 845
49 271 263
50 143 58
51 406 183
52 501 40
53 865 499
54 615 137
55 333 651
56 281 951
57 527 790
58 164 760
59 761 396
60 219 584
61 958 712
62 606 867
63 450 684
64 300 348
65 755 603
66 771 338
67 628 368
68 472 195
69 228 355
70 212 868
71 837 170
72 865 654
73 159 222
74 783 651
75 563 608
76 705 549
77 345 992
78 565 892
79 433 352
80 991 369
81 938 91
82 963 429
83 599 863
84 748 934
85 752 583
86 30 766
EDGE_WEIGHT_SECTION
0.00 832.09 978.31 1223.47 965.57 947.44 1084.16 414.46 452.25 702.57 612.36 708.61 1339.22 1173.07 1123.78 828.32 1073.85 1107.43 504.80 1168.35 1004.13 751.13 420.14 1049.99 620.72 974.84 684.89 823.92 793.37 823.09 810.20 828.70 955.69 982.71 996.88 1001.47 839.24 1134.71 276.63 1284.37 769.43 1020.58 245.94 800.52 362.37 683.74 433.38 1001.70 429.32 227.70 532.29 640.56 1115.21 771.72 830.68 1130.99 1069.62 950.97 941.31 813.51 1284.37 1045.56 947.10 570.38 1096.49 966.41 813.25 613.95 489.54 1054.28 944.45 1147.22 326.23 1133.78 880.13 1018.11 1186.23 1098.15 653.01 1185.12 1076.36 1182.39 1035.84 1202.90 1056.75 953.28
832.09 0.00 265.49 415.70 306.46 320.11 252.07 562.53 581.71 409.00 333.74 300.55 847.60 440.37 329.07 377.47 615.56 324.10 694.22 701.84 220.80 405.64 465.25 217.90 388.44 652.77 785.09 463.83 225.49 9.00 346.57 80.62 246.64 185.93 189.11 280.84 494.24 573.35 665.17 796.99 459.45 263.00 664.71 671.51 557.21 423.97 650.13 169.61 481.35 682.95 564.94 808.37 786.46 665.11 124.43 298.90 324.53 182.17 666.54 142.22 775.16 463.44 270.46 411.40 619.82 706.75 579.01 639.39 342.55 240.19 852.58 680.71 505.86 660.35 435.89 605.59 398.38 463.82 450.91 942.81 982.23 868.81 457.54 596.69 594.09 313.31
978.31 265.49 0.00 599.08 539.89 573.57 367.56 741.38 659.52 391.72 428.98 276.89 612.61 383.14 283.13 155.66 359.82 331.86 672.63 436.35 234.42 232.85 617.61 235.46 364.78 415.02 777.03 333.42 472.98 256.49 262.12 192.77 114.61 200.58 436.60 201.79 358.87 328.30 777.96 552.37 375.00 505.04 801.62 577.72 688.75 294.57 614.18 274.58 593.04 784.22 622.37 718.75 564.27 657.05 201.30 364.11 148.60 411.94 463.04 348.52 552.37 276.08 45.62 460.99 401.52 559.28 440.96 556.08 517.44 383.25 791.48 415.22 680.75 461.12 170.40 340.10 366.77 267.93 395.32 717.96 799.91 631.06 285.80 420.76 381.29 544.35
1223.47 415.70 599.08 0.00 358.41 325.94 262.52 909.52 979.41 808.57 685.07 672.66 1056.60 638.08 510.45 653.69 922.05 429.50 1041.48 962.76 394.13 730.88 803.33 398.83 713.91 967.11 1199.21 793.37 480.70 406.70 676.11 496.32 519.68 437.56 226.59 464.95 823.78 755.09 1062.87 1066.10 788.99 300.48 1034.71 1042.63 941.16 801.53 984.13 342.94 879.05 1038.60 931.72 1187.99 1070.85 1080.81 519.48 370.71 624.58 315.33 996.08 467.66 1087.93 604.73 553.46 762.73 919.87 1079.51 908.55 967.85 740.25 251.04 1250.28 979.90 897.24 866.14 725.85 895.55 356.43 633.06 830.82 1246.46 1335.50 1183.15 614.45 781.51 943.52 363.73
965.57 306.46 539.89 358.41 0.00 33.68 341.87 551.11 818.78 674.93 524.26 548.20 1017.32 608.07 521.48 640.01 879.10 493.21 868.02 976.24 389.91 682.38 634.24 409.86 553.10 948.01 1024.82 770.29 232.81 297.46 653.03 347.12 515.94 433.34 131.82 446.47 789.48 715.81 755.04 1063.49 756.70 106.82 759.07 913.94 799.79 640.72 814.85 338.72 630.91 753.42 738.74 1014.53 1028.79 943.72 390.93 443.87 606.10 183.51 957.54 306.85 1041.66 678.36 549.02 601.92 897.37 921.34 868.23 817.55 595.56 294.93 1126.87 955.11 668.45 896.29 631.07 800.77 513.10 650.48 607.14 1177.48 1248.35 1137.32 673.89 840.95 857.63 69.67
947.44 320.11 573.57 325.94 33.68 0.00 325.92 584.79 785.10 641.25 490.58 514.52 1036.51 574.39 487.80 606.33 879.54 459.53 834.34 964.18 356.23 648.70 667.92 376.18 519.42 914.33 1004.72 746.44 199.13 327.14 629.18 380.80 485.63 399.66 147.03 442.30 755.80 735.00 756.30 1062.57 723.02 73.14 725.39 900.27 776.54 607.04 808.42 305.04 624.48 719.74 705.06 980.85 1045.24 969.52 424.61 416.26 601.93 217.19 949.15 273.17 1075.34 644.68 540.79 568.24 897.22 887.66 840.52 783.87 561.88 278.98 1093.19 970.23 666.27 862.61 664.75 834.45 479.42 616.80 640.82 1143.80 1214.67 1103.64 640.21 807.27 858.07 42.06
1084.16 252.07 367.56 262.52 341.87 325.92 0.00 814.60 833.78 638.34 564.23 498.21 832.66 408.91 275.74 468.35 687.34 247.47 913.76 705.19 144.17 529.90 717.32 164.12 549.46 781.77 1037.16 651.35 360.16 261.07 588.97 319.03 273.57 187.60 210.05 230.24 690.43 583.46 917.24 803.58 642.56 283.94 916.78 873.81 809.28 653.53 902.20 92.98 733.42 915.04 803.35 1017.96 808.33 917.18 362.84 108.19 389.87 191.77 829.79 394.29 825.41 432.62 365.46 641.89 685.16 816.99 668.59 813.91 594.62 46.94 1049.19 726.10 757.93 603.62 537.96 707.66 196.69 404.74 689.32 996.50 1144.00 959.65 428.15 572.17 687.00 283.86
414.46 562.53 741.38 909.52 551.11 584.79 814.60 0.00 396.42 475.54 366.02 501.18 1134.28 991.77 795.64 688.46 858.53 861.09 407.18 997.35 757.79 627.59 204.69 771.22 440.91 807.71 599.69 615.03 493.69 571.53 598.01 548.61 709.35 730.76 682.93 751.16 672.11 972.67 249.80 1108.20 602.30 657.93 241.59 675.15 311.42 478.80 380.79 732.14 262.19 226.96 373.85 553.69 946.74 659.42 584.34 861.43 860.73 734.62 817.74 567.17 1086.37 863.73 749.38 324.04 876.80 807.97 651.40 525.37 243.20 802.72 858.33 1011.93 117.34 935.29 671.24 813.17 939.89 930.39 485.88 1034.10 917.92 1004.31 873.45 1040.51 837.06 620.78
452.25 581.71 659.52 979.41 818.78 785.10 833.78 396.42 0.00 332.52 326.69 382.63 951.38 914.67 799.09 556.12 665.09 837.32 175.43 803.91 753.75 478.93 269.18 758.97 294.74 539.02 298.23 491.97 601.91 572.71 419.86 564.36 705.31 656.73 752.82 761.21 530.65 844.76 219.73 887.18 473.70 768.42 250.64 350.15 222.35 398.81 102.58 751.32 188.88 268.66 80.04 304.20 662.96 372.37 580.30 880.61 658.10 752.53 587.04 540.99 892.93 822.09 658.36 320.00 683.36 514.16 475.86 161.70 239.16 797.26 564.52 793.40 292.81 761.41 607.18 594.64 935.85 827.16 307.09 770.30 624.11 730.14 831.81 930.26 643.62 827.16
702.57 409.00 391.72 808.57 674.93 641.25 638.34 475.54 332.52 0.00 150.67 154.72 737.77 641.46 545.66 272.62 474.81 647.94 377.44 613.63 557.32 280.79 299.47 531.06 129.13 430.91 478.27 254.80 595.09 401.87 229.38 380.24 455.30 491.12 581.98 525.09 319.60 591.79 552.25 673.57 221.21 655.87 546.46 367.42 442.04 97.15 423.18 578.61 273.25 564.70 291.26 447.49 609.39 406.99 336.70 682.17 534.27 550.29 457.51 368.08 695.40 610.24 437.34 151.50 493.08 468.37 330.63 230.39 232.34 605.99 630.59 630.28 393.38 553.64 344.78 431.52 707.46 600.56 71.92 666.56 627.86 646.95 600.52 753.18 453.34 655.61
612.36 333.74 428.98 685.07 524.26 490.58 564.23 366.02 326.69 150.67 0.00 153.36 836.02 670.29 602.85 362.02 533.53 610.61 375.93 702.05 522.44 284.83 231.44 529.70 76.47 497.22 568.44 356.49 476.26 324.74 283.89 373.16 476.52 438.46 458.48 480.54 338.69 681.19 470.84 818.07 270.78 532.37 478.43 467.83 337.48 180.54 343.14 471.25 257.43 480.18 246.65 522.44 675.70 497.61 351.51 600.54 562.10 504.56 545.24 217.41 804.31 662.86 383.36 77.66 575.23 560.28 414.02 325.84 122.82 555.93 650.24 680.92 286.13 632.75 397.40 514.91 700.02 647.53 161.03 749.95 778.53 713.26 653.14 810.74 555.00 504.94
708.61 300.55 276.89 672.66 548.20 514.52 498.21 501.18 382.63 154.72 153.36 0.00 720.30 532.04 487.96 211.37 380.17 515.12 485.94 551.40 425.76 134.18 340.72 376.34 87.89 436.73 600.22 247.79 504.67 291.55 130.53 225.52 391.50 380.42 446.07 442.46 278.20 530.54 562.05 667.42 208.50 519.96 587.71 468.17 472.64 174.94 459.57 447.48 363.87 573.98 400.01 585.16 577.95 511.96 267.23 533.81 425.49 415.54 450.50 241.35 650.95 509.50 322.51 184.10 421.87 539.32 353.77 352.34 257.98 451.27 661.66 530.27 421.29 491.26 244.04 402.94 607.86 494.17 199.13 680.28 782.58 652.77 499.78 660.09 401.64 528.88
1339.22 847.60 612.61 1056.60 1017.32 1036.51 832.66 1134.28 951.38 737.77 836.02 720.30 0.00 625.04 681.58 534.50 340.13 783.86 930.33 176.26 789.09 593.48 967.10 751.84 759.55 412.36 892.60 583.96 1053.10 856.60 625.91 766.98 727.22 767.96 927.19 724.49 570.89 301.51 1118.29 64.20 656.90 963.37 1141.95 648.16 1074.28 655.48 954.51 791.99 945.66 1160.19 871.34 961.12 292.71 791.68 723.17 897.99 564.86 833.81 460.38 818.48 72.44 497.53 647.25 810.48 352.79 495.56 586.38 859.83 891.08 879.60 696.27 197.39 1054.39 229.04 529.64 396.15 803.39 550.12 756.23 371.46 730.30 279.58 487.81 381.57 321.75 1039.36
1173.07 440.37 383.14 638.08 608.07 574.39 408.91 991.77 914.67 641.46 670.29 532.04 625.04 0.00 196.13 465.13 528.23 233.03 929.58 504.98 286.77 542.32 872.76 277.13 619.93 629.88 1044.73 632.57 647.86 431.37 519.07 506.50 352.44 324.35 586.82 318.44 581.44 323.53 1087.54 603.20 629.33 512.93 1105.08 800.29 979.58 641.75 991.61 315.93 895.91 1106.02 906.07 1028.26 653.75 932.79 462.76 331.43 309.32 526.51 677.90 569.08 620.89 146.95 428.76 716.14 510.90 730.76 712.78 868.41 764.92 424.92 962.96 522.12 928.23 515.41 392.97 491.66 281.65 146.66 713.38 869.23 1022.48 777.35 137.23 285.83 506.76 588.92
1123.78 329.07 283.13 510.45 521.48 487.80 275.74 795.64 799.09 545.66 602.85 487.96 681.58 196.13 0.00 313.83 477.98 102.28 853.48 542.08 161.04 391.02 773.22 111.62 575.85 627.25 928.03 490.36 538.94 322.45 442.97 313.49 184.37 216.06 422.52 122.31 518.95 380.07 940.27 658.10 504.59 496.41 971.18 724.91 865.18 523.49 882.05 182.76 750.79 989.20 737.74 886.05 602.92 808.05 309.38 269.09 140.99 385.27 671.97 452.74 677.43 184.05 246.99 625.82 436.28 752.53 576.17 766.29 650.52 259.41 952.91 559.22 813.83 476.81 330.48 500.18 219.71 134.75 544.32 834.53 959.99 765.37 193.77 360.83 476.02 496.33
828.32 377.47 155.66 653.69 640.01 606.33 468.35 688.46 556.12 272.62 362.02 211.37 534.50 465.13 313.83 0.00 321.15 416.11 540.27 407.03 324.18 77.19 534.67 373.60 285.55 313.42 672.58 233.04 530.84 386.47 136.26 296.85 259.10 345.07 566.58 357.45 222.85 319.17 626.44 505.42 249.14 609.12 657.35 441.70 634.43 209.66 568.22 375.37 465.55 675.37 537.46 628.73 459.25 552.60 253.04 409.55 261.65 519.72 361.44 344.51 527.25 337.62 190.41 395.47 293.45 457.68 285.30 471.17 445.26 450.43 682.13 427.94 587.44 305.46 72.16 241.86 506.28 354.98 310.41 620.91 681.81 529.46 327.90 494.96 315.17 632.04
1073.85 615.56 359.82 922.05 879.10 879.54 687.34 858.53 665.09 474.81 533.53 380.17 340.13 528.23 477.98 321.15 0.00 580.26 723.17 181.76 545.78 322.72 691.11 523.22 468.06 197.95 677.96 283.68 832.80 616.31 367.97 552.59 457.11 543.08 788.97 457.10 247.19 224.34 841.64 292.61 316.77 862.86 865.30 433.75 780.93 390.50 677.86 594.36 656.88 883.54 593.89 679.37 208.34 557.98 561.12 680.69 336.99 695.59 224.88 621.52 270.78 381.28 405.44 534.49 41.70 284.55 286.10 573.41 615.33 671.01 516.75 202.89 778.64 111.09 248.99 79.29 654.72 451.84 466.39 439.95 611.56 370.79 391.00 436.40 21.47 860.18
1107.43 324.10 331.86 429.50 493.21 459.53 247.47 861.09 837.32 647.94 610.61 515.12 783.86 233.03 102.28 416.11 580.26 0.00 955.76 644.36 103.30 493.30 740.59 138.78 542.58 729.53 1030.31 592.64 549.59 333.10 545.25 362.74 244.98 180.59 423.53 130.07 621.23 482.35 965.91 760.38 606.87 477.11 987.58 827.19 832.55 625.77 914.26 154.49 756.69 975.25 840.02 988.33 705.20 910.33 369.99 174.35 243.27 330.15 774.25 425.32 776.85 286.33 313.07 659.45 538.56 808.48 678.45 807.03 617.89 261.99 960.67 661.50 781.20 579.09 432.76 602.46 117.43 237.03 642.07 936.81 1062.27 859.48 296.05 463.11 578.30 454.15
504.80 694.22 672.63 1041.48 868.02 834.34 913.76 407.18 175.43 377.44 375.93 485.94 930.33 929.58 853.48 540.27 723.17 955.76 0.00 822.87 864.45 469.58 251.68 862.28 418.71 588.26 192.51 527.77 678.24 700.67 410.51 613.60 745.91 780.70 814.89 835.59 546.89 815.21 228.17 936.42 450.62 888.78 259.08 436.95 206.30 432.46 86.53 820.78 252.89 277.10 129.28 146.51 766.74 312.49 620.90 949.82 726.03 823.47 634.68 573.82 958.25 864.61 665.55 301.84 704.72 545.55 446.78 170.95 374.38 876.20 496.13 842.64 338.61 812.00 599.15 643.88 998.07 888.50 346.68 801.69 668.36 751.20 854.89 995.49 711.41 861.35
1168.35 701.84 436.35 962.76 976.24 964.18 705.19 997.35 803.91 613.63 702.05 551.40 176.26 504.98 542.08 407.03 181.76 644.36 822.87 0.00 669.03 417.22 829.93 631.78 625.58 331.36 811.60 422.50 909.33 692.84 476.29 629.12 550.96 591.70 872.95 592.29 414.96 272.37 982.24 116.02 490.39 934.23 1005.90 567.16 919.75 554.26 818.46 674.12 818.19 1024.14 734.49 818.19 196.12 696.80 637.65 777.93 437.39 804.67 363.70 691.01 137.85 358.03 481.97 673.31 187.65 447.31 424.92 721.42 754.15 752.13 571.12 21.13 917.46 101.57 389.59 219.89 663.89 430.06 648.15 444.55 698.55 352.67 367.75 334.77 160.29 978.54
1004.13 220.80 234.42 394.13 389.91 356.23 144.17 757.79 753.75 557.32 522.44 425.76 789.09 286.77 161.04 324.18 545.78 103.30 864.45 669.03 0.00 401.37 637.29 49.42 476.42 637.60 967.28 557.22 446.29 229.80 460.44 285.00 155.22 114.43 321.80 101.08 547.03 487.58 862.61 785.05 569.39 373.81 884.28 765.88 729.25 528.99 822.17 51.19 653.39 871.95 769.09 952.91 722.64 847.30 280.23 162.32 260.71 239.74 685.62 359.16 784.94 311.00 243.18 593.29 556.00 764.28 609.48 740.87 514.59 158.69 931.68 649.64 677.90 596.53 396.34 566.04 182.10 295.79 578.71 922.37 1005.99 830.49 301.28 468.34 567.25 350.85
751.13 405.64 232.85 730.88 682.38 648.70 529.90 627.59 478.93 280.79 284.83 134.18 593.48 542.32 391.02 77.19 322.72 493.30 469.58 417.22 401.37 0.00 474.90 432.13 208.36 319.06 595.39 176.33 608.03 414.64 59.07 348.52 318.62 342.30 580.25 366.01 160.53 396.36 654.81 533.24 171.95 654.14 678.47 379.38 606.82 191.30 491.03 436.92 465.51 694.45 480.10 572.02 488.24 475.41 304.71 486.74 338.84 549.72 367.08 375.53 533.24 414.81 195.97 318.28 345.36 463.32 277.18 408.41 392.16 527.62 619.81 396.09 510.25 382.65 149.35 285.91 570.78 432.17 253.05 615.01 735.96 523.13 405.09 525.91 305.62 663.06
420.14 465.25 617.61 803.33 634.24 667.92 717.32 204.69 269.18 299.47 231.44 340.72 967.10 872.76 773.22 534.67 691.11 740.59 251.68 829.93 637.29 474.90 0.00 683.15 273.49 625.82 444.19 506.12 485.45 456.25 457.24 507.65 588.85 635.48 576.74 703.76 490.22 841.66 277.50 940.78 420.41 650.63 246.99 561.38 197.79 325.01 184.88 634.86 80.30 265.23 252.57 398.19 804.30 501.57 463.84 764.15 719.88 636.07 673.84 446.67 918.95 822.11 614.80 156.62 709.38 686.69 514.25 353.57 122.70 687.44 737.05 850.09 93.91 781.50 584.76 651.33 819.39 828.42 303.99 829.41 796.64 841.86 812.39 979.45 669.64 703.91
1049.99 217.90 235.46 398.83 409.86 376.18 164.12 771.22 758.97 531.06 529.70 376.34 751.84 277.13 111.62 373.60 523.22 138.78 862.28 631.78 49.42 432.13 683.15 0.00 464.23 650.48 932.91 531.07 443.39 226.90 491.20 249.06 120.85 114.87 310.90 66.12 557.04 450.33 883.07 747.80 569.83 384.79 882.61 775.89 775.11 530.03 835.91 71.14 694.60 900.85 733.38 926.76 687.68 812.93 244.71 157.47 225.75 281.89 698.50 341.12 747.69 273.75 243.50 560.44 521.04 794.74 610.50 728.68 560.45 147.79 896.72 648.92 723.76 561.57 396.93 566.63 231.52 246.37 544.34 887.41 1026.44 795.53 264.03 431.09 544.69 384.71
620.72 388.44 364.78 713.91 553.10 519.42 549.46 440.91 294.74 129.13 76.47 87.89 759.55 619.93 575.85 285.55 468.06 542.58 418.71 625.58 476.42 208.36 273.49 464.23 0.00 420.75 512.33 324.61 509.57 379.44 218.42 313.41 435.15 361.99 487.32 466.47 262.22 604.72 514.47 741.60 238.90 561.21 504.33 397.30 403.80 104.07 371.68 456.61 296.64 486.09 323.12 497.27 599.23 466.55 310.14 585.90 511.69 503.43 468.77 246.25 738.84 597.39 404.33 116.87 509.76 483.81 337.55 264.45 197.71 502.52 573.77 604.45 361.02 556.28 331.93 438.44 658.52 582.06 181.11 673.48 746.00 636.79 587.67 734.27 489.53 533.78
974.84 652.77 415.02 967.11 948.01 914.33 781.77 807.71 539.02 430.91 497.22 436.73 412.36 629.88 627.25 313.42 197.95 729.53 588.26 331.36 637.60 319.06 625.82 650.48 420.75 0.00 480.24 237.78 755.67 661.77 306.20 607.79 529.63 615.60 841.88 616.81 158.53 396.60 756.19 348.16 256.92 915.77 743.39 235.80 677.70 391.75 612.30 688.79 545.52 761.63 458.98 548.76 178.48 379.32 566.46 722.97 502.86 794.56 48.02 641.16 369.99 482.93 460.64 537.62 207.57 144.26 182.87 460.44 591.07 756.83 376.46 352.49 690.37 309.04 347.00 234.26 781.79 515.23 424.21 307.49 471.27 216.04 492.65 533.39 193.73 928.69
684.89 785.09 777.03 1199.21 1024.82 1004.72 1037.16 599.69 298.23 478.27 568.44 600.22 892.60 1044.73 928.03 672.58 677.96 1030.31 192.51 811.60 967.28 595.39 444.19 932.91 512.33 480.24 0.00 492.75 819.26 794.09 536.32 806.11 812.06 874.32 972.62 926.97 463.29 859.36 420.68 828.40 423.44 1046.51 438.95 244.44 398.81 482.46 279.04 954.70 393.91 457.19 321.79 97.06 658.72 119.98 792.43 1029.92 827.04 900.40 528.26 731.55 850.23 917.22 788.27 494.35 687.81 433.40 391.86 247.88 532.71 1014.85 373.89 832.73 531.12 774.28 651.76 641.90 1064.22 941.06 456.56 689.54 528.72 637.32 907.50 1013.63 656.49 1019.08
823.92 463.83 333.42 793.37 770.29 746.44 651.35 615.03 491.97 254.80 356.49 247.79 583.96 632.57 490.36 233.04 283.68 592.64 527.77 422.50 557.22 176.33 506.12 531.07 324.61 237.78 492.75 0.00 676.39 472.83 117.26 473.31 439.52 494.73 652.94 499.87 79.25 465.08 660.34 533.35 85.71 726.83 684.00 298.10 566.80 220.54 496.56 558.37 425.82 689.38 411.93 395.69 393.43 387.06 435.49 642.59 457.21 591.53 202.71 473.27 511.52 505.06 316.87 406.30 301.95 291.53 115.18 429.34 456.14 674.26 523.73 425.70 497.69 380.00 267.72 226.94 691.68 557.02 253.00 478.98 559.63 453.82 495.34 662.40 262.21 760.80
793.37 225.49 472.98 480.70 232.81 199.13 360.16 493.69 601.91 595.09 476.26 504.67 1053.10 647.86 538.94 530.84 832.80 549.59 678.24 909.33 446.29 608.03 485.45 443.39 509.57 755.67 819.26 676.39 0.00 216.49 572.06 306.11 440.96 411.42 315.83 504.45 597.14 791.12 690.71 1002.49 684.94 272.27 721.62 815.99 577.41 597.19 609.29 395.10 425.35 703.64 576.53 824.75 846.11 846.62 329.93 468.35 532.02 313.90 803.69 263.32 980.66 670.93 495.95 443.59 824.29 877.81 743.24 728.05 362.75 407.10 1056.42 888.20 467.14 836.30 603.00 772.70 556.85 673.69 635.39 1063.16 1120.60 971.71 665.03 804.18 819.58 241.19
823.09 9.00 256.49 406.70 297.46 327.14 261.07 571.53 572.71 401.87 324.74 291.55 856.60 431.37 322.45 386.47 616.31 333.10 700.67 692.84 229.80 414.64 456.25 226.90 379.44 661.77 794.09 472.83 216.49 0.00 355.57 89.62 255.64 194.93 180.11 287.96 503.24 582.35 656.17 805.99 468.45 254.00 673.71 680.51 548.21 430.77 641.13 178.61 472.35 690.91 571.39 799.37 777.46 674.11 133.43 307.90 315.53 179.82 675.54 151.22 784.16 454.44 279.46 402.40 610.82 715.75 588.01 632.26 333.55 231.19 843.58 671.71 496.86 651.35 426.89 596.59 407.38 457.20 459.91 951.81 973.23 877.81 448.54 587.69 603.09 317.25
810.20 346.57 262.12 676.11 653.03 629.18 588.97 598.01 419.86 229.38 283.89 130.53 625.91 519.07 442.97 136.26 367.97 545.25 410.51 476.29 460.44 59.07 457.24 491.20 218.42 306.20 536.32 117.26 572.06 355.57 0.00 356.05 376.73 401.37 535.68 425.08 147.67 455.43 638.68 592.31 112.88 609.57 638.95 366.52 569.47 132.23 497.04 495.99 430.70 657.19 460.03 512.95 455.55 416.34 318.23 545.81 378.13 528.74 319.97 356.01 592.31 454.10 255.04 314.63 326.27 408.79 232.44 349.34 354.81 581.80 606.95 455.16 518.12 413.90 188.64 326.41 589.96 477.99 232.98 596.24 676.89 522.24 444.38 584.98 364.69 643.54
828.70 80.62 192.77 496.32 347.12 380.80 319.03 548.61 564.36 380.24 373.16 225.52 766.98 506.50 313.49 296.85 552.59 362.74 613.60 629.12 285.00 348.52 507.65 249.06 313.41 607.79 806.11 473.31 306.11 89.62 356.05 0.00 168.82 182.15 269.73 283.73 503.72 505.00 732.97 716.37 434.02 312.27 745.33 636.58 599.61 343.35 638.25 250.23 467.59 735.82 484.32 760.11 741.34 705.83 43.81 379.52 341.37 262.79 655.81 155.75 694.54 402.08 201.90 362.87 574.70 626.13 576.83 577.86 384.95 313.22 858.33 607.99 548.26 602.31 363.17 532.87 417.13 448.24 370.29 882.27 953.14 823.83 392.36 559.42 548.63 388.26
955.69 246.64 114.61 519.68 515.94 485.63 273.57 709.35 705.31 455.30 476.52 391.50 727.22 352.44 184.37 259.10 457.11 244.98 745.91 550.96 155.22 318.62 588.85 120.85 435.15 529.63 812.06 439.52 440.96 255.64 376.73 168.82 0.00 85.97 394.38 114.91 436.19 442.91 814.17 666.98 489.61 433.85 827.26 655.04 680.81 409.18 724.85 180.59 604.95 823.51 650.54 833.36 642.02 692.08 125.01 278.32 213.64 341.65 577.65 308.62 666.98 333.23 122.65 444.07 475.38 673.89 489.65 616.23 466.15 268.64 895.47 529.83 629.46 549.46 276.08 445.78 252.16 319.12 423.49 832.57 905.59 745.67 342.95 485.80 435.64 480.97
982.71 185.93 200.58 437.56 433.34 399.66 187.60 730.76 656.73 491.12 438.46 380.42 767.96 324.35 216.06 345.07 543.08 180.59 780.70 591.70 114.43 342.30 635.48 114.87 361.99 615.60 874.32 494.73 411.42 194.93 401.37 182.15 85.97 0.00 357.00 104.48 502.83 523.60 851.10 707.72 454.96 347.88 850.64 719.38 743.14 466.06 733.67 94.62 649.74 848.08 666.47 843.89 706.93 758.42 210.98 223.91 264.11 263.62 663.62 244.73 707.72 367.32 177.86 478.86 540.29 759.86 575.62 626.44 528.48 207.43 935.08 570.57 691.79 593.28 361.35 529.00 296.53 350.81 509.46 918.54 990.86 831.64 377.04 527.66 521.61 395.00
996.88 189.11 436.60 226.59 131.82 147.03 210.05 682.93 752.82 581.98 458.48 446.07 927.19 586.82 422.52 566.58 788.97 423.53 814.89 872.95 321.80 580.25 576.74 310.90 487.32 841.88 972.62 652.94 315.83 180.11 535.68 269.73 394.38 357.00 0.00 356.34 683.35 625.68 836.28 959.59 648.56 73.89 808.12 826.67 714.57 574.94 757.54 279.00 652.46 816.65 705.13 961.40 938.66 854.22 313.54 318.24 495.64 93.38 855.65 241.07 964.27 584.65 459.57 536.14 790.93 855.56 736.48 745.90 513.66 163.11 1023.69 851.82 670.65 813.67 540.94 710.64 406.74 557.27 619.51 1111.70 1153.34 1057.92 574.93 741.99 767.50 137.14
1001.47 280.84 201.79 464.95 446.47 442.30 230.24 751.16 761.21 525.09 480.54 442.46 724.49 318.44 122.31 357.45 457.10 130.07 835.59 592.29 101.08 366.01 703.76 66.12 466.47 616.81 926.97 499.87 504.45 287.96 425.08 283.73 114.91 104.48 356.34 0.00 526.54 433.93 887.86 695.41 524.34 430.23 915.44 726.83 754.50 496.36 812.42 137.26 628.48 897.20 727.19 895.56 621.56 806.99 239.92 223.59 159.63 262.96 664.83 349.21 717.24 294.92 183.00 558.20 454.92 741.65 594.81 730.92 581.06 213.91 830.60 613.42 744.37 495.45 349.12 518.82 247.50 257.06 512.00 821.29 978.63 729.41 293.50 423.18 478.57 447.55
839.24 494.24 358.87 823.78 789.48 755.80 690.43 672.11 530.65 319.60 338.69 278.20 570.89 581.44 518.95 222.85 247.19 621.23 546.89 414.96 547.03 160.53 490.22 557.04 262.22 158.53 463.29 79.25 597.14 503.24 147.67 503.72 436.19 502.83 683.35 526.54 0.00 457.54 673.02 506.69 98.39 757.24 696.68 218.85 578.80 233.22 509.24 597.45 409.92 702.06 450.61 474.94 337.01 362.37 465.24 632.40 377.96 636.03 206.55 482.63 503.98 453.93 356.50 379.09 262.46 302.79 146.10 375.94 459.93 673.28 459.28 402.14 554.77 358.28 188.47 203.38 688.35 477.77 265.68 466.02 629.80 374.57 444.21 611.27 254.67 770.16
1134.71 573.35 328.30 755.09 715.81 735.00 583.46 972.67 844.76 591.79 681.19 530.54 301.51 323.53 380.07 319.17 224.34 482.35 815.21 272.37 487.58 396.36 841.66 450.33 604.72 396.60 859.36 465.08 791.12 582.35 455.43 505.00 442.91 523.60 625.68 433.93 457.54 0.00 945.61 365.71 541.11 661.86 976.52 632.40 930.24 528.83 887.39 490.48 761.36 994.54 764.72 860.77 398.29 739.38 461.19 596.48 274.30 532.30 406.28 644.80 363.53 196.02 345.74 714.64 231.65 502.52 467.50 759.64 764.43 598.12 685.60 252.09 870.62 288.03 340.03 303.63 501.88 248.61 537.67 629.90 829.53 560.74 186.30 212.06 202.87 737.85
276.63 665.17 777.96 1062.87 755.04 756.30 917.24 249.80 219.73 552.25 470.84 562.05 1118.29 1087.54 940.27 626.44 841.64 965.91 228.17 982.24 862.61 654.81 277.50 883.07 514.47 756.19 420.68 660.34 690.71 656.17 638.68 732.97 814.17 851.10 836.28 887.86 673.02 945.61 0.00 1089.21 574.63 829.44 30.91 523.89 133.36 554.49 163.78 834.78 302.24 48.93 299.77 374.68 882.69 538.84 689.16 964.07 877.83 772.20 711.33 632.12 1098.26 964.06 794.37 428.86 859.68 731.17 628.19 356.57 348.02 887.36 699.83 961.11 231.66 889.25 698.60 762.35 1044.71 981.42 525.93 908.49 843.84 936.82 954.34 1121.40 857.84 798.36
1284.37 796.99 552.37 1066.10 1063.49 1062.57 803.58 1108.20 887.18 673.57 818.07 667.42 64.20 603.20 658.10 505.42 292.61 760.38 936.42 116.02 785.05 533.24 940.78 747.80 741.60 348.16 828.40 533.35 1002.49 805.99 592.31 716.37 666.98 707.72 959.59 695.41 506.69 365.71 1089.21 0.00 605.08 1027.57 1091.55 583.96 1025.86 656.45 925.43 772.51 893.68 1109.79 807.14 896.92 312.14 727.48 672.56 893.95 535.78 898.01 396.18 789.40 21.83 474.05 597.99 784.16 303.67 492.42 531.03 808.60 865.00 850.52 661.30 137.15 1028.31 199.96 479.03 335.91 763.48 532.90 745.49 428.71 787.55 336.83 483.77 317.37 271.14 1076.93
769.43 459.45 375.00 788.99 756.70 723.02 642.56 602.30 473.70 221.21 270.78 208.50 656.90 629.33 504.59 249.14 316.77 606.87 450.62 490.39 569.39 171.95 420.41 569.83 238.90 256.92 423.44 85.71 684.94 468.45 112.88 434.02 489.61 454.96 648.56 524.34 98.39 541.11 574.63 605.08 0.00 722.45 598.29 264.42 508.99 134.83 410.85 549.58 340.11 603.67 394.34 481.40 435.40 303.46 414.12 606.48 425.85 624.04 288.42 449.85 587.55 501.82 367.92 348.44 358.47 349.35 145.27 389.26 370.43 659.77 508.09 500.53 484.96 427.86 236.36 301.77 702.84 554.41 167.29 564.41 581.60 472.96 492.10 659.16 338.24 737.38
1020.58 263.00 505.04 300.48 106.82 73.14 283.94 657.93 768.42 655.87 532.37 519.96 963.37 512.93 496.41 609.12 862.86 477.11 888.78 934.23 373.81 654.14 650.63 384.79 561.21 915.77 1046.51 726.83 272.27 254.00 609.57 312.27 433.85 347.88 73.89 430.23 757.24 661.86 829.44 1027.57 722.45 0.00 798.53 900.56 788.46 648.83 831.43 322.62 697.62 792.88 778.20 1035.29 1012.55 928.11 356.08 392.13 569.53 167.27 929.54 314.96 1006.81 658.54 514.17 610.03 864.82 929.45 810.37 819.79 587.55 237.00 1097.58 913.95 703.04 881.57 614.83 784.53 406.28 631.16 682.56 1185.59 1227.23 1102.31 648.82 798.76 841.39 75.99
245.94 664.71 801.62 1034.71 759.07 725.39 916.78 241.59 250.64 546.46 478.43 587.71 1141.95 1105.08 971.18 657.35 865.30 987.58 259.08 1005.90 884.28 678.47 246.99 882.61 504.33 743.39 438.95 684.00 721.62 673.71 638.95 745.33 827.26 850.64 808.12 915.44 696.68 976.52 30.91 1091.55 598.29 798.53 0.00 554.80 160.94 572.00 187.44 834.32 327.29 18.24 330.68 394.62 903.37 558.93 702.25 963.61 897.63 741.51 695.37 663.03 1113.38 986.56 821.95 403.61 883.34 754.83 655.77 380.23 369.69 904.90 730.74 984.77 254.74 912.91 721.10 786.01 1063.09 1012.33 550.98 939.40 874.75 959.43 976.84 1143.90 886.77 767.45
800.52 671.51 577.72 1042.63 913.94 900.27 873.81 675.15 350.15 367.42 467.83 468.17 648.16 800.29 724.91 441.70 433.75 827.19 436.95 567.16 765.88 379.38 561.38 775.89 397.30 235.80 244.44 298.10 815.99 680.51 366.52 636.58 655.04 719.38 826.67 726.83 218.85 632.40 523.89 583.96 264.42 900.56 554.80 0.00 496.27 293.23 376.50 814.00 530.49 572.82 327.72 312.96 414.28 143.52 619.86 851.25 596.81 853.68 283.82 627.10 605.79 672.78 543.83 467.96 443.37 246.56 286.69 279.16 528.83 826.87 263.17 588.29 557.81 544.84 407.32 397.46 907.20 696.62 306.80 502.70 435.40 451.84 663.06 769.19 429.53 914.63
362.37 557.21 688.75 941.16 799.79 776.54 809.28 311.42 222.35 442.04 337.48 472.64 1074.28 979.58 865.18 634.43 780.93 832.55 206.30 919.75 729.25 606.82 197.79 775.11 403.80 677.70 398.81 566.80 577.41 548.21 569.47 599.61 680.81 743.14 714.57 754.50 578.80 930.24 133.36 1025.86 508.99 788.46 160.94 496.27 0.00 450.26 119.77 726.82 168.88 142.70 273.70 332.31 856.18 494.83 555.80 856.11 837.35 728.03 682.73 526.91 1008.77 910.50 661.01 295.50 799.20 687.16 494.83 312.56 214.66 779.40 684.39 917.10 194.08 845.24 706.59 718.34 911.35 953.67 392.57 882.73 817.77 892.81 904.35 1071.41 759.46 814.44
683.74 423.97 294.57 801.53 640.72 607.04 653.53 478.80 398.81 97.15 180.54 174.94 655.48 641.75 523.49 209.66 390.50 625.77 432.46 554.26 528.99 191.30 325.01 530.03 104.07 391.75 482.46 220.54 597.19 430.77 132.23 343.35 409.18 466.06 574.94 496.36 233.22 528.83 554.49 656.45 134.83 648.83 572.00 293.23 450.26 0.00 390.71 560.68 298.47 590.16 327.80 433.63 562.39 362.48 387.16 619.21 443.17 590.48 367.63 333.87 661.28 526.43 340.19 220.94 431.70 379.74 233.48 261.51 235.60 606.59 556.40 533.13 398.91 456.49 260.97 334.37 636.82 503.41 100.75 569.41 706.75 595.72 516.71 683.77 411.97 621.40
433.38 650.13 614.18 984.13 814.85 808.42 902.20 380.79 102.58 423.18 343.14 459.57 954.51 991.61 882.05 568.22 677.86 914.26 86.53 818.46 822.17 491.03 184.88 835.91 371.68 612.30 279.04 496.56 609.29 641.13 497.04 638.25 724.85 733.67 757.54 812.42 509.24 887.39 163.78 925.43 410.85 831.43 187.44 376.50 119.77 390.71 0.00 814.39 183.94 205.68 153.93 233.04 765.54 375.06 599.84 943.68 750.68 804.14 660.32 560.55 934.48 890.26 659.80 280.78 695.90 567.39 506.95 192.79 307.58 872.32 582.66 797.33 263.45 725.47 640.38 598.57 977.01 882.11 377.46 823.53 698.00 773.04 896.12 1016.94 699.33 848.08
1001.70 169.61 274.58 342.94 338.72 305.04 92.98 732.14 751.32 578.61 471.25 447.48 791.99 315.93 182.76 375.37 594.36 154.49 820.78 674.12 51.19 436.92 634.86 71.14 456.61 688.79 954.70 558.37 395.10 178.61 495.99 250.23 180.59 94.62 279.00 137.26 597.45 490.48 834.78 772.51 549.58 322.62 834.32 814.00 726.82 560.68 814.39 0.00 650.96 852.56 717.90 938.51 758.82 834.72 294.04 129.29 296.89 210.75 736.81 311.83 794.34 339.64 272.48 548.91 592.18 815.47 660.67 721.06 512.16 115.89 967.86 665.19 675.47 572.55 444.98 614.68 228.77 311.76 604.08 903.52 1057.18 866.67 335.17 502.23 615.83 347.10
429.32 481.35 593.04 879.05 630.91 624.48 733.42 262.19 188.88 273.25 257.43 363.87 945.66 895.91 750.79 465.55 656.88 756.69 252.89 818.19 653.39 465.51 80.30 694.60 296.64 545.52 393.91 425.82 425.35 472.35 430.70 467.59 604.95 649.74 652.46 628.48 409.92 761.36 302.24 893.68 340.11 697.62 327.29 530.49 168.88 298.47 183.94 650.96 0.00 311.58 261.50 399.40 724.00 421.27 479.94 780.25 727.20 652.17 593.54 462.77 913.90 803.17 579.09 179.77 672.38 620.24 433.95 350.58 138.80 703.54 672.48 812.06 144.85 716.62 537.71 613.30 835.49 790.67 223.69 853.01 805.57 761.56 793.45 960.51 664.59 666.54
227.70 682.95 784.22 1038.60 753.42 719.74 915.04 226.96 268.66 564.70 480.18 573.98 1160.19 1106.02 989.20 675.37 883.54 975.25 277.10 1024.14 871.95 694.45 265.23 900.85 486.09 761.63 457.19 689.38 703.64 690.91 657.19 735.82 823.51 848.08 816.65 897.20 702.06 994.54 48.93 1109.79 603.67 792.88 18.24 572.82 142.70 590.16 205.68 852.56 311.58 0.00 312.56 412.86 921.61 577.17 698.50 981.85 879.39 723.27 713.61 669.61 1131.62 1004.80 803.71 421.85 901.58 746.68 637.53 398.47 357.36 903.36 748.76 1003.01 236.50 931.15 739.34 804.25 1054.05 1030.35 535.27 957.42 856.63 962.66 995.08 1151.55 902.16 761.80
532.29 564.94 622.37 931.72 738.74 705.06 803.35 373.85 80.04 291.26 246.65 400.01 871.34 906.07 737.74 537.46 593.89 840.02 129.28 734.49 769.09 480.10 252.57 733.38 323.12 458.98 321.79 411.93 576.53 571.39 460.03 484.32 650.54 666.47 705.13 727.19 450.61 764.72 299.77 807.14 394.34 778.20 330.68 327.72 273.70 327.80 153.93 717.90 261.50 312.56 0.00 275.79 637.46 349.89 528.13 847.19 596.75 747.11 507.00 464.06 828.97 760.74 630.01 275.11 611.93 434.12 465.68 151.52 301.09 796.06 484.48 713.36 256.51 704.98 527.14 514.60 901.45 765.81 227.05 690.26 544.07 650.10 770.46 868.91 615.36 747.12
640.56 808.37 718.75 1187.99 1014.53 980.85 1017.96 553.69 304.20 447.49 522.44 585.16 961.12 1028.26 886.05 628.73 679.37 988.33 146.51 818.19 952.91 572.02 398.19 926.76 497.27 548.76 97.06 395.69 824.75 799.37 512.95 760.11 833.36 843.89 961.40 895.56 474.94 860.77 374.68 896.92 481.40 1035.29 394.62 312.96 332.31 433.63 233.04 938.51 399.40 412.86 275.79 0.00 727.24 217.04 767.41 1038.28 852.90 885.34 535.12 720.33 907.21 900.75 712.56 448.35 697.64 528.84 461.38 232.82 520.89 971.02 439.89 821.39 458.83 775.69 663.41 622.63 1070.45 937.04 454.79 764.70 541.25 734.38 891.03 1058.09 657.90 1007.86
1115.21 786.46 564.27 1070.85 1028.79 1045.24 808.33 946.74 662.96 609.39 675.70 577.95 292.71 653.75 602.92 459.25 208.34 705.20 766.74 196.12 722.64 488.24 804.30 687.68 599.23 178.48 658.72 393.43 846.11 777.46 455.55 741.34 642.02 706.93 938.66 621.56 337.01 398.29 882.69 312.14 435.40 1012.55 903.37 414.28 856.18 562.39 765.54 758.82 724.00 921.61 637.46 727.24 0.00 557.80 704.60 838.13 461.93 845.28 208.00 794.15 295.68 526.24 539.44 716.10 166.64 292.74 361.35 638.92 703.54 835.47 524.94 190.17 866.85 204.71 397.72 228.02 779.66 578.83 602.69 254.33 613.17 162.45 516.52 503.81 206.38 1038.17
771.72 665.11 657.05 1080.81 943.72 969.52 917.18 659.42 372.37 406.99 497.61 511.96 791.68 932.79 808.05 552.60 557.98 910.33 312.49 696.80 847.30 475.41 501.57 812.93 466.55 379.32 119.98 387.06 846.62 674.11 416.34 705.83 692.08 758.42 854.22 806.99 362.37 739.38 538.84 727.48 303.46 928.11 558.93 143.52 494.83 362.48 375.06 834.72 421.27 577.17 349.89 217.04 557.80 0.00 688.00 909.94 707.06 847.28 409.66 696.35 749.31 805.28 671.38 513.96 576.25 313.42 271.88 252.43 497.50 905.30 253.91 717.93 562.35 654.30 539.82 540.80 944.24 840.14 336.58 569.56 426.14 529.40 795.56 912.71 536.51 978.42
830.68 124.43 201.30 519.48 390.93 424.61 362.84 584.34 580.30 336.70 351.51 267.23 723.17 462.76 309.38 253.04 561.12 369.99 620.90 637.65 280.23 304.71 463.84 244.71 310.14 566.46 792.43 435.49 329.93 133.43 318.23 43.81 125.01 210.98 313.54 239.92 465.24 461.19 689.16 672.56 414.12 356.08 702.25 619.86 555.80 387.16 599.84 294.04 479.94 698.50 528.13 767.41 704.60 688.00 0.00 354.25 338.65 306.60 614.48 183.61 650.73 358.27 220.40 319.06 537.96 669.94 538.34 567.09 341.14 333.96 835.38 616.52 504.45 558.50 325.20 494.90 377.17 410.86 351.42 873.95 934.85 782.50 348.55 515.61 555.10 432.07
1130.99 298.90 364.11 370.71 443.87 416.26 108.19 861.43 880.61 682.17 600.54 533.81 897.99 331.43 269.09 409.55 680.69 174.35 949.82 777.93 162.32 486.74 764.15 157.47 585.90 722.97 1029.92 642.59 468.35 307.90 545.81 379.52 278.32 223.91 318.24 223.59 632.40 596.48 964.07 893.95 606.48 392.13 963.61 851.25 856.11 619.21 943.68 129.29 780.25 981.85 847.19 1038.28 838.13 909.94 354.25 0.00 383.22 299.96 770.99 417.50 875.26 419.90 400.97 673.31 678.51 862.46 673.41 850.35 641.45 155.13 1054.19 779.33 804.76 701.84 481.71 610.11 133.61 400.14 701.81 1019.03 1091.36 939.01 410.18 577.24 702.16 374.20
1069.62 324.53 148.60 624.58 606.10 601.93 389.87 860.73 658.10 534.27 562.10 425.49 564.86 309.32 140.99 261.65 336.99 243.27 726.03 437.39 260.71 338.84 719.88 225.75 511.69 502.86 827.04 457.21 532.02 315.53 378.13 341.37 213.64 264.11 495.64 159.63 377.96 274.30 877.83 535.78 425.85 569.53 897.63 596.81 837.35 443.17 750.68 296.89 727.20 879.39 596.75 852.90 461.93 707.06 338.65 383.22 0.00 422.59 530.98 466.75 557.61 163.99 178.74 563.26 295.29 611.54 435.18 704.68 644.10 373.54 837.24 458.30 743.39 335.82 189.49 359.19 317.73 169.06 522.27 693.54 819.00 624.38 173.71 272.16 335.03 607.18
950.97 182.17 411.94 315.33 183.51 217.19 191.77 734.62 752.53 550.29 504.56 415.54 833.81 526.51 385.27 519.72 695.59 330.15 823.47 804.67 239.74 549.72 636.07 281.89 503.43 794.56 900.40 591.53 313.90 179.82 528.74 262.79 341.65 263.62 93.38 262.96 636.03 532.30 772.20 898.01 624.04 167.27 741.51 853.68 728.03 590.48 804.14 210.75 652.17 723.27 747.11 885.34 845.28 847.28 306.60 299.96 422.59 0.00 794.24 324.39 895.83 550.39 366.32 523.36 713.86 869.61 706.71 652.52 513.37 180.09 1023.40 784.39 652.08 758.41 447.56 617.26 388.46 520.02 614.67 1026.18 1077.07 992.37 541.02 686.14 674.12 207.94
941.31 666.54 463.04 996.08 957.54 949.15 829.79 817.74 587.04 457.51 545.24 450.50 460.38 677.90 671.97 361.44 224.88 774.25 634.68 363.70 685.62 367.08 673.84 698.50 468.77 48.02 528.26 202.71 803.69 675.54 319.97 655.81 577.65 663.62 855.65 664.83 206.55 406.28 711.33 396.18 288.42 929.54 695.37 283.82 682.73 367.63 660.32 736.81 593.54 713.61 507.00 535.12 208.00 409.66 614.48 770.99 530.98 794.24 0.00 675.98 418.01 530.95 508.66 585.64 235.69 96.24 187.90 470.84 596.10 804.85 328.44 384.83 700.40 321.20 395.02 243.71 829.81 563.25 449.45 276.27 423.25 264.06 540.67 581.41 203.41 963.51
813.51 142.22 348.52 467.66 306.85 273.17 394.29 567.17 540.99 368.08 217.41 241.35 818.48 569.08 452.74 344.51 621.52 425.32 573.82 691.01 359.16 375.53 446.67 341.12 246.25 641.16 731.55 473.27 263.32 151.22 356.01 155.75 308.62 244.73 241.07 349.21 482.63 644.80 632.12 789.40 449.85 314.96 663.03 627.10 526.91 333.87 560.55 311.83 462.77 669.61 464.06 720.33 794.15 696.35 183.61 417.50 466.75 324.39 675.98 0.00 811.23 541.88 313.75 295.07 637.96 614.49 567.35 510.70 323.97 382.41 820.02 711.92 487.28 589.44 416.67 586.37 540.60 587.49 378.44 870.63 941.50 830.47 532.16 699.22 642.99 287.53
1284.37 775.16 552.37 1087.93 1041.66 1075.34 825.41 1086.37 892.93 695.40 804.31 650.95 72.44 620.89 677.43 527.25 270.78 776.85 958.25 137.85 784.94 533.24 918.95 747.69 738.84 369.99 850.23 511.52 980.66 784.16 592.31 694.54 666.98 707.72 964.27 717.24 503.98 363.53 1098.26 21.83 587.55 1006.81 1113.38 605.79 1008.77 661.28 934.48 794.34 913.90 1131.62 828.97 907.21 295.68 749.31 650.73 875.26 557.61 895.83 418.01 811.23 0.00 493.38 597.99 762.33 282.09 514.25 513.94 815.86 843.17 872.35 639.47 137.15 1006.48 221.79 457.20 335.91 741.65 545.97 737.17 406.88 765.72 315.00 483.66 339.20 249.31 1082.80
1045.56 463.44 276.08 604.73 678.36 644.68 432.62 863.73 822.09 610.24 662.86 509.50 497.53 146.95 184.05 337.62 381.28 286.33 864.61 358.03 311.00 414.81 822.11 273.75 597.39 482.93 917.22 505.06 670.93 454.44 454.10 402.08 333.23 367.32 584.65 294.92 453.93 196.02 964.06 474.05 501.82 658.54 986.56 672.78 910.50 526.43 890.26 339.64 803.17 1004.80 760.74 900.75 526.24 805.28 358.27 419.90 163.99 550.39 530.95 541.88 493.38 0.00 321.70 677.33 363.95 603.25 585.27 782.17 699.41 421.54 835.45 375.17 819.36 368.46 265.46 364.15 305.86 72.03 598.24 722.28 894.97 630.40 9.72 176.78 359.81 658.46
947.10 270.46 45.62 553.46 549.02 540.79 365.46 749.38 658.36 437.34 383.36 322.51 647.25 428.76 246.99 190.41 405.44 313.07 665.55 481.97 243.18 195.97 614.80 243.50 404.33 460.64 788.27 316.87 495.95 279.46 255.04 201.90 122.65 177.86 459.57 183.00 356.50 345.74 794.37 597.99 367.92 514.17 821.95 543.83 661.01 340.19 659.80 272.48 579.09 803.71 630.01 712.56 539.44 671.38 220.40 400.97 178.74 366.32 508.66 313.75 597.99 321.70 0.00 461.02 372.80 603.49 432.05 601.70 506.18 385.29 773.65 460.84 669.49 483.83 183.49 351.14 374.81 313.55 412.68 760.06 813.00 676.68 331.42 450.90 412.54 498.73
570.38 411.40 460.99 762.73 601.92 568.24 641.89 324.04 320.00 151.50 77.66 184.10 810.48 716.14 625.82 395.47 534.49 659.45 301.84 673.31 593.29 318.28 156.62 560.44 116.87 537.62 494.35 406.30 443.59 402.40 314.63 362.87 444.07 478.86 536.14 558.20 379.09 714.64 428.86 784.16 348.44 610.03 403.61 467.96 295.50 220.94 280.78 548.91 179.77 421.85 275.11 448.35 716.10 513.96 319.06 673.31 563.26 523.36 585.64 295.07 762.33 677.33 461.02 0.00 552.76 600.68 454.42 377.56 80.84 619.39 690.64 694.44 244.15 630.81 428.14 555.31 696.23 678.27 202.71 790.35 779.36 753.66 667.61 834.67 513.02 582.60
1096.49 619.82 401.52 919.87 897.37 897.22 685.16 876.80 683.36 493.08 575.23 421.87 352.79 510.90 436.28 293.45 41.70 538.56 704.72 187.65 556.00 345.36 709.38 521.04 509.76 207.57 687.81 301.95 824.29 610.82 326.27 574.70 475.38 540.29 790.93 454.92 262.46 231.65 859.68 303.67 358.47 864.82 883.34 443.37 799.20 431.70 695.90 592.18 672.38 901.58 611.93 697.64 166.64 576.25 537.96 678.51 295.29 713.86 235.69 637.96 282.09 363.95 372.80 552.76 0.00 326.25 304.37 533.77 633.60 668.83 558.45 170.96 796.91 127.25 267.03 97.33 613.02 434.60 508.09 398.25 653.26 329.09 373.67 443.71 39.74 871.53
966.41 706.75 559.28 1079.51 921.34 887.66 816.99 807.97 514.16 468.37 560.28 539.32 495.56 730.76 752.53 457.68 284.55 808.48 545.55 447.31 764.28 463.32 686.69 794.74 483.81 144.26 433.40 291.53 877.81 715.75 408.79 626.13 673.89 759.86 855.56 741.65 302.79 502.52 731.17 492.42 349.35 929.45 754.83 246.56 687.16 379.74 567.39 815.47 620.24 746.68 434.12 528.84 292.74 313.42 669.94 862.46 611.54 869.61 96.24 614.49 514.25 603.25 603.49 600.68 326.25 0.00 204.08 374.60 612.28 863.93 232.20 451.11 690.63 345.74 422.05 252.35 823.39 655.84 435.62 256.14 327.01 215.98 593.53 677.65 299.65 902.02
813.25 579.01 440.96 908.55 868.23 840.52 668.59 651.40 475.86 330.63 414.02 353.77 586.38 712.78 576.17 285.30 286.10 678.45 446.78 424.92 609.48 277.18 514.25 610.50 337.55 182.87 391.86 115.18 743.24 588.01 232.44 576.83 489.65 575.62 736.48 594.81 146.10 467.50 628.19 531.03 145.27 810.37 655.77 286.69 494.83 233.48 506.95 660.67 433.95 637.53 465.68 461.38 361.35 271.88 538.34 673.41 435.18 706.71 187.90 567.35 513.94 585.27 432.05 454.42 304.37 204.08 0.00 314.16 408.20 715.53 436.28 446.05 571.51 382.42 319.81 268.92 741.81 604.24 261.55 460.22 531.09 398.91 575.55 679.56 264.63 798.56
613.95 639.39 556.08 967.85 817.55 783.87 813.91 525.37 161.70 230.39 325.84 352.34 859.83 868.41 766.29 471.17 573.41 807.03 170.95 721.42 740.87 408.41 353.57 728.68 264.45 460.44 247.88 429.34 728.05 632.26 349.34 577.86 616.23 626.44 745.90 730.92 375.94 759.64 356.57 808.60 389.26 819.79 380.23 279.16 312.56 261.51 192.79 721.06 350.58 398.47 151.52 232.82 638.92 252.43 567.09 850.35 704.68 652.52 470.84 510.70 815.86 782.17 601.70 377.56 533.77 374.60 314.16 0.00 400.86 766.97 453.11 704.73 408.03 661.02 516.71 579.32 868.39 764.92 221.97 630.74 625.34 580.25 772.45 934.32 573.51 798.23
489.54 342.55 517.44 740.25 595.56 561.88 594.62 243.20 239.16 232.34 122.82 257.98 891.08 764.92 650.52 445.26 615.33 617.89 374.38 754.15 514.59 392.16 122.70 560.45 197.71 591.07 532.71 456.14 362.75 333.55 354.81 384.95 466.15 528.48 513.66 581.06 459.93 764.43 348.02 865.00 370.43 587.55 369.69 528.83 214.66 235.60 307.58 512.16 138.80 357.36 301.09 520.89 703.54 497.50 341.14 641.45 644.10 513.37 596.10 323.97 843.17 699.41 506.18 80.84 633.60 612.28 408.20 400.86 0.00 564.74 751.41 768.73 163.31 692.09 496.57 569.97 696.69 739.01 272.64 805.01 845.16 807.11 689.69 856.75 593.86 603.94
1054.28 240.19 383.25 251.04 294.93 278.98 46.94 802.72 797.26 605.99 555.93 451.27 879.60 424.92 259.41 450.43 671.01 261.99 876.20 752.13 158.69 527.62 687.44 147.79 502.52 756.83 1014.85 674.26 407.10 231.19 581.80 313.22 268.64 207.43 163.11 213.91 673.28 598.12 887.36 850.52 659.77 237.00 904.90 826.87 779.40 606.59 872.32 115.89 703.54 903.36 796.06 971.02 835.47 905.30 333.96 155.13 373.54 180.09 804.85 382.41 872.35 421.54 385.29 619.39 668.83 863.93 715.53 766.97 564.74 0.00 1044.51 773.04 728.05 650.56 522.59 692.29 243.63 394.16 650.40 1019.41 1132.24 943.32 411.82 578.88 692.48 236.92
944.45 852.58 791.48 1250.28 1126.87 1093.19 1049.19 858.33 564.52 630.59 650.24 661.66 696.27 962.96 952.91 682.13 516.75 960.67 496.13 571.12 931.68 619.81 737.05 896.72 573.77 376.46 373.89 523.73 1056.42 843.58 606.95 858.33 895.47 935.08 1023.69 830.60 459.28 685.60 699.83 661.30 508.09 1097.58 730.74 263.17 684.39 556.40 582.66 967.86 672.48 748.76 484.48 439.89 524.94 253.91 835.38 1054.19 837.24 1023.40 328.44 820.02 639.47 835.45 773.65 690.64 558.45 232.20 436.28 453.11 751.41 1044.51 0.00 549.99 740.99 577.94 647.75 484.55 1055.59 888.04 569.97 324.81 172.23 416.69 825.73 863.63 531.85 1107.55
1147.22 680.71 415.22 979.90 955.11 970.23 726.10 1011.93 793.40 630.28 680.92 530.27 197.39 522.12 559.22 427.94 202.89 661.50 842.64 21.13 649.64 396.09 850.09 648.92 604.45 352.49 832.73 425.70 888.20 671.71 455.16 607.99 529.83 570.57 851.82 613.42 402.14 252.09 961.11 137.15 500.53 913.95 984.77 588.29 917.10 533.13 797.33 665.19 812.06 1003.01 713.36 821.39 190.17 717.93 616.52 779.33 458.30 784.39 384.83 711.92 137.15 375.17 460.84 694.44 170.96 451.11 446.05 704.73 768.73 773.04 549.99 0.00 906.34 122.48 368.46 198.76 681.03 447.20 633.88 444.50 677.42 352.62 384.89 313.64 181.42 959.57
326.23 505.86 680.75 897.24 668.45 666.27 757.93 117.34 292.81 393.38 286.13 421.29 1054.39 928.23 813.83 587.44 778.64 781.20 338.61 917.46 677.90 510.25 93.91 723.76 361.02 690.37 531.12 497.69 467.14 496.86 518.12 548.26 629.46 691.79 670.65 744.37 554.77 870.62 231.66 1028.31 484.96 703.04 254.74 557.81 194.08 398.91 263.45 675.47 144.85 236.50 256.51 458.83 866.85 562.35 504.45 804.76 743.39 652.08 700.40 487.28 1006.48 819.36 669.49 244.15 796.91 690.63 571.51 408.03 163.31 728.05 740.99 906.34 0.00 855.40 553.90 723.60 860.00 871.95 368.54 923.32 800.58 906.41 809.64 976.70 757.17 627.05
1133.78 660.35 461.12 866.14 896.29 862.61 603.62 935.29 761.41 553.64 632.75 491.26 229.04 515.41 476.81 305.46 111.09 579.09 812.00 101.57 596.53 382.65 781.50 561.57 556.28 309.04 774.28 380.00 836.30 651.35 413.90 602.31 549.46 593.28 813.67 495.45 358.28 288.03 889.25 199.96 427.86 881.57 912.91 544.84 845.24 456.49 725.47 572.55 716.62 931.15 704.98 775.69 204.71 654.30 558.50 701.84 335.82 758.41 321.20 589.44 221.79 368.46 483.83 630.81 127.25 345.74 382.42 661.02 692.09 650.56 577.94 122.48 855.40 0.00 360.08 190.38 611.61 378.83 557.24 459.04 672.75 367.16 378.18 349.94 117.79 876.97
880.13 435.89 170.40 725.85 631.07 664.75 537.96 671.24 607.18 344.78 397.40 244.04 529.64 392.97 330.48 72.16 248.99 432.76 599.15 389.59 396.34 149.35 584.76 396.93 331.93 347.00 651.76 267.72 603.00 426.89 188.64 363.17 276.08 361.35 540.94 349.12 188.47 340.03 698.60 479.03 236.36 614.83 721.10 407.32 706.59 260.97 640.38 444.98 537.71 739.34 527.14 663.41 397.72 539.82 325.20 481.71 189.49 447.56 395.02 416.67 457.20 265.46 183.49 428.14 267.03 422.05 319.81 516.71 496.57 522.59 647.75 368.46 553.90 360.08 0.00 169.70 507.22 318.05 332.78 578.62 629.51 560.17 255.74 422.80 257.12 655.50
1018.11 605.59 340.10 895.55 800.77 834.45 707.66 813.17 594.64 431.52 514.91 402.94 396.15 491.66 500.18 241.86 79.29 602.46 643.88 219.89 566.04 285.91 651.33 566.63 438.44 234.26 641.90 226.94 772.70 596.59 326.41 532.87 445.78 529.00 710.64 518.82 203.38 303.63 762.35 335.91 301.77 784.53 786.01 397.46 718.34 334.37 598.57 614.68 613.30 804.25 514.60 622.63 228.02 540.80 494.90 610.11 359.19 617.26 243.71 586.37 335.91 364.15 351.14 555.31 97.33 252.35 268.92 579.32 569.97 692.29 484.55 198.76 723.60 190.38 169.70 0.00 670.01 416.74 435.12 408.92 579.36 390.47 354.43 476.36 100.76 825.20
1186.23 398.38 366.77 356.43 513.10 479.42 196.69 939.89 935.85 707.46 700.02 607.86 803.39 281.65 219.71 506.28 654.72 117.43 998.07 663.89 182.10 570.78 819.39 231.52 658.52 781.79 1064.22 691.68 556.85 407.38 589.96 417.13 252.16 296.53 406.74 247.50 688.35 501.88 1044.71 763.48 702.84 406.28 1063.09 907.20 911.35 636.82 977.01 228.77 835.49 1054.05 901.45 1070.45 779.66 944.24 377.17 133.61 317.73 388.46 829.81 540.60 741.65 305.86 374.81 696.23 613.02 823.39 741.81 868.39 696.69 243.63 1055.59 681.03 860.00 611.61 507.22 670.01 0.00 354.10 675.65 1011.27 1136.73 936.26 315.58 482.64 652.76 480.55
1098.15 463.82 267.93 633.06 650.48 616.80 404.74 930.39 827.16 600.56 647.53 494.17 550.12 146.66 134.75 354.98 451.84 237.03 888.50 430.06 295.79 432.17 828.42 246.37 582.06 515.23 941.06 557.02 673.69 457.20 477.99 448.24 319.12 350.81 557.27 257.06 477.77 248.61 981.42 532.90 554.41 631.16 1012.33 696.62 953.67 503.41 882.11 311.76 790.67 1030.35 765.81 937.04 578.83 840.14 410.86 400.14 169.06 520.02 563.25 587.49 545.97 72.03 313.55 678.27 434.60 655.84 604.24 764.92 739.01 394.16 888.04 447.20 871.95 378.83 318.05 416.74 354.10 0.00 604.16 794.31 947.56 702.43 62.31 229.37 430.37 631.08
653.01 450.91 395.32 830.82 607.14 640.82 689.32 485.88 307.09 71.92 161.03 199.13 756.23 713.38 544.32 310.41 466.39 642.07 346.68 648.15 578.71 253.05 303.99 544.34 181.11 424.21 456.56 253.00 635.39 459.91 232.98 370.29 423.49 509.46 619.51 512.00 265.68 537.67 525.93 745.49 167.29 682.56 550.98 306.80 392.57 100.75 377.46 604.08 223.69 535.27 227.05 454.79 602.69 336.58 351.42 701.81 522.27 614.67 449.45 378.44 737.17 598.24 412.68 202.71 508.09 435.62 261.55 221.97 272.64 650.40 569.97 633.88 368.54 557.24 332.78 435.12 675.65 604.16 0.00 670.16 699.78 640.25 588.52 749.73 487.86 665.97
1185.12 942.81 717.96 1246.46 1177.48 1143.80 996.50 1034.10 770.30 666.56 749.95 680.28 371.46 869.23 834.53 620.91 439.95 936.81 801.69 444.55 922.37 615.01 829.41 887.41 673.48 307.49 689.54 478.98 1063.16 951.81 596.24 882.27 832.57 918.54 1111.70 821.29 466.02 629.90 908.49 428.71 564.41 1185.59 939.40 502.70 882.73 569.41 823.53 903.52 853.01 957.42 690.26 764.70 254.33 569.56 873.95 1019.03 693.54 1026.18 276.27 870.63 406.88 722.28 760.06 790.35 398.25 256.14 460.22 630.74 805.01 1019.41 324.81 444.50 923.32 459.04 578.62 408.92 1011.27 794.31 670.16 0.00 409.09 91.88 732.00 746.08 437.99 1158.16
1076.36 982.23 799.91 1335.50 1248.35 1214.67 1144.00 917.92 624.11 627.86 778.53 782.58 730.30 1022.48 959.99 681.81 611.56 1062.27 668.36 698.55 1005.99 735.96 796.64 1026.44 746.00 471.27 528.72 559.63 1120.60 973.23 676.89 953.14 905.59 990.86 1153.34 978.63 629.80 829.53 843.84 787.55 581.60 1227.23 874.75 435.40 817.77 706.75 698.00 1057.18 805.57 856.63 544.07 541.25 613.17 426.14 934.85 1091.36 819.00 1077.07 423.25 941.50 765.72 894.97 813.00 779.36 653.26 327.01 531.09 625.34 845.16 1132.24 172.23 677.42 800.58 672.75 629.51 579.36 1136.73 947.56 699.78 409.09 0.00 450.72 885.25 991.06 626.66 1229.03
1182.39 868.81 631.06 1183.15 1137.32 1103.64 959.65 1004.31 730.14 646.95 713.26 652.77 279.58 777.35 765.37 529.46 370.79 859.48 751.20 352.67 830.49 523.13 841.86 795.53 636.79 216.04 637.32 453.82 971.71 877.81 522.24 823.83 745.67 831.64 1057.92 729.41 374.57 560.74 936.82 336.83 472.96 1102.31 959.43 451.84 892.81 595.72 773.04 866.67 761.56 962.66 650.10 734.38 162.45 529.40 782.50 939.01 624.38 992.37 264.06 830.47 315.00 630.40 676.68 753.66 329.09 215.98 398.91 580.25 807.11 943.32 416.69 352.62 906.41 367.16 560.17 390.47 936.26 702.43 640.25 91.88 450.72 0.00 640.12 654.20 366.43 1118.00
1035.84 457.54 285.80 614.45 673.89 640.21 428.15 873.45 831.81 600.52 653.14 499.78 487.81 137.23 193.77 327.90 391.00 296.05 854.89 367.75 301.28 405.09 812.39 264.03 587.67 492.65 907.50 495.34 665.03 448.54 444.38 392.36 342.95 377.04 574.93 293.50 444.21 186.30 954.34 483.77 492.10 648.82 976.84 663.06 904.35 516.71 896.12 335.17 793.45 995.08 770.46 891.03 516.52 795.56 348.55 410.18 173.71 541.02 540.67 532.16 483.66 9.72 331.42 667.61 373.67 593.53 575.55 772.45 689.69 411.82 825.73 384.89 809.64 378.18 255.74 354.43 315.58 62.31 588.52 732.00 885.25 640.12 0.00 167.06 369.53 648.74
1202.90 596.69 420.76 781.51 840.95 807.27 572.17 1040.51 930.26 753.18 810.74 660.09 381.57 285.83 360.83 494.96 436.40 463.11 995.49 334.77 468.34 525.91 979.45 431.09 734.27 533.39 1013.63 662.40 804.18 587.69 584.98 559.42 485.80 527.66 741.99 423.18 611.27 212.06 1121.40 317.37 659.16 798.76 1143.90 769.19 1071.41 683.77 1016.94 502.23 960.51 1151.55 868.91 1058.09 503.81 912.71 515.61 577.24 272.16 686.14 581.41 699.22 339.20 176.78 450.90 834.67 443.71 677.65 679.56 934.32 856.75 578.88 863.63 313.64 976.70 349.94 422.80 476.36 482.64 229.37 749.73 746.08 991.06 654.20 167.06 0.00 414.93 815.80
1056.75 594.09 381.29 943.52 857.63 858.07 687.00 837.06 643.62 453.34 555.00 401.64 321.75 506.76 476.02 315.17 21.47 578.30 711.41 160.29 567.25 305.62 669.64 544.69 489.53 193.73 656.49 262.21 819.58 603.09 364.69 548.63 435.64 521.61 767.50 478.57 254.67 202.87 857.84 271.14 338.24 841.39 886.77 429.53 759.46 411.97 699.33 615.83 664.59 902.16 615.36 657.90 206.38 536.51 555.10 702.16 335.03 674.12 203.41 642.99 249.31 359.81 412.54 513.02 39.74 299.65 264.63 573.51 593.86 692.48 531.85 181.42 757.17 117.79 257.12 100.76 652.76 430.37 487.86 437.99 626.66 366.43 369.53 414.93 0.00 838.71
953.28 313.31 544.35 363.73 69.67 42.06 283.86 620.78 827.16 655.61 504.94 528.88 1039.36 588.92 496.33 632.04 860.18 454.15 861.35 978.54 350.85 663.06 703.91 384.71 533.78 928.69 1019.08 760.80 241.19 317.25 643.54 388.26 480.97 395.00 137.14 447.55 770.16 737.85 798.36 1076.93 737.38 75.99 767.45 914.63 814.44 621.40 848.08 347.10 666.54 761.80 747.12 1007.86 1038.17 978.42 432.07 374.20 607.18 207.94 963.51 287.53 1082.80 658.46 498.73 582.60 871.53 902.02 798.56 798.23 603.94 236.92 1107.55 959.57 627.05 876.97 655.50 825.20 480.55 631.08 665.97 1158.16 1229.03 1118.00 648.74 815.80 838.71 0.00
DEMAND_SECTION
1 0
2 54
3 23
4 37
5 8
6 11
7 75
8 26
9 48
10 63
11 62
12 18
13 9
14 27
15 7
16 84
17 23
18 71
19 19
20 58
21 49
22 83
23 52
24 36
25 74
26 82
27 31
28 91
29 76
30 5
31 13
32 16
33 41
34 57
35 16
36 34
37 44
38 16
39 25
40 2
41 85
42 94
43 58
44 26
45 83
46 60
47 17
48 29
49 91
50 30
51 45
52 44
53 81
54 76
55 91
56 84
57 18
58 42
59 77
60 62
61 45
62 63
63 66
64 66
65 50
66 77
67 93
68 84
69 10
70 31
71 59
72 94
73 18
74 84
75 19
76 89
77 77
78 25
79 45
80 63
81 34
82 31
83 41
84 23
85 95
86 39
DEPOT_SECTION
1
-1
EOF
