NAME: LDG85_3134_snow_85_0279
COMMENT: CVRP with travel times.  rootPos=3,custPos=1,demandType=3,avgRouteSizeIndex=4,weather=snow,lambda_cluster=1,lambda_random=4, T1=300,T2=700,beta=1, alpha(i,j) ~ U(0.8,1.2)
TYPE: CVRP
DIMENSION: 86
EDGE_WEIGHT_TYPE: EXPLICIT
EDGE_WEIGHT_FORMAT: FULL_MATRIX
CAPACITY: 106
NODE_COORD_SECTION
1 0 0
2 747 679
3 752 654
4 503 165
5 646 977
6 152 618
7 176 540
8 602 669
9 331 370
10 727 149
11 455 731
12 905 124
13 785 705
14 276 967
15 937 191
16 59 802
17 231 809
18 864 482
19 86 391
20 310 116
21 583 446
22 614 725
23 563 564
24 298 589
25 848 851
26 340 167
27 613 172
28 367 648
29 503 917
30 481 917
31 194 526
32 258 147
33 861 755
34 642 711
35 789 942
36 128 437
37 908 704
38 158 669
39 971 664
40 164 354
41 537 41
42 749 313
43 132 374
44 319 67
45 784 716
46 909 770
47 230 56
48 754 628
49 681 741
50 123 10
51 21 865
52 472 367
53 852 323
54 861 677
55 344 394
56 830 601
57 579 122
58 759 605
59 782 266
60 689 719
61 949 898
62 381 997
63 568 803
64 394 23
65 419 953
66 27 774
67 217 825
68 808 556
69 933 758
70 791 631
71 65 447
72 773 942
73 60 969
74 203 290
75 58 746
76 450 227
77 978 979
78 658 118
79 866 132
80 272 939
81 275 740
82 546 130
83 545 62
84 106 258
85 501 897
86 832 129
EDGE_WEIGHT_SECTION
0.00 1175.37 1204.58 708.47 1301.28 775.47 695.91 1078.55 682.15 833.87 1129.36 1060.62 1209.53 1178.74 1005.65 943.19 1030.43 1142.21 514.92 450.51 972.99 974.13 1078.38 834.53 1373.06 483.51 774.78 979.26 1258.94 1271.07 712.94 432.59 1301.72 1041.68 1363.17 581.35 1350.20 842.05 1392.39 619.11 716.50 1005.12 586.90 404.25 1210.66 1372.65 348.48 1235.81 1063.90 189.00 1040.81 796.49 1069.75 1286.23 694.86 1198.14 746.05 1191.62 1007.82 1087.97 1501.11 1215.99 1118.14 504.08 1278.83 958.83 1002.53 1223.78 1375.62 1236.91 555.43 1345.74 1157.99 586.87 879.52 650.63 1588.32 855.04 1013.17 1195.75 1029.26 692.46 702.16 398.93 1224.05 974.56
1175.37 0.00 42.69 709.30 517.15 745.12 791.57 213.31 638.90 637.13 380.42 602.81 69.79 676.10 661.74 849.91 605.03 288.42 867.86 892.26 369.06 201.24 341.52 640.13 300.60 826.07 573.72 488.99 463.29 458.29 760.00 922.12 186.03 188.08 413.32 850.88 193.24 712.06 271.70 734.64 731.21 495.52 795.88 929.17 88.46 256.96 933.02 60.44 132.29 1096.35 887.65 554.10 438.83 178.28 594.17 143.63 706.05 117.96 463.18 93.01 405.44 610.85 320.01 932.21 544.00 869.40 625.63 175.26 249.32 72.23 829.36 401.53 905.99 818.71 797.66 666.60 482.77 749.34 656.84 703.19 580.04 701.20 699.11 890.10 451.16 670.48
1204.58 42.69 0.00 738.13 512.62 744.93 766.63 221.45 598.84 632.02 401.96 597.67 100.53 690.21 642.20 843.81 647.43 245.73 867.20 867.32 338.95 230.45 300.38 656.65 294.00 801.13 602.55 507.85 438.49 481.42 753.40 920.69 168.47 163.88 377.20 870.99 235.93 754.75 280.97 777.33 724.74 470.58 817.98 904.23 81.86 239.40 975.71 53.97 174.98 1128.83 930.05 564.61 396.14 173.14 551.48 113.02 700.91 93.02 467.97 135.70 388.41 633.98 361.90 929.70 575.08 862.93 619.53 170.12 242.37 67.09 824.39 405.95 899.89 776.02 819.20 660.13 465.21 735.44 661.63 724.73 601.58 673.52 692.64 847.41 473.38 639.87
708.47 709.30 738.13 0.00 1031.49 707.59 595.41 655.15 294.84 281.13 748.15 489.79 745.33 1012.31 565.30 930.49 807.32 616.76 565.57 285.52 462.99 724.86 471.81 607.72 933.10 258.59 135.58 627.66 852.31 864.44 560.29 313.22 860.99 727.17 1005.79 598.46 766.36 674.62 833.24 501.61 164.77 336.18 551.21 311.26 764.00 847.96 379.99 697.63 737.70 519.47 921.81 237.33 445.36 702.39 327.69 718.91 116.42 648.55 405.68 698.42 997.13 1015.82 772.58 222.91 980.67 881.11 835.22 647.21 823.66 706.42 642.23 977.04 1065.19 396.16 859.98 91.47 1112.44 213.22 444.65 984.28 758.95 70.52 153.47 557.89 817.42 421.82
1301.28 517.15 512.62 1031.49 0.00 722.55 790.31 376.34 819.88 985.06 419.89 1077.71 480.50 493.17 1063.84 767.75 541.12 713.08 944.24 1154.77 656.56 327.15 566.85 629.58 265.19 1107.14 1007.14 466.42 227.79 270.72 809.79 1174.03 397.93 373.14 170.35 864.33 456.77 738.45 499.46 980.77 1110.63 873.46 953.94 1180.57 477.33 416.81 1195.91 532.89 384.86 1267.72 818.66 835.29 870.85 450.42 867.24 539.60 1047.77 511.36 883.36 424.14 342.47 415.04 339.17 1196.17 371.09 836.94 543.47 612.81 440.04 556.47 943.46 141.60 783.55 1001.66 757.63 940.02 457.78 920.20 1077.02 517.62 540.01 994.18 1078.53 942.83 262.68 1055.34
775.47 745.12 744.93 707.59 722.55 0.00 149.35 600.96 412.75 856.47 367.06 1073.07 760.82 477.99 1055.19 359.52 337.06 879.52 274.03 553.80 724.76 561.19 504.57 289.74 911.17 595.22 843.17 256.13 591.27 580.73 147.30 602.81 873.72 628.74 820.18 194.12 883.05 103.65 917.96 310.56 872.36 825.08 311.61 632.44 761.95 944.65 633.22 690.96 615.19 760.03 350.84 577.35 859.24 833.08 417.07 818.70 824.01 758.18 889.35 652.11 1049.80 633.07 586.54 707.77 625.43 310.14 309.16 760.30 940.35 779.44 273.25 848.93 494.22 396.42 289.01 616.12 1068.54 920.81 983.52 467.93 284.85 778.11 861.06 490.85 568.04 997.16
695.91 791.57 766.63 595.41 790.31 149.35 0.00 687.83 302.96 799.99 453.93 1011.82 727.72 483.71 985.68 341.85 334.52 776.00 194.47 561.40 575.52 648.06 572.33 160.73 921.19 501.10 730.99 323.89 641.64 598.71 37.51 496.66 829.68 715.61 895.63 114.56 877.41 198.54 944.29 218.77 760.18 755.57 228.34 587.70 709.05 849.32 553.66 740.83 702.06 680.47 439.47 434.84 911.04 813.44 267.72 762.26 711.83 673.61 779.56 719.87 1028.84 638.79 562.54 687.53 603.40 350.65 306.62 775.06 820.22 731.48 193.69 924.38 549.81 302.30 271.34 506.33 1044.54 808.63 960.54 499.84 348.33 665.93 748.88 360.78 645.73 925.76
1078.55 213.31 221.45 655.15 376.34 600.96 687.83 0.00 569.71 608.72 233.90 786.54 234.89 497.63 738.46 721.65 524.19 360.81 826.40 785.49 280.22 104.42 190.51 587.48 420.46 730.80 630.80 438.95 365.19 322.26 650.32 859.11 347.89 92.48 450.00 783.30 359.57 631.96 394.48 822.75 734.29 508.35 833.86 804.23 253.56 418.82 915.46 167.48 161.39 1047.00 806.81 505.88 594.19 324.54 569.69 323.35 671.43 234.70 567.64 126.28 542.33 474.82 248.43 819.83 472.80 730.45 548.13 306.56 414.42 255.96 824.39 429.04 788.01 758.42 651.14 563.68 635.72 720.93 758.58 549.38 433.52 617.84 702.19 786.55 354.34 749.41
682.15 638.90 598.84 294.84 819.88 412.75 302.96 569.71 0.00 569.87 535.32 747.13 671.58 786.67 731.85 635.65 581.70 641.88 352.44 395.49 355.16 659.61 396.23 329.60 814.08 329.30 430.42 353.46 684.00 684.73 265.45 354.15 767.31 651.59 863.38 374.79 748.83 379.78 792.01 262.15 459.61 555.59 329.87 432.40 680.70 830.43 438.20 588.16 683.36 597.74 626.97 204.72 638.11 684.86 47.36 609.59 411.26 520.94 476.60 665.81 963.01 735.76 712.71 482.01 722.76 586.27 609.58 622.39 806.13 578.81 453.92 846.35 770.35 271.90 565.14 203.37 1029.34 508.06 657.58 743.27 502.05 365.36 448.31 283.22 714.19 710.56
833.87 637.13 632.02 281.13 985.06 856.47 799.99 608.72 569.87 0.00 842.62 226.75 700.85 1012.67 284.17 1141.84 935.14 494.85 830.17 506.04 435.63 713.14 606.82 843.90 879.71 523.90 240.53 755.48 973.91 930.98 835.32 523.75 750.42 701.20 1007.99 826.89 720.88 945.16 691.57 733.59 268.00 252.94 783.19 446.04 713.88 768.98 595.59 587.95 750.99 644.87 1163.50 365.15 235.88 676.57 536.63 599.60 164.71 556.57 173.95 730.14 946.76 1083.54 779.05 442.73 1050.17 1150.64 963.04 528.17 797.84 599.64 866.66 979.24 1243.40 628.14 1071.33 372.60 985.51 112.21 179.30 1064.42 904.07 218.30 259.36 816.08 944.36 140.69
1129.36 380.42 401.96 748.15 419.89 367.06 453.93 233.90 535.32 842.62 0.00 945.93 393.76 322.95 972.36 487.75 290.29 594.71 620.18 878.77 514.12 194.13 403.47 353.58 581.59 823.80 843.76 208.80 327.68 311.92 416.42 857.17 509.02 261.68 547.40 561.18 529.99 398.06 596.87 601.94 912.92 742.25 607.25 876.16 394.89 579.95 921.14 401.38 248.13 1043.62 572.91 510.82 756.52 466.02 487.96 485.68 864.57 397.03 750.34 287.41 721.11 387.44 225.55 935.32 270.37 496.55 318.19 498.48 573.29 421.14 640.31 529.97 598.55 707.39 417.24 656.68 707.55 836.43 944.00 322.77 199.62 818.67 885.92 771.85 358.94 922.32
1060.62 602.81 597.67 489.79 1077.71 1073.07 1011.82 786.54 747.13 226.75 945.93 0.00 631.79 1239.42 111.57 1334.63 1098.22 508.04 1009.84 720.56 656.22 793.36 715.84 851.09 816.52 671.52 388.97 910.63 983.33 1026.26 1012.58 734.03 679.78 761.55 972.33 1047.84 700.60 1080.63 753.99 960.34 482.52 341.68 937.86 672.79 650.46 750.71 769.55 619.06 703.59 871.62 1327.82 591.90 366.14 636.63 763.38 601.98 379.23 588.45 283.21 695.82 899.72 1173.13 891.31 634.12 1134.17 1287.12 1126.12 627.26 753.68 530.58 1081.18 970.12 1399.39 854.89 1265.51 543.76 976.52 325.83 89.55 1261.89 1047.89 432.82 473.88 1030.35 1018.22 86.06
1209.53 69.79 100.53 745.33 480.50 760.82 727.72 234.89 671.58 700.85 393.76 631.79 0.00 658.88 719.93 881.51 674.82 323.46 893.97 924.94 401.74 235.40 350.62 709.27 230.81 858.75 643.51 546.11 393.50 436.43 690.21 987.39 139.30 214.54 343.53 842.28 187.03 769.18 237.82 804.43 791.21 528.20 865.67 927.45 18.67 207.25 1002.81 120.44 145.63 1166.14 957.44 611.22 467.07 123.06 652.01 172.61 728.40 150.64 532.97 150.13 335.65 541.34 314.83 925.87 544.34 878.43 670.19 204.24 179.53 101.21 899.15 372.28 949.26 876.55 811.00 693.48 436.04 700.11 677.13 683.33 593.38 674.81 759.11 947.94 428.39 699.46
1178.74 676.10 690.21 1012.31 493.17 477.99 483.71 497.63 786.67 1012.67 322.95 1239.42 658.88 0.00 1202.07 296.90 204.99 858.44 678.18 1010.65 733.90 517.08 597.80 485.46 758.36 970.45 989.98 441.56 265.38 241.98 521.22 974.92 722.84 526.33 609.02 598.27 742.46 416.03 820.92 701.38 1109.51 971.96 712.05 1071.41 677.55 793.77 999.42 665.11 543.81 1104.70 325.49 774.98 1007.68 781.35 750.54 788.22 1046.65 712.40 1020.00 583.09 808.02 155.08 434.92 1146.80 272.15 382.58 177.09 804.19 796.74 716.82 677.40 607.15 290.38 786.01 367.41 920.84 824.33 1124.88 1191.97 51.75 296.55 993.06 1077.41 779.81 269.61 1153.36
1005.65 661.74 642.20 565.30 1063.84 1055.19 985.68 738.46 731.85 284.17 972.36 111.57 719.93 1202.07 0.00 1223.06 1070.26 396.47 1069.39 790.21 544.65 797.98 604.27 962.22 814.64 751.82 500.54 799.06 1071.47 1060.72 997.30 807.92 708.02 730.43 970.45 1022.35 607.07 1086.32 685.53 972.55 552.17 230.11 1045.33 730.21 724.06 673.78 879.76 601.30 774.06 929.04 1320.68 617.00 268.19 648.90 779.21 600.33 448.88 591.29 255.25 754.75 830.67 1144.41 941.99 726.90 1027.34 1215.75 1098.16 515.69 702.88 618.72 1101.48 948.99 1378.52 912.31 1165.27 595.29 945.98 396.38 179.95 1150.32 947.65 502.47 543.53 1015.07 1041.81 197.63
943.19 849.91 843.81 930.49 767.75 359.52 341.85 721.65 635.65 1141.84 487.75 1334.63 881.51 296.90 1223.06 0.00 252.18 1030.29 504.99 898.38 798.91 681.88 672.44 484.93 914.45 842.95 1066.07 424.00 562.28 538.88 379.36 838.51 996.61 679.93 897.37 451.54 978.06 255.87 1031.45 560.62 1038.26 992.95 570.19 841.42 882.64 1024.64 890.64 877.88 735.88 990.99 97.62 776.69 1144.97 914.09 609.57 879.44 1036.32 863.51 1067.19 775.00 1069.49 451.98 630.28 941.25 557.66 85.68 224.28 911.07 995.54 808.04 394.60 868.62 241.00 644.15 70.51 839.02 1112.28 1118.77 1260.85 295.45 288.13 982.73 1006.16 702.63 566.51 1249.96
1030.43 605.03 647.43 807.32 541.12 337.06 334.52 524.19 581.70 935.14 290.29 1098.22 674.82 204.99 1070.26 252.18 0.00 881.99 528.99 831.65 546.73 484.42 524.50 336.27 790.19 765.46 915.64 276.06 313.33 347.22 357.39 816.54 751.48 483.55 656.97 449.08 742.61 279.01 809.49 553.29 972.09 845.01 548.22 868.56 661.33 822.41 888.18 665.47 538.42 1007.87 282.62 569.99 892.79 678.64 602.24 748.66 913.97 680.27 815.01 529.87 869.31 335.97 408.87 968.39 330.14 326.31 27.90 764.83 799.16 677.26 528.21 673.45 308.26 636.82 279.46 715.85 890.87 1020.54 1008.67 189.09 163.87 860.38 944.73 695.30 348.22 1075.83
1142.21 288.42 245.73 616.76 713.08 879.52 776.00 360.81 641.88 494.85 594.71 508.04 323.46 858.44 396.47 1030.29 881.99 0.00 942.25 724.89 452.82 465.23 401.30 771.76 500.48 658.70 498.30 623.39 675.00 683.07 738.49 739.09 384.24 398.44 621.34 874.49 333.74 872.36 338.05 828.53 628.10 280.58 908.12 761.80 327.59 360.03 854.86 252.78 395.26 982.68 1119.55 667.47 258.97 269.77 689.24 203.86 524.81 201.72 325.21 365.76 451.91 835.63 582.98 802.83 809.64 1040.08 854.09 119.22 389.13 222.25 953.62 601.86 1134.45 857.50 989.60 707.23 567.22 598.34 518.87 910.19 771.98 578.40 619.46 925.10 681.80 582.85
514.92 867.86 867.20 565.57 944.24 274.03 194.47 826.40 352.44 830.17 620.18 1009.84 893.97 678.18 1069.39 504.99 528.99 942.25 0.00 492.02 623.52 801.47 726.26 348.15 945.74 425.83 701.15 477.82 810.91 767.98 203.76 470.94 995.93 733.92 1081.32 79.91 1028.08 364.79 1062.99 148.10 730.34 851.91 71.98 482.97 875.30 1043.79 519.01 835.99 802.83 486.00 602.61 465.02 916.59 979.69 315.72 919.73 681.99 857.88 829.04 828.99 1128.40 833.26 749.96 582.80 769.65 513.79 501.09 959.33 1014.69 915.75 110.39 1070.48 712.95 227.03 434.48 474.10 1161.00 778.79 928.31 694.31 542.80 636.09 719.04 216.82 815.00 923.78
450.51 892.26 867.32 285.52 1154.77 553.80 561.40 785.49 395.49 506.04 878.77 720.56 924.94 1010.65 790.21 898.38 831.65 724.89 492.02 0.00 555.67 866.70 693.82 525.19 1111.87 66.19 357.40 688.35 968.15 963.17 532.77 73.62 884.40 845.82 1155.02 446.84 955.35 657.45 992.16 370.44 348.55 587.90 420.04 78.64 908.12 955.33 129.97 839.47 870.58 261.51 904.64 370.21 729.18 891.38 442.83 790.37 341.33 774.30 630.59 831.30 1104.34 1028.50 914.42 153.97 1057.65 863.94 833.56 813.26 958.30 832.17 524.55 1130.58 1048.02 264.99 832.74 233.31 1181.14 489.92 685.34 966.79 721.99 356.04 316.45 343.75 933.26 646.73
972.99 369.06 338.95 462.99 656.56 724.76 575.52 280.22 355.16 435.63 514.12 656.22 401.74 733.90 544.65 798.91 546.73 452.82 623.52 555.67 0.00 384.64 220.19 628.35 596.72 489.48 413.92 468.63 558.04 587.75 613.03 618.12 505.21 372.70 642.95 644.69 478.99 684.77 491.52 542.53 523.32 314.54 622.12 592.58 384.58 560.59 685.64 318.32 406.11 817.18 829.35 225.66 346.06 415.02 307.80 296.21 445.03 251.10 393.53 366.83 693.17 740.31 410.17 650.16 708.88 873.04 574.63 352.55 536.29 308.97 575.50 671.70 854.99 532.34 821.12 371.52 739.91 536.52 587.19 682.15 603.50 428.39 491.22 603.73 575.48 576.32
974.13 201.24 230.45 724.86 327.15 561.19 648.06 104.42 659.61 713.14 194.13 793.36 235.40 517.08 797.98 681.88 484.42 465.23 801.47 866.70 384.64 0.00 294.93 545.82 398.93 800.51 735.22 402.93 284.81 296.94 610.55 929.15 335.45 67.55 389.04 755.31 376.07 592.19 442.95 719.19 809.67 567.87 762.60 903.61 236.53 406.38 963.88 261.68 89.77 1128.21 767.04 574.93 623.76 312.10 646.17 334.18 775.85 264.27 556.21 113.84 526.98 448.32 144.01 908.25 368.38 690.68 512.32 348.83 409.35 262.78 834.44 371.61 787.62 806.50 611.37 633.39 614.19 825.35 749.87 516.90 393.75 722.26 806.61 862.76 249.92 728.19
1078.38 341.52 300.38 471.81 566.85 504.57 572.33 190.51 396.23 606.82 403.47 715.84 350.62 597.80 604.27 672.44 524.50 401.30 726.26 693.82 220.19 294.93 0.00 411.60 573.01 628.16 440.29 248.44 555.70 512.77 559.58 750.38 452.87 255.36 586.40 646.35 527.51 535.70 570.69 658.38 622.68 374.16 688.95 729.15 369.29 510.55 761.85 354.35 287.13 940.87 770.06 323.61 566.25 463.54 443.59 366.72 582.55 299.62 432.87 278.83 672.81 665.33 359.38 629.32 617.74 665.13 552.40 282.08 526.77 357.49 699.55 568.97 832.76 567.91 614.65 469.47 749.61 618.00 626.53 546.05 397.03 542.33 625.28 679.45 524.69 694.00
834.53 640.13 656.65 607.72 629.58 289.74 160.73 587.48 329.60 843.90 353.58 851.09 709.27 485.46 962.22 484.93 336.27 771.76 348.15 525.19 628.35 545.82 411.60 0.00 823.12 591.38 743.30 163.16 480.91 437.98 198.24 598.81 780.75 609.70 767.08 275.29 762.18 229.54 840.64 379.50 741.17 732.11 389.07 603.83 690.60 843.78 613.15 617.04 582.05 760.49 476.73 478.75 934.63 757.40 320.55 737.18 681.25 684.26 806.20 559.14 945.01 590.54 401.81 679.16 532.46 436.03 308.37 652.54 854.65 705.52 354.42 771.18 548.30 463.03 414.42 532.97 883.81 820.94 832.50 441.60 196.80 627.66 712.01 435.60 485.00 765.03
1373.06 300.60 294.00 933.10 265.19 911.17 921.19 420.46 814.08 879.71 581.59 816.52 230.81 758.36 814.64 914.45 790.19 500.48 945.74 1111.87 596.72 398.93 573.01 823.12 0.00 1045.68 874.32 690.16 492.98 518.77 883.68 1135.93 227.47 389.25 155.81 1025.65 231.57 824.76 234.27 920.66 1018.74 699.51 1000.25 1120.92 212.14 156.54 1199.90 347.97 333.46 1373.38 1012.07 755.27 643.83 230.71 766.72 400.40 928.14 381.45 749.87 294.18 182.66 671.33 521.08 1048.41 636.28 923.25 808.66 397.35 185.64 332.02 1056.13 153.60 1048.74 991.26 843.94 886.95 215.26 874.16 906.07 743.43 626.32 905.62 986.64 1062.65 519.56 902.58
483.51 826.07 801.13 258.59 1107.14 595.22 501.10 730.80 329.30 523.90 823.80 671.52 858.75 970.45 751.82 842.95 765.46 658.70 425.83 66.19 489.48 800.51 628.16 591.38 1045.68 0.00 291.27 682.76 901.96 914.09 519.50 128.64 818.21 822.90 1093.14 401.10 889.16 680.53 934.93 304.25 414.74 521.71 353.85 103.10 841.93 889.14 196.16 773.28 813.35 327.70 927.72 312.98 663.05 825.19 376.66 749.20 359.19 708.11 579.69 774.07 1038.15 962.31 848.23 202.93 1030.32 851.75 793.36 777.92 892.11 765.98 480.23 1064.39 1050.91 198.80 772.44 167.12 1114.95 468.98 621.33 954.55 774.75 329.11 382.64 386.74 867.07 594.18
774.78 573.72 602.55 135.58 1007.14 843.17 730.99 630.80 430.42 240.53 843.76 388.97 643.51 989.98 500.54 1066.07 915.64 498.30 701.15 357.40 413.92 735.22 440.29 743.30 874.32 291.27 0.00 688.73 895.01 937.94 695.87 419.91 759.75 695.65 979.75 692.37 766.96 810.20 728.64 591.70 182.39 333.54 645.12 394.37 662.18 830.68 487.37 634.16 706.01 618.91 1057.39 362.95 371.78 752.00 463.27 601.21 142.26 665.02 288.42 666.73 950.21 1090.50 799.67 358.49 1045.85 1016.69 943.54 617.52 823.04 645.95 771.50 975.25 1187.17 490.07 995.56 227.05 1044.91 177.71 370.38 986.34 823.99 127.48 211.83 666.55 929.90 302.91
979.26 488.99 507.85 627.66 466.42 256.13 323.89 438.95 353.46 755.48 208.80 910.63 546.11 441.56 799.06 424.00 276.06 623.39 477.82 688.35 468.63 402.93 248.44 163.16 690.16 682.76 688.73 0.00 374.20 331.27 343.37 707.61 617.59 446.54 636.77 397.91 645.97 287.26 680.88 514.35 792.43 568.95 487.52 766.99 527.44 688.52 729.49 453.88 418.89 908.51 521.62 390.33 771.47 594.24 400.82 588.81 744.08 521.10 647.94 395.98 808.89 483.83 434.35 814.83 369.30 416.69 303.96 504.17 691.49 542.36 477.04 608.02 584.32 600.21 366.21 536.19 905.42 840.88 841.60 389.81 148.59 698.18 765.43 598.76 378.29 872.28
1258.94 463.29 438.49 852.31 227.79 591.27 641.64 365.19 684.00 973.91 327.68 983.33 393.50 265.38 1071.47 562.28 313.33 675.00 810.91 968.15 558.04 284.81 555.70 480.91 492.98 901.96 895.01 374.20 0.00 42.93 670.72 1030.60 523.79 352.36 343.64 756.20 580.53 546.79 631.32 818.52 1017.08 852.68 738.93 1005.06 412.17 594.72 1094.06 492.46 374.58 1192.35 590.87 635.55 808.51 516.56 731.36 524.15 968.73 510.62 841.02 387.58 555.98 195.49 200.20 1039.48 150.84 639.64 341.23 555.78 573.03 452.75 822.18 360.12 555.76 862.69 565.97 760.84 589.61 987.43 1034.68 289.83 348.35 922.83 1005.78 916.51 34.89 1013.00
1271.07 458.29 481.42 864.44 270.72 580.73 598.71 322.26 684.73 930.98 311.92 1026.26 436.43 241.98 1060.72 538.88 347.22 683.07 767.98 963.17 587.75 296.94 512.77 437.98 518.77 914.09 937.94 331.27 42.93 0.00 636.22 1036.79 480.86 364.49 386.57 713.27 581.81 570.43 660.27 775.59 1029.21 830.61 696.00 1017.19 455.10 551.79 1051.13 489.74 377.15 1177.09 567.47 678.48 820.64 559.49 732.09 567.08 980.86 553.55 853.15 410.78 566.04 152.56 212.33 1051.61 184.59 604.46 319.32 598.71 554.76 495.68 792.40 365.17 532.36 851.05 607.40 772.97 601.74 999.56 1046.81 246.90 391.28 934.96 1017.91 873.58 47.02 1025.13
712.94 760.00 753.40 560.29 809.79 147.30 37.51 650.32 265.45 835.32 416.42 1012.58 690.21 521.22 997.30 379.36 357.39 738.49 203.76 532.77 613.03 610.55 559.58 198.24 883.68 519.50 695.87 343.37 670.72 636.22 0.00 459.15 792.17 678.10 877.56 152.07 839.90 161.03 906.78 250.74 725.06 793.08 190.83 601.82 671.54 860.12 591.17 778.34 664.55 671.92 408.22 470.17 903.56 775.93 305.23 799.77 676.71 711.12 742.05 703.83 1012.11 676.30 600.05 686.74 565.89 367.52 344.13 812.57 857.73 768.99 231.20 906.31 551.60 320.70 308.85 468.82 1082.05 773.51 923.03 525.31 359.47 630.81 713.76 355.43 683.24 963.27
432.59 922.12 920.69 313.22 1174.03 602.81 496.66 859.11 354.15 523.75 857.17 734.03 987.39 974.92 807.92 838.51 816.54 739.09 470.94 73.62 618.12 929.15 750.38 598.81 1135.93 128.64 419.91 707.61 1030.60 1036.79 459.15 0.00 946.85 919.44 1196.95 439.28 1017.80 620.18 1063.57 322.84 417.08 649.40 402.43 152.26 970.57 1017.78 153.53 901.92 941.99 243.59 867.37 441.62 758.58 953.83 369.21 863.99 414.95 836.75 697.70 902.71 1166.79 1089.91 971.30 227.59 1025.04 826.67 803.28 858.31 1020.75 894.62 450.93 1168.20 1010.75 308.81 768.00 295.76 1243.59 499.69 644.48 923.17 793.34 383.74 384.98 316.30 995.71 664.44
1301.72 186.03 168.47 860.99 397.93 873.72 829.68 347.89 767.31 750.42 509.02 679.78 139.30 722.84 708.02 996.61 751.48 384.24 995.93 884.40 505.21 335.45 452.87 780.75 227.47 818.21 759.75 617.59 523.79 480.86 792.17 946.85 0.00 316.68 315.48 944.24 100.95 840.66 179.41 920.67 860.77 568.89 981.91 921.31 120.63 70.93 1014.37 222.44 260.89 1145.91 1034.10 682.70 564.61 158.60 719.95 262.45 795.81 261.45 576.47 221.61 219.94 633.42 448.47 1021.14 665.45 980.39 772.33 265.02 73.90 215.38 992.86 344.23 1013.22 944.49 926.26 795.44 296.74 802.07 762.33 706.69 708.64 814.11 828.67 1015.88 527.88 694.86
1041.68 188.08 163.88 727.17 373.14 628.74 715.61 92.48 651.59 701.20 261.68 761.55 214.54 526.33 730.43 679.93 483.55 398.44 733.92 845.82 372.70 67.55 255.36 609.70 389.25 822.90 695.65 446.54 352.36 364.49 678.10 919.44 316.68 0.00 365.31 813.83 357.30 659.74 424.18 786.74 826.77 500.32 741.38 896.71 215.67 387.61 943.02 217.85 68.91 1107.33 766.17 509.92 556.21 293.33 644.06 276.90 762.30 196.72 579.31 95.07 459.43 470.95 211.56 840.70 411.20 754.37 455.65 281.28 387.16 230.97 844.31 336.56 736.01 746.49 678.92 655.78 555.30 813.41 772.97 578.08 461.30 710.32 794.67 879.03 317.47 795.74
1363.17 413.32 377.20 1005.79 170.35 820.18 895.63 450.00 863.38 1007.99 547.40 972.33 343.53 609.02 970.45 897.37 656.97 621.34 1081.32 1155.02 642.95 389.04 586.40 767.08 155.81 1093.14 979.75 636.77 343.64 386.57 877.56 1196.95 315.48 365.31 0.00 1010.19 367.40 716.53 390.08 1056.86 1068.51 835.34 1068.39 1196.24 324.86 303.96 1173.38 420.04 299.27 1352.40 934.51 784.81 773.34 364.70 827.74 426.75 1019.12 470.22 834.04 323.72 229.62 539.13 365.27 1204.22 494.48 923.02 684.87 511.39 327.19 444.29 1003.15 28.75 899.40 1027.76 901.89 926.02 344.93 1006.30 1020.66 633.47 691.99 965.53 1049.88 1113.18 378.53 953.60
581.35 850.88 870.99 598.46 864.33 194.12 114.56 783.30 374.79 826.89 561.18 1047.84 842.28 598.27 1022.35 451.54 449.08 874.49 79.91 446.84 644.69 755.31 646.35 275.29 1025.65 401.10 692.37 397.91 756.20 713.27 152.07 439.28 944.24 813.83 1010.19 0.00 991.97 297.77 1049.04 116.44 724.62 843.43 149.99 473.14 823.61 963.88 439.10 845.19 776.54 565.91 544.96 496.08 884.93 928.00 336.89 866.62 668.61 777.97 767.10 793.89 1141.33 753.35 677.10 572.97 717.96 465.21 421.18 879.42 934.78 835.84 79.13 1005.93 664.37 202.30 385.90 544.99 1159.10 811.68 960.76 614.40 462.89 668.98 737.48 296.73 760.29 967.58
1350.20 193.24 235.93 766.36 456.77 883.05 877.41 359.57 748.83 720.88 529.99 700.60 187.03 742.46 607.07 978.06 742.61 333.74 1028.08 955.35 478.99 376.07 527.51 762.18 231.57 889.16 766.96 645.97 580.53 581.81 839.90 1017.80 100.95 357.30 367.40 991.97 0.00 881.28 78.46 908.75 833.21 467.94 956.10 992.26 168.36 81.60 1083.00 192.09 301.51 1216.86 1025.23 598.36 504.66 63.97 769.84 214.31 729.92 227.89 546.93 262.23 301.58 728.37 471.55 929.35 696.75 1001.05 770.51 264.77 97.89 170.02 1022.60 346.52 997.47 994.38 947.23 722.04 397.69 785.70 740.59 690.71 729.61 783.51 824.57 1032.05 615.42 741.16
842.05 712.06 754.75 674.62 738.45 103.65 198.54 631.96 379.78 945.16 398.06 1080.63 769.18 416.03 1086.32 255.87 279.01 872.36 364.79 657.45 684.77 592.19 535.70 229.54 824.76 680.53 810.20 287.26 546.79 570.43 161.03 620.18 840.66 659.74 716.53 297.77 881.28 0.00 948.16 411.77 839.39 856.21 351.86 736.09 750.51 911.59 736.87 741.14 646.19 832.95 247.19 584.50 962.89 817.31 427.14 767.70 780.45 679.05 856.38 619.05 946.15 534.28 540.59 811.42 609.15 206.49 251.11 753.14 914.56 736.92 286.62 745.28 390.57 481.73 185.36 583.15 1022.59 862.90 1037.36 364.28 198.44 726.86 811.21 516.46 581.68 994.57
1392.39 271.70 280.97 833.24 499.46 917.96 944.29 394.48 792.01 691.57 596.87 753.99 237.82 820.92 685.53 1031.45 809.49 338.05 1062.99 992.16 491.52 442.95 570.69 840.64 234.27 934.93 728.64 680.88 631.32 660.27 906.78 1063.57 179.41 424.18 390.08 1049.04 78.46 948.16 0.00 987.21 897.77 546.40 991.01 1038.03 235.24 154.00 1113.86 227.00 368.39 1203.39 1092.11 621.95 455.69 130.85 793.43 245.17 808.38 271.07 617.20 329.11 333.52 779.16 550.01 996.23 763.63 1035.96 837.39 326.44 124.90 223.41 1067.02 387.87 1075.93 1017.97 1014.11 767.81 445.36 803.78 732.28 769.17 796.49 856.12 865.67 1075.23 666.21 758.29
619.11 734.64 777.33 501.61 980.77 310.56 218.77 822.75 262.15 733.59 601.94 960.34 804.43 701.38 972.55 560.62 553.29 828.53 148.10 370.44 542.53 719.19 658.38 379.50 920.66 304.25 591.70 514.35 818.52 775.59 250.74 322.84 920.67 786.74 1056.86 116.44 908.75 411.77 987.21 0.00 627.77 761.09 79.59 407.35 823.10 990.35 386.53 791.69 772.42 545.07 658.24 466.87 768.49 912.92 309.51 838.74 618.03 783.09 738.75 733.14 1103.32 856.46 767.94 507.18 816.63 569.42 525.39 884.54 983.96 806.87 195.57 1054.26 768.58 105.45 490.11 443.22 1135.92 714.83 897.43 715.30 470.50 572.13 655.08 220.18 822.61 874.28
716.50 731.21 724.74 164.77 1110.63 872.36 760.18 734.29 459.61 268.00 912.92 482.52 791.21 1109.51 552.17 1038.26 972.09 628.10 730.34 348.55 523.32 809.67 622.68 741.17 1018.74 414.74 182.39 792.43 1017.08 1029.21 725.06 417.08 860.77 826.77 1068.51 724.62 833.21 839.39 897.77 627.77 0.00 365.27 677.37 312.25 806.60 874.89 371.30 670.77 784.07 550.32 1086.58 402.10 503.88 834.88 492.46 718.72 103.29 735.53 392.55 744.79 1045.62 1180.59 932.67 212.42 1145.44 1045.88 999.99 634.08 903.99 737.11 738.07 1062.06 1229.96 522.32 967.75 256.24 1111.21 192.91 447.30 1057.76 812.96 116.45 32.10 692.30 982.19 408.69
1005.12 495.52 470.58 336.18 873.46 825.08 755.57 508.35 555.59 252.94 742.25 341.68 528.20 971.96 230.11 992.95 845.01 280.58 851.91 587.90 314.54 567.87 374.16 732.11 699.51 521.71 333.54 568.95 852.68 830.61 793.08 649.40 568.89 500.32 835.34 843.43 467.94 856.21 546.40 761.09 365.27 0.00 815.22 603.78 546.87 549.54 716.17 444.78 569.23 849.41 1090.57 386.89 202.52 498.69 558.37 455.84 261.98 377.56 78.99 588.07 732.49 914.30 711.88 540.00 797.23 985.64 872.91 399.80 565.83 435.43 890.04 814.46 1153.27 716.68 935.16 426.65 847.80 317.76 272.65 920.21 717.54 315.57 356.63 838.81 817.79 340.12
586.90 795.88 817.98 551.21 953.94 311.61 228.34 833.86 329.87 783.19 607.25 937.86 865.67 712.05 1045.33 570.19 548.22 908.12 71.98 420.04 622.12 762.60 688.95 389.07 1000.25 353.85 645.12 487.52 738.93 696.00 190.83 402.43 981.91 741.38 1068.39 149.99 956.10 351.86 991.01 79.59 677.37 815.22 0.00 410.99 862.37 1037.70 466.12 764.01 810.29 481.09 599.05 428.33 848.08 946.26 377.23 918.33 667.63 831.23 806.47 812.73 1138.86 848.56 790.88 510.82 756.72 558.35 534.96 903.09 1045.20 852.49 182.37 1061.17 742.43 155.05 499.68 520.97 1215.51 764.43 919.27 716.14 550.09 621.73 704.68 250.62 743.02 851.80
404.25 929.17 904.23 311.26 1180.57 632.44 587.70 804.23 432.40 446.04 876.16 672.79 927.45 1071.41 730.21 841.42 868.56 761.80 482.97 78.64 592.58 903.61 729.15 603.83 1120.92 103.10 394.37 766.99 1005.06 1017.19 601.82 152.26 921.31 896.71 1196.24 473.14 992.26 736.09 1038.03 407.35 312.25 603.78 410.99 0.00 908.78 992.24 149.55 876.38 916.45 297.40 939.04 416.08 681.92 928.29 415.32 793.89 341.80 811.21 608.56 877.17 1141.25 1065.41 951.33 99.83 1133.42 927.10 894.32 819.53 995.21 865.29 552.27 1167.49 1082.42 301.90 859.04 270.22 1218.05 483.78 625.34 1045.43 800.63 288.21 297.91 402.44 970.17 586.73
1210.66 88.46 81.86 764.00 477.33 761.95 709.05 253.56 680.70 713.88 394.89 650.46 18.67 677.55 724.06 882.64 661.33 327.59 875.30 908.12 384.58 236.53 369.29 690.60 212.14 841.93 662.18 527.44 412.17 455.10 671.54 970.57 120.63 215.67 324.86 823.61 168.36 750.51 235.24 823.10 806.60 546.87 862.37 908.78 0.00 188.58 1020.87 135.83 146.76 1169.63 943.95 592.55 478.00 104.39 633.34 191.28 747.07 169.31 549.83 131.46 340.57 560.01 333.50 944.54 563.01 859.76 671.32 222.91 187.53 119.88 902.74 353.61 951.68 857.88 812.13 674.81 417.37 681.44 695.80 702.00 594.51 693.48 774.50 929.27 447.06 718.13
1372.65 256.96 239.40 847.96 416.81 944.65 849.32 418.82 830.43 768.98 579.95 750.71 207.25 793.77 673.78 1024.64 822.41 360.03 1043.79 955.33 560.59 406.38 510.55 843.78 156.54 889.14 830.68 688.52 594.72 551.79 860.12 1017.78 70.93 387.61 303.96 963.88 81.60 911.59 154.00 990.35 874.89 549.54 1037.70 992.24 188.58 0.00 1085.30 273.69 331.82 1216.84 1086.13 679.96 555.02 145.57 790.88 295.91 771.60 309.49 595.03 292.54 237.72 704.35 519.40 1010.95 694.24 1048.34 800.36 240.81 29.10 251.62 1043.01 275.21 1076.14 1015.42 997.19 803.64 334.19 805.77 788.69 772.31 779.57 825.19 866.25 1086.81 598.81 765.79
348.48 933.02 975.71 379.99 1195.91 633.22 553.66 915.46 438.20 595.59 921.14 769.55 1002.81 999.42 879.76 890.64 888.18 854.86 519.01 129.97 685.64 963.88 761.85 613.15 1199.90 196.16 487.37 729.49 1094.06 1051.13 591.17 153.53 1014.37 943.02 1173.38 439.10 1083.00 736.87 1113.86 386.53 371.30 716.17 466.12 149.55 1020.87 1085.30 0.00 962.57 874.11 179.02 984.06 500.18 825.35 1021.35 433.18 868.69 471.30 904.27 742.95 913.39 1234.31 1154.50 1014.96 234.22 1098.79 904.31 860.28 943.23 1088.27 940.09 518.23 1155.95 1103.47 380.80 825.00 363.28 1311.11 506.56 774.89 1051.17 809.95 437.76 403.40 469.83 1063.23 736.28
1235.81 60.44 53.97 697.63 532.89 690.96 740.83 167.48 588.16 587.95 401.38 619.06 120.44 665.11 601.30 877.88 665.47 252.78 835.99 839.47 318.32 261.68 354.35 617.04 347.97 773.28 634.16 453.88 492.46 489.74 778.34 901.92 222.44 217.85 420.04 845.19 192.09 741.14 227.00 791.69 670.77 444.78 764.01 876.38 135.83 273.69 962.57 0.00 172.76 1100.98 948.09 543.98 426.71 182.25 605.45 155.87 669.87 67.22 414.00 153.45 374.85 642.30 360.48 883.19 604.44 808.96 673.50 139.08 289.98 88.48 878.36 391.29 953.86 829.99 818.62 606.16 490.16 700.16 607.66 716.76 601.00 723.02 638.67 871.38 511.60 675.13
1063.90 132.29 174.98 737.70 384.86 615.19 702.06 161.39 683.36 750.99 248.13 703.59 145.63 543.81 774.06 735.88 538.42 395.26 802.83 870.58 406.11 89.77 287.13 582.05 333.46 813.35 706.01 418.89 374.58 377.15 664.55 941.99 260.89 68.91 299.27 776.54 301.51 646.19 368.39 772.42 784.07 569.23 810.29 916.45 146.76 331.82 874.11 172.76 0.00 1053.13 821.04 500.37 558.76 237.54 656.60 244.41 806.83 199.27 581.89 39.28 480.83 529.71 187.72 909.61 458.15 744.68 524.56 276.04 325.16 173.01 855.67 281.84 804.92 815.40 665.37 646.23 548.72 828.20 775.55 570.90 447.75 779.23 811.43 947.94 339.69 771.26
189.00 1096.35 1128.83 519.47 1267.72 760.03 680.47 1047.00 597.74 644.87 1043.62 871.62 1166.14 1104.70 929.04 990.99 1007.87 982.68 486.00 261.51 817.18 1128.21 940.87 760.49 1373.38 327.70 618.91 908.51 1192.35 1177.09 671.92 243.59 1145.91 1107.33 1352.40 565.91 1216.86 832.95 1203.39 545.07 550.32 849.41 481.09 297.40 1169.63 1216.84 179.02 1100.98 1053.13 0.00 1080.14 631.72 880.75 1152.89 612.20 1047.71 602.84 1035.81 818.82 1092.41 1365.85 1258.80 1083.20 397.23 1237.81 999.79 987.09 1074.77 1219.81 1093.68 596.39 1334.97 1198.95 512.83 920.48 494.82 1442.65 685.58 824.17 1088.80 844.00 585.61 577.96 324.89 1194.77 785.56
1040.81 887.65 930.05 921.81 818.66 350.84 439.47 806.81 626.97 1163.50 572.91 1327.82 957.44 325.49 1320.68 97.62 282.62 1119.55 602.61 904.64 829.35 767.04 770.06 476.73 1012.07 927.72 1057.39 521.62 590.87 567.47 408.22 867.37 1034.10 766.17 934.51 544.96 1025.23 247.19 1092.11 658.24 1086.58 1090.57 599.05 939.04 943.95 1086.13 984.06 948.09 821.04 1080.14 0.00 798.35 1175.41 961.26 674.33 977.06 1027.64 926.24 1097.63 812.49 1133.51 480.57 691.49 1038.87 597.64 183.30 310.52 1000.33 1081.78 905.66 492.22 932.64 143.38 728.92 168.13 830.34 1149.82 1058.98 1284.55 344.52 385.75 974.05 1058.40 763.65 595.10 1241.76
796.49 554.10 564.61 237.33 835.29 577.35 434.84 505.88 204.72 365.15 510.82 591.90 611.22 774.98 617.00 776.69 569.99 667.47 465.02 370.21 225.66 574.93 323.61 478.75 755.27 312.98 362.95 390.33 635.55 678.48 470.17 441.62 682.70 509.92 784.81 496.08 598.36 584.50 621.95 466.87 402.10 386.89 428.33 416.08 592.55 679.96 500.18 543.98 500.37 631.72 798.35 0.00 476.20 534.39 171.48 521.87 353.75 476.76 465.88 461.09 829.13 831.04 635.83 424.50 759.63 785.49 597.89 578.21 655.66 534.63 572.46 782.21 878.25 396.02 706.18 145.86 944.44 450.55 544.45 759.08 538.92 307.85 375.10 467.41 670.44 505.84
1069.75 438.83 396.14 445.36 870.85 859.24 911.04 594.19 638.11 235.88 756.52 366.14 467.07 1007.68 268.19 1144.97 892.79 258.97 916.59 729.18 346.06 623.76 566.25 934.63 643.83 663.05 371.78 771.47 808.51 820.64 903.56 758.58 564.61 556.21 773.34 884.93 504.66 962.89 455.69 768.49 503.88 202.52 848.08 681.92 478.00 555.02 825.35 426.71 558.76 880.75 1175.41 476.20 0.00 440.69 647.68 363.72 400.59 359.49 161.51 531.84 710.88 972.02 746.48 668.27 936.87 1169.38 920.69 314.21 561.96 417.24 921.56 761.72 1201.05 841.52 1137.68 536.83 749.63 348.09 276.59 1010.72 920.06 454.18 495.24 921.33 773.62 323.88
1286.23 178.28 173.14 702.39 450.42 833.08 813.44 324.54 684.86 676.57 466.02 636.63 123.06 781.35 648.90 914.09 678.64 269.77 979.69 891.38 415.02 312.10 463.54 757.40 230.71 825.19 752.00 594.24 516.56 559.49 775.93 953.83 158.60 293.33 364.70 928.00 63.97 817.31 130.85 912.92 834.88 498.69 946.26 928.29 104.39 145.57 1021.35 182.25 237.54 1152.89 961.26 534.39 440.69 0.00 705.87 169.69 731.59 163.92 546.54 198.26 294.74 664.40 425.26 865.38 632.78 962.57 706.54 200.80 121.27 106.05 990.52 335.95 986.90 930.41 883.26 658.07 410.05 785.83 717.28 734.10 665.64 772.91 820.92 968.08 551.45 696.54
694.86 594.17 551.48 327.69 867.24 417.07 267.72 569.69 47.36 536.63 487.96 763.38 652.01 750.54 779.21 609.57 602.24 689.24 315.72 442.83 307.80 646.17 443.59 320.55 766.72 376.66 463.27 400.82 731.36 732.09 305.23 369.21 719.95 644.06 827.74 336.89 769.84 427.14 793.43 309.51 492.46 558.37 377.23 415.32 633.34 790.88 433.18 605.45 656.60 612.20 674.33 171.48 647.68 705.87 0.00 604.01 444.11 558.90 523.96 632.57 939.89 783.12 713.51 515.15 758.33 618.37 574.34 660.35 793.85 616.77 416.02 798.99 817.53 224.54 539.06 250.73 981.98 540.91 704.94 698.79 485.29 398.21 481.16 295.93 761.55 677.32
1198.14 143.63 113.02 718.91 539.60 818.70 762.26 323.35 609.59 599.60 485.68 601.98 172.61 788.22 600.33 879.44 748.66 203.86 919.73 790.37 296.21 334.18 366.72 737.18 400.40 749.20 601.21 588.81 524.15 567.08 799.77 863.99 262.45 276.90 426.75 866.62 214.31 767.70 245.17 838.74 718.72 455.84 918.33 793.89 191.28 295.91 868.69 155.87 244.41 1047.71 977.06 521.87 363.72 169.69 604.01 0.00 615.43 88.65 438.86 236.64 446.26 713.95 432.13 893.45 674.99 941.95 732.55 84.64 270.63 71.40 871.71 398.00 1012.91 828.55 881.65 667.73 443.70 622.42 594.32 808.45 664.03 648.39 710.08 892.81 559.04 526.85
746.05 706.05 700.91 116.42 1047.77 824.01 711.83 671.43 411.26 164.71 864.57 379.23 728.40 1046.65 448.88 1036.32 913.97 524.81 681.99 341.33 445.03 775.85 582.55 681.25 928.14 359.19 142.26 744.08 968.73 980.86 676.71 414.95 795.81 762.30 1019.12 668.61 729.92 780.45 808.38 618.03 103.29 261.98 667.63 341.80 747.07 771.60 471.30 669.87 806.83 602.84 1027.64 353.75 400.59 731.59 444.11 615.43 0.00 632.24 289.26 797.71 976.72 1132.24 829.38 278.02 1059.21 986.94 937.49 530.79 800.70 633.82 701.95 1013.43 1171.02 512.58 965.81 207.89 1007.92 148.59 344.01 994.90 750.10 53.59 94.65 674.31 933.84 305.40
1191.62 117.96 93.02 648.55 511.36 758.18 673.61 234.70 520.94 556.57 397.03 588.45 150.64 712.40 591.29 863.51 680.27 201.72 857.88 774.30 251.10 264.27 299.62 684.26 381.45 708.11 665.02 521.10 510.62 553.55 711.12 836.75 261.45 196.72 470.22 777.97 227.89 679.05 271.07 783.09 735.53 377.56 831.23 811.21 169.31 309.49 904.27 67.22 199.27 1035.81 926.24 476.76 359.49 163.92 558.90 88.65 632.24 0.00 382.62 210.51 442.07 667.67 386.99 871.46 607.92 872.31 652.37 101.45 285.19 57.87 826.60 458.51 932.73 783.44 793.00 622.62 532.35 668.78 576.28 719.80 575.38 679.49 705.89 804.16 514.19 615.50
1007.82 463.18 467.97 405.68 883.36 889.35 779.56 567.64 476.60 173.95 750.34 283.21 532.97 1020.00 255.25 1067.19 815.01 325.21 829.04 630.59 393.53 556.21 432.87 806.20 749.87 579.69 288.42 647.94 841.02 853.15 742.05 697.70 576.47 579.31 834.04 767.10 546.93 856.38 617.20 738.75 392.55 78.99 806.47 608.56 549.83 595.03 742.95 414.00 581.89 818.82 1097.63 465.88 161.51 546.54 523.96 438.86 289.26 382.62 0.00 556.19 777.12 993.29 700.22 508.73 876.22 1062.87 842.91 354.22 624.13 440.49 846.23 805.29 1123.27 748.50 1014.15 497.15 831.35 286.16 193.66 978.92 796.53 342.85 383.91 759.82 806.13 261.13
1087.97 93.01 135.70 698.42 424.14 652.11 719.87 126.28 665.81 730.14 287.41 695.82 150.13 583.09 754.75 775.00 529.87 365.76 828.99 831.30 366.83 113.84 278.83 559.14 294.18 774.07 666.73 395.98 387.58 410.78 703.83 902.71 221.61 95.07 323.72 793.89 262.23 619.05 329.11 733.14 744.79 588.07 812.73 877.17 131.46 292.54 913.39 153.45 39.28 1092.41 812.49 461.09 531.84 198.26 632.57 236.64 797.71 210.51 556.19 0.00 441.55 562.16 227.00 885.59 482.22 783.96 550.72 268.27 295.51 165.24 873.02 321.12 831.08 838.59 704.65 606.95 509.44 812.90 749.85 610.18 487.03 744.12 776.89 912.83 363.76 763.49
1501.11 405.44 388.41 997.13 342.47 1049.80 1028.84 542.33 963.01 946.76 721.11 899.72 335.65 808.02 830.67 1069.49 869.31 451.91 1128.40 1104.34 693.17 526.98 672.81 945.01 182.66 1038.15 950.21 808.89 555.98 566.04 1012.11 1166.79 219.94 459.43 229.62 1141.33 301.58 946.15 333.52 1103.32 1045.62 732.49 1138.86 1141.25 340.57 237.72 1234.31 374.85 480.83 1365.85 1133.51 829.13 710.88 294.74 939.89 446.26 976.72 442.07 777.12 441.55 0.00 718.60 543.20 1160.12 706.82 1085.84 885.36 478.53 208.62 400.79 1212.80 200.87 1098.40 1164.43 1006.53 952.81 115.31 1022.01 970.78 812.94 788.91 1010.46 1013.52 1235.82 590.87 914.80
1215.99 610.85 633.98 1015.82 415.04 633.07 638.79 474.82 735.76 1083.54 387.44 1173.13 541.34 155.08 1144.41 451.98 335.97 835.63 833.26 1028.50 740.31 448.32 665.33 590.54 671.33 962.31 1090.50 483.83 195.49 152.56 676.30 1089.91 633.42 470.95 539.13 753.35 728.37 534.28 779.16 856.46 1180.59 914.30 848.56 1065.41 560.01 704.35 1154.50 642.30 529.71 1258.80 480.57 831.04 972.02 664.40 783.12 713.95 1132.24 667.67 993.29 562.16 718.60 0.00 363.71 1165.24 117.07 527.56 332.17 745.58 707.32 642.55 773.30 517.73 445.46 941.09 522.49 924.35 753.12 1150.94 1186.95 170.00 414.80 1086.34 1169.29 934.89 198.40 1176.51
1118.14 320.01 361.90 772.58 339.17 586.54 562.54 248.43 712.71 779.05 225.55 891.31 314.83 434.92 941.99 630.28 408.87 582.98 749.96 914.42 410.17 144.01 359.38 401.81 521.08 848.23 799.67 434.35 200.20 212.33 600.05 971.30 448.47 211.56 365.27 677.10 471.55 540.59 550.01 767.94 932.67 711.88 790.88 951.33 333.50 519.40 1014.96 360.48 187.72 1083.20 691.49 635.83 746.48 425.26 713.51 432.13 829.38 386.99 700.22 227.00 543.20 363.71 0.00 959.75 310.57 639.08 436.77 463.76 494.36 360.73 756.23 370.47 650.41 662.49 559.77 681.11 482.00 891.26 893.88 459.23 342.15 838.56 901.39 837.41 165.31 872.20
504.08 932.21 929.70 222.91 1196.17 707.77 687.53 819.83 482.01 442.73 935.32 634.12 925.87 1146.80 726.90 941.25 968.39 802.83 582.80 153.97 650.16 908.25 629.32 679.16 1048.41 202.93 358.49 814.83 1039.48 1051.61 686.74 227.59 1021.14 840.70 1204.22 572.97 929.35 811.42 996.23 507.18 212.42 540.00 510.82 99.83 944.54 1010.95 234.22 883.19 909.61 397.23 1038.87 424.50 668.27 865.38 515.15 893.45 278.02 871.46 508.73 885.59 1160.12 1165.24 959.75 0.00 1167.84 1017.91 987.53 808.81 986.65 911.84 652.10 1175.91 1182.25 401.73 958.87 278.64 1263.67 405.33 615.53 1095.05 850.25 290.49 244.52 497.72 1004.59 548.06
1278.83 544.00 575.08 980.67 371.09 625.43 603.40 472.80 722.76 1050.17 270.37 1134.17 544.34 272.15 1027.34 557.66 330.14 809.64 769.65 1057.65 708.88 368.38 617.74 532.46 636.28 1030.32 1045.85 369.30 150.84 184.59 565.89 1025.04 665.45 411.20 494.48 717.96 696.75 609.15 763.63 816.63 1145.44 797.23 756.72 1133.42 563.01 694.24 1098.79 604.44 458.15 1237.81 597.64 759.63 936.87 632.78 758.33 674.99 1059.21 607.92 876.22 482.22 706.82 117.07 310.57 1167.84 0.00 568.79 358.04 692.48 723.34 603.59 750.13 510.96 550.83 878.54 585.22 889.20 717.97 1106.80 1069.88 262.21 426.62 1051.19 1134.14 921.32 163.25 1096.57
958.83 869.40 862.93 881.11 836.94 310.14 350.65 730.45 586.27 1150.64 496.55 1287.12 878.43 382.58 1215.75 85.68 326.31 1040.08 513.79 863.94 873.04 690.68 665.13 436.03 923.25 851.75 1016.69 416.69 639.64 604.46 367.52 826.67 980.39 754.37 923.02 465.21 1001.05 206.49 1035.96 569.42 1045.88 985.64 558.35 927.10 859.76 1048.34 904.31 808.96 744.68 999.79 183.30 785.49 1169.38 962.57 618.37 941.95 986.94 872.31 1062.87 783.96 1085.84 527.56 639.08 1017.91 568.79 0.00 298.72 920.86 1047.29 893.72 403.40 931.97 294.11 652.95 79.31 789.64 1121.08 1069.39 1243.85 357.56 296.93 933.35 1014.96 711.43 643.56 1201.06
1002.53 625.63 619.53 835.22 543.47 309.16 306.62 548.13 609.58 963.04 318.19 1126.12 670.19 177.09 1098.16 224.28 27.90 854.09 501.09 833.56 574.63 512.32 552.40 308.37 808.66 793.36 943.54 303.96 341.23 319.32 344.13 803.28 772.33 455.65 684.87 421.18 770.51 251.11 837.39 525.39 999.99 872.91 534.96 894.32 671.32 800.36 860.28 673.50 524.56 987.09 310.52 597.89 920.69 706.54 574.34 732.55 937.49 652.37 842.91 550.72 885.36 332.17 436.77 987.53 358.04 298.72 0.00 736.93 771.26 686.62 500.31 684.49 280.36 608.92 291.48 743.75 918.77 1048.44 1036.57 193.22 187.39 883.90 968.25 667.40 366.34 1073.40
1223.78 175.26 170.12 647.21 612.81 760.30 775.06 306.56 622.39 528.17 498.48 627.26 204.24 804.19 515.69 911.07 764.83 119.22 959.33 813.26 352.55 348.83 282.08 652.54 397.35 777.92 617.52 504.17 555.78 598.71 812.57 858.31 265.02 281.28 511.39 879.42 264.77 753.14 326.44 884.54 634.08 399.80 903.09 819.53 222.91 240.81 943.23 139.08 276.04 1074.77 1000.33 578.21 314.21 200.80 660.35 84.64 530.79 101.45 354.22 268.27 478.53 745.58 463.76 808.81 692.48 920.86 736.93 0.00 269.91 103.03 863.20 482.64 1017.29 849.99 870.38 724.07 477.13 640.38 547.88 821.25 652.76 584.38 625.44 905.61 590.67 611.49
1375.62 249.32 242.37 823.66 440.04 940.35 820.22 414.42 806.13 797.84 573.29 753.68 179.53 796.74 702.88 995.54 799.16 389.13 1014.69 958.30 536.29 409.35 526.77 854.65 185.64 892.11 823.04 691.49 573.03 554.76 857.73 1020.75 73.90 387.16 327.19 934.78 97.89 914.56 124.90 983.96 903.99 565.83 1045.20 995.21 187.53 29.10 1088.27 289.98 325.16 1219.81 1081.78 655.66 561.96 121.27 793.85 270.63 800.70 285.19 624.13 295.51 208.62 707.32 494.36 986.65 723.34 1047.29 771.26 269.91 0.00 227.32 1013.91 298.44 1047.04 1018.39 990.53 779.34 323.93 834.87 787.26 780.59 772.91 854.29 895.35 1089.35 601.78 768.76
1236.91 72.23 67.09 706.42 556.47 779.44 731.48 255.96 578.81 599.64 421.14 530.58 101.21 716.82 618.72 808.04 677.26 222.25 915.75 832.17 308.97 262.78 357.49 705.52 332.02 765.98 645.95 542.36 452.75 495.68 768.99 894.62 215.38 230.97 444.29 835.84 170.02 736.92 223.41 806.87 737.11 435.43 852.49 865.29 119.88 251.62 940.09 88.48 173.01 1093.68 905.66 534.63 417.24 106.05 616.77 71.40 633.82 57.87 440.49 165.24 400.79 642.55 360.73 911.84 603.59 893.72 686.62 103.03 227.32 0.00 884.47 442.00 966.98 841.31 838.38 680.49 512.12 693.82 620.13 742.58 620.76 687.41 727.15 862.03 487.64 598.25
555.43 829.36 824.39 642.23 943.46 273.25 193.69 824.39 453.92 866.66 640.31 1081.18 899.15 677.40 1101.48 394.60 528.21 953.62 110.39 524.55 575.50 834.44 699.55 354.42 1056.13 480.23 771.50 477.04 822.18 792.40 231.20 450.93 992.86 844.31 1003.15 79.13 1022.60 286.62 1067.02 195.57 738.07 890.04 182.37 552.27 902.74 1043.01 518.23 878.36 855.67 596.39 492.22 572.46 921.56 990.52 416.02 871.71 701.95 826.60 846.23 873.02 1212.80 773.30 756.23 652.10 750.13 403.40 500.31 863.20 1013.91 884.47 0.00 1031.90 602.56 281.43 324.09 584.49 1238.23 843.93 1022.49 650.90 473.83 648.36 705.97 327.21 839.42 1007.35
1345.74 401.53 405.95 977.04 141.60 848.93 924.38 429.04 846.35 979.24 529.97 970.12 372.28 607.15 948.99 868.62 673.45 601.86 1070.48 1130.58 671.70 371.61 568.97 771.18 153.60 1064.39 975.25 608.02 360.12 365.17 906.31 1168.20 344.23 336.56 28.75 1005.93 346.52 745.28 387.87 1054.26 1062.06 814.46 1061.17 1167.49 353.61 275.21 1155.95 391.29 281.84 1334.97 932.64 782.21 761.72 335.95 798.99 398.00 1013.43 458.51 805.29 321.12 200.87 517.73 370.47 1175.91 510.96 931.97 684.49 482.64 298.44 442.00 1031.90 0.00 897.53 1023.53 899.23 897.27 316.18 1020.42 992.32 612.07 681.61 994.28 1029.96 1084.43 393.88 924.85
1157.99 905.99 899.89 1065.19 783.55 494.22 549.81 788.01 770.35 1243.40 598.55 1399.39 949.26 290.38 1378.52 241.00 308.26 1134.45 712.95 1048.02 854.99 787.62 832.76 548.30 1048.74 1050.91 1187.17 584.32 555.76 532.36 551.60 1010.75 1013.22 736.01 899.40 664.37 997.47 390.57 1075.93 768.58 1229.96 1153.27 742.43 1082.42 951.68 1076.14 1103.47 953.86 804.92 1198.95 143.38 878.25 1201.05 986.90 817.53 1012.91 1171.02 932.73 1123.27 831.08 1098.40 445.46 650.41 1182.25 550.83 294.11 280.36 1017.29 1047.04 966.98 602.56 897.53 0.00 852.11 278.47 973.72 1057.35 1176.24 1316.93 306.76 467.75 1117.43 1201.78 907.03 537.70 1313.33
586.87 818.71 776.02 396.16 1001.66 396.42 302.30 758.42 271.90 628.14 707.39 854.89 876.55 786.01 912.31 644.15 636.82 857.50 227.03 264.99 532.34 806.50 567.91 463.03 991.26 198.80 490.07 600.21 862.69 851.05 320.70 308.81 944.49 746.49 1027.76 202.30 994.38 481.73 1017.97 105.45 522.32 716.68 155.05 301.90 857.88 1015.42 380.80 829.99 815.40 512.83 728.92 396.02 841.52 930.41 224.54 828.55 512.58 783.44 748.50 838.59 1164.43 941.09 662.49 401.73 878.54 652.95 608.92 849.99 1018.39 841.31 281.43 1023.53 852.11 0.00 573.64 365.92 1144.49 609.38 807.44 802.14 575.95 466.68 549.63 187.94 827.80 768.83
879.52 797.66 819.20 859.98 757.63 289.01 271.34 651.14 565.14 1071.33 417.24 1265.51 811.00 367.41 1165.27 70.51 279.46 989.60 434.48 832.74 821.12 611.37 614.65 414.42 843.94 772.44 995.56 366.21 565.97 607.40 308.85 768.00 926.26 678.92 901.89 385.90 947.23 185.36 1014.11 490.11 967.75 935.16 499.68 859.04 812.13 997.19 825.00 818.62 665.37 920.48 168.13 706.18 1137.68 883.26 539.06 881.65 965.81 793.00 1014.15 704.65 1006.53 522.49 559.77 958.87 585.22 79.31 291.48 870.38 990.53 838.38 324.09 899.23 278.47 573.64 0.00 768.51 1041.77 1048.26 1191.99 360.50 217.62 912.22 935.65 632.12 600.86 1179.45
650.63 666.60 660.13 91.47 940.02 616.12 506.33 563.68 203.37 372.60 656.68 543.76 693.48 920.84 595.29 839.02 715.85 707.23 474.10 233.31 371.52 633.39 469.47 532.97 886.95 167.12 227.05 536.19 760.84 772.97 468.82 295.76 795.44 655.78 926.02 544.99 722.04 583.15 767.81 443.22 256.24 426.65 520.97 270.22 674.81 803.64 363.28 606.16 646.23 494.82 830.34 145.86 536.83 658.07 250.73 667.73 207.89 622.62 497.15 606.95 952.81 924.35 681.11 278.64 889.20 789.64 743.75 724.07 779.34 680.49 584.49 897.27 973.72 365.92 768.51 0.00 1068.12 304.69 454.21 904.94 684.78 161.99 244.94 486.59 725.95 513.29
1588.32 482.77 465.21 1112.44 457.78 1068.54 1044.54 635.72 1029.34 985.51 707.55 976.52 436.04 824.33 945.98 1112.28 890.87 567.22 1161.00 1181.14 739.91 614.19 749.61 883.81 215.26 1114.95 1044.91 905.42 589.61 601.74 1082.05 1243.59 296.74 555.30 344.93 1159.10 397.69 1022.59 445.36 1135.92 1111.21 847.80 1215.51 1218.05 417.37 334.19 1311.11 490.16 548.72 1442.65 1149.82 944.44 749.63 410.05 981.98 443.70 1007.92 532.35 831.35 509.44 115.31 753.12 482.00 1263.67 717.97 1121.08 918.77 477.13 323.93 512.12 1238.23 316.18 1057.35 1144.49 1041.77 1068.12 0.00 1066.12 1025.01 848.64 824.15 1061.51 1102.57 1277.91 554.72 970.55
855.04 749.34 735.44 213.22 920.20 920.81 808.63 720.93 508.06 112.21 836.43 325.83 700.11 1124.88 396.38 1118.77 1020.54 598.34 778.79 489.92 536.52 825.35 618.00 820.94 874.16 468.98 177.71 840.88 987.43 999.56 773.51 499.69 802.07 813.41 1006.30 811.68 785.70 862.90 803.78 714.83 192.91 317.76 764.43 483.78 681.44 805.77 506.56 700.16 828.20 685.58 1058.98 450.55 348.09 785.83 540.91 622.42 148.59 668.78 286.16 812.90 1022.01 1150.94 891.26 405.33 1106.80 1069.39 1048.44 640.38 834.87 693.82 843.93 1020.42 1176.24 609.38 1048.26 304.69 1066.12 0.00 291.51 1136.88 892.08 195.57 205.54 771.11 952.54 252.90
1013.17 656.84 661.63 444.65 1077.02 983.52 960.54 758.58 657.58 179.30 944.00 89.55 677.13 1191.97 179.95 1260.85 1008.67 518.87 928.31 685.34 587.19 749.87 626.53 832.50 906.07 621.33 370.38 841.60 1034.68 1046.81 923.03 644.48 762.33 772.97 1020.66 960.76 740.59 1037.36 732.28 897.43 447.30 272.65 919.27 625.34 695.80 788.69 774.89 607.66 775.55 824.17 1284.55 544.45 276.59 717.28 704.94 594.32 344.01 576.28 193.66 749.85 970.78 1186.95 893.88 615.53 1069.88 1243.85 1036.57 547.88 787.26 620.13 1022.49 992.32 1316.93 807.44 1191.99 454.21 1025.01 291.51 0.00 1172.58 990.19 374.13 427.84 940.80 999.79 67.47
1195.75 703.19 724.73 984.28 517.62 467.93 499.84 549.38 743.27 1064.42 322.77 1261.89 683.33 51.75 1150.32 295.45 189.09 910.19 694.31 966.79 682.15 516.90 546.05 441.60 743.43 954.55 986.34 389.81 289.83 246.90 525.31 923.17 706.69 578.08 633.47 614.40 690.71 364.28 769.17 715.30 1057.76 920.21 716.14 1045.43 702.00 772.31 1051.17 716.76 570.90 1088.80 344.52 759.08 1010.72 734.10 698.79 808.45 994.90 719.80 978.92 610.18 812.94 170.00 459.23 1095.05 262.21 357.56 193.22 821.25 780.59 742.58 650.90 612.07 306.76 802.14 360.50 904.94 848.64 1136.88 1172.58 0.00 244.80 941.31 1025.66 831.56 293.92 1205.11
1029.26 580.04 601.58 758.95 540.01 284.85 348.33 433.52 502.05 904.07 199.62 1047.89 593.38 296.55 947.65 288.13 163.87 771.98 542.80 721.99 603.50 393.75 397.03 196.80 626.32 774.75 823.99 148.59 348.35 391.28 359.47 793.34 708.64 461.30 691.99 462.89 729.61 198.44 796.49 470.50 812.96 717.54 550.09 800.63 594.51 779.57 809.95 601.00 447.75 844.00 385.75 538.92 920.06 665.64 485.29 664.03 750.10 575.38 796.53 487.03 788.91 414.80 342.15 850.25 426.62 296.93 187.39 652.76 772.91 620.76 473.83 681.61 467.75 575.95 217.62 684.78 824.15 892.08 990.19 244.80 0.00 696.51 780.86 632.40 383.24 961.83
692.46 701.20 673.52 70.52 994.18 778.11 665.93 617.84 365.36 218.30 818.67 432.82 674.81 993.06 502.47 982.73 860.38 578.40 636.09 356.04 428.39 722.26 542.33 627.66 905.62 329.11 127.48 698.18 922.83 934.96 630.81 383.74 814.11 710.32 965.53 668.98 783.51 726.86 856.12 572.13 116.45 315.57 621.73 288.21 693.48 825.19 437.76 723.02 779.23 585.61 974.05 307.85 454.18 772.91 398.21 648.39 53.59 679.49 342.85 744.12 1010.46 1086.34 838.56 290.49 1051.19 933.35 883.90 584.38 854.29 687.41 648.36 994.28 1117.43 466.68 912.22 161.99 1061.51 195.57 374.13 941.31 696.51 0.00 84.35 628.41 887.94 358.99
702.16 699.11 692.64 153.47 1078.53 861.06 748.88 702.19 448.31 259.36 885.92 473.88 759.11 1077.41 543.53 1006.16 944.73 619.46 719.04 316.45 491.22 806.61 625.28 712.01 986.64 382.64 211.83 765.43 1005.78 1017.91 713.76 384.98 828.67 794.67 1049.88 737.48 824.57 811.21 865.67 655.08 32.10 356.63 704.68 297.91 774.50 866.25 403.40 638.67 811.43 577.96 1058.40 375.10 495.24 820.92 481.16 710.08 94.65 705.89 383.91 776.89 1013.52 1169.29 901.39 244.52 1134.14 1014.96 968.25 625.44 895.35 727.15 705.97 1029.96 1201.78 549.63 935.65 244.94 1102.57 205.54 427.84 1025.66 780.86 84.35 0.00 660.20 970.89 400.05
398.93 890.10 847.41 557.89 942.83 490.85 360.78 786.55 283.22 816.08 771.85 1030.35 947.94 779.81 1015.07 702.63 695.30 925.10 216.82 343.75 603.73 862.76 679.45 435.60 1062.65 386.74 666.55 598.76 916.51 873.58 355.43 316.30 1015.88 879.03 1113.18 296.73 1032.05 516.46 1075.23 220.18 692.30 838.81 250.62 402.44 929.27 1086.81 469.83 871.38 947.94 324.89 763.65 467.41 921.33 968.08 295.93 892.81 674.31 804.16 759.82 912.83 1235.82 934.89 837.41 497.72 921.32 711.43 667.40 905.61 1089.35 862.03 327.21 1084.43 907.03 187.94 632.12 486.59 1277.91 771.11 940.80 831.56 632.40 628.41 660.20 0.00 920.60 956.77
1224.05 451.16 473.38 817.42 262.68 568.04 645.73 354.34 714.19 944.36 358.94 1018.22 428.39 269.61 1041.81 566.51 348.22 681.80 815.00 933.26 575.48 249.92 524.69 485.00 519.56 867.07 929.90 378.29 34.89 47.02 683.24 995.71 527.88 317.47 378.53 760.29 615.42 581.68 666.21 822.61 982.19 817.79 743.02 970.17 447.06 598.81 1063.23 511.60 339.69 1194.77 595.10 670.44 773.62 551.45 761.55 559.04 933.84 514.19 806.13 363.76 590.87 198.40 165.31 1004.59 163.25 643.56 366.34 590.67 601.78 487.64 839.42 393.88 537.70 827.80 600.86 725.95 554.72 952.54 999.79 293.92 383.24 887.94 970.89 920.60 0.00 978.11
974.56 670.48 639.87 421.82 1055.34 997.16 925.76 749.41 710.56 140.69 922.32 86.06 699.46 1153.36 197.63 1249.96 1075.83 582.85 923.78 646.73 576.32 728.19 694.00 765.03 902.58 594.18 302.91 872.28 1013.00 1025.13 963.27 664.44 694.86 795.74 953.60 967.58 741.16 994.57 758.29 874.28 408.69 340.12 851.80 586.73 718.13 765.79 736.28 675.13 771.26 785.56 1241.76 505.84 323.88 696.54 677.32 526.85 305.40 615.50 261.13 763.49 914.80 1176.51 872.20 548.06 1096.57 1201.06 1073.40 611.49 768.76 598.25 1007.35 924.85 1313.33 768.83 1179.45 513.29 970.55 252.90 67.47 1205.11 961.83 358.99 400.05 956.77 978.11 0.00
DEMAND_SECTION
1 0
2 10
3 9
4 7
5 10
6 6
7 5
8 6
9 5
10 5
11 7
12 9
13 6
14 5
15 5
16 9
17 10
18 8
19 10
20 9
21 10
22 8
23 5
24 9
25 6
26 9
27 10
28 8
29 8
30 9
31 6
32 7
33 9
34 5
35 9
36 7
37 6
38 10
39 5
40 10
41 9
42 6
43 7
44 5
45 5
46 9
47 7
48 8
49 5
50 8
51 7
52 8
53 6
54 7
55 9
56 5
57 10
58 5
59 7
60 9
61 9
62 8
63 5
64 8
65 10
66 6
67 8
68 5
69 10
70 8
71 5
72 10
73 8
74 5
75 7
76 5
77 9
78 7
79 10
80 6
81 8
82 10
83 10
84 8
85 7
86 7
DEPOT_SECTION
1
-1
EOF
