NAME: LDG85_3375_snow_85_0107
COMMENT: CVRP with travel times.  rootPos=3,custPos=3,demandType=7,avgRouteSizeIndex=5,weather=snow,lambda_cluster=1,lambda_random=4, T1=300,T2=700,beta=1, alpha(i,j) ~ U(0.8,1.2)
TYPE: CVRP
DIMENSION: 86
EDGE_WEIGHT_TYPE: EXPLICIT
EDGE_WEIGHT_FORMAT: FULL_MATRIX
CAPACITY: 204
NODE_COORD_SECTION
1 0 0
2 882 859
3 276 5
4 668 404
5 299 122
6 968 893
7 72 678
8 647 660
9 81 299
10 442 491
11 652 662
12 897 744
13 823 234
14 756 551
15 824 830
16 790 746
17 897 298
18 849 872
19 586 912
20 612 549
21 620 689
22 778 954
23 230 74
24 498 926
25 357 311
26 796 21
27 581 266
28 284 101
29 100 218
30 148 284
31 569 346
32 920 876
33 456 863
34 519 716
35 684 775
36 790 765
37 177 152
38 144 875
39 271 939
40 184 992
41 563 278
42 879 58
43 944 128
44 473 904
45 992 927
46 825 46
47 633 783
48 415 529
49 523 38
50 452 602
51 729 786
52 623 654
53 604 804
54 589 529
55 725 856
56 812 219
57 552 835
58 960 245
59 719 832
60 337 150
61 972 830
62 842 894
63 253 2
64 571 530
65 705 815
66 714 760
67 631 387
68 800 255
69 809 828
70 267 788
71 603 721
72 619 655
73 828 115
74 906 252
75 544 369
76 748 994
77 254 83
78 621 883
79 839 303
80 812 35
81 685 902
82 557 748
83 202 572
84 562 679
85 247 95
86 590 822
EDGE_WEIGHT_SECTION
0.00 1504.71 457.40 987.56 430.93 1581.81 1068.47 1184.49 462.31 936.47 1198.45 1485.66 1065.96 1171.07 1400.87 1376.92 1107.01 1467.56 1433.02 1036.75 1216.10 1519.95 379.26 1298.05 658.46 1025.60 876.20 400.64 583.60 548.97 801.72 1527.10 1284.46 1295.07 1315.85 1359.73 459.11 1196.82 1385.75 1358.64 848.03 1160.37 1183.81 1344.61 1654.94 1039.33 1225.17 901.18 664.02 1014.56 1352.92 1164.72 1283.58 989.47 1394.80 1015.89 1316.94 1235.52 1360.58 432.34 1610.11 1493.63 440.30 989.05 1343.11 1299.56 946.76 1082.86 1373.89 1056.99 1287.35 1169.84 1110.70 1193.98 800.75 1542.74 333.18 1365.23 1159.71 1049.75 1418.14 1302.53 864.35 1205.80 352.71 1287.32
1504.71 0.00 1256.17 741.84 1143.63 144.96 1023.69 420.90 1270.29 772.88 434.86 149.86 829.41 494.01 143.84 233.54 757.98 86.26 388.80 537.81 455.37 207.47 1267.95 538.28 959.37 1057.87 890.67 1188.75 1223.67 1226.72 786.34 60.96 549.39 505.36 310.26 214.83 1303.55 922.57 828.69 936.82 859.22 979.54 1042.14 540.53 216.67 1034.76 386.40 704.23 1117.98 668.89 272.28 460.65 384.53 590.59 268.09 839.04 468.96 833.38 259.80 1072.37 160.01 88.90 1283.73 621.10 308.64 314.59 739.38 802.99 130.82 790.79 389.82 464.73 936.43 826.73 779.31 278.02 1241.38 321.01 719.99 1034.98 300.41 428.70 947.78 519.64 1227.89 416.77
457.40 1256.17 0.00 733.66 188.95 1333.79 859.51 949.91 456.66 667.90 963.87 1237.20 817.94 918.78 1152.33 1076.26 891.60 1226.85 1129.87 794.77 918.25 1241.26 136.34 1172.83 409.92 786.05 523.12 185.23 377.54 397.21 549.43 1274.81 1075.50 974.03 1099.27 1117.75 250.15 987.86 1199.21 1149.68 554.57 880.83 855.51 1142.73 1406.92 830.37 1008.59 652.64 335.72 692.93 1112.15 936.15 1067.00 760.90 1178.22 767.87 995.31 1014.66 1133.86 183.80 1356.21 1245.09 42.60 760.48 1126.53 1058.79 710.73 834.84 1125.35 943.03 972.00 941.27 782.40 950.50 572.18 1308.29 124.22 1143.26 889.64 822.80 1201.56 990.33 804.78 957.26 104.69 1044.40
987.56 741.84 733.66 0.00 632.10 730.49 907.37 320.94 793.49 332.90 334.90 655.79 401.77 311.64 603.03 551.10 406.83 678.21 642.68 210.93 388.01 738.89 617.28 687.01 518.58 586.12 210.54 640.49 786.01 817.75 241.17 738.78 637.69 515.80 491.23 530.65 754.60 974.23 872.53 984.83 241.99 638.12 595.24 678.34 795.26 530.00 434.83 414.81 471.40 434.80 520.38 331.05 478.40 238.23 597.68 420.26 563.69 501.32 570.24 575.19 622.55 717.74 726.28 268.74 552.77 480.54 79.87 379.42 630.01 738.89 447.69 330.18 550.96 437.38 186.81 708.55 663.36 574.89 328.86 554.20 610.92 476.71 610.47 420.72 665.92 510.64
430.93 1143.63 188.95 632.10 0.00 1278.40 777.67 828.71 382.47 511.59 820.22 1106.93 752.49 879.43 1039.20 945.99 751.49 1114.38 1092.40 605.82 827.56 1178.70 132.90 1110.52 233.58 790.17 523.96 45.12 267.44 350.35 519.83 1204.59 1049.03 916.57 929.46 928.80 190.10 961.39 1082.84 1123.21 492.51 850.77 781.13 1083.15 1295.61 803.90 978.18 558.98 370.65 701.92 962.11 771.49 940.26 658.60 1005.44 747.44 973.54 880.00 1013.49 90.14 1220.20 1151.43 198.12 666.82 1008.09 908.75 552.23 814.41 1031.69 754.08 899.04 784.88 752.34 838.46 478.52 1181.64 97.75 1024.61 817.51 813.61 1050.73 871.60 684.78 842.53 84.26 972.50
1581.81 144.96 1333.79 730.49 1278.40 0.00 1112.41 561.77 1244.78 902.57 575.73 261.46 920.04 585.06 241.66 332.41 800.38 220.48 515.42 672.58 576.77 220.01 1277.74 683.24 1097.19 1168.02 941.03 1299.61 1328.22 1331.44 818.28 92.90 673.20 650.32 455.22 352.06 1374.56 1067.53 960.00 1026.75 940.68 1091.14 1084.54 667.15 73.13 1131.05 522.45 849.19 1114.00 691.91 410.10 559.52 529.49 725.36 386.20 936.86 575.79 928.89 404.76 1210.19 107.94 233.86 1355.75 750.91 404.51 420.79 806.71 893.62 268.64 935.75 527.64 572.91 1032.72 887.35 878.03 290.56 1248.63 447.63 810.62 1131.27 347.98 573.66 1044.92 640.51 1229.10 505.49
1068.47 1023.69 859.51 907.37 777.67 1112.41 0.00 711.58 630.80 718.98 703.09 999.85 1107.38 896.48 942.59 870.13 1190.66 970.26 754.00 729.95 674.73 953.17 746.68 668.80 685.82 1279.50 890.50 758.54 699.07 544.14 736.65 1075.93 766.13 670.00 763.08 875.89 609.36 359.69 571.04 521.51 859.05 1248.68 1275.86 715.36 1149.37 1248.58 697.57 708.65 1090.08 528.05 785.90 654.36 639.16 677.17 828.86 1057.31 677.22 1256.98 799.51 867.81 1093.70 934.79 842.41 646.66 730.31 837.30 895.23 1117.47 927.36 384.57 740.66 667.75 1150.25 1210.58 796.40 882.62 735.29 738.21 1103.14 1248.80 890.54 746.66 395.28 742.87 754.82 606.92
1184.49 420.90 949.91 320.94 828.71 561.77 711.58 0.00 887.58 436.32 13.96 374.71 688.02 230.39 320.11 255.68 566.74 395.29 324.77 222.89 67.07 417.95 880.23 366.07 714.33 799.78 488.11 783.85 893.29 905.49 472.67 481.86 346.19 194.86 182.67 209.71 905.92 736.77 554.95 701.29 456.66 841.42 792.11 357.40 576.52 738.83 216.03 348.67 766.50 256.98 199.44 57.22 234.17 224.20 289.12 727.36 295.98 665.18 264.34 801.30 479.85 419.51 936.85 238.39 255.03 159.60 400.76 661.60 339.59 480.29 132.67 43.83 773.63 653.71 412.92 446.50 851.31 339.44 578.60 763.03 289.98 193.17 605.55 120.74 864.39 266.41
462.31 1270.29 456.66 793.49 382.47 1244.78 630.80 887.58 0.00 647.83 901.54 1200.44 1037.16 899.01 1165.86 1072.65 1062.06 1227.93 1035.57 732.48 905.26 1180.09 343.83 835.74 409.57 1024.86 722.62 355.69 121.29 86.66 666.43 1331.25 908.68 960.19 1058.64 1055.46 206.51 895.16 1070.16 1007.58 754.07 944.61 1080.47 882.30 1317.91 1038.59 991.55 735.48 659.18 743.70 1059.47 854.95 965.29 679.70 1130.57 987.09 1030.09 1102.42 1052.27 378.67 1345.51 1223.17 439.56 649.19 1077.13 1035.41 752.69 1007.64 1182.56 800.33 961.26 843.75 1043.04 1126.53 606.68 1201.56 332.44 1101.82 989.62 1055.23 1143.16 886.69 402.04 843.78 351.97 997.53
936.47 772.88 667.90 332.90 511.59 902.57 718.98 436.32 647.83 0.00 450.28 726.61 642.79 382.46 678.92 633.08 688.48 733.00 647.60 292.91 402.57 755.81 644.49 725.41 278.01 795.69 425.91 556.71 567.13 561.17 272.06 825.12 635.62 491.76 603.10 615.89 622.19 700.11 740.49 837.60 394.46 758.82 869.75 702.85 898.56 758.72 526.32 87.65 675.22 210.66 581.02 415.38 574.32 240.13 591.38 592.72 513.04 708.05 513.08 504.13 888.82 683.98 625.30 270.64 582.28 595.84 358.32 621.96 691.74 411.73 474.05 420.50 660.39 732.16 212.31 695.24 609.34 614.39 595.25 758.94 627.84 490.46 323.70 392.27 595.85 542.08
1198.45 434.86 963.87 334.90 820.22 575.73 703.09 13.96 901.54 450.28 0.00 360.75 701.98 244.35 334.07 265.67 580.70 409.25 338.73 214.40 76.44 403.99 894.19 380.03 728.29 785.82 474.15 797.81 900.26 902.05 472.45 495.82 360.15 208.82 196.63 223.67 897.43 722.81 564.32 715.25 442.70 850.79 806.07 371.36 590.48 724.87 203.39 362.63 752.54 270.94 185.48 48.73 248.13 223.98 279.49 731.25 309.94 679.14 253.42 801.08 493.28 424.32 950.81 252.35 241.07 173.56 414.72 664.28 326.94 494.25 146.63 57.79 787.59 667.67 412.70 435.58 865.27 343.45 592.56 749.07 276.02 207.13 614.92 134.70 878.35 277.37
1485.66 149.86 1237.20 655.79 1106.93 261.46 999.85 374.71 1200.44 726.61 360.75 0.00 773.47 344.15 206.59 160.94 739.74 230.47 511.11 501.11 408.96 357.33 1181.40 600.47 1004.62 965.80 811.69 1085.02 1186.97 1234.17 713.50 168.56 642.69 565.80 334.44 196.59 1194.19 988.36 896.84 987.41 803.45 829.68 978.65 642.32 324.27 964.50 418.29 723.38 1068.47 621.32 272.07 345.49 456.39 520.74 299.09 806.10 440.70 810.26 340.01 1097.84 238.20 238.76 1238.02 551.25 322.33 280.28 676.94 837.17 179.61 838.04 438.61 358.88 928.11 826.71 709.46 427.88 1152.48 443.32 805.12 940.30 368.48 518.38 947.44 449.42 1152.83 424.15
1065.96 829.41 817.94 401.77 752.49 920.04 1107.38 688.02 1037.16 642.79 701.98 773.47 0.00 521.82 745.27 612.53 175.18 814.01 877.67 495.02 716.76 866.97 732.29 1002.03 719.05 310.49 385.06 707.37 983.94 1005.77 370.73 890.37 957.79 724.91 684.66 658.50 856.55 1203.77 1204.64 1268.92 416.51 273.62 269.13 1025.02 846.91 273.52 735.01 698.97 570.31 701.80 748.03 660.69 793.42 505.23 791.11 50.07 840.89 215.98 807.46 800.42 896.88 858.36 839.90 535.74 763.29 731.87 364.03 64.93 738.62 1010.34 754.33 674.08 175.19 132.56 430.48 934.44 732.78 824.25 109.42 273.74 852.42 760.80 966.49 731.73 713.25 780.72
1171.07 494.01 918.78 311.64 879.43 585.06 896.48 230.39 899.01 382.46 244.35 344.15 521.82 0.00 416.40 372.81 451.65 490.92 494.80 281.10 270.33 565.52 928.92 573.66 660.47 621.65 467.54 850.68 949.59 943.63 369.35 492.16 576.58 425.25 346.51 396.82 999.86 773.98 758.21 921.74 462.53 764.21 735.81 587.79 647.87 682.60 391.46 445.96 724.32 415.88 306.83 263.11 443.31 280.33 388.34 559.99 520.32 555.81 358.21 789.29 573.72 469.84 961.38 249.82 360.46 253.47 332.79 493.02 389.42 710.68 341.81 274.22 685.52 530.28 400.91 540.37 918.14 518.92 561.40 658.40 441.00 413.62 706.16 338.47 931.22 475.55
1400.87 143.84 1152.33 603.03 1039.20 241.66 942.59 320.11 1165.86 678.92 334.07 206.59 745.27 416.40 0.00 156.37 653.55 75.18 312.29 433.38 335.11 204.54 1164.11 510.58 855.53 953.44 808.22 1084.32 1119.24 1122.88 734.63 169.22 472.88 413.17 245.52 110.40 1190.46 828.61 756.87 872.76 776.77 949.32 937.71 464.02 310.46 949.22 301.25 650.03 1013.55 560.43 168.44 341.76 333.81 486.16 144.54 695.20 367.54 782.06 165.84 968.53 240.73 114.71 1194.93 516.67 212.28 210.75 682.90 739.18 26.98 698.60 285.98 355.15 850.89 740.52 674.88 275.09 1136.95 244.50 656.18 949.44 215.85 365.75 873.59 398.85 1123.46 360.23
1376.92 233.54 1076.26 551.10 945.99 332.41 870.13 255.68 1072.65 633.08 265.67 160.94 612.53 372.81 156.37 0.00 589.12 231.55 350.17 340.17 290.58 254.44 1078.89 439.53 869.38 889.01 739.82 991.11 1026.03 1115.79 641.42 294.50 481.75 428.01 173.50 45.97 1075.81 827.42 739.61 826.47 708.37 886.15 873.28 486.09 405.54 886.05 257.35 604.35 945.87 502.94 135.50 227.11 295.45 392.95 220.62 645.16 333.51 717.63 194.93 970.05 337.37 271.08 1118.86 423.46 161.39 119.34 604.51 677.46 175.85 713.44 317.89 240.50 787.72 676.09 581.67 321.91 1043.74 282.38 698.87 886.27 239.89 363.93 808.06 331.04 1030.25 263.21
1107.01 757.98 891.60 406.83 751.49 800.38 1190.66 566.74 1062.06 688.48 580.70 739.74 175.18 451.65 653.55 589.12 0.00 728.73 891.51 495.35 584.42 795.50 802.75 919.41 766.69 371.13 549.05 706.37 982.94 1011.60 476.24 818.94 896.66 708.70 684.99 543.15 855.55 1225.63 1065.26 1198.60 552.56 387.90 284.16 924.14 824.93 358.58 735.34 704.50 663.67 730.21 633.14 536.30 741.92 548.13 727.15 225.25 775.06 128.51 701.08 826.45 722.94 768.26 859.37 564.15 688.73 686.50 485.90 186.35 673.03 994.13 640.42 522.91 297.09 86.97 492.69 819.09 773.83 824.58 109.75 334.38 814.96 690.48 1012.18 592.29 786.91 774.16
1467.56 86.26 1226.85 678.21 1114.38 220.48 970.26 395.29 1227.93 733.00 409.25 230.47 814.01 490.92 75.18 231.55 728.73 0.00 344.75 508.56 369.11 147.70 1238.63 544.58 930.05 1000.65 883.40 1159.50 1194.42 1197.40 809.81 128.02 529.90 482.48 294.93 185.58 1246.27 882.69 788.81 853.51 851.95 980.49 981.17 498.02 263.60 988.10 355.33 684.03 1088.73 594.43 242.82 397.57 344.65 561.34 210.37 770.38 442.06 747.12 219.92 1043.05 169.75 49.02 1197.47 578.74 239.95 285.27 748.19 787.59 101.50 767.91 355.29 384.18 926.07 789.32 750.06 218.25 1212.13 301.52 704.59 963.90 214.15 435.06 907.59 437.25 1198.64 376.89
1433.02 388.80 1129.87 642.68 1092.40 515.42 754.00 324.77 1035.57 647.60 338.73 511.11 877.67 494.80 312.29 350.17 891.51 344.75 0.00 502.28 331.81 295.41 1055.14 199.83 858.82 1116.45 812.88 1108.62 1073.25 1042.52 773.10 449.76 220.50 311.01 294.73 375.01 1068.74 657.47 446.12 620.38 781.43 1103.15 1116.88 153.27 534.87 1063.60 207.85 594.53 1091.27 436.94 285.02 381.99 171.20 542.61 226.06 877.73 134.56 902.56 228.09 1063.37 478.46 320.29 1164.14 545.27 256.02 241.33 722.55 865.62 339.27 540.22 269.90 368.60 1004.72 919.53 713.35 325.24 1101.22 67.79 782.62 1087.80 169.91 277.96 693.09 330.49 1103.78 147.08
1036.75 537.81 794.77 210.93 605.82 672.58 729.95 222.89 732.48 292.91 214.40 501.11 495.02 281.10 433.38 340.17 495.35 508.56 502.28 0.00 221.74 572.88 738.72 575.56 570.92 626.31 402.96 650.94 685.86 780.97 301.25 598.77 541.08 310.75 393.95 322.98 795.92 788.78 709.62 773.90 371.51 706.13 747.18 556.58 689.79 687.26 372.36 279.43 605.70 249.35 356.29 165.67 334.44 52.78 437.80 534.36 367.72 590.86 407.67 629.88 614.38 548.09 803.94 83.29 409.92 302.93 279.21 468.60 452.86 540.36 293.22 179.06 607.70 522.51 241.50 589.83 703.57 489.50 385.60 663.06 444.91 265.78 585.82 236.71 690.08 366.68
1216.10 455.37 918.25 388.01 827.56 576.77 674.73 67.07 905.26 402.57 76.44 408.96 716.76 270.33 335.11 290.58 584.42 369.11 331.81 221.74 0.00 478.60 947.30 419.24 679.39 848.05 550.59 850.92 861.63 852.89 487.19 497.13 372.51 168.11 200.53 276.78 912.17 699.23 487.88 651.41 519.14 774.35 859.18 424.47 628.36 801.31 179.41 314.92 817.05 225.32 224.85 63.47 172.98 238.72 306.98 745.99 270.59 682.86 268.68 783.76 532.65 413.78 960.85 256.07 214.82 226.67 425.52 679.02 330.48 453.54 71.48 61.51 810.19 671.39 427.44 450.84 906.70 299.17 607.34 825.51 350.63 143.29 538.48 68.14 911.82 205.22
1519.95 207.47 1241.26 738.89 1178.70 220.01 953.17 417.95 1180.09 755.81 403.99 357.33 866.97 565.52 204.54 254.44 795.50 147.70 295.41 572.88 478.60 0.00 1204.27 472.15 1016.67 1143.45 855.32 1172.88 1184.64 1218.30 778.95 259.71 453.19 454.05 322.23 300.41 1267.91 915.48 739.99 806.74 823.87 1128.19 1079.66 447.14 293.14 1092.38 311.69 696.97 1133.71 548.33 284.69 443.73 370.10 561.41 215.78 899.60 375.57 894.82 252.71 1107.58 317.45 118.57 1283.86 530.90 301.74 312.05 779.47 931.90 231.52 739.48 413.05 457.12 1042.16 882.47 719.20 70.55 1229.71 227.62 852.29 1111.60 127.97 418.27 870.07 469.79 1249.24 346.25
379.26 1267.95 136.34 617.28 132.90 1277.74 746.68 880.23 343.83 644.49 894.19 1181.40 732.29 928.92 1164.11 1078.89 802.75 1238.63 1055.14 738.72 947.30 1204.27 0.00 1094.69 366.48 738.50 552.22 96.38 258.23 294.35 577.71 1303.09 997.36 1008.56 1062.36 1061.70 137.32 909.72 1121.07 1071.54 543.77 791.62 914.03 1064.59 1350.87 752.23 998.71 652.14 472.06 727.46 1065.82 903.53 940.30 728.28 1130.00 711.82 978.36 931.26 1117.20 195.58 1239.83 1235.93 109.00 727.86 1071.10 1012.46 685.13 778.79 1137.13 886.98 1006.53 908.65 836.65 864.85 539.56 1183.76 46.08 1039.35 841.71 742.37 1076.30 1004.50 745.87 956.76 48.64 908.06
1298.05 538.28 1172.83 687.01 1110.52 683.24 668.80 366.07 835.74 725.41 380.03 600.47 1002.03 573.66 510.58 439.53 919.41 544.58 199.83 575.56 419.24 472.15 1094.69 0.00 985.50 1165.85 854.18 1104.87 957.03 919.35 710.94 599.24 97.33 330.21 328.80 463.54 1042.25 550.76 339.41 436.27 822.73 1184.90 1158.18 46.56 733.16 1104.90 267.02 645.30 1129.33 517.16 373.55 409.89 259.96 529.09 425.89 958.37 214.78 961.73 360.69 1020.38 640.44 518.58 1155.73 498.58 384.96 320.19 747.15 969.39 503.96 433.51 347.76 396.50 1086.47 1006.38 651.19 430.84 1048.61 266.08 892.61 1129.10 369.74 321.22 586.38 401.70 1068.14 227.72
658.46 959.37 409.92 518.58 233.58 1097.19 685.82 714.33 409.57 278.01 728.29 1004.62 719.05 660.47 855.53 869.38 766.69 930.05 858.82 570.92 679.39 1016.67 366.48 985.50 0.00 797.54 408.54 278.70 314.58 383.16 429.55 1020.33 904.17 727.66 695.88 862.95 344.18 766.30 977.65 928.12 377.09 837.83 856.74 971.40 1162.87 804.66 769.35 365.66 488.86 468.34 772.96 693.39 801.78 518.14 802.33 721.09 770.72 862.20 791.09 226.12 1080.76 948.29 431.70 548.65 774.51 788.92 515.81 654.12 828.55 689.74 747.41 692.90 817.88 793.85 369.80 948.06 331.33 791.03 656.94 828.86 890.14 709.44 451.20 611.25 317.84 769.54
1025.60 1057.87 786.05 586.12 790.17 1168.02 1279.50 799.78 1024.86 795.69 785.82 965.80 310.49 621.65 953.44 889.01 371.13 1000.65 1116.45 626.31 848.05 1143.45 738.50 1165.85 797.54 0.00 451.90 759.88 945.74 998.83 542.85 1113.81 1145.97 937.06 932.64 843.04 818.35 1375.89 1335.93 1393.00 420.45 142.56 276.59 1157.18 1094.89 60.95 981.94 753.14 450.33 830.30 928.48 791.98 960.75 679.09 1009.99 290.99 994.03 387.46 979.86 730.84 1094.07 1034.76 799.54 709.60 982.11 875.12 570.23 327.80 972.92 1077.22 874.01 805.37 135.30 407.28 583.38 1118.98 692.42 1072.23 357.40 36.75 1061.84 892.09 950.55 863.02 711.95 992.99
876.20 890.67 523.12 210.54 523.96 941.03 890.50 488.11 722.62 425.91 474.15 811.69 385.06 467.54 808.22 739.82 549.05 883.40 812.88 402.96 550.59 855.32 552.22 854.18 408.54 451.90 0.00 478.84 723.12 635.96 153.85 879.23 833.69 647.20 670.78 697.82 628.02 947.87 1016.98 1084.84 31.45 442.25 578.23 818.23 1005.80 453.30 645.37 364.14 341.29 441.30 659.63 522.88 684.96 350.18 753.64 411.06 720.12 580.46 727.57 443.86 833.09 898.47 565.72 380.69 715.22 647.71 204.58 362.70 801.09 688.22 620.78 530.55 527.65 497.04 213.60 909.73 545.99 785.43 445.70 429.10 750.17 576.72 670.17 540.54 526.46 717.20
400.64 1188.75 185.23 640.49 45.12 1299.61 758.54 783.85 355.69 556.71 797.81 1085.02 707.37 850.68 1084.32 991.11 706.37 1159.50 1108.62 650.94 850.92 1172.88 96.38 1104.87 278.70 759.88 478.84 0.00 276.57 305.23 481.33 1206.71 1018.74 961.69 966.52 973.92 149.18 931.10 1127.96 1092.92 447.39 888.00 826.25 1058.31 1340.73 773.61 999.88 588.92 400.59 747.04 983.29 816.61 985.38 642.40 1050.56 743.72 1018.66 834.88 1039.90 120.08 1263.04 1181.37 153.00 641.98 1038.88 943.45 597.35 772.30 1061.63 799.20 916.52 822.77 797.46 793.34 453.68 1222.06 67.46 1069.73 816.12 796.63 1073.83 916.72 729.90 887.65 80.54 1004.44
583.60 1223.67 377.54 786.01 267.44 1328.22 699.07 893.29 121.29 567.13 900.26 1186.97 983.94 949.59 1119.24 1026.03 982.94 1194.42 1073.25 685.86 861.63 1184.64 258.23 957.03 314.58 945.74 723.12 276.57 0.00 154.93 744.13 1284.63 976.95 917.41 1010.46 1008.84 127.39 1016.45 1191.45 1128.87 691.67 862.94 1011.91 1003.59 1375.65 959.47 951.97 654.78 608.11 636.31 1042.15 851.53 1010.38 738.64 1116.91 936.03 938.69 1111.45 1077.24 357.58 1300.24 1233.95 360.44 769.15 1069.91 988.79 755.96 955.72 1138.72 921.62 915.38 864.92 961.37 1069.91 684.38 1251.67 253.32 1086.64 971.52 973.56 1130.77 933.71 523.33 922.57 272.85 1008.99
548.97 1226.72 397.21 817.75 350.35 1331.44 544.14 905.49 86.66 561.17 902.05 1234.17 1005.77 943.63 1122.88 1115.79 1011.60 1197.40 1042.52 780.97 852.89 1218.30 294.35 919.35 383.16 998.83 635.96 305.23 154.93 0.00 753.09 1287.68 822.02 876.69 997.29 1103.95 180.48 903.83 1115.18 1065.65 667.41 1017.87 1131.48 889.25 1402.62 1012.56 906.61 648.82 661.20 771.83 1055.55 888.68 908.27 728.19 1076.24 955.70 943.43 1140.11 1030.07 425.31 1353.89 1200.97 403.35 697.68 1024.55 1033.64 778.72 998.66 1095.90 886.99 879.80 875.29 1096.98 1098.57 693.34 1212.23 306.41 1023.75 1040.10 1035.58 1099.58 800.03 488.70 784.75 292.52 940.51
801.72 786.34 549.43 241.17 519.83 818.28 736.65 472.67 666.43 272.06 472.45 713.50 370.73 369.35 734.63 641.42 476.24 809.81 773.10 301.25 487.19 778.95 577.71 710.94 429.55 542.85 153.85 481.33 744.13 753.09 0.00 725.38 709.73 493.35 639.58 624.23 630.51 833.04 957.23 994.86 122.40 512.03 597.69 664.38 881.09 511.93 605.39 359.71 418.39 414.11 644.56 423.72 619.88 248.47 681.43 320.66 650.94 555.49 651.13 429.69 841.61 822.03 592.03 248.05 675.99 596.00 161.30 382.03 754.11 683.79 546.35 428.84 413.60 503.29 59.75 833.29 548.79 745.45 366.49 512.15 711.93 545.48 595.76 447.29 561.87 626.02
1527.10 60.96 1274.81 738.78 1204.59 92.90 1075.93 481.86 1331.25 825.12 495.82 168.56 890.37 492.16 169.22 294.50 818.94 128.02 449.76 598.77 497.13 259.71 1303.09 599.24 1020.33 1113.81 879.23 1206.71 1284.63 1287.68 725.38 0.00 610.35 566.32 371.22 275.79 1355.89 974.81 879.03 969.17 847.78 998.24 1087.04 586.18 155.71 1095.72 447.36 765.19 1143.77 722.45 333.24 510.98 436.77 651.55 313.76 864.42 529.92 852.99 312.04 1133.33 116.23 141.14 1317.41 682.06 360.88 375.55 800.34 854.37 191.78 851.75 450.78 512.20 997.39 887.69 785.13 302.79 1274.17 381.97 780.95 1091.92 342.17 489.66 1000.02 565.27 1287.25 469.01
1284.46 549.39 1075.50 637.69 1049.03 673.20 766.13 346.19 908.68 635.62 360.15 642.69 957.79 576.58 472.88 481.75 896.66 529.90 220.50 541.08 372.51 453.19 997.36 97.33 904.17 1145.97 833.69 1018.74 976.95 822.02 709.73 610.35 0.00 232.88 310.29 477.36 1002.50 561.70 353.18 399.88 802.24 1146.86 1138.30 67.23 695.46 1085.02 269.98 547.97 1059.75 435.83 387.37 403.41 211.57 570.39 394.17 974.46 210.55 964.69 402.11 1016.81 682.66 480.88 1058.40 553.96 379.01 362.41 668.22 967.77 499.86 433.31 313.07 390.02 1051.78 983.63 649.98 506.64 951.28 228.38 885.53 1109.22 390.38 309.54 556.50 304.37 970.81 243.81
1295.07 505.36 974.03 515.80 916.57 650.32 670.00 194.86 960.19 491.76 208.82 565.80 724.91 425.25 413.17 428.01 708.70 482.48 311.01 310.75 168.11 454.05 1008.56 330.21 727.66 937.06 647.20 961.69 917.41 876.69 493.35 566.32 232.88 0.00 263.37 404.57 955.01 638.51 586.06 584.78 615.75 942.46 986.97 300.11 668.70 933.69 172.69 421.03 909.05 281.10 321.63 220.34 184.90 363.53 326.88 774.98 220.06 828.30 306.70 884.23 629.43 477.60 1016.63 366.00 290.63 342.54 517.52 779.35 386.19 285.43 127.19 206.95 865.90 795.67 552.25 482.78 962.48 300.38 696.35 957.89 365.66 76.66 641.03 116.41 982.01 207.08
1315.85 310.26 1099.27 491.23 929.46 455.22 763.08 182.67 1058.64 603.10 196.63 334.44 684.66 346.51 245.52 173.50 684.99 294.93 294.73 393.95 200.53 322.23 1062.36 328.80 695.88 932.64 670.78 966.52 1010.46 997.29 639.58 371.22 310.29 263.37 0.00 167.07 1040.06 801.12 593.25 705.38 639.33 895.77 936.82 375.36 479.42 895.67 90.68 515.45 949.17 406.34 77.08 228.28 149.09 395.26 106.45 724.00 219.54 780.50 145.02 922.00 384.88 264.84 1109.23 409.45 78.63 93.04 571.10 658.24 218.54 548.80 144.39 214.89 797.34 712.15 583.98 296.03 1027.21 230.74 575.24 895.89 194.26 197.26 712.34 248.78 1013.72 156.16
1359.73 214.83 1117.75 530.65 928.80 352.06 875.89 209.71 1055.46 615.89 223.67 196.59 658.50 396.82 110.40 45.97 543.15 185.58 375.01 322.98 276.78 300.41 1061.70 463.54 862.95 843.04 697.82 973.92 1008.84 1103.95 624.23 275.79 477.36 404.57 167.07 0.00 1115.63 820.70 741.50 853.63 666.37 931.05 827.31 464.47 366.81 901.73 238.93 558.38 903.15 466.69 89.99 266.93 297.34 375.76 184.00 691.13 346.64 671.66 157.93 952.86 291.40 225.11 1126.92 406.27 145.58 143.35 602.19 723.43 129.88 690.00 304.56 253.54 833.69 630.12 564.48 275.94 1026.55 313.46 652.90 877.53 271.81 345.51 815.26 330.45 1013.06 287.61
459.11 1303.55 250.15 754.60 190.10 1374.56 609.36 905.92 206.51 622.19 897.43 1194.19 856.55 999.86 1190.46 1075.81 855.55 1246.27 1068.74 795.92 912.17 1267.91 137.32 1042.25 344.18 818.35 628.02 149.18 127.39 180.48 630.51 1355.89 1002.50 955.01 1040.06 1115.63 0.00 965.70 1100.49 1127.52 596.57 928.94 971.23 1059.25 1447.69 832.08 1012.31 709.84 480.72 763.70 1077.81 848.70 953.90 791.58 1143.60 808.64 991.96 984.06 1135.27 269.26 1377.15 1249.53 233.05 791.16 1084.70 1065.52 683.52 875.61 1172.73 944.18 979.60 862.09 916.50 942.52 602.86 1197.36 125.93 1052.95 957.40 855.10 1164.46 980.51 608.55 952.63 145.46 921.66
1196.82 922.57 987.86 974.23 961.39 1067.53 359.69 736.77 895.16 700.11 722.81 988.36 1203.77 773.98 828.61 827.42 1225.63 882.69 657.47 788.78 699.23 915.48 909.72 550.76 766.30 1375.89 947.87 931.10 1016.45 903.83 833.04 974.81 561.70 638.51 801.12 820.70 965.70 0.00 211.35 161.82 955.44 1345.07 1423.89 504.20 1048.25 1344.97 713.92 635.18 1251.43 676.08 730.71 761.87 655.51 736.00 741.07 1153.70 687.79 1329.79 662.77 992.42 1028.33 833.67 970.76 766.51 731.97 708.08 970.12 1176.30 841.43 353.08 749.71 748.48 1246.64 1288.21 892.79 844.93 863.64 721.57 1174.38 1345.19 789.08 669.94 493.12 657.94 883.17 687.75
1385.75 828.69 1199.21 872.53 1082.84 960.00 571.04 554.95 1070.16 740.49 564.32 896.84 1204.64 758.21 756.87 739.61 1065.26 788.81 446.12 709.62 487.88 739.99 1121.07 339.41 977.65 1335.93 1016.98 1127.96 1191.45 1115.18 957.23 879.03 353.18 586.06 593.25 741.50 1100.49 211.35 0.00 315.42 985.53 1262.23 1347.06 292.85 954.37 1289.19 502.57 652.84 1123.70 651.76 651.51 551.35 444.16 722.72 633.86 1207.05 476.44 1163.70 627.73 1121.68 924.58 739.79 1182.11 736.91 611.60 659.60 906.36 1163.02 755.56 328.76 545.66 542.35 1284.37 1152.23 897.48 732.26 1074.99 512.37 1095.22 1313.39 616.03 552.40 668.12 556.02 1094.52 476.40
1358.64 936.82 1149.68 984.83 1123.21 1026.75 521.51 701.29 1007.58 837.60 715.25 987.41 1268.92 921.74 872.76 826.47 1198.60 853.51 620.38 773.90 651.41 806.74 1071.54 436.27 928.12 1393.00 1084.84 1092.92 1128.87 1065.65 994.86 969.17 399.88 584.78 705.38 853.63 1127.52 161.82 315.42 0.00 1082.64 1425.03 1482.76 467.11 1095.34 1403.95 614.70 749.95 1379.60 748.87 763.64 696.82 611.45 826.68 784.33 1308.26 610.43 1309.41 738.16 1154.24 980.67 880.76 1132.58 855.90 732.64 756.46 1007.42 1242.50 846.89 425.87 587.89 696.85 1326.60 1285.57 1015.40 867.11 1025.46 628.26 1159.50 1425.15 773.76 508.12 605.54 606.31 1044.99 643.69
848.03 859.22 554.57 241.99 492.51 940.68 859.05 456.66 754.07 394.46 442.70 803.45 416.51 462.53 776.77 708.37 552.56 851.95 781.43 371.51 519.14 823.87 543.77 822.73 377.09 420.45 31.45 447.39 691.67 667.41 122.40 847.78 802.24 615.75 639.33 666.37 596.57 955.44 985.53 1082.64 0.00 473.70 546.78 786.78 1003.49 427.57 646.09 332.69 309.84 409.85 628.18 491.43 690.14 318.73 722.19 442.51 712.23 549.01 696.12 420.93 864.54 867.02 569.66 349.24 683.77 616.26 173.13 394.15 769.64 656.77 589.33 499.10 517.38 465.59 182.15 878.28 514.85 786.15 477.15 451.77 718.72 608.17 676.31 569.69 527.93 720.07
1160.37 979.54 880.83 638.12 850.77 1091.14 1248.68 841.42 944.61 758.82 850.79 829.68 273.62 764.21 949.32 886.15 387.90 980.49 1103.15 706.13 774.35 1128.19 791.62 1184.90 837.83 142.56 442.25 888.00 862.94 1017.87 512.03 998.24 1146.86 942.46 895.77 931.05 928.94 1345.07 1262.23 1425.03 473.70 0.00 148.97 1151.14 1058.02 134.82 945.07 753.74 545.11 883.55 964.27 837.82 938.64 731.23 1002.22 254.12 1041.18 383.02 977.88 825.62 1067.88 1029.51 872.55 734.81 908.68 988.81 558.25 290.93 949.73 1077.82 837.14 835.86 98.43 300.93 546.51 1160.04 834.98 1035.36 320.53 110.62 1090.03 916.91 1024.42 842.49 840.26 970.88
1183.81 1042.14 855.51 595.24 781.13 1084.54 1275.86 792.11 1080.47 869.75 806.07 978.65 269.13 735.81 937.71 873.28 284.16 981.17 1116.88 747.18 859.18 1079.66 914.03 1158.18 856.74 276.59 578.23 826.25 1011.91 1131.48 597.69 1087.04 1138.30 986.97 936.82 827.31 971.23 1423.89 1347.06 1482.76 546.78 148.97 0.00 1149.51 1099.07 215.64 928.76 850.31 519.79 747.81 917.30 820.46 987.17 768.59 1011.31 277.03 1050.19 234.05 985.24 800.30 1007.10 1030.19 884.96 763.94 972.89 951.71 515.37 328.29 957.19 1070.81 924.58 807.07 247.40 224.67 657.44 1103.25 878.88 1068.82 361.58 239.84 1082.09 974.64 1153.64 876.45 865.39 1007.68
1344.61 540.53 1142.73 678.34 1083.15 667.15 715.36 357.40 882.30 702.85 371.36 642.32 1025.02 587.79 464.02 486.09 924.14 498.02 153.27 556.58 424.47 447.14 1064.59 46.56 971.40 1157.18 818.23 1058.31 1003.59 889.25 664.38 586.18 67.23 300.11 375.36 464.47 1059.25 504.20 292.85 467.11 786.78 1151.14 1149.51 0.00 686.60 1096.23 293.38 615.20 1082.77 503.06 374.48 414.62 278.80 569.09 379.33 985.04 261.34 988.09 334.88 993.01 631.73 472.02 1125.63 545.14 404.08 366.75 735.45 1001.97 462.71 386.95 370.57 401.23 1052.71 1011.11 604.63 439.41 1018.51 219.52 918.97 1120.43 323.18 290.80 539.82 371.60 1038.04 273.08
1654.94 216.67 1406.92 795.26 1295.61 73.13 1149.37 576.52 1317.91 898.56 590.48 324.27 846.91 647.87 310.46 405.54 824.93 263.60 534.87 689.79 628.36 293.14 1350.87 733.16 1162.87 1094.89 1005.80 1340.73 1375.65 1402.62 881.09 155.71 695.46 668.70 479.42 366.81 1447.69 1048.25 954.37 1095.34 1003.49 1058.02 1099.07 686.60 0.00 1057.92 496.01 920.90 1187.13 765.04 453.42 632.65 510.21 742.57 424.13 886.25 612.75 942.75 385.48 1275.87 178.91 214.58 1428.88 773.08 434.32 459.14 875.13 820.49 334.32 954.13 582.68 620.35 959.59 874.40 931.29 342.73 1321.76 467.08 737.49 1058.14 421.11 602.59 1073.46 654.11 1302.23 542.45
1039.33 1034.76 830.37 530.00 803.90 1131.05 1248.58 738.83 1038.59 758.72 724.87 964.50 273.52 682.60 949.22 886.05 358.58 988.10 1063.60 687.26 801.31 1092.38 752.23 1104.90 804.66 60.95 453.30 773.61 959.47 1012.56 511.93 1095.72 1085.02 933.69 895.67 901.73 832.08 1344.97 1289.19 1403.95 427.57 134.82 215.64 1096.23 1057.92 0.00 928.26 760.26 508.09 837.42 910.35 773.60 938.54 731.13 1002.12 254.02 1034.81 443.50 978.29 747.67 1081.52 973.81 813.27 734.71 965.94 898.43 557.68 290.83 949.63 1084.34 837.04 782.66 98.33 375.16 546.41 1098.26 706.15 1035.26 320.43 24.20 1000.89 916.81 938.00 859.57 725.68 970.78
1225.17 386.40 1008.59 434.83 978.18 522.45 697.57 216.03 991.55 526.32 203.39 418.29 735.01 391.46 301.25 257.35 735.34 355.33 207.85 372.36 179.41 311.69 998.71 267.02 769.35 981.94 645.37 999.88 951.97 906.61 605.39 447.36 269.98 172.69 90.68 238.93 1012.31 713.92 502.57 614.70 646.09 945.07 928.76 293.38 496.01 928.26 0.00 462.72 906.23 315.66 148.94 238.83 58.41 405.81 169.63 774.35 128.86 694.71 135.41 931.56 456.74 306.31 1051.19 407.69 117.94 174.92 514.70 708.59 290.40 458.12 107.93 225.44 846.64 762.50 594.53 317.57 997.04 140.06 625.59 945.19 192.97 106.58 621.66 158.10 1014.70 90.65
901.18 704.23 652.64 414.81 558.98 849.19 708.65 348.67 735.48 87.65 362.63 723.38 698.97 445.96 650.03 604.35 704.50 684.03 594.53 279.43 314.92 696.97 652.14 645.30 365.66 753.14 364.14 588.92 654.78 648.82 359.71 765.19 547.97 421.03 515.45 558.38 709.84 635.18 652.84 749.95 332.69 753.74 850.31 615.20 920.90 760.26 462.72 0.00 642.53 254.01 539.77 378.39 486.67 226.65 621.90 680.37 508.27 756.39 583.60 468.84 828.52 728.70 695.24 196.14 529.74 508.27 334.94 634.49 645.40 324.08 386.40 376.43 748.04 774.92 299.96 721.83 623.03 526.74 638.01 784.46 569.00 402.81 343.62 304.62 603.50 454.43
664.02 1117.98 335.72 471.40 370.65 1114.00 1090.08 766.50 659.18 675.22 752.54 1068.47 570.31 724.32 1013.55 945.87 663.67 1088.73 1091.27 605.70 817.05 1133.71 472.06 1129.33 488.86 450.33 341.29 400.59 608.11 661.20 418.39 1143.77 1059.75 909.05 949.17 903.15 480.72 1251.43 1123.70 1379.60 309.84 545.11 519.79 1082.77 1187.13 508.09 906.23 642.53 0.00 719.69 938.02 768.93 940.14 628.57 1016.80 579.07 973.42 725.84 984.90 280.51 1093.95 1128.26 365.17 640.10 915.70 908.63 391.53 512.10 1033.03 966.61 873.05 755.54 446.68 677.10 478.14 1167.06 459.94 1046.29 553.92 487.08 1028.56 871.48 901.49 792.64 440.41 972.38
1014.56 668.89 692.93 434.80 701.92 691.91 528.05 256.98 743.70 210.66 270.94 621.32 701.80 415.88 560.43 502.94 730.21 594.43 436.94 249.35 225.32 548.33 727.46 517.16 468.34 830.30 441.30 747.04 636.31 771.83 414.11 722.45 435.83 281.10 406.34 466.69 763.70 676.08 651.76 748.87 409.85 883.55 747.81 503.06 765.04 837.42 315.66 254.01 719.69 0.00 443.29 275.83 374.07 196.57 485.29 703.84 302.38 776.38 440.93 638.03 736.83 611.83 735.53 166.06 433.60 416.58 414.63 636.87 538.07 323.00 279.07 262.44 802.44 748.78 354.36 615.36 681.38 450.33 634.95 861.62 508.63 297.40 534.36 293.46 700.91 372.68
1352.92 272.28 1112.15 520.38 962.11 410.10 785.90 199.44 1059.47 581.02 185.48 272.07 748.03 306.83 168.44 135.50 633.14 242.82 285.02 356.29 224.85 284.69 1065.82 373.55 772.96 928.48 659.63 983.29 1042.15 1055.55 644.56 333.24 387.37 321.63 77.08 89.99 1077.81 730.71 651.51 763.64 628.18 964.27 917.30 374.48 453.42 910.35 148.94 539.77 938.02 443.29 0.00 229.11 207.35 396.09 94.01 761.49 256.65 761.65 67.94 973.19 307.80 238.84 1069.55 410.28 55.59 53.36 579.73 694.52 141.46 607.06 214.57 215.72 874.42 720.11 584.81 250.10 1019.74 258.60 652.32 934.55 181.82 255.52 742.08 292.99 1039.27 218.63
1164.72 460.65 936.15 331.05 771.49 559.52 654.36 57.22 854.95 415.38 48.73 345.49 660.69 263.11 341.76 227.11 536.30 397.57 381.99 165.67 63.47 443.73 903.53 409.89 693.39 791.98 522.88 816.61 851.53 888.68 423.72 510.98 403.41 220.34 228.28 266.93 848.70 761.87 551.35 696.82 491.43 837.82 820.46 414.62 632.65 773.60 238.83 378.39 768.93 275.83 229.11 0.00 232.40 175.25 323.12 682.52 265.54 634.74 297.05 752.35 536.91 446.59 969.61 205.76 255.35 216.82 377.40 615.55 368.74 492.55 130.90 13.39 773.37 623.27 363.97 479.21 869.24 333.83 551.27 797.80 315.76 188.70 601.95 103.93 855.75 264.64
1283.58 384.53 1067.00 478.40 940.26 529.49 639.16 234.17 965.29 574.32 248.13 456.39 793.42 443.31 333.81 295.45 741.92 344.65 171.20 334.44 172.98 370.10 940.30 259.96 801.78 960.75 684.96 985.38 1010.38 908.27 619.88 436.77 211.57 184.90 149.09 297.34 953.90 655.51 444.16 611.45 690.14 938.64 987.17 278.80 510.21 938.54 58.41 486.67 940.14 374.07 207.35 232.40 0.00 371.41 189.70 762.89 102.54 753.12 193.82 939.89 514.40 295.63 1049.30 401.92 167.44 226.68 558.27 767.00 326.97 470.33 101.50 219.01 840.21 820.91 560.13 307.94 986.38 156.05 684.00 938.76 251.38 108.24 563.25 206.43 988.94 32.24
989.47 590.59 760.90 238.23 658.60 725.36 677.17 224.20 679.70 240.13 223.98 520.74 505.23 280.33 486.16 392.95 548.13 561.34 542.61 52.78 238.72 561.41 728.28 529.09 518.14 679.09 350.18 642.40 738.64 728.19 248.47 651.55 570.39 363.53 395.26 375.76 791.58 736.00 722.72 826.68 318.73 731.23 768.59 569.09 742.57 731.13 405.81 226.65 628.57 196.57 396.09 175.25 371.41 0.00 490.10 507.27 420.50 635.63 433.59 577.10 667.16 600.87 795.40 30.51 430.60 355.71 279.08 440.30 505.64 519.57 297.88 180.37 632.80 552.21 188.72 615.75 709.86 505.38 438.38 715.84 463.46 318.56 533.04 270.91 722.94 403.65
1394.80 268.09 1178.22 597.68 1005.44 386.20 828.86 289.12 1130.57 591.38 279.49 299.09 791.11 388.34 144.54 220.62 727.15 210.37 226.06 437.80 306.98 215.78 1130.00 425.89 802.33 1009.99 753.64 1050.56 1116.91 1076.24 681.43 313.76 394.17 326.88 106.45 184.00 1143.60 741.07 633.86 784.33 722.19 1002.22 1011.31 379.33 424.13 1002.12 169.63 621.90 1016.80 485.29 94.01 323.12 189.70 490.10 0.00 830.45 292.24 855.66 78.30 1010.06 380.12 209.55 1151.06 481.38 101.10 134.87 625.27 764.69 137.27 612.31 250.84 309.73 903.79 814.12 621.68 260.46 1101.25 176.93 681.69 1002.34 87.81 276.21 741.81 327.73 1089.70 221.94
1015.89 839.04 767.87 420.26 747.44 936.86 1057.31 727.36 987.09 592.72 731.25 806.10 50.07 559.99 695.20 645.16 225.25 770.38 877.73 534.36 745.99 899.60 711.82 958.37 721.09 290.99 411.06 743.72 936.03 955.70 320.66 864.42 974.46 774.98 724.00 691.13 808.64 1153.70 1207.05 1308.26 442.51 254.12 277.03 985.04 886.25 254.02 774.35 680.37 579.07 703.84 761.49 682.52 762.89 507.27 830.45 0.00 790.82 246.79 829.43 750.35 935.93 809.91 789.83 537.78 802.63 764.50 366.52 66.97 722.18 1004.45 793.67 687.64 155.69 182.63 380.41 967.07 682.71 861.94 148.76 254.24 885.05 800.14 916.42 764.93 663.18 730.65
1316.94 468.96 995.31 563.69 973.54 575.79 677.22 295.98 1030.09 513.04 309.94 440.70 840.89 520.32 367.54 333.51 775.06 442.06 134.56 367.72 270.59 375.57 978.36 214.78 770.72 994.03 720.12 1018.66 938.69 943.43 650.94 529.92 210.55 220.06 219.54 346.64 991.96 687.79 476.44 610.43 712.23 1041.18 1050.19 261.34 612.75 1034.81 128.86 508.27 973.42 302.38 256.65 265.54 102.54 420.50 292.24 790.82 0.00 823.57 264.27 940.41 564.45 398.17 1037.91 410.71 233.34 303.78 604.76 834.61 340.56 505.49 204.04 252.15 942.75 862.03 599.01 346.00 983.76 147.95 753.32 1030.78 304.47 143.40 663.44 203.65 1003.29 70.30
1235.52 833.38 1014.66 501.32 880.00 928.89 1256.98 665.18 1102.42 708.05 679.14 810.26 215.98 555.81 782.06 717.63 128.51 747.12 902.56 590.86 682.86 894.82 931.26 961.73 862.20 387.46 580.46 834.88 1111.45 1140.11 555.49 852.99 964.69 828.30 780.50 671.66 984.06 1329.79 1163.70 1309.41 549.01 383.02 234.05 988.09 942.75 443.50 694.71 756.39 725.84 776.38 761.65 634.74 753.12 635.63 855.66 246.79 823.57 0.00 829.59 884.12 851.45 796.14 987.88 610.32 812.65 809.28 421.45 248.42 801.54 1080.47 738.86 621.35 360.25 83.42 495.74 947.60 902.34 834.77 205.26 419.30 887.68 801.29 1031.75 711.89 909.97 785.36
1360.58 259.80 1133.86 570.24 1013.49 404.76 799.51 264.34 1052.27 513.08 253.42 340.01 807.46 358.21 165.84 194.93 701.08 219.92 228.09 407.67 268.68 252.71 1117.20 360.69 791.09 979.86 727.57 1039.90 1077.24 1030.07 651.13 312.04 402.11 306.70 145.02 157.93 1135.27 662.77 627.73 738.16 696.12 977.88 985.24 334.88 385.48 978.29 135.41 583.60 984.90 440.93 67.94 297.05 193.82 433.59 78.30 829.43 264.27 829.59 0.00 979.76 375.74 170.90 1120.93 403.08 69.20 104.74 593.37 762.46 178.66 592.13 197.20 283.66 935.91 788.05 591.38 182.16 1071.12 255.23 720.26 1002.49 127.37 230.04 757.07 283.65 1090.65 226.06
432.34 1072.37 183.80 575.19 90.14 1210.19 867.81 801.30 378.67 504.13 801.08 1097.84 800.42 789.29 968.53 970.05 826.45 1043.05 1063.37 629.88 783.76 1107.58 195.58 1020.38 226.12 730.84 443.86 120.08 357.58 425.31 429.69 1133.33 1016.81 884.23 922.00 952.86 269.26 992.42 1121.68 1154.24 420.93 825.62 800.30 993.01 1275.87 747.67 931.56 468.84 280.51 638.03 973.19 752.35 939.89 577.10 1010.06 750.35 940.41 884.12 979.76 0.00 1197.74 1061.29 226.40 576.68 998.58 932.81 534.39 792.61 941.55 792.92 855.24 757.47 727.19 850.67 388.38 1161.92 187.54 995.58 727.37 723.47 1037.84 871.65 620.98 773.46 174.40 923.27
1610.11 160.01 1356.21 622.55 1220.20 107.94 1093.70 479.85 1345.51 888.82 493.28 238.20 896.88 573.72 240.73 337.37 722.94 169.75 478.46 614.38 532.65 317.45 1239.83 640.44 1080.76 1094.07 833.09 1263.04 1300.24 1353.89 841.61 116.23 682.66 629.43 384.88 291.40 1377.15 1028.33 924.58 980.67 864.54 1067.88 1007.10 631.73 178.91 1081.52 456.74 828.52 1093.95 736.83 307.80 536.91 514.40 667.16 380.12 935.93 564.45 851.45 375.74 1197.74 0.00 218.77 1336.44 696.32 363.39 320.25 702.42 909.29 267.71 914.86 522.37 523.52 1020.03 809.91 809.36 318.85 1285.91 471.27 832.69 1057.32 383.90 563.32 1008.97 600.59 1288.47 526.43
1493.63 88.90 1245.09 717.74 1151.43 233.86 934.79 419.51 1223.17 683.98 424.32 238.76 858.36 469.84 114.71 271.08 768.26 49.02 320.29 548.09 413.78 118.57 1235.93 518.58 948.29 1034.76 898.47 1181.37 1233.95 1200.97 822.03 141.14 480.88 477.60 264.84 225.11 1249.53 833.67 739.79 880.76 867.02 1029.51 1030.19 472.02 214.58 973.81 306.31 728.70 1128.26 611.83 238.84 446.59 295.63 600.87 209.55 809.91 398.17 796.14 170.90 1061.29 218.77 0.00 1246.49 573.98 219.74 259.91 743.91 831.94 119.74 763.03 368.10 433.20 965.60 838.34 762.28 189.12 1226.29 252.50 748.94 998.01 212.25 400.94 858.88 454.55 1235.69 327.87
440.30 1283.73 42.60 726.28 198.12 1355.75 842.41 936.85 439.56 625.30 950.81 1238.02 839.90 961.38 1194.93 1118.86 859.37 1197.47 1164.14 803.94 960.85 1283.86 109.00 1155.73 431.70 799.54 565.72 153.00 360.44 403.35 592.03 1317.41 1058.40 1016.63 1109.23 1126.92 233.05 970.76 1182.11 1132.58 569.66 872.55 884.96 1125.63 1428.88 813.27 1051.19 695.24 365.17 735.53 1069.55 969.61 1049.30 795.40 1151.06 789.83 1037.91 987.88 1120.93 226.40 1336.44 1246.49 0.00 794.98 1123.18 1016.19 742.79 856.80 1167.95 952.20 1014.60 975.77 774.12 946.34 606.68 1292.76 107.12 1148.35 919.09 836.29 1185.30 1032.93 841.60 999.86 126.65 1017.06
989.05 621.10 760.48 268.74 666.82 750.91 646.66 238.39 649.19 270.64 252.35 551.25 535.74 249.82 516.67 423.46 564.15 578.74 545.27 83.29 256.07 530.90 727.86 498.58 548.65 709.60 380.69 641.98 769.15 697.68 248.05 682.06 553.96 366.00 409.45 406.27 791.16 766.51 736.91 855.90 349.24 734.81 763.94 545.14 773.08 734.71 407.69 196.14 640.10 166.06 410.28 205.76 401.92 30.51 481.38 537.78 410.71 610.32 403.08 576.68 696.32 573.98 794.98 0.00 427.94 386.22 248.57 470.81 536.15 489.06 312.07 194.56 636.38 582.72 188.30 585.24 709.44 535.89 468.89 734.93 493.97 347.78 539.76 249.59 722.52 418.70
1343.11 308.64 1126.53 552.77 1008.09 404.51 730.31 255.03 1077.13 582.28 241.07 322.33 763.29 360.46 212.28 161.39 688.73 239.95 256.02 409.92 214.82 301.74 1071.10 384.96 774.51 982.11 715.22 1038.88 1069.91 1024.55 675.99 360.88 379.01 290.63 78.63 145.58 1084.70 731.97 611.60 732.64 683.77 908.68 972.89 404.08 434.32 965.94 117.94 529.74 915.70 433.60 55.59 255.35 167.44 430.60 101.10 802.63 233.34 812.65 69.20 998.58 363.39 219.74 1123.18 427.94 0.00 106.99 524.17 736.87 197.05 576.06 223.02 268.74 875.97 775.70 616.24 251.36 1073.37 203.01 653.87 974.52 188.91 224.52 730.69 276.04 1092.35 163.04
1299.56 314.59 1058.79 480.54 908.75 420.79 837.30 159.60 1035.41 595.84 173.56 280.28 731.87 253.47 210.75 119.34 686.50 285.27 241.33 302.93 226.67 312.05 1012.46 320.19 788.92 875.12 647.71 943.45 988.79 1033.64 596.00 375.55 362.41 342.54 93.04 143.35 1065.52 708.08 659.60 756.46 616.26 988.81 951.71 366.75 459.14 898.43 174.92 508.27 908.63 416.58 53.36 216.82 226.68 355.71 134.87 764.50 303.78 809.28 104.74 932.81 320.25 259.91 1016.19 386.22 106.99 0.00 560.36 746.49 183.77 627.97 237.43 203.43 890.38 773.47 544.43 286.90 966.38 265.45 668.28 911.87 187.53 265.88 688.72 280.34 985.91 249.20
946.76 739.38 710.73 79.87 552.23 806.71 895.23 400.76 752.69 358.32 414.72 676.94 364.03 332.79 682.90 604.51 485.90 748.19 722.55 279.21 425.52 779.47 685.13 747.15 515.81 570.23 204.58 597.35 755.96 778.72 161.30 800.34 668.22 517.52 571.10 602.19 683.52 970.12 906.36 1007.42 173.13 558.25 515.37 735.45 875.13 557.68 514.70 334.94 391.53 414.63 579.73 377.40 558.27 279.08 625.27 366.52 604.76 421.45 593.37 534.39 702.42 743.91 742.79 248.57 524.17 560.36 0.00 299.55 709.88 659.02 481.52 364.01 492.05 464.55 146.01 775.53 649.98 654.76 382.55 533.48 690.74 499.30 678.56 401.11 636.49 584.52
1082.86 802.99 834.84 379.42 814.41 893.62 1117.47 661.60 1007.64 621.96 664.28 837.17 64.93 493.02 739.18 677.46 186.35 787.59 865.62 468.60 679.02 931.90 778.79 969.39 654.12 327.80 362.70 772.30 955.72 998.66 382.03 854.37 967.77 779.35 658.24 723.43 875.61 1176.30 1163.02 1242.50 394.15 290.93 328.29 1001.97 820.49 290.83 708.59 634.49 512.10 636.87 694.52 615.55 767.00 440.30 764.69 66.97 834.61 248.42 762.46 792.61 909.29 831.94 856.80 470.81 736.87 746.49 299.55 0.00 712.20 958.57 727.91 620.67 192.50 165.00 441.78 944.62 749.68 797.83 83.00 291.05 852.50 734.38 945.66 700.66 730.15 797.62
1373.89 130.82 1125.35 630.01 1031.69 268.64 927.36 339.59 1182.56 691.74 326.94 179.61 738.62 389.42 26.98 175.85 673.03 101.50 339.27 452.86 330.48 231.52 1137.13 503.96 828.55 972.92 801.09 1061.63 1138.72 1095.90 754.11 191.78 499.86 386.19 218.54 129.88 1172.73 841.43 755.56 846.89 769.64 949.73 957.19 462.71 334.32 949.63 290.40 645.40 1033.03 538.07 141.46 368.74 326.97 505.64 137.27 722.18 340.56 801.54 178.66 941.55 267.71 119.74 1167.95 536.15 197.05 183.77 709.88 712.20 0.00 671.62 259.00 357.18 851.30 760.00 694.36 302.07 1129.09 271.48 629.20 949.85 188.87 338.77 868.96 388.82 1115.95 359.21
1056.99 790.79 943.03 738.89 754.08 935.75 384.57 480.29 800.33 411.73 494.25 838.04 1010.34 710.68 698.60 713.44 994.13 767.91 540.22 540.36 453.54 739.48 886.98 433.51 689.74 1077.22 688.22 799.20 921.62 886.99 683.79 851.75 433.31 285.43 548.80 690.00 944.18 353.08 328.76 425.87 656.77 1077.82 1070.81 386.95 954.13 1084.34 458.12 324.08 966.61 323.00 607.06 492.55 470.33 519.57 612.31 1004.45 505.49 1080.47 592.13 792.92 914.86 763.03 952.20 489.06 576.06 627.97 659.02 958.57 671.62 0.00 412.62 492.38 1058.48 1062.87 624.04 768.21 851.83 585.81 925.96 1108.54 651.09 362.09 398.29 401.84 838.34 492.51
1287.35 389.82 972.00 447.69 899.04 527.64 740.66 132.67 961.26 474.05 146.63 438.61 754.33 341.81 285.98 317.89 640.42 355.29 269.90 293.22 71.48 413.05 1006.53 347.76 747.41 874.01 620.78 916.52 915.38 879.80 546.35 450.78 313.07 127.19 144.39 304.56 979.60 749.71 545.66 587.89 589.33 837.14 924.58 370.57 582.68 837.04 107.93 386.40 873.05 279.07 214.57 130.90 101.50 297.88 250.84 793.67 204.04 738.86 197.20 855.24 522.37 368.10 1014.60 312.07 223.02 237.43 481.52 727.91 259.00 412.62 0.00 117.51 738.71 727.39 486.60 379.36 960.45 227.69 644.91 837.26 285.08 79.77 609.96 139.62 979.98 133.74
1169.84 464.73 941.27 330.18 784.88 572.91 667.75 43.83 843.75 420.50 57.79 358.88 674.08 274.22 355.15 240.50 522.91 384.18 368.60 179.06 61.51 457.12 908.65 396.50 692.90 805.37 530.55 822.77 864.92 875.29 428.84 512.20 390.02 206.95 214.89 253.54 862.09 748.48 542.35 696.85 499.10 835.86 807.07 401.23 620.35 782.66 225.44 376.43 755.54 262.44 215.72 13.39 219.01 180.37 309.73 687.64 252.15 621.35 283.66 757.47 523.52 433.20 975.77 194.56 268.74 203.43 364.01 620.67 357.18 492.38 117.51 0.00 786.76 609.88 369.09 465.82 882.53 341.38 564.66 806.86 329.15 188.73 599.99 90.54 869.14 251.25
1110.70 936.43 782.40 550.96 752.34 1032.72 1150.25 773.63 1043.04 660.39 787.59 928.11 175.19 685.52 850.89 787.72 297.09 926.07 1004.72 607.70 810.19 1042.16 836.65 1086.47 817.88 135.30 527.65 797.46 961.37 1096.98 413.60 997.39 1051.78 865.90 797.34 833.69 916.50 1246.64 1284.37 1326.60 517.38 98.43 247.40 1052.71 959.59 98.33 846.64 748.04 446.68 802.44 874.42 773.37 840.21 632.80 903.79 155.69 942.75 360.25 935.91 727.19 1020.03 965.60 774.12 636.38 875.97 890.38 492.05 192.50 851.30 1058.48 738.71 786.76 0.00 276.83 448.08 1093.37 790.57 936.93 222.10 98.55 991.60 818.48 984.09 831.58 810.10 872.45
1193.98 826.73 950.50 437.38 838.46 887.35 1210.58 653.71 1126.53 732.16 667.67 826.71 132.56 530.28 740.52 676.09 86.97 789.32 919.53 522.51 671.39 882.47 864.85 1006.38 793.85 407.28 497.04 793.34 1069.91 1098.57 503.29 887.69 983.63 795.67 712.15 630.12 942.52 1288.21 1152.23 1285.57 465.59 300.93 224.67 1011.11 874.40 375.16 762.50 774.92 677.10 748.78 720.11 623.27 820.91 552.21 814.12 182.63 862.03 83.42 788.05 850.67 809.91 838.34 946.34 582.72 775.70 773.47 464.55 165.00 760.00 1062.87 727.39 609.88 276.83 0.00 519.85 906.06 860.80 851.74 136.91 375.38 901.93 777.45 1047.85 679.26 845.81 803.36
800.75 779.31 572.18 186.81 478.52 878.03 796.40 412.92 606.68 212.31 412.70 709.46 430.48 400.91 674.88 581.67 492.69 750.06 713.35 241.50 427.44 719.20 539.56 651.19 369.80 583.38 213.60 453.68 684.38 693.34 59.75 785.13 649.98 552.25 583.98 564.48 602.86 892.79 897.48 1015.40 182.15 546.51 657.44 604.63 931.29 546.41 594.53 299.96 478.14 354.36 584.81 363.97 560.13 188.72 621.68 380.41 599.01 495.74 591.38 388.38 809.36 762.28 606.68 188.30 616.24 544.43 146.01 441.78 694.36 624.04 486.60 369.09 448.08 519.85 0.00 773.54 521.14 694.10 382.94 546.63 652.18 507.28 536.01 437.89 534.22 566.27
1542.74 278.02 1308.29 708.55 1181.64 290.56 882.62 446.50 1201.56 695.24 435.58 427.88 934.44 540.37 275.09 321.91 819.09 218.25 325.24 589.83 450.84 70.55 1183.76 430.84 948.06 1118.98 909.73 1222.06 1251.67 1212.23 833.29 302.79 506.64 482.78 296.03 275.94 1197.36 844.93 732.26 867.11 878.28 1160.04 1103.25 439.41 342.73 1098.26 317.57 721.83 1167.06 615.36 250.10 479.21 307.94 615.75 260.46 967.07 346.00 947.60 182.16 1161.92 318.85 189.12 1292.76 585.24 251.36 286.90 775.53 944.62 302.07 768.21 379.36 465.82 1093.37 906.06 773.54 0.00 1229.84 298.17 871.27 1122.46 178.23 412.20 799.52 459.11 1232.40 275.70
333.18 1241.38 124.22 663.36 97.75 1248.63 735.29 851.31 332.44 609.34 865.27 1152.48 732.78 918.14 1136.95 1043.74 773.83 1212.13 1101.22 703.57 906.70 1229.71 46.08 1048.61 331.33 692.42 545.99 67.46 253.32 306.41 548.79 1274.17 951.28 962.48 1027.21 1026.55 125.93 863.64 1074.99 1025.46 514.85 834.98 878.88 1018.51 1321.76 706.15 997.04 623.03 459.94 681.38 1019.74 869.24 986.38 709.86 1101.25 682.71 983.76 902.34 1071.12 187.54 1285.91 1226.29 107.12 709.44 1073.37 966.38 649.98 749.68 1129.09 851.83 960.45 882.53 790.57 860.80 521.14 1229.84 0.00 1085.43 831.47 729.17 1122.38 969.35 734.48 927.65 19.53 954.14
1365.23 321.01 1143.26 574.89 1024.61 447.63 738.21 339.44 1101.82 614.39 343.45 443.32 824.25 518.92 244.50 282.38 824.58 301.52 67.79 489.50 299.17 227.62 1039.35 266.08 791.03 1072.23 785.43 1069.73 1086.64 1023.75 745.45 381.97 228.38 300.38 230.74 313.46 1052.95 721.57 512.37 628.26 786.15 1035.36 1068.82 219.52 467.08 1035.26 140.06 526.74 1046.29 450.33 258.60 333.83 156.05 505.38 176.93 861.94 147.95 834.77 255.23 995.58 471.27 252.50 1148.35 535.89 203.01 265.45 654.76 797.83 271.48 585.81 227.69 341.38 936.93 851.74 694.10 298.17 1085.43 0.00 714.83 1035.48 162.00 223.72 719.30 298.16 1087.99 131.29
1159.71 719.99 889.64 328.86 817.51 810.62 1103.14 578.60 989.62 595.25 592.56 805.12 109.42 561.40 656.18 698.87 109.75 704.59 782.62 385.60 607.34 852.29 841.71 892.61 656.94 357.40 445.70 816.12 971.52 1040.10 366.49 780.95 885.53 696.35 575.24 652.90 957.40 1174.38 1095.22 1159.50 477.15 320.53 361.58 918.97 737.49 320.43 625.59 638.01 553.92 634.95 652.32 551.27 684.00 438.38 681.69 148.76 753.32 205.26 720.26 727.37 832.69 748.94 919.09 468.89 653.87 668.28 382.55 83.00 629.20 925.96 644.91 564.66 222.10 136.91 382.94 871.27 831.47 714.83 0.00 320.65 769.50 651.38 918.95 622.31 811.94 716.24
1049.75 1034.98 822.80 554.20 813.61 1131.27 1248.80 763.03 1055.23 758.94 749.07 940.30 273.74 658.40 949.44 886.27 334.38 963.90 1087.80 663.06 825.51 1111.60 742.37 1129.10 828.86 36.75 429.10 796.63 973.56 1035.58 512.15 1091.92 1109.22 957.89 895.89 877.53 855.10 1345.19 1313.39 1425.15 451.77 110.62 239.84 1120.43 1058.14 24.20 945.19 784.46 487.08 861.62 934.55 797.80 938.76 715.84 1002.34 254.24 1030.78 419.30 1002.49 723.47 1057.32 998.01 836.29 734.93 974.52 911.87 533.48 291.05 949.85 1108.54 837.26 806.86 98.55 375.38 546.63 1122.46 729.17 1035.48 320.65 0.00 1025.09 917.03 913.80 883.77 748.70 971.00
1418.14 300.41 1201.56 610.92 1050.73 347.98 890.54 289.98 1143.16 627.84 276.02 368.48 852.42 441.00 215.85 239.89 814.96 214.15 169.91 444.91 350.63 127.97 1076.30 369.74 890.14 1061.84 750.17 1073.83 1130.77 1099.58 711.93 342.17 390.38 365.66 194.26 271.81 1164.46 789.08 616.03 773.76 718.72 1090.03 1082.09 323.18 421.11 1000.89 192.97 569.00 1028.56 508.63 181.82 315.76 251.38 463.46 87.81 885.05 304.47 887.68 127.37 1037.84 383.90 212.25 1185.30 493.97 188.91 187.53 690.74 852.50 188.87 651.09 285.08 329.15 991.60 901.93 652.18 178.23 1122.38 162.00 769.50 1025.09 0.00 299.55 814.63 351.07 1124.94 283.62
1302.53 428.70 990.33 476.71 871.60 573.66 746.66 193.17 886.69 490.46 207.13 518.38 760.80 413.62 365.75 363.93 690.48 435.06 277.96 265.78 143.29 418.27 1004.50 321.22 709.44 892.09 576.72 916.72 933.71 800.03 545.48 489.66 309.54 76.66 197.26 345.51 980.51 669.94 552.40 508.12 608.17 916.91 974.64 290.80 602.59 916.81 106.58 402.81 871.48 297.40 255.52 188.70 108.24 318.56 276.21 800.14 143.40 801.29 230.04 871.65 563.32 400.94 1032.93 347.78 224.52 265.88 499.30 734.38 338.77 362.09 79.77 188.73 818.48 777.45 507.28 412.20 969.35 223.72 651.38 917.03 299.55 0.00 636.51 98.19 955.86 140.48
864.35 947.78 804.78 610.47 684.78 1044.92 395.28 605.55 402.04 323.70 614.92 947.44 966.49 706.16 873.59 808.06 1012.18 907.59 693.09 585.82 538.48 870.07 745.87 586.38 451.20 950.55 670.17 729.90 523.33 488.70 595.76 1000.02 556.50 641.03 712.34 815.26 608.55 493.12 668.12 605.54 676.31 1024.42 1153.64 539.82 1073.46 938.00 621.66 343.62 901.49 534.36 742.08 601.95 563.25 533.04 741.81 916.42 663.44 1031.75 757.07 620.98 1008.97 858.88 841.60 539.76 730.69 688.72 678.56 945.66 868.96 398.29 609.96 599.99 984.09 1047.85 536.01 799.52 734.48 719.30 918.95 913.80 814.63 636.51 0.00 606.62 754.01 595.49
1205.80 519.64 957.26 420.72 842.53 640.51 742.87 120.74 843.78 392.27 134.70 449.42 731.73 338.47 398.85 331.04 592.29 437.25 330.49 236.71 68.14 469.79 956.76 401.70 611.25 863.02 540.54 887.65 922.57 784.75 447.29 565.27 304.37 116.41 248.78 330.45 952.63 657.94 556.02 606.31 569.69 842.49 876.45 371.60 654.11 859.57 158.10 304.62 792.64 293.46 292.99 103.93 206.43 270.91 327.73 764.93 203.65 711.89 283.65 773.46 600.59 454.55 999.86 249.59 276.04 280.34 401.11 700.66 388.82 401.84 139.62 90.54 831.58 679.26 437.89 459.11 927.65 298.16 622.31 883.77 351.07 98.19 606.62 0.00 908.12 183.41
352.71 1227.89 104.69 665.92 84.26 1229.10 754.82 864.39 351.97 595.85 878.35 1152.83 713.25 931.22 1123.46 1030.25 786.91 1198.64 1103.78 690.08 911.82 1249.24 48.64 1068.14 317.84 711.95 526.46 80.54 272.85 292.52 561.87 1287.25 970.81 982.01 1013.72 1013.06 145.46 883.17 1094.52 1044.99 527.93 840.26 865.39 1038.04 1302.23 725.68 1014.70 603.50 440.41 700.91 1039.27 855.75 988.94 722.94 1089.70 663.18 1003.29 909.97 1090.65 174.40 1288.47 1235.69 126.65 722.52 1092.35 985.91 636.49 730.15 1115.95 838.34 979.98 869.14 810.10 845.81 534.22 1232.40 19.53 1087.99 811.94 748.70 1124.94 955.86 754.01 908.12 0.00 956.70
1287.32 416.77 1044.40 510.64 972.50 505.49 606.92 266.41 997.53 542.08 277.37 424.15 780.72 475.55 360.23 263.21 774.16 376.89 147.08 366.68 205.22 346.25 908.06 227.72 769.54 992.99 717.20 1004.44 1008.99 940.51 626.02 469.01 243.81 207.08 156.16 287.61 921.66 687.75 476.40 643.69 720.07 970.88 1007.68 273.08 542.45 970.78 90.65 454.43 972.38 372.68 218.63 264.64 32.24 403.65 221.94 730.65 70.30 785.36 226.06 923.27 526.43 327.87 1017.06 418.70 163.04 249.20 584.52 797.62 359.21 492.51 133.74 251.25 872.45 803.36 566.27 275.70 954.14 131.29 716.24 971.00 283.62 140.48 595.49 183.41 956.70 0.00
DEMAND_SECTION
1 0
2 86
3 66
4 67
5 99
6 80
7 1
8 3
9 9
10 8
11 4
12 1
13 4
14 10
15 3
16 9
17 3
18 1
19 3
20 9
21 2
22 3
23 1
24 8
25 5
26 3
27 10
28 5
29 5
30 3
31 8
32 2
33 4
34 9
35 8
36 4
37 4
38 8
39 9
40 7
41 8
42 4
43 6
44 9
45 7
46 8
47 6
48 10
49 3
50 3
51 7
52 9
53 4
54 5
55 10
56 10
57 7
58 7
59 2
60 3
61 8
62 6
63 10
64 10
65 6
66 4
67 2
68 9
69 2
70 2
71 1
72 1
73 4
74 1
75 2
76 1
77 1
78 9
79 9
80 8
81 1
82 1
83 1
84 10
85 6
86 9
DEPOT_SECTION
1
-1
EOF
