NAME: LDG80_3131_snow_80_0124
COMMENT: CVRP with travel times.  rootPos=3,custPos=1,demandType=3,avgRouteSizeIndex=1,weather=snow,lambda_cluster=1,lambda_random=4, T1=300,T2=700,beta=1, alpha(i,j) ~ U(0.8,1.2)
TYPE: CVRP
DIMENSION: 81
EDGE_WEIGHT_TYPE: EXPLICIT
EDGE_WEIGHT_FORMAT: FULL_MATRIX
CAPACITY: 23
NODE_COORD_SECTION
1 0 0
2 722 131
3 206 277
4 258 386
5 199 497
6 976 197
7 679 57
8 314 727
9 338 400
10 919 882
11 516 633
12 505 332
13 934 357
14 561 244
15 763 472
16 483 301
17 249 705
18 638 59
19 244 840
20 782 71
21 278 519
22 753 906
23 357 65
24 641 488
25 929 364
26 700 107
27 705 414
28 274 252
29 27 723
30 126 334
31 982 194
32 575 167
33 902 711
34 667 767
35 20 980
36 344 19
37 696 320
38 563 358
39 866 109
40 643 572
41 811 984
42 779 932
43 744 901
44 877 403
45 62 739
46 635 22
47 582 993
48 917 242
49 95 437
50 999 770
51 697 508
52 315 909
53 837 785
54 751 870
55 466 934
56 312 720
57 600 774
58 528 449
59 245 252
60 357 319
61 260 927
62 813 841
63 719 930
64 927 745
65 550 300
66 405 345
67 331 284
68 135 712
69 549 431
70 788 789
71 832 120
72 159 53
73 440 384
74 325 790
75 636 147
76 397 349
77 356 104
78 622 68
79 310 186
80 952 179
81 60 564
EDGE_WEIGHT_SECTION
0.00 786.47 478.84 565.30 586.11 1030.42 724.63 842.68 604.69 1349.80 879.48 687.66 1079.18 671.63 1006.58 637.75 827.07 670.66 1004.83 830.52 691.29 1197.13 425.62 867.40 1056.71 781.81 938.43 384.15 806.56 430.66 1040.26 705.86 1185.14 1143.96 1116.89 354.57 825.78 757.90 957.26 938.63 1302.23 1234.81 1180.35 986.62 868.45 738.79 1252.02 1105.90 449.96 1262.67 958.90 1079.80 1207.54 1164.89 1146.28 852.74 1071.18 734.09 429.58 495.15 1042.18 1238.46 1222.55 1159.65 707.47 562.54 462.60 807.99 779.56 1202.65 909.00 218.22 640.86 916.22 785.85 563.79 443.22 704.64 519.36 994.01 668.95
786.47 0.00 615.41 650.48 712.98 305.83 132.28 800.72 550.70 832.02 647.08 366.47 407.58 284.72 416.37 335.55 843.19 115.81 942.75 93.20 656.96 787.11 398.05 519.47 385.11 43.57 402.53 589.15 961.32 747.77 315.67 213.02 760.40 733.35 1189.54 431.90 239.73 369.31 219.94 567.27 890.42 828.95 803.89 427.69 1024.25 183.94 1003.08 320.83 820.60 736.25 451.74 1010.01 723.59 779.80 917.42 790.66 782.56 471.14 567.97 478.15 1000.22 751.07 843.77 820.31 282.94 441.18 518.37 979.62 415.93 662.59 171.68 605.45 443.93 872.87 124.75 460.12 464.56 149.81 439.98 269.42 849.17
478.84 615.41 0.00 154.80 364.38 781.37 619.41 464.91 255.22 1033.17 581.55 353.97 817.31 442.38 672.89 341.84 533.04 566.66 606.94 704.08 348.95 905.61 288.71 550.41 794.84 610.13 577.26 94.69 593.72 216.35 798.53 485.71 840.80 703.59 880.93 358.11 563.91 424.21 734.96 604.95 1012.77 936.50 890.89 742.72 655.88 593.22 885.66 853.59 237.39 984.86 614.56 708.73 899.15 875.43 827.38 454.85 682.59 389.75 49.26 205.69 664.41 891.65 906.49 906.81 385.81 264.73 173.14 566.20 444.96 867.11 698.33 296.15 322.86 545.15 541.95 245.79 247.25 548.14 175.43 817.78 439.34
565.30 650.48 154.80 0.00 304.08 830.58 615.45 458.63 100.42 900.18 481.88 291.95 735.76 439.80 610.87 326.14 491.00 580.88 527.28 701.56 241.18 782.17 375.01 485.38 713.29 651.48 546.55 181.15 438.92 204.40 816.17 469.86 822.72 622.66 750.29 419.36 482.36 362.19 721.55 542.40 859.14 781.70 769.33 680.70 501.85 649.01 823.57 810.04 239.00 855.03 588.01 600.04 791.75 778.84 762.64 468.69 527.79 371.67 180.90 209.96 578.40 810.72 751.69 752.01 374.89 209.30 148.51 411.40 358.43 730.75 733.36 450.95 266.63 436.46 542.13 190.36 308.50 603.00 228.86 825.93 436.69
586.11 712.98 364.38 304.08 0.00 826.27 716.52 356.13 229.63 863.56 402.51 421.97 709.10 514.25 657.54 377.43 326.63 662.55 498.16 806.18 105.18 715.15 584.95 516.56 731.57 717.19 609.36 361.72 338.76 230.72 809.11 530.15 826.48 657.13 538.74 602.04 527.04 426.03 824.24 564.31 786.90 744.94 698.37 744.54 401.69 729.90 776.88 847.43 136.15 970.54 593.96 528.48 755.13 649.56 691.08 346.07 562.26 419.59 345.50 336.14 555.63 723.13 675.54 879.96 459.30 293.71 330.46 379.45 364.38 694.13 787.32 525.33 301.74 364.90 618.42 312.65 538.82 668.26 442.81 855.36 328.85
1030.42 305.83 781.37 830.58 826.27 0.00 406.19 938.12 733.55 754.99 682.02 592.59 228.59 502.37 363.87 641.38 971.56 421.64 995.59 289.73 901.96 841.23 703.88 526.49 206.59 332.90 390.48 777.54 1144.17 911.91 17.16 460.13 599.85 763.98 1292.15 675.85 348.22 534.22 162.99 508.72 804.01 807.83 834.09 226.80 1177.45 443.74 1012.38 106.53 962.42 652.27 462.00 968.67 681.77 794.35 982.06 944.85 733.58 582.23 732.11 678.63 1063.31 783.03 849.40 564.84 535.99 624.03 744.30 1115.61 630.99 716.71 211.25 902.31 638.00 956.37 424.64 642.97 701.83 395.93 745.81 36.41 1095.36
724.63 132.28 619.41 615.45 716.52 406.19 0.00 817.72 515.03 964.30 663.13 383.47 446.52 224.05 531.64 339.09 853.47 53.97 913.49 147.87 684.22 919.39 336.21 501.90 424.05 98.22 433.47 524.72 983.57 726.87 389.45 209.38 817.31 834.43 1114.02 370.06 354.51 385.36 243.20 633.76 970.38 961.23 936.17 489.52 1046.50 83.86 1018.68 423.25 785.42 868.53 559.15 949.34 855.87 912.08 1032.20 807.66 854.83 489.04 570.15 481.69 1015.30 883.35 938.40 889.93 303.76 463.43 515.34 963.99 433.83 794.87 226.35 543.61 421.56 897.96 152.01 444.49 402.72 71.27 467.18 369.78 852.75
842.68 800.72 464.91 458.63 356.13 938.12 817.72 0.00 358.21 715.20 299.56 434.25 842.83 597.49 617.71 487.94 88.25 763.75 162.15 843.86 250.95 568.45 692.67 485.86 820.83 821.50 564.43 518.84 324.61 520.67 937.75 683.59 731.98 481.59 416.02 765.34 589.90 493.95 863.85 486.14 637.02 610.29 585.23 734.46 284.08 831.88 420.75 880.17 392.72 691.15 592.87 243.82 606.77 579.87 362.47 10.06 393.67 449.49 473.41 467.75 199.50 634.25 617.57 673.95 517.78 459.78 533.42 239.41 504.70 545.77 850.18 748.87 472.83 80.24 712.15 478.72 696.62 777.10 601.40 974.53 330.21
604.69 550.70 255.22 100.42 229.63 733.55 515.03 358.21 0.00 890.93 381.46 245.11 687.97 354.82 551.17 242.13 400.58 517.62 520.36 643.90 216.40 731.68 439.30 410.19 668.66 567.06 494.88 220.54 539.34 304.82 716.39 369.44 722.30 668.03 669.01 413.79 467.76 312.29 666.58 441.98 846.80 769.36 714.90 630.80 602.27 569.19 778.96 719.10 339.42 866.36 487.59 602.03 819.88 758.16 720.68 368.27 573.16 271.25 243.30 109.54 557.71 746.48 788.08 794.92 275.11 109.52 175.21 511.82 258.01 786.76 671.10 518.76 166.21 438.45 457.71 127.10 372.79 507.55 276.78 726.15 422.84
1349.80 832.02 1033.17 900.18 863.56 754.99 964.30 715.20 890.93 0.00 610.19 716.85 608.10 796.46 527.63 770.54 783.33 947.83 812.52 925.22 758.38 192.81 1043.27 568.37 585.63 875.59 602.84 972.23 1016.34 1028.10 772.15 895.19 192.37 342.39 1006.83 1115.94 707.30 717.71 887.83 514.21 188.30 230.49 176.03 608.84 953.41 973.16 425.37 726.84 999.71 181.10 461.36 736.94 179.02 224.84 536.78 705.14 437.26 643.42 1017.66 861.23 726.87 196.99 249.21 190.15 741.08 852.90 923.96 934.49 663.54 169.43 864.04 1153.86 776.02 774.18 872.09 850.93 1010.74 981.83 1002.45 791.40 982.05
879.48 647.08 581.55 481.88 402.51 682.02 663.13 299.56 381.46 610.19 0.00 317.58 567.24 439.08 318.15 371.27 387.81 639.52 461.71 709.10 340.86 446.08 644.13 233.03 544.77 619.37 366.58 495.33 558.36 610.58 699.18 467.41 550.10 286.57 715.58 688.48 457.10 277.77 663.09 307.18 523.05 445.61 462.86 455.22 495.43 667.16 487.48 604.50 538.66 615.44 300.55 447.92 443.44 442.75 390.63 309.62 191.70 191.80 540.76 403.45 499.06 474.63 415.60 581.92 364.14 403.73 416.88 532.19 247.01 459.53 703.23 740.94 324.40 379.80 555.68 384.79 577.62 605.52 481.61 701.46 564.53
687.66 366.47 353.97 291.95 421.97 592.59 383.47 434.25 245.11 716.85 317.58 0.00 478.78 163.24 318.92 53.69 502.38 329.50 576.28 409.61 384.19 658.08 327.20 220.40 456.31 387.25 254.60 303.51 656.19 459.62 588.95 259.88 576.83 553.81 850.27 399.87 269.88 70.24 429.60 332.12 770.24 695.44 674.86 388.75 718.33 397.63 744.76 530.27 527.29 720.89 327.41 678.07 608.42 648.30 708.21 424.19 502.47 125.78 304.71 196.29 633.75 635.90 656.90 649.45 83.53 136.05 225.06 653.54 132.19 547.42 477.86 523.92 120.23 514.49 277.90 134.08 293.89 342.85 285.60 556.18 607.86
1079.18 407.58 817.31 735.76 709.10 228.59 446.52 842.83 687.97 608.10 567.24 478.78 0.00 407.55 249.09 532.47 865.15 494.84 984.86 370.05 814.28 631.35 773.97 411.71 22.47 409.67 332.24 722.62 1047.86 938.40 233.43 472.20 415.73 579.86 1211.71 744.07 253.40 430.53 324.05 393.94 657.64 661.14 614.57 112.02 1062.67 530.38 818.94 138.33 845.25 559.79 355.59 853.89 540.94 565.76 867.28 832.77 618.80 466.22 768.05 611.62 948.53 557.68 638.50 488.35 479.23 581.61 677.29 1009.20 429.96 538.08 291.57 860.96 594.82 875.93 483.60 581.09 707.46 517.79 674.50 201.68 989.12
671.63 284.72 442.38 439.80 514.25 502.37 224.05 597.49 354.82 796.46 439.08 163.24 407.55 0.00 383.58 178.03 639.96 261.45 739.52 338.52 476.47 771.15 366.42 307.53 385.08 241.15 283.65 369.74 765.44 553.16 519.53 98.73 684.11 610.38 958.12 410.77 154.15 161.31 387.72 425.25 842.90 782.57 754.37 382.44 828.37 289.09 822.64 481.83 561.37 741.56 335.10 725.29 712.36 705.56 829.71 587.43 630.78 272.08 394.94 308.41 796.99 739.84 744.03 703.67 79.71 245.30 291.29 783.74 250.66 651.36 400.39 453.41 212.51 677.73 187.00 264.24 299.91 227.45 266.95 514.30 700.14
1006.58 416.37 672.89 610.87 657.54 363.87 531.64 617.71 551.17 527.63 318.15 318.92 249.09 383.58 0.00 372.61 616.06 532.18 745.74 509.57 659.01 517.71 646.12 190.26 226.62 433.42 131.24 622.43 869.67 778.54 381.03 482.31 344.03 476.40 1006.70 718.79 229.43 317.79 476.79 188.93 583.79 520.50 500.93 137.07 813.58 577.15 704.71 353.00 714.67 488.09 106.50 648.88 348.61 476.96 662.27 627.77 413.79 331.31 623.63 515.21 743.52 449.87 549.70 416.65 319.81 454.97 543.98 760.11 293.16 409.61 489.71 836.99 439.15 670.92 471.11 453.00 612.81 553.21 604.52 383.31 740.03
637.75 335.55 341.84 326.14 377.43 641.38 339.09 487.94 242.13 770.54 371.27 53.69 532.47 178.03 372.61 0.00 514.38 285.12 629.97 428.75 377.87 711.77 273.51 274.09 510.00 339.76 308.29 253.60 657.86 477.11 626.91 219.24 630.52 535.42 859.52 346.18 323.57 123.93 483.29 385.81 823.93 749.13 728.55 442.44 720.79 353.25 798.45 575.86 510.50 769.93 381.10 706.51 662.11 701.99 761.90 477.88 556.16 179.47 299.03 142.60 687.44 689.59 710.59 703.14 108.08 137.72 208.27 655.28 185.88 601.11 507.23 470.23 113.91 568.18 307.51 135.78 240.20 319.12 231.91 604.97 601.54
827.07 843.19 533.04 491.00 326.63 971.56 853.47 88.25 400.58 783.33 387.81 502.38 865.15 639.96 616.06 514.38 0.00 799.50 193.98 911.99 249.82 656.70 760.80 553.99 842.68 837.36 603.50 560.84 260.72 484.22 954.40 681.86 763.73 442.96 504.27 761.86 678.15 492.22 931.98 574.39 725.27 657.97 641.62 753.13 277.83 867.63 509.00 937.66 377.11 779.40 509.56 265.93 638.52 655.11 450.72 78.19 404.06 464.11 541.54 510.12 287.75 631.02 627.96 742.08 560.25 510.10 493.59 151.16 465.00 613.90 912.24 817.00 502.21 168.49 770.13 527.68 716.52 819.97 620.51 993.98 249.92
670.66 115.81 566.66 580.88 662.55 421.64 53.97 763.75 517.62 947.83 639.52 329.50 494.84 261.45 532.18 285.12 799.50 0.00 876.22 159.86 647.40 902.92 282.24 511.91 478.02 111.15 487.44 473.79 929.60 699.02 412.77 172.11 867.73 820.54 1076.75 316.09 355.54 361.75 286.60 596.49 1006.23 944.76 919.70 486.77 992.53 68.13 1009.13 435.24 795.62 852.06 563.23 986.74 839.40 895.61 1011.64 753.69 817.61 451.77 519.22 427.72 963.25 866.88 934.69 873.30 337.80 409.46 493.39 910.02 396.56 778.40 238.34 489.64 399.03 843.99 115.19 390.52 348.75 34.00 444.76 385.23 815.48
1004.83 942.75 606.94 527.28 498.16 995.59 913.49 162.15 520.36 812.52 461.71 576.28 984.86 739.52 745.74 629.97 193.98 876.22 0.00 985.89 392.98 639.12 834.70 627.89 966.04 962.01 706.46 660.87 287.64 651.03 1012.75 785.14 811.37 493.11 496.77 907.37 752.05 606.32 1005.88 614.16 710.20 652.15 655.64 876.49 324.90 903.86 499.91 1022.20 554.87 853.30 703.54 154.21 688.67 649.29 275.74 152.09 398.24 611.64 615.44 598.78 104.80 681.17 582.46 788.46 659.81 511.20 645.44 198.23 613.53 666.07 1012.33 890.90 604.41 170.27 854.18 530.14 802.30 842.22 743.43 1032.00 393.35
830.52 93.20 704.08 701.56 806.18 289.73 147.87 843.86 643.90 925.22 709.10 409.61 370.05 338.52 509.57 428.75 911.99 159.86 985.89 0.00 725.44 845.68 442.10 555.32 392.52 97.37 454.81 609.39 1054.52 801.82 286.09 294.05 785.78 826.55 1198.69 475.95 332.93 431.33 126.74 596.69 960.80 883.36 828.90 482.07 1117.45 199.09 1056.88 275.38 896.22 821.12 481.16 1056.64 816.79 851.62 1010.62 833.80 811.98 524.94 654.82 571.35 1043.36 844.27 902.08 847.90 376.14 534.38 600.34 1063.15 469.73 755.79 78.48 649.50 529.84 924.10 206.72 543.69 508.61 155.94 532.07 253.32 937.42
691.29 656.96 348.95 241.18 105.18 901.96 684.22 250.95 216.40 758.38 340.86 384.19 814.28 476.47 659.01 377.87 249.82 647.40 392.98 725.44 0.00 652.47 553.87 515.16 798.25 628.07 578.13 311.02 443.94 269.72 884.80 575.20 732.81 560.55 573.76 606.41 630.62 428.25 793.86 517.32 747.13 690.15 635.69 726.63 430.81 715.53 671.70 888.28 241.33 876.87 579.31 494.77 649.95 609.79 613.42 240.89 465.68 354.50 314.42 309.21 450.45 673.86 682.53 774.78 436.90 325.92 291.20 355.46 409.71 588.95 745.60 589.88 263.96 331.19 532.21 315.22 514.13 671.90 418.12 879.56 223.67
1197.13 787.11 905.61 782.17 715.15 841.23 919.39 568.45 731.68 192.81 446.08 658.08 631.35 771.15 517.71 711.77 656.70 902.92 639.12 845.68 652.47 0.00 985.28 493.16 653.82 830.68 586.04 812.98 823.53 922.19 845.42 826.58 294.31 215.44 847.58 973.21 627.36 636.94 886.99 373.00 119.28 41.84 16.78 654.78 760.60 947.85 274.80 769.68 851.30 371.39 436.05 578.14 169.10 65.59 403.50 578.51 254.38 532.30 858.41 701.98 534.32 112.04 56.66 279.11 696.17 749.09 748.34 807.86 572.93 124.52 838.73 1081.44 659.72 585.53 875.60 736.79 951.97 935.49 869.22 813.26 859.83
425.62 398.05 288.71 375.01 584.95 703.88 336.21 692.67 439.30 1043.27 644.13 327.20 773.97 366.42 646.12 273.51 760.80 282.24 834.70 442.10 553.87 985.28 0.00 547.60 751.50 393.39 581.80 284.88 794.93 419.25 695.01 315.92 850.90 808.93 980.44 72.67 520.57 397.44 568.84 659.32 1097.44 1022.64 1002.06 704.72 732.00 321.68 1064.78 695.76 526.10 994.96 650.16 842.67 935.62 975.50 1012.82 682.61 829.67 452.98 239.45 329.76 892.17 963.10 984.10 923.52 351.58 357.61 289.44 735.22 459.39 874.62 520.58 207.40 387.42 772.91 397.43 376.55 66.51 316.24 162.52 667.47 577.72
867.40 519.47 550.41 485.38 516.56 526.49 501.90 485.86 410.19 568.37 233.03 220.40 411.71 307.53 190.26 274.09 553.99 511.91 627.89 555.32 515.16 493.16 547.60 0.00 389.24 524.54 141.02 483.25 717.85 656.46 514.34 339.80 421.21 333.41 869.29 620.27 282.64 150.16 481.97 134.82 549.84 475.04 499.81 299.69 728.46 539.55 649.89 475.18 624.74 534.74 107.01 594.77 469.43 451.00 608.16 475.80 359.68 160.66 525.11 372.25 685.36 496.91 436.50 475.58 236.53 352.93 437.92 608.29 152.18 408.43 509.69 709.80 293.26 533.51 428.07 354.48 514.29 477.91 481.05 560.59 711.30
1056.71 385.11 794.84 713.29 731.57 206.59 424.05 820.83 668.66 585.63 544.77 456.31 22.47 385.08 226.62 510.00 842.68 478.02 966.04 392.52 798.25 653.82 751.50 389.24 0.00 428.68 309.77 700.15 1070.33 915.93 223.75 483.81 393.26 557.39 1189.24 721.60 230.93 408.06 339.32 371.47 635.17 683.61 637.04 89.55 1040.20 507.91 841.41 160.80 867.72 537.32 333.12 831.42 518.47 588.23 844.81 813.95 596.33 443.75 745.58 589.15 926.06 580.15 660.97 465.88 456.76 559.14 654.82 986.73 452.43 560.55 314.04 838.49 572.35 853.46 461.13 578.08 684.99 495.32 652.03 224.15 966.65
781.81 43.57 610.13 651.48 717.19 332.90 98.22 821.50 567.06 875.59 619.37 387.25 409.67 241.15 433.42 339.76 837.36 111.15 962.01 97.37 628.07 830.68 393.39 524.54 428.68 0.00 401.96 565.79 991.70 704.45 350.06 197.62 760.97 776.92 1162.54 427.24 256.29 387.26 224.11 572.29 933.99 872.52 847.46 391.30 1028.47 147.66 959.51 364.40 802.52 779.82 495.31 966.44 767.16 823.37 933.98 811.44 793.41 427.57 562.69 482.36 1017.38 794.64 887.34 833.59 320.86 471.56 502.97 983.53 372.36 706.16 175.85 600.79 453.66 829.30 109.35 475.54 459.90 119.79 434.70 312.99 840.99
938.43 402.53 577.26 546.55 609.36 390.48 433.47 564.43 494.88 602.84 366.58 254.60 332.24 283.65 131.24 308.29 603.50 487.44 706.46 454.81 578.13 586.04 581.80 141.02 309.77 401.96 0.00 554.28 858.87 714.04 373.32 376.19 410.47 474.43 980.45 654.47 162.80 186.55 460.00 244.03 657.79 615.83 569.26 268.31 848.51 445.91 654.98 334.16 583.43 533.59 149.99 703.98 479.85 520.45 659.55 554.37 468.89 223.63 559.31 445.41 675.68 581.11 577.52 483.09 260.04 389.32 475.83 749.31 244.98 540.85 421.04 737.06 350.84 644.67 379.69 388.68 548.49 504.74 473.40 419.57 747.69
384.15 589.15 94.69 181.15 361.72 777.54 524.72 518.84 220.54 972.23 495.33 303.51 722.62 369.74 622.43 253.60 560.84 473.79 660.87 609.39 311.02 812.98 284.88 483.25 700.15 565.79 554.28 0.00 620.07 225.23 772.47 429.69 840.36 759.81 857.51 357.55 469.22 373.75 726.83 554.48 918.08 850.66 796.20 692.26 637.49 515.09 867.87 787.97 327.88 984.42 590.26 762.66 823.39 780.74 873.77 508.78 687.03 389.31 45.43 111.00 715.34 854.31 838.40 912.98 340.42 178.39 78.45 592.55 395.41 850.93 685.46 298.41 256.71 599.08 472.07 179.64 249.76 453.45 153.75 795.02 435.51
806.56 961.32 593.72 438.92 338.76 1144.17 983.57 324.61 539.34 1016.34 558.36 656.19 1047.86 765.44 869.67 657.86 260.72 929.60 287.64 1054.52 443.94 823.53 794.93 717.85 1070.33 991.70 858.87 620.07 0.00 468.69 1127.01 794.08 996.11 675.34 311.37 839.28 865.80 722.91 1058.33 725.98 848.03 834.38 840.31 1006.74 62.93 975.72 610.96 1129.72 356.60 1015.76 763.17 441.85 870.90 831.52 563.38 314.55 580.47 724.83 619.82 607.72 392.44 863.40 804.37 970.69 685.73 520.14 587.43 109.56 703.14 848.30 1095.74 794.76 613.35 404.85 882.35 539.08 728.42 932.19 667.78 1136.77 267.22
430.66 747.77 216.35 204.40 230.72 911.91 726.87 520.67 304.82 1028.10 610.58 459.62 938.40 553.16 778.54 477.11 484.22 699.02 651.03 801.82 269.72 922.19 419.25 656.46 915.93 704.45 714.04 225.23 468.69 0.00 901.93 616.25 946.85 734.39 732.53 428.18 686.76 527.49 877.13 711.00 1016.85 959.87 905.41 846.00 484.09 740.32 941.42 806.83 195.61 1059.43 720.61 750.15 919.67 879.51 883.14 510.61 732.19 495.80 179.80 336.23 720.17 922.45 906.26 956.41 516.35 393.99 303.68 452.80 551.01 858.67 828.87 453.09 363.20 595.62 674.31 375.05 403.01 678.68 307.79 943.48 257.68
1040.26 315.67 798.53 816.17 809.11 17.16 389.45 937.75 716.39 772.15 699.18 588.95 233.43 519.53 381.03 626.91 954.40 412.77 1012.75 286.09 884.80 845.42 695.01 514.34 223.75 350.06 373.32 772.47 1127.01 901.93 0.00 456.49 617.01 781.14 1274.99 685.69 365.38 551.38 159.35 525.88 821.17 817.67 843.93 243.96 1189.94 440.41 1000.95 95.10 945.26 640.84 444.84 985.83 691.61 799.19 999.22 927.69 750.74 565.07 749.27 661.47 1049.00 767.85 866.56 582.00 518.83 606.87 727.14 1098.45 614.04 720.90 207.61 902.41 620.84 939.21 421.00 625.81 718.99 378.77 755.65 46.25 1078.37
705.86 213.02 485.71 469.86 530.15 460.13 209.38 683.59 369.44 895.19 467.41 259.88 472.20 98.73 482.31 219.24 681.86 172.11 785.14 294.05 575.20 826.58 315.92 339.80 483.81 197.62 376.19 429.69 794.08 616.25 456.49 0.00 751.46 673.21 1038.45 388.59 252.88 189.64 297.14 453.58 889.64 814.84 818.57 459.85 857.01 199.75 898.98 491.42 660.10 840.29 433.83 824.02 768.48 769.76 858.04 684.07 659.11 300.41 436.45 318.69 883.09 787.45 776.30 802.40 178.44 273.94 365.65 812.38 286.41 748.23 301.66 487.64 311.24 733.12 88.27 292.88 343.48 138.11 314.22 423.72 643.37
1185.14 760.40 840.80 822.72 826.48 599.85 817.31 731.98 722.30 192.37 550.10 576.83 415.73 684.11 344.03 630.52 763.73 867.73 811.37 785.78 732.81 294.31 850.90 421.21 393.26 760.97 410.47 840.36 996.11 946.85 617.01 751.46 0.00 320.77 1070.88 923.57 573.27 561.82 724.76 355.27 353.97 297.10 277.53 451.80 933.18 856.38 493.81 554.06 943.73 144.06 349.01 697.67 125.21 288.19 535.63 721.92 415.64 451.05 881.54 729.36 792.31 214.62 350.71 72.62 648.19 676.86 770.39 914.89 471.17 186.21 707.30 1000.19 583.65 747.78 790.16 660.72 870.72 833.73 823.24 617.41 956.48
1143.96 733.35 703.59 622.66 657.13 763.98 834.43 481.59 668.03 342.39 286.57 553.81 579.86 610.38 476.40 535.42 442.96 820.54 493.11 826.55 560.55 215.44 808.93 333.41 557.39 776.92 474.43 759.81 675.34 734.39 781.14 673.21 320.77 0.00 776.06 881.60 616.05 483.57 731.21 287.47 327.41 253.12 198.66 569.39 612.41 859.61 316.48 718.19 793.28 461.81 403.00 434.22 195.56 247.47 343.35 471.53 94.87 478.37 752.85 678.02 480.83 188.06 228.10 358.79 530.67 663.56 703.45 594.12 470.13 172.96 779.47 999.74 587.70 440.28 753.28 664.77 775.62 811.32 767.33 781.54 692.88
1116.89 1189.54 880.93 750.29 538.74 1292.15 1114.02 416.02 669.01 1006.83 715.58 850.27 1211.71 958.12 1006.70 859.52 504.27 1076.75 496.77 1198.69 573.76 847.58 980.44 869.29 1189.24 1162.54 980.45 857.51 311.37 732.53 1274.99 1038.45 1070.88 776.06 0.00 1024.79 1005.92 909.90 1279.87 817.77 927.83 879.47 830.80 1099.69 248.44 1104.39 707.83 1210.83 666.93 1041.81 930.31 464.53 965.43 879.61 584.76 426.08 681.19 865.51 864.93 778.55 455.97 934.16 864.49 998.26 918.55 778.53 844.22 375.11 898.32 949.02 1266.20 980.27 745.61 335.78 1083.43 796.11 913.93 1042.75 945.79 1321.24 474.85
354.57 431.90 358.11 419.36 602.04 675.85 370.06 765.34 413.79 1115.94 688.48 399.87 744.07 410.77 718.79 346.18 761.86 316.09 907.37 475.95 606.41 973.21 72.67 620.27 721.60 427.24 654.47 357.55 839.28 428.18 685.69 388.59 923.57 881.60 1024.79 0.00 564.92 470.11 602.69 731.99 1088.33 1010.89 956.43 632.05 776.35 384.22 1109.13 751.33 595.50 1067.63 722.83 915.34 1008.29 1005.24 1057.17 755.28 880.18 525.65 312.12 374.11 964.84 1035.77 1029.61 996.19 424.25 401.96 333.79 807.89 532.06 947.29 554.43 226.46 458.46 845.58 431.28 420.90 110.86 350.07 206.87 639.44 622.07
825.78 239.73 563.91 482.36 527.04 348.22 354.51 589.90 467.76 707.30 457.10 269.88 253.40 154.15 229.43 323.57 678.15 355.54 752.05 332.93 630.62 627.36 520.57 282.64 230.93 256.29 162.80 469.22 865.80 686.76 365.38 252.88 573.27 616.05 1005.92 564.92 0.00 202.86 297.20 361.47 742.48 665.04 610.58 228.29 873.98 403.95 817.78 327.68 663.19 696.39 245.94 821.42 578.04 616.40 677.69 599.96 576.76 313.63 514.65 358.22 789.40 640.62 683.76 614.51 225.83 360.48 423.89 829.31 299.63 552.14 260.28 607.56 366.66 670.14 248.24 379.42 454.06 376.08 421.10 384.63 764.00
757.90 369.31 424.21 362.19 426.03 534.22 385.36 493.95 312.29 717.71 277.77 70.24 430.53 161.31 317.79 123.93 492.22 361.75 606.32 431.33 428.25 636.94 397.44 150.16 408.06 387.26 186.55 373.75 722.91 527.49 551.38 189.64 561.82 483.57 909.90 470.11 202.86 0.00 486.78 263.94 700.00 625.20 628.93 318.51 770.05 389.39 709.34 460.03 562.18 684.90 257.17 693.24 619.59 580.12 668.40 494.43 469.47 110.77 374.95 266.53 693.45 647.07 586.66 625.74 86.37 202.77 295.30 643.38 96.77 558.59 445.43 594.16 164.29 574.19 277.91 204.32 364.13 327.75 330.89 570.63 561.14
957.26 219.94 734.96 721.55 824.24 162.99 243.20 863.85 666.58 887.83 663.09 429.60 324.05 387.72 476.79 483.29 931.98 286.60 1005.88 126.74 793.86 886.99 568.84 481.97 339.32 224.11 460.00 726.83 1058.33 877.13 159.35 297.14 724.76 731.21 1279.87 602.69 297.20 486.78 0.00 566.47 958.74 898.00 870.21 389.79 1121.26 322.54 1047.69 235.03 922.95 706.73 450.94 1026.42 771.94 821.40 974.89 853.79 781.76 555.38 697.33 615.83 1063.35 873.20 894.14 727.83 467.43 565.65 654.66 1083.14 561.79 832.94 48.26 776.24 549.83 944.09 261.65 563.68 635.35 282.68 611.36 126.58 940.51
938.63 567.27 604.95 542.40 564.31 508.72 633.76 486.14 441.98 514.21 307.18 332.12 393.94 425.25 188.93 385.81 574.39 596.49 614.16 596.69 517.32 373.00 659.32 134.82 371.47 572.29 244.03 554.48 725.98 711.00 525.88 453.58 355.27 287.47 817.77 731.99 361.47 263.94 566.47 0.00 453.52 411.56 364.99 281.92 742.40 624.13 516.59 497.85 672.49 499.33 115.53 459.95 405.78 316.18 473.34 496.20 224.86 215.20 599.91 463.67 554.59 389.75 388.92 427.89 350.31 376.09 510.33 725.55 199.93 344.78 518.21 764.34 347.80 481.99 541.85 395.03 626.01 562.49 532.84 545.13 704.43
1302.23 890.42 1012.77 859.14 786.90 804.01 970.38 637.02 846.80 188.30 523.05 770.24 657.64 842.90 583.79 823.93 725.27 1006.23 710.20 960.80 747.13 119.28 1097.44 549.84 635.17 933.99 657.79 918.08 848.03 1016.85 821.17 889.64 353.97 327.41 927.83 1088.33 742.48 700.00 958.74 453.52 0.00 77.44 131.90 577.21 848.89 1019.60 237.07 784.35 923.05 369.40 507.80 591.24 240.61 137.34 434.46 647.08 331.35 651.58 963.51 817.10 625.85 139.35 148.19 378.45 786.37 824.68 848.03 876.43 653.45 227.83 910.48 1200.72 731.47 621.13 948.79 808.54 1064.13 1016.01 974.95 840.42 967.23
1234.81 828.95 936.50 781.70 744.94 807.83 961.23 610.29 769.36 230.49 445.61 695.44 661.14 782.57 520.50 749.13 657.97 944.76 652.15 883.36 690.15 41.84 1022.64 475.04 683.61 872.52 615.83 850.66 834.38 959.87 817.67 814.84 297.10 253.12 879.47 1010.89 665.04 625.20 898.00 411.56 77.44 0.00 54.46 622.06 771.45 977.64 232.96 799.47 881.09 389.83 465.84 587.13 171.89 95.38 400.61 620.35 253.91 574.14 896.09 739.66 548.41 109.59 70.75 320.95 711.57 779.58 790.18 809.13 608.88 166.36 868.52 1123.28 689.51 543.69 903.11 766.58 989.33 952.95 906.90 771.42 901.67
1180.35 803.89 890.89 769.33 698.37 834.09 936.17 585.23 714.90 176.03 462.86 674.86 614.57 754.37 500.93 728.55 641.62 919.70 655.64 828.90 635.69 16.78 1002.06 499.81 637.04 847.46 569.26 796.20 840.31 905.41 843.93 818.57 277.53 198.66 830.80 956.43 610.58 628.93 870.21 364.99 131.90 54.46 0.00 638.00 777.38 931.07 270.98 752.90 834.52 354.61 419.27 561.36 152.32 48.81 420.02 595.29 271.16 549.08 841.63 685.20 550.84 103.36 73.18 295.89 711.24 736.15 750.87 792.78 564.92 141.30 821.95 1094.61 642.94 598.15 858.82 720.01 948.45 927.48 852.44 797.68 859.36
986.62 427.69 742.72 680.70 744.54 226.80 489.52 734.46 630.80 608.84 455.22 388.75 112.02 382.44 137.07 442.44 753.13 486.77 876.49 482.07 726.63 654.78 704.72 299.69 89.55 391.30 268.31 692.26 1006.74 846.00 243.96 459.85 451.80 569.39 1099.69 632.05 228.29 318.51 389.79 281.92 577.21 622.06 638.00 0.00 950.65 538.96 798.51 215.93 851.74 595.86 243.57 741.87 485.68 598.10 755.26 724.40 506.78 422.89 693.46 585.04 836.51 586.94 622.60 524.42 404.88 521.28 613.81 897.18 415.28 546.68 403.59 835.85 482.80 763.91 371.58 522.83 682.35 511.09 649.39 263.21 877.10
868.45 1024.25 655.88 501.85 401.69 1177.45 1046.50 284.08 602.27 953.41 495.43 718.33 1062.67 828.37 813.58 720.79 277.83 992.53 324.90 1117.45 430.81 760.60 732.00 728.46 1040.20 1028.47 848.51 637.49 62.93 484.09 1189.94 857.01 933.18 612.41 248.44 776.35 873.98 770.05 1121.26 742.40 848.89 771.45 777.38 950.65 0.00 1011.46 673.89 1099.93 418.49 975.23 776.59 479.11 807.97 768.59 505.37 294.14 517.54 687.23 616.49 670.65 414.51 800.47 741.44 907.76 748.66 583.07 650.36 126.67 742.44 785.37 1132.51 731.83 654.20 364.32 919.12 602.01 665.49 995.12 730.71 1196.89 226.41
738.79 183.94 593.22 649.01 729.90 443.74 83.86 831.88 569.19 973.16 667.16 397.63 530.38 289.09 577.15 353.25 867.63 68.13 903.86 199.09 715.53 947.85 321.68 539.55 507.91 147.66 445.91 515.09 975.72 740.32 440.41 199.75 856.38 859.61 1104.39 384.22 403.95 389.39 322.54 624.13 1019.60 977.64 931.07 538.96 1011.46 0.00 1036.77 474.47 819.80 920.19 511.80 1014.38 890.31 882.26 1057.79 821.82 842.62 479.41 560.52 486.18 1008.66 917.79 955.00 880.37 328.94 473.69 551.85 978.15 424.20 829.31 277.57 529.08 467.16 912.12 183.32 458.65 345.97 61.64 441.98 407.33 843.12
1252.02 1003.08 885.66 823.57 776.88 1012.38 1018.68 420.75 778.96 425.37 487.48 744.76 818.94 822.64 704.71 798.45 509.00 1009.13 499.91 1056.88 671.70 274.80 1064.78 649.89 841.41 959.51 654.98 867.87 610.96 941.42 1000.95 898.98 493.81 316.48 707.83 1109.13 817.78 709.34 1047.69 516.59 237.07 232.96 270.98 798.51 673.89 1036.77 0.00 905.85 813.47 606.47 623.64 354.17 368.60 253.18 271.80 430.81 295.78 667.78 894.16 756.87 395.11 326.75 303.71 549.23 742.93 707.17 822.54 660.16 612.57 370.39 1026.32 1120.22 765.30 490.42 900.61 688.23 998.27 975.13 924.11 1004.38 750.96
1105.90 320.83 853.59 810.04 847.43 106.53 423.25 880.17 719.10 726.84 604.50 530.27 138.33 481.83 353.00 575.86 937.66 435.24 1022.20 275.38 888.28 769.68 695.76 475.18 160.80 364.40 334.16 787.97 1129.72 806.83 95.10 491.42 554.06 718.19 1210.83 751.33 327.68 460.03 235.03 497.85 784.35 799.47 752.90 215.93 1099.93 474.47 905.85 0.00 917.59 545.74 459.50 957.80 679.27 704.09 971.19 870.11 722.71 557.79 804.33 685.90 1009.84 692.14 776.83 626.68 467.78 609.58 729.75 1083.47 556.80 676.41 196.90 903.16 624.32 875.05 403.15 628.52 723.13 431.32 748.78 136.65 1021.17
449.96 820.60 237.39 239.00 136.15 962.42 785.42 392.72 339.42 999.71 538.66 527.29 845.25 561.37 714.67 510.50 377.11 795.62 554.87 896.22 241.33 851.30 526.10 624.74 867.72 802.52 583.43 327.88 356.60 195.61 945.26 660.10 943.73 793.28 666.93 595.50 663.19 562.18 922.95 672.49 923.05 881.09 834.52 851.74 418.49 819.80 813.47 917.59 0.00 1060.91 649.22 629.84 891.28 785.71 755.19 402.78 698.41 527.77 286.65 367.90 592.22 859.28 811.69 957.89 564.20 429.86 302.23 358.03 472.56 830.28 909.24 533.54 437.89 466.26 695.85 429.36 484.64 781.33 412.82 991.51 218.99
1262.67 736.25 984.86 855.03 970.54 652.27 868.53 691.15 866.36 181.10 615.44 720.89 559.79 741.56 488.09 769.93 779.40 852.06 853.30 821.12 876.87 371.39 994.96 534.74 537.32 779.82 533.59 984.42 1015.76 1059.43 640.84 840.29 144.06 461.81 1041.81 1067.63 696.39 684.90 706.73 499.33 369.40 389.83 354.61 595.86 975.23 920.19 606.47 545.74 1060.91 0.00 471.59 804.92 269.27 387.43 667.60 701.21 493.24 595.11 998.40 873.42 879.20 313.86 427.79 103.02 661.85 820.92 914.45 930.56 615.23 288.85 742.64 1144.25 727.71 706.03 861.00 804.78 1010.13 886.06 952.67 682.39 1021.36
958.90 451.74 614.56 588.01 593.96 462.00 559.15 592.87 487.59 461.36 300.55 327.41 355.59 335.10 106.50 381.10 509.56 563.23 703.54 481.16 579.31 436.05 650.16 107.01 333.12 495.31 149.99 590.26 763.17 720.61 444.84 433.83 349.01 403.00 930.31 722.83 245.94 257.17 450.94 115.53 507.80 465.84 419.27 243.57 776.59 511.80 623.64 459.50 649.22 471.59 0.00 575.48 455.11 370.46 579.30 582.81 330.82 224.81 632.12 479.26 670.12 444.03 443.20 368.57 315.99 429.05 544.15 653.61 229.58 460.31 402.68 770.01 357.41 594.53 448.04 434.48 621.30 562.55 588.06 484.42 633.53
1079.80 1010.01 708.73 600.04 528.48 968.67 949.34 243.82 602.03 736.94 447.92 678.07 853.89 725.29 648.88 706.51 265.93 986.74 154.21 1056.64 494.77 578.14 842.67 594.77 831.42 966.44 703.98 762.66 441.85 750.15 985.83 824.02 697.67 434.22 464.53 915.34 821.42 693.24 1026.42 459.95 591.24 587.13 561.36 741.87 479.11 1014.38 354.17 957.80 629.84 804.92 575.48 0.00 629.78 512.55 200.16 253.88 339.35 639.72 717.23 711.57 94.64 586.12 524.81 701.90 761.60 665.41 731.53 352.44 659.88 607.18 978.16 992.69 592.60 163.58 912.29 669.67 905.26 952.74 828.90 1005.08 510.24
1207.54 723.59 899.15 791.75 755.13 681.77 855.87 606.77 819.88 179.02 443.44 608.42 540.94 712.36 348.61 662.11 638.52 839.40 688.67 816.79 649.95 169.10 935.62 469.43 518.47 767.16 479.85 823.39 870.90 919.67 691.61 768.48 125.21 195.56 965.43 1008.29 578.04 619.59 771.94 405.78 240.61 171.89 152.32 485.68 807.97 890.31 368.60 679.27 891.28 269.27 455.11 629.78 0.00 164.24 521.66 596.71 290.43 576.26 868.82 799.38 667.77 101.26 225.50 180.63 632.65 744.47 744.94 789.68 596.38 61.00 820.20 1045.43 653.67 635.84 766.51 730.74 902.31 873.40 848.46 645.36 873.62
1164.89 779.80 875.43 778.84 649.56 794.35 912.08 579.87 758.16 224.84 442.75 648.30 565.76 705.56 476.96 701.99 655.11 895.61 649.29 851.62 609.79 65.59 975.50 451.00 588.23 823.37 520.45 780.74 831.52 879.51 799.19 769.76 288.19 247.47 879.61 1005.24 616.40 580.12 821.40 316.18 137.34 95.38 48.81 598.10 768.59 882.26 253.18 704.09 785.71 387.43 370.46 512.55 164.24 0.00 419.58 589.93 251.05 531.38 826.17 734.01 550.40 73.57 72.74 303.04 666.49 687.34 780.87 806.27 516.11 117.21 773.14 1079.15 594.13 596.46 818.50 671.20 941.73 878.67 849.02 767.44 833.46
1146.28 917.42 827.38 762.64 691.08 982.06 1032.20 362.47 720.68 536.78 390.63 708.21 867.28 829.71 662.27 761.90 450.72 1011.64 275.74 1010.62 613.42 403.50 1012.82 608.16 844.81 933.98 659.55 873.77 563.38 883.14 999.22 858.04 535.63 343.35 584.76 1057.17 677.69 668.40 974.89 473.34 434.46 400.61 420.02 755.26 505.37 1057.79 271.80 971.19 755.19 667.60 579.30 200.16 521.66 419.58 0.00 372.53 248.48 582.43 835.88 782.96 289.71 493.15 346.84 564.58 754.77 695.38 807.51 473.97 637.64 460.66 937.97 928.06 677.72 326.18 896.45 714.32 946.31 996.15 850.30 1018.47 669.09
852.74 790.66 454.85 468.69 346.07 944.85 807.66 10.06 368.27 705.14 309.62 424.19 832.77 587.43 627.77 477.88 78.19 753.69 152.09 833.80 240.89 578.51 682.61 475.80 813.95 811.44 554.37 508.78 314.55 510.61 927.69 684.07 721.92 471.53 426.08 755.28 599.96 494.43 853.79 496.20 647.08 620.35 595.29 724.40 294.14 821.82 430.81 870.11 402.78 701.21 582.81 253.88 596.71 589.93 372.53 0.00 403.73 459.55 463.35 477.81 209.56 624.19 627.63 663.89 507.72 449.72 532.09 229.35 513.10 535.71 860.24 738.81 462.77 90.30 702.09 468.66 686.56 767.04 591.34 973.94 320.15
1071.18 782.56 682.59 527.79 562.26 733.58 854.83 393.67 573.16 437.26 191.70 502.47 618.80 630.78 413.79 556.16 404.06 817.61 398.24 811.98 465.68 254.38 829.67 359.68 596.33 793.41 468.89 687.03 580.47 732.19 750.74 659.11 415.64 94.87 681.19 880.18 576.76 469.47 781.76 224.86 331.35 253.91 271.16 506.78 517.54 842.62 295.78 722.71 698.41 493.24 330.82 339.35 290.43 251.05 248.48 403.73 0.00 383.50 708.69 595.15 385.96 282.93 223.90 390.22 555.84 595.43 608.58 555.22 421.05 267.83 733.50 932.64 516.10 345.41 747.38 576.49 769.32 783.61 673.31 769.99 653.98
734.09 471.14 389.75 371.67 419.59 582.23 489.04 449.49 271.25 643.42 191.80 125.78 466.22 272.08 331.31 179.47 464.11 451.77 611.64 524.94 354.50 532.30 452.98 160.66 443.75 427.57 223.63 389.31 724.83 495.80 565.07 300.41 451.05 478.37 865.51 525.65 313.63 110.77 555.38 215.20 651.58 574.14 549.08 422.89 687.23 479.41 667.78 557.79 527.77 595.11 224.81 639.72 576.26 531.38 582.43 459.55 383.50 0.00 430.49 278.31 648.99 604.95 588.96 523.67 197.14 225.81 319.34 615.27 55.21 559.98 516.05 549.14 132.60 529.73 386.28 209.67 419.67 417.77 372.19 599.47 578.17
429.58 567.97 49.26 180.90 345.50 732.11 570.15 473.41 243.30 1017.66 540.76 304.71 768.05 394.94 623.63 299.03 541.54 519.22 615.44 654.82 314.42 858.41 239.45 525.11 745.58 562.69 559.31 45.43 619.82 179.80 749.27 436.45 881.54 752.85 864.93 312.12 514.65 374.95 697.33 599.91 963.51 896.09 841.63 693.46 616.49 560.52 894.16 804.33 286.65 998.40 632.12 717.23 868.82 826.17 835.88 463.35 708.69 430.49 0.00 156.43 672.91 899.74 883.83 932.91 336.55 223.82 123.88 585.20 436.90 852.13 649.07 275.46 302.14 553.65 494.51 225.07 223.21 498.88 127.99 768.52 390.08
495.15 478.15 205.69 209.96 336.14 678.63 481.69 467.75 109.54 861.23 403.45 196.29 611.62 308.41 515.21 142.60 510.12 427.72 598.78 571.35 309.21 701.98 329.76 372.25 589.15 482.36 445.41 111.00 607.72 336.23 661.47 318.69 729.36 678.02 778.55 374.11 358.22 266.53 615.83 463.67 817.10 739.66 685.20 585.04 670.65 486.18 756.87 685.90 367.90 873.42 479.26 711.57 799.38 734.01 782.96 477.81 595.15 278.31 156.43 0.00 667.25 787.32 758.38 801.98 250.68 87.58 65.67 588.14 284.41 743.71 618.50 409.41 145.71 547.99 406.96 68.64 263.25 450.59 167.24 704.21 532.38
1042.18 1000.22 664.41 578.40 555.63 1063.31 1015.30 199.50 557.71 726.87 499.06 633.75 948.53 796.99 743.52 687.44 287.75 963.25 104.80 1043.36 450.45 534.32 892.17 685.36 926.06 1017.38 675.68 715.34 392.44 720.17 1049.00 883.09 792.31 480.83 455.97 964.84 789.40 693.45 1063.35 554.59 625.85 548.41 550.84 836.51 414.51 1008.66 395.11 1009.84 592.22 879.20 670.12 94.64 667.77 550.40 289.71 209.56 385.96 648.99 672.91 667.25 0.00 623.97 477.66 776.18 717.28 616.00 636.89 287.84 645.02 653.79 1049.68 948.37 593.74 202.88 911.65 634.94 859.82 947.02 763.81 1095.25 482.96
1238.46 751.07 891.65 810.72 723.13 783.03 883.35 634.25 746.48 196.99 474.63 635.90 557.68 739.84 449.87 689.59 631.02 866.88 681.17 844.27 673.86 112.04 963.10 496.91 580.15 794.64 581.11 854.31 863.40 922.45 767.85 787.45 214.62 188.06 934.16 1035.77 640.62 647.07 873.20 389.75 139.35 109.59 103.36 586.94 800.47 917.79 326.75 692.14 859.28 313.86 444.03 586.12 101.26 73.57 493.15 624.19 282.93 604.95 899.74 787.32 623.97 0.00 146.31 258.82 660.13 760.91 846.20 782.18 589.68 88.48 846.71 1072.91 667.70 628.34 855.04 744.77 929.79 900.88 921.50 746.62 880.94
1222.55 843.77 906.49 751.69 675.54 849.40 938.40 617.57 788.08 249.21 415.60 656.90 638.50 744.03 549.70 710.59 627.96 934.69 582.46 902.08 682.53 56.66 984.10 436.50 660.97 887.34 577.52 838.40 804.37 906.26 866.56 776.30 350.71 228.10 864.49 1029.61 683.76 586.66 894.14 388.92 148.19 70.75 73.18 622.60 741.44 955.00 303.71 776.83 811.69 427.79 443.20 524.81 225.50 72.74 346.84 627.63 223.90 588.96 883.83 758.38 477.66 146.31 0.00 335.77 673.03 708.83 759.95 765.50 538.13 181.18 845.88 1121.88 666.87 569.31 864.57 720.98 950.79 900.69 886.87 840.18 877.88
1159.65 820.31 906.81 752.01 879.96 564.84 889.93 673.95 794.92 190.15 581.92 649.45 488.35 703.67 416.65 703.14 742.08 873.30 788.46 847.90 774.78 279.11 923.52 475.58 465.88 833.59 483.09 912.98 970.69 956.41 582.00 802.40 72.62 358.79 998.26 996.19 614.51 625.74 727.83 427.89 378.45 320.95 295.89 524.42 907.76 880.37 549.23 626.68 957.89 103.02 368.57 701.90 180.63 303.04 564.58 663.89 390.22 523.67 932.91 801.98 776.18 258.82 335.77 0.00 684.56 749.48 843.01 893.24 543.79 185.83 769.42 1072.81 656.27 735.63 816.61 733.34 943.34 839.30 895.86 601.25 984.04
707.47 282.94 385.81 374.89 459.30 535.99 303.76 517.78 275.11 741.08 364.14 83.53 479.23 79.71 319.81 108.08 560.25 337.80 659.81 376.14 436.90 696.17 351.58 236.53 456.76 320.86 260.04 340.42 685.73 516.35 518.83 178.44 648.19 530.67 918.55 424.25 225.83 86.37 467.43 350.31 786.37 711.57 711.24 404.88 748.66 328.94 742.93 467.78 564.20 661.85 315.99 761.60 632.65 666.49 754.77 507.72 555.84 197.14 336.55 250.68 717.28 660.13 673.03 684.56 0.00 165.59 261.97 704.03 183.14 571.65 436.00 533.12 172.94 598.02 222.61 184.53 348.28 307.16 290.82 552.36 647.51
562.54 441.18 264.73 209.30 293.71 624.03 463.43 459.78 109.52 852.90 403.73 136.05 581.61 245.30 454.97 137.72 510.10 409.46 511.20 534.38 325.92 749.09 357.61 352.93 559.14 471.56 389.32 178.39 520.14 393.99 606.87 273.94 676.86 663.56 778.53 401.96 360.48 202.77 565.65 376.09 824.68 779.58 736.15 521.28 583.07 473.69 707.17 609.58 429.86 820.92 429.05 665.41 744.47 687.34 695.38 449.72 595.43 225.81 223.82 87.58 616.00 760.91 708.83 749.48 165.59 0.00 134.24 538.44 234.71 683.47 575.60 413.05 93.21 540.02 362.21 18.94 291.10 412.05 254.82 616.63 516.83
462.60 518.37 173.14 148.51 330.46 744.30 515.34 533.42 175.21 923.96 416.88 225.06 677.29 291.29 543.98 208.27 493.59 493.39 645.44 600.34 291.20 748.34 289.44 437.92 654.82 502.97 475.83 78.45 587.43 303.68 727.14 365.65 770.39 703.45 844.22 333.79 423.89 295.30 654.66 510.33 848.03 790.18 750.87 613.81 650.36 551.85 822.54 729.75 302.23 914.45 544.15 731.53 744.94 780.87 807.51 532.09 608.58 319.34 123.88 65.67 636.89 846.20 759.95 843.01 261.97 134.24 0.00 559.91 345.15 772.48 607.01 375.44 186.74 584.97 393.62 134.31 222.93 503.76 126.92 750.87 482.60
807.99 979.62 566.20 411.40 379.45 1115.61 963.99 239.41 511.82 934.49 532.19 653.54 1009.20 783.74 760.11 655.28 151.16 910.02 198.23 1063.15 355.46 807.86 735.22 608.29 986.73 983.53 749.31 592.55 109.56 452.80 1098.45 812.38 914.89 594.12 375.11 807.89 829.31 643.38 1083.14 725.55 876.43 809.13 792.78 897.18 126.67 978.15 660.16 1083.47 358.03 930.56 653.61 352.44 789.68 806.27 473.97 229.35 555.22 615.27 585.20 588.14 287.84 782.18 765.50 893.24 704.03 538.44 559.91 0.00 616.16 765.06 1056.29 811.53 596.57 296.00 887.67 519.50 706.33 944.02 640.26 1138.03 195.12
779.56 415.93 444.96 358.43 364.38 630.99 433.83 504.70 258.01 663.54 247.01 132.19 429.96 250.66 293.16 185.88 465.00 396.56 613.53 469.73 409.71 572.93 459.39 152.18 452.43 372.36 244.98 395.41 703.14 551.01 614.04 286.41 471.17 470.13 898.32 532.06 299.63 96.77 561.79 199.93 653.45 608.88 564.92 415.28 742.44 424.20 612.57 556.80 472.56 615.23 229.58 659.88 596.38 516.11 637.64 513.10 421.05 55.21 436.90 284.41 645.02 589.68 538.13 543.79 183.14 234.71 345.15 616.16 0.00 544.71 542.20 604.35 187.81 562.54 361.52 215.77 426.08 362.56 417.79 615.54 563.34
1202.65 662.59 867.11 730.75 694.13 716.71 794.87 545.77 786.76 169.43 459.53 547.42 538.08 651.36 409.61 601.11 613.90 778.40 666.07 755.79 588.95 124.52 874.62 408.43 560.55 706.16 540.85 850.93 848.30 858.67 720.90 748.23 186.21 172.96 949.02 947.29 552.14 558.59 832.94 344.78 227.83 166.36 141.30 546.68 785.37 829.31 370.39 676.41 830.28 288.85 460.31 607.18 61.00 117.21 460.66 535.71 267.83 559.98 852.13 743.71 653.79 88.48 181.18 185.83 571.65 683.47 772.48 765.06 544.71 0.00 812.42 984.43 667.65 613.24 787.34 681.50 841.31 812.40 833.02 706.36 812.62
909.00 171.68 698.33 733.36 787.32 211.25 226.35 850.18 671.10 864.04 703.23 477.86 291.57 400.39 489.71 507.23 912.24 238.34 1012.33 78.48 745.60 838.73 520.58 509.69 314.04 175.85 421.04 685.46 1095.74 828.87 207.61 301.66 707.30 779.47 1266.20 554.43 260.28 445.43 48.26 518.21 910.48 868.52 821.95 403.59 1132.51 277.57 1026.32 196.90 909.24 742.64 402.68 978.16 820.20 773.14 937.97 860.24 733.50 516.05 649.07 618.50 1049.68 846.71 845.88 769.42 436.00 575.60 607.01 1056.29 542.20 812.42 0.00 727.98 598.09 930.42 213.39 569.21 587.09 234.42 579.91 174.84 945.03
218.22 605.45 296.15 450.95 525.33 902.31 543.61 748.87 518.76 1153.86 740.94 523.92 860.96 453.41 836.99 470.23 817.00 489.64 890.90 649.50 589.88 1081.44 207.40 709.80 838.49 600.79 737.06 298.41 794.76 453.09 902.41 487.64 1000.19 999.74 980.27 226.46 607.56 594.16 776.24 764.34 1200.72 1123.28 1094.61 835.85 731.83 529.08 1120.22 903.16 533.54 1144.25 770.01 992.69 1045.43 1079.15 928.06 738.81 932.64 549.14 275.46 409.41 948.37 1072.91 1121.88 1072.81 533.12 413.05 375.44 811.53 604.35 984.43 727.98 0.00 506.26 829.11 575.91 431.99 230.03 523.64 326.04 865.90 665.54
640.86 443.93 322.86 266.63 301.74 638.00 421.56 472.83 166.21 776.02 324.40 120.23 594.82 212.51 439.15 113.91 502.21 399.03 604.41 529.84 263.96 659.72 387.42 293.26 572.35 453.66 350.84 256.71 613.35 363.20 620.84 311.24 583.65 587.70 745.61 458.46 366.66 164.29 549.83 347.80 731.47 689.51 642.94 482.80 654.20 467.16 765.30 624.32 437.89 727.71 357.41 592.60 653.67 594.13 677.72 462.77 516.10 132.60 302.14 145.71 593.74 667.70 666.87 656.27 172.94 93.21 186.74 596.57 187.81 667.65 598.09 506.26 0.00 553.07 395.55 77.07 347.60 433.03 259.03 615.60 487.63
916.22 872.87 545.15 436.46 364.90 956.37 897.96 80.24 438.45 774.18 379.80 514.49 875.93 677.73 670.92 568.18 168.49 843.99 170.27 924.10 331.19 585.53 772.91 533.51 853.46 829.30 644.67 599.08 404.85 595.62 939.21 733.12 747.78 440.28 335.78 845.58 670.14 574.19 944.09 481.99 621.13 543.69 598.15 763.91 364.32 912.12 490.42 875.05 466.26 706.03 594.53 163.58 635.84 596.46 326.18 90.30 345.41 529.73 553.65 547.99 202.88 628.34 569.31 735.63 598.02 540.02 584.97 296.00 562.54 613.24 930.42 829.11 553.07 0.00 792.39 558.96 741.68 857.34 665.32 985.46 410.45
785.85 124.75 541.95 542.13 618.42 424.64 152.01 712.15 457.71 872.09 555.68 277.90 483.60 187.00 471.11 307.51 770.13 115.19 854.18 206.72 532.21 875.60 397.43 428.07 461.13 109.35 379.69 472.07 882.35 674.31 421.00 88.27 790.16 753.28 1083.43 431.28 248.24 277.91 261.65 541.85 948.79 903.11 858.82 371.58 919.12 183.32 900.61 403.15 695.85 861.00 448.04 912.29 766.51 818.50 896.45 702.09 747.38 386.28 494.51 406.96 911.65 855.04 864.57 816.61 222.61 362.21 393.62 887.67 361.52 787.34 213.39 575.91 395.55 792.39 0.00 381.15 410.53 144.94 366.52 388.23 731.64
563.79 460.12 245.79 190.36 312.65 642.97 444.49 478.72 127.10 850.93 384.79 134.08 581.09 264.24 453.00 135.78 527.68 390.52 530.14 543.69 315.22 736.79 376.55 354.48 578.08 475.54 388.68 179.64 539.08 375.05 625.81 292.88 660.72 664.77 796.11 420.90 379.42 204.32 563.68 395.03 808.54 766.58 720.01 522.83 602.01 458.65 688.23 628.52 429.36 804.78 434.48 669.67 730.74 671.20 714.32 468.66 576.49 209.67 225.07 68.64 634.94 744.77 720.98 733.34 184.53 18.94 134.31 519.50 215.77 681.50 569.21 431.99 77.07 558.96 381.15 0.00 310.04 424.52 235.88 635.57 535.77
443.22 464.56 247.25 308.50 538.82 701.83 402.72 696.62 372.79 1010.74 577.62 293.89 707.46 299.91 612.81 240.20 716.52 348.75 802.30 508.61 514.13 951.97 66.51 514.29 684.99 459.90 548.49 249.76 728.42 403.01 718.99 343.48 870.72 775.62 913.93 110.86 454.06 364.13 635.35 626.01 1064.13 989.33 948.45 682.35 665.49 345.97 998.27 723.13 484.64 1010.13 621.30 905.26 902.31 941.73 946.31 686.56 769.32 419.67 223.21 263.25 859.82 929.79 950.79 943.34 348.28 291.10 222.93 706.33 426.08 841.31 587.09 230.03 347.60 741.68 410.53 310.04 0.00 382.75 96.01 733.98 511.21
704.64 149.81 548.14 603.00 668.26 395.93 71.27 777.10 507.55 981.83 605.52 342.85 517.79 227.45 553.21 319.12 819.97 34.00 842.22 155.94 671.90 935.49 316.24 477.91 495.32 119.79 504.74 453.45 932.19 678.68 378.77 138.11 833.73 811.32 1042.75 350.07 376.08 327.75 282.68 562.49 1016.01 952.95 927.48 511.09 995.12 61.64 975.13 431.32 781.33 886.06 562.55 952.74 873.40 878.67 996.15 767.04 783.61 417.77 498.88 450.59 947.02 900.88 900.69 839.30 307.16 412.05 503.76 944.02 362.56 812.40 234.42 523.64 433.03 857.34 144.94 424.52 382.75 0.00 452.33 409.26 781.48
519.36 439.98 175.43 228.86 442.81 745.81 467.18 601.40 276.78 1002.45 481.61 285.60 674.50 266.95 604.52 231.91 620.51 444.76 743.43 532.07 418.12 869.22 162.52 481.05 652.03 434.70 473.40 153.75 667.78 307.79 755.65 314.22 823.24 767.33 945.79 206.87 421.10 330.89 611.36 532.84 974.95 906.90 852.44 649.39 730.71 441.98 924.11 748.78 412.82 952.67 588.06 828.90 848.46 849.02 850.30 591.34 673.31 372.19 127.99 167.24 763.81 921.50 886.87 895.86 290.82 254.82 126.92 640.26 417.79 833.02 579.91 326.04 259.03 665.32 366.52 235.88 96.01 452.33 0.00 709.40 518.07
994.01 269.42 817.78 825.93 855.36 36.41 369.78 974.53 726.15 791.40 701.46 556.18 201.68 514.30 383.31 604.97 993.98 385.23 1032.00 253.32 879.56 813.26 667.47 560.59 224.15 312.99 419.57 795.02 1136.77 943.48 46.25 423.72 617.41 781.54 1321.24 639.44 384.63 570.63 126.58 545.13 840.42 771.42 797.68 263.21 1196.89 407.33 1004.38 136.65 991.51 682.39 484.42 1005.08 645.36 767.44 1018.47 973.94 769.99 599.47 768.52 704.21 1095.25 746.62 840.18 601.25 552.36 616.63 750.87 1138.03 615.54 706.36 174.84 865.90 615.60 985.46 388.23 635.57 733.98 409.26 709.40 0.00 1067.09
668.95 849.17 439.34 436.69 328.85 1095.36 852.75 330.21 422.84 982.05 564.53 607.86 989.12 700.14 740.03 601.54 249.92 815.48 393.35 937.42 223.67 859.83 577.72 711.30 966.65 840.99 747.69 435.51 267.22 257.68 1078.37 643.37 956.48 692.88 474.85 622.07 764.00 561.14 940.51 704.43 967.23 901.67 859.36 877.10 226.41 843.12 750.96 1021.17 218.99 1021.36 633.53 510.24 873.62 833.46 669.09 320.15 653.98 578.17 390.08 532.38 482.96 880.94 877.88 984.04 647.51 516.83 482.60 195.12 563.34 812.62 945.03 665.54 487.63 410.45 731.64 535.77 511.21 781.48 518.07 1067.09 0.00
DEMAND_SECTION
1 0
2 7
3 9
4 8
5 8
6 7
7 9
8 6
9 8
10 10
11 8
12 5
13 5
14 8
15 6
16 7
17 8
18 5
19 6
20 7
21 5
22 8
23 10
24 9
25 9
26 5
27 6
28 5
29 9
30 5
31 9
32 6
33 8
34 7
35 9
36 9
37 6
38 7
39 6
40 8
41 5
42 10
43 9
44 5
45 10
46 8
47 7
48 7
49 7
50 10
51 5
52 8
53 6
54 10
55 5
56 9
57 7
58 5
59 7
60 6
61 7
62 7
63 5
64 10
65 5
66 5
67 10
68 6
69 9
70 6
71 6
72 5
73 5
74 7
75 7
76 9
77 9
78 5
79 10
80 8
81 5
DEPOT_SECTION
1
-1
EOF
