NAME: LDG80_2251_rain_80_0161
COMMENT: CVRP with travel times.  rootPos=2,custPos=2,demandType=5,avgRouteSizeIndex=1,weather=rain,lambda_cluster=1,lambda_random=4, T1=300,T2=700,beta=1, alpha(i,j) ~ U(0.8,1.2)
TYPE: CVRP
DIMENSION: 81
EDGE_WEIGHT_TYPE: EXPLICIT
EDGE_WEIGHT_FORMAT: FULL_MATRIX
CAPACITY: 357
NODE_COORD_SECTION
1 500 500
2 157 2
3 458 272
4 131 105
5 282 22
6 191 69
7 439 864
8 307 540
9 432 283
10 229 474
11 172 94
12 441 835
13 515 886
14 448 278
15 421 879
16 586 755
17 484 864
18 220 58
19 437 348
20 510 881
21 484 821
22 393 825
23 430 309
24 169 126
25 392 839
26 167 18
27 557 775
28 10 349
29 47 50
30 333 820
31 564 585
32 514 778
33 542 860
34 405 826
35 508 860
36 467 337
37 43 271
38 320 563
39 687 975
40 182 61
41 228 804
42 458 880
43 499 251
44 534 328
45 457 790
46 544 752
47 635 748
48 129 332
49 772 945
50 119 12
51 411 853
52 388 839
53 90 726
54 127 293
55 414 827
56 479 311
57 161 223
58 387 163
59 529 919
60 477 199
61 19 55
62 98 16
63 412 392
64 306 108
65 332 988
66 561 266
67 500 786
68 414 829
69 256 76
70 301 864
71 106 303
72 124 9
73 301 33
74 613 884
75 70 92
76 501 357
77 169 92
78 549 866
79 474 752
80 359 147
81 162 69
EDGE_WEIGHT_SECTION
0.00 615.88 291.12 622.77 635.05 519.36 474.87 360.02 317.45 393.75 597.59 423.63 468.15 275.22 472.44 381.45 432.72 608.67 267.57 473.17 371.84 424.42 259.33 558.40 405.97 634.44 409.87 738.72 700.99 483.37 149.70 369.00 455.43 443.12 408.95 251.82 631.00 299.81 693.93 547.38 604.47 443.99 320.85 237.03 399.73 371.49 399.12 486.70 665.08 653.78 448.34 418.36 749.84 545.62 446.00 274.61 665.17 432.94 456.84 397.25 747.76 650.60 177.79 532.75 646.06 316.82 315.51 434.07 613.69 562.35 536.32 641.20 619.78 533.31 661.87 180.13 594.39 437.91 393.30 507.51 565.23
615.88 0.00 451.22 161.73 212.21 96.52 1032.07 687.88 490.54 623.63 135.01 1031.95 1049.09 477.46 1075.13 997.33 1048.60 130.62 522.99 1073.85 987.72 1019.74 503.88 195.55 1019.12 34.98 971.29 512.15 158.97 992.45 765.58 976.28 1006.33 1011.56 1024.83 533.59 397.22 748.09 1232.36 111.97 926.65 1059.87 451.52 592.68 951.33 987.37 1015.00 442.40 1280.96 61.21 1029.23 1006.73 782.78 399.69 991.96 516.97 280.14 330.27 1072.72 430.97 174.74 88.02 609.58 274.25 1117.46 571.26 931.39 1003.89 193.31 1053.64 437.04 48.63 246.78 1095.32 155.80 592.24 142.38 1023.85 979.87 295.19 104.19
291.12 451.22 0.00 517.80 436.53 448.58 682.07 472.05 39.32 364.09 460.68 671.64 664.56 26.24 670.08 601.18 685.60 459.72 121.90 681.05 632.44 617.32 84.28 506.99 598.87 416.24 520.07 565.25 574.17 676.27 440.82 609.64 621.80 636.02 648.04 83.40 487.17 415.90 829.55 420.56 754.09 678.80 94.80 159.41 647.59 558.45 615.59 349.98 852.04 486.09 641.24 611.26 654.52 408.90 638.90 65.75 487.63 208.29 674.97 140.48 621.52 522.79 158.36 322.70 838.96 140.08 576.11 626.97 394.33 691.55 399.60 483.40 395.13 645.13 579.89 155.09 453.31 627.87 653.90 278.39 461.42
622.77 161.73 517.80 0.00 219.10 103.41 921.46 676.46 481.79 612.91 92.75 870.22 1001.29 492.72 947.57 1002.13 957.28 117.26 503.39 1013.16 923.05 938.87 484.28 72.78 942.99 126.75 997.15 443.82 172.85 981.03 772.47 956.47 963.68 936.77 994.84 492.49 280.08 736.67 1193.23 100.55 839.55 964.59 458.41 526.69 909.07 994.26 1010.48 328.54 1286.57 135.83 962.29 945.41 736.13 328.95 926.82 526.29 237.88 310.67 981.63 411.37 189.46 152.77 574.61 253.97 1117.00 551.66 938.28 914.89 182.65 923.36 278.92 148.41 260.71 1054.22 187.73 564.18 100.12 981.20 952.35 302.08 57.54
635.05 212.21 436.53 219.10 0.00 115.69 1010.93 719.62 449.60 663.66 193.92 960.97 1006.86 410.50 970.45 907.27 958.32 131.95 421.17 1029.43 1006.89 971.43 402.06 149.27 979.98 230.77 956.60 520.31 297.32 997.45 784.75 973.58 964.10 959.55 995.81 431.77 356.57 692.13 1167.20 143.71 937.98 1005.80 382.81 488.07 965.37 922.39 870.34 447.45 1186.23 224.08 977.22 987.86 840.15 404.26 939.95 448.15 297.71 228.45 1037.85 306.41 344.09 246.93 510.95 113.83 1075.30 446.70 950.56 951.88 104.26 1042.27 397.83 236.66 41.61 993.50 258.20 503.46 190.72 981.62 1012.18 192.39 161.56
519.36 96.52 448.58 103.41 115.69 0.00 990.76 603.93 409.26 621.01 78.23 942.99 968.52 423.56 991.80 900.81 952.08 89.31 465.96 992.53 891.20 943.78 446.85 99.03 925.33 115.08 924.62 470.07 181.63 908.50 669.06 888.36 974.79 962.48 928.31 440.52 306.33 664.14 1195.91 28.02 858.29 963.35 355.00 496.16 883.98 890.85 918.48 397.21 1184.44 134.42 967.70 937.72 724.46 342.91 965.36 459.74 223.36 273.24 976.20 367.00 228.40 131.24 555.74 216.61 1120.09 505.61 834.87 953.43 135.67 987.48 347.59 121.84 157.30 1002.25 142.51 495.72 75.03 957.27 912.66 198.67 45.87
474.87 1032.07 682.07 921.46 1010.93 990.76 0.00 450.91 696.15 493.89 952.81 51.24 143.41 708.31 43.06 273.52 52.61 901.45 653.35 123.72 104.07 76.16 697.72 955.44 83.20 1011.24 218.14 730.47 1079.76 146.34 385.23 196.75 169.36 97.70 90.17 681.19 831.80 431.94 347.21 985.12 299.08 43.13 697.14 695.02 147.69 216.09 298.31 687.50 438.65 1022.70 40.83 86.14 497.75 746.42 78.10 647.39 815.76 789.60 136.56 773.54 1050.81 1029.50 563.57 920.01 245.09 710.36 159.36 84.51 924.37 167.67 737.12 1035.28 969.32 217.35 1021.99 635.27 945.44 151.84 197.92 818.54 961.17
360.02 687.88 472.05 676.46 719.62 603.93 450.91 0.00 491.32 107.96 626.12 440.91 458.55 445.81 474.88 506.17 471.79 659.58 423.18 466.98 410.91 391.87 468.60 648.09 381.97 683.59 491.15 474.66 714.52 304.57 324.06 401.58 500.18 419.12 442.84 469.70 469.89 60.21 691.94 575.91 377.77 491.34 443.85 450.63 344.46 452.77 430.24 353.14 740.26 695.54 410.08 394.36 516.12 412.06 422.00 503.50 531.61 615.90 534.60 520.25 770.05 643.57 343.40 657.79 532.69 583.77 455.07 410.07 710.49 383.55 402.76 682.96 710.73 499.13 711.31 485.16 633.49 504.51 394.69 688.58 618.92
317.45 490.54 39.32 481.79 449.60 409.26 696.15 491.32 0.00 383.36 429.81 644.91 689.43 45.51 693.72 583.75 654.00 464.91 93.61 694.45 593.12 656.64 58.12 467.67 638.19 455.56 559.39 562.68 534.85 653.51 467.15 590.28 661.12 675.34 630.23 94.37 447.85 435.17 849.76 381.24 793.41 665.27 113.06 158.89 621.43 594.83 626.56 310.66 868.19 510.93 680.56 650.58 626.23 369.58 670.59 89.45 470.50 225.44 678.12 171.15 606.78 501.48 183.39 342.72 878.28 179.40 536.79 666.29 409.99 730.87 360.28 518.66 407.99 656.10 549.02 166.06 437.18 659.19 614.58 257.21 424.25
393.75 623.63 364.09 612.91 663.66 621.01 493.89 107.96 383.36 0.00 542.78 486.38 550.03 337.85 507.58 597.65 527.17 637.71 438.11 558.46 502.39 417.73 360.64 540.13 436.18 642.16 582.63 366.70 606.56 412.53 432.02 493.06 591.66 445.19 550.80 444.13 361.93 151.69 757.17 592.99 485.73 537.02 406.41 503.99 435.94 544.25 521.72 304.41 831.74 587.58 476.22 448.57 408.16 363.33 438.95 410.33 482.88 519.90 626.08 482.81 662.09 535.61 451.36 549.83 640.65 504.17 546.55 450.88 630.77 491.51 354.03 575.00 692.37 607.09 603.35 469.74 550.15 598.09 486.17 590.00 577.99
597.59 135.01 460.68 92.75 193.92 78.23 952.81 626.12 429.81 542.78 0.00 901.57 930.41 458.43 974.58 958.76 943.65 94.93 481.06 938.84 882.77 884.73 427.81 77.63 903.18 100.03 946.81 426.13 176.98 930.69 747.29 863.72 962.32 912.19 966.87 491.66 284.93 686.33 1138.90 50.21 791.64 963.20 433.23 552.28 816.32 914.91 917.73 323.60 1208.50 126.81 941.82 915.57 713.80 264.68 904.55 509.52 145.13 288.34 1006.46 370.62 209.64 130.44 561.96 161.22 1104.61 510.91 913.10 892.62 104.00 918.63 302.03 138.97 202.45 1053.39 119.21 536.91 7.37 979.84 859.60 256.78 35.21
423.63 1031.95 671.64 870.22 960.97 942.99 51.24 440.91 644.91 486.38 901.57 0.00 131.07 690.42 77.35 250.70 87.06 952.69 651.47 142.94 52.83 68.65 659.76 904.20 72.77 996.97 197.69 722.96 1028.52 148.10 333.99 145.51 173.83 66.55 124.62 638.16 824.29 380.70 367.90 951.78 303.22 94.37 645.90 643.78 96.45 191.53 311.54 679.99 466.74 1006.05 92.07 75.19 490.24 738.91 56.60 671.96 808.25 768.10 181.85 722.30 1058.33 1021.99 561.69 920.23 256.66 659.12 108.12 44.67 954.14 201.99 729.61 1018.63 919.36 233.05 970.75 584.03 894.20 186.29 146.68 818.76 927.76
468.15 1049.09 664.56 1001.29 1006.86 968.52 143.41 458.55 689.43 550.03 930.41 131.07 0.00 690.80 146.83 225.38 90.80 967.99 672.79 26.01 96.31 178.54 677.40 933.66 160.09 1014.11 144.49 832.85 1046.16 223.23 404.66 141.36 42.76 163.32 86.99 682.68 907.68 398.34 250.97 940.50 297.05 129.61 759.36 688.30 114.09 182.87 256.45 763.38 399.98 1048.23 117.72 163.03 595.56 822.30 154.99 716.48 878.79 850.90 76.05 805.04 1078.82 1060.74 645.94 958.20 321.98 702.60 152.64 166.92 902.60 244.56 813.00 1060.81 1007.51 155.68 988.39 628.55 923.04 60.28 164.32 856.73 965.62
275.22 477.46 26.24 492.72 410.50 423.56 708.31 445.81 45.51 337.85 458.43 690.42 690.80 0.00 676.81 627.42 699.51 433.48 135.51 707.29 638.63 643.56 58.04 497.69 625.11 442.48 546.31 591.49 580.36 653.43 424.92 635.79 648.04 662.26 674.28 106.28 493.36 389.66 855.79 426.75 780.33 688.76 68.56 166.14 621.35 584.69 638.47 356.17 878.28 512.33 667.48 637.50 668.13 415.09 665.14 72.48 461.39 182.05 701.21 144.96 617.71 530.41 168.32 297.21 865.20 166.32 582.30 653.21 368.09 717.79 405.79 509.64 368.89 668.01 566.07 135.20 464.72 654.11 660.09 252.15 435.18
472.44 1075.13 670.08 947.57 970.45 991.80 43.06 474.88 693.72 507.58 974.58 77.35 146.83 676.81 0.00 276.00 81.70 944.51 610.43 120.82 130.18 89.85 687.90 981.55 107.17 1040.80 217.72 744.16 1060.50 170.31 401.13 185.66 189.59 103.42 119.26 638.13 845.49 418.47 345.78 1013.13 256.02 44.60 709.07 692.59 173.16 179.34 299.78 701.19 439.49 1038.06 64.80 95.57 511.44 760.11 83.82 604.33 829.45 795.32 169.98 746.07 1074.78 1043.19 565.04 949.10 258.51 736.47 156.93 83.59 967.43 190.62 750.81 1050.64 982.16 218.82 1002.73 632.84 971.55 174.00 223.39 847.63 998.11
381.45 997.33 601.18 1002.13 907.27 900.81 273.52 506.17 583.75 597.65 958.76 250.70 225.38 627.42 276.00 0.00 230.97 920.15 498.74 228.10 197.87 270.13 576.21 939.85 255.36 986.75 81.11 924.44 1074.70 332.76 318.45 147.85 182.84 258.25 209.08 547.20 904.58 445.96 372.79 928.83 452.67 276.31 662.96 594.01 179.83 96.66 75.93 829.12 284.44 1022.35 261.76 242.97 648.17 829.36 238.65 581.00 897.15 691.46 236.01 600.86 1107.36 1032.05 559.24 810.26 462.57 698.27 151.36 250.58 854.76 388.60 878.74 1022.65 865.66 212.45 1016.93 561.58 951.39 174.92 192.86 766.03 944.59
432.72 1048.60 685.60 957.28 958.32 952.08 52.61 471.79 654.00 527.17 943.65 87.06 90.80 699.51 81.70 230.97 0.00 954.06 657.70 71.11 60.88 119.70 690.64 991.12 127.98 1043.68 165.53 774.01 1059.40 198.95 385.27 170.70 116.75 107.82 37.56 647.25 863.29 411.58 296.07 980.10 299.62 47.48 732.96 652.87 127.33 163.48 279.38 731.04 438.41 1061.47 93.44 136.13 541.29 789.96 88.22 681.05 859.30 799.72 101.19 807.46 1092.06 1062.78 567.92 867.40 260.94 667.17 117.21 99.88 918.71 220.28 780.66 1073.92 916.71 194.11 1001.63 593.12 936.28 99.23 177.56 765.93 978.86
608.67 130.62 459.72 117.26 131.95 89.31 901.45 659.58 464.91 637.71 94.93 952.69 967.99 433.48 944.51 920.15 954.06 0.00 444.15 994.00 977.70 977.61 425.04 155.45 974.65 109.79 979.79 520.07 182.18 964.15 758.37 958.65 925.23 982.53 991.62 454.75 356.33 719.79 1199.70 83.67 886.57 944.58 428.53 533.79 911.25 945.37 902.84 418.53 1204.59 121.25 942.28 962.26 738.31 359.61 962.93 488.55 240.06 251.43 1017.03 352.13 242.25 154.95 533.93 146.33 1098.28 492.42 924.18 974.86 65.39 1013.56 396.18 133.83 165.02 1016.48 214.14 526.44 102.30 942.75 932.66 218.17 59.72
267.57 522.99 121.90 503.39 421.17 465.96 653.35 423.18 93.61 438.11 481.06 651.47 672.79 135.51 610.43 498.74 657.70 444.15 0.00 681.22 625.15 607.12 77.47 540.11 588.67 488.01 539.60 569.58 607.29 666.07 417.27 552.41 641.33 604.59 663.68 48.46 405.84 362.97 803.85 453.68 800.95 610.22 164.22 154.08 558.70 501.22 574.67 398.69 783.18 537.45 621.59 576.28 532.62 369.94 624.19 82.26 398.41 192.72 616.68 216.00 628.38 541.08 89.78 367.56 824.73 220.27 570.24 616.77 378.76 745.05 419.97 550.03 379.56 610.19 600.27 94.33 475.39 647.40 597.42 267.29 445.85
473.17 1073.85 681.05 1013.16 1029.43 992.53 123.72 466.98 694.45 558.46 938.84 142.94 26.01 707.29 120.82 228.10 71.11 994.00 681.22 0.00 122.32 190.81 685.83 959.67 186.10 1038.87 160.98 845.12 1047.51 249.24 421.15 167.37 68.77 178.93 64.22 687.70 916.11 406.77 224.96 966.51 323.06 105.36 774.29 693.32 122.52 199.36 249.35 771.81 392.88 1056.66 143.73 189.04 612.40 830.73 159.33 721.50 880.14 824.89 92.65 790.60 1080.17 1069.28 625.80 938.51 332.05 728.61 157.66 170.99 928.61 270.57 821.43 1069.24 987.82 148.58 989.74 633.57 931.47 53.18 165.67 837.04 974.05
371.84 987.72 632.44 923.05 1006.89 891.20 104.07 410.91 593.12 502.39 882.77 52.83 96.31 638.63 130.18 197.87 60.88 977.70 625.15 122.32 0.00 110.29 629.76 930.24 125.60 982.80 178.12 764.60 998.52 197.59 345.87 109.82 139.07 119.38 98.44 586.37 860.04 350.70 347.28 919.22 356.05 99.04 672.96 591.99 66.45 139.74 273.80 715.74 413.91 1000.59 144.90 128.02 531.88 734.33 109.43 620.17 831.15 789.69 162.07 746.58 1031.18 1013.21 549.63 904.59 309.49 606.29 56.33 97.50 972.03 254.82 765.36 1013.04 972.19 218.16 940.75 532.24 875.40 137.66 116.68 826.81 917.98
424.42 1019.74 617.32 938.87 971.43 943.78 76.16 391.87 656.64 417.73 884.73 68.65 178.54 643.56 89.85 270.13 119.70 977.61 607.12 190.81 110.29 0.00 649.82 909.52 18.45 984.76 219.98 654.31 1003.97 87.30 395.63 195.77 197.88 27.46 155.05 643.64 755.64 387.53 339.44 934.94 248.90 119.29 684.69 661.45 107.02 222.45 333.83 611.34 493.97 992.53 60.82 30.84 421.59 670.26 31.48 677.44 739.60 742.98 212.72 757.80 989.68 953.34 517.34 917.82 251.76 690.47 165.28 43.41 929.02 166.28 660.96 992.73 929.82 249.67 976.07 604.55 892.10 180.36 152.00 817.55 919.94
259.33 503.88 84.28 484.28 402.06 446.85 697.72 468.60 58.12 360.64 427.81 659.76 677.40 58.04 687.90 576.21 690.64 425.04 77.47 685.83 629.76 649.82 0.00 495.76 631.37 468.90 604.35 620.80 588.18 595.39 409.03 628.33 706.08 647.29 668.28 87.25 483.31 440.44 842.64 434.57 826.53 654.59 126.60 168.85 563.31 578.69 619.44 368.78 860.65 518.34 664.29 618.98 610.09 427.70 666.89 95.42 475.88 173.61 694.15 203.00 609.27 521.97 134.15 348.45 823.51 224.36 574.84 659.47 359.65 674.37 418.40 523.81 360.45 648.98 547.02 109.10 420.44 697.24 613.54 248.18 426.74
558.40 195.55 506.99 72.78 149.27 99.03 955.44 648.09 467.67 540.13 77.63 904.20 933.66 497.69 981.55 939.85 991.12 155.45 540.11 959.67 930.24 909.52 495.76 0.00 927.97 164.94 968.27 371.04 171.77 952.66 708.10 927.40 890.90 936.98 967.35 517.48 207.30 691.82 1184.63 86.43 859.59 998.57 454.03 577.34 884.27 929.89 956.99 298.18 1223.48 187.33 970.34 940.36 757.80 292.00 941.00 483.68 172.45 347.39 982.70 409.88 236.51 190.96 501.83 200.48 1086.64 550.17 873.91 948.87 171.95 893.00 248.56 192.04 190.88 1003.82 146.08 589.17 75.32 908.42 886.92 297.70 95.73
405.97 1019.12 598.87 942.99 979.98 925.33 83.20 381.97 638.19 436.18 903.18 72.77 160.09 625.11 107.17 255.36 127.98 974.65 588.67 186.10 125.60 18.45 631.37 927.97 0.00 984.14 201.53 672.76 1015.39 77.40 405.32 177.32 179.43 37.15 139.74 625.19 774.09 397.22 320.99 953.35 230.45 125.35 666.24 643.00 125.47 228.51 315.38 629.79 492.46 1006.53 42.37 12.39 440.04 688.71 40.03 658.99 758.05 751.53 219.76 739.35 1008.13 971.79 498.89 921.57 240.09 680.57 173.83 28.10 937.57 156.38 679.41 1011.18 938.37 257.31 957.62 586.10 910.55 161.91 133.55 826.10 914.93
634.44 34.98 416.24 126.75 230.77 115.08 1011.24 683.59 455.56 642.16 100.03 996.97 1014.11 442.48 1040.80 986.75 1043.68 109.79 488.01 1038.87 982.80 984.76 468.90 164.94 984.14 0.00 936.31 526.05 177.50 988.16 784.14 963.75 971.35 976.58 1043.39 498.61 372.24 743.80 1197.38 107.68 891.67 1054.37 470.08 575.65 916.35 974.69 1012.63 423.63 1268.28 69.85 994.25 971.75 747.80 364.71 956.98 481.99 245.16 295.29 1063.15 395.99 205.28 106.55 574.60 256.12 1082.48 536.28 949.95 968.91 175.18 1018.66 402.06 67.16 272.38 1060.34 190.78 570.30 107.40 988.87 959.63 313.75 69.21
409.87 971.29 520.07 997.15 956.60 924.62 218.14 491.15 559.39 582.63 946.81 197.69 144.49 546.31 217.72 81.11 165.53 979.79 539.60 160.98 178.12 219.98 604.35 968.27 201.53 936.31 0.00 870.91 1016.42 278.93 260.17 89.57 101.73 228.68 127.97 574.84 893.86 430.94 309.48 896.60 423.10 213.01 614.87 646.90 171.91 38.38 113.85 814.36 331.97 1006.16 180.65 213.92 567.06 799.79 209.08 580.76 849.05 728.36 154.90 660.55 1049.08 1016.84 505.45 842.77 384.91 660.15 121.79 221.01 914.40 307.49 849.82 1003.47 915.20 175.78 958.65 590.00 945.92 107.80 134.58 798.46 939.61
738.72 512.15 565.25 443.82 520.31 470.07 730.47 474.66 562.68 366.70 426.13 722.96 832.85 591.49 744.16 924.44 774.01 520.07 569.58 845.12 764.60 654.31 620.80 371.04 672.76 526.05 870.91 0.00 462.93 741.61 798.72 850.08 852.19 681.77 809.36 618.04 163.74 518.39 993.75 457.47 583.27 773.60 660.05 570.25 761.33 832.53 888.42 252.02 1126.12 476.10 715.13 685.15 774.86 202.38 685.79 631.00 321.93 539.55 867.03 633.31 495.59 502.91 560.93 477.33 906.07 703.39 819.59 697.72 515.39 742.51 202.40 463.52 561.92 903.98 405.16 630.00 418.76 834.67 806.31 464.98 461.34
700.99 158.97 574.17 172.85 297.32 181.63 1079.76 714.52 534.85 606.56 176.98 1028.52 1046.16 580.36 1060.50 1074.70 1059.40 182.18 607.29 1047.51 998.52 1003.97 588.18 171.77 1015.39 177.50 1016.42 462.93 0.00 1019.09 850.69 961.59 1033.29 1028.65 1053.07 617.89 299.19 758.25 1272.47 153.61 959.18 1078.95 536.63 677.79 932.07 978.04 1085.02 442.84 1271.63 122.92 1057.76 1027.78 844.77 383.92 1035.45 624.30 264.37 414.57 1100.96 515.27 86.39 70.95 673.60 328.51 1221.99 629.65 959.63 1025.07 247.57 1037.87 393.87 110.34 335.51 1146.21 57.77 677.35 174.91 1050.81 881.84 367.45 166.18
483.37 992.45 676.27 981.03 997.45 908.50 146.34 304.57 653.51 412.53 930.69 148.10 223.23 653.43 170.31 332.76 198.95 964.15 666.07 249.24 197.59 87.30 595.39 952.66 77.40 988.16 278.93 741.61 1019.09 0.00 482.09 254.72 256.83 114.55 217.14 682.64 774.46 364.78 398.39 880.48 238.22 189.47 721.99 704.20 174.74 284.64 392.78 657.71 557.97 1000.11 105.51 89.79 480.96 716.63 117.43 690.81 826.90 769.00 282.90 743.46 1074.62 948.14 576.29 943.84 228.12 603.17 251.23 105.50 955.04 78.98 707.33 987.53 955.84 313.67 1015.88 644.45 938.06 239.31 210.95 843.57 923.49
149.70 765.58 440.82 772.47 784.75 669.06 385.23 324.06 467.15 432.02 747.29 333.99 404.66 424.92 401.13 318.45 385.27 758.37 417.27 421.15 345.87 395.63 409.03 708.10 405.32 784.14 260.17 798.72 850.69 482.09 0.00 272.98 361.90 368.17 386.11 401.52 780.70 325.50 552.65 697.08 606.51 427.60 470.55 386.73 338.19 221.79 255.79 636.40 515.38 803.48 384.56 396.48 803.92 646.20 387.77 397.79 765.75 582.64 415.07 539.53 897.46 800.30 327.49 682.45 588.82 466.52 305.20 378.66 763.39 511.40 686.02 790.90 769.48 430.44 811.57 329.83 744.09 367.97 287.96 657.21 714.93
369.00 976.28 609.64 956.47 973.58 888.36 196.75 401.58 590.28 493.06 863.72 145.51 141.36 635.79 185.66 147.85 170.70 958.65 552.41 167.37 109.82 195.77 628.33 927.40 177.32 963.75 89.57 850.08 961.59 254.72 272.98 0.00 98.60 188.11 146.93 555.08 839.03 341.37 324.93 913.93 354.80 181.97 654.14 589.15 96.80 51.19 203.42 746.09 344.78 940.23 201.86 164.93 530.94 731.49 187.29 588.88 794.22 745.13 190.40 730.54 994.25 967.04 546.79 901.75 386.72 666.09 53.49 190.18 931.17 317.79 781.52 927.65 931.97 206.20 903.82 529.40 856.35 116.12 79.75 819.70 898.93
455.43 1006.33 621.80 963.68 964.10 974.79 169.36 500.18 661.12 591.66 962.32 173.83 42.76 648.04 189.59 182.84 116.75 925.23 641.33 68.77 139.07 197.88 706.08 890.90 179.43 971.35 101.73 852.19 1033.29 256.83 361.90 98.60 0.00 197.24 79.19 653.68 910.73 439.97 293.73 977.33 339.81 160.98 716.60 675.58 156.85 140.11 213.69 806.14 357.22 1027.43 160.48 191.82 619.47 817.92 187.29 682.49 865.92 830.09 91.80 762.28 1065.95 1065.64 607.18 940.78 326.20 745.36 139.92 175.36 859.84 249.21 855.76 1026.25 973.13 112.92 975.52 615.83 954.95 17.52 151.45 867.05 984.95
443.12 1011.56 636.02 936.77 959.55 962.48 97.70 419.12 675.34 445.19 912.19 66.55 163.32 662.26 103.42 258.25 107.82 982.53 604.59 178.93 119.38 27.46 647.29 936.98 37.15 976.58 228.68 681.77 1028.65 114.55 368.17 188.11 197.24 0.00 133.52 641.11 783.10 360.07 358.14 956.00 267.60 140.83 682.16 666.42 96.58 210.57 324.88 638.80 482.09 1019.99 56.87 28.31 449.05 697.72 19.60 674.91 767.06 731.10 204.76 758.56 1017.14 980.80 514.81 905.94 233.87 717.72 153.40 21.88 917.14 175.52 688.42 1020.19 917.94 237.79 970.88 606.67 905.53 179.72 146.81 805.67 930.85
408.95 1024.83 648.04 994.84 995.81 928.31 90.17 442.84 630.23 550.80 966.87 124.62 86.99 674.28 119.26 209.08 37.56 991.62 663.68 64.22 98.44 155.05 668.28 967.35 139.74 1043.39 127.97 809.36 1053.07 217.14 386.11 146.93 79.19 133.52 0.00 623.48 898.64 434.80 289.18 956.33 337.18 85.04 710.07 629.10 150.55 164.32 241.82 766.39 401.37 1062.73 131.00 152.13 576.64 771.44 123.57 657.28 885.70 826.80 95.02 786.47 1085.73 1059.55 586.74 881.98 298.50 704.73 93.44 111.64 938.88 240.03 816.01 1050.15 954.27 157.07 995.30 569.35 959.50 61.67 171.23 803.49 974.18
251.82 533.59 83.40 492.49 431.77 440.52 681.19 469.70 94.37 444.13 491.66 638.16 682.68 106.28 638.13 547.20 647.25 454.75 48.46 687.70 586.37 643.64 87.25 517.48 625.19 498.61 574.84 618.04 617.89 682.64 401.52 555.08 653.68 641.11 623.48 0.00 454.30 411.43 755.39 464.28 831.35 646.74 138.54 127.46 607.16 549.68 532.19 405.03 806.03 548.05 658.11 612.80 581.08 418.40 660.71 33.80 446.87 203.32 665.14 175.54 638.98 551.68 126.30 378.16 861.25 171.81 530.04 653.29 389.36 761.62 424.18 560.63 390.16 561.73 583.03 71.69 485.99 652.44 607.83 277.89 456.45
631.00 397.22 487.17 280.08 356.57 306.33 831.80 469.89 447.85 361.93 284.93 824.29 907.68 493.36 845.49 904.58 863.29 356.33 405.84 916.11 860.04 755.64 483.31 207.30 774.09 372.24 893.86 163.74 299.19 774.46 780.70 839.03 910.73 783.10 898.64 454.30 0.00 513.62 1095.08 293.73 719.89 874.93 560.91 559.92 793.59 855.48 852.80 144.30 1149.07 394.63 812.34 786.48 770.09 144.71 775.07 488.10 261.02 458.53 964.04 559.23 331.85 370.14 453.21 407.78 932.76 626.11 822.71 787.00 379.25 739.12 94.68 399.34 398.18 969.02 241.42 500.17 282.62 928.25 759.28 498.15 303.03
299.81 748.09 415.90 736.67 692.13 664.14 431.94 60.21 435.17 151.69 686.33 380.70 398.34 389.66 418.47 445.96 411.58 719.79 362.97 406.77 350.70 387.53 440.44 691.82 397.22 743.80 430.94 518.39 758.25 364.78 325.50 341.37 439.97 360.07 434.80 411.43 513.62 0.00 631.73 636.12 437.98 431.13 458.22 390.42 284.25 392.56 370.03 413.35 680.05 739.27 416.94 388.38 559.85 472.27 379.67 445.23 591.82 555.69 474.39 534.62 813.78 687.30 403.61 686.87 574.17 523.56 394.86 381.95 741.73 443.76 462.97 726.69 650.52 547.57 755.04 424.95 693.70 457.49 334.48 630.26 679.13
693.93 1232.36 829.55 1193.23 1167.20 1195.91 347.21 691.94 849.76 757.17 1138.90 367.90 250.97 855.79 345.78 372.79 296.07 1199.70 803.85 224.96 347.28 339.44 842.64 1184.63 320.99 1197.38 309.48 993.75 1272.47 398.39 552.65 324.93 293.73 358.14 289.18 755.39 1095.08 631.73 0.00 1189.11 548.02 330.32 893.93 838.41 347.48 347.86 296.86 950.78 171.47 1265.16 332.20 333.38 761.03 1009.70 361.02 789.19 1079.04 958.71 317.61 930.93 1305.13 1269.34 814.93 1053.37 536.46 927.20 378.42 349.09 1134.31 459.04 1000.40 1252.58 1145.55 193.66 1214.70 796.91 1146.27 278.14 390.63 1033.28 1174.11
547.38 111.97 420.56 100.55 143.71 28.02 985.12 575.91 381.24 592.99 50.21 951.78 940.50 426.75 1013.13 928.83 980.10 83.67 453.68 966.51 919.22 934.94 434.57 86.43 953.35 107.68 896.60 457.47 153.61 880.48 697.08 913.93 977.33 956.00 956.33 464.28 293.73 636.12 1189.11 0.00 841.85 968.53 383.02 524.18 859.42 918.87 946.50 373.81 1212.46 129.69 985.99 945.55 721.60 314.89 954.76 470.69 195.34 260.96 1004.22 361.66 225.54 120.24 543.46 211.43 1107.81 501.95 862.89 942.83 134.58 959.46 334.99 137.42 181.90 1026.01 169.42 523.74 57.58 985.29 909.65 226.69 43.01
604.47 926.65 754.09 839.55 937.98 858.29 299.08 377.77 793.41 485.73 791.64 303.22 297.05 780.33 256.02 452.67 299.62 886.57 800.95 323.06 356.05 248.90 826.53 859.59 230.45 891.67 423.10 583.27 959.18 238.22 606.51 354.80 339.81 267.60 337.18 831.35 719.89 437.98 548.02 841.85 0.00 300.62 821.62 828.40 355.92 384.72 519.01 575.59 678.31 909.46 272.82 242.84 381.86 607.94 257.23 819.84 727.49 962.38 373.10 894.57 977.57 922.08 721.17 898.37 352.88 841.39 301.31 258.55 880.90 159.24 625.21 922.04 896.37 452.73 910.85 777.22 784.27 357.33 364.00 959.82 826.85
443.99 1059.87 678.80 964.59 1005.80 963.35 43.13 491.34 665.27 537.02 963.20 94.37 129.61 688.76 44.60 276.31 47.48 944.58 610.22 105.36 99.04 119.29 654.59 998.57 125.35 1054.37 213.01 773.60 1078.95 189.47 427.60 181.97 160.98 140.83 85.04 646.74 874.93 431.13 330.32 968.53 300.62 0.00 733.21 661.65 146.88 205.81 255.18 730.63 418.52 1065.83 83.96 116.27 540.88 789.55 121.23 648.93 858.89 779.92 125.38 785.29 1093.94 1072.63 520.44 914.88 288.22 705.33 128.48 127.64 965.96 191.48 780.25 1078.41 964.19 174.22 1021.18 604.39 955.83 143.46 197.11 813.41 998.41
320.85 451.52 94.80 458.41 382.81 355.00 697.14 443.85 113.06 406.41 433.23 645.90 759.36 68.56 709.07 662.96 732.96 428.53 164.22 774.29 672.96 684.69 126.60 454.03 666.24 470.08 614.87 660.05 536.63 721.99 470.55 654.14 716.60 682.16 710.07 138.54 560.91 458.22 893.93 383.02 821.62 733.21 0.00 141.16 689.91 602.95 670.73 423.72 896.54 489.42 699.16 653.85 696.84 482.64 701.76 104.74 469.60 177.10 757.96 76.40 583.40 486.24 236.88 285.80 902.30 150.61 616.63 690.57 363.14 786.35 471.73 476.84 341.20 700.27 497.51 140.72 430.03 722.67 694.42 244.73 400.87
237.03 592.68 159.41 526.69 488.07 496.16 695.02 450.63 158.89 503.99 552.28 643.78 688.30 166.14 692.59 594.01 652.87 533.79 154.08 693.32 591.99 661.45 168.85 577.34 643.00 575.65 646.90 570.25 677.79 704.20 386.73 589.15 675.58 666.42 629.10 127.46 559.92 390.42 838.41 524.18 828.40 661.65 141.16 0.00 636.76 608.52 541.55 469.55 853.61 627.09 683.42 638.11 686.70 524.02 669.46 93.66 522.07 282.36 657.05 181.66 716.15 627.40 205.57 391.06 883.09 133.14 535.66 671.10 468.40 783.18 519.17 618.00 446.46 663.00 638.67 59.75 559.65 658.06 613.45 349.99 535.49
399.73 951.33 647.59 909.07 965.37 883.98 147.69 344.46 621.43 435.94 816.32 96.45 114.09 621.35 173.16 179.83 127.33 911.25 558.70 122.52 66.45 107.02 563.31 884.27 125.47 916.35 171.91 761.33 932.07 174.74 338.19 96.80 156.85 96.58 150.55 607.16 793.59 284.25 347.48 859.42 355.92 146.88 689.91 636.76 0.00 146.43 228.30 649.29 440.02 934.14 153.45 124.89 528.61 708.21 116.18 640.96 764.70 736.92 190.14 766.31 964.73 946.76 577.52 911.76 289.92 672.74 122.78 110.22 905.58 220.99 698.91 946.72 923.76 269.77 874.30 579.86 808.95 174.37 50.23 811.49 851.53
371.49 987.37 558.45 994.26 922.39 890.85 216.09 452.77 594.83 544.25 914.91 191.53 182.87 584.69 179.34 96.66 163.48 945.37 501.22 199.36 139.74 222.45 578.69 929.89 228.51 974.69 38.38 832.53 978.04 284.64 221.79 51.19 140.11 210.57 164.32 549.68 855.48 392.56 347.86 918.87 384.72 205.81 602.95 608.52 146.43 0.00 152.23 795.72 293.59 991.42 219.03 216.12 582.13 761.41 190.97 542.38 810.67 693.94 193.28 679.35 1010.70 1018.23 543.83 868.78 385.09 680.39 83.41 202.90 879.98 345.87 811.44 978.84 880.78 208.65 920.27 551.62 907.54 146.18 96.20 768.51 936.72
399.12 1015.00 615.59 1010.48 870.34 918.48 298.31 430.24 626.56 521.72 917.73 311.54 256.45 638.47 299.78 75.93 279.38 902.84 574.67 249.35 273.80 333.83 619.44 956.99 315.38 1012.63 113.85 888.42 1085.02 392.78 255.79 203.42 213.69 324.88 241.82 532.19 852.80 370.03 296.86 946.50 519.01 255.18 670.73 541.55 228.30 152.23 0.00 783.38 360.37 1005.04 294.50 318.90 680.91 842.30 314.58 565.99 926.76 735.51 268.75 676.79 1126.79 1048.17 576.91 756.51 498.76 674.69 217.70 326.51 837.45 421.34 833.00 1017.62 899.05 288.38 1036.36 579.25 925.10 196.17 212.29 810.08 952.94
486.70 442.40 349.98 328.54 447.45 397.21 687.50 353.14 310.66 304.41 323.60 679.99 763.38 356.17 701.19 829.12 731.04 418.53 398.69 771.81 715.74 611.34 368.78 298.18 629.79 423.63 814.36 252.02 442.84 657.71 636.40 746.09 806.14 638.80 766.39 405.03 144.30 413.35 950.78 373.81 575.59 730.63 423.72 469.55 649.29 795.72 783.38 0.00 1089.31 381.19 672.16 642.18 712.57 58.92 642.82 400.11 178.47 413.47 824.06 481.81 428.55 399.91 308.91 349.35 853.35 490.06 736.92 654.75 383.83 694.06 49.62 393.77 433.14 852.27 385.72 454.73 330.97 791.70 699.52 415.60 358.81
665.08 1280.96 852.04 1286.57 1186.23 1184.44 438.65 740.26 868.19 831.74 1208.50 466.74 399.98 878.28 439.49 284.44 438.41 1204.59 783.18 392.88 413.91 493.97 860.65 1223.48 492.46 1268.28 331.97 1126.12 1271.63 557.97 515.38 344.78 357.22 482.09 401.37 806.03 1149.07 680.05 171.47 1212.46 678.31 418.52 896.54 853.61 440.02 293.59 360.37 1089.31 0.00 1285.01 479.48 504.85 875.72 1055.00 462.49 835.97 1104.26 975.90 413.98 885.30 1304.29 1311.82 837.42 1094.70 450.23 851.12 377.00 474.42 1139.20 597.81 1105.03 1272.43 1150.10 244.30 1213.86 815.38 1201.13 339.70 389.79 1050.47 1229.03
653.78 61.21 486.09 135.83 224.08 134.42 1022.70 695.54 510.93 587.58 126.81 1006.05 1048.23 512.33 1038.06 1022.35 1061.47 121.25 537.45 1056.66 1000.59 992.53 518.34 187.33 1006.53 69.85 1006.16 476.10 122.92 1000.11 803.48 940.23 1027.43 1019.99 1062.73 548.05 394.63 739.27 1265.16 129.69 909.46 1065.83 489.42 627.09 934.14 991.42 1005.04 381.19 1285.01 0.00 1039.45 994.14 770.19 388.23 1024.01 551.84 268.68 344.73 1110.62 445.43 150.70 51.97 627.23 248.53 1152.33 585.72 969.29 1019.43 167.59 1042.18 414.75 12.58 265.69 1109.78 180.69 619.74 125.19 1044.95 983.15 320.37 91.60
448.34 1029.23 641.24 962.29 977.22 967.70 40.83 410.08 680.56 476.22 941.82 92.07 117.72 667.48 64.80 261.76 93.44 942.28 621.59 143.73 144.90 60.82 664.29 970.34 42.37 994.25 180.65 715.13 1057.76 105.51 384.56 201.86 160.48 56.87 131.00 658.11 812.34 416.94 332.20 985.99 272.82 83.96 699.16 683.42 153.45 219.03 294.50 672.16 479.48 1039.45 0.00 45.31 477.84 731.08 37.27 669.13 800.42 748.77 177.39 775.56 1009.98 1011.83 531.81 923.61 204.26 708.68 171.07 49.20 934.81 126.84 721.78 1051.22 935.61 255.46 999.99 623.67 949.19 178.00 175.92 823.34 947.85
418.36 1006.73 611.26 945.41 987.86 937.72 86.14 394.36 650.58 448.57 915.57 75.19 163.03 637.50 95.57 242.97 136.13 962.26 576.28 189.04 128.02 30.84 618.98 940.36 12.39 971.75 213.92 685.15 1027.78 89.79 396.48 164.93 191.82 28.31 152.13 612.80 786.48 388.38 333.38 945.55 242.84 116.27 653.85 638.11 124.89 216.12 318.90 642.18 504.85 994.14 45.31 0.00 432.53 701.10 47.91 646.60 770.44 759.41 222.70 730.25 1020.52 984.18 486.50 920.70 248.45 692.96 181.71 40.49 945.45 168.77 691.80 1006.72 946.25 266.10 970.01 578.36 922.94 174.30 145.94 833.98 902.54
749.84 782.78 654.52 736.13 840.15 724.46 497.75 516.12 626.23 408.16 713.80 490.24 595.56 668.13 511.44 648.17 541.29 738.31 532.62 612.40 531.88 421.59 610.09 757.80 440.04 747.80 567.06 774.86 844.77 480.96 803.92 530.94 619.47 449.05 576.64 581.08 770.09 559.85 761.03 721.60 381.86 540.88 696.84 686.70 528.61 582.13 680.91 712.57 875.72 770.19 477.84 432.53 0.00 771.49 453.07 614.88 858.93 725.34 634.31 748.62 861.12 773.82 622.40 875.02 673.35 752.89 584.43 465.00 803.70 541.10 762.19 782.77 881.76 671.26 833.01 626.95 721.17 601.95 573.59 799.91 678.59
545.62 399.69 408.90 328.95 404.26 342.91 746.42 412.06 369.58 363.33 264.68 738.91 822.30 415.09 760.11 829.36 789.96 359.61 369.94 830.73 734.33 670.26 427.70 292.00 688.71 364.71 799.79 202.38 383.92 716.63 646.20 731.49 817.92 697.72 771.44 418.40 144.71 472.27 1009.70 314.89 607.94 789.55 482.64 524.02 708.21 761.41 842.30 58.92 1055.00 388.23 731.08 701.10 771.49 0.00 701.74 452.20 119.55 413.88 819.33 499.83 369.63 373.89 367.83 290.43 847.59 502.93 678.00 713.67 335.30 653.95 50.03 400.81 416.46 895.80 368.92 464.27 272.05 800.40 755.79 356.68 299.89
446.00 991.96 638.90 926.82 939.95 965.36 78.10 422.00 670.59 438.95 904.55 56.60 154.99 665.14 83.82 238.65 88.22 962.93 624.19 159.33 109.43 31.48 666.89 941.00 40.03 956.98 209.08 685.79 1035.45 117.43 387.77 187.29 187.29 19.60 123.57 660.71 775.07 379.67 361.02 954.76 257.23 121.23 701.76 669.46 116.18 190.97 314.58 642.82 462.49 1024.01 37.27 47.91 453.07 701.74 0.00 670.17 771.08 711.50 189.41 778.16 1021.16 974.56 534.41 886.34 223.92 715.72 133.80 11.93 897.54 155.92 692.44 1013.95 898.34 218.19 979.23 609.71 911.92 169.77 155.16 786.07 939.76
274.61 516.97 65.75 526.29 448.15 459.74 647.39 503.50 89.45 410.33 509.52 671.96 716.48 72.48 604.33 581.00 681.05 488.55 82.26 721.50 620.17 677.44 95.42 483.68 658.99 481.99 580.76 631.00 624.30 690.81 397.79 588.88 682.49 674.91 657.28 33.80 488.10 445.23 789.19 470.69 819.84 648.93 104.74 93.66 640.96 542.38 565.99 400.11 835.97 551.84 669.13 646.60 614.88 452.20 670.17 0.00 428.41 237.12 698.94 141.74 656.84 569.54 160.10 351.14 862.84 138.01 563.84 658.24 423.16 757.30 449.73 549.15 406.54 595.53 594.79 105.49 515.86 686.24 638.58 310.07 474.31
665.17 280.14 487.63 237.88 297.71 223.36 815.76 531.61 470.50 482.88 145.13 808.25 878.79 461.39 829.45 897.15 859.30 240.06 398.41 880.14 831.15 739.60 475.88 172.45 758.05 245.16 849.05 321.93 264.37 826.90 765.75 794.22 865.92 767.06 885.70 446.87 261.02 591.82 1079.04 195.34 727.49 858.89 469.60 522.07 764.70 810.67 926.76 178.47 1104.26 268.68 800.42 770.44 858.93 119.55 771.08 428.41 0.00 311.70 933.59 405.46 250.08 275.57 487.38 296.69 967.14 545.75 792.26 783.01 215.75 773.50 166.34 281.26 329.04 938.09 249.37 492.74 152.50 883.44 714.47 237.13 180.34
432.94 330.27 208.29 310.67 228.45 273.24 789.60 615.90 225.44 519.90 288.34 768.10 850.90 182.05 795.32 691.46 799.72 251.43 192.72 824.89 789.69 742.98 173.61 347.39 751.53 295.29 728.36 539.55 414.57 769.00 582.64 745.13 830.09 731.10 826.80 203.32 458.53 555.69 958.71 260.96 962.38 779.92 177.10 282.36 736.92 693.94 735.51 413.47 975.90 344.73 748.77 759.41 725.34 413.88 711.50 237.12 311.70 0.00 809.40 100.70 435.66 348.36 282.50 174.84 846.85 240.99 733.36 723.43 186.04 847.98 363.85 357.31 186.84 765.05 407.55 275.01 282.67 836.16 787.15 74.57 253.13
456.84 1072.72 674.97 981.63 1037.85 976.20 136.56 534.60 678.12 626.08 1006.46 181.85 76.05 701.21 169.98 236.01 101.19 1017.03 616.68 92.65 162.07 212.72 694.15 982.70 219.76 1063.15 154.90 867.03 1100.96 282.90 415.07 190.40 91.80 204.76 95.02 665.14 964.04 474.39 317.61 1004.22 373.10 125.38 757.96 657.05 190.14 193.28 268.75 824.06 413.98 1110.62 177.39 222.70 634.31 819.33 189.41 698.94 933.59 809.40 0.00 788.05 1133.62 1107.44 634.63 968.59 362.13 753.93 141.33 201.07 951.64 304.23 869.36 1098.04 996.24 169.68 1043.19 617.24 999.09 74.28 219.12 867.12 1022.07
397.25 430.97 140.48 411.37 306.41 367.00 773.54 520.25 171.15 482.81 370.62 722.30 805.04 144.96 746.07 600.86 807.46 352.13 216.00 790.60 746.58 757.80 203.00 409.88 739.35 395.99 660.55 633.31 515.27 743.46 539.53 730.54 762.28 758.56 786.47 175.54 559.23 534.62 930.93 361.66 894.57 785.29 76.40 181.66 766.31 679.35 676.79 481.81 885.30 445.43 775.56 730.25 748.62 499.83 778.16 141.74 405.46 100.70 788.05 0.00 536.36 449.06 264.85 209.40 947.55 140.29 693.03 766.97 286.74 822.44 464.55 458.01 264.80 737.27 489.83 217.12 377.99 768.35 770.82 168.33 353.83
747.76 174.74 621.52 189.46 344.09 228.40 1050.81 770.05 606.78 662.09 209.64 1058.33 1078.82 617.71 1074.78 1107.36 1092.06 242.25 628.38 1080.17 1031.18 989.68 609.27 236.51 1008.13 205.28 1049.08 495.59 86.39 1074.62 897.46 994.25 1065.95 1017.14 1085.73 638.98 331.85 813.78 1305.13 225.54 977.57 1093.94 583.40 716.15 964.73 1010.70 1126.79 428.55 1304.29 150.70 1009.98 1020.52 861.12 369.63 1021.16 656.84 250.08 435.66 1133.62 536.36 0.00 126.48 718.16 370.86 1214.24 676.65 992.29 1033.09 307.64 1023.58 410.41 138.12 323.57 1178.87 90.43 710.67 217.01 1083.47 914.50 427.07 182.53
650.60 88.02 522.79 152.77 246.93 131.24 1029.50 643.57 501.48 535.61 130.44 1021.99 1060.74 530.41 1043.19 1032.05 1062.78 154.95 541.08 1069.28 1013.21 953.34 521.97 190.96 971.79 106.55 1016.84 502.91 70.95 948.14 800.30 967.04 1065.64 980.80 1059.55 551.68 370.14 687.30 1269.34 120.24 922.08 1072.63 486.24 627.40 946.76 1018.23 1048.17 399.91 1311.82 51.97 1011.83 984.18 773.82 373.89 974.56 569.54 275.57 348.36 1107.44 449.06 126.48 0.00 630.86 291.66 1176.26 589.35 966.11 986.49 219.56 1025.67 381.23 39.39 269.88 1113.41 128.72 623.37 137.81 1083.16 952.79 329.91 95.23
177.79 609.58 158.36 574.61 510.95 555.74 563.57 343.40 183.39 451.36 561.96 561.69 645.94 168.32 565.04 559.24 567.92 533.93 89.78 625.80 549.63 517.34 134.15 501.83 498.89 574.60 505.45 560.93 673.60 576.29 327.49 546.79 607.18 514.81 586.74 126.30 453.21 403.61 814.93 543.46 721.17 520.44 236.88 205.57 577.52 543.83 576.91 308.91 837.42 627.23 531.81 486.50 622.40 367.83 534.41 160.10 487.38 282.50 634.63 264.85 718.16 630.86 0.00 434.20 734.95 282.51 493.30 526.99 468.54 655.27 358.53 639.81 469.34 681.23 647.91 145.82 554.59 613.25 571.09 357.07 535.63
532.75 274.25 322.70 253.97 113.83 216.61 920.01 657.79 342.72 549.83 161.22 920.23 958.20 297.21 949.10 810.26 867.40 146.33 367.56 938.51 904.59 917.82 348.45 200.48 921.57 256.12 842.77 477.33 328.51 943.84 682.45 901.75 940.78 905.94 881.98 378.16 407.78 686.87 1053.37 211.43 898.37 914.88 285.80 391.06 911.76 868.78 756.51 349.35 1094.70 248.53 923.61 920.70 875.02 290.43 886.34 351.14 296.69 174.84 968.59 209.40 370.86 291.66 434.20 0.00 1021.69 349.69 848.26 898.27 80.94 944.38 340.46 261.11 142.54 939.89 280.43 401.21 168.59 943.65 926.05 101.47 196.43
646.06 1117.46 838.96 1117.00 1075.30 1120.09 245.09 532.69 878.28 640.65 1104.61 256.66 321.98 865.20 258.51 462.57 260.94 1098.28 824.73 332.05 309.49 251.76 823.51 1086.64 240.09 1082.48 384.91 906.07 1221.99 228.12 588.82 386.72 326.20 233.87 298.50 861.25 932.76 574.17 536.46 1107.81 352.88 288.22 902.30 883.09 289.92 385.09 498.76 853.35 450.23 1152.33 204.26 248.45 673.35 847.59 223.92 862.84 967.14 846.85 362.13 947.55 1214.24 1176.26 734.95 1021.69 0.00 831.29 357.72 211.99 1032.89 193.64 838.08 1149.64 1033.69 404.08 1164.22 826.19 1098.87 308.68 340.15 921.42 1099.98
316.82 571.26 140.08 551.66 446.70 505.61 710.36 583.77 179.40 504.17 510.91 659.12 702.60 166.32 736.47 698.27 667.17 492.42 220.27 728.61 606.29 690.47 224.36 550.17 680.57 536.28 660.15 703.39 629.65 603.17 466.52 666.09 745.36 717.72 704.73 171.81 626.11 523.56 927.20 501.95 841.39 705.33 150.61 133.14 672.74 680.39 674.69 490.06 851.12 585.72 708.68 692.96 752.89 502.93 715.72 138.01 545.75 240.99 753.93 140.29 676.65 589.35 282.51 349.69 831.29 0.00 612.60 703.79 427.03 682.15 539.68 598.30 405.09 733.54 630.12 136.69 518.28 735.00 690.39 308.62 494.12
315.51 931.39 576.11 938.28 950.56 834.87 159.36 455.07 536.79 546.55 913.10 108.12 152.64 582.30 156.93 151.36 117.21 924.18 570.24 157.66 56.33 165.28 574.84 873.91 173.83 949.95 121.79 819.59 959.63 251.23 305.20 53.49 139.92 153.40 93.44 530.04 822.71 394.86 378.42 862.89 301.31 128.48 616.63 535.66 122.78 83.41 217.70 736.92 377.00 969.29 171.07 181.71 584.43 678.00 133.80 563.84 792.26 733.36 141.33 693.03 992.29 966.11 493.30 848.26 357.72 612.60 0.00 145.73 919.40 289.72 728.03 956.71 920.20 217.80 901.86 475.91 909.84 122.40 77.79 794.00 880.74
434.07 1003.89 626.97 914.89 951.88 953.43 84.51 410.07 666.29 450.88 892.62 44.67 166.92 653.21 83.59 250.58 99.88 974.86 616.77 170.99 97.50 43.41 659.47 948.87 28.10 968.91 221.01 697.72 1025.07 105.50 378.66 190.18 175.36 21.88 111.64 653.29 787.00 381.95 349.09 942.83 258.55 127.64 690.57 671.10 110.22 202.90 326.51 654.75 474.42 1019.43 49.20 40.49 465.00 713.67 11.93 658.24 783.01 723.43 201.07 766.97 1033.09 986.49 526.99 898.27 211.99 703.79 145.73 0.00 909.47 157.32 704.37 1025.88 910.27 230.12 967.30 614.20 899.99 157.84 143.23 798.00 927.83
613.69 193.31 394.33 182.65 104.26 135.67 924.37 710.49 409.99 630.77 104.00 954.14 902.60 368.09 967.43 854.76 918.71 65.39 378.76 928.61 972.03 929.02 359.65 171.95 937.57 175.18 914.40 515.39 247.57 955.04 763.39 931.17 859.84 917.14 938.88 389.36 379.25 741.73 1134.31 134.58 880.90 965.96 363.14 468.40 905.58 879.98 837.45 383.83 1139.20 167.59 934.81 945.45 803.70 335.30 897.54 423.16 215.75 186.04 951.64 286.74 307.64 219.56 468.54 80.94 1032.89 427.03 919.40 909.47 0.00 989.25 382.09 180.17 113.29 951.09 223.21 461.05 96.63 877.36 930.22 152.78 125.11
562.35 1053.64 691.55 923.36 1042.27 987.48 167.67 383.55 730.87 491.51 918.63 201.99 244.56 717.79 190.62 388.60 220.28 1013.56 745.05 270.57 254.82 166.28 674.37 893.00 156.38 1018.66 307.49 742.51 1037.87 78.98 511.40 317.79 249.21 175.52 240.03 761.62 739.12 443.76 459.04 959.46 159.24 191.48 786.35 783.18 220.99 345.87 421.34 694.06 597.81 1042.18 126.84 168.77 541.10 653.95 155.92 757.30 773.50 847.98 304.23 822.44 1023.58 1025.67 655.27 944.38 193.64 682.15 289.72 157.32 989.25 0.00 644.44 1054.76 1034.82 362.13 980.54 723.43 926.00 266.73 271.22 922.55 953.84
536.32 437.04 399.60 278.92 397.83 347.59 737.12 402.76 360.28 354.03 302.03 729.61 813.00 405.79 750.81 878.74 780.66 396.18 419.97 821.43 765.36 660.96 418.40 248.56 679.41 402.06 849.82 202.40 393.87 707.33 686.02 781.52 855.76 688.42 816.01 424.18 94.68 462.97 1000.40 334.99 625.21 780.25 471.73 519.17 698.91 811.44 833.00 49.62 1105.03 414.75 721.78 691.80 762.19 50.03 692.44 449.73 166.34 363.85 869.36 464.55 410.41 381.23 358.53 340.46 838.08 539.68 728.03 704.37 382.09 644.44 0.00 420.62 439.44 901.89 336.10 495.87 294.66 841.32 749.14 403.47 336.46
641.20 48.63 483.40 148.41 236.66 121.84 1035.28 682.96 518.66 575.00 138.97 1018.63 1060.81 509.64 1050.64 1022.65 1073.92 133.83 550.03 1069.24 1013.04 992.73 523.81 192.04 1011.18 67.16 1003.47 463.52 110.34 987.53 790.90 927.65 1026.25 1020.19 1050.15 560.63 399.34 726.69 1252.58 137.42 922.04 1078.41 476.84 618.00 946.72 978.84 1017.62 393.77 1272.43 12.58 1051.22 1006.72 782.77 400.81 1013.95 549.15 281.26 357.31 1098.04 458.01 138.12 39.39 639.81 261.11 1149.64 598.30 956.71 1025.88 180.17 1054.76 420.62 0.00 278.27 1122.36 168.11 617.56 137.77 1043.77 992.18 320.51 104.18
619.78 246.78 395.13 260.71 41.61 157.30 969.32 710.73 407.99 692.37 202.45 919.36 1007.51 368.89 982.16 865.66 916.71 165.02 379.56 987.82 972.19 929.82 360.45 190.88 938.37 272.38 915.20 561.92 335.51 955.84 769.48 931.97 973.13 917.94 954.27 390.16 398.18 650.52 1145.55 181.90 896.37 964.19 341.20 446.46 923.76 880.78 899.05 433.14 1150.10 265.69 935.61 946.25 881.76 416.46 898.34 406.54 329.04 186.84 996.24 264.80 323.57 269.88 469.34 142.54 1033.69 405.09 920.20 910.27 113.29 1034.82 439.44 278.27 0.00 951.89 299.81 461.85 195.08 990.65 973.99 150.78 203.17
533.31 1095.32 645.13 1054.22 993.50 1002.25 217.35 499.13 656.10 607.09 1053.39 233.05 155.68 668.01 218.82 212.45 194.11 1016.48 610.19 148.58 218.16 249.67 648.98 1003.82 257.31 1060.34 175.78 903.98 1146.21 313.67 430.44 206.20 112.92 237.79 157.07 561.73 969.02 547.57 193.66 1026.01 452.73 174.22 700.27 663.00 269.77 208.65 288.38 852.27 244.30 1109.78 255.46 266.10 671.26 895.80 218.19 595.53 938.09 765.05 169.68 737.27 1178.87 1113.41 681.23 939.89 404.08 733.54 217.80 230.12 951.09 362.13 901.89 1122.36 951.89 0.00 1088.44 603.25 1047.72 95.40 264.37 839.62 1018.18
661.87 155.80 579.89 187.73 258.20 142.51 1021.99 711.31 549.02 603.35 119.21 970.75 988.39 566.07 1002.73 1016.93 1001.63 214.14 600.27 989.74 940.75 976.07 547.02 146.08 957.62 190.78 958.65 405.16 57.77 1015.88 811.57 903.82 975.52 970.88 995.30 583.03 241.42 755.04 1214.70 169.42 910.85 1021.18 497.51 638.67 874.30 920.27 1036.36 385.72 1213.86 180.69 999.99 970.01 833.01 368.92 979.23 594.79 249.37 407.55 1043.19 489.83 90.43 128.72 647.91 280.43 1164.22 630.12 901.86 967.30 223.21 980.54 336.10 168.11 299.81 1088.44 0.00 638.23 126.58 993.04 824.07 341.18 154.42
180.13 592.24 155.09 564.18 503.46 495.72 635.27 485.16 166.06 469.74 536.91 584.03 628.55 135.20 632.84 561.58 593.12 526.44 94.33 633.57 532.24 604.55 109.10 589.17 586.10 570.30 590.00 630.00 677.35 644.45 329.83 529.40 615.83 606.67 569.35 71.69 500.17 424.95 796.91 523.74 777.22 604.39 140.72 59.75 579.86 551.62 579.25 454.73 815.38 619.74 623.67 578.36 626.95 464.27 609.71 105.49 492.74 275.01 617.24 217.12 710.67 623.37 145.82 401.21 826.19 136.69 475.91 614.20 461.05 723.43 495.87 617.56 461.85 603.25 638.23 0.00 529.54 598.31 553.70 349.58 528.14
594.39 142.38 453.31 100.12 190.72 75.03 945.44 633.49 437.18 550.15 7.37 894.20 923.04 464.72 971.55 951.39 936.28 102.30 475.39 931.47 875.40 892.10 420.44 75.32 910.55 107.40 945.92 418.76 174.91 938.06 744.09 856.35 954.95 905.53 959.50 485.99 282.62 693.70 1146.27 57.58 784.27 955.83 430.03 559.65 808.95 907.54 925.10 330.97 1201.13 125.19 949.19 922.94 721.17 272.05 911.92 515.86 152.50 282.67 999.09 377.99 217.01 137.81 554.59 168.59 1098.87 518.28 909.84 899.99 96.63 926.00 294.66 137.77 195.08 1047.72 126.58 529.54 0.00 972.47 859.18 249.41 42.58
437.91 1023.85 627.87 981.20 981.62 957.27 151.84 504.51 659.19 598.09 979.84 186.29 60.28 654.11 174.00 174.92 99.23 942.75 647.40 53.18 137.66 180.36 697.24 908.42 161.91 988.87 107.80 834.67 1050.81 239.31 367.97 116.12 17.52 179.72 61.67 652.44 928.25 457.49 278.14 985.29 357.33 143.46 722.67 658.06 174.37 146.18 196.17 791.70 339.70 1044.95 178.00 174.30 601.95 800.40 169.77 686.24 883.44 836.16 74.28 768.35 1083.47 1083.16 613.25 943.65 308.68 735.00 122.40 157.84 877.36 266.73 841.32 1043.77 990.65 95.40 993.04 598.31 972.47 0.00 168.97 865.16 1002.47
393.30 979.87 653.90 952.35 1012.18 912.66 197.92 394.69 614.58 486.17 859.60 146.68 164.32 660.09 223.39 192.86 177.56 932.66 597.42 165.67 116.68 152.00 613.54 886.92 133.55 959.63 134.58 806.31 881.84 210.95 287.96 79.75 151.45 146.81 171.23 607.83 759.28 334.48 390.63 909.65 364.00 197.11 694.42 613.45 50.23 96.20 212.29 699.52 389.79 983.15 175.92 145.94 573.59 755.79 155.16 638.58 714.47 787.15 219.12 770.82 914.50 952.79 571.09 926.05 340.15 690.39 77.79 143.23 930.22 271.22 749.14 992.18 973.99 264.37 824.07 553.70 859.18 168.97 0.00 861.72 894.81
507.51 295.19 278.39 302.08 192.39 198.67 818.54 688.58 257.21 590.00 256.78 818.76 856.73 252.15 847.63 766.03 765.93 218.17 267.29 837.04 826.81 817.55 248.18 297.70 826.10 313.75 798.46 464.98 367.45 843.57 657.21 819.70 867.05 805.67 803.49 277.89 498.15 630.26 1033.28 226.69 959.82 813.41 244.73 349.99 811.49 768.51 810.08 415.60 1050.47 320.37 823.34 833.98 799.91 356.68 786.07 310.07 237.13 74.57 867.12 168.33 427.07 329.91 357.07 101.47 921.42 308.62 794.00 798.00 152.78 922.55 403.47 320.51 150.78 839.62 341.18 349.58 249.41 865.16 861.72 0.00 244.54
565.23 104.19 461.42 57.54 161.56 45.87 961.17 618.92 424.25 577.99 35.21 927.76 965.62 435.18 998.11 944.59 978.86 59.72 445.85 974.05 917.98 919.94 426.74 95.73 914.93 69.21 939.61 461.34 166.18 923.49 714.93 898.93 984.95 930.85 974.18 456.45 303.03 679.13 1174.11 43.01 826.85 998.41 400.87 535.49 851.53 936.72 952.94 358.81 1229.03 91.60 947.85 902.54 678.59 299.89 939.76 474.31 180.34 253.13 1022.07 353.83 182.53 95.23 535.63 196.43 1099.98 494.12 880.74 927.83 125.11 953.84 336.46 104.18 203.17 1018.18 154.42 528.14 42.58 1002.47 894.81 244.54 0.00
DEMAND_SECTION
1 0
2 98
3 85
4 62
5 60
6 65
7 55
8 55
9 76
10 98
11 87
12 77
13 52
14 67
15 92
16 80
17 66
18 57
19 96
20 83
21 58
22 61
23 53
24 58
25 72
26 97
27 87
28 50
29 59
30 66
31 68
32 73
33 84
34 59
35 69
36 68
37 88
38 83
39 58
40 73
41 73
42 54
43 61
44 78
45 75
46 91
47 83
48 55
49 69
50 62
51 100
52 96
53 64
54 59
55 65
56 86
57 78
58 69
59 99
60 50
61 79
62 61
63 75
64 75
65 66
66 78
67 99
68 70
69 97
70 88
71 78
72 57
73 60
74 79
75 68
76 56
77 67
78 92
79 94
80 59
81 56
DEPOT_SECTION
1
-1
EOF
