NAME: LDG85_3136_none_85_0221
COMMENT: CVRP with travel times.  rootPos=3,custPos=1,demandType=3,avgRouteSizeIndex=6,weather=none,lambda_cluster=1,lambda_random=4, T1=300,T2=700,beta=1, alpha(i,j) ~ U(0.8,1.2)
TYPE: CVRP
DIMENSION: 86
EDGE_WEIGHT_TYPE: EXPLICIT
EDGE_WEIGHT_FORMAT: FULL_MATRIX
CAPACITY: 293
NODE_COORD_SECTION
1 0 0
2 293 578
3 667 182
4 34 738
5 596 987
6 41 935
7 914 957
8 309 914
9 179 463
10 644 24
11 910 488
12 417 725
13 172 910
14 490 788
15 875 32
16 155 422
17 740 965
18 222 371
19 888 558
20 536 180
21 181 463
22 554 245
23 712 956
24 376 919
25 6 53
26 986 522
27 826 307
28 260 748
29 522 425
30 562 780
31 660 411
32 470 325
33 10 97
34 215 536
35 112 947
36 218 334
37 764 471
38 790 151
39 542 731
40 735 861
41 562 812
42 424 875
43 935 397
44 451 559
45 631 113
46 381 54
47 663 971
48 545 989
49 470 534
50 57 489
51 84 926
52 440 97
53 916 453
54 50 597
55 70 811
56 96 167
57 811 92
58 540 79
59 547 111
60 328 376
61 755 726
62 407 868
63 739 729
64 576 474
65 368 71
66 309 449
67 204 656
68 378 564
69 515 414
70 416 550
71 216 353
72 776 493
73 56 754
74 126 335
75 478 767
76 650 524
77 630 880
78 463 930
79 582 584
80 81 697
81 403 965
82 628 284
83 316 604
84 43 236
85 234 970
86 698 749
EDGE_WEIGHT_SECTION
0.00 646.31 671.90 807.60 1066.74 919.54 1256.88 944.37 491.01 638.65 904.08 777.54 926.29 863.79 808.41 468.34 1133.46 438.63 948.78 569.50 493.11 656.37 1131.22 914.19 72.41 1008.69 850.16 778.04 656.15 923.06 795.00 600.24 124.65 579.45 899.22 408.65 835.23 764.24 880.25 1091.75 953.94 902.43 981.46 690.13 583.21 504.08 1101.96 1028.75 696.53 538.41 938.17 507.33 941.76 632.49 795.25 226.57 732.52 536.77 500.31 553.70 976.93 929.68 1010.47 776.15 476.41 583.79 698.67 698.30 682.85 646.36 438.51 860.13 779.65 404.59 842.76 785.99 1046.76 924.23 832.83 771.22 996.13 676.98 619.67 276.23 1004.92 977.48
646.31 0.00 486.61 348.85 490.63 449.10 737.17 384.11 195.26 646.04 610.03 201.43 408.81 287.68 725.40 240.64 561.09 277.11 576.55 459.41 193.16 386.33 568.21 373.83 573.90 632.09 606.90 190.49 246.32 346.95 406.48 283.68 550.75 146.18 448.04 237.66 483.71 632.99 305.04 515.64 377.83 326.32 656.27 154.31 541.20 503.02 525.85 452.64 187.41 232.69 404.80 556.24 584.88 285.12 357.95 473.36 649.51 519.01 544.19 171.45 457.22 328.85 490.76 284.12 475.35 139.77 124.17 76.21 273.02 126.65 249.18 481.58 310.16 328.48 277.04 380.58 470.65 348.12 305.20 275.82 426.86 442.65 43.56 410.42 469.23 457.77
671.90 486.61 0.00 805.62 818.82 933.50 752.75 760.56 568.65 225.13 389.01 606.70 868.19 618.35 238.79 613.22 809.24 527.60 478.37 165.01 566.55 146.01 764.95 778.03 662.10 489.19 291.78 662.11 240.29 617.43 246.92 296.43 686.59 589.27 923.65 496.33 367.61 146.38 590.22 692.13 648.31 720.58 345.19 439.18 88.69 368.69 805.65 800.20 450.25 692.34 889.20 277.88 403.91 699.60 826.16 669.05 162.90 208.05 171.59 451.26 602.11 700.81 595.54 360.29 350.55 480.75 610.78 469.49 266.99 419.11 526.19 392.51 796.77 581.85 615.51 407.45 706.40 760.76 443.96 753.50 738.00 118.60 530.17 557.38 851.94 546.18
807.60 348.85 805.62 0.00 600.40 231.21 851.93 366.26 341.81 880.69 891.35 466.36 278.17 486.39 998.44 376.37 676.52 368.97 866.44 683.73 339.71 735.18 663.09 420.41 735.19 942.24 834.59 295.48 565.33 542.88 689.92 600.14 697.86 291.46 239.00 426.76 783.28 854.86 508.64 642.20 549.43 377.35 863.87 446.62 849.76 727.34 580.84 562.41 470.85 305.84 225.41 748.72 889.60 219.86 113.93 581.03 922.55 779.13 782.97 456.23 732.03 343.19 701.12 588.84 699.67 364.09 228.85 425.06 538.63 407.42 396.90 762.90 42.86 404.02 441.73 667.09 572.38 457.89 601.98 73.03 441.20 714.21 333.45 532.38 381.36 696.00
1066.74 490.63 818.82 600.40 0.00 506.71 354.45 307.12 635.64 960.13 591.45 350.22 420.11 284.92 940.86 690.87 170.69 752.54 500.90 788.73 633.54 701.86 114.71 232.96 1039.97 610.11 713.65 395.56 592.18 230.44 609.93 687.74 1002.00 598.34 453.74 703.73 568.02 862.40 249.56 206.53 199.56 223.05 637.80 449.42 857.09 896.56 94.79 58.88 433.28 713.07 462.41 853.58 629.13 705.53 544.90 921.00 877.55 850.67 821.79 639.62 333.52 257.21 299.98 572.03 904.45 597.44 489.88 484.09 570.36 501.21 726.39 554.33 613.20 783.33 316.47 475.81 130.95 142.51 470.38 632.25 197.98 700.22 447.07 867.97 353.00 311.03
919.54 449.10 933.50 231.21 506.71 0.00 804.17 319.31 494.31 1009.32 900.39 480.16 134.95 482.13 1170.68 521.19 670.41 560.96 871.37 867.15 492.21 835.43 621.42 307.76 902.39 998.88 977.73 271.39 695.42 525.24 777.93 732.78 850.15 417.42 85.57 578.09 823.66 1048.72 504.38 623.91 494.36 400.60 1010.11 573.53 888.91 910.76 594.03 480.43 582.32 453.55 44.30 900.05 938.07 342.31 124.29 760.16 1094.79 875.21 911.67 614.10 714.39 384.98 693.65 683.52 883.09 547.51 324.93 525.31 675.71 514.39 577.88 812.56 195.36 615.01 437.47 763.17 524.62 416.30 628.71 224.34 388.08 851.29 429.76 708.56 227.93 660.74
1256.88 737.17 752.75 851.93 354.45 804.17 0.00 570.57 858.55 942.99 590.11 548.77 683.56 462.52 852.47 896.89 183.76 884.59 499.56 825.44 856.45 811.15 244.20 496.41 1184.47 627.47 560.14 676.61 670.30 410.11 619.73 775.36 1167.52 786.00 759.47 903.84 514.45 708.89 455.43 362.29 379.23 515.18 628.46 597.01 841.44 933.24 279.44 401.25 639.15 952.59 759.87 951.56 627.79 931.92 822.90 1030.31 776.58 905.17 870.02 826.08 279.95 510.74 290.64 642.49 960.91 743.06 773.78 666.93 668.34 610.52 873.98 539.35 817.42 990.71 474.46 538.54 279.55 457.17 491.37 842.50 539.23 733.32 706.64 1076.60 661.95 287.88
944.37 384.11 760.56 366.26 307.12 319.31 570.57 0.00 488.10 947.22 666.79 217.72 197.60 292.32 998.37 543.33 456.11 533.79 643.45 714.06 486.00 715.47 421.83 74.16 871.96 771.36 797.57 196.88 520.27 291.64 625.74 610.95 848.81 399.66 233.74 535.72 643.50 896.53 336.44 390.31 260.76 161.21 776.51 402.87 810.78 800.66 360.43 248.24 406.67 525.63 276.98 776.79 704.47 414.39 252.33 745.85 922.48 822.44 813.30 555.56 480.79 151.38 458.47 556.77 772.99 490.92 329.60 402.51 493.57 432.19 505.86 650.29 323.40 618.91 269.53 595.35 291.02 182.70 441.70 325.13 150.99 669.15 340.55 708.48 91.38 409.11
491.01 195.26 568.65 341.81 635.64 494.31 858.55 488.10 0.00 581.62 702.98 382.08 525.70 468.33 749.32 59.43 700.56 124.41 674.79 435.13 2.10 422.64 732.89 489.20 418.60 787.53 585.99 291.22 365.15 522.55 486.06 315.11 366.36 88.44 499.08 156.83 603.38 640.95 456.94 691.24 533.14 472.83 738.89 281.51 512.15 478.74 670.86 578.22 315.96 174.23 488.29 478.79 665.30 219.01 370.02 324.43 673.43 479.74 443.28 177.80 578.60 438.67 609.23 429.45 451.07 115.49 207.66 263.89 338.45 248.03 130.08 603.51 298.95 152.95 435.12 515.38 632.82 493.13 436.87 302.01 536.68 500.47 224.21 251.54 561.99 579.15
638.65 646.04 225.13 880.69 960.13 1009.32 942.99 947.22 581.62 0.00 554.01 758.53 1048.66 787.82 262.28 604.27 920.54 511.72 644.56 237.58 583.72 280.12 940.59 878.26 709.59 527.95 382.85 836.53 431.32 751.54 432.68 362.36 663.23 670.06 1008.26 453.93 536.92 234.10 710.57 868.42 782.42 835.20 534.69 592.72 136.44 340.07 928.95 985.96 569.58 649.94 965.02 254.94 591.69 761.18 937.38 609.27 221.06 134.11 138.34 481.67 751.88 801.04 743.76 488.04 317.30 557.22 684.39 639.15 453.65 611.54 483.79 561.82 870.38 580.65 743.16 535.73 875.20 915.74 555.26 837.33 899.05 304.36 689.60 610.28 989.61 720.48
904.08 610.03 389.01 891.35 591.45 900.39 590.11 666.79 702.98 554.01 0.00 561.02 779.78 562.66 465.36 723.44 565.18 675.48 90.55 479.89 700.88 467.00 545.00 592.63 916.17 104.61 263.95 726.93 391.58 484.42 277.57 481.34 900.48 659.41 855.69 664.26 153.35 375.92 472.63 449.09 491.27 646.30 111.27 479.81 477.70 692.37 566.45 612.79 470.77 761.47 856.09 626.74 37.68 843.77 890.98 846.00 443.61 575.89 539.43 582.10 310.16 652.09 322.53 325.91 710.11 616.47 682.76 533.82 418.28 483.93 693.57 128.45 868.75 804.32 524.45 244.52 491.56 632.78 387.02 818.32 674.57 402.36 592.55 837.02 758.17 324.89
777.54 201.43 606.70 466.36 350.22 480.16 548.77 217.72 382.08 758.53 561.02 0.00 359.55 86.25 819.77 414.75 393.80 466.06 537.00 537.23 384.18 497.75 366.78 172.40 774.74 622.44 579.85 247.34 366.41 183.19 408.02 461.58 748.44 309.58 435.46 439.09 425.78 678.81 153.06 351.88 181.84 153.48 642.38 185.15 652.98 652.23 346.57 312.23 188.95 434.12 435.86 657.91 568.79 453.16 470.05 620.58 743.88 645.61 636.47 372.88 372.34 187.64 363.27 339.05 640.18 308.24 237.51 184.79 374.69 241.20 450.61 432.57 423.50 445.36 103.10 411.97 269.22 207.71 295.10 436.73 254.34 532.68 157.87 573.72 309.10 325.63
926.29 408.81 868.19 278.17 420.11 134.95 683.56 197.60 525.70 1048.66 779.78 359.55 0.00 387.18 1106.17 580.93 569.10 616.21 774.47 835.26 523.60 785.00 534.82 187.15 853.88 884.39 882.78 260.72 627.90 404.63 758.61 692.49 855.19 456.03 75.91 638.71 728.71 1014.57 409.43 503.30 373.75 265.65 889.50 509.80 922.78 878.87 473.42 361.23 548.50 458.59 104.92 912.25 817.46 347.35 203.12 761.73 1030.28 924.21 910.32 580.26 593.78 264.37 573.04 639.61 851.20 515.62 373.93 431.70 629.03 488.11 639.21 753.61 241.85 625.27 342.52 668.34 404.01 295.69 554.69 298.17 268.99 804.61 365.25 650.06 108.84 540.13
863.79 287.68 618.35 486.39 284.92 482.13 462.52 292.32 468.33 787.82 562.66 86.25 387.18 0.00 785.80 485.01 335.36 515.13 472.11 608.08 470.43 521.21 318.81 218.16 815.01 600.02 584.92 275.65 435.77 96.94 371.43 447.49 798.06 391.34 423.84 525.34 430.85 642.22 111.57 265.63 95.59 168.91 581.81 252.34 651.38 696.03 260.32 246.93 273.55 520.37 467.08 692.29 591.97 539.41 514.60 660.85 709.91 670.02 683.80 441.28 286.09 202.50 277.02 376.33 707.37 373.60 323.76 255.05 409.07 241.06 529.31 455.75 443.53 531.61 44.66 370.48 182.97 142.41 298.43 436.07 224.47 499.75 244.12 659.97 383.70 256.47
808.41 725.40 238.79 998.44 940.86 1170.68 852.47 998.37 749.32 262.28 465.36 819.77 1106.17 785.80 0.00 808.75 902.64 739.43 548.77 403.80 751.42 357.84 842.20 940.48 775.05 526.98 292.33 899.29 479.08 784.76 414.37 508.26 827.29 775.20 1161.46 708.16 446.40 143.58 765.68 805.94 753.88 900.97 386.44 670.44 303.84 485.68 921.81 947.10 633.44 889.38 1126.38 424.70 460.03 911.43 1055.31 819.72 75.89 344.56 308.10 606.73 674.42 935.13 640.88 538.21 485.87 645.11 849.57 707.30 504.80 657.90 738.02 471.30 1023.80 735.86 829.16 562.59 809.91 928.21 580.49 992.29 948.62 329.22 740.92 796.17 1089.75 690.24
468.34 240.64 613.22 376.37 690.87 521.19 896.89 543.33 59.43 604.27 723.44 414.75 580.93 485.01 808.75 0.00 731.05 101.21 730.02 490.36 57.33 467.21 740.44 548.63 395.93 784.86 641.22 346.45 424.58 489.55 521.34 332.38 393.68 143.67 554.31 155.26 619.89 696.18 507.26 658.24 520.43 528.06 794.12 308.06 567.38 503.32 702.46 633.45 352.09 140.21 539.82 420.45 720.53 234.28 396.90 265.00 732.86 470.16 502.71 233.03 616.94 493.90 650.48 425.90 475.65 170.72 262.89 229.96 397.88 286.37 125.40 594.99 354.18 93.82 440.35 529.85 620.11 548.36 463.42 303.34 591.91 545.04 283.64 192.11 617.22 617.49
1133.46 561.09 809.24 676.52 170.69 670.41 183.76 456.11 700.56 920.54 565.18 393.80 569.10 335.36 902.64 731.05 0.00 761.17 474.63 762.74 698.46 697.88 60.44 381.95 1061.05 602.54 654.93 526.46 568.95 293.86 578.47 659.63 1044.10 612.12 612.35 794.78 500.86 759.36 339.18 178.53 262.98 331.42 607.23 498.38 784.10 908.17 95.68 217.49 476.83 793.78 626.11 825.47 602.86 748.16 649.41 906.89 827.05 846.69 856.66 687.32 297.24 365.58 269.41 506.96 902.16 619.64 590.02 501.09 542.25 487.10 775.35 523.76 633.66 824.87 290.70 502.31 196.28 273.41 365.28 685.16 355.47 706.79 524.18 923.16 511.61 280.55
438.63 277.11 527.60 368.97 752.54 560.96 884.59 533.79 124.41 511.72 675.48 466.06 616.21 515.13 739.43 101.21 761.17 0.00 651.58 434.90 122.31 381.59 758.93 587.63 366.22 747.92 632.60 362.96 329.92 539.56 420.13 231.17 349.27 160.18 593.07 57.79 558.17 607.27 502.98 708.25 570.44 538.54 733.61 304.90 514.19 405.85 740.60 698.43 342.00 241.42 560.03 379.75 660.02 287.74 436.67 212.06 663.54 469.02 432.56 159.68 604.64 510.41 638.18 437.25 378.18 197.77 279.40 326.54 343.95 274.07 27.93 558.05 392.94 128.84 470.47 441.98 628.70 613.34 460.26 336.62 608.42 459.42 317.62 208.87 594.34 605.19
948.78 576.55 478.37 866.44 500.90 871.37 499.56 643.45 674.79 644.56 90.55 537.00 774.47 472.11 548.77 730.02 474.63 651.58 0.00 498.18 672.69 437.60 454.45 587.32 876.37 127.91 325.71 663.00 394.64 393.87 231.45 495.14 928.61 686.71 830.62 667.32 171.64 466.47 475.55 358.54 400.72 563.17 171.71 468.10 527.69 646.25 504.42 559.78 450.52 792.20 850.78 645.03 128.23 753.22 847.38 799.88 472.88 586.41 584.79 562.03 219.61 591.74 239.40 355.29 673.92 559.30 673.42 546.20 377.76 511.23 679.51 170.71 832.77 780.42 433.90 275.25 408.43 545.89 312.74 845.62 627.95 359.77 532.99 833.43 734.83 234.34
569.50 459.41 165.01 683.73 788.73 867.15 825.44 714.06 435.13 237.58 479.89 537.23 835.26 608.08 403.80 490.36 762.74 434.90 498.18 0.00 433.03 86.87 751.59 709.63 497.09 540.29 337.88 628.38 247.19 558.29 293.02 203.73 530.94 449.73 877.15 380.65 326.54 311.39 596.38 633.50 589.17 690.71 499.88 399.47 182.14 237.66 771.20 808.21 412.66 563.91 849.58 146.85 487.66 609.08 769.40 540.59 327.91 108.38 99.24 402.75 561.04 712.75 534.80 313.79 230.22 319.64 568.95 422.99 220.49 386.18 410.51 351.44 698.33 538.44 563.42 379.97 659.90 731.03 397.46 696.93 769.16 164.70 470.01 543.60 805.44 584.16
493.11 193.16 566.55 339.71 633.54 492.21 856.45 486.00 2.10 583.72 700.88 384.18 523.60 470.43 751.42 57.33 698.46 122.31 672.69 433.03 0.00 420.54 730.79 491.30 420.70 785.43 583.89 289.12 367.25 520.45 483.96 313.01 368.46 86.34 496.98 158.93 605.48 638.85 454.84 689.14 531.04 470.73 736.79 279.41 510.05 476.64 668.76 576.12 313.86 172.13 486.19 477.78 663.20 221.11 367.92 322.33 675.53 481.84 445.38 175.70 576.50 436.57 607.13 427.35 448.97 113.39 205.56 265.99 340.55 245.93 132.18 601.41 296.85 151.15 433.02 513.28 630.72 491.03 434.77 302.47 534.58 498.37 226.31 249.44 559.89 577.05
656.37 386.33 146.01 735.18 701.86 835.43 811.15 715.47 422.64 280.12 467.00 497.75 785.00 521.21 357.84 467.21 697.88 381.59 437.60 86.87 420.54 0.00 724.18 670.15 583.96 529.80 251.01 576.82 220.18 471.42 206.15 150.42 617.81 506.88 834.37 350.32 326.84 292.39 512.46 640.11 502.30 607.74 416.17 312.60 155.23 275.59 684.33 721.34 356.63 546.33 791.13 233.72 446.04 553.59 734.14 586.02 281.95 148.81 185.27 315.88 559.62 634.39 533.33 329.99 268.81 399.01 510.50 390.70 246.88 384.51 380.18 351.74 696.49 498.18 476.55 296.84 595.08 663.62 332.60 662.15 697.23 77.83 419.75 523.08 777.67 569.59
1131.22 568.21 764.95 663.09 114.71 621.42 244.20 421.83 732.89 940.59 545.00 366.78 534.82 318.81 842.20 740.44 60.44 758.93 454.45 751.59 730.79 724.18 0.00 347.67 1058.81 582.36 625.37 510.27 569.93 266.40 518.03 678.69 1041.86 646.77 568.45 792.54 471.30 774.12 311.72 118.09 235.52 337.76 607.29 507.77 814.27 865.47 82.25 173.59 495.44 800.90 577.12 858.47 582.68 792.24 659.61 904.65 841.81 813.44 802.25 696.71 236.80 345.00 269.47 540.61 841.72 617.40 576.59 510.48 575.25 484.86 779.76 496.20 620.23 812.14 300.09 441.87 135.84 257.22 401.38 624.72 312.69 646.35 524.65 932.55 467.71 220.11
914.19 373.83 778.03 420.41 232.96 307.76 496.41 74.16 489.20 878.26 592.63 172.40 187.15 218.16 940.48 548.63 381.95 587.63 587.32 709.63 491.30 670.15 347.67 0.00 841.78 697.24 730.03 271.04 538.81 217.48 580.42 586.24 855.56 427.45 263.06 603.75 575.96 851.21 262.80 316.15 186.60 111.38 702.35 357.55 786.36 824.63 286.27 174.08 361.35 480.11 263.46 827.73 630.31 488.55 326.49 792.98 864.59 818.01 808.87 493.85 406.63 77.22 385.89 511.45 812.58 480.64 375.91 357.19 544.51 411.62 580.02 600.86 397.56 617.76 235.06 521.71 216.86 108.54 367.54 399.29 81.94 692.27 330.27 740.74 165.54 352.98
72.41 573.90 662.10 735.19 1039.97 902.39 1184.47 871.96 418.60 709.59 916.17 774.74 853.88 815.01 775.05 395.93 1061.05 366.22 876.37 497.09 420.70 583.96 1058.81 841.78 0.00 976.57 834.97 709.82 583.74 871.50 722.59 527.83 52.24 507.04 826.81 336.24 762.82 790.87 807.84 1035.58 884.04 891.43 993.69 617.72 650.14 431.67 1066.07 996.82 624.12 466.00 870.03 465.45 923.94 560.08 778.31 154.16 803.46 585.80 571.25 481.29 904.52 857.27 938.06 703.74 404.00 511.38 626.26 625.89 610.44 573.95 366.10 787.72 707.24 332.18 770.35 764.65 983.72 911.73 760.42 698.81 923.72 661.79 617.46 203.82 932.51 905.07
1008.69 632.09 489.19 942.24 610.11 998.88 627.47 771.36 787.53 527.95 104.61 622.44 884.39 600.02 526.98 784.86 602.54 747.92 127.91 540.29 785.43 529.80 582.36 697.24 976.57 0.00 278.79 788.35 451.98 521.78 359.36 542.76 961.90 720.83 958.53 724.66 213.75 383.40 533.03 486.45 528.63 691.08 144.00 535.09 542.25 706.11 632.33 668.99 491.06 822.89 954.58 687.14 134.33 881.13 927.92 927.79 451.09 648.67 625.15 609.73 347.52 712.49 367.31 387.33 678.44 677.89 744.18 595.24 478.68 545.35 749.01 189.87 925.53 840.49 561.81 305.94 536.34 673.80 440.65 869.21 755.86 451.97 653.97 897.42 862.74 362.25
850.16 606.90 291.78 834.59 713.65 977.73 560.14 797.57 585.99 382.85 263.95 579.85 882.78 584.92 292.33 641.22 654.93 632.60 325.71 337.88 583.89 251.01 625.37 730.03 834.97 278.79 0.00 747.28 369.51 539.40 217.28 401.43 868.82 600.59 958.69 601.33 154.07 148.75 473.35 558.77 549.55 671.45 165.16 480.38 333.01 526.60 647.07 654.77 436.35 714.77 950.91 474.17 238.75 759.94 902.31 785.71 216.44 399.82 398.20 515.58 388.57 652.81 422.11 341.12 519.82 470.50 708.50 530.69 348.76 504.28 606.98 178.97 849.19 636.43 540.26 270.26 591.14 727.33 392.61 838.67 750.82 173.18 612.54 688.19 871.05 471.47
778.04 190.49 662.11 295.48 395.56 271.39 676.61 196.88 291.22 836.53 726.93 247.34 260.72 275.65 899.29 346.45 526.46 362.96 663.00 628.38 289.12 576.82 510.27 271.04 709.82 788.35 747.28 0.00 436.81 310.57 530.00 474.17 657.58 202.78 270.33 420.75 611.72 800.79 356.71 479.26 297.38 251.82 786.48 314.91 728.22 671.99 430.78 355.23 310.93 398.07 227.09 694.23 712.89 325.88 307.41 575.02 823.40 709.50 727.62 361.94 499.72 240.90 478.02 412.13 644.32 308.74 186.65 266.70 411.01 243.00 390.89 598.48 252.62 422.03 289.80 516.08 397.06 253.05 387.92 252.38 294.22 586.59 158.37 538.56 288.26 428.66
656.15 246.32 240.29 565.33 592.18 695.42 670.30 520.27 365.15 431.32 391.58 366.41 627.90 435.77 479.08 424.58 568.95 329.92 394.64 247.19 367.25 220.18 569.93 538.81 583.74 451.98 369.51 436.81 0.00 428.57 163.19 110.97 585.77 370.19 683.36 272.68 238.23 386.67 349.93 451.84 426.13 519.89 409.95 198.89 294.88 359.51 578.01 627.45 242.92 468.69 651.12 309.92 399.35 472.18 601.76 508.38 403.19 355.57 346.43 210.97 390.35 508.70 404.40 120.00 387.18 254.59 370.49 229.20 26.70 194.71 301.99 263.13 556.48 429.92 391.11 212.74 466.11 574.12 203.67 522.14 521.97 196.33 289.88 445.44 611.65 443.27
923.06 346.95 617.43 542.88 230.44 525.24 410.11 291.64 522.55 751.54 484.42 183.19 404.63 96.94 784.76 489.55 293.86 539.56 393.87 558.29 520.45 471.42 266.40 217.48 871.50 521.78 539.40 310.57 428.57 0.00 426.03 486.28 838.07 447.83 480.54 582.20 408.10 688.15 88.82 168.69 30.88 232.34 484.87 288.68 626.65 729.47 212.91 249.92 266.19 579.64 480.94 705.14 522.10 566.16 465.50 717.34 708.87 620.23 656.69 478.88 189.15 237.12 180.08 368.65 740.23 407.06 420.70 311.54 455.27 297.55 565.65 433.00 500.02 583.37 101.15 347.73 130.56 216.89 280.25 533.01 298.95 549.25 303.39 681.66 383.02 159.53
795.00 406.48 246.92 689.92 609.93 777.93 619.73 625.74 486.06 432.68 277.57 408.02 758.61 371.43 414.37 521.34 578.47 420.13 231.45 293.02 483.96 206.15 518.03 580.42 722.59 359.36 217.28 530.00 163.19 426.03 0.00 274.16 705.64 462.48 776.87 435.87 162.73 270.79 402.79 533.37 456.91 540.34 313.48 263.10 296.24 414.80 558.73 553.28 219.07 631.88 733.63 433.62 239.89 635.37 694.05 568.43 338.48 354.96 353.34 359.48 363.17 524.41 396.71 123.84 442.47 416.07 511.70 331.75 175.21 287.00 448.06 187.63 677.71 548.97 416.09 214.90 478.98 513.84 255.49 621.39 595.90 128.32 421.22 608.63 688.77 446.07
600.24 283.68 296.43 600.14 687.74 732.78 775.36 610.95 315.11 362.36 481.34 461.58 692.49 447.49 508.26 332.38 659.63 231.17 495.14 203.73 313.01 150.42 678.69 586.24 527.83 542.76 401.43 474.17 110.97 486.28 274.16 0.00 538.13 378.68 730.95 288.96 335.51 376.10 460.90 562.81 517.16 543.18 520.92 308.61 305.65 248.54 668.69 694.42 305.01 404.29 688.48 302.08 489.11 515.53 641.63 443.23 432.37 280.04 260.51 199.58 499.60 509.02 484.72 210.68 276.21 248.59 407.85 276.79 117.38 285.39 259.10 352.89 593.84 360.01 474.99 236.82 556.79 589.90 294.35 559.50 607.03 228.25 327.24 440.04 627.25 533.95
124.65 550.75 686.59 697.86 1002.00 850.15 1167.52 848.81 366.36 663.23 900.48 748.44 855.19 798.06 827.29 393.68 1044.10 349.27 928.61 530.94 368.46 617.81 1041.86 855.56 52.24 961.90 868.82 657.58 585.77 838.07 705.64 538.13 0.00 454.80 832.57 313.09 796.93 832.97 755.60 1006.76 831.80 839.19 981.84 615.91 597.90 457.64 1013.83 944.58 571.88 457.59 846.88 513.77 908.25 507.84 726.07 137.21 825.85 612.37 623.49 429.05 887.57 805.03 921.11 705.77 456.24 481.85 574.02 613.41 612.47 557.00 342.95 772.03 655.00 337.94 753.40 766.63 931.48 859.49 736.57 668.37 890.11 695.64 590.57 209.58 909.36 888.12
579.45 146.18 589.27 291.46 598.34 417.42 786.00 399.66 88.44 670.06 659.41 309.58 456.03 391.34 775.20 143.67 612.12 160.18 686.71 449.73 86.34 506.88 646.77 427.45 507.04 720.83 600.59 202.78 370.19 447.83 462.48 378.68 454.80 0.00 443.09 217.97 552.21 673.44 368.50 616.52 444.70 384.39 713.91 247.39 596.39 493.34 613.56 550.22 243.41 195.29 399.85 539.93 653.38 220.88 319.67 372.24 699.31 557.85 531.72 210.29 506.05 350.23 539.59 352.62 465.67 130.09 119.22 222.39 343.49 175.48 188.11 530.96 248.60 219.25 346.68 456.57 544.38 455.83 373.97 247.20 448.24 519.07 157.44 335.78 473.55 503.55
899.22 448.04 923.65 239.00 453.74 85.57 759.47 233.74 499.08 1008.26 855.69 435.46 75.91 423.84 1161.46 554.31 612.35 593.07 830.62 877.15 496.98 834.37 568.45 263.06 826.81 958.53 958.69 270.33 683.36 480.54 776.87 730.95 832.57 443.09 0.00 577.03 804.62 1047.66 485.34 579.21 449.66 341.56 965.41 532.26 887.85 925.09 516.67 394.86 576.29 484.97 43.24 898.99 893.37 377.13 186.16 734.66 1085.57 874.15 910.61 613.18 669.69 340.28 648.95 662.07 897.42 573.18 323.87 454.16 656.66 510.57 577.53 829.52 200.13 581.86 418.43 744.25 479.92 371.60 630.60 256.45 302.51 832.24 428.70 622.99 142.36 616.04
408.65 237.66 496.33 426.76 703.73 578.09 903.84 535.72 156.83 453.93 664.26 439.09 638.71 525.34 708.16 155.26 794.78 57.79 667.32 380.65 158.93 350.32 792.54 603.75 336.24 724.66 601.33 420.75 272.68 582.20 435.87 288.96 313.09 217.97 577.03 0.00 510.91 628.87 506.69 724.52 582.89 560.69 682.63 306.83 456.40 348.06 756.21 683.00 350.86 196.01 533.79 321.96 672.03 307.25 483.45 235.70 632.27 443.74 438.56 165.72 638.25 526.53 662.92 392.68 320.39 175.14 337.19 307.76 299.38 307.68 29.86 535.81 439.72 157.79 504.08 485.42 682.57 578.48 462.19 383.40 624.54 428.15 281.22 172.76 596.27 638.80
835.23 483.71 367.61 783.28 568.02 823.66 514.45 643.50 603.38 536.92 153.35 425.78 728.71 430.85 446.40 619.89 500.86 558.17 171.64 326.54 605.48 326.84 471.30 575.96 762.82 213.75 154.07 611.72 238.23 408.10 162.73 335.51 796.93 552.21 804.62 510.91 0.00 302.82 319.28 404.70 395.48 517.38 234.71 353.49 401.66 564.20 493.00 569.94 317.42 633.14 822.51 473.39 161.12 710.41 766.33 731.16 370.51 434.92 425.78 449.20 234.50 498.74 268.04 199.59 556.76 492.82 554.43 407.50 264.93 380.38 540.22 24.90 740.42 668.15 386.19 116.19 437.07 573.26 254.51 714.77 596.75 249.01 463.07 683.67 716.98 317.40
764.24 632.99 146.38 854.86 862.40 1048.72 708.89 896.53 640.95 234.10 375.92 678.81 1014.57 642.22 143.58 696.18 759.36 607.27 466.47 311.39 638.85 292.39 774.12 851.21 790.87 383.40 148.75 800.79 386.67 688.15 270.79 376.10 832.97 673.44 1047.66 628.87 302.82 0.00 622.10 707.52 698.30 811.13 313.91 533.89 235.07 383.20 795.82 803.52 489.86 780.39 1004.42 325.42 387.50 844.73 952.96 803.58 67.69 336.36 299.90 463.15 537.32 795.20 570.86 394.63 408.79 555.29 757.16 602.54 413.37 557.79 602.43 327.72 897.72 622.43 685.58 419.01 739.89 784.63 526.28 852.91 852.32 264.38 676.55 703.76 959.56 620.22
880.25 305.04 590.22 508.64 249.56 504.38 455.43 336.44 456.94 710.57 472.63 153.06 409.43 111.57 765.68 507.26 339.18 502.98 475.55 596.38 454.84 512.46 311.72 262.80 807.84 533.03 473.35 356.71 349.93 88.82 402.79 460.90 755.60 368.50 485.34 506.69 319.28 622.10 0.00 257.51 76.20 198.10 553.99 199.86 644.81 647.00 258.23 290.96 183.72 537.73 503.23 659.85 480.40 570.10 536.85 671.44 689.79 608.69 572.23 390.06 273.31 224.75 243.13 322.47 654.89 365.88 377.16 277.30 376.63 251.65 476.83 344.18 465.78 587.75 66.91 258.91 175.88 253.98 239.76 514.31 296.79 504.64 261.48 679.45 397.70 241.21
1091.75 515.64 692.13 642.20 206.53 623.91 362.29 390.31 691.24 868.42 449.09 351.88 503.30 265.63 805.94 658.24 178.53 708.25 358.54 633.50 689.14 640.11 118.09 316.15 1035.58 486.45 558.77 479.26 451.84 168.69 533.37 562.81 1006.76 616.52 579.21 724.52 404.70 707.52 257.51 0.00 198.97 364.64 502.88 457.37 746.72 793.30 158.45 260.63 434.88 748.33 579.61 761.76 486.77 734.85 634.19 886.03 775.21 741.88 730.08 647.57 170.20 330.48 165.06 422.52 797.49 575.75 589.39 480.23 478.54 466.24 734.34 419.41 656.46 752.06 269.84 412.96 99.29 293.70 365.79 662.24 375.76 608.77 472.08 850.35 481.69 147.94
953.94 377.83 648.31 549.43 199.56 494.36 379.23 260.76 533.14 782.42 491.27 181.84 373.75 95.59 753.88 520.43 262.98 570.44 400.72 589.17 531.04 502.30 235.52 186.60 884.04 528.63 549.55 297.38 426.13 30.88 456.91 517.16 831.80 444.70 449.66 582.89 395.48 698.30 76.20 198.97 0.00 230.07 515.75 276.06 657.53 723.20 182.03 219.04 259.92 610.52 450.06 720.34 528.95 597.04 496.38 747.64 677.99 651.11 648.43 466.26 220.03 206.24 210.96 389.15 731.09 437.94 419.35 342.26 437.12 327.85 553.03 420.38 530.74 614.25 131.87 335.11 99.68 192.84 270.82 531.66 268.54 580.13 334.27 712.54 352.14 166.38
902.43 326.32 720.58 377.35 223.05 400.60 515.18 161.21 472.83 835.20 646.30 153.48 265.65 168.91 900.97 528.06 331.42 538.54 563.17 690.71 470.73 607.74 337.76 111.38 891.43 691.08 671.45 251.82 519.89 232.34 540.34 543.18 839.19 384.39 341.56 560.69 517.38 811.13 198.10 364.64 230.07 0.00 661.59 338.63 737.91 791.72 258.27 185.06 342.43 519.61 370.57 778.82 678.50 548.50 413.54 747.38 840.39 756.55 770.33 497.77 357.31 34.16 323.77 472.17 768.71 433.13 332.85 338.27 495.60 327.59 566.47 542.28 403.13 560.28 131.19 457.01 265.35 80.54 335.79 450.38 104.33 601.98 282.76 688.64 230.77 359.20
981.46 656.27 345.19 863.87 637.80 1010.11 628.46 776.51 738.89 534.69 111.27 642.38 889.50 581.81 386.44 794.12 607.23 733.61 171.71 499.88 736.79 416.17 607.29 702.35 993.69 144.00 165.16 786.48 409.95 484.87 313.48 520.92 981.84 713.91 965.41 682.63 234.71 313.91 553.99 502.88 515.75 661.59 0.00 528.25 398.25 674.85 613.74 668.19 532.55 842.83 965.81 597.75 73.59 882.13 950.37 881.91 334.46 517.61 481.15 599.44 371.36 695.75 337.82 374.35 647.18 635.66 764.12 582.26 436.65 555.77 711.94 209.81 906.73 797.82 586.02 325.88 506.85 698.73 468.38 862.20 765.92 338.34 673.91 853.35 867.89 387.18
690.13 154.31 439.18 446.62 449.42 573.53 597.01 402.87 281.51 592.72 479.81 185.15 509.80 252.34 670.44 308.06 498.38 304.90 468.10 399.47 279.41 312.60 507.77 357.55 617.72 535.09 480.38 314.91 198.89 288.68 263.10 308.61 615.91 247.39 532.26 306.83 353.49 533.89 199.86 457.37 276.06 338.63 528.25 0.00 467.83 482.70 458.09 490.82 44.03 387.00 529.23 474.45 454.66 439.43 478.96 491.70 594.55 461.41 467.25 258.16 342.41 346.83 356.09 153.90 455.03 166.02 248.60 78.10 191.23 71.91 276.97 351.36 434.59 401.88 207.68 257.85 375.74 392.86 155.36 406.30 430.38 366.81 197.87 479.59 471.12 394.96
583.21 541.20 88.69 849.76 857.09 888.91 841.44 810.78 512.15 136.44 477.70 652.98 922.78 651.38 303.84 567.38 784.10 514.19 527.69 182.14 510.05 155.23 814.27 786.36 650.14 542.25 333.01 728.22 294.88 626.65 296.24 305.65 597.90 596.39 887.85 456.40 401.66 235.07 644.81 746.72 657.53 737.91 398.25 467.83 0.00 287.79 839.56 849.52 483.95 652.41 844.61 199.50 471.84 708.82 877.97 594.52 227.95 119.36 82.90 433.98 615.44 764.56 619.55 410.51 261.86 487.71 665.37 519.71 317.21 485.22 486.26 426.56 806.90 525.21 606.72 452.07 750.31 793.79 418.82 812.52 787.32 167.92 574.98 629.16 902.16 634.87
504.08 503.02 368.69 727.34 896.56 910.76 933.24 800.66 478.74 340.07 692.37 652.23 878.87 696.03 485.68 503.32 908.17 405.85 646.25 237.66 476.64 275.59 865.47 824.63 431.67 706.11 526.60 671.99 359.51 729.47 414.80 248.54 457.64 493.34 925.09 348.06 564.20 383.20 647.00 793.30 723.20 791.72 674.85 482.70 287.79 0.00 905.23 922.70 463.28 523.67 881.85 90.81 654.69 634.91 813.01 436.77 409.79 217.89 204.89 382.93 728.26 757.56 694.72 459.22 27.67 363.25 612.56 525.33 365.92 495.79 377.92 589.10 741.94 421.35 690.38 485.36 805.33 818.18 542.89 731.46 855.57 353.42 513.62 506.04 803.05 645.36
1101.96 525.85 805.65 580.84 94.79 594.03 279.44 360.43 670.86 928.95 566.45 346.57 473.42 260.32 921.81 702.46 95.68 740.60 504.42 771.20 668.76 684.33 82.25 286.27 1066.07 632.33 647.07 430.78 578.01 212.91 558.73 668.69 1013.83 613.56 516.67 756.21 493.00 795.82 258.23 158.45 182.03 258.27 613.74 458.09 839.56 905.23 0.00 121.81 441.95 728.39 549.73 834.53 604.13 709.99 609.05 921.17 860.02 833.14 830.46 648.29 314.47 292.43 280.93 541.96 913.12 619.97 494.34 515.37 551.31 501.38 735.06 517.90 537.98 781.71 304.98 456.76 111.90 177.73 452.85 592.92 259.79 687.05 482.29 894.57 415.93 272.75
1028.75 452.64 800.20 562.41 58.88 480.43 401.25 248.24 578.22 985.96 612.79 312.23 361.23 246.93 947.10 633.45 217.49 698.43 559.78 808.21 576.12 721.34 173.59 174.08 996.82 668.99 654.77 355.23 627.45 249.92 553.28 694.42 944.58 550.22 394.86 683.00 569.94 803.52 290.96 260.63 219.04 185.06 668.19 490.82 849.52 922.70 121.81 0.00 468.90 654.19 437.54 883.97 650.47 646.65 500.57 898.45 871.21 870.15 863.19 624.09 363.91 219.22 330.37 608.19 895.03 559.45 431.00 425.21 600.75 481.62 701.82 584.72 554.32 727.27 291.59 506.20 161.34 104.52 489.86 573.37 186.58 681.60 409.08 825.56 294.12 341.42
696.53 187.41 450.25 470.85 433.28 582.32 639.15 406.67 315.96 569.58 470.77 188.95 548.50 273.55 633.44 352.09 476.83 342.00 450.52 412.66 313.86 356.63 495.44 361.35 624.12 491.06 436.35 310.93 242.92 266.19 219.07 305.01 571.88 243.41 576.29 350.86 317.42 489.86 183.72 434.88 259.92 342.43 532.55 44.03 483.95 463.28 441.95 468.90 0.00 420.10 538.02 503.37 458.96 464.29 474.98 487.72 557.55 505.44 511.28 292.61 386.44 376.59 365.42 197.93 490.95 200.47 292.63 122.13 220.15 67.93 321.00 342.32 458.64 445.91 228.89 274.91 359.60 396.66 164.69 402.32 443.29 347.39 202.15 523.62 498.05 384.68
538.41 232.69 692.34 305.84 713.07 453.55 952.59 525.63 174.23 649.94 761.47 434.12 458.59 520.37 889.38 140.21 793.78 241.42 792.20 563.91 172.13 546.33 800.90 480.11 466.00 822.89 714.77 398.07 468.69 579.64 631.88 404.29 457.59 195.29 484.97 196.01 633.14 780.39 537.73 748.33 610.52 519.61 842.83 387.00 652.41 523.67 728.39 654.19 420.10 0.00 472.79 517.97 769.24 111.24 332.86 373.85 813.49 610.37 608.99 336.41 689.91 532.74 714.07 516.81 496.00 244.27 234.05 308.90 495.39 359.34 225.87 633.02 284.84 166.68 509.73 516.95 696.97 580.81 537.89 232.81 562.05 624.16 276.25 262.18 567.43 664.71
938.17 404.80 889.20 225.41 462.41 44.30 759.87 276.98 488.29 965.02 856.09 435.86 104.92 467.08 1126.38 539.82 626.11 560.03 850.78 849.58 486.19 791.13 577.12 263.46 870.03 954.58 950.91 227.09 651.12 480.94 733.63 688.48 846.88 399.85 43.24 533.79 822.51 1004.42 503.23 579.61 450.06 370.57 965.81 529.23 844.61 881.85 549.73 437.54 538.02 472.79 0.00 855.75 893.77 361.55 142.92 768.60 1050.49 830.91 867.37 569.94 670.09 340.68 649.35 639.22 854.18 529.94 280.63 481.01 638.10 470.09 534.29 825.57 203.80 619.10 447.44 718.87 480.32 372.00 615.01 242.97 345.40 813.68 385.46 666.23 185.60 616.44
507.33 556.24 277.88 748.72 853.58 900.05 951.56 776.79 478.79 254.94 626.74 657.91 912.25 692.29 424.70 420.45 825.47 379.75 645.03 146.85 477.78 233.72 858.47 827.73 465.45 687.14 474.17 694.23 309.92 705.14 433.62 302.08 513.77 539.93 898.99 321.96 473.39 325.42 659.85 761.76 720.34 778.82 597.75 474.45 199.50 90.81 834.53 883.97 503.37 517.97 855.75 0.00 618.35 629.21 805.41 478.16 348.81 127.08 116.60 466.29 694.46 805.47 660.92 376.52 83.37 418.95 659.15 485.72 283.22 451.23 351.82 498.29 761.68 479.75 647.63 469.26 722.63 834.70 460.19 705.36 831.89 311.55 547.00 434.23 858.75 698.74
941.76 584.88 403.91 889.60 629.13 938.07 627.79 704.47 665.30 591.69 37.68 568.79 817.46 591.97 460.03 720.53 602.86 660.02 128.23 487.66 663.20 446.04 582.68 630.31 923.94 134.33 238.75 712.89 399.35 522.10 239.89 489.11 908.25 653.38 893.37 672.03 161.12 387.50 480.40 486.77 528.95 678.50 73.59 454.66 471.84 654.69 604.13 650.47 458.96 769.24 893.77 618.35 0.00 870.00 889.23 808.32 408.05 538.21 501.75 578.33 347.84 659.86 360.21 300.76 680.71 614.72 690.53 508.67 394.06 482.18 687.95 136.22 872.89 788.86 547.31 252.29 526.91 670.46 394.79 816.57 712.25 368.21 600.32 844.79 795.85 362.57
632.49 285.12 699.60 219.86 705.53 342.31 931.92 414.39 219.01 761.18 843.77 453.16 347.35 539.41 911.43 234.28 748.16 287.74 753.22 609.08 221.11 553.59 792.24 488.55 560.08 881.13 759.94 325.88 472.18 566.16 635.37 515.53 507.84 220.88 377.13 307.25 710.41 844.73 570.10 734.85 597.04 548.50 882.13 439.43 708.82 634.91 709.99 646.65 464.29 111.24 361.55 629.21 870.00 0.00 248.07 485.09 835.54 698.75 662.29 381.58 726.93 514.34 746.24 569.24 607.24 289.44 215.65 361.33 498.88 396.36 315.67 735.31 177.00 277.92 534.26 628.19 696.72 578.93 590.32 233.32 565.38 631.42 308.62 373.42 456.19 716.83
795.25 357.95 826.16 113.93 544.90 124.29 822.90 252.33 370.02 937.38 890.98 470.05 203.12 514.60 1055.31 396.90 649.41 436.67 847.38 769.40 367.92 734.14 659.61 326.49 778.31 927.92 902.31 307.41 601.76 465.50 694.05 641.63 726.07 319.67 186.16 483.45 766.33 952.96 536.85 634.19 496.38 413.54 950.37 478.96 877.97 813.01 609.05 500.57 474.98 332.86 142.92 805.41 889.23 248.07 0.00 635.87 979.42 807.34 813.30 489.81 654.65 403.71 645.58 588.47 785.34 449.76 257.06 434.16 575.06 407.05 453.59 762.53 71.07 490.72 469.94 692.42 543.35 435.03 605.54 100.05 378.24 750.64 314.39 589.01 276.96 625.03
226.57 473.36 669.05 581.03 921.00 760.16 1030.31 745.85 324.43 609.27 846.00 620.58 761.73 660.85 819.72 265.00 906.89 212.06 799.88 540.59 322.33 586.02 904.65 792.98 154.16 927.79 785.71 575.02 508.38 717.34 568.43 443.23 137.21 372.24 734.66 235.70 731.16 803.58 671.44 886.03 747.64 747.38 881.91 491.70 594.52 436.77 921.17 898.45 487.72 373.85 768.60 478.16 808.32 485.09 635.87 0.00 743.83 475.16 511.62 371.74 750.36 722.47 783.90 601.21 409.74 397.53 491.46 476.20 535.08 419.79 239.99 756.06 564.80 213.13 616.19 654.04 840.76 803.26 618.28 548.68 820.48 663.85 516.92 111.67 806.40 750.91
732.52 649.51 162.90 922.55 877.55 1094.79 776.58 922.48 673.43 221.06 443.61 743.88 1030.28 709.91 75.89 732.86 827.05 663.54 472.88 327.91 675.53 281.95 841.81 864.59 803.46 451.09 216.44 823.40 403.19 708.87 338.48 432.37 825.85 699.31 1085.57 632.27 370.51 67.69 689.79 775.21 677.99 840.39 334.46 594.55 227.95 409.79 860.02 871.21 557.55 813.49 1050.49 348.81 408.05 835.54 979.42 743.83 0.00 268.67 232.21 530.84 605.01 862.89 638.55 462.32 411.17 569.22 773.68 631.41 428.91 582.01 662.13 395.41 947.91 659.97 753.27 486.70 777.67 852.32 504.60 916.40 872.73 253.33 665.03 720.28 1013.86 687.91
536.77 519.01 208.05 779.13 850.67 875.21 905.17 822.44 479.74 134.11 575.89 645.61 924.21 670.02 344.56 470.16 846.69 469.02 586.41 108.38 481.84 148.81 813.44 818.01 585.80 648.67 399.82 709.50 355.57 620.23 354.96 280.04 612.37 557.85 874.15 443.74 434.92 336.36 608.69 741.88 651.11 756.55 517.61 461.41 119.36 217.89 833.14 870.15 505.44 610.37 830.91 127.08 538.21 698.75 807.34 475.16 268.67 0.00 36.46 347.56 625.22 783.20 643.18 386.16 210.45 428.02 550.28 531.37 328.87 477.43 473.60 459.82 736.27 478.77 625.36 445.65 743.89 812.43 481.41 737.32 846.04 226.64 562.57 561.31 904.61 618.60
500.31 544.19 171.59 782.97 821.79 911.67 870.02 813.30 443.28 138.34 539.43 636.47 910.32 683.80 308.10 502.71 856.66 432.56 584.79 99.24 445.38 185.27 802.25 808.87 571.25 625.15 398.20 727.62 346.43 656.69 353.34 260.51 623.49 531.72 910.61 438.56 425.78 299.90 572.23 730.08 648.43 770.33 481.15 467.25 82.90 204.89 830.46 863.19 511.28 608.99 867.37 116.60 501.75 662.29 813.30 511.62 232.21 36.46 0.00 384.02 660.28 769.53 631.50 349.70 178.96 418.88 586.74 522.23 319.73 485.42 460.49 450.68 742.23 442.31 639.14 453.65 748.11 826.21 496.70 745.29 844.42 225.02 569.25 550.83 887.76 582.14
553.70 171.45 451.26 456.23 639.62 614.10 826.08 555.56 177.80 481.67 582.10 372.88 580.26 441.28 606.73 233.03 687.32 159.68 562.03 402.75 175.70 315.88 696.71 493.85 481.29 609.73 515.58 361.94 210.97 478.88 359.48 199.58 429.05 210.29 613.18 165.72 449.20 463.15 390.06 647.57 466.26 497.77 599.44 258.16 433.98 382.93 648.29 624.09 292.61 336.41 569.94 466.29 578.33 381.58 489.81 371.74 530.84 347.56 384.02 0.00 555.25 500.30 535.44 277.57 410.60 92.14 295.62 247.66 184.27 224.68 139.28 453.65 446.08 230.76 396.62 337.58 565.94 519.57 361.24 389.76 575.79 359.85 215.01 338.48 640.68 555.80
976.93 457.22 602.11 732.03 333.52 714.39 279.95 480.79 578.60 751.88 310.16 372.34 593.78 286.09 674.42 616.94 297.24 604.64 219.61 561.04 576.50 559.62 236.80 406.63 904.52 347.52 388.57 499.72 390.35 189.15 363.17 499.60 887.57 506.05 669.69 638.25 234.50 537.32 273.31 170.20 220.03 357.31 371.36 342.41 615.44 728.26 314.47 363.91 386.44 689.91 670.09 694.46 347.84 726.93 654.65 750.36 605.01 625.22 660.28 555.25 0.00 391.47 33.54 366.73 743.06 463.11 581.39 386.98 411.24 330.57 619.38 259.40 689.17 710.76 290.30 262.78 202.57 394.45 234.27 664.96 461.64 483.51 492.54 809.05 572.17 82.90
929.68 328.85 700.81 343.19 257.21 384.98 510.74 151.38 438.67 801.04 652.09 187.64 264.37 202.50 935.13 493.90 365.58 510.41 591.74 712.75 436.57 634.39 345.00 77.22 857.27 712.49 652.81 240.90 508.70 237.12 524.41 509.02 805.03 350.23 340.28 526.53 498.74 795.20 224.75 330.48 206.24 34.16 695.75 346.83 764.56 757.56 292.43 219.22 376.59 532.74 340.68 805.47 659.86 514.34 403.71 722.47 862.89 783.20 769.53 500.30 391.47 0.00 357.93 483.90 785.23 467.29 298.69 334.20 522.25 354.24 538.34 523.64 368.97 569.48 157.84 483.66 231.19 114.70 369.95 416.22 98.01 636.14 316.92 686.01 226.69 372.62
1010.47 490.76 595.54 701.12 299.98 693.65 290.64 458.47 609.23 743.76 322.53 363.27 573.04 277.02 640.88 650.48 269.41 638.18 239.40 534.80 607.13 533.33 269.47 385.89 938.06 367.31 422.11 478.02 404.40 180.08 396.71 484.72 921.11 539.59 648.95 662.92 268.04 570.86 243.13 165.06 210.96 323.77 337.82 356.09 619.55 694.72 280.93 330.37 365.42 714.07 649.35 660.92 360.21 746.24 645.58 783.90 638.55 643.18 631.50 535.44 33.54 357.93 0.00 351.85 722.39 496.65 600.78 420.52 377.70 364.11 633.06 254.35 680.10 744.30 281.23 247.90 169.03 360.91 200.73 698.50 428.10 517.05 483.47 835.68 549.85 49.36
776.15 284.12 360.29 588.84 572.03 683.52 642.49 556.77 429.45 488.04 325.91 339.05 639.61 376.33 538.21 425.90 506.96 437.25 355.29 313.79 427.35 329.99 540.61 511.45 703.74 387.33 341.12 412.13 120.00 368.65 123.84 210.68 705.77 352.62 662.07 392.68 199.59 394.63 322.47 422.52 389.15 472.17 374.35 153.90 410.51 459.22 541.96 608.19 197.93 516.81 639.22 376.52 300.76 569.24 588.47 601.21 462.32 386.16 349.70 277.57 366.73 483.90 351.85 0.00 459.89 313.96 402.50 207.91 93.30 181.42 416.85 197.46 572.13 508.33 340.98 103.95 448.81 518.74 210.94 515.81 576.50 252.16 327.68 565.44 600.93 375.71
476.41 475.35 350.55 699.67 904.45 883.09 960.91 772.99 451.07 317.30 710.11 640.18 851.20 707.37 485.87 475.65 902.16 378.18 673.92 230.22 448.97 268.81 841.72 812.58 404.00 678.44 519.82 644.32 387.18 740.23 442.47 276.21 456.24 465.67 897.42 320.39 556.76 408.79 654.89 797.49 731.09 768.71 647.18 455.03 261.86 27.67 913.12 895.03 490.95 496.00 854.18 83.37 680.71 607.24 785.34 409.74 411.17 210.45 178.96 410.60 743.06 785.23 722.39 459.89 0.00 335.58 584.89 507.15 366.59 468.12 350.25 581.66 714.27 449.02 662.71 513.03 806.00 790.51 543.56 703.79 848.72 346.64 485.95 486.90 775.38 673.03
583.79 139.77 480.75 364.09 597.44 547.51 743.06 490.92 115.49 557.22 616.47 308.24 515.62 373.60 645.11 170.72 619.64 197.77 559.30 319.64 113.39 399.01 617.40 480.64 511.38 677.89 470.50 308.74 254.59 407.06 416.07 248.59 481.85 130.09 573.18 175.14 492.82 555.29 365.88 575.75 437.94 433.13 635.66 166.02 487.71 363.25 619.97 559.45 200.47 244.27 529.94 418.95 614.72 289.44 449.76 397.53 569.22 428.02 418.88 92.14 463.11 467.29 496.65 313.96 335.58 0.00 249.31 188.95 276.41 132.54 176.38 488.02 378.69 264.54 328.94 417.91 537.62 454.93 321.38 377.29 513.14 450.92 150.37 347.90 581.97 463.66
698.67 124.17 610.78 228.85 489.88 324.93 773.78 329.60 207.66 684.39 682.76 237.51 373.93 323.76 849.57 262.89 590.02 279.40 673.42 568.95 205.56 510.50 576.59 375.91 626.26 744.18 708.50 186.65 370.49 420.70 511.70 407.85 574.02 119.22 323.87 337.19 554.43 757.16 377.16 589.39 419.35 332.85 764.12 248.60 665.37 612.56 494.34 431.00 292.63 234.05 280.63 659.15 690.53 215.65 257.06 491.46 773.68 550.28 586.74 295.62 581.39 298.69 600.78 402.50 584.89 249.31 0.00 200.38 397.19 250.82 307.33 554.31 185.99 338.47 340.61 438.24 506.73 374.23 403.96 199.22 393.49 566.82 140.43 455.00 354.33 563.14
698.30 76.21 469.49 425.06 484.09 525.31 666.93 402.51 263.89 639.15 533.82 184.79 431.70 255.05 707.30 229.96 501.09 326.54 546.20 422.99 265.99 390.70 510.48 357.19 625.89 595.24 530.69 266.70 229.20 311.54 331.75 276.79 613.41 222.39 454.16 307.76 407.50 602.54 277.30 480.23 342.26 338.27 582.26 78.10 519.71 525.33 515.37 425.21 122.13 308.90 481.01 485.72 508.67 361.33 434.16 476.20 631.41 531.37 522.23 247.66 386.98 334.20 420.52 207.91 507.15 188.95 200.38 0.00 202.50 56.41 325.39 405.37 386.37 323.78 210.39 311.86 438.02 392.50 233.46 352.03 410.00 378.08 119.77 422.07 393.02 387.53
682.85 273.02 266.99 538.63 570.36 675.71 668.34 493.57 338.45 453.65 418.28 374.69 629.03 409.07 504.80 397.88 542.25 343.95 377.76 220.49 340.55 246.88 575.25 544.51 610.44 478.68 348.76 411.01 26.70 455.27 175.21 117.38 612.47 343.49 656.66 299.38 264.93 413.37 376.63 478.54 437.12 495.60 436.65 191.23 317.21 365.92 551.31 600.75 220.15 495.39 638.10 283.22 394.06 498.88 575.06 535.08 428.91 328.87 319.73 184.27 411.24 522.25 377.70 93.30 366.59 276.41 397.19 202.50 0.00 168.01 323.55 289.83 558.72 415.03 364.41 186.04 439.41 551.48 176.97 502.40 548.67 175.58 263.78 472.14 584.95 416.57
646.36 126.65 419.11 407.42 501.21 514.39 610.52 432.19 248.03 611.54 483.93 241.20 488.11 241.06 657.90 286.37 487.10 274.07 511.23 386.18 245.93 384.51 484.86 411.62 573.95 545.35 504.28 243.00 194.71 297.55 287.00 285.39 557.00 175.48 510.57 307.68 380.38 557.79 251.65 466.24 327.85 327.59 555.77 71.91 485.22 495.79 501.38 481.62 67.93 359.34 470.09 451.23 482.18 396.36 407.05 419.79 582.01 477.43 485.42 224.68 330.57 354.24 364.11 181.42 468.12 132.54 250.82 56.41 168.01 0.00 294.90 355.48 390.71 380.19 196.40 285.37 424.03 383.47 198.49 334.39 431.92 343.59 170.21 478.48 449.43 331.12
438.51 249.18 526.19 396.90 726.39 577.88 873.98 505.86 130.08 483.79 693.57 450.61 639.21 529.31 738.02 125.40 775.35 27.93 679.51 410.51 132.18 380.18 779.76 580.02 366.10 749.01 606.98 390.89 301.99 565.65 448.06 259.10 342.95 188.11 577.53 29.86 540.22 602.43 476.83 734.34 553.03 566.47 711.94 276.97 486.26 377.92 735.06 701.82 321.00 225.87 534.29 351.82 687.95 315.67 453.59 239.99 662.13 473.60 460.49 139.28 619.38 538.34 633.06 416.85 350.25 176.38 307.33 325.39 323.55 294.90 0.00 565.12 409.86 127.93 484.65 469.91 652.71 597.30 432.33 353.54 636.35 433.80 292.74 202.62 566.41 626.02
860.13 481.58 392.51 762.90 554.33 812.56 539.35 650.29 603.51 561.82 128.45 432.57 753.61 455.75 471.30 594.99 523.76 558.05 170.71 351.44 601.41 351.74 496.20 600.86 787.72 189.87 178.97 598.48 263.13 433.00 187.63 352.89 772.03 530.96 829.52 535.81 24.90 327.72 344.18 419.41 420.38 542.28 209.81 351.36 426.56 589.10 517.90 584.72 342.32 633.02 825.57 498.29 136.22 735.31 762.53 756.06 395.41 459.82 450.68 453.65 259.40 523.64 254.35 197.46 581.66 488.02 554.31 405.37 289.83 355.48 565.12 0.00 740.30 684.41 411.09 116.07 423.38 598.16 258.57 689.87 609.58 273.91 464.10 708.57 741.67 303.71
779.65 310.16 796.77 42.86 613.20 195.36 817.42 323.40 298.95 870.38 868.75 423.50 241.85 443.53 1023.80 354.18 633.66 392.94 832.77 698.33 296.85 696.49 620.23 397.56 707.24 925.53 849.19 252.62 556.48 500.02 677.71 593.84 655.00 248.60 200.13 439.72 740.42 897.72 465.78 656.46 530.74 403.13 906.73 434.59 806.90 741.94 537.98 554.32 458.64 284.84 203.80 761.68 872.89 177.00 71.07 564.80 947.91 736.27 742.23 446.08 689.17 368.97 680.10 572.13 714.27 378.69 185.99 386.37 558.72 390.71 409.86 740.30 0.00 446.88 398.87 624.23 600.16 483.67 589.20 56.32 449.31 734.30 326.42 546.29 342.49 659.55
404.59 328.48 581.85 404.02 783.33 615.01 990.71 618.91 152.95 580.65 804.32 445.36 625.27 531.61 735.86 93.82 824.87 128.84 780.42 538.44 151.15 498.18 812.14 617.76 332.18 840.49 636.43 422.03 429.92 583.37 548.97 360.01 337.94 219.25 581.86 157.79 668.15 622.43 587.75 752.06 614.25 560.28 797.82 401.88 525.21 421.35 781.71 727.27 445.91 166.68 619.10 479.75 788.86 277.92 490.72 213.13 659.97 478.77 442.31 230.76 710.76 569.48 744.30 508.33 449.02 264.54 338.47 323.78 415.03 380.19 127.93 684.41 446.88 0.00 534.17 568.34 713.93 640.82 557.24 397.16 664.61 463.25 372.04 128.36 692.80 711.31
842.76 277.04 615.51 441.73 316.47 437.47 474.46 269.53 435.12 743.16 524.45 103.10 342.52 44.66 829.16 440.35 290.70 470.47 433.90 563.42 433.02 476.55 300.09 235.06 770.35 561.81 540.26 289.80 391.11 101.15 416.09 474.99 753.40 346.68 418.43 504.08 386.19 685.58 66.91 269.84 131.87 131.19 586.02 207.68 606.72 690.38 304.98 291.59 228.89 509.73 447.44 647.63 547.31 534.26 469.94 616.19 753.27 625.36 639.14 396.62 290.30 157.84 281.23 340.98 662.71 328.94 340.61 210.39 364.41 196.40 484.65 411.09 398.87 534.17 0.00 325.82 227.63 187.07 276.87 447.40 235.52 539.99 233.48 632.46 351.83 260.68
785.99 380.58 407.45 667.09 475.81 763.17 538.54 595.35 515.38 535.73 244.52 411.97 668.34 370.48 562.59 529.85 502.31 441.98 275.25 379.97 513.28 296.84 441.87 521.71 764.65 305.94 270.26 516.08 212.74 347.73 214.90 236.82 766.63 456.57 744.25 485.42 116.19 419.01 258.91 412.96 335.11 457.01 325.88 257.85 452.07 485.36 456.76 506.20 274.91 516.95 718.87 469.26 252.29 628.19 692.42 654.04 486.70 445.65 453.65 337.58 262.78 483.66 247.90 103.95 513.03 417.91 438.24 311.86 186.04 285.37 469.91 116.07 624.23 568.34 325.82 0.00 344.86 512.89 239.43 619.76 493.51 288.85 424.14 650.85 653.66 297.26
1046.76 470.65 706.40 572.38 130.95 524.62 279.55 291.02 632.82 875.20 491.56 269.22 404.01 182.97 809.91 620.11 196.28 628.70 408.43 659.90 630.72 595.08 135.84 216.86 983.72 536.34 591.14 397.06 466.11 130.56 478.98 556.79 931.48 544.38 479.92 682.57 437.07 739.89 175.88 99.29 99.68 265.35 506.85 375.74 750.31 805.33 111.90 161.34 359.60 696.97 480.32 722.63 526.91 696.72 543.35 840.76 777.67 743.89 748.11 565.94 202.57 231.19 169.03 448.81 806.00 537.62 506.73 438.02 439.41 424.03 652.71 423.38 600.16 713.93 227.63 344.86 0.00 194.41 369.76 562.95 276.47 607.30 427.09 812.22 382.40 180.08
924.23 348.12 760.76 457.89 142.51 416.30 457.17 182.70 493.13 915.74 632.78 207.71 295.69 142.41 928.21 548.36 273.41 613.34 545.89 731.03 491.03 663.62 257.22 108.54 911.73 673.80 727.33 253.05 574.12 216.89 513.84 589.90 859.49 455.83 371.60 578.48 573.26 784.63 253.98 293.70 192.84 80.54 698.73 392.86 793.79 818.18 177.73 104.52 396.66 580.81 372.00 834.70 670.46 578.93 435.03 803.26 852.32 812.43 826.21 519.57 394.45 114.70 360.91 518.74 790.51 454.93 374.23 392.50 551.48 383.47 597.30 598.16 483.67 640.82 187.07 512.89 194.41 0.00 416.33 505.43 82.06 642.16 304.56 725.46 242.21 311.55
832.83 305.20 443.96 601.98 470.38 628.71 491.37 441.70 436.87 555.26 387.02 295.10 554.69 298.43 580.49 463.42 365.28 460.26 312.74 397.46 434.77 332.60 401.38 367.54 760.42 440.65 392.61 387.92 203.67 280.25 255.49 294.35 736.57 373.97 630.60 462.19 254.51 526.28 239.76 365.79 270.82 335.79 468.38 155.36 418.82 542.89 452.85 489.86 164.69 537.89 615.01 460.19 394.79 590.32 605.54 618.28 504.60 481.41 496.70 361.24 234.27 369.95 200.73 210.94 543.56 321.38 403.96 233.46 176.97 198.49 432.33 258.57 589.20 557.24 276.87 239.43 369.76 416.33 0.00 532.88 440.12 350.78 303.26 634.95 533.08 239.60
771.22 275.82 753.50 73.03 632.25 224.34 842.50 325.13 302.01 837.33 818.32 436.73 298.17 436.07 992.29 303.34 685.16 336.62 845.62 696.93 302.47 662.15 624.72 399.29 698.81 869.21 838.67 252.38 522.14 533.01 621.39 559.50 668.37 247.20 256.45 383.40 714.77 852.91 514.31 662.24 531.66 450.38 862.20 406.30 812.52 731.46 592.92 573.37 402.32 232.81 242.97 705.36 816.57 233.32 100.05 548.68 916.40 737.32 745.29 389.76 664.96 416.22 698.50 515.81 703.79 377.29 199.22 352.03 502.40 334.39 353.54 689.87 56.32 397.16 447.40 619.76 562.95 505.43 532.88 0.00 476.12 677.98 319.38 494.99 377.01 665.51
996.13 426.86 738.00 441.20 197.98 388.08 539.23 150.99 536.68 899.05 674.57 254.34 268.99 224.47 948.62 591.91 355.47 608.42 627.95 769.16 534.58 697.23 312.69 81.94 923.72 755.86 750.82 294.22 521.97 298.95 595.90 607.03 890.11 448.24 302.51 624.54 596.75 852.32 296.79 375.76 268.54 104.33 765.92 430.38 787.32 855.57 259.79 186.58 443.29 562.05 345.40 831.89 712.25 565.38 378.24 820.48 872.73 846.04 844.42 575.79 461.64 98.01 428.10 576.50 848.72 513.14 393.49 410.00 548.67 431.92 636.35 609.58 449.31 664.61 235.52 493.51 276.47 82.06 440.12 476.12 0.00 619.40 386.62 784.02 160.15 393.61
676.98 442.65 118.60 714.21 700.22 851.29 733.32 669.15 500.47 304.36 402.36 532.68 804.61 499.75 329.22 545.04 706.79 459.42 359.77 164.70 498.37 77.83 646.35 692.27 661.79 451.97 173.18 586.59 196.33 549.25 128.32 228.25 695.64 519.07 832.24 428.15 249.01 264.38 504.64 608.77 580.13 601.98 338.34 366.81 167.92 353.42 687.05 681.60 347.39 624.16 813.68 311.55 368.21 631.42 750.64 663.85 253.33 226.64 225.02 359.85 483.51 636.14 517.05 252.16 346.64 450.92 566.82 378.08 175.58 343.59 433.80 273.91 734.30 463.25 539.99 288.85 607.30 642.16 350.78 677.98 619.40 0.00 439.36 591.61 760.53 491.76
619.67 43.56 530.17 333.45 447.07 429.76 706.64 340.55 224.21 689.60 592.55 157.87 365.25 244.12 740.92 283.64 524.18 317.62 532.99 470.01 226.31 419.75 524.65 330.27 617.46 653.97 612.54 158.37 289.88 303.39 421.22 327.24 590.57 157.44 428.70 281.22 463.07 676.55 261.48 472.08 334.27 282.76 673.91 197.87 574.98 513.62 482.29 409.08 202.15 276.25 385.46 547.00 600.32 308.62 314.39 516.92 665.03 562.57 569.25 215.01 492.54 316.92 483.47 327.68 485.95 150.37 140.43 119.77 263.78 170.21 292.74 464.10 326.42 372.04 233.48 424.14 427.09 304.56 303.26 319.38 386.62 439.36 0.00 420.90 431.93 462.92
276.23 410.42 557.38 532.38 867.97 708.56 1076.60 708.48 251.54 610.28 837.02 573.72 650.06 659.97 796.17 192.11 923.16 208.87 833.43 543.60 249.44 523.08 932.55 740.74 203.82 897.42 688.19 538.56 445.44 681.66 608.63 440.04 209.58 335.78 622.99 172.76 683.67 703.76 679.45 850.35 712.54 688.64 853.35 479.59 629.16 506.04 894.57 825.56 523.62 262.18 666.23 434.23 844.79 373.42 589.01 111.67 720.28 561.31 550.83 338.48 809.05 686.01 835.68 565.44 486.90 347.90 455.00 422.07 472.14 478.48 202.62 708.57 546.29 128.36 632.46 650.85 812.22 725.46 634.95 494.99 784.02 591.61 420.90 0.00 752.98 809.60
1004.92 469.23 851.94 381.36 353.00 227.93 661.95 91.38 561.99 989.61 758.17 309.10 108.84 383.70 1089.75 617.22 511.61 594.34 734.83 805.44 559.89 777.67 467.71 165.54 932.51 862.74 871.05 288.26 611.65 383.02 688.77 627.25 909.36 473.55 142.36 596.27 716.98 959.56 397.70 481.69 352.14 230.77 867.89 471.12 902.16 803.05 415.93 294.12 498.05 567.43 185.60 858.75 795.85 456.19 276.96 806.40 1013.86 904.61 887.76 640.68 572.17 226.69 549.85 600.93 775.38 581.97 354.33 393.02 584.95 449.43 566.41 741.67 342.49 692.80 351.83 653.66 382.40 242.21 533.08 377.01 160.15 760.53 431.93 752.98 0.00 500.49
977.48 457.77 546.18 696.00 311.03 660.74 287.88 409.11 579.15 720.48 324.89 325.63 540.13 256.47 690.24 617.49 280.55 605.19 234.34 584.16 577.05 569.59 220.11 352.98 905.07 362.25 471.47 428.66 443.27 159.53 446.07 533.95 888.12 503.55 616.04 638.80 317.40 620.22 241.21 147.94 166.38 359.20 387.18 394.96 634.87 645.36 272.75 341.42 384.68 664.71 616.44 698.74 362.57 716.83 625.03 750.91 687.91 618.60 582.14 555.80 82.90 372.62 49.36 375.71 673.03 463.66 563.14 387.53 416.57 331.12 626.02 303.71 659.55 711.31 260.68 297.26 180.08 311.55 239.60 665.51 393.61 491.76 462.92 809.60 500.49 0.00
DEMAND_SECTION
1 0
2 10
3 9
4 8
5 8
6 10
7 10
8 9
9 7
10 5
11 10
12 7
13 6
14 5
15 9
16 7
17 9
18 9
19 8
20 10
21 10
22 10
23 8
24 8
25 6
26 9
27 7
28 7
29 5
30 9
31 5
32 7
33 7
34 6
35 10
36 8
37 8
38 9
39 8
40 7
41 7
42 8
43 5
44 7
45 9
46 9
47 8
48 8
49 7
50 8
51 6
52 7
53 9
54 8
55 7
56 10
57 10
58 10
59 5
60 8
61 6
62 9
63 8
64 6
65 7
66 10
67 6
68 5
69 6
70 8
71 10
72 5
73 9
74 6
75 5
76 10
77 7
78 9
79 6
80 6
81 10
82 6
83 7
84 7
85 5
86 10
DEPOT_SECTION
1
-1
EOF
