NAME: LDG85_1266_none_85_0093
COMMENT: CVRP with travel times.  rootPos=1,custPos=2,demandType=6,avgRouteSizeIndex=6,weather=none,lambda_cluster=1,lambda_random=4, T1=300,T2=700,beta=1, alpha(i,j) ~ U(0.8,1.2)
TYPE: CVRP
DIMENSION: 86
EDGE_WEIGHT_TYPE: EXPLICIT
EDGE_WEIGHT_FORMAT: FULL_MATRIX
CAPACITY: 1432
NODE_COORD_SECTION
1 474 348
2 999 341
3 603 192
4 71 838
5 989 428
6 155 925
7 479 587
8 949 923
9 693 120
10 845 571
11 112 751
12 883 690
13 952 663
14 874 920
15 52 979
16 928 398
17 588 427
18 611 312
19 955 950
20 751 197
21 63 924
22 429 361
23 839 304
24 592 380
25 774 167
26 920 941
27 9 871
28 991 918
29 958 261
30 688 392
31 914 256
32 102 794
33 880 158
34 40 886
35 107 896
36 123 879
37 771 34
38 413 124
39 831 307
40 851 254
41 784 314
42 202 785
43 598 411
44 714 114
45 798 426
46 812 592
47 941 212
48 40 928
49 911 366
50 777 122
51 692 246
52 988 924
53 115 827
54 293 781
55 954 276
56 165 881
57 977 924
58 647 759
59 760 80
60 988 925
61 569 137
62 807 295
63 782 375
64 6 843
65 599 520
66 961 841
67 572 58
68 880 271
69 11 687
70 802 299
71 665 3
72 731 126
73 723 329
74 733 346
75 611 164
76 119 796
77 117 940
78 837 278
79 963 197
80 725 48
81 57 928
82 442 329
83 666 460
84 44 828
85 279 252
86 774 98
EDGE_WEIGHT_SECTION
0.00 521.39 235.05 680.96 517.32 724.18 288.83 812.79 337.36 493.71 730.02 622.52 621.75 832.85 813.24 464.33 182.96 235.06 813.58 403.34 764.08 97.21 336.96 241.92 378.20 862.59 800.95 754.51 483.71 326.00 429.90 726.60 525.86 745.43 787.72 735.57 435.51 346.90 353.84 402.97 307.43 551.32 202.84 370.45 363.42 455.12 509.66 783.63 394.90 410.95 333.65 767.56 702.10 635.23 478.58 732.98 774.77 544.63 427.94 764.13 342.47 352.21 308.94 759.45 286.04 755.66 394.11 429.14 829.32 342.21 441.32 400.94 223.50 256.89 278.82 680.14 782.05 377.95 536.86 487.79 792.10 45.17 254.06 728.21 337.58 445.18
521.39 0.00 429.70 1079.51 115.45 1037.50 632.72 557.56 390.62 410.60 1015.18 388.90 402.02 651.10 1133.01 182.50 438.96 410.39 583.72 301.03 1080.62 546.20 184.51 419.63 329.64 598.40 1146.61 530.84 83.42 376.76 137.23 1013.80 281.06 1080.59 1008.62 1040.50 412.15 655.37 167.63 215.83 250.11 973.96 417.29 370.59 261.52 452.98 186.60 1093.83 127.75 312.35 358.04 530.60 1059.82 864.19 112.77 985.24 510.58 625.14 384.77 534.27 503.43 205.33 212.45 1127.93 450.67 607.33 562.08 168.93 958.78 212.80 465.39 340.10 297.89 264.50 439.78 1060.26 1067.63 225.50 172.09 427.86 1052.60 566.56 396.78 1092.80 691.64 348.44
235.05 429.70 0.00 811.75 479.40 908.80 501.66 892.44 102.31 469.87 781.95 598.68 627.78 844.76 937.39 464.99 273.77 146.02 893.23 205.59 860.81 332.26 299.04 234.13 218.75 927.11 926.88 834.16 379.86 257.07 326.05 720.53 312.41 873.64 843.43 846.18 250.69 273.85 314.15 301.15 321.23 786.37 252.10 135.40 320.79 525.58 382.90 882.63 402.25 197.50 171.05 847.21 796.32 678.69 394.12 856.54 854.42 688.13 192.89 843.78 107.42 276.45 356.66 885.38 345.27 833.09 159.06 324.00 890.76 294.26 206.27 165.89 304.72 304.61 43.77 766.99 893.47 258.05 405.57 252.74 888.83 280.22 333.71 841.66 501.82 210.13
680.96 1079.51 811.75 0.00 964.06 168.72 610.35 900.16 902.35 838.13 118.72 930.97 989.40 888.70 160.32 1043.34 668.52 776.55 900.71 963.14 83.74 764.54 949.47 683.97 1018.79 879.68 132.47 860.88 1071.91 811.56 1018.10 91.22 1107.97 64.47 149.06 133.19 1050.73 827.11 935.97 1002.05 919.94 129.64 687.73 935.44 901.72 893.84 1093.29 102.67 1001.26 993.06 940.39 854.93 104.84 292.28 1058.86 188.45 874.95 585.24 992.93 851.26 829.43 932.49 892.57 90.97 723.02 925.01 955.75 1012.77 148.36 930.41 1006.31 965.93 836.01 845.09 855.52 121.92 153.33 981.33 1125.06 1052.78 111.76 726.13 786.95 47.25 676.84 1010.17
517.32 115.45 479.40 964.06 0.00 1098.48 674.74 673.01 439.60 363.88 1011.11 482.08 507.20 622.57 1124.38 170.91 437.43 428.02 699.17 330.64 1047.80 575.81 180.36 446.46 345.59 689.57 1089.95 645.21 198.87 364.63 206.69 1048.32 392.87 1012.70 1043.14 1095.29 477.95 665.53 197.24 246.37 254.87 976.31 451.81 406.51 232.91 340.57 302.05 1022.56 184.95 378.15 359.46 646.05 1068.90 889.70 228.22 1046.22 626.03 654.75 463.24 649.72 499.28 212.62 300.23 1055.03 511.65 547.16 579.58 247.19 1074.23 230.43 535.08 405.27 293.82 315.75 435.63 1060.99 1102.15 221.35 287.54 476.64 1063.79 562.49 368.17 1011.31 783.82 414.24
724.18 1037.50 908.80 168.72 1098.48 0.00 592.35 807.48 975.32 834.17 191.69 940.84 853.21 865.60 143.22 1041.02 680.56 764.97 868.97 976.24 84.98 626.97 930.34 727.58 1025.21 890.80 184.49 865.76 1030.76 734.47 986.12 188.27 1039.91 144.00 67.56 78.38 1074.10 850.51 927.25 951.16 900.81 228.64 658.89 1008.41 865.57 889.88 1025.77 119.01 971.59 981.48 928.64 852.71 146.41 295.04 1032.66 52.26 854.46 682.29 1051.63 856.38 981.59 929.76 825.05 213.06 586.83 946.11 1018.43 945.25 317.08 935.59 1052.51 978.03 816.88 850.27 917.94 141.81 57.87 947.78 1058.51 1104.37 113.00 692.18 730.31 194.38 692.84 1010.39
288.83 632.72 501.66 610.35 674.74 592.35 0.00 636.92 525.77 394.32 538.31 523.13 552.23 636.76 621.84 596.29 323.85 396.27 637.47 564.88 556.23 386.04 540.14 370.87 496.34 697.62 647.57 597.64 625.98 344.66 596.31 534.89 645.08 615.25 593.61 541.46 593.59 635.73 528.81 563.97 534.21 531.29 302.18 492.68 441.83 450.03 619.77 590.26 566.81 530.17 477.94 591.69 539.63 368.65 627.88 540.09 611.71 255.80 535.79 588.02 555.62 539.95 420.27 606.82 197.02 695.69 660.72 540.47 705.12 557.64 621.25 462.19 460.17 472.32 545.43 488.43 643.67 557.97 653.73 588.53 584.25 334.00 306.57 563.10 575.43 541.35
812.79 557.56 892.44 900.16 673.01 807.48 636.92 0.00 879.63 445.01 844.28 316.20 324.76 108.66 950.70 627.37 679.62 746.42 61.49 813.41 892.46 871.89 664.16 662.17 788.03 83.32 916.59 58.28 635.89 635.37 649.61 875.14 789.36 922.28 837.69 810.48 898.32 1031.99 680.01 701.22 677.59 798.25 657.95 846.54 594.09 491.39 686.57 904.36 672.51 818.18 790.08 45.23 831.24 635.61 606.54 755.22 46.98 381.12 887.79 48.90 916.18 652.65 661.40 921.45 702.21 138.63 1004.60 693.95 1025.29 634.84 922.76 832.22 688.41 705.68 852.53 844.77 865.35 685.76 721.18 916.67 920.48 857.96 558.73 898.54 985.71 834.61
337.36 390.62 102.31 902.35 439.60 975.32 525.77 879.63 0.00 491.41 783.63 620.22 645.07 826.41 1039.70 402.80 361.05 248.33 834.31 118.56 963.12 434.57 259.24 336.44 116.44 867.10 962.55 852.91 307.20 322.87 292.84 822.84 210.10 966.82 945.74 936.24 148.38 266.68 251.96 230.25 256.18 888.68 354.41 33.09 342.33 478.44 295.87 984.94 373.81 95.19 106.57 845.59 884.71 781.00 309.10 923.06 832.65 661.91 90.58 849.26 160.98 226.98 287.85 934.89 447.58 792.84 171.46 221.69 945.43 244.79 103.96 63.58 202.41 235.80 146.08 833.51 995.78 273.35 303.26 150.43 983.93 382.53 393.66 908.18 474.11 107.82
493.71 410.60 469.87 838.13 363.88 834.17 394.32 445.01 491.41 0.00 719.41 128.81 157.91 450.31 918.62 240.11 312.54 377.59 452.90 427.57 849.28 514.71 324.18 359.56 442.92 457.24 842.19 412.83 367.13 291.87 383.52 780.83 475.74 892.53 807.94 755.79 554.11 671.99 334.88 329.11 288.35 800.57 290.87 508.79 149.08 55.71 417.81 883.31 286.02 454.31 403.42 399.78 820.49 762.97 337.78 811.05 419.80 516.99 539.59 403.45 534.02 314.90 229.07 870.67 286.14 363.22 622.44 349.27 933.19 297.09 595.37 502.60 289.00 281.12 470.37 769.29 858.00 286.01 452.42 530.77 877.30 514.61 284.34 843.96 711.32 490.40
730.02 1015.18 781.95 118.72 1011.11 191.69 538.31 844.28 783.63 719.41 0.00 848.22 877.32 845.74 258.15 958.12 679.60 764.01 821.11 897.13 201.70 756.71 830.75 681.16 900.07 760.96 178.92 869.04 976.21 753.27 923.69 61.42 993.73 183.19 182.73 152.61 932.01 910.40 847.63 896.76 801.22 178.70 657.93 816.72 857.21 775.12 1003.45 221.39 888.69 878.82 890.20 868.80 101.08 236.60 972.37 139.43 848.78 555.44 874.21 870.56 882.30 846.00 802.73 151.26 605.63 903.37 941.01 922.93 231.65 836.00 887.59 847.21 717.29 750.68 825.72 49.88 234.36 871.74 1030.65 934.06 200.30 731.48 749.11 124.55 754.14 891.45
622.52 388.90 598.68 930.97 482.08 940.84 523.13 316.20 620.22 128.81 848.22 0.00 87.63 321.50 1047.43 311.17 441.35 506.40 324.09 543.70 978.09 643.52 452.99 488.37 571.73 378.81 971.00 284.02 472.32 420.68 512.33 839.75 604.55 972.94 936.75 884.60 634.16 778.80 453.74 457.92 417.16 929.38 419.68 632.83 277.89 184.52 545.92 1001.85 380.60 534.36 532.23 270.97 915.54 843.15 466.59 888.58 290.99 393.56 619.64 274.64 657.06 443.71 345.20 999.48 414.95 253.47 751.25 465.40 856.96 425.90 721.71 602.34 417.81 397.25 599.18 886.21 986.81 414.82 560.99 659.58 1006.11 643.42 387.48 960.88 814.46 570.45
621.75 402.02 627.78 989.40 507.20 853.21 552.23 324.76 645.07 157.91 877.32 87.63 0.00 322.02 996.43 394.29 438.79 535.50 343.55 555.72 938.19 672.62 435.10 504.66 600.33 347.72 953.11 303.36 485.44 449.78 496.77 927.38 633.65 968.01 883.42 856.21 697.78 800.14 451.98 487.02 432.02 958.48 448.78 661.25 306.99 166.63 575.72 950.09 403.55 597.98 561.33 297.77 924.24 891.06 495.69 800.95 317.79 481.19 669.05 294.10 669.08 467.36 386.98 994.61 444.05 205.31 773.14 507.18 944.59 455.00 749.03 660.01 442.66 409.27 628.28 890.50 911.08 443.92 574.11 674.44 966.21 639.81 442.25 959.44 858.45 634.07
832.85 651.10 844.76 888.70 622.57 865.60 636.76 108.66 826.41 450.31 845.74 321.50 322.02 0.00 846.77 632.67 689.41 698.74 144.93 786.11 919.46 763.23 644.74 741.56 760.59 84.78 926.67 160.78 681.50 587.69 627.69 874.98 795.26 951.33 866.74 893.91 835.99 984.31 652.71 679.30 570.23 906.91 672.87 808.90 599.39 465.75 733.87 949.61 702.10 736.19 766.09 148.88 908.75 744.27 695.76 838.65 140.52 380.96 821.47 152.55 925.75 615.01 666.70 885.17 708.39 116.71 974.15 698.84 1037.06 612.98 920.02 804.17 654.16 687.55 866.66 895.62 807.73 652.38 734.65 812.65 927.18 828.44 578.79 841.45 1005.77 772.28
813.24 1133.01 937.39 160.32 1124.38 143.22 621.84 950.70 1039.70 918.62 258.15 1047.43 996.43 846.77 0.00 1132.18 757.36 841.77 935.95 1053.04 76.58 757.38 1007.14 804.38 1055.74 931.55 163.45 995.02 1146.24 877.69 1100.08 216.86 1120.31 125.66 144.36 162.83 1033.02 956.72 1024.02 1027.96 977.61 261.92 735.69 1044.04 970.17 949.93 1139.80 110.61 1065.08 1005.40 994.20 989.07 230.86 362.31 1147.70 195.48 987.29 710.88 1026.73 985.40 989.75 1021.33 940.53 184.27 730.05 963.48 1096.45 1060.73 308.68 1012.39 1138.16 1048.47 893.68 927.07 944.66 208.27 85.35 1048.13 1173.99 1086.58 80.41 795.49 834.91 195.93 769.64 969.31
464.33 182.50 464.99 1043.34 170.91 1041.02 596.29 627.37 402.80 240.11 958.12 311.17 394.29 632.67 1132.18 0.00 374.82 393.60 635.26 284.24 1076.57 529.41 167.72 393.47 332.95 689.98 1082.30 595.19 210.37 318.44 264.18 993.00 368.79 1063.80 987.82 995.90 453.87 641.45 150.84 225.61 233.32 913.70 396.49 382.43 206.37 295.82 313.55 1082.88 69.43 354.07 341.25 582.14 1022.72 827.09 239.72 988.76 602.16 595.75 439.35 585.81 486.64 188.54 215.97 1109.38 454.19 564.64 566.94 232.07 1038.81 196.01 506.76 386.48 240.83 268.02 422.99 1008.00 1046.83 208.71 294.11 452.56 1082.73 480.92 341.63 1082.67 749.40 390.16
182.96 438.96 273.77 668.52 437.43 680.56 323.85 679.62 361.05 312.54 679.60 441.35 438.79 689.41 757.36 374.82 0.00 127.75 680.41 323.02 701.75 245.51 291.35 65.87 357.15 715.11 771.26 621.34 403.39 143.04 349.58 618.18 444.22 697.59 613.00 665.15 428.87 486.31 301.67 333.53 261.82 538.88 21.67 327.96 233.20 272.16 427.23 708.06 332.74 344.26 291.42 634.39 647.90 452.27 390.34 695.05 641.60 576.47 371.07 630.96 319.88 263.97 226.51 758.92 211.94 572.70 408.30 346.71 663.99 261.89 456.53 297.47 177.89 176.57 256.23 664.64 672.01 312.81 456.54 423.81 707.91 228.13 120.89 715.20 419.66 373.17
235.06 410.39 146.02 776.55 428.02 764.97 396.27 746.42 248.33 377.59 764.01 506.40 535.50 698.74 841.77 393.60 127.75 0.00 747.21 211.27 786.16 232.16 247.66 92.58 279.81 783.52 855.67 688.14 371.12 111.05 318.29 702.59 331.42 782.00 697.41 749.56 309.13 393.44 242.76 269.23 223.18 646.91 106.08 281.42 262.76 399.91 381.07 792.47 336.31 216.51 204.29 701.19 732.77 537.14 341.77 733.82 708.40 542.11 301.79 697.76 227.01 215.40 210.64 843.79 199.25 700.45 305.08 320.95 748.40 197.59 352.29 284.49 191.98 158.59 189.79 749.05 756.42 248.51 415.68 346.54 792.32 189.89 187.69 800.07 355.80 245.42
813.58 583.72 893.23 900.71 699.17 868.97 637.47 61.49 834.31 452.90 821.11 324.09 343.55 144.93 935.95 635.26 680.41 747.21 0.00 795.08 859.37 878.86 672.05 662.96 726.54 60.15 891.18 59.07 667.14 636.16 655.97 875.69 815.52 918.39 899.18 871.97 876.68 1032.78 688.93 718.89 689.63 859.74 658.74 801.22 601.98 508.61 748.06 893.40 673.30 795.36 816.24 53.12 892.73 697.10 668.03 816.71 73.14 381.67 844.33 49.45 916.97 678.81 669.29 932.68 680.53 156.30 960.53 727.12 1045.92 661.00 929.79 770.73 650.76 684.15 853.32 870.99 926.84 711.92 755.81 861.79 887.39 858.75 559.52 945.66 986.50 812.97
403.34 301.03 205.59 963.14 330.64 976.24 564.88 813.41 118.56 427.57 897.13 543.70 555.72 786.11 1053.04 284.24 323.02 211.27 795.08 0.00 997.43 377.68 150.28 279.17 68.54 748.54 1066.94 779.08 221.14 300.30 206.78 913.86 147.02 993.27 908.68 960.83 218.66 385.24 133.40 159.15 215.88 833.50 317.35 151.65 278.49 389.09 177.31 1003.74 306.04 118.86 115.97 769.21 919.36 723.73 223.04 945.09 766.43 590.91 163.00 772.88 225.47 171.10 198.50 1030.38 410.52 717.76 290.02 135.63 959.67 178.57 222.52 128.22 179.84 146.45 161.82 947.01 967.69 191.27 211.92 192.75 996.71 401.16 278.63 986.66 567.07 154.95
764.08 1080.62 860.81 83.74 1047.80 84.98 556.23 892.46 963.12 849.28 201.70 978.09 938.19 919.46 76.58 1076.57 701.75 786.16 859.37 997.43 0.00 680.80 951.53 748.77 1051.94 899.44 131.93 918.44 1089.73 819.45 1044.47 140.28 1117.58 59.02 88.75 93.49 1095.29 910.85 968.41 972.35 922.00 213.38 680.08 996.21 914.56 904.99 1084.19 34.03 1009.47 1002.67 917.62 912.49 161.52 351.99 1091.63 137.24 932.51 634.30 1053.70 908.82 913.17 965.72 884.92 128.08 671.81 997.11 1019.87 1004.22 232.10 956.78 1067.08 999.22 838.07 871.46 904.58 178.44 111.73 992.52 1117.48 1082.21 28.02 718.91 779.30 119.35 714.03 1031.58
97.21 546.20 332.26 764.54 575.81 626.97 386.04 871.89 434.57 514.71 756.71 643.52 672.62 763.23 757.38 529.41 245.51 232.16 878.86 377.68 680.80 0.00 395.45 287.79 398.24 848.01 811.46 819.79 545.31 343.21 505.94 789.99 523.43 739.82 694.53 705.35 532.72 366.94 378.57 456.08 404.64 647.01 223.84 467.66 436.50 517.67 554.99 714.83 492.11 448.67 406.68 832.84 745.35 571.49 542.64 653.98 840.05 641.84 525.15 829.41 421.09 416.27 406.15 808.88 289.41 818.21 391.46 459.80 759.64 423.74 538.53 457.92 320.71 354.10 357.44 743.53 684.84 436.44 573.06 533.49 708.82 65.21 323.06 800.15 274.00 477.58
336.96 184.51 299.04 949.47 180.36 930.34 540.14 664.16 259.24 324.18 830.75 452.99 435.10 644.74 1007.14 167.72 291.35 247.66 672.05 150.28 951.53 395.45 0.00 266.10 165.23 691.91 1007.09 631.98 164.30 233.92 110.49 867.96 212.51 929.84 862.78 914.93 297.59 485.17 16.88 66.01 74.51 820.43 271.45 226.15 199.86 268.47 177.85 957.84 155.76 197.79 179.10 618.93 906.29 710.66 158.63 891.87 637.93 474.39 282.88 622.60 318.92 32.26 119.87 982.01 357.30 621.47 399.22 98.11 913.77 50.07 354.72 224.91 113.46 135.39 255.27 880.63 921.79 40.99 211.37 296.28 957.69 382.13 304.71 955.30 603.46 233.88
241.92 419.63 234.13 683.97 446.46 727.58 370.87 662.17 336.44 359.56 681.16 488.37 504.66 741.56 804.38 393.47 65.87 92.58 662.96 279.17 748.77 287.79 266.10 0.00 347.71 711.97 792.71 603.89 409.71 203.63 359.04 665.20 424.00 744.61 660.02 703.06 372.95 420.44 252.00 327.63 236.57 554.33 68.69 369.53 292.56 338.03 438.80 755.08 324.04 309.09 256.42 616.94 640.19 444.56 382.14 687.34 624.15 510.60 394.37 613.51 254.01 255.77 238.08 751.21 202.97 638.57 342.43 333.23 711.01 271.35 400.23 355.88 152.64 186.03 190.36 683.15 719.03 307.09 446.49 439.12 754.93 222.58 167.91 707.49 422.60 338.00
378.20 329.64 218.75 1018.79 345.59 1025.21 496.34 788.03 116.44 442.92 900.07 571.73 600.33 760.59 1055.74 332.95 357.15 279.81 726.54 68.54 1051.94 398.24 165.23 347.71 0.00 786.69 1078.99 774.45 246.22 321.37 192.41 939.28 183.73 1054.74 970.15 1022.30 150.14 383.12 182.11 113.81 190.36 896.03 378.82 83.35 331.38 433.70 225.65 1065.21 269.99 68.82 184.51 779.66 987.90 792.27 251.96 1003.58 773.31 639.62 133.28 775.99 264.54 185.67 267.04 1051.33 469.01 676.40 233.99 164.55 1021.14 185.45 211.92 59.68 248.38 214.99 225.20 949.95 1029.16 156.91 260.26 135.25 1065.06 333.03 347.17 1024.62 590.55 86.43
862.59 598.40 927.11 879.68 689.57 890.80 697.62 83.32 867.10 457.24 760.96 378.81 347.72 84.78 931.55 689.98 715.11 783.52 60.15 748.54 899.44 848.01 691.91 711.97 786.69 0.00 939.88 108.08 681.82 672.47 653.39 822.38 830.20 920.16 921.01 893.80 920.77 1069.09 708.79 705.00 655.01 881.57 707.75 861.37 606.32 467.37 759.57 865.41 722.31 820.97 830.92 107.84 862.04 718.93 689.86 838.54 87.82 441.82 904.48 109.60 916.81 693.49 686.31 912.22 740.68 142.41 1020.68 724.54 992.61 675.68 971.06 830.88 710.91 710.01 902.33 810.84 892.51 726.60 760.35 897.43 906.64 907.76 608.53 885.51 1035.51 857.06
800.95 1146.61 926.88 132.47 1089.95 184.49 647.57 916.59 962.55 842.19 178.92 971.00 953.11 926.67 163.45 1082.30 771.26 855.67 891.18 1066.94 131.93 811.46 1007.09 792.71 1078.99 939.88 0.00 950.25 1132.32 843.58 1078.51 206.35 1146.54 77.25 158.26 106.11 1110.93 820.95 990.21 999.91 980.14 262.11 749.59 995.64 974.68 786.48 1111.75 126.77 1067.61 1057.74 1019.34 944.30 152.52 348.15 1133.40 161.37 963.57 700.37 1053.13 940.63 961.90 1024.42 934.16 41.50 695.94 962.98 1014.43 1051.63 280.83 1006.61 1066.51 1026.13 896.21 929.60 970.65 159.89 176.10 1043.01 1146.36 1112.98 149.80 841.49 839.42 85.22 713.34 1070.37
754.51 530.84 834.16 860.88 645.21 865.76 597.64 58.28 852.91 412.83 869.04 284.02 303.36 160.78 995.02 595.19 621.34 688.14 59.07 779.08 918.44 819.79 631.98 603.89 774.45 108.08 950.25 0.00 614.26 577.09 609.03 835.86 762.64 925.35 895.97 868.76 891.26 973.71 648.86 660.64 649.56 856.53 599.67 819.82 561.91 468.54 715.21 952.47 614.23 791.46 763.36 13.05 889.52 693.89 643.61 813.50 20.26 341.84 876.74 9.62 857.90 625.93 629.22 951.85 643.93 98.05 946.32 680.18 1006.09 608.12 890.58 829.80 656.23 681.27 794.25 882.32 923.63 659.04 702.93 889.95 946.46 799.68 500.45 908.13 927.43 827.55
483.71 83.42 379.86 1071.91 198.87 1030.76 625.98 635.89 307.20 367.13 976.21 472.32 485.44 681.50 1146.24 210.37 403.39 371.12 667.14 221.14 1089.73 545.31 164.30 409.71 246.22 681.82 1132.32 614.26 0.00 305.46 53.81 1007.06 197.64 1079.70 1001.88 1033.76 328.73 573.88 166.74 132.41 200.50 942.27 410.55 287.17 285.70 392.76 103.18 1096.94 176.46 228.93 292.42 614.02 1049.90 854.27 29.35 978.50 594.00 581.20 303.87 617.69 429.25 155.72 205.71 1090.82 443.93 564.79 478.66 85.51 1042.20 173.53 381.97 256.68 260.21 226.82 365.60 1026.09 1060.89 151.32 137.79 344.44 1077.08 528.88 382.10 1086.06 692.78 265.02
326.00 376.76 257.07 811.56 364.63 734.47 344.66 635.37 322.87 291.87 753.27 420.68 449.78 587.69 877.69 318.44 143.04 111.05 636.16 300.30 819.45 343.21 233.92 203.63 321.37 672.47 843.58 577.09 305.46 0.00 251.65 761.22 305.44 817.83 756.04 737.47 406.28 396.62 250.80 226.05 204.39 681.92 164.71 325.50 151.71 347.58 312.30 831.35 249.01 327.56 298.84 590.14 790.94 595.31 319.72 682.21 597.35 575.41 368.61 586.71 338.06 249.17 177.76 871.95 147.64 655.09 416.13 277.77 784.45 239.17 426.83 295.01 120.46 153.85 288.23 753.56 792.34 269.15 346.91 421.35 809.71 300.94 76.64 828.23 466.85 356.47
429.90 137.23 326.05 1018.10 206.69 986.12 596.31 649.61 292.84 383.52 923.69 512.33 496.77 627.69 1100.08 264.18 349.58 318.29 655.97 206.78 1044.47 505.94 110.49 359.04 192.41 653.39 1078.51 609.03 53.81 251.65 0.00 960.90 225.23 1040.31 955.72 989.12 342.55 541.87 127.37 78.60 163.45 888.46 364.39 275.76 271.34 378.96 106.18 1050.78 229.28 261.23 238.61 622.08 997.48 801.85 68.07 933.86 629.29 584.88 289.51 618.65 375.44 138.51 191.35 1037.01 399.29 510.98 426.40 71.15 1006.71 120.70 396.80 252.09 206.40 173.01 311.79 973.57 1014.73 97.51 106.96 290.63 1023.27 475.07 328.29 1048.24 638.97 278.84
726.60 1013.80 720.53 91.22 1048.32 188.27 534.89 875.14 822.84 780.83 61.42 839.75 927.38 874.98 216.86 993.00 618.18 702.59 875.69 913.86 140.28 789.99 867.96 665.20 939.28 822.38 206.35 835.86 1007.06 761.22 960.90 0.00 1032.94 153.11 177.80 125.65 971.22 848.98 884.84 933.97 838.43 175.28 596.51 855.93 830.99 836.54 1002.07 162.10 925.90 918.03 866.26 829.91 75.79 271.42 1008.52 136.01 849.93 494.02 913.42 826.24 820.88 882.15 801.35 164.85 656.52 910.74 879.59 921.55 170.23 873.21 926.80 886.42 754.50 787.89 764.30 46.46 172.94 908.95 1034.81 973.27 168.30 728.06 695.73 121.13 750.72 930.66
525.86 281.06 312.41 1107.97 392.87 1039.91 645.08 789.36 210.10 475.74 993.73 604.55 633.65 795.26 1120.31 368.79 444.22 331.42 815.52 147.02 1117.58 523.43 212.51 424.00 183.73 830.20 1146.54 762.64 197.64 305.44 225.23 1032.94 0.00 1113.42 1028.83 1042.91 197.08 476.78 217.95 146.63 225.03 978.33 437.50 196.77 364.20 480.98 128.52 1123.89 302.81 114.91 259.81 762.40 1064.19 868.56 208.55 987.65 742.38 675.46 139.28 766.07 319.31 180.25 312.92 1105.04 453.08 709.22 373.02 198.35 1079.82 198.06 293.60 182.89 308.96 283.38 308.84 1043.61 1087.84 189.73 163.13 186.23 1115.15 516.76 382.08 1118.28 684.21 151.00
745.43 1080.59 873.64 64.47 1012.70 144.00 615.25 922.28 966.82 892.53 183.19 972.94 968.01 951.33 125.66 1063.80 697.59 782.00 918.39 993.27 59.02 739.82 929.84 744.61 1054.74 920.16 77.25 925.35 1079.70 817.83 1040.31 153.11 1113.42 0.00 84.59 136.74 1091.13 891.58 912.96 968.19 917.84 194.11 675.92 999.91 910.40 863.73 1080.03 54.75 1005.31 998.51 945.67 919.40 169.31 345.33 1056.15 167.06 939.42 647.13 1057.40 915.73 893.90 950.66 880.76 69.06 701.63 989.48 1020.22 994.19 212.83 952.62 1070.78 995.06 833.91 867.30 917.41 151.28 143.60 970.83 1107.45 1117.25 72.55 777.93 775.14 111.72 709.87 1027.42
787.72 1008.62 843.43 149.06 1043.14 67.56 593.61 837.69 945.74 807.94 182.73 936.75 883.42 866.74 144.36 987.82 613.00 697.41 899.18 908.68 88.75 694.53 862.78 660.02 970.15 921.01 158.26 895.97 1001.88 756.04 955.72 177.80 1028.83 84.59 0.00 52.15 1006.54 866.05 879.66 883.60 833.25 236.40 591.33 940.96 825.81 863.65 995.44 95.06 920.72 913.92 861.08 882.92 120.18 310.51 1003.34 82.47 884.67 671.82 984.07 886.59 914.03 876.97 796.17 153.65 617.04 957.66 1002.45 916.37 297.42 868.03 1040.79 910.47 749.32 782.71 850.38 132.85 59.01 903.77 1029.63 1036.81 94.91 759.74 690.55 126.82 625.28 942.83
735.57 1040.50 846.18 133.19 1095.29 78.38 541.46 810.48 936.24 755.79 152.61 884.60 856.21 893.91 162.83 995.90 665.15 749.56 871.97 960.83 93.49 705.35 914.93 703.06 1022.30 893.80 106.11 868.76 1033.76 737.47 989.12 125.65 1042.91 136.74 52.15 0.00 1058.69 918.20 930.25 935.75 885.40 184.25 643.48 969.33 868.57 811.50 1028.77 127.52 972.87 966.07 913.23 855.71 68.03 258.50 1035.66 55.26 857.46 619.67 1026.82 859.38 946.53 929.12 828.05 147.61 589.83 949.11 1005.24 948.25 281.55 920.18 988.64 962.62 801.47 834.86 889.95 102.73 102.21 950.78 1061.51 1086.67 121.51 770.56 733.31 135.33 677.43 994.98
435.51 412.15 250.69 1050.73 477.95 1074.10 593.59 898.32 148.38 554.11 932.01 634.16 697.78 835.99 1033.02 453.87 428.87 309.13 876.68 218.66 1095.29 532.72 297.59 372.95 150.14 920.77 1110.93 891.26 328.73 406.28 342.55 971.22 197.08 1091.13 1006.54 1058.69 0.00 415.06 303.03 263.95 265.76 927.28 415.21 115.29 425.74 531.15 305.09 1101.60 420.13 99.80 231.75 891.02 1013.14 817.51 302.18 1030.87 871.00 676.90 57.80 894.69 304.20 265.33 369.63 1083.27 508.38 826.54 258.45 276.16 1057.53 283.14 105.14 131.40 285.82 317.58 265.46 981.89 1065.55 305.06 270.48 95.46 1101.45 480.68 416.58 1056.56 620.02 63.71
346.90 655.37 273.85 827.11 665.53 850.51 635.73 1031.99 266.68 671.99 910.40 778.80 800.14 984.31 956.72 641.45 486.31 393.44 1032.78 385.24 910.85 366.94 485.17 420.44 383.12 1069.09 820.95 973.71 573.88 396.62 541.87 848.98 476.78 891.58 866.05 918.20 415.06 0.00 490.61 487.46 497.69 898.22 489.13 299.77 522.91 633.51 562.55 929.78 588.56 361.87 373.25 986.76 924.77 784.67 575.78 902.77 993.97 891.53 357.26 983.33 166.43 452.91 442.92 862.45 544.26 1005.45 238.11 488.37 678.75 470.72 370.64 330.26 424.26 390.87 230.08 881.36 908.38 444.36 569.94 417.11 938.87 301.73 473.26 870.36 240.77 374.50
353.84 167.63 314.15 935.97 197.24 927.25 528.81 680.01 251.96 334.88 847.63 453.74 451.98 652.71 1024.02 150.84 301.67 242.76 688.93 133.40 968.41 378.57 16.88 252.00 182.11 708.79 990.21 648.86 166.74 250.80 127.37 884.84 217.95 912.96 879.66 930.25 303.03 490.61 0.00 77.51 82.48 806.33 288.33 231.59 185.80 285.35 189.35 967.71 172.64 203.23 190.41 635.81 892.19 696.56 164.07 874.99 633.03 457.51 288.51 639.48 335.80 37.70 108.54 982.02 340.42 638.35 416.10 81.23 930.65 45.17 355.92 241.79 130.34 130.49 272.15 897.51 938.67 57.87 194.49 301.72 974.57 399.01 304.73 959.49 598.56 239.32
402.97 215.83 301.15 1002.05 246.37 951.16 563.97 701.22 230.25 329.11 896.76 457.92 487.02 679.30 1027.96 225.61 333.53 269.23 718.89 159.15 972.35 456.08 66.01 327.63 113.81 705.00 999.91 660.64 132.41 226.05 78.60 933.97 146.63 968.19 883.60 935.75 263.95 487.46 77.51 0.00 114.39 872.41 337.46 197.16 217.57 334.48 111.84 978.66 156.18 182.63 160.01 673.69 967.82 772.19 139.13 901.52 659.50 535.02 247.09 670.26 321.03 71.86 171.92 958.41 366.95 562.59 347.80 51.72 979.78 71.64 325.73 173.49 179.47 156.96 257.38 946.64 942.61 43.10 146.45 243.13 978.51 446.84 302.69 1002.13 625.03 200.24
307.43 250.11 321.23 919.94 254.87 900.81 534.21 677.59 256.18 288.35 801.22 417.16 432.02 570.23 977.61 233.32 261.82 223.18 689.63 215.88 922.00 404.64 74.51 236.57 190.36 655.01 980.14 649.56 200.50 204.39 163.45 838.43 225.03 917.84 833.25 885.40 265.76 497.69 82.48 114.39 0.00 790.90 241.92 238.67 181.23 265.39 226.23 928.31 181.47 165.96 195.86 636.51 876.76 681.13 171.15 871.76 630.61 451.71 251.24 640.18 360.08 44.78 122.72 952.48 337.19 637.33 424.35 163.71 884.24 42.75 349.79 233.94 83.93 117.32 296.43 851.10 892.26 82.15 260.84 242.42 928.16 352.60 235.94 925.77 578.98 202.05
551.32 973.96 786.37 129.64 976.31 228.64 531.29 798.25 888.68 800.57 178.70 929.38 958.48 906.91 261.92 913.70 538.88 646.91 859.74 833.50 213.38 647.01 820.43 554.33 896.03 881.57 262.11 856.53 942.27 681.92 888.46 175.28 978.33 194.11 236.40 184.25 927.28 898.22 806.33 872.41 790.90 0.00 560.55 866.84 772.08 811.04 966.11 232.31 871.62 863.42 810.75 843.48 150.78 162.64 929.22 181.66 845.23 612.23 909.95 847.15 808.34 802.85 765.39 220.61 655.63 936.88 896.76 885.59 278.00 800.77 954.56 836.35 706.97 715.45 744.69 128.82 259.39 851.69 995.42 962.69 241.40 596.49 659.77 176.89 806.48 892.33
202.84 417.29 252.10 687.73 451.81 658.89 302.18 657.95 354.41 290.87 657.93 419.68 448.78 672.87 735.69 396.49 21.67 106.08 658.74 317.35 680.08 223.84 271.45 68.69 378.82 707.75 749.59 599.67 410.55 164.71 364.39 596.51 437.50 675.92 591.33 643.48 415.21 489.13 288.33 337.46 241.92 560.55 0.00 349.63 234.48 293.83 405.56 686.39 329.39 322.59 269.75 612.72 669.57 473.94 412.01 673.80 619.93 557.98 392.74 609.29 322.70 285.64 204.84 744.98 207.41 594.37 411.12 325.04 642.32 276.70 458.37 319.14 157.99 191.38 259.05 642.97 650.34 312.44 438.30 445.48 686.24 223.74 99.22 717.64 441.33 351.50
370.45 370.59 135.40 935.44 406.51 1008.41 492.68 846.54 33.09 508.79 816.72 632.83 661.25 808.90 1044.04 382.43 327.96 281.42 801.22 151.65 996.21 467.66 226.15 369.53 83.35 861.37 995.64 819.82 287.17 325.50 275.76 855.93 196.77 999.91 940.96 969.33 115.29 299.77 231.59 197.16 238.67 866.84 349.63 0.00 375.42 494.62 304.78 1018.03 350.42 98.47 139.66 819.58 917.80 780.23 316.52 956.15 799.56 675.57 57.49 823.25 194.07 193.89 320.94 967.98 445.38 759.75 204.55 247.90 978.52 211.70 128.57 30.49 235.50 268.89 179.17 866.60 999.97 240.26 270.17 117.34 1017.02 413.17 380.18 941.27 507.20 74.73
363.42 261.52 320.79 901.72 232.91 865.57 441.83 594.09 342.33 149.08 857.21 277.89 306.99 599.39 970.17 206.37 233.20 262.76 601.98 278.49 914.56 436.50 199.86 292.56 331.38 606.32 974.68 561.91 285.70 151.71 271.34 830.99 364.20 910.40 825.81 868.57 425.74 522.91 185.80 217.57 181.23 772.08 234.48 375.42 0.00 204.79 280.71 920.87 136.94 347.19 254.34 548.86 881.10 685.47 287.60 813.31 568.88 450.69 391.82 552.53 384.94 212.66 79.99 963.60 278.74 512.30 473.36 200.19 876.80 217.36 446.29 391.06 139.92 132.04 321.29 877.45 884.82 174.47 313.45 423.65 920.72 371.29 135.26 948.40 562.24 383.28
455.12 452.98 525.58 893.84 340.57 889.88 450.03 491.39 478.44 55.71 775.12 184.52 166.63 465.75 949.93 295.82 272.16 399.91 508.61 389.09 904.99 517.67 268.47 338.03 433.70 467.37 786.48 468.54 392.76 347.58 378.96 836.54 480.98 863.73 863.65 811.50 531.15 633.51 285.35 334.48 265.39 811.04 293.83 494.62 204.79 0.00 446.32 913.25 337.24 431.35 447.57 455.49 876.20 724.43 384.12 866.76 475.51 482.97 502.42 459.16 502.45 300.73 284.78 827.98 341.85 371.94 606.51 366.58 936.15 308.14 582.40 493.38 276.03 242.64 523.74 825.00 913.71 309.46 466.18 507.81 933.01 500.29 340.05 871.70 691.82 467.44
509.66 186.60 382.90 1093.29 302.05 1025.77 619.77 686.57 295.87 417.81 1003.45 545.92 575.72 733.87 1139.80 313.55 427.23 381.07 748.06 177.31 1084.19 554.99 177.85 438.80 225.65 759.57 1111.75 715.21 103.18 312.30 106.18 1002.07 128.52 1080.03 995.44 1028.77 305.09 562.55 189.35 111.84 226.23 966.11 405.56 304.78 280.71 446.32 0.00 1090.50 268.02 243.43 271.85 717.20 1059.82 879.50 80.03 973.51 697.18 631.88 247.29 720.87 402.78 183.70 200.72 1070.25 438.94 617.16 459.64 147.87 1047.88 183.48 399.83 285.33 286.16 252.77 339.13 1048.53 1054.45 154.94 34.61 307.14 1090.35 554.83 388.94 1081.07 736.87 279.52
783.63 1093.83 882.63 102.67 1022.56 119.01 590.26 904.36 984.94 883.31 221.39 1001.85 950.09 949.61 110.61 1082.88 708.06 792.47 893.40 1003.74 34.03 714.83 957.84 755.08 1065.21 865.41 126.77 952.47 1096.94 831.35 1050.78 162.10 1123.89 54.75 95.06 127.52 1101.60 929.78 967.71 978.66 928.31 232.31 686.39 1018.03 920.87 913.25 1090.50 0.00 1015.78 1008.98 951.65 946.52 195.55 386.02 1098.40 149.14 951.34 656.12 1075.52 942.85 932.10 972.03 891.23 123.81 683.71 1007.82 1041.69 1011.43 251.03 963.09 1088.90 1005.53 844.38 877.77 926.40 177.25 141.88 998.83 1124.69 1116.24 41.23 752.94 785.61 131.22 720.34 1037.89
394.90 127.75 402.25 1001.26 184.95 971.59 566.81 672.51 373.81 286.02 888.69 380.60 403.55 702.10 1065.08 69.43 332.74 336.31 673.30 306.04 1009.47 492.11 155.76 324.04 269.99 722.31 1067.61 614.23 176.46 249.01 229.28 925.90 302.81 1005.31 920.72 972.87 420.13 588.56 172.64 156.18 181.47 871.62 329.39 350.42 136.94 337.24 268.02 1015.78 0.00 322.06 293.96 627.28 964.23 768.60 205.81 919.33 634.49 526.32 403.27 623.85 422.13 156.53 146.54 1039.95 384.76 608.86 503.98 207.90 971.71 138.72 477.77 329.67 171.40 198.59 358.48 938.57 979.73 144.20 299.84 399.31 1015.63 440.07 272.20 1013.24 692.11 356.42
410.95 312.35 197.50 993.06 378.15 981.48 530.17 818.18 95.19 454.31 878.82 534.36 597.98 736.19 1005.40 354.07 344.26 216.51 795.36 118.86 1002.67 448.67 197.79 309.09 68.82 820.97 1057.74 791.46 228.93 327.56 261.23 918.03 114.91 998.51 913.92 966.07 99.80 361.87 203.23 182.63 165.96 863.42 322.59 98.47 347.19 431.35 243.43 1008.98 322.06 0.00 144.90 791.22 949.28 753.65 258.28 950.33 771.20 577.10 85.28 794.89 204.40 165.53 285.08 1030.08 415.76 745.22 266.65 233.37 964.91 183.34 187.35 67.98 249.89 252.78 233.50 928.70 972.93 205.26 278.04 130.03 1008.83 401.85 388.96 1003.37 569.30 36.09
333.65 358.04 171.05 940.39 359.46 928.64 477.94 790.08 106.57 403.42 890.20 532.23 561.33 766.09 994.20 341.25 291.42 204.29 816.24 115.97 917.62 406.68 179.10 256.42 184.51 830.92 1019.34 763.36 292.42 298.84 238.61 866.26 259.81 945.67 861.08 913.23 231.75 373.25 190.41 160.01 195.86 810.75 269.75 139.66 254.34 447.57 271.85 951.65 293.96 144.90 0.00 763.12 896.61 700.98 279.08 938.11 743.10 555.34 197.15 766.79 212.48 152.71 220.16 1007.63 403.54 722.60 278.03 211.73 912.07 155.24 210.53 170.15 178.38 211.77 178.00 912.72 920.09 203.11 306.46 257.00 945.64 341.47 368.97 963.91 560.09 168.04
767.56 530.60 847.21 854.93 646.05 852.71 591.69 45.23 845.59 399.78 868.80 270.97 297.77 148.88 989.07 582.14 634.39 701.19 53.12 769.21 912.49 832.84 618.93 616.94 779.66 107.84 944.30 13.05 614.02 590.14 622.08 829.91 762.40 919.40 882.92 855.71 891.02 986.76 635.81 673.69 636.51 843.48 612.72 819.58 548.86 455.49 717.20 946.52 627.28 791.22 763.12 0.00 876.47 680.84 643.37 800.45 20.02 335.89 876.50 3.67 870.95 625.69 616.17 945.90 656.98 111.10 959.37 693.23 1000.14 607.88 877.53 823.85 643.18 668.22 807.30 876.37 910.58 658.80 702.69 878.93 940.51 812.73 513.50 902.18 940.48 827.31
702.10 1059.82 796.32 104.84 1068.90 146.41 539.63 831.24 884.71 820.49 101.08 915.54 924.24 908.75 230.86 1022.72 647.90 732.77 892.73 919.36 161.52 745.35 906.29 640.19 987.90 862.04 152.52 889.52 1049.90 790.94 997.48 75.79 1064.19 169.31 120.18 68.03 1013.14 924.77 892.19 967.82 876.76 150.78 669.57 917.80 881.10 876.20 1059.82 195.55 964.23 949.28 896.61 876.47 0.00 195.63 1022.33 123.29 878.22 569.81 975.29 880.14 894.20 895.96 874.41 111.02 657.86 945.06 955.38 973.42 246.02 909.79 988.67 945.37 792.83 824.47 830.55 51.20 152.30 947.28 1025.21 1035.14 189.54 732.80 768.79 67.30 696.89 978.19
635.23 864.19 678.69 292.28 889.70 295.04 368.65 635.61 781.00 762.97 236.60 843.15 891.06 744.27 362.31 827.09 452.27 537.14 697.10 723.73 351.99 571.49 710.66 444.56 792.27 718.93 348.15 693.89 854.27 595.31 801.85 271.42 868.56 345.33 310.51 258.50 817.51 784.67 696.56 772.19 681.13 162.64 473.94 780.23 685.47 724.43 879.50 386.02 768.60 753.65 700.98 680.84 195.63 0.00 826.70 242.78 682.59 449.59 823.34 684.51 698.57 700.33 678.78 306.65 565.67 774.24 786.99 777.79 440.64 714.16 844.79 749.74 597.20 628.84 634.92 246.83 276.96 751.65 891.05 876.08 371.49 636.70 573.16 262.93 845.49 782.56
478.58 112.77 394.12 1058.86 228.22 1032.66 627.88 606.54 309.10 337.78 972.37 466.59 495.69 695.76 1147.70 239.72 390.34 341.77 668.03 223.04 1091.63 542.64 158.63 382.14 251.96 689.86 1133.40 643.61 29.35 319.72 68.07 1008.52 208.55 1056.15 1003.34 1035.66 302.18 575.78 164.07 139.13 171.15 929.22 412.01 316.52 287.60 384.12 80.03 1098.40 205.81 258.28 279.08 643.37 1022.33 826.70 0.00 980.40 623.35 551.85 305.77 647.04 431.35 126.37 207.61 1097.54 445.83 579.05 451.30 87.41 1054.33 144.18 352.62 286.03 255.08 229.50 367.70 1022.25 1062.35 153.42 114.64 358.70 1079.76 523.75 396.36 1087.96 697.57 294.37
732.98 985.24 856.54 188.45 1046.22 52.26 540.09 755.22 923.06 811.05 139.43 888.58 800.95 838.65 195.48 988.76 695.05 733.82 816.71 945.09 137.24 653.98 891.87 687.34 1003.58 838.54 161.37 813.50 978.50 682.21 933.86 136.01 987.65 167.06 82.47 55.26 1030.87 902.77 874.99 901.52 871.76 181.66 673.80 956.15 813.31 866.76 973.51 149.14 919.33 950.33 938.11 800.45 123.29 242.78 980.40 0.00 802.20 630.03 1013.64 804.12 941.35 877.50 772.79 202.21 534.57 893.85 1015.60 892.99 270.07 895.31 1000.25 977.22 802.67 824.84 877.70 89.55 110.13 895.52 1006.25 1073.49 165.26 719.19 678.05 158.49 707.75 967.16
774.77 510.58 854.42 874.95 626.03 854.46 611.71 46.98 832.65 419.80 848.78 290.99 317.79 140.52 987.29 602.16 641.60 708.40 73.14 766.43 932.51 840.05 637.93 624.15 773.31 87.82 963.57 20.26 594.00 597.35 629.29 849.93 742.38 939.42 884.67 857.46 871.00 993.97 633.03 659.50 630.61 845.23 619.93 799.56 568.88 475.51 697.18 951.34 634.49 771.20 743.10 20.02 878.22 682.59 623.35 802.20 0.00 355.91 856.48 23.69 878.16 605.67 636.19 965.92 664.19 118.31 966.58 679.51 1020.16 587.86 897.55 812.10 663.20 673.18 814.51 891.75 912.33 638.78 682.67 869.69 960.53 819.94 520.71 922.20 947.69 807.29
544.63 625.14 688.13 585.24 654.75 682.29 255.80 381.12 661.91 516.99 555.44 393.56 481.19 380.96 710.88 595.75 576.47 542.11 381.67 590.91 634.30 641.84 474.39 510.60 639.62 441.82 700.37 341.84 581.20 575.41 584.88 494.02 675.46 647.13 671.82 619.67 676.90 891.53 457.51 535.02 451.71 612.23 557.98 675.57 450.69 482.97 631.88 656.12 526.32 577.10 555.34 335.89 569.81 449.59 551.85 630.03 355.91 0.00 662.38 332.22 757.29 495.21 530.68 658.87 427.77 439.89 833.37 538.74 664.25 494.46 764.45 645.08 535.64 569.03 700.96 540.48 666.96 515.38 652.00 694.13 662.32 589.80 562.37 615.15 831.23 613.19
427.94 384.77 192.89 992.93 463.24 1051.63 535.79 887.79 90.58 539.59 874.21 619.64 669.05 821.47 1026.73 439.35 371.07 301.79 844.33 163.00 1053.70 525.15 282.88 394.37 133.28 904.48 1053.13 876.74 303.87 368.61 289.51 913.42 139.28 1057.40 984.07 1026.82 57.80 357.26 288.51 247.09 251.24 909.95 392.74 57.49 391.82 502.42 247.29 1075.52 403.27 85.28 197.15 876.50 975.29 823.34 305.77 1013.64 856.48 662.38 0.00 880.17 251.56 250.81 311.83 1025.47 501.04 800.49 233.74 218.36 1035.06 268.62 162.94 73.60 292.99 259.78 236.66 924.09 1043.08 290.19 212.68 59.85 1074.51 466.31 410.29 998.76 562.22 57.42
764.13 534.27 843.78 851.26 649.72 856.38 588.02 48.90 849.26 403.45 870.56 274.64 294.10 152.55 985.40 585.81 630.96 697.76 49.45 772.88 908.82 829.41 622.60 613.51 775.99 109.60 940.63 9.62 617.69 586.71 618.65 826.24 766.07 915.73 886.59 859.38 894.69 983.33 639.48 670.26 640.18 847.15 609.29 823.25 552.53 459.16 720.87 942.85 623.85 794.89 766.79 3.67 880.14 684.51 647.04 804.12 23.69 332.22 880.17 0.00 867.52 629.36 619.84 942.23 653.55 107.67 955.94 689.80 996.47 611.55 881.20 820.18 646.85 671.89 803.87 872.70 914.25 662.47 706.36 882.60 936.84 809.30 510.07 898.51 937.05 830.98
342.47 503.43 107.42 829.43 499.28 981.59 555.62 916.18 160.98 534.02 882.30 657.06 669.08 925.75 989.75 486.64 319.88 227.01 916.97 225.47 913.17 421.09 318.92 254.01 264.54 916.81 961.90 857.90 429.25 338.06 375.44 820.88 319.31 893.90 914.03 946.53 304.20 166.43 335.80 321.03 360.08 808.34 322.70 194.07 384.94 502.45 402.78 932.10 422.13 204.40 212.48 870.95 894.20 698.57 431.35 941.35 878.16 757.29 251.56 867.52 0.00 346.66 311.86 920.40 426.26 874.39 126.32 361.10 845.18 328.85 264.94 208.50 293.20 259.81 63.65 867.34 973.04 277.93 437.39 279.54 941.19 387.64 365.66 876.68 407.20 240.49
352.21 205.33 276.45 932.49 212.62 929.76 539.95 652.65 226.98 314.90 846.00 443.71 467.36 615.01 1021.33 188.54 263.97 215.40 678.81 171.10 965.72 416.27 32.26 255.77 185.67 693.49 1024.42 625.93 155.72 249.17 138.51 882.15 180.25 950.66 876.97 929.12 265.33 452.91 37.70 71.86 44.78 802.85 285.64 193.89 212.66 300.73 183.70 972.03 156.53 165.53 152.71 625.69 895.96 700.33 126.37 877.50 605.67 495.21 250.81 629.36 346.66 0.00 132.67 982.92 342.93 634.45 398.44 118.93 927.96 17.81 322.46 206.43 128.71 103.13 283.01 895.88 935.98 68.73 218.31 264.02 953.39 397.38 280.72 963.26 571.20 201.62
308.94 212.45 356.66 892.57 300.23 825.05 420.27 661.40 287.85 229.07 802.73 345.20 386.98 666.70 940.53 215.97 226.51 210.64 669.29 198.50 884.92 406.15 119.87 238.08 267.04 686.31 934.16 629.22 205.71 177.76 191.35 801.35 312.92 880.76 796.17 828.05 369.63 442.92 108.54 171.92 122.72 765.39 204.84 320.94 79.99 284.78 200.72 891.23 146.54 285.08 220.16 616.17 874.41 678.78 207.61 772.79 636.19 530.68 311.83 619.84 311.86 132.67 0.00 915.48 238.22 592.29 438.18 120.20 847.16 137.37 391.81 326.72 85.44 52.05 360.32 847.81 855.18 160.86 233.46 365.14 891.08 354.11 196.19 880.35 566.44 321.17
759.45 1127.93 885.38 90.97 1055.03 213.06 606.82 921.45 934.89 870.67 151.26 999.48 994.61 885.17 184.27 1109.38 758.92 843.79 932.68 1030.38 128.08 808.88 982.01 751.21 1051.33 912.22 41.50 951.85 1090.82 871.95 1037.01 164.85 1105.04 69.06 153.65 147.61 1083.27 862.45 982.02 958.41 952.48 220.61 744.98 967.98 963.60 827.98 1070.25 123.81 1039.95 1030.08 1007.63 945.90 111.02 306.65 1097.54 202.21 965.92 658.87 1025.47 942.23 920.40 982.92 915.48 0.00 728.45 921.48 972.93 1010.13 239.33 965.11 1038.85 998.47 868.55 901.94 929.15 118.39 178.85 1001.51 1104.86 1085.32 141.54 799.99 828.34 43.72 671.84 1042.71
286.04 450.67 345.27 723.02 511.65 586.83 197.02 702.21 447.58 286.14 605.63 414.95 444.05 708.39 730.05 454.19 211.94 199.25 680.53 410.52 671.81 289.41 357.30 202.97 469.01 740.68 695.94 643.93 443.93 147.64 399.29 656.52 453.08 701.63 617.04 589.83 508.38 544.26 340.42 366.95 337.19 655.63 207.41 445.38 278.74 341.85 438.94 683.71 384.76 415.76 403.54 656.98 657.86 565.67 445.83 534.57 664.19 427.77 501.04 653.55 426.26 342.93 238.22 728.45 0.00 628.84 504.33 358.42 804.64 360.74 551.54 442.65 268.10 290.27 389.04 610.06 644.70 360.95 471.68 545.79 662.07 331.21 143.48 684.73 555.05 444.67
755.66 607.33 833.09 925.01 547.16 946.11 695.69 138.63 792.84 363.22 903.37 253.47 205.31 116.71 963.48 564.64 572.70 700.45 156.30 717.76 997.11 818.21 621.47 638.57 676.40 142.41 962.98 98.05 564.79 655.09 510.98 910.74 709.22 989.48 957.66 949.11 826.54 1005.45 638.35 562.59 637.33 936.88 594.37 759.75 512.30 371.94 617.16 1007.82 608.86 745.22 722.60 111.10 945.06 774.24 579.05 893.85 118.31 439.89 800.49 107.67 874.39 634.45 592.29 921.48 628.84 0.00 910.39 582.13 1073.37 631.68 888.32 736.08 640.39 614.58 819.97 952.43 924.44 605.69 617.94 801.61 1017.26 800.83 598.50 877.76 989.39 762.83
394.11 562.08 159.06 955.75 579.58 1018.43 660.72 1004.60 171.46 622.44 941.01 751.25 773.14 974.15 1096.45 566.94 408.30 305.08 960.53 290.02 1019.87 391.46 399.22 342.43 233.99 1020.68 1014.43 946.32 478.66 416.13 426.40 879.59 373.02 1020.22 1002.45 1005.24 258.45 238.11 416.10 347.80 424.35 896.76 411.12 204.55 473.36 606.51 459.64 1041.69 503.98 266.65 278.03 959.37 955.38 786.99 451.30 1015.60 966.58 833.37 233.74 955.94 126.32 398.44 438.18 972.93 504.33 910.39 0.00 393.15 916.86 416.25 162.91 223.85 373.87 386.13 152.07 926.05 1052.53 366.35 446.42 214.77 1047.89 375.55 448.56 929.21 478.88 279.28
429.14 168.93 324.00 1012.77 247.19 945.25 540.47 693.95 221.69 349.27 922.93 465.40 507.18 698.84 1060.73 232.07 346.71 320.95 727.12 135.63 1004.22 459.80 98.11 333.23 164.55 724.54 1051.63 680.18 85.51 277.77 71.15 921.55 198.35 994.19 916.37 948.25 276.16 488.37 81.23 51.72 163.71 885.59 325.04 247.90 200.19 366.58 147.87 1011.43 207.90 233.37 211.73 693.23 973.42 777.79 87.41 892.99 679.51 538.74 218.36 689.80 361.10 118.93 120.20 1010.13 358.42 582.13 393.15 0.00 967.36 123.36 325.65 224.23 205.64 172.25 297.45 968.01 975.38 92.18 113.26 278.21 1011.28 474.31 316.39 1000.55 676.75 250.98
829.32 958.78 890.76 148.36 1074.23 317.08 705.12 1025.29 945.43 933.19 231.65 856.96 944.59 1037.06 308.68 1038.81 663.99 748.40 1045.92 959.67 232.10 759.64 913.77 711.01 1021.14 992.61 280.83 1006.09 1042.20 784.45 1006.71 170.23 1079.82 212.83 297.42 281.55 1057.53 678.75 930.65 979.78 884.24 278.00 642.32 978.52 876.80 936.15 1047.88 251.03 971.71 964.91 912.07 1000.14 246.02 440.64 1054.33 270.07 1020.16 664.25 1035.06 996.47 845.18 927.96 847.16 239.33 804.64 1073.37 916.86 967.36 0.00 919.02 1049.39 961.46 800.31 833.70 901.37 216.69 301.69 954.76 1080.62 1087.80 260.12 824.85 741.54 195.61 825.20 993.82
342.21 212.80 294.26 930.41 230.43 935.59 557.64 634.84 244.79 297.09 836.00 425.90 455.00 612.98 1012.39 196.01 261.89 197.59 661.00 178.57 956.78 423.74 50.07 271.35 185.45 675.68 1006.61 608.12 173.53 239.17 120.70 873.21 198.06 952.62 868.03 920.18 283.14 470.72 45.17 71.64 42.75 800.77 276.70 211.70 217.36 308.14 183.48 963.09 138.72 183.34 155.24 607.88 909.79 714.16 144.18 895.31 587.86 494.46 268.62 611.55 328.85 17.81 137.37 965.11 360.74 631.68 416.25 123.36 919.02 0.00 340.27 224.24 118.71 85.32 265.20 885.88 927.04 50.92 218.09 281.83 935.58 387.38 273.21 960.55 553.39 219.43
441.32 465.39 206.27 1006.31 535.08 1052.51 621.25 922.76 103.96 595.37 887.59 721.71 749.03 920.02 1138.16 506.76 456.53 352.29 929.79 222.52 1067.08 538.53 354.72 400.23 211.92 971.06 1066.51 890.58 381.97 426.83 396.80 926.80 293.60 1070.78 1040.79 988.64 105.14 370.64 355.92 325.73 349.79 954.56 458.37 128.57 446.29 582.40 399.83 1088.90 477.77 187.35 210.53 877.53 988.67 844.79 352.62 1000.25 897.55 764.45 162.94 881.20 264.94 322.46 391.81 1038.85 551.54 888.32 162.91 325.65 1049.39 340.27 0.00 159.06 306.37 339.76 209.87 937.47 1090.85 368.83 375.62 107.37 1087.89 486.49 497.62 1012.14 578.07 168.85
400.94 340.10 165.89 965.93 405.27 978.03 462.19 832.22 63.58 502.60 847.21 602.34 660.01 804.17 1048.47 386.48 297.47 284.49 770.73 128.22 999.22 457.92 224.91 355.88 59.68 830.88 1026.13 829.80 256.68 295.01 252.09 886.42 182.89 995.06 910.47 962.62 131.40 330.26 241.79 173.49 233.94 836.35 319.14 30.49 391.06 493.38 285.33 1005.53 329.67 67.98 170.15 823.85 945.37 749.74 286.03 977.22 812.10 645.08 73.60 820.18 208.50 206.43 326.72 998.47 442.65 736.08 223.85 224.23 961.46 224.24 159.06 0.00 265.99 274.67 165.52 897.09 969.48 216.59 286.28 126.34 1005.38 392.71 369.33 971.76 537.69 79.16
223.50 297.89 304.72 836.01 293.82 816.88 460.17 688.41 202.41 289.00 717.29 417.81 442.66 654.16 893.68 240.83 177.89 191.98 650.76 179.84 838.07 320.71 113.46 152.64 248.38 710.91 896.21 656.23 260.21 120.46 206.40 754.50 308.96 833.91 749.32 801.47 285.82 424.26 130.34 179.47 83.93 706.97 157.99 235.50 139.92 276.03 286.16 844.38 171.40 249.89 178.38 643.18 792.83 597.20 255.08 802.67 663.20 535.64 292.99 646.85 293.20 128.71 85.44 868.55 268.10 640.39 373.87 205.64 800.31 118.71 306.37 265.99 0.00 33.39 278.03 767.17 808.33 154.45 313.36 326.35 844.23 268.67 191.25 841.84 547.78 285.98
256.89 264.50 304.61 845.09 315.75 850.27 472.32 705.68 235.80 281.12 750.68 397.25 409.27 687.55 927.07 268.02 176.57 158.59 684.15 146.45 871.46 354.10 135.39 186.03 214.99 710.01 929.60 681.27 226.82 153.85 173.01 787.89 283.38 867.30 782.71 834.86 317.58 390.87 130.49 156.96 117.32 715.45 191.38 268.89 132.04 242.64 252.77 877.77 198.59 252.78 211.77 668.22 824.47 628.84 229.50 824.84 673.18 569.03 259.78 671.89 259.81 103.13 52.05 901.94 290.27 614.58 386.13 172.25 833.70 85.32 339.76 274.67 33.39 0.00 308.27 800.56 841.72 136.24 279.97 319.63 850.26 302.06 224.64 875.23 514.39 288.87
278.82 439.78 43.77 855.52 435.63 917.94 545.43 852.53 146.08 470.37 825.72 599.18 628.28 866.66 944.66 422.99 256.23 189.79 853.32 161.82 904.58 357.44 255.27 190.36 225.20 902.33 970.65 794.25 365.60 288.23 311.79 764.30 308.84 917.41 850.38 889.95 265.46 230.08 272.15 257.38 296.43 744.69 259.05 179.17 321.29 523.74 339.13 926.40 358.48 233.50 178.00 807.30 830.55 634.92 367.70 877.70 814.51 700.96 236.66 803.87 63.65 283.01 360.32 929.15 389.04 819.97 152.07 297.45 901.37 265.20 209.87 165.52 278.03 308.27 0.00 810.76 909.39 214.28 373.74 264.78 932.60 323.99 302.01 885.43 470.85 201.75
680.14 1060.26 766.99 121.92 1060.99 141.81 488.43 844.77 833.51 769.29 49.88 886.21 890.50 895.62 208.27 1008.00 664.64 749.05 870.99 947.01 178.44 743.53 880.63 683.15 949.95 810.84 159.89 882.32 1026.09 753.56 973.57 46.46 1043.61 151.28 132.85 102.73 981.89 881.36 897.51 946.64 851.10 128.82 642.97 866.60 877.45 825.00 1048.53 177.25 938.57 928.70 912.72 876.37 51.20 246.83 1022.25 89.55 891.75 540.48 924.09 872.70 867.34 895.88 847.81 118.39 610.06 952.43 926.05 968.01 216.69 885.88 937.47 897.09 767.17 800.56 810.76 0.00 191.86 921.62 1076.41 983.94 150.42 681.60 742.19 74.67 704.26 941.33
782.05 1067.63 893.47 153.33 1102.15 57.87 643.67 865.35 995.78 858.00 234.36 986.81 911.08 807.73 85.35 1046.83 672.01 756.42 926.84 967.69 111.73 684.84 921.79 719.03 1029.16 892.51 176.10 923.63 1060.89 792.34 1014.73 172.94 1087.84 143.60 59.01 102.21 1065.55 908.38 938.67 942.61 892.26 259.39 650.34 999.97 884.82 913.71 1054.45 141.88 979.73 972.93 920.09 910.58 152.30 276.96 1062.35 110.13 912.33 666.96 1043.08 914.25 973.04 935.98 855.18 178.85 644.70 924.44 1052.53 975.38 301.69 927.04 1090.85 969.48 808.33 841.72 909.39 191.86 0.00 962.78 1088.64 1095.82 139.75 750.05 749.56 185.83 684.29 1001.84
377.95 225.50 258.05 981.33 221.35 947.78 557.97 685.76 273.35 286.01 871.74 414.82 443.92 652.38 1048.13 208.71 312.81 248.51 711.92 191.27 992.52 436.44 40.99 307.09 156.91 726.60 1043.01 659.04 151.32 269.15 97.51 908.95 189.73 970.83 903.77 950.78 305.06 444.36 57.87 43.10 82.15 851.69 312.44 240.26 174.47 309.46 154.94 998.83 144.20 205.26 203.11 658.80 947.28 751.65 153.42 895.52 638.78 515.38 290.19 662.47 277.93 68.73 160.86 1001.51 360.95 605.69 366.35 92.18 954.76 50.92 368.83 216.59 154.45 136.24 214.28 921.62 962.78 0.00 184.08 286.23 986.50 423.12 290.86 996.29 604.31 241.35
536.86 172.09 405.57 1125.06 287.54 1058.51 653.73 721.18 303.26 452.42 1030.65 560.99 574.11 734.65 1173.99 294.11 456.54 415.68 755.81 211.92 1117.48 573.06 211.37 446.49 260.26 760.35 1146.36 702.93 137.79 346.91 106.96 1034.81 163.13 1107.45 1029.63 1061.51 270.48 569.94 194.49 146.45 260.84 995.42 438.30 270.17 313.45 466.18 34.61 1124.69 299.84 278.04 306.46 702.69 1025.21 891.05 114.64 1006.25 682.67 652.00 212.68 706.36 437.39 218.31 233.46 1104.86 471.68 617.94 446.42 113.26 1080.62 218.09 375.62 286.28 313.36 279.97 373.74 1076.41 1088.64 184.08 0.00 272.53 1124.54 582.03 423.55 1092.51 745.93 270.10
487.79 427.86 252.74 1052.78 476.64 1104.37 588.53 916.67 150.43 530.77 934.06 659.58 674.44 812.65 1086.58 452.56 423.81 346.54 861.79 192.75 1082.21 533.49 296.28 439.12 135.25 897.43 1112.98 889.95 344.44 421.35 290.63 973.27 186.23 1117.25 1036.81 1086.67 95.46 417.11 301.72 243.13 242.42 962.69 445.48 117.34 423.65 507.81 307.14 1116.24 399.31 130.03 257.00 878.93 1035.14 876.08 358.70 1073.49 869.69 694.13 59.85 882.60 279.54 264.02 365.14 1085.32 545.79 801.61 214.77 278.21 1087.80 281.83 107.37 126.34 326.35 319.63 264.78 983.94 1095.82 286.23 272.53 0.00 1110.23 468.28 470.14 1058.61 622.07 117.27
792.10 1052.60 888.83 111.76 1063.79 113.00 584.25 920.48 983.93 877.30 200.30 1006.11 966.21 927.18 80.41 1082.73 707.91 792.32 887.39 996.71 28.02 708.82 957.69 754.93 1065.06 906.64 149.80 946.46 1077.08 809.71 1023.27 168.30 1115.15 72.55 94.91 121.51 1101.45 938.87 974.57 978.51 928.16 241.40 686.24 1017.02 920.72 933.01 1090.35 41.23 1015.63 1008.83 945.64 940.51 189.54 371.49 1079.76 165.26 960.53 662.32 1074.51 936.84 941.19 953.39 891.08 141.54 662.07 1017.26 1047.89 1011.28 260.12 935.58 1087.89 1005.38 844.23 850.26 932.60 150.42 139.75 986.50 1124.54 1110.23 0.00 746.93 785.46 139.50 720.19 1037.74
45.17 566.56 280.22 726.13 562.49 692.18 334.00 857.96 382.53 514.61 731.48 643.42 639.81 828.44 795.49 480.92 228.13 189.89 858.75 401.16 718.91 65.21 382.13 222.58 333.03 907.76 841.49 799.68 528.88 300.94 475.07 728.06 516.76 777.93 759.74 770.56 480.68 301.73 399.01 446.84 352.60 596.49 223.74 413.17 371.29 500.29 554.83 752.94 440.07 401.85 341.47 812.73 732.80 636.70 523.75 719.19 819.94 589.80 466.31 809.30 387.64 397.38 354.11 799.99 331.21 800.83 375.55 474.31 824.85 387.38 486.49 392.71 268.67 302.06 323.99 681.60 750.05 423.12 582.03 468.28 746.93 0.00 299.23 756.27 339.21 419.46
254.06 396.78 333.71 786.95 368.17 730.31 306.57 558.73 393.66 284.34 749.11 387.48 442.25 578.79 834.91 341.63 120.89 187.69 559.52 278.63 779.30 323.06 304.71 167.91 347.17 608.53 839.42 500.45 382.10 76.64 328.29 695.73 382.08 775.14 690.55 733.31 416.58 473.26 304.73 302.69 235.94 659.77 99.22 380.18 135.26 340.05 388.94 785.61 272.20 388.96 368.97 513.50 768.79 573.16 396.36 678.05 520.71 562.37 410.29 510.07 365.66 280.72 196.19 828.34 143.48 598.50 448.56 316.39 741.54 273.21 497.62 369.33 191.25 224.64 302.01 742.19 749.56 290.86 423.55 470.14 785.46 299.23 0.00 816.86 426.98 352.87
728.21 1092.80 841.66 47.25 1011.31 194.38 563.10 898.54 908.18 843.96 124.55 960.88 959.44 841.45 195.93 1082.67 715.20 800.07 945.66 986.66 119.35 800.15 955.30 707.49 1024.62 885.51 85.22 908.13 1086.06 828.23 1048.24 121.13 1118.28 111.72 126.82 135.33 1056.56 870.36 959.49 1002.13 925.77 176.89 717.64 941.27 948.40 871.70 1081.07 131.22 1013.24 1003.37 963.91 902.18 67.30 262.93 1087.96 158.49 922.20 615.15 998.76 898.51 876.68 963.26 880.35 43.72 684.73 877.76 929.21 1000.55 195.61 960.55 1012.14 971.76 841.84 875.23 885.43 74.67 185.83 996.29 1092.51 1058.61 139.50 756.27 816.86 0.00 629.59 1016.00
337.58 691.64 501.82 676.84 783.82 692.84 575.43 985.71 474.11 711.32 754.14 814.46 858.45 1005.77 769.64 749.40 419.66 355.80 986.50 567.07 714.03 274.00 603.46 422.60 590.55 1035.51 713.34 927.43 692.78 466.85 638.97 750.72 684.21 709.87 625.28 677.43 620.02 240.77 598.56 625.03 578.98 806.48 441.33 507.20 562.24 691.82 736.87 720.34 692.11 569.30 560.09 940.48 696.89 845.49 697.57 707.75 947.69 831.23 562.22 937.05 407.20 571.20 566.44 671.84 555.05 989.39 478.88 676.75 825.20 553.39 578.07 537.69 547.78 514.39 470.85 704.26 684.29 604.31 745.93 622.07 720.19 339.21 426.98 629.59 0.00 581.93
445.18 348.44 210.13 1010.17 414.24 1010.39 541.35 834.61 107.82 490.40 891.45 570.45 634.07 772.28 969.31 390.16 373.17 245.42 812.97 154.95 1031.58 477.58 233.88 338.00 86.43 857.06 1070.37 827.55 265.02 356.47 278.84 930.66 151.00 1027.42 942.83 994.98 63.71 374.50 239.32 200.24 202.05 892.33 351.50 74.73 383.28 467.44 279.52 1037.89 356.42 36.09 168.04 827.31 978.19 782.56 294.37 967.16 807.29 613.19 57.42 830.98 240.49 201.62 321.17 1042.71 444.67 762.83 279.28 250.98 993.82 219.43 168.85 79.16 285.98 288.87 201.75 941.33 1001.84 241.35 270.10 117.27 1037.74 419.46 352.87 1016.00 581.93 0.00
DEMAND_SECTION
1 0
2 17
3 28
4 2
5 11
6 19
7 31
8 73
9 37
10 75
11 1
12 54
13 93
14 99
15 42
16 36
17 34
18 36
19 57
20 49
21 25
22 52
23 5
24 22
25 31
26 82
27 32
28 70
29 15
30 26
31 1
32 19
33 36
34 40
35 16
36 4
37 2
38 92
39 6
40 34
41 49
42 24
43 43
44 32
45 44
46 81
47 33
48 35
49 41
50 1
51 26
52 64
53 33
54 25
55 16
56 45
57 64
58 83
59 37
60 56
61 29
62 33
63 4
64 26
65 82
66 54
67 43
68 6
69 6
70 19
71 13
72 1
73 23
74 12
75 19
76 40
77 39
78 47
79 29
80 2
81 7
82 96
83 24
84 35
85 60
86 49
DEPOT_SECTION
1
-1
EOF
