NAME: LDG85_1376_none_85_0289
COMMENT: CVRP with travel times.  rootPos=1,custPos=3,demandType=7,avgRouteSizeIndex=6,weather=none,lambda_cluster=1,lambda_random=4, T1=300,T2=700,beta=1, alpha(i,j) ~ U(0.8,1.2)
TYPE: CVRP
DIMENSION: 86
EDGE_WEIGHT_TYPE: EXPLICIT
EDGE_WEIGHT_FORMAT: FULL_MATRIX
CAPACITY: 246
NODE_COORD_SECTION
1 30 104
2 204 33
3 700 349
4 231 2
5 299 473
6 340 211
7 585 685
8 563 565
9 524 686
10 706 658
11 614 585
12 891 442
13 114 117
14 598 494
15 651 534
16 419 457
17 429 480
18 177 119
19 348 920
20 273 156
21 773 674
22 846 754
23 799 581
24 705 467
25 879 247
26 783 674
27 551 479
28 252 902
29 296 558
30 608 494
31 767 747
32 996 93
33 669 410
34 362 996
35 955 737
36 682 629
37 775 771
38 474 569
39 42 937
40 672 542
41 527 396
42 413 411
43 698 639
44 665 560
45 661 518
46 628 352
47 704 844
48 662 491
49 756 120
50 553 989
51 220 371
52 663 778
53 139 535
54 598 578
55 112 116
56 780 716
57 971 448
58 670 868
59 756 723
60 564 817
61 525 728
62 573 470
63 584 494
64 927 319
65 779 781
66 722 551
67 193 20
68 681 580
69 849 377
70 443 749
71 718 486
72 548 615
73 44 32
74 781 168
75 998 20
76 729 667
77 769 901
78 314 161
79 622 554
80 907 192
81 889 755
82 655 523
83 49 528
84 152 393
85 295 288
86 731 643
EDGE_WEIGHT_SECTION
0.00 207.54 729.81 230.69 537.16 355.66 754.76 721.24 732.93 811.36 738.92 869.22 91.95 660.52 699.77 536.57 570.39 172.27 892.45 255.03 895.36 953.41 849.79 736.87 866.94 889.14 653.35 871.79 511.97 640.89 922.33 987.80 746.36 1011.55 1034.19 801.98 952.16 642.75 886.20 717.74 525.42 517.70 818.47 736.19 686.51 656.92 938.95 672.17 815.94 1053.10 441.32 906.78 506.89 736.39 77.55 905.98 974.41 996.92 901.81 887.67 796.13 623.77 650.67 972.85 955.61 768.51 210.28 749.65 902.87 763.90 751.98 743.04 139.93 795.57 910.09 845.75 1022.41 303.64 687.61 867.49 993.90 677.61 488.13 327.00 345.22 853.28
207.54 0.00 628.84 36.97 420.67 254.69 672.35 581.86 711.61 733.61 639.02 781.57 115.59 549.82 620.06 419.98 484.77 121.18 863.36 215.01 789.21 877.07 772.82 655.90 765.97 772.55 577.09 837.13 477.31 564.55 811.63 797.12 644.46 953.07 950.26 730.89 843.12 526.16 895.53 650.11 489.57 401.11 701.88 661.14 627.60 536.64 856.54 633.39 726.34 1031.78 352.02 824.37 516.22 631.63 129.99 820.56 886.76 914.51 791.11 860.71 756.27 546.80 534.08 852.57 817.18 672.24 28.72 673.31 801.90 720.49 649.08 626.45 203.40 601.85 702.55 762.63 923.28 166.40 627.63 753.19 917.32 618.70 497.46 336.33 228.63 750.04
729.81 628.84 0.00 594.82 459.26 374.15 314.03 255.70 334.35 336.76 276.29 300.96 659.83 206.09 239.68 325.44 357.44 626.38 615.12 496.75 389.15 457.70 342.64 175.35 244.65 385.18 184.73 755.39 440.18 193.18 432.34 438.96 87.71 666.44 517.71 314.42 471.40 288.28 866.96 234.20 213.13 358.30 332.87 244.17 226.42 105.54 498.22 204.51 213.24 637.33 555.89 466.05 603.39 293.99 652.26 404.94 270.32 542.97 413.15 489.09 397.55 154.44 197.39 271.16 476.51 247.71 600.12 253.94 173.06 446.64 174.65 316.56 746.06 190.39 454.06 330.69 578.30 475.78 259.08 332.28 498.19 217.52 690.85 628.41 495.71 343.52
230.69 36.97 594.82 0.00 457.64 220.67 709.32 618.83 748.58 743.30 670.86 767.28 152.56 586.79 639.39 456.95 521.74 144.28 861.85 248.58 826.18 900.95 784.30 678.50 731.95 809.52 587.86 874.10 514.28 601.52 848.60 834.09 642.79 956.29 973.81 741.60 880.09 563.13 932.50 657.36 459.93 438.08 738.85 675.81 626.13 573.61 893.51 649.10 700.22 1000.27 350.51 861.34 553.19 668.33 166.96 837.92 865.14 951.43 828.08 848.63 793.24 558.28 571.05 857.14 854.15 708.13 51.82 697.19 767.88 686.47 637.92 663.42 226.50 564.88 739.52 777.69 954.35 203.37 619.55 730.63 941.44 617.23 534.43 373.30 265.60 785.22
537.16 420.67 459.26 457.64 0.00 314.69 385.54 306.53 308.21 438.31 334.01 569.28 445.21 321.46 359.16 133.82 145.67 376.44 536.47 404.21 496.33 558.84 521.87 403.89 620.06 492.20 322.97 506.71 146.89 340.91 539.94 768.72 446.38 650.08 669.91 415.57 573.59 239.35 629.29 359.33 265.93 229.33 406.58 394.07 328.10 353.72 544.33 339.19 589.76 628.38 151.68 511.53 175.49 316.31 459.61 532.93 666.75 600.99 507.99 462.95 371.41 348.67 305.72 647.41 571.35 404.97 449.39 410.96 541.17 398.82 406.40 339.64 503.42 560.14 863.29 467.33 658.20 355.60 365.09 707.69 599.33 337.00 285.88 248.12 192.04 454.74
355.66 254.69 374.15 220.67 314.69 0.00 532.06 428.38 562.05 522.63 450.19 546.61 292.51 389.26 418.72 314.00 378.79 252.23 757.38 139.48 615.48 680.28 563.63 457.83 511.28 606.45 367.19 694.47 334.65 386.47 651.07 632.14 430.27 735.62 753.14 520.93 671.11 420.18 816.17 436.69 239.26 295.13 548.31 455.14 405.46 370.76 716.25 428.43 587.39 779.60 246.04 646.90 436.86 447.66 278.11 617.25 644.47 730.76 630.55 627.96 619.76 337.61 380.56 636.47 667.89 487.46 225.97 476.52 547.21 465.80 417.25 489.24 371.91 564.54 726.71 557.02 733.68 108.41 398.88 598.91 720.77 396.56 418.10 256.97 122.65 564.55
754.76 672.35 314.03 709.32 385.54 532.06 0.00 139.69 95.47 174.11 116.30 379.57 691.61 205.50 177.41 252.37 269.24 704.66 376.24 606.43 198.18 279.91 303.65 265.08 498.65 210.35 231.91 539.26 364.89 189.98 207.66 673.82 295.45 352.41 374.03 151.50 247.71 146.19 703.89 185.23 336.57 342.95 172.30 180.41 188.66 346.17 184.19 208.77 527.27 366.97 537.22 152.02 503.24 98.60 677.21 213.97 480.76 242.16 227.16 194.35 126.05 238.84 205.33 525.63 253.68 254.28 701.07 212.38 419.39 163.63 266.96 98.02 822.48 504.42 768.09 139.72 303.29 559.97 147.38 532.14 320.40 187.34 611.53 629.70 443.72 190.62
721.24 581.86 255.70 618.83 306.53 428.38 139.69 0.00 133.67 186.22 67.47 354.52 638.76 95.78 124.98 195.58 220.41 627.54 414.44 509.86 277.81 340.16 232.23 188.56 449.82 267.57 110.76 577.46 321.83 80.35 267.27 624.99 185.82 492.10 416.40 149.03 307.32 118.70 611.26 130.66 199.61 247.68 181.95 104.43 113.34 249.88 323.88 123.86 468.94 453.84 455.68 249.01 466.08 49.77 647.48 280.84 459.71 339.15 283.36 288.41 196.87 101.26 80.04 450.58 313.29 178.30 610.58 136.40 370.27 245.96 186.77 60.86 769.63 446.09 709.76 220.61 397.27 481.66 62.47 483.31 380.65 122.24 507.43 522.62 385.49 209.24
732.93 711.61 334.35 748.58 308.21 562.05 95.47 133.67 0.00 210.53 165.90 437.45 736.25 229.45 229.01 291.63 238.17 684.65 280.77 643.53 256.06 337.79 280.36 309.41 548.25 272.72 244.43 443.79 364.22 214.02 231.73 744.33 319.49 382.11 413.57 173.15 271.78 185.45 614.44 221.63 333.28 321.83 214.33 201.97 234.19 364.56 236.12 244.71 547.59 320.17 459.89 203.32 460.80 169.11 750.65 271.85 538.64 292.78 266.78 154.74 63.20 234.93 213.71 532.30 277.75 259.79 740.33 170.00 426.06 112.29 286.79 96.92 811.63 524.74 788.41 197.60 349.99 615.33 183.32 602.65 378.28 243.09 516.06 556.33 482.98 252.41
811.36 733.61 336.76 743.30 438.31 522.63 174.11 186.22 210.53 0.00 142.77 274.24 748.21 226.30 163.42 381.64 314.63 756.44 491.30 623.86 92.85 160.56 147.20 200.50 492.01 83.82 219.50 464.31 449.72 216.90 142.12 656.21 249.05 526.52 261.53 44.73 171.20 277.22 682.53 143.35 326.40 366.03 31.73 114.98 174.58 296.76 245.95 161.86 516.02 433.15 556.75 176.64 595.11 143.99 733.81 94.62 347.27 266.78 121.83 256.37 210.29 228.39 217.30 426.81 145.26 158.00 748.60 108.14 320.57 322.82 190.43 189.89 879.08 503.18 750.78 34.39 251.36 608.79 123.75 534.52 201.05 169.10 659.08 621.90 504.98 41.92
738.92 639.02 276.29 670.86 334.01 450.19 116.30 67.47 165.90 142.77 0.00 322.63 663.66 89.20 63.11 255.35 188.34 660.11 433.23 534.76 210.34 299.84 191.91 163.01 382.35 200.10 148.49 547.06 381.88 108.83 273.25 592.92 214.30 468.71 377.81 116.96 281.49 171.45 622.99 83.51 239.20 272.00 114.48 64.11 85.08 242.59 300.49 112.70 489.53 458.38 480.00 216.94 495.11 17.70 661.37 237.39 410.80 299.98 215.89 284.49 169.57 140.85 104.94 409.33 256.57 137.98 667.74 96.08 303.09 254.63 163.38 89.89 794.53 449.01 687.49 175.23 362.67 521.25 51.31 451.24 329.92 85.27 574.90 526.94 410.39 141.77
869.22 781.57 300.96 767.28 569.28 546.61 379.57 354.52 437.45 274.24 322.63 0.00 806.07 290.91 272.24 441.36 466.70 796.36 717.01 663.78 298.31 380.04 319.52 314.89 279.41 314.97 350.20 733.18 654.80 305.07 347.58 439.05 302.41 731.98 400.73 318.97 357.28 438.25 922.97 272.41 343.80 497.69 300.60 258.52 241.18 244.93 451.41 295.07 417.37 638.61 686.56 382.10 744.77 317.68 791.67 314.10 105.19 472.24 327.29 530.61 454.76 342.56 306.65 154.22 383.22 205.39 772.58 290.49 127.90 543.20 289.32 389.87 918.52 444.97 494.87 239.85 489.32 615.17 292.05 297.37 410.01 250.08 806.77 713.02 612.10 309.15
91.95 115.59 659.83 152.56 445.21 292.51 691.61 638.76 736.25 748.21 663.66 806.07 0.00 574.46 607.82 444.62 509.41 80.32 800.50 163.08 813.85 869.38 772.04 663.40 803.79 797.19 590.20 808.64 448.82 589.19 836.27 912.71 690.28 919.60 942.24 710.03 860.21 550.80 823.05 625.79 462.27 425.75 726.52 644.24 594.56 581.93 875.80 609.02 752.79 1005.47 376.66 843.63 443.74 665.45 14.40 836.14 911.26 925.60 815.75 862.91 780.91 560.62 558.72 897.86 863.66 676.56 144.31 665.62 832.89 700.75 672.86 651.09 130.87 717.44 818.14 772.14 946.44 211.69 624.46 804.34 909.87 585.66 424.98 263.85 253.27 763.03
660.52 549.82 206.09 586.79 321.46 389.26 205.50 95.78 229.45 226.30 89.20 290.91 574.46 0.00 81.53 193.42 175.79 570.91 510.22 445.56 270.87 332.15 239.12 137.56 425.73 254.21 59.29 606.75 363.89 19.63 261.81 553.61 125.10 557.91 415.95 181.57 301.86 147.34 707.04 109.01 150.00 259.36 203.68 111.32 77.78 154.10 346.56 83.57 411.28 488.69 444.58 306.14 477.95 106.90 588.86 270.74 396.10 389.18 241.29 315.79 258.77 51.65 15.74 386.28 304.65 153.90 578.54 128.39 321.10 341.74 154.12 139.37 705.33 360.52 648.18 234.86 410.75 432.05 105.09 411.93 372.64 68.88 558.83 475.10 321.19 230.97
699.77 620.06 239.68 639.39 359.16 418.72 177.41 124.98 229.01 163.42 63.11 272.24 607.82 81.53 0.00 274.95 246.03 623.20 496.34 515.80 226.46 284.17 176.24 99.90 409.22 209.80 130.24 560.03 434.13 71.92 253.08 575.60 151.97 529.82 334.42 118.69 252.39 215.98 684.10 30.05 179.46 304.79 141.67 48.44 31.06 188.57 337.55 64.70 452.92 441.97 474.29 278.05 534.65 78.81 622.22 244.69 377.43 362.10 239.62 329.25 232.68 114.54 85.98 375.90 278.33 112.54 644.69 80.41 269.66 317.74 109.36 151.00 738.69 394.99 670.17 183.03 382.94 494.94 62.51 433.92 324.66 22.16 631.35 556.63 391.43 178.15
536.57 419.98 325.44 456.95 133.82 314.00 252.37 195.58 291.63 381.64 255.35 441.36 444.62 193.42 274.95 0.00 67.01 452.29 473.09 354.06 446.32 525.57 422.09 287.83 570.09 439.00 206.90 596.83 237.01 213.05 455.23 733.75 318.52 585.96 604.28 336.91 457.23 106.18 661.92 297.70 162.97 96.89 353.38 300.01 269.41 219.90 436.56 223.13 455.94 611.80 285.50 404.39 309.31 237.65 459.02 464.16 532.93 494.53 434.71 446.37 336.29 237.19 209.16 513.59 483.17 331.07 448.70 321.81 407.35 316.14 326.82 206.47 575.49 426.32 758.75 392.09 555.66 342.30 258.05 592.07 549.91 260.51 365.41 377.33 191.35 397.12
570.39 484.77 357.44 521.74 145.67 378.79 269.24 220.41 238.17 314.63 188.34 466.70 509.41 175.79 246.03 67.01 0.00 493.21 518.94 421.07 398.68 475.19 380.25 281.87 570.34 386.68 204.31 575.77 215.95 195.24 437.60 729.40 300.71 620.28 537.27 269.90 468.07 169.51 728.93 257.27 226.56 83.66 301.06 252.45 253.57 286.91 453.43 259.36 495.89 558.34 291.66 369.88 321.16 170.64 523.81 409.25 559.07 460.02 402.47 392.91 284.32 203.00 160.05 530.59 444.91 298.21 513.49 284.42 468.86 350.46 322.45 242.83 640.28 493.33 809.66 345.52 551.01 386.95 219.42 587.72 515.68 244.67 431.55 383.75 256.14 330.11
172.27 121.18 626.38 144.28 376.44 252.23 704.66 627.54 684.65 756.44 660.11 796.36 80.32 570.91 623.20 452.29 493.21 0.00 880.82 132.58 813.27 821.76 774.78 684.01 750.03 800.87 545.72 869.44 509.62 551.28 807.76 884.37 656.75 985.38 949.09 711.71 847.81 558.47 903.37 643.80 491.49 433.42 734.19 646.98 615.17 551.43 888.85 627.86 729.73 1004.82 370.68 853.58 513.27 654.34 94.72 755.82 889.06 943.72 785.27 839.39 747.85 561.59 562.40 867.36 833.90 697.17 92.46 660.04 799.44 716.02 669.48 658.76 183.43 690.66 823.73 766.51 940.00 181.19 651.11 816.93 862.25 606.27 505.30 344.17 260.94 776.17
892.45 863.36 615.12 861.85 536.47 757.38 376.24 414.44 280.77 491.30 433.23 717.01 800.50 510.22 496.34 473.09 518.94 880.82 0.00 827.15 518.69 532.53 561.13 548.79 815.58 502.03 494.24 163.02 491.25 494.79 456.56 1024.49 595.15 119.10 638.40 453.92 456.25 448.79 349.94 502.40 599.84 569.98 485.08 482.74 486.35 638.16 421.99 496.87 828.36 318.43 511.34 334.91 575.21 449.88 814.90 488.70 801.27 416.05 463.81 278.99 343.97 501.49 494.48 813.07 482.19 540.56 892.08 450.77 706.83 293.56 508.21 377.69 863.08 805.51 1069.18 477.16 535.50 790.12 435.48 882.81 573.02 495.25 685.60 572.77 634.73 505.62
255.03 215.01 496.75 248.58 404.21 139.48 606.43 509.86 643.53 623.86 534.76 663.78 163.08 445.56 515.80 354.06 421.07 132.58 827.15 0.00 684.95 777.53 655.03 551.64 650.76 668.29 459.30 820.67 460.85 465.01 707.37 771.62 569.75 875.10 846.00 579.13 747.42 460.24 876.97 545.85 378.74 351.90 620.31 556.88 523.34 418.85 790.62 519.83 660.07 919.08 327.39 735.79 423.17 536.55 177.48 716.30 767.07 825.93 686.85 761.17 690.35 429.01 429.82 734.78 750.21 567.98 216.80 573.77 669.81 605.28 556.73 553.45 293.95 558.08 866.19 651.95 853.94 48.61 523.37 722.13 818.02 514.44 507.93 346.80 212.17 658.39
895.36 789.21 389.15 826.18 496.33 615.48 198.18 277.81 256.06 92.85 210.34 298.31 813.85 270.87 226.46 446.32 398.68 813.27 518.69 684.95 0.00 122.32 133.98 231.42 497.73 16.66 296.34 534.86 463.17 273.69 89.81 626.47 301.44 491.48 177.78 137.58 129.86 344.37 753.08 196.41 385.68 458.88 102.28 193.05 227.64 375.25 175.58 223.19 602.39 362.78 532.16 185.55 664.92 228.04 817.81 57.45 282.58 238.67 84.25 292.57 303.14 298.08 255.13 372.54 119.07 171.10 817.93 164.98 379.11 361.81 214.50 259.70 883.90 579.54 713.19 58.46 225.17 678.48 216.60 550.08 149.73 228.38 715.92 646.48 560.58 68.57
953.41 877.07 457.70 900.95 558.84 680.28 279.91 340.16 337.79 160.56 299.84 380.04 869.38 332.15 284.17 525.57 475.19 821.76 532.53 777.53 122.32 0.00 228.32 336.81 580.77 134.05 374.28 572.23 548.68 312.52 117.88 748.79 383.17 500.30 127.33 205.29 100.00 426.10 790.45 255.39 441.02 508.45 192.29 235.73 286.62 424.73 225.98 322.42 670.94 367.12 654.48 197.62 734.33 304.55 883.78 65.94 404.90 184.56 95.39 303.71 353.96 361.38 347.71 494.86 79.20 286.46 905.79 203.76 409.33 443.54 296.23 350.45 1000.25 614.96 835.51 140.19 165.81 741.78 284.31 648.68 40.49 283.72 754.70 768.80 648.44 171.29
849.79 772.82 342.64 784.30 521.87 563.63 303.65 232.23 280.36 147.20 191.91 319.52 772.04 239.12 176.24 422.09 380.25 774.78 561.13 655.03 133.98 228.32 0.00 208.57 427.07 123.34 256.31 563.93 534.61 230.64 196.49 595.68 254.93 601.07 250.23 172.53 158.52 315.91 782.15 168.09 324.37 410.18 131.35 127.80 193.77 285.66 308.34 231.91 555.88 487.87 618.18 279.86 672.18 209.61 772.24 191.43 416.56 339.21 172.24 368.39 338.09 226.02 254.86 301.88 184.46 135.75 789.60 154.44 327.83 392.65 167.99 268.77 902.91 492.08 642.53 181.59 290.56 606.42 189.66 479.42 187.83 186.38 705.38 710.27 560.31 122.27
736.87 655.90 175.35 678.50 403.89 457.83 265.08 188.56 309.41 200.50 163.01 314.89 663.40 137.56 99.90 287.83 281.87 684.01 548.79 551.64 231.42 336.81 208.57 0.00 309.32 244.01 155.20 601.35 440.11 132.73 304.35 475.70 87.64 617.49 409.20 183.33 335.78 236.97 771.77 117.87 235.04 280.51 168.77 113.08 86.64 169.31 330.37 64.70 388.59 497.55 488.51 318.94 544.77 166.48 659.32 270.87 312.57 393.46 270.18 370.97 332.58 153.54 121.82 293.23 333.54 124.51 683.80 145.05 186.99 382.26 40.58 218.99 771.68 365.74 570.27 196.62 438.52 533.94 126.09 334.02 377.30 77.74 653.24 580.60 427.27 209.45
866.94 765.97 244.65 731.95 620.06 511.28 498.65 449.82 548.25 492.01 382.35 279.41 803.79 425.73 409.22 570.09 570.34 750.03 815.58 650.76 497.73 580.77 427.07 309.32 0.00 514.39 429.38 905.15 653.10 406.10 568.17 211.96 300.63 851.06 516.09 464.94 553.66 532.93 1005.34 411.05 424.50 551.01 472.57 422.40 395.96 350.19 639.69 374.02 234.08 806.87 713.71 599.29 795.55 400.05 789.39 516.23 297.02 682.33 545.68 666.84 551.92 399.09 431.14 125.19 579.60 381.84 737.25 427.50 171.44 636.98 349.90 472.24 883.19 244.78 306.53 505.94 685.70 619.69 433.66 87.63 540.28 387.06 905.94 756.56 633.93 481.98
889.14 772.55 385.18 809.52 492.20 606.45 210.35 267.57 272.72 83.82 200.10 314.97 797.19 254.21 209.80 439.00 386.68 800.87 502.03 668.29 16.66 134.05 123.34 244.01 514.39 0.00 282.73 518.20 446.51 272.27 73.15 643.13 297.47 508.14 177.71 126.80 113.20 355.79 736.42 179.75 377.18 449.85 85.62 196.52 210.98 358.59 192.24 239.85 598.42 364.53 548.82 168.89 667.69 217.80 811.59 68.11 299.24 245.90 97.56 305.88 292.36 281.42 238.47 389.20 119.17 187.76 801.27 164.55 373.65 373.98 231.16 271.96 900.56 565.01 729.85 75.12 225.27 661.82 207.57 566.74 166.39 219.88 715.49 663.14 543.92 75.23
653.35 577.09 184.73 587.86 322.97 367.19 231.91 110.76 244.43 219.50 148.49 350.20 590.20 59.29 130.24 206.90 204.31 545.72 494.24 459.30 296.34 374.28 256.31 155.20 429.38 282.73 0.00 632.56 306.35 78.92 321.10 612.90 142.02 583.33 436.94 219.99 361.15 103.55 722.02 118.89 127.93 200.07 214.64 149.74 132.17 168.28 405.85 121.11 397.97 547.98 408.07 332.55 418.66 133.31 575.80 314.12 431.91 422.69 300.58 375.08 307.63 30.29 44.26 399.70 363.94 182.42 593.16 170.52 338.02 313.51 158.50 167.89 721.07 374.70 638.79 253.89 469.73 410.69 134.93 471.22 414.77 128.17 529.05 456.37 349.71 261.42
871.79 837.13 755.39 874.10 506.71 694.47 539.26 577.46 443.79 464.31 547.06 733.18 808.64 606.75 560.03 596.83 575.77 869.44 163.02 820.67 534.86 572.23 563.93 601.35 905.15 518.20 632.56 0.00 359.82 592.86 558.23 1077.05 667.68 188.28 695.91 473.76 568.85 562.40 218.22 544.20 619.19 659.43 432.58 531.84 546.77 704.28 560.12 564.87 968.63 372.92 618.34 452.51 503.37 564.76 794.24 506.29 811.58 542.65 533.99 442.01 418.51 641.72 622.49 865.81 542.91 591.55 865.85 511.51 767.57 456.58 624.05 540.71 939.51 910.70 1171.62 493.33 595.85 772.06 588.06 935.37 612.72 537.87 537.89 567.90 608.50 480.74
511.97 477.31 440.18 514.28 146.89 334.65 364.89 321.83 364.22 449.72 381.88 654.80 448.82 363.89 434.13 237.01 215.95 509.62 491.25 460.85 463.17 548.68 534.61 440.11 653.10 446.51 306.35 359.82 0.00 383.34 511.46 865.06 352.47 521.75 624.22 404.99 518.89 218.70 578.04 425.24 319.67 299.61 446.17 426.26 423.04 451.17 549.08 408.08 653.42 565.73 258.52 516.91 291.24 371.60 434.42 482.74 674.05 556.58 453.29 414.09 427.42 336.64 348.15 654.71 516.65 486.31 506.03 450.26 548.47 251.93 439.41 318.99 579.69 630.57 894.24 478.66 622.75 412.24 372.17 732.11 589.17 431.94 320.36 277.62 248.68 484.25
640.89 564.55 193.18 601.52 340.91 386.47 189.98 80.35 214.02 216.90 108.83 305.07 589.19 19.63 71.92 213.05 195.24 551.28 494.79 465.01 273.69 312.52 230.64 132.73 406.10 272.27 78.92 592.86 383.34 0.00 281.44 573.24 105.47 542.39 398.94 173.09 321.49 166.79 691.61 92.52 147.21 278.90 187.69 102.84 63.89 173.73 366.19 76.58 406.42 474.80 459.31 302.30 497.58 103.06 595.08 289.48 410.26 392.44 260.92 296.16 277.22 48.86 35.19 405.73 324.28 145.89 593.27 108.76 301.47 326.31 134.49 141.21 720.06 380.15 647.24 215.23 415.77 429.26 103.60 431.56 353.01 54.99 578.46 494.73 335.92 224.89
922.33 811.63 432.34 848.60 539.94 651.07 207.66 267.27 231.73 142.12 273.25 347.58 836.27 261.81 253.08 455.23 437.60 807.76 456.56 707.37 89.81 117.88 196.49 304.35 568.17 73.15 321.10 558.23 511.46 281.44 0.00 716.28 350.71 482.60 181.84 186.85 40.05 353.85 771.94 223.03 411.81 449.78 158.77 210.37 254.26 399.37 175.55 288.30 645.58 355.31 621.97 121.65 692.53 282.61 850.67 51.94 372.39 172.75 58.17 238.09 288.69 313.46 277.55 462.35 46.02 249.24 840.35 178.40 396.73 344.02 263.77 290.81 967.14 601.98 803.00 107.73 152.12 693.86 265.87 634.84 158.37 258.36 729.34 736.29 583.00 147.80
987.80 797.12 438.96 834.09 768.72 632.14 673.82 624.99 744.33 656.21 592.92 439.05 912.71 553.61 575.60 733.75 729.40 884.37 1024.49 771.62 626.47 748.79 595.68 475.70 211.96 643.13 612.90 1077.05 865.06 573.24 716.28 0.00 512.59 1026.23 728.05 659.03 736.47 700.95 1180.51 593.57 636.46 674.30 644.47 588.78 562.34 513.85 802.05 540.40 281.30 973.25 843.84 774.46 911.77 575.22 910.25 683.92 427.83 864.60 703.92 842.01 762.49 593.40 569.35 293.80 724.68 593.80 825.84 620.75 383.40 821.99 516.28 647.41 1000.52 307.43 94.57 672.32 830.78 740.55 601.79 141.68 752.24 553.44 1022.16 889.11 754.79 614.29
746.36 644.46 87.71 642.79 446.38 430.27 295.45 185.82 319.49 249.05 214.30 302.41 690.28 125.10 151.97 318.52 300.71 656.75 595.15 569.75 301.44 383.17 254.93 87.64 300.63 297.47 142.02 667.68 352.47 105.47 350.71 512.59 0.00 647.86 464.54 226.71 390.76 245.57 797.08 146.49 228.01 342.09 256.41 156.46 138.71 169.06 418.01 116.80 300.95 549.62 544.38 385.23 547.60 208.53 675.88 317.23 321.58 455.26 330.42 401.63 374.99 154.33 140.66 302.24 393.78 170.87 615.74 188.43 196.00 416.88 86.94 246.68 684.04 278.10 541.77 242.98 490.59 534.73 178.19 388.26 423.66 129.81 657.99 598.39 441.39 255.81
1011.55 953.07 666.44 956.29 650.08 735.62 352.41 492.10 382.11 526.52 468.71 731.98 919.60 557.91 529.82 585.96 620.28 985.38 119.10 875.10 491.48 500.30 601.07 617.49 851.06 508.14 583.33 188.28 521.75 542.39 482.60 1026.23 647.86 0.00 627.63 503.91 442.55 479.78 362.17 537.64 643.75 662.38 524.71 532.82 541.07 698.58 386.53 561.18 879.68 199.33 630.44 447.45 530.82 451.01 934.00 514.66 774.06 357.31 485.21 394.65 445.31 591.25 557.74 841.35 468.49 606.69 948.11 552.11 771.80 269.82 619.37 450.43 982.18 856.83 1019.73 492.13 491.31 844.03 499.79 884.55 540.79 539.75 641.21 691.87 724.44 535.35
1034.19 950.26 517.71 973.81 669.91 753.14 374.03 416.40 413.57 261.53 377.81 400.73 942.24 415.95 334.42 604.28 537.27 949.09 638.40 846.00 177.78 127.33 250.23 409.20 516.09 177.71 436.94 695.91 624.22 398.94 181.84 728.05 464.54 627.63 0.00 267.37 217.09 512.82 914.13 318.05 513.88 594.87 263.33 322.15 349.28 496.89 330.39 392.62 634.12 494.45 709.94 303.49 817.75 366.63 956.64 193.27 460.36 311.89 222.72 419.93 432.93 447.80 416.18 450.89 191.15 307.95 978.98 290.18 344.65 525.86 390.35 412.53 1061.68 703.31 791.54 234.31 211.29 828.20 384.01 603.72 129.98 356.58 841.12 824.26 721.63 246.35
801.98 730.89 314.42 741.60 415.57 520.93 151.50 149.03 173.15 44.73 116.96 318.97 710.03 181.57 118.69 336.91 269.90 711.71 453.92 579.13 137.58 205.29 172.53 183.33 464.94 126.80 219.99 473.76 404.99 173.09 186.85 659.03 226.71 503.91 267.37 0.00 208.19 245.45 691.98 110.54 281.67 353.56 41.18 70.25 133.27 289.38 283.77 167.75 527.66 430.40 561.56 161.43 550.38 99.26 724.43 139.35 392.00 251.57 142.59 278.22 165.56 221.95 197.31 434.43 186.55 117.79 746.90 84.49 328.19 285.44 173.83 145.16 840.90 495.80 745.42 79.12 292.65 602.35 132.08 517.35 245.78 124.37 635.43 620.24 502.76 79.26
952.16 843.12 471.40 880.09 573.59 671.11 247.71 307.32 271.78 171.20 281.49 357.28 860.21 301.86 252.39 457.23 468.07 847.81 456.25 747.42 129.86 100.00 158.52 335.78 553.66 113.20 361.15 568.85 518.89 321.49 40.05 736.47 390.76 442.55 217.09 208.19 0.00 351.05 771.63 263.08 431.85 489.83 167.01 249.43 283.45 438.43 149.82 317.09 671.69 337.02 662.02 121.34 655.98 299.19 874.61 91.99 412.44 180.69 65.60 273.92 288.38 353.51 317.60 460.40 25.94 254.42 871.84 217.46 382.22 378.85 303.82 250.76 991.08 609.41 801.05 147.78 132.04 733.91 294.95 594.79 140.49 274.55 766.37 757.18 623.05 155.23
642.75 526.16 288.28 563.13 239.35 420.18 146.19 118.70 185.45 277.22 171.45 438.25 550.80 147.34 215.98 106.18 169.51 558.47 448.79 460.24 344.37 426.10 315.91 236.97 532.93 355.79 103.55 562.40 218.70 166.79 353.85 700.95 245.57 479.78 512.82 245.45 351.05 0.00 729.04 221.66 231.48 203.07 270.17 215.33 204.34 271.83 330.38 214.86 501.52 505.62 391.03 298.21 358.49 162.34 565.20 360.16 530.62 388.35 351.63 340.19 230.11 133.84 131.60 502.14 376.99 269.76 554.88 231.56 423.96 209.96 262.05 100.29 681.67 478.25 742.34 285.91 449.48 448.48 153.47 559.27 466.59 213.24 468.88 483.51 297.53 313.22
886.20 895.53 866.96 932.50 629.29 816.17 703.89 611.26 614.44 682.53 622.99 922.97 823.05 707.04 684.10 661.92 728.93 903.37 349.94 876.97 753.08 790.45 782.15 771.77 1005.34 736.42 722.02 218.22 578.04 691.61 771.94 1180.51 797.08 362.17 914.13 691.98 771.63 729.04 0.00 691.92 810.87 758.81 650.80 687.10 702.93 856.75 748.70 715.46 1080.20 561.50 673.52 650.29 453.80 605.29 808.65 724.51 1028.16 719.48 752.21 628.93 636.73 712.52 691.30 1032.32 761.13 760.97 924.25 719.07 926.08 556.32 781.23 672.12 803.54 1057.35 1275.08 711.55 814.07 828.36 654.07 1038.83 830.94 694.03 398.07 559.20 745.18 698.96
717.74 650.11 234.20 657.36 359.33 436.69 185.23 130.66 221.63 143.35 83.51 272.41 625.79 109.01 30.05 297.70 257.27 643.80 502.40 545.85 196.41 255.39 168.09 117.87 411.05 179.75 118.89 544.20 425.24 92.52 223.03 593.57 146.49 537.64 318.05 110.54 263.08 221.66 691.92 0.00 197.43 310.47 111.62 40.29 31.23 178.84 320.62 74.57 447.44 459.94 501.19 261.79 534.82 86.63 640.19 232.40 365.19 351.93 210.84 300.47 228.50 141.18 116.03 345.85 269.05 82.49 662.66 51.63 239.61 333.40 104.56 158.82 756.66 385.26 686.50 158.15 375.15 518.19 68.19 451.89 295.88 40.13 602.57 575.26 421.48 148.10
525.42 489.57 213.13 459.93 265.93 239.26 336.57 199.61 333.28 326.40 239.20 343.80 462.27 150.00 179.46 162.97 226.56 491.49 599.84 378.74 385.68 441.02 324.37 235.04 424.50 377.18 127.93 619.19 319.67 147.21 411.81 636.46 228.01 643.75 513.88 281.67 431.85 231.48 810.87 197.43 0.00 196.07 309.05 215.88 166.20 131.50 496.56 189.17 426.37 577.11 342.76 437.21 441.42 237.97 447.87 418.03 448.99 497.24 391.29 443.37 392.30 98.35 141.30 447.43 454.65 248.20 465.23 237.26 386.19 373.93 226.56 260.47 593.14 337.92 667.19 343.78 518.08 347.67 202.99 503.67 481.51 157.30 528.38 457.08 354.32 334.67
517.70 401.11 358.30 438.08 229.33 295.13 342.95 247.68 321.83 366.03 272.00 497.69 425.75 259.36 304.79 96.89 83.66 433.42 569.98 351.90 458.88 508.45 410.18 280.51 551.01 449.85 200.07 659.43 299.61 278.90 449.78 674.30 342.09 662.38 594.87 353.56 489.83 203.07 758.81 310.47 196.07 0.00 383.62 304.14 293.15 252.76 482.81 303.67 412.23 642.00 208.00 453.54 355.71 254.30 440.15 460.65 593.08 543.68 463.90 476.57 367.98 230.36 243.71 568.69 495.80 378.01 429.83 304.69 467.50 392.56 321.09 244.93 556.62 459.18 768.87 400.42 577.08 303.29 242.28 614.53 548.94 302.05 461.22 300.09 172.48 407.95
818.47 701.88 332.87 738.85 406.58 548.31 172.30 181.95 214.33 31.73 114.48 300.60 726.52 203.68 141.67 353.38 301.06 734.19 485.08 620.31 102.28 192.29 131.35 168.77 472.57 85.62 214.64 432.58 446.17 187.69 158.77 644.47 256.41 524.71 263.33 41.18 167.01 270.17 650.80 111.62 309.05 383.62 0.00 110.90 142.85 290.46 272.31 186.19 546.11 422.87 558.26 150.17 582.07 132.18 740.92 126.35 379.00 240.31 101.41 237.04 206.74 236.55 208.54 433.23 164.77 158.97 730.60 78.93 334.99 326.62 191.47 186.34 857.39 496.88 739.04 60.75 270.87 616.95 155.48 502.79 215.44 151.75 629.87 590.17 473.25 48.16
736.19 661.14 244.17 675.81 394.07 455.14 180.41 104.43 201.97 114.98 64.11 258.52 644.24 111.32 48.44 300.01 252.45 646.98 482.74 556.88 193.05 235.73 127.80 113.08 422.40 196.52 149.74 531.84 426.26 102.84 210.37 588.78 156.46 532.82 322.15 70.25 249.43 215.33 687.10 40.29 215.88 304.14 110.90 0.00 65.97 219.13 300.96 104.11 457.41 476.13 494.86 231.68 546.19 81.81 658.64 208.84 363.71 321.82 191.18 280.81 225.32 151.70 127.06 386.14 254.54 73.87 681.11 31.97 279.90 314.26 103.58 140.97 775.11 425.55 683.35 134.59 360.64 532.10 61.86 447.10 276.22 58.58 582.91 586.42 432.51 134.78
686.51 627.60 226.42 626.13 328.10 405.46 188.66 113.34 234.19 174.58 85.08 241.18 594.56 77.78 31.06 269.41 253.57 615.17 486.35 523.34 227.64 286.62 193.77 86.64 395.96 210.98 132.17 546.77 423.04 63.89 254.26 562.34 138.71 541.07 349.28 133.27 283.45 204.34 702.93 31.23 166.20 293.15 142.85 65.97 0.00 157.51 351.85 53.89 439.66 428.71 479.78 293.02 503.59 97.64 608.96 263.63 346.37 331.04 242.07 331.70 254.65 112.75 93.52 352.11 300.28 99.80 631.43 82.86 270.84 313.42 78.30 169.83 725.43 363.93 656.91 189.38 369.68 486.96 50.87 420.66 327.11 8.90 613.98 552.88 398.97 179.33
656.92 536.64 105.54 573.61 353.72 370.76 346.17 249.88 364.56 296.76 242.59 244.93 581.93 154.10 188.57 219.90 286.91 551.43 638.16 418.85 375.25 424.73 285.66 169.31 350.19 358.59 168.28 704.28 451.17 173.73 399.37 513.85 169.06 698.58 496.89 289.38 438.43 271.83 856.75 178.84 131.50 252.76 290.46 219.13 157.51 0.00 489.96 153.52 318.78 586.22 460.76 440.63 529.21 251.46 579.37 391.38 350.12 488.55 380.18 469.81 407.34 194.13 169.84 315.93 442.02 221.54 565.36 220.97 278.60 435.75 173.04 267.64 704.93 206.42 538.85 327.49 527.19 370.24 202.68 372.17 465.22 166.41 585.31 522.87 411.25 326.94
938.95 856.54 498.22 893.51 544.33 716.25 184.19 323.88 236.12 245.95 300.49 451.41 875.80 346.56 337.55 436.56 453.43 888.85 421.99 790.62 175.58 225.98 308.34 330.37 639.69 192.24 405.85 560.12 549.08 366.19 175.55 802.05 418.01 386.53 330.39 283.77 149.82 330.38 748.70 320.62 496.56 482.81 272.31 300.96 351.85 489.96 0.00 392.96 711.46 187.20 690.81 122.34 687.43 282.79 861.40 212.11 458.16 63.09 185.62 143.00 289.38 398.21 362.30 548.12 175.76 346.68 885.26 268.99 517.36 305.16 367.60 282.21 1006.67 688.61 888.77 211.56 119.10 744.16 331.57 664.39 266.47 348.95 752.18 782.90 627.91 244.15
672.17 633.39 204.51 649.10 339.19 428.43 208.77 123.86 244.71 161.86 112.70 295.07 609.02 83.57 64.70 223.13 259.36 627.86 496.87 519.83 223.19 322.42 231.91 64.70 374.02 239.85 121.11 564.87 408.08 76.58 288.30 540.40 116.80 561.18 392.62 167.75 317.09 214.86 715.46 74.57 189.17 303.67 186.19 104.11 53.89 153.52 392.96 0.00 417.75 478.01 490.87 309.41 514.68 110.17 594.62 256.48 377.27 384.93 283.69 336.78 282.27 90.82 99.31 332.49 307.12 107.94 654.40 126.20 251.69 356.94 103.69 159.10 739.89 359.94 634.97 196.25 396.19 471.22 61.39 398.72 362.91 58.20 588.54 558.67 404.76 203.78
815.94 726.34 213.24 700.22 589.76 587.39 527.27 468.94 547.59 516.02 489.53 417.37 752.79 411.28 452.92 455.94 495.89 729.73 828.36 660.07 602.39 670.94 555.88 388.59 234.08 598.42 397.97 968.63 653.42 406.42 645.58 281.30 300.95 879.68 634.12 527.66 671.69 501.52 1080.20 447.44 426.37 412.23 546.11 457.41 439.66 318.78 711.46 417.75 0.00 850.57 620.23 679.29 765.25 507.23 738.39 610.64 344.26 756.21 626.39 702.33 610.79 367.68 410.63 359.27 661.28 460.95 752.04 467.18 289.47 659.88 387.89 529.80 883.66 135.34 375.87 543.93 767.38 611.46 472.32 223.16 658.31 430.76 821.35 712.32 584.71 556.76
1053.10 1031.78 637.33 1000.27 628.38 779.60 366.97 453.84 320.17 433.15 458.38 638.61 1005.47 488.69 441.97 611.80 558.34 1004.82 318.43 919.08 362.78 367.12 487.87 497.55 806.87 364.53 547.98 372.92 565.73 474.80 355.31 973.25 549.62 199.33 494.45 430.40 337.02 505.62 561.50 459.94 577.11 642.00 422.87 476.13 428.71 586.22 187.20 478.01 850.57 0.00 780.06 272.70 688.61 462.11 1000.15 395.51 645.36 182.56 366.06 195.32 288.81 523.66 504.43 735.32 362.96 490.42 1005.57 444.16 684.54 313.80 507.01 417.09 1131.80 792.64 1067.82 398.76 291.98 888.01 479.58 831.57 407.61 419.81 782.82 843.35 803.15 431.35
441.32 352.02 555.89 350.51 151.68 246.04 537.22 455.68 459.89 556.75 480.00 686.56 376.66 444.58 474.29 285.50 291.66 370.68 511.34 327.39 532.16 654.48 618.18 488.51 713.71 548.82 408.07 618.34 258.52 459.31 621.97 843.84 544.38 630.44 709.94 561.56 662.02 391.03 673.52 501.19 342.76 208.00 558.26 494.86 479.78 460.76 690.81 490.87 620.23 780.06 0.00 661.54 274.86 462.30 363.77 589.61 791.75 751.68 616.41 614.63 523.09 438.36 428.84 776.69 651.23 541.37 380.74 512.69 675.50 510.45 457.44 452.93 351.74 667.18 938.41 590.62 757.33 278.78 433.00 801.34 681.89 488.68 275.45 114.32 123.39 598.67
906.78 824.37 466.05 861.34 511.53 646.90 152.02 249.01 203.32 176.64 216.94 382.10 843.63 306.14 278.05 404.39 369.88 853.58 334.91 735.79 185.55 197.62 279.86 318.94 599.29 168.89 332.55 452.51 516.91 302.30 121.65 774.46 385.23 447.45 303.49 161.43 121.34 298.21 650.29 261.79 437.21 453.54 150.17 231.68 293.02 440.63 122.34 309.41 679.29 272.70 661.54 0.00 655.26 199.24 829.23 153.79 468.13 90.14 128.90 162.13 167.04 348.92 305.97 536.32 147.28 243.85 853.09 229.10 454.25 265.53 298.29 250.04 974.50 647.05 869.03 142.25 211.30 711.99 248.02 632.78 238.11 285.80 661.05 740.34 595.74 198.33
506.89 516.22 603.39 553.19 175.49 436.86 503.24 466.08 460.80 595.11 495.11 744.77 443.74 477.95 534.65 309.31 321.16 513.27 575.21 423.17 664.92 734.33 672.18 544.77 795.55 667.69 418.66 503.37 291.24 497.58 692.53 911.77 547.60 530.82 817.75 550.38 655.98 358.49 453.80 534.82 441.42 355.71 582.07 546.19 503.59 529.21 687.43 514.68 765.25 688.61 274.86 655.26 0.00 477.41 429.34 675.58 842.24 659.31 683.48 570.48 524.00 448.95 462.92 818.36 681.92 580.46 502.72 573.21 716.66 408.32 504.19 405.22 574.61 735.63 1006.34 629.50 788.02 374.56 511.96 770.09 774.82 512.49 110.39 179.89 365.87 629.64
736.39 631.63 293.99 668.33 316.31 447.66 98.60 49.77 169.11 143.99 17.70 317.68 665.45 106.90 78.81 237.65 170.64 654.34 449.88 536.55 228.04 304.55 209.61 166.48 400.05 217.80 133.31 564.76 371.60 103.06 282.61 575.22 208.53 451.01 366.63 99.26 299.19 162.34 605.29 86.63 237.97 254.30 132.18 81.81 97.64 251.46 282.79 110.17 507.23 462.11 462.30 199.24 477.41 0.00 658.84 238.61 422.87 289.38 233.59 266.79 187.27 149.68 106.73 427.03 274.27 155.68 660.35 113.78 320.79 246.77 175.94 72.19 796.32 457.88 669.79 174.88 380.37 530.08 48.78 433.54 345.04 88.74 557.20 544.64 412.18 159.47
77.55 129.99 652.26 166.96 459.61 278.11 677.21 647.48 750.65 733.81 661.37 791.67 14.40 588.86 622.22 459.02 523.81 94.72 814.90 177.48 817.81 883.78 772.24 659.32 789.39 811.59 575.80 794.24 434.42 595.08 850.67 910.25 675.88 934.00 956.64 724.43 874.61 565.20 808.65 640.19 447.87 440.15 740.92 658.64 608.96 579.37 861.40 594.62 738.39 1000.15 363.77 829.23 429.34 658.84 0.00 828.43 896.86 919.37 830.15 848.51 795.31 546.22 573.12 895.30 878.06 690.96 132.73 680.02 825.32 686.35 674.43 665.49 145.27 731.84 832.54 768.20 944.86 226.09 610.06 789.94 924.27 600.06 410.58 249.45 267.67 775.73
905.98 820.56 404.94 837.92 532.93 617.25 213.97 280.84 271.85 94.62 237.39 314.10 836.14 270.74 244.69 464.16 409.25 755.82 488.70 716.30 57.45 65.94 191.43 270.87 516.23 68.11 314.12 506.29 482.74 289.48 51.94 683.92 317.23 514.66 193.27 139.35 91.99 360.16 724.51 232.40 418.03 460.65 126.35 208.84 263.63 391.38 212.11 256.48 610.64 395.51 589.61 153.79 675.58 238.61 828.43 0.00 340.03 224.69 29.45 237.77 300.08 322.39 286.48 429.99 78.08 220.52 843.22 180.77 344.79 377.60 230.29 284.51 939.25 573.26 770.64 74.25 184.18 702.79 218.37 603.86 106.43 260.73 731.71 703.93 591.93 105.35
974.41 886.76 270.32 865.14 666.75 644.47 480.76 459.71 538.64 347.27 410.80 105.19 911.26 396.10 377.43 532.93 559.07 889.06 801.27 767.07 282.58 404.90 416.56 312.57 297.02 299.24 431.91 811.58 674.05 410.26 372.39 427.83 321.58 774.06 460.36 392.00 412.44 530.62 1028.16 365.19 448.99 593.08 379.00 363.71 346.37 350.12 458.16 377.27 344.26 645.36 791.75 468.13 842.24 422.87 896.86 340.03 0.00 464.22 366.83 575.15 557.56 424.76 399.02 193.83 401.65 310.58 870.44 381.64 125.58 644.39 353.15 486.82 1005.62 401.90 520.53 341.04 507.75 720.36 397.24 371.37 432.31 355.27 871.83 710.70 704.47 351.15
996.92 914.51 542.97 951.43 600.99 730.76 242.16 339.15 292.78 266.78 299.98 472.24 925.60 389.18 362.10 494.53 460.02 943.72 416.05 825.93 238.67 184.56 339.21 393.46 682.33 245.90 422.69 542.65 556.58 392.44 172.75 864.60 455.26 357.31 311.89 251.57 180.69 388.35 719.48 351.93 497.24 543.68 240.31 321.82 331.04 488.55 63.09 384.93 756.21 182.56 751.68 90.14 659.31 289.38 919.37 224.69 464.22 0.00 196.96 142.49 229.58 436.52 396.11 611.21 206.63 333.99 943.23 319.24 544.39 304.65 388.43 340.18 1056.47 654.09 940.05 232.39 149.78 802.13 331.88 722.92 225.05 339.94 723.59 826.92 685.88 262.44
901.81 791.11 413.15 828.08 507.99 630.55 227.16 283.36 266.78 121.83 215.89 327.29 815.75 241.29 239.62 434.71 402.47 785.27 463.81 686.85 84.25 95.39 172.24 270.18 545.68 97.56 300.58 533.99 453.29 260.92 58.17 703.92 330.42 485.21 222.72 142.59 65.60 351.63 752.21 210.84 391.29 463.90 101.41 191.18 242.07 380.18 185.62 283.69 626.39 366.06 616.41 128.90 683.48 233.59 830.15 29.45 366.83 196.96 0.00 208.32 295.94 292.94 257.03 456.79 63.36 191.07 819.83 159.21 374.24 370.48 243.48 287.75 946.62 543.81 797.44 87.44 169.46 673.34 245.58 604.20 135.88 239.17 710.15 691.58 562.48 89.63
887.67 860.71 489.09 848.63 462.95 627.96 194.35 288.41 154.74 256.37 284.49 530.61 862.91 315.79 329.25 446.37 392.91 839.39 278.99 761.17 292.57 303.71 368.39 370.97 666.84 305.88 375.08 442.01 414.09 296.16 238.09 842.01 401.63 394.65 419.93 278.22 273.92 340.19 628.93 300.47 443.37 476.57 237.04 280.81 331.70 469.81 143.00 336.78 702.33 195.32 614.63 162.13 570.48 266.79 848.51 237.77 575.15 142.49 208.32 0.00 167.97 345.02 331.35 611.08 271.68 338.63 853.93 248.84 504.84 162.16 365.63 243.72 966.37 676.23 936.58 290.76 256.51 725.42 315.57 700.33 344.20 328.80 650.67 691.71 632.08 285.20
796.13 756.27 397.55 793.24 371.41 619.76 126.05 196.87 63.20 210.29 169.57 454.76 780.91 258.77 232.68 336.29 284.32 747.85 343.97 690.35 303.14 353.96 338.09 332.58 551.92 292.36 307.63 418.51 427.42 277.22 288.69 762.49 374.99 445.31 432.93 165.56 288.38 230.11 636.73 228.50 392.30 367.98 206.74 225.32 254.65 407.34 289.38 282.27 610.79 288.81 523.09 167.04 524.00 187.27 795.31 300.08 557.56 229.58 295.94 167.97 0.00 293.95 266.04 562.13 314.32 283.35 784.99 233.20 468.11 175.49 328.90 160.12 874.83 587.94 851.61 244.68 332.34 663.67 220.88 620.81 394.45 254.84 494.01 619.53 527.64 244.82
623.77 546.80 154.44 558.28 348.67 337.61 238.84 101.26 234.93 228.39 140.85 342.56 560.62 51.65 114.54 237.19 203.00 561.59 501.49 429.01 298.08 361.38 226.02 153.54 399.09 281.42 30.29 641.72 336.64 48.86 313.46 593.40 154.33 591.25 447.80 221.95 353.51 133.84 712.52 141.18 98.35 230.36 236.55 151.70 112.75 194.13 398.21 90.82 367.68 523.66 438.36 348.92 448.95 149.68 546.22 322.39 424.76 436.52 292.94 345.02 293.95 0.00 42.95 369.41 356.30 178.84 563.58 157.62 327.50 343.80 128.21 162.12 691.49 344.83 608.50 262.78 439.44 380.40 104.64 463.58 401.87 103.85 559.34 486.66 348.40 270.31
650.67 534.08 197.39 571.05 305.72 380.56 205.33 80.04 213.71 217.30 104.94 306.65 558.72 15.74 85.98 209.16 160.05 562.40 494.48 429.82 255.13 347.71 254.86 121.82 431.14 238.47 44.26 622.49 348.15 35.19 277.55 569.35 140.66 557.74 416.18 197.31 317.60 131.60 691.30 116.03 141.30 243.71 208.54 127.06 93.52 169.84 362.30 99.31 410.63 504.43 428.84 305.97 462.92 106.73 573.12 286.48 399.02 396.11 257.03 331.35 266.04 42.95 0.00 370.54 320.39 138.16 562.80 143.95 308.81 326.00 162.40 123.63 689.59 376.26 649.61 250.42 426.49 423.35 93.55 427.67 388.20 84.62 573.31 490.84 305.45 246.71
972.85 852.57 271.16 857.14 647.41 636.47 525.63 450.58 532.30 426.81 409.33 154.22 897.86 386.28 375.90 513.59 530.59 867.36 813.07 734.78 372.54 494.86 301.88 293.23 125.19 389.20 399.70 865.81 654.71 405.73 462.35 293.80 302.24 841.35 450.89 434.43 460.40 502.14 1032.32 345.85 447.43 568.69 433.23 386.14 352.11 315.93 548.12 332.49 359.27 735.32 776.69 536.32 818.36 427.03 895.30 429.99 193.83 611.21 456.79 611.08 562.13 369.41 370.54 0.00 486.34 316.64 862.44 362.30 106.24 644.59 333.81 491.59 986.28 343.29 340.65 394.07 592.44 686.17 393.88 177.54 475.08 361.01 852.49 691.36 675.99 416.78
955.61 817.18 476.51 854.15 571.35 667.89 253.68 313.29 277.75 145.26 256.57 383.22 863.66 304.65 278.33 483.17 444.91 833.90 482.19 750.21 119.07 79.20 184.46 333.54 579.60 119.17 363.94 542.91 516.65 324.28 46.02 724.68 393.78 468.49 191.15 186.55 25.94 376.99 761.13 269.05 454.65 495.80 164.77 254.54 300.28 442.02 175.76 307.12 661.28 362.96 651.23 147.28 681.92 274.27 878.06 78.08 401.65 206.63 63.36 271.68 314.32 356.30 320.39 486.34 0.00 254.43 845.90 222.57 408.16 390.04 306.84 276.70 994.53 607.17 819.25 150.80 106.10 736.70 269.01 620.73 119.69 300.49 773.51 754.94 610.39 152.99
768.51 672.24 247.71 708.13 404.97 487.46 254.28 178.30 259.79 158.00 137.98 205.39 676.56 153.90 112.54 331.07 298.21 697.17 540.56 567.98 171.10 286.46 135.75 124.51 381.84 187.76 182.42 591.55 486.31 145.89 249.24 593.80 170.87 606.69 307.95 117.79 254.42 269.76 760.97 82.49 248.20 378.01 158.97 73.87 99.80 221.54 346.68 107.94 460.95 490.42 541.37 243.85 580.46 155.68 690.96 220.52 310.58 333.99 191.07 338.63 283.35 178.84 138.16 316.64 254.43 0.00 700.96 89.79 210.40 372.08 83.93 214.84 807.43 427.96 627.63 192.39 360.53 559.24 135.73 458.53 320.83 90.90 640.73 629.00 443.61 177.61
210.28 28.72 600.12 51.82 449.39 225.97 701.07 610.58 740.33 748.60 667.74 772.58 144.31 578.54 644.69 448.70 513.49 92.46 892.08 216.80 817.93 905.79 789.60 683.80 737.25 801.27 593.16 865.85 506.03 593.27 840.35 825.84 615.74 948.11 978.98 746.90 871.84 554.88 924.25 662.66 465.23 429.83 730.60 681.11 631.43 565.36 885.26 654.40 752.04 1005.57 380.74 853.09 502.72 660.35 132.73 843.22 870.44 943.23 819.83 853.93 784.99 563.58 562.80 862.44 845.90 700.96 0.00 702.03 773.18 691.77 643.22 655.17 174.68 616.70 731.27 782.99 952.00 195.12 624.85 724.47 946.04 622.53 526.18 365.05 257.35 778.76
749.65 673.31 253.94 697.19 410.96 476.52 212.38 136.40 170.00 108.14 96.08 290.49 665.62 128.39 80.41 321.81 284.42 660.04 450.77 573.77 164.98 203.76 154.44 145.05 427.50 164.55 170.52 511.51 450.26 108.76 178.40 620.75 188.43 552.11 290.18 84.49 217.46 231.56 719.07 51.63 237.26 304.69 78.93 31.97 82.86 220.97 268.99 126.20 467.18 444.16 512.69 229.10 573.21 113.78 680.02 180.77 381.64 319.24 159.21 248.84 233.20 157.62 143.95 362.30 222.57 89.79 702.03 0.00 256.06 282.29 116.79 172.94 796.49 427.39 702.95 106.52 328.67 538.02 93.83 479.07 244.25 79.96 550.94 596.93 444.68 127.09
902.87 801.90 173.06 767.88 541.17 547.21 419.39 370.27 426.06 320.57 303.09 127.90 832.89 321.10 269.66 407.35 468.86 799.44 706.83 669.81 379.11 409.33 327.83 186.99 171.44 373.65 338.02 767.57 548.47 301.47 396.73 383.40 196.00 771.80 344.65 328.19 382.22 423.96 926.08 239.61 386.19 467.50 334.99 279.90 270.84 278.60 517.36 251.69 289.47 684.54 675.50 454.25 716.66 320.79 825.32 344.79 125.58 544.39 374.24 504.84 468.11 327.50 308.81 106.24 408.16 210.40 773.18 256.06 0.00 538.35 227.57 392.98 880.04 363.45 446.89 354.96 514.26 648.84 307.80 259.07 368.84 264.73 746.25 585.12 598.70 310.54
763.90 720.49 446.64 686.47 398.82 465.80 163.63 245.96 112.29 322.82 254.63 543.20 700.75 341.74 317.74 316.14 350.46 716.02 293.56 605.28 361.81 443.54 392.65 382.26 636.98 373.98 313.51 456.58 251.93 326.31 344.02 821.99 416.88 269.82 525.86 285.44 378.85 209.96 556.32 333.40 373.93 392.56 326.62 314.26 313.42 435.75 305.16 356.94 659.88 313.80 510.45 265.53 408.32 246.77 686.35 377.60 644.39 304.65 370.48 162.16 175.49 343.80 326.00 644.59 390.04 372.08 691.77 282.29 538.35 0.00 391.72 209.21 831.62 637.03 900.70 303.35 418.67 574.21 295.55 680.31 484.03 304.52 488.51 529.55 500.61 354.25
751.98 649.08 174.65 637.92 406.40 417.25 266.96 186.77 286.79 190.43 163.38 289.32 672.86 154.12 109.36 326.82 322.45 669.48 508.21 556.73 214.50 296.23 167.99 40.58 349.90 231.16 158.50 624.05 439.41 134.49 263.77 516.28 86.94 619.37 390.35 173.83 303.82 262.05 781.23 104.56 226.56 321.09 191.47 103.58 78.30 173.04 367.60 103.69 387.89 507.01 457.44 298.29 504.19 175.94 674.43 230.29 353.15 388.43 243.48 365.63 328.90 128.21 162.40 333.81 306.84 83.93 643.22 116.79 227.57 391.72 0.00 244.55 770.98 365.04 610.85 156.04 408.60 508.61 129.17 374.60 336.72 87.20 614.58 571.76 467.85 168.87
743.04 626.45 316.56 663.42 339.64 489.24 98.02 60.86 96.92 189.89 89.89 389.87 651.09 139.37 151.00 206.47 242.83 658.76 377.69 553.45 259.70 350.45 268.77 218.99 472.24 271.96 167.89 540.71 318.99 141.21 290.81 647.41 246.68 450.43 412.53 145.16 250.76 100.29 672.12 158.82 260.47 244.93 186.34 140.97 169.83 267.64 282.21 159.10 529.80 417.09 452.93 250.04 405.22 72.19 665.49 284.51 486.82 340.18 287.75 243.72 160.12 162.12 123.63 491.59 276.70 214.84 655.17 172.94 392.98 209.21 244.55 0.00 781.96 474.06 741.98 224.28 382.80 542.52 120.97 505.73 390.94 160.93 515.61 545.02 397.82 224.42
139.93 203.40 746.06 226.50 503.42 371.91 822.48 769.63 811.63 879.08 794.53 918.52 130.87 705.33 738.69 575.49 640.28 183.43 863.08 293.95 883.90 1000.25 902.91 771.68 883.19 900.56 721.07 939.51 579.69 720.06 967.14 1000.52 684.04 982.18 1061.68 840.90 991.08 681.67 803.54 756.66 593.14 556.62 857.39 775.11 725.43 704.93 1006.67 739.89 883.66 1131.80 351.74 974.50 574.61 796.32 145.27 939.25 1005.62 1056.47 946.62 966.37 874.83 691.49 689.59 986.28 994.53 807.43 174.68 796.49 880.04 831.62 770.98 781.96 0.00 791.38 905.95 903.01 1077.31 334.69 755.33 899.15 1033.63 716.53 555.85 394.72 384.14 893.90
795.57 601.85 190.39 564.88 560.14 564.54 504.42 446.09 524.74 503.18 449.01 444.97 717.44 360.52 394.99 426.32 493.33 690.66 805.51 558.08 579.54 614.96 492.08 365.74 244.78 565.01 374.70 910.70 630.57 380.15 601.98 307.43 278.10 856.83 703.31 495.80 609.41 478.25 1057.35 385.26 337.92 459.18 496.88 425.55 363.93 206.42 688.61 359.94 135.34 792.64 667.18 647.05 735.63 457.88 731.84 573.26 401.90 654.09 543.81 676.23 587.94 344.83 376.26 343.29 607.17 427.96 616.70 427.39 363.45 637.03 365.04 474.06 791.38 0.00 332.43 521.08 713.27 509.47 409.10 165.75 655.45 372.83 791.73 729.29 617.67 533.36
910.09 702.55 454.06 739.52 863.29 726.71 768.09 709.76 788.41 750.78 687.49 494.87 818.14 648.18 670.17 758.75 809.66 823.73 1069.18 866.19 713.19 835.51 642.53 570.27 306.53 729.85 638.79 1171.62 894.24 647.24 803.00 94.57 541.77 1019.73 791.54 745.42 801.05 742.34 1275.08 686.50 667.19 768.87 739.04 683.35 656.91 538.85 888.77 634.97 375.87 1067.82 938.41 869.03 1006.34 669.79 832.54 770.64 520.53 940.05 797.44 936.58 851.61 608.50 649.61 340.65 819.25 627.63 731.27 702.95 446.89 900.70 610.85 741.98 905.95 332.43 0.00 734.72 790.27 835.12 696.36 236.25 815.73 648.01 1116.73 983.68 849.36 708.86
845.75 762.63 330.69 777.69 467.33 557.02 139.72 220.61 197.60 34.39 175.23 239.85 772.14 234.86 183.03 392.09 345.52 766.51 477.16 651.95 58.46 140.19 181.59 196.62 505.94 75.12 253.89 493.33 478.66 215.23 107.73 672.32 242.98 492.13 234.31 79.12 147.78 285.91 711.55 158.15 343.78 400.42 60.75 134.59 189.38 327.49 211.56 196.25 543.93 398.76 590.62 142.25 629.50 174.88 768.20 74.25 341.04 232.39 87.44 290.76 244.68 262.78 250.42 394.07 150.80 192.39 782.99 106.52 354.96 303.35 156.04 224.28 903.01 521.08 734.72 0.00 252.56 643.18 158.14 530.64 180.68 186.48 657.46 650.92 534.00 69.30
1022.41 923.28 578.30 954.35 658.20 733.68 303.29 397.27 349.99 251.36 362.67 489.32 946.44 410.75 382.94 555.66 551.01 940.00 535.50 853.94 225.17 165.81 290.56 438.52 685.70 225.27 469.73 595.85 622.75 415.77 152.12 830.78 490.59 491.31 211.29 292.65 132.04 449.48 814.07 375.15 518.08 577.08 270.87 360.64 369.68 527.19 119.10 396.19 767.38 291.98 757.33 211.30 788.02 380.37 944.86 184.18 507.75 149.78 169.46 256.51 332.34 439.44 426.49 592.44 106.10 360.53 952.00 328.67 514.26 418.67 408.60 382.80 1077.31 713.27 790.27 252.56 0.00 819.84 334.80 726.83 206.30 360.78 826.35 861.04 716.49 259.09
303.64 166.40 475.78 203.37 355.60 108.41 559.97 481.66 615.33 608.79 521.25 615.17 211.69 432.05 494.94 342.30 386.95 181.19 790.12 48.61 678.48 741.78 606.42 533.94 619.69 661.82 410.69 772.06 412.24 429.26 693.86 740.55 534.73 844.03 828.20 602.35 733.91 448.48 828.36 518.19 347.67 303.29 616.95 532.10 486.96 370.24 744.16 471.22 611.46 888.01 278.78 711.99 374.56 530.08 226.09 702.79 720.36 802.13 673.34 725.42 663.67 380.40 423.35 686.17 736.70 559.24 195.12 538.02 648.84 574.21 508.61 542.52 334.69 509.47 835.12 643.18 819.84 0.00 485.04 673.52 782.27 484.25 459.32 298.19 163.56 650.71
687.61 627.63 259.08 619.55 365.09 398.88 147.38 62.47 183.32 123.75 51.31 292.05 624.46 105.09 62.51 258.05 219.42 651.11 435.48 523.37 216.60 284.31 189.66 126.09 433.66 207.57 134.93 588.06 372.17 103.60 265.87 601.79 178.19 499.79 384.01 132.08 294.95 153.47 654.07 68.19 202.99 242.28 155.48 61.86 50.87 202.68 331.57 61.39 472.32 479.58 433.00 248.02 511.96 48.78 610.06 218.37 397.24 331.88 245.58 315.57 220.88 104.64 93.55 393.88 269.01 135.73 624.85 93.83 307.80 295.55 129.17 120.97 755.33 409.10 696.36 158.14 334.80 485.04 0.00 460.11 324.80 59.77 569.90 542.37 399.00 165.67
867.49 753.19 332.28 730.63 707.69 598.91 532.14 483.31 602.65 534.52 451.24 297.37 804.34 411.93 433.92 592.07 587.72 816.93 882.81 722.13 550.08 648.68 479.42 334.02 87.63 566.74 471.22 935.37 732.11 431.56 634.84 141.68 388.26 884.55 603.72 517.35 594.79 559.27 1038.83 451.89 503.67 614.53 502.79 447.10 420.66 372.17 664.39 398.72 223.16 831.57 801.34 632.78 770.09 433.54 789.94 603.86 371.37 722.92 604.20 700.33 620.81 463.58 427.67 177.54 620.73 458.53 724.47 479.07 259.07 680.31 374.60 505.73 899.15 165.75 236.25 530.64 726.83 673.52 460.11 0.00 627.91 411.76 880.48 844.19 721.56 543.47
993.90 917.32 498.19 941.44 599.33 720.77 320.40 380.65 378.28 201.05 329.92 410.01 909.87 372.64 324.66 549.91 515.68 862.25 573.02 818.02 149.73 40.49 187.83 377.30 540.28 166.39 414.77 612.72 589.17 353.01 158.37 752.24 423.66 540.79 129.98 245.78 140.49 466.59 830.94 295.88 481.51 548.94 215.44 276.22 327.11 465.22 266.47 362.91 658.31 407.61 681.89 238.11 774.82 345.04 924.27 106.43 432.31 225.05 135.88 344.20 394.45 401.87 388.20 475.08 119.69 320.83 946.04 244.25 368.84 484.03 336.72 390.94 1033.63 655.45 815.73 180.68 206.30 782.27 324.80 627.91 0.00 324.21 795.19 796.21 688.69 211.78
677.61 618.70 217.52 617.23 337.00 396.56 187.34 122.24 243.09 169.10 85.27 250.08 585.66 68.88 22.16 260.51 244.67 606.27 495.25 514.44 228.38 283.72 186.38 77.74 387.06 219.88 128.17 537.87 431.94 54.99 258.36 553.44 129.81 539.75 356.58 124.37 274.55 213.24 694.03 40.13 157.30 302.05 151.75 58.58 8.90 166.41 348.95 58.20 430.76 419.81 488.68 285.80 512.49 88.74 600.06 260.73 355.27 339.94 239.17 328.80 254.84 103.85 84.62 361.01 300.49 90.90 622.53 79.96 264.73 304.52 87.20 160.93 716.53 372.83 648.01 186.48 360.78 484.25 59.77 411.76 324.21 0.00 622.88 543.98 390.07 177.37
488.13 497.46 690.85 534.43 285.88 418.10 611.53 507.43 516.06 659.08 574.90 806.77 424.98 558.83 631.35 365.41 431.55 505.30 685.60 507.93 715.92 754.70 705.38 653.24 905.94 715.49 529.05 537.89 320.36 578.46 729.34 1022.16 657.99 641.21 841.12 635.43 766.37 468.88 398.07 602.57 528.38 461.22 629.87 582.91 613.98 585.31 752.18 588.54 821.35 782.82 275.45 661.05 110.39 557.20 410.58 731.71 871.83 723.59 710.15 650.67 494.01 559.34 573.31 852.49 773.51 640.73 526.18 550.94 746.25 488.51 614.58 515.61 555.85 791.73 1116.73 657.46 826.35 459.32 569.90 880.48 795.19 622.88 0.00 161.13 347.11 678.03
327.00 336.33 628.41 373.30 248.12 256.97 629.70 522.62 556.33 621.90 526.94 713.02 263.85 475.10 556.63 377.33 383.75 344.17 572.77 346.80 646.48 768.80 710.27 580.60 756.56 663.14 456.37 567.90 277.62 494.73 736.29 889.11 598.39 691.87 824.26 620.24 757.18 483.51 559.20 575.26 457.08 300.09 590.17 586.42 552.88 522.87 782.90 558.67 712.32 843.35 114.32 740.34 179.89 544.64 249.45 703.93 710.70 826.92 691.58 691.71 619.53 486.66 490.84 691.36 754.94 629.00 365.05 596.93 585.12 529.55 571.76 545.02 394.72 729.29 983.68 650.92 861.04 298.19 542.37 844.19 796.21 543.98 161.13 0.00 185.98 638.33
345.22 228.63 495.71 265.60 192.04 122.65 443.72 385.49 482.98 504.98 410.39 612.10 253.27 321.19 391.43 191.35 256.14 260.94 634.73 212.17 560.58 648.44 560.31 427.27 633.93 543.92 349.71 608.50 248.68 335.92 583.00 754.79 441.39 724.44 721.63 502.76 623.05 297.53 745.18 421.48 354.32 172.48 473.25 432.51 398.97 411.25 627.91 404.76 584.71 803.15 123.39 595.74 365.87 412.18 267.67 591.93 704.47 685.88 562.48 632.08 527.64 348.40 305.45 675.99 610.39 443.61 257.35 444.68 598.70 500.61 467.85 397.82 384.14 617.67 849.36 534.00 716.49 163.56 399.00 721.56 688.69 390.07 347.11 185.98 0.00 521.41
853.28 750.04 343.52 785.22 454.74 564.55 190.62 209.24 252.41 41.92 141.77 309.15 763.03 230.97 178.15 397.12 330.11 776.17 505.62 658.39 68.57 171.29 122.27 209.45 481.98 75.23 261.42 480.74 484.25 224.89 147.80 614.29 255.81 535.35 246.35 79.26 155.23 313.22 698.96 148.10 334.67 407.95 48.16 134.78 179.33 326.94 244.15 203.78 556.76 431.35 598.67 198.33 629.64 159.47 775.73 105.35 351.15 262.44 89.63 285.20 244.82 270.31 246.71 416.78 152.99 177.61 778.76 127.09 310.54 354.25 168.87 224.42 893.90 533.36 708.86 69.30 259.09 650.71 165.67 543.47 211.78 177.37 678.03 638.33 521.41 0.00
DEMAND_SECTION
1 0
2 69
3 53
4 1
5 2
6 9
7 1
8 10
9 6
10 6
11 1
12 1
13 2
14 6
15 5
16 2
17 5
18 10
19 6
20 2
21 8
22 6
23 10
24 2
25 9
26 3
27 5
28 6
29 4
30 6
31 8
32 1
33 4
34 3
35 3
36 8
37 6
38 3
39 9
40 9
41 6
42 1
43 5
44 10
45 9
46 3
47 7
48 8
49 3
50 9
51 5
52 1
53 2
54 9
55 4
56 10
57 8
58 5
59 10
60 3
61 4
62 9
63 6
64 8
65 7
66 6
67 6
68 8
69 9
70 7
71 5
72 10
73 9
74 7
75 9
76 5
77 2
78 6
79 7
80 3
81 5
82 2
83 6
84 1
85 9
86 7
DEPOT_SECTION
1
-1
EOF
