NAME: LDG80_1154_none_80_0023
COMMENT: CVRP with travel times.  rootPos=1,custPos=1,demandType=5,avgRouteSizeIndex=4,weather=none,lambda_cluster=1,lambda_random=4, T1=300,T2=700,beta=1, alpha(i,j) ~ U(0.8,1.2)
TYPE: CVRP
DIMENSION: 81
EDGE_WEIGHT_TYPE: EXPLICIT
EDGE_WEIGHT_FORMAT: FULL_MATRIX
CAPACITY: 1110
NODE_COORD_SECTION
1 803 23
2 370 964
3 339 31
4 752 409
5 839 843
6 734 568
7 351 957
8 863 289
9 29 760
10 712 974
11 820 674
12 298 833
13 78 149
14 699 882
15 963 396
16 324 643
17 454 686
18 66 53
19 84 722
20 590 732
21 656 972
22 549 540
23 687 263
24 943 846
25 734 720
26 800 460
27 306 896
28 664 974
29 462 489
30 328 303
31 401 599
32 583 399
33 912 128
34 482 665
35 330 591
36 723 162
37 206 741
38 868 51
39 538 890
40 385 107
41 296 934
42 111 855
43 724 970
44 87 388
45 147 934
46 66 984
47 770 714
48 342 151
49 113 887
50 795 151
51 330 2
52 484 550
53 966 574
54 529 515
55 872 602
56 474 715
57 496 843
58 568 871
59 901 245
60 795 593
61 401 209
62 610 631
63 289 458
64 322 0
65 587 957
66 146 362
67 710 659
68 59 57
69 959 522
70 985 763
71 94 827
72 639 609
73 542 318
74 543 809
75 496 251
76 375 806
77 889 203
78 131 577
79 998 338
80 928 561
81 228 76
EDGE_WEIGHT_SECTION
0.00 957.78 482.97 386.42 794.80 553.58 992.21 297.19 899.30 869.48 643.36 878.79 650.94 922.00 412.03 740.39 731.16 757.88 939.77 745.82 926.69 565.61 277.96 795.39 735.00 435.05 905.07 917.64 578.79 560.93 705.03 413.17 213.10 714.37 739.28 226.79 925.11 105.37 865.59 531.33 957.83 1023.82 850.92 853.76 1027.72 1085.39 736.46 449.78 1061.31 131.50 540.82 602.26 575.11 560.18 585.52 769.93 747.76 815.93 315.38 615.38 537.49 613.05 748.96 525.83 880.56 779.37 682.52 743.53 543.88 773.58 1043.07 586.92 463.60 784.05 426.67 790.31 251.18 913.53 372.18 546.21 580.99
957.78 0.00 899.28 659.37 529.31 492.21 34.79 820.90 415.07 361.79 478.15 180.90 893.62 378.30 747.61 348.18 339.66 905.22 379.13 397.22 297.09 468.13 755.78 597.17 512.94 655.21 112.35 313.63 479.02 563.49 355.61 652.54 956.16 384.24 423.96 859.78 241.72 1012.74 255.56 785.56 93.31 259.41 372.86 666.93 235.31 328.32 472.71 739.71 303.69 883.59 911.57 463.45 649.45 515.90 590.58 337.35 251.29 261.42 888.47 565.76 708.43 483.30 534.78 918.88 220.19 693.36 426.37 890.87 671.52 653.77 296.54 521.97 642.92 293.67 754.02 181.55 841.54 446.47 817.66 593.45 810.97
482.97 899.28 0.00 556.82 905.49 618.01 932.81 534.72 773.53 971.25 773.26 792.82 324.12 958.75 729.94 608.40 697.96 274.91 725.47 793.79 943.23 535.25 448.81 1009.76 793.49 641.17 858.69 959.77 520.38 335.79 622.54 488.16 644.32 707.83 606.89 430.69 691.07 539.27 848.77 113.72 896.35 815.28 952.69 417.27 900.78 923.50 815.89 170.24 832.40 410.12 57.85 621.88 839.74 539.89 761.38 668.07 820.47 799.11 597.84 736.15 203.73 686.16 419.43 42.86 886.09 342.88 736.80 260.56 798.09 922.49 778.15 642.14 360.25 796.41 318.90 775.03 533.64 582.60 684.29 783.74 121.82
386.42 659.37 556.82 0.00 481.67 167.16 687.42 201.81 784.93 496.73 332.55 598.28 741.63 535.58 217.44 491.63 382.55 711.28 692.78 392.87 561.43 312.67 192.52 520.84 367.05 84.35 666.83 544.89 354.61 442.51 437.00 250.74 349.72 422.46 406.10 240.67 611.00 384.07 566.24 461.12 701.81 769.52 512.43 733.14 782.46 842.05 350.04 495.31 768.74 254.92 498.97 329.16 314.57 264.90 310.53 421.32 516.19 559.40 264.33 228.96 438.33 304.59 538.25 513.96 622.89 700.54 300.46 725.63 257.80 387.16 753.38 273.55 224.11 496.42 363.00 567.85 235.10 600.65 229.22 294.07 624.04
794.80 529.31 905.49 481.67 0.00 329.65 561.18 508.63 806.16 174.54 162.46 476.58 987.77 174.46 482.26 561.34 427.12 1043.77 770.22 292.57 239.24 370.24 656.63 156.17 232.56 441.46 499.55 222.70 468.60 717.00 495.49 493.48 656.25 382.54 574.03 701.93 641.61 768.54 376.17 791.77 577.01 650.50 193.10 862.86 660.76 772.02 185.13 770.57 701.91 663.30 877.87 461.23 319.18 418.01 209.28 440.61 427.03 334.10 576.20 252.71 701.76 373.43 691.36 892.86 309.12 791.91 253.47 1058.12 297.56 224.56 687.63 349.07 596.47 357.42 689.64 512.71 602.50 736.26 469.26 290.95 952.47
553.58 492.21 618.01 167.16 329.65 0.00 527.00 328.69 774.37 419.00 189.93 515.61 828.07 369.52 255.40 427.82 299.88 864.16 682.22 225.71 457.90 246.72 359.68 391.75 222.43 163.00 550.18 464.18 288.66 497.94 332.56 328.00 485.69 255.30 395.54 401.58 552.64 551.23 399.08 559.60 585.52 686.85 416.94 667.19 699.79 759.38 215.43 594.62 705.30 422.08 666.13 280.94 239.09 198.95 143.37 313.37 393.71 403.58 396.26 118.14 567.61 148.77 472.30 660.87 490.56 634.59 133.30 878.51 272.73 335.46 651.05 106.39 391.27 329.26 530.16 450.52 402.26 590.09 325.45 198.92 723.87
992.21 34.79 932.81 687.42 561.18 527.00 0.00 855.69 412.43 386.64 512.94 164.09 869.94 389.06 771.10 324.41 304.87 888.41 413.92 394.14 321.94 478.78 762.92 622.02 485.35 690.00 95.54 338.48 444.23 598.28 390.40 622.86 990.95 349.45 409.94 866.92 276.51 1020.67 220.77 820.35 70.03 294.20 397.71 665.48 212.03 305.04 437.92 774.50 280.41 891.52 938.91 457.88 684.24 526.55 625.37 343.64 244.45 232.23 915.87 572.97 743.22 468.99 513.38 923.92 254.98 678.66 461.16 874.06 706.31 664.07 314.08 519.91 636.46 313.95 750.25 204.96 876.33 481.26 841.15 628.24 845.76
297.19 820.90 534.72 201.81 508.63 328.69 855.69 0.00 913.05 641.67 346.17 780.01 757.62 627.08 195.22 619.75 564.28 809.63 820.90 526.97 677.98 484.63 218.77 498.20 458.34 165.69 826.58 671.41 496.04 567.65 606.42 342.55 208.49 548.24 534.22 193.30 739.12 268.67 697.70 545.68 883.54 926.52 623.11 820.27 952.35 1023.78 441.54 597.04 896.86 165.69 592.57 525.68 305.02 443.69 330.69 525.51 681.33 702.04 67.57 326.31 521.10 464.26 696.55 577.58 683.37 745.88 461.99 795.28 272.58 511.66 889.39 398.56 425.92 630.52 414.27 711.82 93.87 728.77 149.57 249.02 656.54
899.30 415.07 773.53 784.93 806.16 774.37 412.43 913.05 0.00 705.65 814.62 329.58 670.18 722.16 1002.37 405.09 525.74 718.26 92.15 561.91 640.95 568.22 855.87 941.03 702.45 869.28 376.24 657.49 539.32 574.67 464.42 718.42 974.51 545.86 378.83 842.95 273.85 1004.67 577.09 659.81 342.40 155.66 716.72 418.28 244.83 272.62 736.76 647.38 176.45 938.24 810.12 543.04 945.14 615.99 835.24 540.43 516.10 590.45 980.62 811.80 569.80 648.21 414.94 802.26 564.05 492.67 739.86 732.61 886.90 942.29 143.77 667.98 720.90 585.71 703.28 424.39 1006.92 282.58 1005.08 916.91 824.08
869.48 361.79 971.25 496.73 174.54 419.00 386.64 641.67 705.65 0.00 337.00 442.23 853.51 128.13 656.80 557.18 427.43 964.95 698.85 287.04 64.70 476.42 689.25 330.71 300.17 508.49 437.86 48.16 483.79 766.95 488.69 609.20 769.99 446.73 506.00 737.40 603.51 880.80 211.60 875.11 437.77 602.93 18.56 814.98 579.77 643.39 313.67 817.34 574.97 751.65 975.82 518.99 493.72 493.78 383.82 388.66 274.40 189.72 709.24 380.82 807.94 392.98 596.07 990.81 141.60 761.35 390.71 968.28 472.10 388.30 587.33 329.11 676.02 260.32 758.27 390.55 731.83 674.65 643.80 465.49 999.24
643.36 478.15 773.26 332.55 162.46 189.93 512.94 346.17 814.62 337.00 0.00 570.07 898.01 280.91 371.36 511.78 354.34 921.47 787.93 252.71 331.81 332.72 507.51 316.76 112.17 327.35 590.50 325.24 429.17 638.45 450.97 331.02 554.66 355.00 501.25 539.47 652.97 614.84 379.49 672.60 571.46 737.56 322.40 740.56 713.13 806.47 95.37 648.94 765.96 511.86 715.41 420.53 208.28 339.46 112.43 326.15 379.30 401.43 413.74 103.59 664.24 267.18 612.81 730.40 401.40 751.10 131.17 915.41 231.54 267.15 737.35 226.77 465.79 309.69 557.24 492.05 440.04 646.61 403.24 153.47 830.84
878.79 180.90 792.82 598.28 476.58 515.61 164.09 780.01 329.58 442.23 570.07 0.00 772.33 443.63 731.69 226.80 215.73 733.88 293.64 334.15 381.24 381.39 669.04 632.75 472.07 670.00 68.55 397.78 446.69 578.07 289.13 533.72 904.63 260.31 298.02 753.15 165.03 886.78 256.70 797.95 103.53 173.92 457.01 567.87 184.18 295.44 503.52 758.40 225.33 757.63 774.82 368.74 685.07 429.16 631.67 254.50 215.34 306.36 847.58 554.89 707.94 391.30 415.77 759.83 348.14 543.53 485.51 719.53 742.16 612.71 211.05 459.42 516.34 284.95 627.35 94.81 833.38 369.78 801.74 664.09 734.28
650.94 893.62 324.12 741.63 987.77 828.07 869.94 757.62 670.18 853.51 898.01 772.33 0.00 981.64 941.99 545.53 703.79 111.44 653.65 843.71 918.21 676.89 615.60 1024.03 850.07 825.98 826.92 901.67 613.91 330.13 640.79 604.73 812.62 724.33 594.08 632.89 677.11 700.33 893.15 280.51 864.51 734.35 872.07 251.90 795.41 848.60 802.64 362.06 757.50 728.18 266.27 677.77 1043.40 629.12 969.63 678.22 832.69 898.30 797.22 882.28 370.52 765.33 432.62 281.26 965.49 267.98 861.29 114.77 975.82 1038.82 703.25 793.79 582.19 806.56 443.30 712.16 831.44 472.36 907.19 1006.64 209.85
922.00 378.30 958.75 535.58 174.46 369.52 389.06 627.08 722.16 128.13 280.91 443.63 981.64 0.00 624.92 478.60 330.10 1033.46 720.02 180.42 97.48 464.10 648.28 250.76 230.75 530.70 414.17 99.81 488.26 689.59 383.34 529.41 723.88 349.03 467.05 752.28 548.75 836.17 204.32 845.03 407.69 617.55 146.69 737.62 549.69 642.70 185.54 835.80 570.31 790.50 916.36 399.07 479.28 434.32 369.38 311.30 252.57 159.64 694.65 320.59 775.64 313.19 633.18 931.35 158.11 768.38 262.58 1019.11 458.79 384.44 620.11 347.57 632.45 182.96 680.91 360.44 720.95 644.57 630.49 434.38 973.87
412.03 747.61 729.94 217.44 482.26 255.40 771.10 195.22 1002.37 656.80 371.36 731.69 941.99 624.92 0.00 674.22 515.96 913.99 910.22 481.11 657.06 502.12 400.52 468.26 462.17 162.22 794.16 657.67 544.06 644.85 587.96 397.19 264.46 510.70 623.54 371.80 762.05 364.08 550.33 661.48 835.22 902.93 672.34 920.82 915.87 975.46 459.92 689.25 919.79 332.49 716.41 536.34 163.08 454.35 272.98 554.73 649.11 599.99 144.77 324.87 655.77 404.17 694.44 731.40 684.69 854.18 388.70 899.64 225.48 369.72 906.45 361.79 441.55 584.66 563.08 701.26 208.97 818.09 70.05 219.08 825.75
740.39 348.18 608.40 491.63 561.34 427.82 324.41 619.75 405.09 557.18 511.78 226.80 545.53 478.60 674.22 0.00 158.26 641.05 312.94 298.18 496.86 234.68 522.33 598.03 410.87 574.88 281.39 509.02 246.02 365.79 95.26 392.19 757.92 178.80 85.53 626.33 199.74 738.04 355.28 573.47 330.33 357.14 566.66 341.07 410.98 465.36 447.30 571.17 357.48 608.89 639.85 203.10 604.43 282.45 529.99 197.03 287.16 386.94 687.32 442.64 483.46 279.05 188.97 624.86 419.96 354.25 404.00 628.10 651.97 659.96 320.01 342.01 438.25 323.63 503.71 166.63 713.62 215.85 709.68 606.62 599.29
731.16 339.66 697.96 382.55 427.12 299.88 304.87 564.28 525.74 427.43 354.34 215.73 703.79 330.10 515.96 158.26 0.00 703.36 433.59 149.68 402.74 184.59 472.24 525.16 256.34 454.27 284.28 417.97 230.96 427.17 153.66 317.99 707.83 44.58 146.91 574.52 298.63 747.85 254.53 593.12 319.26 386.97 418.16 465.09 399.91 459.50 303.77 584.92 441.06 618.70 696.38 153.01 469.34 232.36 426.51 38.77 194.59 258.85 631.85 339.16 503.11 175.57 334.37 681.39 327.39 496.42 269.78 689.01 526.43 539.95 424.10 243.69 337.71 167.11 455.44 185.30 617.65 341.46 586.01 448.36 660.67
757.88 905.22 274.91 711.28 1043.77 864.16 888.41 809.63 718.26 964.95 921.47 733.88 111.44 1033.46 913.99 641.05 703.36 0.00 701.73 853.04 1017.93 709.87 723.21 1113.91 910.02 795.63 792.87 1001.39 634.13 385.59 690.40 621.94 884.65 743.41 640.94 687.98 725.19 811.77 841.01 388.12 837.41 760.60 983.51 299.98 846.10 868.82 892.52 368.48 777.72 685.03 332.76 663.78 992.59 665.21 965.77 726.30 882.12 890.67 829.09 899.49 456.19 817.97 453.48 317.77 975.37 288.20 790.30 14.35 925.01 1098.44 723.47 829.88 487.17 854.64 551.25 793.95 808.55 520.44 900.96 1003.08 241.01
939.77 379.13 725.47 692.78 770.22 682.22 413.92 820.90 92.15 698.85 787.93 293.64 653.65 720.02 910.22 312.94 433.59 701.73 0.00 554.55 634.15 476.07 763.72 875.04 689.93 777.13 343.99 650.69 447.17 510.82 372.27 626.27 999.31 478.17 286.68 867.72 181.70 1018.13 548.23 636.78 355.57 119.72 709.92 401.75 219.18 256.87 729.40 555.23 165.77 894.46 728.54 450.89 880.57 523.84 798.90 472.36 480.11 568.85 888.47 719.65 639.32 556.06 322.79 743.37 599.32 437.32 659.42 711.17 885.79 906.35 111.52 575.83 639.40 547.49 704.86 359.58 914.77 190.43 912.93 880.57 737.13
745.82 397.22 793.79 392.87 292.57 225.71 394.14 526.97 561.91 287.04 252.71 334.15 843.71 180.42 481.11 298.18 149.68 853.04 554.55 0.00 277.90 283.68 467.86 390.89 140.54 361.28 354.10 276.02 307.84 552.89 202.92 348.99 641.79 168.61 288.51 571.86 409.44 743.47 173.37 705.21 431.22 508.07 268.48 598.93 506.99 609.18 174.85 655.38 548.80 614.32 735.94 286.96 445.68 253.90 353.42 172.61 168.00 195.29 594.54 284.72 615.20 132.77 452.76 750.93 266.52 605.12 177.95 838.69 437.97 411.03 545.20 167.15 452.03 103.55 551.29 239.34 562.86 483.06 551.16 406.18 802.27
926.69 297.09 943.23 561.43 239.24 457.90 321.94 677.98 640.95 64.70 331.81 381.24 918.21 97.48 657.06 496.86 402.74 1017.93 634.15 277.90 0.00 453.97 673.87 300.08 235.47 535.42 373.16 16.54 500.54 738.65 458.53 577.58 791.54 392.01 474.38 703.91 538.81 903.83 179.98 829.51 390.40 555.16 75.77 790.29 532.40 578.69 282.90 854.30 543.35 799.20 923.33 488.54 493.98 441.29 384.08 363.97 209.70 144.12 745.55 409.93 785.49 361.36 564.45 938.32 76.90 729.73 355.19 1003.58 502.15 356.68 522.63 386.32 639.42 235.63 733.58 330.23 771.85 629.05 673.85 465.75 988.14
565.61 468.13 535.25 312.67 370.24 246.72 478.78 484.63 568.22 476.42 332.72 381.39 676.89 464.10 502.12 234.68 184.59 709.87 476.07 283.68 453.97 0.00 287.65 511.08 298.66 380.18 401.34 470.51 98.36 346.76 139.42 189.50 523.24 172.58 225.01 391.65 359.50 563.26 328.49 421.53 478.80 546.90 457.86 496.06 513.22 624.48 303.77 400.33 517.24 434.11 529.81 90.99 465.59 47.77 370.38 223.36 354.89 309.85 486.87 303.80 331.52 150.91 321.12 544.80 396.83 421.67 201.55 695.52 457.27 511.14 509.77 147.31 226.23 304.91 319.40 286.58 519.99 366.02 475.00 421.34 582.23
277.96 755.78 448.81 192.52 656.63 359.68 762.92 218.77 855.87 689.25 507.51 669.04 615.60 648.28 400.52 522.33 472.24 723.21 763.72 467.86 673.87 287.65 0.00 695.26 499.59 238.30 688.99 657.33 318.69 422.90 427.07 213.17 235.59 460.23 479.18 104.00 647.15 275.61 587.63 335.09 766.45 834.55 704.95 647.17 800.87 852.62 523.39 378.27 801.21 146.46 485.40 369.80 474.90 287.81 470.48 509.20 575.70 537.97 267.98 403.92 349.36 335.09 556.89 477.54 624.95 652.52 473.56 708.86 407.32 579.68 797.42 410.55 281.36 506.09 195.50 574.23 232.34 653.67 368.34 448.02 499.36
795.39 597.17 1009.76 520.84 156.17 391.75 622.02 498.20 941.03 330.71 316.76 632.75 1024.03 250.76 468.26 598.03 525.16 1113.91 875.04 390.89 300.08 511.08 695.26 0.00 268.82 458.90 648.13 316.62 597.47 795.90 502.77 576.39 695.35 489.89 588.36 691.50 722.85 766.87 455.08 932.61 658.45 806.67 338.45 933.00 773.27 878.77 221.39 883.37 821.07 663.89 1019.81 514.36 305.18 548.51 248.38 547.96 503.33 410.40 565.77 335.73 842.60 360.17 752.61 1034.80 376.98 904.97 323.61 1128.26 327.25 133.68 822.71 395.14 711.16 433.72 737.27 611.20 592.07 782.91 498.95 249.18 1065.27
735.00 512.94 793.49 367.05 232.56 222.43 485.35 458.34 702.45 300.17 112.17 472.07 850.07 230.75 462.17 410.87 256.34 910.02 689.93 140.54 235.47 298.66 499.59 268.82 0.00 299.95 494.64 252.01 340.95 527.08 343.46 380.72 556.07 287.93 403.25 601.28 549.98 668.36 300.98 720.19 546.94 643.31 311.24 721.43 622.71 715.84 47.43 639.58 689.34 603.50 798.06 308.36 320.45 316.02 224.60 295.11 268.66 311.01 525.91 174.46 630.18 164.50 579.15 813.05 312.37 686.88 119.72 924.37 320.68 283.61 680.44 151.35 514.15 219.27 569.23 379.88 552.21 597.80 492.38 265.64 818.09
435.05 655.21 641.17 84.35 441.46 163.00 690.00 165.69 869.28 508.49 327.35 670.00 825.98 530.70 162.22 574.88 454.27 795.63 777.13 361.28 535.42 380.18 238.30 458.90 299.95 0.00 676.66 551.96 399.27 526.86 482.36 234.97 339.80 418.30 490.45 325.02 695.35 432.70 532.01 545.47 748.52 814.66 527.05 766.35 826.68 913.77 347.38 552.89 831.78 303.55 583.32 413.51 241.03 349.25 232.18 476.37 529.28 536.35 233.26 223.76 522.68 298.57 596.55 598.31 538.54 691.96 296.30 809.98 173.45 425.56 777.53 232.87 308.46 464.83 433.80 600.32 259.56 685.00 232.27 209.72 708.39
905.07 112.35 858.69 666.83 499.55 550.18 95.54 826.58 376.24 437.86 590.50 68.55 826.92 414.17 794.16 281.39 284.28 792.87 343.99 354.10 373.16 401.34 688.99 648.13 494.64 676.66 0.00 389.70 410.66 598.02 357.68 589.76 924.58 319.93 366.57 792.99 210.43 955.33 243.83 764.36 77.46 242.47 425.40 608.73 171.61 282.87 523.47 762.06 222.12 826.18 843.37 437.29 741.89 449.11 651.62 301.07 235.29 293.49 888.21 580.10 674.35 416.51 462.73 828.38 332.54 612.08 530.23 778.52 753.75 681.26 232.47 443.79 584.89 304.90 695.90 114.76 855.43 405.57 831.68 705.80 779.68
917.64 313.63 959.77 544.89 222.70 464.18 338.48 671.41 657.49 48.16 325.24 397.78 901.67 99.81 657.67 509.02 417.97 1001.39 650.69 276.02 16.54 470.51 657.33 316.62 252.01 551.96 389.70 0.00 484.00 735.94 475.07 561.04 808.08 408.55 457.84 720.45 555.35 920.37 163.44 846.05 406.94 554.77 66.72 774.29 548.94 595.23 285.35 865.50 526.81 799.81 939.87 498.88 510.52 457.83 400.62 380.51 226.24 160.66 738.98 420.40 802.03 344.82 547.91 954.86 93.44 713.19 362.39 987.04 500.59 340.14 539.17 377.27 655.96 252.17 750.12 342.39 765.28 645.59 672.29 478.71 971.60
578.79 479.02 520.38 354.61 468.60 288.66 444.23 496.04 539.32 483.79 429.17 446.69 613.91 488.26 544.06 246.02 230.96 634.13 447.17 307.84 500.54 98.36 318.69 597.47 340.95 399.27 410.66 484.00 0.00 349.35 165.23 179.10 554.28 195.87 160.49 422.69 362.69 576.44 426.85 406.66 453.46 541.52 502.35 420.32 550.90 533.93 388.38 459.81 482.52 447.29 556.97 102.24 527.75 89.71 432.03 220.97 376.79 394.05 528.81 402.16 372.10 249.27 238.20 549.11 481.03 345.93 299.91 619.78 555.63 609.50 512.96 245.67 192.23 349.31 306.02 384.94 512.79 355.04 573.36 487.58 570.93
560.93 563.49 335.79 442.51 717.00 497.94 598.28 567.65 574.67 766.95 638.45 578.07 330.13 689.59 644.85 365.79 427.17 385.59 510.82 552.89 738.65 346.76 422.90 795.90 527.08 526.86 598.02 735.94 349.35 0.00 365.85 351.36 658.49 471.75 280.26 414.53 481.09 558.58 608.13 222.07 573.01 602.60 767.05 302.34 694.32 746.65 574.51 232.65 638.83 429.43 370.58 364.58 728.90 298.99 641.31 465.94 528.95 598.37 500.08 567.11 144.94 473.66 188.03 364.52 661.75 353.31 548.31 399.94 700.31 784.43 601.30 463.66 264.38 506.63 227.40 483.26 552.95 359.29 597.53 696.86 291.01
705.03 355.61 622.54 437.00 495.49 332.56 390.40 606.42 464.42 488.69 450.97 289.13 640.79 383.34 587.96 95.26 153.66 690.40 372.27 202.92 458.53 139.42 427.07 502.77 343.46 482.36 357.68 475.07 165.23 365.85 0.00 296.93 662.66 198.24 85.59 531.07 220.08 702.68 347.07 508.82 392.66 407.48 471.40 436.33 415.24 515.70 372.09 506.52 377.82 573.53 659.13 107.84 509.17 187.19 434.73 192.43 248.83 320.11 626.29 347.38 418.81 183.79 249.84 651.27 381.63 402.20 322.26 676.05 557.98 564.70 370.35 259.25 357.46 228.37 432.03 243.15 659.41 280.14 614.42 516.40 599.35
413.17 652.54 488.16 250.74 493.48 328.00 622.86 342.55 718.42 609.20 331.02 533.72 604.73 529.41 397.19 392.19 317.99 621.94 626.27 348.99 577.58 189.50 213.17 576.39 380.72 234.97 589.76 561.04 179.10 351.36 296.93 0.00 448.76 335.93 339.59 317.17 517.01 488.78 509.81 399.47 632.56 684.57 602.23 531.38 702.72 713.03 386.01 317.92 661.62 359.63 473.30 189.09 439.34 149.55 364.90 356.76 460.81 471.03 410.12 277.55 334.72 216.22 417.30 488.29 558.01 456.99 283.79 636.29 408.42 494.87 667.28 291.68 134.77 391.20 226.22 476.08 436.42 534.14 418.26 444.69 499.82
213.10 956.16 644.32 349.72 656.25 485.69 990.95 208.49 974.51 769.99 554.66 904.63 812.62 723.88 264.46 757.92 707.83 884.65 999.31 641.79 791.54 523.24 235.59 695.35 556.07 339.80 924.58 808.08 554.28 658.49 662.66 448.76 0.00 672.82 714.77 313.17 882.74 112.29 814.79 570.68 1002.04 1070.14 751.43 882.76 1036.46 1088.21 603.50 554.97 1036.80 234.20 702.17 605.39 427.54 523.40 446.97 730.89 809.79 773.56 165.62 492.64 562.89 541.83 792.48 687.18 860.54 863.64 618.99 899.00 451.33 634.18 1033.01 526.26 469.80 741.68 431.09 809.82 114.62 889.26 279.63 457.51 672.80
714.37 384.24 707.83 422.46 382.54 255.30 349.45 548.24 545.86 446.73 355.00 260.31 724.33 349.03 510.70 178.80 44.58 743.41 478.17 168.61 392.01 172.58 460.23 489.89 287.93 418.30 319.93 408.55 195.87 471.75 198.24 335.93 672.82 0.00 191.49 564.23 343.21 712.02 299.11 594.11 363.84 431.55 437.09 484.39 444.49 504.08 268.50 572.91 456.34 582.87 702.39 146.84 456.37 220.35 381.93 58.07 182.31 278.15 605.00 294.58 504.10 130.99 367.77 717.38 315.11 533.05 225.20 733.59 487.06 504.68 402.09 199.11 382.29 186.41 474.74 205.17 610.75 386.04 580.75 454.22 705.25
739.28 423.96 606.89 406.10 574.03 395.54 409.94 534.22 378.83 506.00 501.25 298.02 594.08 467.05 623.54 85.53 146.91 640.94 286.68 288.51 474.38 225.01 479.18 588.36 403.25 490.45 366.57 457.84 160.49 280.26 85.59 339.59 714.77 191.49 0.00 583.18 204.90 736.93 401.44 502.33 401.55 392.30 524.56 413.84 418.13 500.52 450.68 512.91 362.64 607.78 638.34 193.43 593.89 250.20 512.22 185.68 334.42 375.83 601.79 432.97 425.20 269.38 187.46 623.35 454.13 352.74 384.75 626.59 599.11 650.29 355.17 289.15 352.72 284.09 418.18 252.16 628.09 194.55 626.25 593.89 513.76
226.79 859.78 430.69 240.67 701.93 401.58 866.92 193.30 842.95 737.40 539.47 753.15 632.89 752.28 371.80 626.33 574.52 687.98 867.72 571.86 703.91 391.65 104.00 691.50 601.28 325.02 792.99 720.45 422.69 414.53 531.07 317.17 313.17 564.23 583.18 0.00 751.15 224.44 691.63 352.38 856.68 927.07 753.10 626.97 904.87 956.62 571.12 433.93 905.21 95.29 402.82 473.80 498.32 391.81 523.99 613.20 679.70 641.97 227.03 455.52 442.39 439.09 602.56 387.83 728.95 552.58 534.88 673.63 465.88 566.44 901.42 507.97 236.81 610.09 299.50 678.23 198.55 757.67 341.04 442.32 516.65
925.11 241.72 691.07 611.00 641.61 552.64 276.51 739.12 273.85 603.51 652.97 165.03 677.11 548.75 762.05 199.74 298.63 725.19 181.70 409.44 538.81 359.50 647.15 722.85 549.98 695.35 210.43 555.35 362.69 481.09 220.08 517.01 882.74 343.21 204.90 751.15 0.00 905.34 402.02 673.63 235.63 187.40 611.34 425.21 213.23 295.62 584.29 593.37 157.74 793.61 669.85 327.92 729.25 407.27 654.81 337.40 333.90 423.81 806.69 567.46 609.59 403.87 293.06 684.84 461.91 451.64 542.34 725.49 778.06 760.67 150.27 479.33 554.92 365.79 623.08 213.37 832.99 204.75 831.15 736.48 569.25
105.37 1012.74 539.27 384.07 768.54 551.23 1020.67 268.67 1004.67 880.80 614.84 886.78 700.33 836.17 364.08 738.04 747.85 811.77 1018.13 743.47 903.83 563.26 275.61 766.87 668.36 432.70 955.33 920.37 576.44 558.58 702.68 488.78 112.29 712.02 736.93 224.44 905.34 0.00 861.70 540.61 990.31 1060.70 863.72 808.20 1070.96 1110.37 710.21 538.31 1058.96 129.15 597.12 639.82 527.16 557.83 559.26 770.09 851.31 813.58 219.31 594.98 450.60 610.70 746.61 582.13 900.56 769.52 680.17 799.83 505.02 733.80 1055.10 584.57 461.25 781.70 462.11 849.84 190.35 827.70 333.32 517.69 661.09
865.59 255.56 848.77 566.24 376.17 399.08 220.77 697.70 577.09 211.60 379.49 256.70 893.15 204.32 550.33 355.28 254.53 841.01 548.23 173.37 179.98 328.49 587.63 455.08 300.98 532.01 243.83 163.44 426.85 608.13 347.07 509.81 814.79 299.11 401.44 691.63 402.02 861.70 0.00 735.05 290.80 430.62 230.16 673.11 415.44 525.81 303.22 728.82 465.95 734.09 842.30 382.46 577.23 360.26 491.92 246.79 125.95 49.66 695.10 438.27 660.01 304.47 460.53 857.29 134.36 625.81 351.32 855.36 576.47 503.58 467.75 299.14 554.72 118.70 616.65 188.65 710.78 534.59 620.38 521.23 899.14
531.33 785.56 113.72 461.12 791.77 559.60 820.35 545.68 659.81 875.11 672.60 797.95 280.51 845.03 661.48 573.47 593.12 388.12 636.78 705.21 829.51 421.53 335.09 932.61 720.19 545.47 764.36 846.05 406.66 222.07 508.82 399.47 570.68 594.11 502.33 352.38 673.63 540.61 735.05 0.00 795.08 730.87 872.92 447.61 830.33 871.73 725.30 81.55 789.87 447.67 150.31 508.90 762.89 469.30 702.97 554.35 710.17 685.39 516.71 677.02 90.01 572.44 406.54 142.45 772.37 408.93 623.08 373.77 695.31 847.46 748.30 568.84 304.23 682.69 243.87 705.33 550.93 468.88 630.72 755.19 164.27
957.83 93.31 896.35 701.81 577.01 585.52 70.03 883.54 342.40 437.77 571.46 103.53 864.51 407.69 835.22 330.33 319.26 837.41 355.57 431.22 390.40 478.80 766.45 658.45 546.94 748.52 77.46 406.94 453.46 573.01 392.66 632.56 1002.04 363.84 401.55 856.68 235.63 990.31 290.80 795.08 0.00 241.46 435.58 612.61 142.00 235.01 507.95 805.66 210.38 861.16 878.35 472.27 716.49 526.57 644.64 358.03 312.75 248.05 944.74 608.56 717.95 493.97 519.30 863.36 313.50 647.06 469.17 823.06 738.56 716.24 244.05 521.25 619.87 327.67 730.88 192.22 932.89 440.38 830.73 660.49 804.88
1023.82 259.41 815.28 769.52 650.50 686.85 294.20 926.52 155.66 602.93 737.56 173.92 734.35 617.55 902.93 357.14 386.97 760.60 119.72 508.07 555.16 546.90 834.55 806.67 643.31 814.66 242.47 554.77 541.52 602.60 407.48 684.57 1070.14 431.55 392.30 927.07 187.40 1060.70 430.62 730.87 241.46 0.00 607.92 482.45 99.46 147.05 677.44 674.95 59.00 931.55 791.22 515.32 856.31 594.67 804.86 425.74 389.26 480.28 928.27 726.13 725.46 562.54 433.25 806.21 479.60 472.40 643.31 746.25 891.75 786.63 37.13 581.79 690.26 458.87 801.27 268.73 991.74 261.99 972.98 835.33 756.65
850.92 372.86 952.69 512.43 193.10 416.94 397.71 623.11 716.72 18.56 322.40 457.01 872.07 146.69 672.34 566.66 418.16 983.51 709.92 268.48 75.77 457.86 704.95 338.45 311.24 527.05 425.40 66.72 502.35 767.05 471.40 602.23 751.43 437.09 524.56 753.10 611.34 863.72 230.16 872.92 435.58 607.92 0.00 815.08 577.58 654.46 332.23 798.78 593.53 765.97 957.26 500.43 512.28 475.22 402.38 388.76 285.47 187.53 690.68 362.26 789.38 386.01 614.63 972.25 152.67 779.91 376.48 986.84 490.66 395.17 598.40 310.55 673.35 260.42 758.37 406.00 716.98 672.46 662.36 475.87 980.68
853.76 666.93 417.27 733.14 862.86 667.19 665.48 820.27 418.28 814.98 740.56 567.87 251.90 737.62 920.82 341.07 465.09 299.98 401.75 598.93 790.29 496.06 647.17 933.00 721.43 766.35 608.73 774.29 420.32 302.34 436.33 531.38 882.76 484.39 413.84 626.97 425.21 808.20 673.11 447.61 612.61 482.45 815.08 0.00 581.91 623.31 711.61 445.31 541.45 722.26 475.12 425.87 877.12 468.24 784.86 426.32 582.14 646.40 802.42 721.90 357.60 580.06 226.38 460.13 714.94 74.39 609.39 314.33 925.33 918.98 509.66 632.91 566.72 554.66 511.46 493.97 825.52 220.46 864.97 850.64 461.75
1027.72 235.31 900.78 782.46 660.76 699.79 212.03 952.35 244.83 579.77 713.13 184.18 795.41 549.69 915.87 410.98 399.91 846.10 219.18 506.99 532.40 513.22 800.87 773.27 622.71 826.68 171.61 548.94 550.90 694.32 415.24 702.72 1036.46 444.49 418.13 904.87 213.23 1070.96 415.44 830.33 142.00 99.46 577.58 581.91 0.00 111.26 622.03 774.41 68.38 941.81 876.72 523.08 858.49 560.99 786.64 438.68 399.52 390.05 1000.09 739.07 814.63 575.48 506.29 891.71 455.50 557.90 611.17 831.75 880.56 796.89 122.63 593.81 700.52 403.44 811.53 278.99 1005.45 361.45 972.73 802.49 782.48
1085.39 328.32 923.50 842.05 772.02 759.38 305.04 1023.78 272.62 643.39 806.47 295.44 848.60 642.70 975.46 465.36 459.50 868.82 256.87 609.18 578.69 624.48 852.62 878.77 715.84 913.77 282.87 595.23 533.93 746.65 515.70 713.03 1088.21 504.08 500.52 956.62 295.62 1110.37 525.81 871.73 235.01 147.05 654.46 623.31 111.26 0.00 733.29 812.10 151.91 981.22 899.44 612.51 928.84 623.64 879.65 498.27 467.47 483.06 1062.74 798.66 842.42 635.07 574.11 914.43 501.79 580.62 704.18 854.47 973.57 908.15 145.35 690.01 726.16 514.70 839.95 390.25 1046.72 402.85 1045.51 895.50 864.87
736.46 472.71 815.89 350.04 185.13 215.43 437.92 441.54 736.76 313.67 95.37 503.52 802.64 185.54 459.92 447.30 303.77 892.52 729.40 174.85 282.90 303.77 523.39 221.39 47.43 347.38 523.47 285.35 388.38 574.51 372.09 386.01 603.50 268.50 450.68 571.12 584.29 710.21 303.22 725.30 507.95 677.44 332.23 711.61 622.03 733.29 0.00 661.98 690.07 604.96 803.34 342.49 296.84 338.42 207.80 326.57 316.09 319.46 509.11 135.05 635.29 188.30 611.77 818.33 306.03 725.44 102.22 906.87 273.25 236.18 670.59 173.75 495.94 266.70 580.74 408.71 535.41 624.59 444.95 248.84 843.88
449.78 739.71 170.24 495.31 770.57 594.62 774.50 597.04 647.38 817.34 648.94 758.40 362.06 835.80 689.25 571.17 584.92 368.48 555.23 655.38 854.30 400.33 378.27 883.37 639.58 552.89 762.06 865.50 459.81 232.65 506.52 317.92 554.97 572.91 512.91 433.93 593.37 538.31 728.82 81.55 805.66 674.95 798.78 445.31 774.41 812.10 661.98 0.00 721.00 515.73 173.31 491.32 757.26 448.10 682.82 552.05 650.23 710.18 598.26 595.47 87.71 534.14 404.24 188.14 783.03 406.63 583.83 382.83 693.01 786.36 666.75 488.23 283.64 680.39 182.77 686.91 610.61 493.30 675.80 762.61 181.90
1061.31 303.69 832.40 768.74 701.91 705.30 280.41 896.86 176.45 574.97 765.96 225.33 757.50 570.31 919.79 357.48 441.06 777.72 165.77 548.80 543.35 517.24 801.21 821.07 689.34 831.78 222.12 526.81 482.52 638.83 377.82 661.62 1036.80 456.34 362.64 905.21 157.74 1058.96 465.95 789.87 210.38 59.00 593.53 541.45 68.38 151.91 690.07 721.00 0.00 929.81 808.34 485.66 886.99 565.01 810.26 479.83 429.99 458.43 964.43 725.20 746.25 561.61 450.80 823.33 523.88 489.52 634.79 763.37 908.87 822.54 54.25 598.91 674.75 471.82 780.82 309.46 990.73 320.99 988.89 870.87 726.99
131.50 883.59 410.12 254.92 663.30 422.08 891.52 165.69 938.24 751.65 511.86 757.63 728.18 790.50 332.49 608.89 618.70 685.03 894.46 614.32 799.20 434.11 146.46 663.89 603.50 303.55 826.18 799.81 447.29 429.43 573.53 359.63 234.20 582.87 607.78 95.29 793.61 129.15 734.09 447.67 861.16 931.55 765.97 722.26 941.81 981.22 604.96 515.73 929.81 0.00 467.97 510.67 470.71 428.68 454.02 640.94 722.16 684.43 187.72 483.88 486.82 481.55 617.46 452.98 771.41 647.87 551.02 670.68 438.27 642.08 925.95 455.42 332.10 652.55 332.96 720.69 123.52 782.03 301.73 414.71 531.94
540.82 911.57 57.85 498.97 877.87 666.13 938.91 592.57 810.12 975.82 715.41 774.82 266.27 916.36 716.41 639.85 696.38 332.76 728.54 735.94 923.33 529.81 485.40 1019.81 798.06 583.32 843.37 939.87 556.97 370.58 659.13 473.30 702.17 702.39 638.34 402.82 669.85 597.12 842.30 150.31 878.35 791.22 957.26 475.12 876.72 899.44 803.34 173.31 808.34 467.97 0.00 564.03 813.54 482.04 809.50 703.43 823.54 835.70 629.85 727.93 240.32 670.38 450.88 14.99 922.68 400.73 731.36 318.41 756.77 886.13 754.09 646.71 365.79 818.23 320.28 806.48 591.49 619.19 728.19 793.04 125.07
602.26 463.45 621.88 329.16 461.23 280.94 457.88 525.68 543.04 518.99 420.53 368.74 677.77 399.07 536.34 203.10 153.01 663.78 450.89 286.96 488.54 90.99 369.80 514.36 308.36 413.51 437.29 498.88 102.24 364.58 107.84 189.09 605.39 146.84 193.43 473.80 327.92 639.82 382.46 508.90 472.27 515.32 500.43 425.87 523.08 612.51 342.49 491.32 485.66 510.67 564.03 0.00 472.74 81.99 362.84 191.78 317.49 344.42 521.09 317.78 422.51 154.19 274.14 579.02 431.40 439.42 292.54 649.43 499.46 535.10 478.19 219.65 280.12 263.76 330.95 331.17 564.26 387.98 558.38 444.51 655.59
575.11 649.45 839.74 314.57 319.18 239.09 684.24 305.02 945.14 493.72 208.28 685.07 1043.40 479.28 163.08 604.43 469.34 992.59 880.57 445.68 493.98 465.59 474.90 305.18 320.45 241.03 741.89 510.52 527.75 728.90 509.17 439.34 427.54 456.37 593.89 498.32 729.25 527.16 577.23 762.89 716.49 856.31 512.28 877.12 858.49 928.84 296.84 757.26 886.99 470.71 813.54 472.74 0.00 438.04 109.90 499.19 536.32 558.45 307.85 161.79 672.88 325.38 711.39 828.53 535.78 809.30 267.73 1006.94 67.58 206.64 858.46 332.97 505.42 466.71 644.31 627.13 372.05 788.44 233.13 56.00 927.16
560.18 515.90 539.89 264.90 418.01 198.95 526.55 443.69 615.99 493.78 339.46 429.16 629.12 434.32 454.35 282.45 232.36 665.21 523.84 253.90 441.29 47.77 287.81 548.51 316.02 349.25 449.11 457.83 89.71 298.99 187.19 149.55 523.40 220.35 250.20 391.81 407.27 557.83 360.26 469.30 526.57 594.67 475.22 468.24 560.99 623.64 338.42 448.10 565.01 428.68 482.04 81.99 438.04 0.00 342.32 221.39 377.21 357.62 439.10 317.09 379.29 188.34 273.35 497.03 444.60 435.64 249.32 679.56 471.68 534.41 557.54 164.67 198.13 345.75 334.44 334.35 500.00 413.79 494.12 397.87 590.00
585.52 590.58 761.38 310.53 209.28 143.37 625.37 330.69 835.24 383.82 112.43 631.67 969.63 369.38 272.98 529.99 426.51 965.77 798.90 353.42 384.08 370.38 470.48 248.38 224.60 232.18 651.62 400.62 432.03 641.31 434.73 364.90 446.97 381.93 512.22 523.99 654.81 559.26 491.92 702.97 644.64 804.86 402.38 784.86 786.64 879.65 207.80 682.82 810.26 454.02 809.50 362.84 109.90 342.32 0.00 406.93 463.50 485.63 379.13 87.35 646.22 250.94 615.67 804.24 425.88 734.86 175.47 980.12 142.91 234.92 767.73 223.07 499.67 393.89 591.12 536.86 424.56 706.77 314.61 81.67 864.72
769.93 337.35 668.07 421.32 440.61 313.37 343.64 525.51 540.43 388.66 326.15 254.50 678.22 311.30 554.73 197.03 38.77 726.30 472.36 172.61 363.97 223.36 509.20 547.96 295.11 476.37 301.07 380.51 220.97 465.94 192.43 356.76 730.89 58.07 185.68 613.20 337.40 770.09 246.79 554.35 358.03 425.74 388.76 426.32 438.68 498.27 326.57 552.05 479.83 640.94 703.43 191.78 499.19 221.39 406.93 0.00 155.82 220.08 593.08 352.65 464.34 189.06 373.14 696.80 288.62 500.71 231.46 727.78 540.10 541.05 460.16 257.18 376.48 128.34 416.67 186.31 619.38 380.23 624.78 462.03 662.57
747.76 251.29 820.47 516.19 427.03 393.71 244.45 681.33 516.10 274.40 379.30 215.34 832.69 252.57 649.11 287.16 194.59 882.12 480.11 168.00 209.70 354.89 575.70 503.33 268.66 529.28 235.29 226.24 376.79 528.95 248.83 460.81 809.79 182.31 334.42 679.70 333.90 851.31 125.95 710.17 312.75 389.26 285.47 582.14 399.52 467.47 316.09 650.23 429.99 722.16 823.54 317.49 536.32 377.21 463.50 155.82 0.00 99.78 748.90 434.33 620.16 300.77 476.13 838.37 132.80 625.80 294.94 883.60 576.46 552.27 426.39 309.85 482.19 69.61 567.56 120.53 721.49 503.01 719.16 532.77 818.39
815.93 261.42 799.11 559.40 334.10 403.58 232.23 702.04 590.45 189.72 401.43 306.36 898.30 159.64 599.99 386.94 258.85 890.67 568.85 195.29 144.12 309.85 537.97 410.40 311.01 536.35 293.49 160.66 394.05 598.37 320.11 471.03 773.56 278.15 375.83 641.97 423.81 813.58 49.66 685.39 248.05 480.28 187.53 646.40 390.05 483.06 319.46 710.18 458.43 684.43 835.70 344.42 558.45 357.62 485.63 220.08 99.78 0.00 744.76 418.40 641.37 254.81 510.19 827.84 86.98 675.47 332.07 905.02 571.66 500.80 492.10 303.48 536.08 91.74 589.69 220.31 715.12 484.93 670.04 518.95 849.66
315.38 888.47 597.84 264.33 576.20 396.26 915.87 67.57 980.62 709.24 413.74 847.58 797.22 694.65 144.77 687.32 631.85 829.09 888.47 594.54 745.55 486.87 267.98 565.77 525.91 233.26 888.21 738.98 528.81 500.08 626.29 410.12 165.62 605.00 601.79 227.03 806.69 219.31 695.10 516.71 944.74 928.27 690.68 802.42 1000.09 1062.74 509.11 598.26 964.43 187.72 629.85 521.09 307.85 439.10 379.13 593.08 748.90 744.76 0.00 380.97 559.76 527.69 688.11 614.86 750.94 779.61 520.36 814.74 285.71 514.49 956.96 452.23 463.84 698.09 463.48 773.45 64.20 796.34 114.01 316.59 680.98
615.38 565.76 736.15 228.96 252.71 118.14 572.97 326.31 811.80 380.82 103.59 554.89 882.28 320.59 324.87 442.64 339.16 899.49 719.65 284.72 409.93 303.80 403.92 335.73 174.46 223.76 580.10 420.40 402.16 567.11 347.38 277.55 492.64 294.58 432.97 455.52 567.46 594.98 438.27 677.02 608.56 726.13 362.26 721.90 739.07 798.66 135.05 595.47 725.20 483.88 727.93 317.78 161.79 317.09 87.35 352.65 434.33 418.40 380.97 0.00 612.27 163.59 588.80 742.92 441.08 647.51 139.39 913.84 229.37 217.32 696.67 176.52 412.32 379.72 503.77 465.34 420.18 627.52 394.92 169.02 777.37
537.49 708.43 203.73 438.33 701.76 567.61 743.22 521.10 569.80 807.94 664.24 707.94 370.52 775.64 655.77 483.46 503.11 456.19 639.32 615.20 785.49 331.52 349.36 842.60 630.18 522.68 674.35 802.03 372.10 144.94 418.81 334.72 562.89 504.10 425.20 442.39 609.59 450.60 660.01 90.01 717.95 725.46 789.38 357.60 814.63 842.42 635.29 87.71 746.25 486.82 240.32 422.51 672.88 379.29 646.22 464.34 620.16 641.37 559.76 612.27 0.00 482.43 316.53 232.46 728.35 318.92 533.07 463.78 605.30 757.45 713.57 478.83 214.22 592.68 153.86 618.10 530.33 478.66 646.89 683.37 254.28
613.05 483.30 686.16 304.59 373.43 148.77 468.99 464.26 648.21 392.98 267.18 391.30 765.33 313.19 404.17 279.05 175.57 817.97 556.06 132.77 361.36 150.91 335.09 360.17 164.50 298.57 416.51 344.82 249.27 473.66 183.79 216.22 541.83 130.99 269.38 439.09 403.87 610.70 304.47 572.44 493.97 562.54 386.01 580.06 575.48 635.07 188.30 534.14 561.61 481.55 670.38 154.19 325.38 188.34 250.94 189.06 300.77 254.81 527.69 163.59 482.43 0.00 428.33 685.37 341.79 572.58 138.47 803.62 374.19 380.91 533.08 75.46 350.99 236.32 418.52 301.75 487.10 463.93 474.22 332.61 716.04
748.96 534.78 419.43 538.25 691.36 472.30 513.38 696.55 414.94 596.07 612.81 415.77 432.62 633.18 694.44 188.97 334.37 453.48 322.79 452.76 564.45 321.12 556.89 752.61 579.15 596.55 462.73 547.91 238.20 188.03 249.84 417.30 792.48 367.77 187.46 602.56 293.06 746.61 460.53 406.54 519.30 433.25 614.63 226.38 506.29 574.11 611.77 404.24 450.80 617.46 450.88 274.14 711.39 273.35 615.67 373.14 476.13 510.19 688.11 588.80 316.53 428.33 0.00 435.89 594.89 165.28 522.67 439.13 745.03 806.12 434.31 438.02 430.43 471.55 415.43 355.60 680.87 171.26 764.49 671.22 463.07
525.83 918.88 42.86 513.96 892.86 660.87 923.92 577.58 802.26 990.81 730.40 759.83 281.26 931.35 731.40 624.86 681.39 317.77 743.37 750.93 938.32 544.80 477.54 1034.80 813.05 598.31 828.38 954.86 549.11 364.52 651.27 488.29 687.18 717.38 623.35 387.83 684.84 582.13 857.29 142.45 863.36 806.21 972.25 460.13 891.71 914.43 818.33 188.14 823.33 452.98 14.99 579.02 828.53 497.03 804.24 696.80 838.37 827.84 614.86 742.92 232.46 685.37 435.89 0.00 914.82 385.74 746.35 303.42 771.76 901.12 769.08 661.70 380.78 825.14 335.27 791.49 576.50 607.15 727.15 808.03 140.06
880.56 220.19 886.09 622.89 309.12 490.56 254.98 683.37 564.05 141.60 401.40 348.14 965.49 158.11 684.69 419.96 327.39 975.37 599.32 266.52 76.90 396.83 624.95 376.98 312.37 538.54 332.54 93.44 481.03 661.75 381.63 558.01 860.54 315.11 454.13 728.95 461.91 900.56 134.36 772.37 313.50 479.60 152.67 714.94 455.50 501.79 306.03 783.03 523.88 771.41 922.68 431.40 535.78 444.60 425.88 288.62 132.80 86.98 750.94 441.08 728.35 341.79 594.89 914.82 0.00 758.60 408.25 989.72 568.79 433.58 516.73 390.46 614.99 178.72 667.10 253.33 777.24 571.91 740.49 507.55 936.64
779.37 693.36 342.88 700.54 791.91 634.59 678.66 745.88 492.67 761.35 751.10 543.53 267.98 768.38 854.18 354.25 496.42 288.20 437.32 605.12 729.73 421.67 652.52 904.97 686.88 691.96 612.08 713.19 345.93 353.31 402.20 456.99 863.64 533.05 352.74 552.58 451.64 769.52 625.81 408.93 647.06 472.40 779.91 74.39 557.90 580.62 725.44 406.63 489.52 647.87 400.73 439.42 809.30 435.64 734.86 500.71 625.80 675.47 779.61 647.51 318.92 572.58 165.28 385.74 758.60 0.00 623.22 273.85 854.32 864.83 435.27 568.98 533.14 629.05 457.02 520.88 751.13 246.89 875.25 776.25 410.62
682.52 426.37 736.80 300.46 253.47 133.30 461.16 461.99 739.86 390.71 131.17 485.51 861.29 262.58 388.70 404.00 269.78 790.30 659.42 177.95 355.19 201.55 473.56 323.61 119.72 296.30 530.23 362.39 299.91 548.31 322.26 283.79 618.99 225.20 384.75 534.88 542.34 680.17 351.32 623.08 469.17 643.31 376.48 609.39 611.17 704.18 102.22 583.83 634.79 551.02 731.36 292.54 267.73 249.32 175.47 231.46 294.94 332.07 520.36 139.39 533.07 138.47 522.67 746.35 408.25 623.22 0.00 804.65 318.38 309.59 606.18 95.60 408.58 240.33 510.01 415.47 507.24 567.57 458.75 257.14 765.73
743.53 890.87 260.56 725.63 1058.12 878.51 874.06 795.28 732.61 968.28 915.41 719.53 114.77 1019.11 899.64 628.10 689.01 14.35 711.17 838.69 1003.58 695.52 708.86 1128.26 924.37 809.98 778.52 987.04 619.78 399.94 676.05 636.29 899.00 733.59 626.59 673.63 725.49 799.83 855.36 373.77 823.06 746.25 986.84 314.33 831.75 854.47 906.87 382.83 763.37 670.68 318.41 649.43 1006.94 679.56 980.12 727.78 883.60 905.02 814.74 913.84 463.78 803.62 439.13 303.42 989.72 273.85 804.65 0.00 939.36 1112.79 709.12 821.89 501.52 856.12 558.07 794.73 794.20 520.74 886.61 1017.43 226.66
543.88 671.52 798.09 257.80 297.56 272.73 706.31 272.58 886.90 472.10 231.54 742.16 975.82 458.79 225.48 651.97 526.43 925.01 885.79 437.97 502.15 457.27 407.32 327.25 320.68 173.45 753.75 500.59 555.63 700.31 557.98 408.42 451.33 487.06 599.11 465.88 778.06 505.02 576.47 695.31 738.56 891.75 490.66 925.33 880.56 973.57 273.25 693.01 908.87 438.27 756.77 499.46 67.58 471.68 142.91 540.10 576.46 571.66 285.71 229.37 605.30 374.19 745.03 771.76 568.79 854.32 318.38 939.36 0.00 274.22 854.62 309.96 437.84 534.29 576.73 675.94 349.91 793.66 171.70 78.07 859.58
773.58 653.77 922.49 387.16 224.56 335.46 664.07 511.66 942.29 388.30 267.15 612.71 1038.82 384.44 369.72 659.96 539.95 1098.44 906.35 411.03 356.68 511.14 579.68 133.68 283.61 425.56 681.26 340.14 609.50 784.43 564.70 494.87 634.18 504.68 650.29 566.44 760.67 733.80 503.58 847.46 716.24 786.63 395.17 918.98 796.89 908.15 236.18 786.36 822.54 642.08 886.13 535.10 206.64 534.41 234.92 541.05 552.27 500.80 514.49 217.32 757.45 380.91 806.12 901.12 433.58 864.83 309.59 1112.79 274.22 0.00 823.76 393.84 611.27 502.88 603.59 644.89 578.69 844.84 439.77 262.64 968.26
1043.07 296.54 778.15 753.38 687.63 651.05 314.08 889.39 143.77 587.33 737.35 211.05 703.25 620.11 906.45 320.01 424.10 723.47 111.52 545.20 522.63 509.77 797.42 822.71 680.44 777.53 232.47 539.17 512.96 601.30 370.35 667.28 1033.01 402.09 355.17 901.42 150.27 1055.10 467.75 748.30 244.05 37.13 598.40 509.66 122.63 145.35 670.59 666.75 54.25 925.95 754.09 478.19 858.46 557.54 767.73 460.16 426.39 492.10 956.96 696.67 713.57 533.08 434.31 769.08 516.73 435.27 606.18 709.12 854.62 823.76 0.00 544.66 700.77 496.00 773.35 305.86 956.30 299.12 976.50 849.40 719.52
586.92 521.97 642.14 273.55 349.07 106.39 519.91 398.56 667.98 329.11 226.77 459.42 793.79 347.57 361.79 342.01 243.69 829.88 575.83 167.15 386.32 147.31 410.55 395.14 151.35 232.87 443.79 377.27 245.67 463.66 259.25 291.68 526.26 199.11 289.15 507.97 479.33 584.57 299.14 568.84 521.25 581.79 310.55 632.91 593.81 690.01 173.75 488.23 598.91 455.42 646.71 219.65 332.97 164.67 223.07 257.18 309.85 303.48 452.23 176.52 478.83 75.46 438.02 661.70 390.46 568.98 95.60 821.89 309.96 393.84 544.66 0.00 362.80 270.70 466.71 377.21 411.64 483.70 431.84 304.74 670.13
463.60 642.92 360.25 224.11 596.47 391.27 636.46 425.92 720.90 676.02 465.79 516.34 582.19 632.45 441.55 438.25 337.71 487.17 639.40 452.03 639.42 226.23 281.36 711.16 514.15 308.46 584.89 655.96 192.23 264.38 357.46 134.77 469.80 382.29 352.72 236.81 554.92 461.25 554.72 304.23 619.87 690.26 673.35 566.72 700.52 726.16 495.94 283.64 674.75 332.10 365.79 280.12 505.42 198.13 499.67 376.48 482.19 536.08 463.84 412.32 214.22 350.99 430.43 380.78 614.99 533.14 408.58 501.52 437.84 611.27 700.77 362.80 0.00 504.82 138.89 484.19 435.36 547.27 453.33 515.91 450.26
784.05 293.67 796.41 496.42 357.42 329.26 313.95 630.52 585.71 260.32 309.69 284.95 806.56 182.96 584.66 323.63 167.11 854.64 547.49 103.55 235.63 304.91 506.09 433.72 219.27 464.83 304.90 252.17 349.31 506.63 228.37 391.20 741.68 186.41 284.09 610.09 365.79 781.70 118.70 682.69 327.67 458.87 260.42 554.66 403.44 514.70 266.70 680.39 471.82 652.55 818.23 263.76 466.71 345.75 393.89 128.34 69.61 91.74 698.09 379.72 592.68 236.32 471.55 825.14 178.72 629.05 240.33 856.12 534.29 502.88 496.00 270.70 504.82 0.00 497.95 190.14 666.41 478.64 654.71 463.16 790.91
426.67 754.02 318.90 363.00 689.64 530.16 750.25 414.27 703.28 758.27 557.24 627.35 443.30 680.91 563.08 503.71 455.44 551.25 704.86 551.29 733.58 319.40 195.50 737.27 569.23 433.80 695.90 750.12 306.02 227.40 432.03 226.22 431.09 474.74 418.18 299.50 623.08 462.11 616.65 243.87 730.88 801.27 758.37 511.46 811.53 839.95 580.74 182.77 780.82 332.96 320.28 330.95 644.31 334.44 591.12 416.67 567.56 589.69 463.48 503.77 153.86 418.52 415.43 335.27 667.10 457.02 510.01 558.07 576.73 603.59 773.35 466.71 138.89 497.95 0.00 602.98 427.84 572.55 493.03 592.84 364.67
790.31 181.55 775.03 567.85 512.71 450.52 204.96 711.82 424.39 390.55 492.05 94.81 712.16 360.44 701.26 166.63 185.30 793.95 359.58 239.34 330.23 286.58 574.23 611.20 379.88 600.32 114.76 342.39 384.94 483.26 243.15 476.08 809.82 205.17 252.16 678.23 213.37 849.84 188.65 705.33 192.22 268.73 406.00 493.97 278.99 390.25 408.71 686.91 309.46 720.69 806.48 331.17 627.13 334.35 536.86 186.31 120.53 220.31 773.45 465.34 618.10 301.75 355.60 791.49 253.33 520.88 415.47 794.73 675.94 644.89 305.86 377.21 484.19 190.14 602.98 0.00 788.85 382.48 761.58 618.53 765.92
251.18 841.54 533.64 235.10 602.50 402.26 876.33 93.87 1006.92 731.83 440.04 833.38 831.44 720.95 208.97 713.62 617.65 808.55 914.77 562.86 771.85 519.99 232.34 592.07 552.21 259.56 855.43 765.28 512.79 552.95 659.41 436.42 114.62 610.75 628.09 198.55 832.99 190.35 710.78 550.93 932.89 991.74 716.98 825.52 1005.45 1046.72 535.41 610.61 990.73 123.52 591.49 564.26 372.05 500.00 424.56 619.38 721.49 715.12 64.20 420.18 530.33 487.10 680.87 576.50 777.24 751.13 507.24 794.20 349.91 578.69 956.30 411.64 435.36 666.41 427.84 788.85 0.00 822.64 178.21 342.89 655.46
913.53 446.47 582.60 600.65 736.26 590.09 481.26 728.77 282.58 674.65 646.61 369.78 472.36 644.57 818.09 215.85 341.46 520.44 190.43 483.06 629.05 366.02 653.67 782.91 597.80 685.00 405.57 645.59 355.04 359.29 280.14 534.14 889.26 386.04 194.55 757.67 204.75 827.70 534.59 468.88 440.38 261.99 672.46 220.46 361.45 402.85 624.59 493.30 320.99 782.03 619.19 387.98 788.44 413.79 706.77 380.23 503.01 484.93 796.34 627.52 478.66 463.93 171.26 607.15 571.91 246.89 567.57 520.74 793.66 844.84 299.12 483.70 547.27 478.64 572.55 382.48 822.64 0.00 820.80 787.36 598.40
372.18 817.66 684.29 229.22 469.26 325.45 841.15 149.57 1005.08 643.80 403.24 801.74 907.19 630.49 70.05 709.68 586.01 900.96 912.93 551.16 673.85 475.00 368.34 498.95 492.38 232.27 831.68 672.29 573.36 597.53 614.42 418.26 279.63 580.75 626.25 341.04 831.15 333.32 620.38 630.72 830.73 972.98 662.36 864.97 972.73 1045.51 444.95 675.80 988.89 301.73 728.19 558.38 233.13 494.12 314.61 624.78 719.16 670.04 114.01 394.92 646.89 474.22 764.49 727.15 740.49 875.25 458.75 886.61 171.70 439.77 976.50 431.84 453.33 654.71 493.03 761.58 178.21 820.80 0.00 249.77 794.99
546.21 593.45 783.74 294.07 290.95 198.92 628.24 249.02 916.91 465.49 153.47 664.09 1006.64 434.38 219.08 606.62 448.36 1003.08 880.57 406.18 465.75 421.34 448.02 249.18 265.64 209.72 705.80 478.71 487.58 696.86 516.40 444.69 457.51 454.22 593.89 442.32 736.48 517.69 521.23 755.19 660.49 835.33 475.87 850.64 802.49 895.50 248.84 762.61 870.87 414.71 793.04 444.51 56.00 397.87 81.67 462.03 532.77 518.95 316.59 169.02 683.37 332.61 671.22 808.03 507.55 776.25 257.14 1017.43 78.07 262.64 849.40 304.74 515.91 463.16 592.84 618.53 342.89 787.36 249.77 0.00 905.56
580.99 810.97 121.82 624.04 952.47 723.87 845.76 656.54 824.08 999.24 830.84 734.28 209.85 973.87 825.75 599.29 660.67 241.01 737.13 802.27 988.14 582.23 499.36 1065.27 818.09 708.39 779.68 971.60 570.93 291.01 599.35 499.82 672.80 705.25 513.76 516.65 569.25 661.09 899.14 164.27 804.88 756.65 980.68 461.75 782.48 864.87 843.88 181.90 726.99 531.94 125.07 655.59 927.16 590.00 864.72 662.57 818.39 849.66 680.98 777.37 254.28 716.04 463.07 140.06 936.64 410.62 765.73 226.66 859.58 968.26 719.52 670.13 450.26 790.91 364.67 765.92 655.46 598.40 794.99 905.56 0.00
DEMAND_SECTION
1 0
2 88
3 65
4 81
5 53
6 50
7 78
8 90
9 74
10 93
11 70
12 64
13 73
14 74
15 98
16 90
17 73
18 85
19 53
20 61
21 97
22 73
23 79
24 99
25 89
26 93
27 64
28 100
29 90
30 54
31 60
32 82
33 50
34 79
35 79
36 91
37 51
38 72
39 99
40 68
41 83
42 51
43 69
44 85
45 82
46 94
47 69
48 51
49 57
50 96
51 92
52 56
53 82
54 85
55 71
56 60
57 94
58 52
59 51
60 89
61 67
62 64
63 89
64 54
65 61
66 63
67 69
68 72
69 65
70 74
71 86
72 78
73 65
74 79
75 80
76 78
77 58
78 60
79 81
80 79
81 90
DEPOT_SECTION
1
-1
EOF
