NAME: LDG90_1233_snow_90_0297
COMMENT: CVRP with travel times.  rootPos=1,custPos=2,demandType=3,avgRouteSizeIndex=3,weather=snow,lambda_cluster=1,lambda_random=4, T1=300,T2=700,beta=1, alpha(i,j) ~ U(0.8,1.2)
TYPE: CVRP
DIMENSION: 91
EDGE_WEIGHT_TYPE: EXPLICIT
EDGE_WEIGHT_FORMAT: FULL_MATRIX
CAPACITY: 92
NODE_COORD_SECTION
1 615 224
2 174 409
3 647 362
4 578 307
5 482 205
6 243 457
7 592 218
8 87 916
9 624 415
10 233 971
11 278 974
12 148 376
13 323 962
14 545 206
15 527 133
16 513 134
17 466 140
18 567 275
19 371 129
20 423 196
21 601 393
22 577 328
23 682 272
24 185 366
25 80 281
26 270 111
27 619 251
28 657 353
29 299 832
30 547 199
31 522 181
32 517 19
33 494 171
34 482 251
35 181 385
36 252 965
37 651 221
38 529 189
39 684 456
40 511 514
41 410 419
42 275 963
43 546 995
44 713 107
45 634 266
46 440 331
47 670 110
48 15 324
49 424 398
50 592 287
51 159 644
52 392 377
53 528 221
54 572 205
55 537 293
56 872 190
57 365 400
58 302 313
59 539 194
60 494 378
61 288 241
62 254 400
63 327 388
64 518 281
65 568 241
66 525 200
67 417 359
68 601 363
69 123 440
70 485 189
71 614 114
72 102 216
73 281 977
74 120 462
75 599 251
76 693 201
77 398 285
78 512 272
79 185 536
80 505 388
81 330 956
82 493 274
83 481 102
84 555 182
85 170 389
86 369 194
87 168 168
88 510 371
89 405 97
90 658 357
91 305 401
EDGE_WEIGHT_SECTION
0.00 753.24 279.22 150.77 255.65 638.74 68.00 1305.46 318.83 1260.82 1172.82 747.85 1255.36 134.19 238.19 259.62 281.60 175.64 459.14 372.29 308.85 205.57 208.57 737.28 885.85 572.06 56.63 273.54 1089.79 144.04 162.64 418.08 210.79 237.89 705.04 1240.89 91.80 187.27 445.58 524.06 447.58 1189.07 1217.79 299.00 95.39 376.60 272.15 858.79 408.56 141.72 916.01 410.03 176.53 95.18 189.31 441.54 475.85 581.65 170.18 377.37 549.72 601.28 550.20 177.15 84.59 177.81 327.44 203.51 782.76 252.30 266.32 813.82 1164.10 831.42 66.49 217.04 395.10 191.02 846.87 345.70 1223.66 225.71 318.67 154.07 679.61 418.17 667.83 341.94 393.93 263.39 539.53
753.24 0.00 698.77 732.46 687.45 278.38 736.51 945.24 720.23 869.52 791.18 84.57 854.01 702.05 746.47 717.52 708.82 680.57 509.30 610.59 737.89 699.75 827.07 103.60 236.06 524.98 746.36 728.84 804.90 683.46 620.54 796.20 668.69 627.27 50.91 833.73 822.92 672.11 790.26 515.59 414.25 748.71 1177.34 957.54 755.06 488.56 935.75 360.90 476.28 687.39 419.47 399.69 722.98 685.34 611.39 1131.27 333.87 294.86 683.86 571.71 426.21 262.88 322.14 576.09 716.11 679.17 482.28 702.72 176.78 650.66 837.08 350.53 788.23 172.01 696.90 894.29 533.15 608.05 353.30 559.62 864.49 642.74 728.72 688.95 73.63 484.79 451.50 595.85 657.70 727.92 260.64
279.22 698.77 0.00 217.96 386.86 663.07 240.80 1334.51 102.72 1262.39 1174.39 741.53 1172.17 309.43 412.41 438.91 454.40 190.00 590.35 485.61 133.86 198.66 316.66 700.55 869.63 768.85 235.91 30.07 987.96 330.94 360.47 590.88 405.75 349.47 647.86 1242.46 233.44 347.43 200.75 288.26 390.15 1205.19 1124.31 499.79 207.67 425.69 375.27 957.85 443.22 137.50 852.54 473.80 285.09 291.97 251.69 474.18 472.31 582.33 345.34 280.02 668.52 669.53 559.59 248.80 236.71 309.47 395.69 101.68 776.44 383.96 434.34 950.19 1165.67 825.10 212.73 346.90 484.82 280.76 866.46 252.22 1181.04 315.45 492.72 347.39 673.29 531.62 799.49 288.45 582.79 29.15 579.30
150.77 732.46 217.96 0.00 270.19 586.14 207.37 1228.45 239.96 1238.25 1150.25 694.98 1159.32 213.14 320.43 291.48 382.29 96.21 440.76 386.83 226.27 54.80 209.42 694.71 845.21 633.08 177.93 187.89 997.33 205.06 267.98 423.03 283.63 172.78 684.26 1218.32 219.32 246.17 361.20 506.22 340.30 1150.54 1067.02 433.08 151.69 311.49 388.75 919.81 331.55 84.28 895.23 357.43 231.87 156.20 143.58 562.84 422.46 502.70 220.22 226.60 500.81 612.24 497.60 156.37 157.27 252.92 338.40 149.47 761.98 285.12 399.73 880.60 1141.53 810.64 128.47 290.92 341.98 188.33 806.55 194.93 1127.62 223.02 396.74 215.09 658.83 450.99 700.65 218.31 454.95 198.04 529.45
255.65 687.45 386.86 270.19 0.00 579.41 187.65 1268.76 396.28 1291.86 1213.52 643.95 1251.11 152.27 183.25 158.81 153.59 212.94 203.49 116.64 402.43 243.03 374.75 613.40 688.54 450.47 290.82 395.91 1089.12 136.44 114.90 326.67 66.75 97.41 655.81 1256.07 306.16 120.65 544.92 530.65 414.92 1171.05 1222.15 452.06 299.52 236.12 377.93 792.13 371.86 249.36 930.30 350.70 101.77 185.30 143.76 675.73 416.52 411.86 110.22 318.39 400.66 514.96 375.44 191.44 195.66 108.65 335.60 340.01 715.55 36.79 285.68 652.23 1210.57 764.21 241.36 363.34 221.29 173.00 759.47 350.06 1219.41 138.31 203.67 148.44 670.28 202.66 452.32 324.44 260.63 406.06 436.94
638.74 278.38 663.07 586.14 579.41 0.00 672.47 1007.91 560.35 763.35 795.63 270.24 787.07 608.33 644.52 646.64 664.96 585.64 556.58 502.74 633.51 573.00 727.62 272.52 451.95 645.92 621.21 684.70 734.87 629.84 602.73 779.19 554.58 482.00 230.18 727.56 671.62 617.38 759.40 663.77 312.36 812.58 1096.74 898.18 668.44 415.84 839.20 504.93 310.05 573.25 469.30 228.71 610.44 621.30 562.77 1006.12 279.81 415.63 641.54 464.54 353.61 182.28 230.78 526.11 613.16 615.82 311.30 600.83 268.62 569.43 773.51 466.27 804.35 310.15 646.92 734.56 495.06 494.15 220.41 432.87 755.37 528.84 691.50 665.62 204.75 524.67 620.42 469.10 704.98 685.98 172.82
68.00 736.51 240.80 207.37 187.65 672.47 0.00 1369.61 343.52 1292.83 1204.83 721.91 1248.26 108.11 234.27 224.92 213.60 123.14 391.14 304.29 365.29 228.92 216.36 693.27 817.85 528.05 113.07 270.87 1086.27 100.03 162.95 350.08 211.10 234.44 688.31 1272.90 118.51 146.32 441.55 529.06 429.24 1206.79 1155.96 328.05 144.01 373.15 223.80 814.78 472.71 161.08 915.64 443.76 108.53 51.17 192.32 497.98 467.01 529.63 126.25 315.54 509.31 575.07 539.69 176.78 93.46 147.89 391.59 271.51 766.03 201.04 198.32 745.82 1213.55 814.69 85.85 228.75 387.37 208.74 808.15 283.87 1216.56 186.99 304.01 110.06 662.88 355.06 616.57 300.18 341.99 269.95 574.00
1305.46 945.24 1334.51 1228.45 1268.76 1007.91 1369.61 0.00 1332.81 411.18 384.53 937.42 447.36 1283.34 1392.59 1376.49 1399.64 1273.87 1378.11 1266.01 1347.93 1228.03 1382.65 841.64 1116.10 1335.38 1347.71 1315.45 543.10 1304.85 1311.68 1524.20 1296.05 1185.20 894.33 427.08 1388.22 1320.58 1133.76 1331.27 958.93 342.06 855.19 1509.75 1335.16 1046.49 1547.72 1098.94 896.90 1239.97 538.61 1042.58 1277.16 1340.28 1229.49 1722.57 1041.03 1043.18 1329.53 1091.03 1211.92 1022.15 1097.79 1192.83 1279.88 1283.36 978.02 1247.40 792.41 1276.83 1471.54 1157.68 378.37 841.07 1313.64 1474.39 1148.46 1160.87 787.50 1087.90 454.63 1195.56 1432.97 1346.80 895.56 1312.23 1189.54 1124.13 1442.02 1325.60 1036.29
318.83 720.23 102.72 239.96 396.28 560.35 343.52 1332.81 0.00 1187.00 1165.93 762.99 1228.76 356.24 495.62 490.89 506.71 292.72 595.33 512.92 75.53 185.16 339.78 722.01 891.09 765.95 327.75 124.35 1001.60 364.96 423.33 662.99 438.20 327.35 669.32 1151.21 336.16 402.66 199.05 390.98 403.79 1123.46 1103.49 571.56 310.39 354.54 469.55 979.31 465.82 240.22 943.05 452.18 294.51 349.49 284.43 576.90 386.36 552.75 383.91 356.96 670.71 613.16 473.64 332.11 339.43 364.70 461.89 115.32 797.90 413.20 537.06 971.65 1162.98 846.56 315.45 422.28 495.99 353.05 780.76 325.29 1204.08 333.02 547.95 364.03 694.75 541.04 823.00 329.82 575.93 131.87 493.35
1260.82 869.52 1262.39 1238.25 1291.86 763.35 1292.83 411.18 1187.00 0.00 88.00 954.09 174.64 1241.33 1350.58 1334.48 1246.26 1256.66 1319.93 1266.09 1262.53 1183.45 1338.07 973.12 1105.58 1394.50 1204.19 1232.32 294.21 1262.84 1298.91 1422.90 1310.40 1199.55 920.43 35.79 1323.55 1279.31 1333.22 1058.55 981.47 120.81 573.54 1531.04 1265.14 1111.08 1423.00 1226.27 961.49 1262.12 679.64 951.72 1235.15 1298.27 1187.48 1501.32 980.78 1132.51 1287.52 1064.94 1116.96 945.63 935.29 1150.82 1237.87 1241.35 1034.31 1180.49 957.59 1273.94 1324.33 1220.05 96.72 1006.25 1206.98 1399.72 1100.16 1118.86 808.67 1043.32 172.98 1153.55 1336.67 1304.79 943.15 1271.18 1321.02 1079.55 1374.65 1242.47 873.79
1172.82 791.18 1174.39 1150.25 1213.52 795.63 1204.83 384.53 1165.93 88.00 0.00 875.75 108.40 1162.99 1272.24 1256.14 1227.84 1178.32 1269.47 1231.83 1215.35 1095.45 1250.07 894.78 1027.24 1316.16 1116.19 1144.32 275.79 1184.50 1220.57 1404.48 1227.86 1117.01 842.09 68.07 1235.55 1200.97 1266.98 992.31 935.52 42.47 485.54 1452.70 1177.14 1023.08 1335.00 1152.08 873.49 1174.14 652.42 863.72 1156.81 1219.93 1109.14 1422.98 927.94 1050.08 1209.18 986.00 1080.94 977.91 882.45 1072.48 1159.53 1163.01 946.31 1162.07 873.01 1221.10 1236.33 1141.71 8.72 921.67 1118.98 1311.72 1021.82 1040.52 790.25 955.32 84.98 1075.21 1318.25 1226.45 864.81 1192.84 1242.68 991.55 1318.85 1154.47 820.95
747.85 84.57 741.53 694.98 643.95 270.24 721.91 937.42 762.99 954.09 875.75 0.00 938.58 698.17 753.62 746.61 731.14 598.77 546.58 585.33 716.32 705.27 788.30 95.78 272.05 567.74 740.97 771.60 889.47 682.31 663.30 799.13 689.00 670.03 93.67 918.30 799.52 691.02 874.83 600.16 458.79 833.28 1092.77 956.83 746.46 531.32 891.31 353.08 520.76 651.27 504.04 442.45 687.82 679.95 606.00 1125.88 376.63 297.32 656.40 563.89 341.64 178.31 317.83 570.70 704.58 681.65 452.15 747.26 171.39 607.16 865.77 345.14 872.80 179.37 691.51 885.69 535.61 602.66 378.62 565.41 949.06 637.35 735.28 681.13 68.24 441.29 443.68 529.18 607.65 770.68 291.71
1255.36 854.01 1172.17 1159.32 1251.11 787.07 1248.26 447.36 1228.76 174.64 108.40 938.58 0.00 1213.96 1335.07 1315.97 1260.68 1194.23 1343.61 1201.43 1166.40 1104.52 1259.14 951.22 1090.07 1378.99 1215.43 1182.67 308.63 1192.45 1228.84 1437.32 1276.99 1182.43 904.92 138.85 1296.10 1255.53 1158.58 883.91 1034.76 105.30 425.56 1509.38 1243.04 1076.31 1434.24 1183.63 972.73 1147.85 694.06 972.12 1219.64 1232.50 1125.89 1485.81 1027.18 1148.87 1218.67 932.72 1140.68 969.35 981.69 1078.21 1222.36 1225.84 1053.85 1194.91 942.08 1235.49 1335.57 1160.35 107.96 990.74 1199.02 1382.27 1084.65 1103.35 823.09 964.39 31.70 1112.80 1351.09 1232.54 883.45 1255.67 1299.12 1000.62 1381.68 1192.82 920.19
134.19 702.05 309.43 213.14 152.27 608.33 108.11 1283.34 356.24 1241.33 1162.99 698.17 1213.96 0.00 181.30 174.28 210.99 162.51 355.76 254.16 358.59 232.70 260.38 614.75 764.78 531.79 173.56 333.21 1091.08 21.51 81.51 376.76 126.17 126.33 651.14 1205.54 178.39 53.08 463.68 487.59 425.46 1120.52 1160.77 333.82 210.72 265.04 264.38 820.55 386.44 171.93 893.29 379.62 77.44 56.94 177.44 558.47 412.05 447.46 47.25 320.35 468.59 579.16 456.76 154.43 72.72 43.62 305.32 240.92 733.08 118.11 248.10 697.05 1160.04 781.74 161.77 278.36 306.76 122.47 778.32 288.68 1200.94 157.16 226.87 63.46 629.93 283.98 533.64 324.91 320.05 323.06 472.10
238.19 746.47 412.41 320.43 183.25 644.52 234.27 1392.59 495.62 1350.58 1272.24 753.62 1335.07 181.30 0.00 28.95 119.76 308.83 299.90 236.33 465.89 324.34 357.90 701.01 727.64 417.75 245.98 442.48 1071.81 160.27 125.93 303.78 121.01 231.86 695.56 1314.79 292.03 153.84 589.84 596.84 525.90 1229.77 1252.62 319.20 257.84 370.57 194.68 901.80 495.69 274.91 955.91 485.15 223.45 183.10 300.34 619.14 504.91 499.47 134.05 412.20 433.92 624.63 485.11 263.68 231.15 173.04 414.57 421.32 824.14 146.46 245.44 651.98 1269.29 872.80 199.68 346.49 353.88 231.72 707.02 380.53 1310.19 266.41 80.48 131.59 720.99 312.33 523.31 416.76 226.33 441.56 546.61
259.62 717.52 438.91 291.48 158.81 646.64 224.92 1376.49 490.89 1334.48 1256.14 746.61 1315.97 174.28 28.95 0.00 90.81 294.59 290.33 207.38 466.12 346.28 364.24 679.79 698.69 388.80 274.93 455.25 1042.86 152.77 96.98 274.83 92.06 202.91 666.61 1298.69 298.37 137.44 603.56 580.74 496.95 1213.67 1223.67 348.15 286.79 341.62 223.63 885.42 479.59 301.41 984.86 456.20 196.38 196.82 284.24 590.19 475.96 478.25 134.28 383.25 404.97 652.07 512.55 247.58 202.20 155.61 398.47 415.20 795.19 173.90 216.49 623.03 1253.19 843.85 228.63 352.83 380.10 215.62 735.97 351.58 1284.27 250.31 105.26 137.93 692.04 339.77 548.09 387.81 219.20 465.40 574.05
281.60 708.82 454.40 382.29 153.59 664.96 213.60 1399.64 506.71 1246.26 1227.84 731.14 1260.68 210.99 119.76 90.81 0.00 336.74 199.52 260.03 513.65 383.40 429.96 709.48 607.88 390.09 326.67 484.47 952.05 189.48 187.79 223.14 178.41 236.32 668.11 1282.05 332.11 207.84 645.08 625.19 467.31 1258.12 1314.48 438.96 357.61 375.03 314.44 844.73 502.74 359.79 989.82 450.97 212.20 238.34 284.13 681.00 385.15 507.94 181.81 426.75 495.78 602.15 462.63 292.03 283.71 198.47 421.62 451.91 796.69 123.98 293.77 532.22 1236.56 817.14 299.45 434.93 324.21 260.07 826.78 442.39 1249.01 291.90 90.41 220.03 693.54 289.85 467.12 459.94 128.39 483.55 492.14
175.64 680.57 190.00 96.21 212.94 585.64 123.14 1273.87 292.72 1256.66 1178.32 598.77 1194.23 162.51 308.83 294.59 336.74 0.00 416.43 329.58 287.88 116.41 231.80 608.03 831.90 643.01 158.61 182.97 1058.94 184.02 222.70 473.22 262.18 159.47 632.37 1220.87 200.75 203.86 390.75 461.99 401.91 1135.85 1128.63 417.06 147.69 286.95 292.54 865.33 376.97 52.50 854.88 356.93 160.99 174.31 69.18 543.52 357.96 406.49 181.85 288.21 480.40 541.13 445.24 116.02 124.19 165.90 314.45 213.39 710.09 229.33 321.46 837.65 1175.37 758.75 109.15 286.92 339.90 137.80 748.49 256.54 1162.53 127.33 349.15 220.07 606.94 388.03 644.86 249.86 447.63 193.12 464.95
459.14 509.30 590.35 440.76 203.49 556.58 391.14 1378.11 595.33 1319.93 1269.47 546.58 1343.61 355.76 299.90 290.33 199.52 416.43 0.00 161.39 573.00 446.52 578.24 569.00 574.51 323.01 494.31 599.40 1112.55 339.93 318.39 286.90 270.24 267.98 560.21 1284.14 509.65 324.14 744.22 646.72 520.23 1238.31 1364.95 574.66 503.01 400.41 450.14 819.05 481.21 452.85 928.77 482.68 305.26 388.79 347.25 879.22 474.30 367.46 313.71 461.19 365.46 526.54 387.02 380.63 399.15 312.14 400.09 543.50 686.08 240.28 422.78 538.20 1260.75 681.31 444.85 566.83 258.96 348.67 745.41 492.86 1311.95 337.61 219.42 351.93 582.93 105.29 338.29 484.43 148.40 609.55 448.52
372.29 610.59 485.61 386.83 116.64 502.74 304.29 1266.01 512.92 1266.09 1231.83 585.33 1201.43 254.16 236.33 207.38 260.03 329.58 161.39 0.00 519.07 359.67 491.39 612.37 620.34 466.17 407.46 512.55 1120.61 253.08 231.54 405.01 183.39 214.05 559.68 1230.30 382.15 219.91 661.56 585.54 408.13 1189.36 1272.57 555.53 416.16 351.46 431.01 869.67 369.11 348.11 932.71 370.58 218.41 301.94 260.40 792.37 436.40 417.47 226.86 432.15 449.68 513.05 373.53 252.38 312.30 210.54 287.99 456.65 688.26 136.05 402.32 593.66 1228.88 736.92 358.00 479.98 210.01 220.42 723.15 400.48 1169.73 254.95 311.24 265.08 585.11 144.04 473.64 364.25 218.22 514.76 435.03
308.85 737.89 133.86 226.27 402.43 633.51 365.29 1347.93 75.53 1262.53 1215.35 716.32 1166.40 358.59 465.89 466.12 513.65 287.88 573.00 519.07 0.00 171.47 326.09 718.52 818.65 690.42 252.22 163.93 1003.95 358.06 395.16 649.30 415.87 305.02 686.98 1226.74 367.30 377.90 274.58 359.88 405.40 1198.99 1132.12 582.01 256.43 349.94 509.13 975.82 451.03 250.16 945.40 451.42 370.04 363.56 270.74 562.51 443.22 598.32 331.84 291.70 688.44 538.01 530.50 318.42 331.45 394.80 403.50 117.67 815.56 417.36 485.85 962.24 1206.63 793.05 301.68 346.75 485.45 339.36 819.01 260.03 1134.70 335.37 476.70 370.06 712.41 583.23 832.89 278.03 500.40 163.01 550.21
205.57 699.75 198.66 54.80 243.03 573.00 228.92 1228.03 185.16 1183.45 1095.45 705.27 1104.52 232.70 324.34 346.28 383.40 116.41 446.52 359.67 171.47 0.00 154.62 639.91 872.39 673.10 186.43 215.70 942.53 250.83 297.58 477.83 309.78 214.07 650.62 1163.52 226.94 272.53 306.40 461.24 285.50 1095.74 1012.22 435.66 173.88 317.04 407.29 897.21 331.13 78.69 861.10 366.19 226.28 201.97 99.27 571.34 367.66 522.89 275.02 171.80 542.95 557.44 454.94 146.95 159.98 250.66 283.60 96.98 726.39 259.42 420.06 860.57 1086.73 775.05 153.92 313.11 374.73 167.89 780.43 140.13 1072.82 189.88 404.82 260.86 637.03 425.29 674.60 176.36 491.52 225.85 474.65
208.57 827.07 316.66 209.42 374.75 727.62 216.36 1382.65 339.78 1338.07 1250.07 788.30 1259.14 260.38 357.90 364.24 429.96 231.80 578.24 491.39 326.09 154.62 0.00 794.53 982.06 744.41 151.94 316.55 1097.15 270.69 327.85 518.76 351.49 340.96 776.16 1318.14 156.47 288.69 461.02 604.92 440.12 1250.36 1166.84 281.04 129.07 471.66 336.82 1031.14 485.75 182.64 950.80 517.90 281.55 267.53 253.89 529.89 493.20 638.29 264.53 326.42 662.83 652.07 580.48 293.94 187.66 290.94 435.31 242.56 815.85 365.43 333.21 943.33 1241.35 864.51 187.23 230.96 495.47 275.07 872.97 294.75 1227.44 309.76 438.38 226.31 791.65 528.08 780.96 259.12 545.37 326.70 600.19
737.28 103.60 700.55 694.71 613.40 272.52 693.27 841.64 722.01 973.12 894.78 95.78 951.22 614.75 701.01 679.79 709.48 608.03 569.00 612.37 718.52 639.91 794.53 0.00 274.46 493.74 740.50 718.06 864.39 593.24 622.32 806.37 670.47 620.26 52.69 937.33 745.79 608.05 830.65 619.19 417.81 852.31 1094.97 918.98 749.20 490.34 868.20 257.30 479.78 660.53 523.07 401.47 663.69 642.10 605.53 1125.41 335.65 201.54 619.46 468.11 370.28 180.51 320.03 570.23 687.47 641.10 454.35 682.19 170.92 636.46 769.99 316.04 891.83 219.58 691.04 800.25 439.83 602.19 355.08 499.78 968.09 607.06 747.98 585.35 67.77 470.59 347.90 536.01 602.13 728.21 364.24
885.85 236.06 869.63 845.21 688.54 451.95 817.85 1116.10 891.09 1105.58 1027.24 272.05 1090.07 764.78 727.64 698.69 607.88 831.90 574.51 620.34 818.65 872.39 982.06 274.46 0.00 517.09 869.93 899.70 1037.70 743.75 777.90 831.02 733.59 672.43 221.77 1069.79 913.92 735.61 1026.32 751.65 586.89 984.77 1306.64 1046.84 907.07 659.42 922.32 276.00 648.86 856.91 655.53 570.55 709.32 792.61 784.96 1254.84 504.73 465.72 717.53 742.57 390.82 392.18 496.50 749.66 803.21 726.24 653.14 875.36 350.35 651.75 882.41 146.72 1024.29 399.01 848.91 970.65 654.59 753.12 523.24 732.26 1100.55 742.06 679.05 755.75 247.20 565.82 236.22 768.49 541.83 898.78 435.00
572.06 524.98 768.85 633.08 450.47 645.92 528.05 1335.38 765.95 1394.50 1316.16 567.74 1378.99 531.79 417.75 388.80 390.09 643.01 323.01 466.17 690.42 673.10 744.41 493.74 517.09 0.00 628.69 788.59 1255.61 525.74 485.78 514.47 480.86 525.44 474.07 1358.71 646.56 497.54 883.62 854.54 568.69 1273.69 1442.40 736.95 667.45 486.46 612.43 682.88 529.67 660.14 944.45 531.14 532.37 476.88 573.83 978.99 596.96 577.25 523.08 538.64 464.26 674.25 662.75 599.73 571.54 488.17 448.55 770.08 590.40 413.68 605.29 370.37 1313.21 639.06 613.90 679.04 345.01 599.01 776.46 570.31 1389.47 588.78 480.50 526.73 499.50 322.13 313.77 606.54 378.94 798.00 703.95
56.63 746.36 235.91 177.93 290.82 621.21 113.07 1347.71 327.75 1204.19 1116.19 740.97 1215.43 173.56 245.98 274.93 326.67 158.61 494.31 407.46 252.22 186.43 151.94 740.50 869.93 628.69 0.00 216.91 1099.81 189.72 219.27 461.73 267.42 254.14 698.16 1184.26 119.36 215.33 388.95 479.81 466.91 1146.99 1193.63 355.63 68.33 392.85 299.71 915.42 450.81 107.74 909.13 452.28 189.05 151.81 197.83 384.91 516.57 565.10 203.40 353.21 589.83 643.53 592.45 170.27 100.84 204.12 369.69 247.69 775.88 278.61 233.63 833.88 1107.47 824.54 49.46 195.53 413.40 202.23 841.62 321.54 1183.73 236.92 326.46 210.70 672.73 435.58 694.14 285.31 450.56 206.76 590.31
273.54 728.84 30.07 187.89 395.91 684.70 270.87 1315.45 124.35 1232.32 1144.32 771.60 1182.67 333.21 442.48 455.25 484.47 182.97 599.40 512.55 163.93 215.70 316.55 718.06 899.70 788.59 216.91 0.00 1018.03 354.72 390.54 610.92 425.86 335.58 677.93 1212.39 263.51 362.43 230.82 318.33 420.22 1175.12 1153.71 469.72 187.48 395.62 345.20 975.36 418.55 167.57 882.61 467.42 315.16 322.04 252.15 455.18 502.38 589.46 355.54 249.95 663.37 658.13 588.40 274.70 266.78 339.54 384.83 131.75 804.54 412.30 443.87 980.26 1135.60 853.20 242.80 326.71 465.82 306.66 896.53 281.62 1150.97 310.30 522.79 317.32 703.36 561.69 827.83 311.46 612.86 10.15 609.37
1089.79 804.90 987.96 997.33 1089.12 734.87 1086.27 543.10 1001.60 294.21 275.79 889.47 308.63 1091.08 1071.81 1042.86 952.05 1058.94 1112.55 1120.61 1003.95 942.53 1097.15 864.39 1037.70 1255.61 1099.81 1018.03 0.00 1109.42 1086.02 1128.69 1130.46 1020.44 816.85 330.00 1085.12 1115.52 1128.56 853.89 910.16 318.26 501.69 1347.39 1116.41 930.82 1265.47 1041.30 964.86 1021.22 385.43 826.51 1086.37 1070.51 999.10 1462.14 890.22 1008.71 1091.36 770.73 1001.43 795.46 802.94 973.83 1102.51 1107.99 909.10 886.28 735.91 1073.50 1237.78 1037.05 284.51 713.71 1094.64 1245.80 910.60 985.50 514.46 802.40 296.96 950.81 1042.46 1053.14 835.46 1081.62 1122.14 838.63 1080.44 1017.11 824.21
144.04 683.46 330.94 205.06 136.44 629.84 100.03 1304.85 364.96 1262.84 1184.50 682.31 1192.45 21.51 160.27 152.77 189.48 184.02 339.93 253.08 358.06 250.83 270.69 593.24 743.75 525.74 189.72 354.72 1109.42 0.00 62.92 370.99 111.07 147.84 632.55 1227.05 170.17 63.08 455.60 499.33 410.10 1142.03 1182.28 325.74 198.42 286.55 285.89 812.47 407.95 193.44 914.80 401.13 70.45 48.86 198.95 574.63 390.54 461.73 26.22 338.69 450.00 600.52 461.00 175.94 94.23 47.86 326.83 262.43 754.59 122.35 249.08 675.54 1181.55 803.25 140.26 279.34 328.27 143.98 779.77 310.19 1222.45 158.61 231.11 64.44 651.44 288.22 537.88 318.19 304.95 344.57 493.61
162.64 620.54 360.47 267.98 114.90 602.73 162.95 1311.68 423.33 1298.91 1220.57 663.30 1228.84 81.51 125.93 96.98 187.79 222.70 318.39 231.54 395.16 297.58 327.85 622.32 777.90 485.78 219.27 390.54 1086.02 62.92 0.00 308.07 48.15 159.00 569.63 1263.12 233.09 51.57 518.52 545.17 435.11 1178.10 1219.05 337.16 258.03 297.71 315.21 875.39 414.78 222.97 889.49 412.29 128.82 111.78 198.31 604.18 453.46 524.65 63.32 315.29 387.08 608.16 468.64 150.63 154.23 58.63 362.90 322.43 698.21 129.99 216.54 720.01 1217.62 746.87 203.18 316.44 336.19 180.05 779.66 346.96 1197.14 158.50 185.07 101.54 595.06 295.86 545.52 376.56 242.03 389.62 530.14
418.08 796.20 590.88 423.03 326.67 779.19 350.08 1524.20 662.99 1422.90 1404.48 799.13 1437.32 376.76 303.78 274.83 223.14 473.22 286.90 405.01 649.30 477.83 518.76 806.37 831.02 514.47 461.73 610.92 1128.69 370.99 308.07 0.00 259.92 370.77 847.11 1458.69 362.29 333.01 777.12 816.58 666.32 1446.95 1430.37 443.55 473.84 509.48 319.03 1014.41 627.30 507.31 1190.89 624.06 409.46 401.25 470.43 843.74 608.29 631.27 346.88 589.95 567.53 809.01 669.49 458.70 442.55 339.27 546.18 572.50 970.52 330.84 228.10 701.90 1413.20 968.21 435.93 387.76 528.86 451.46 999.60 558.28 1425.65 440.40 228.66 385.10 867.37 357.84 625.19 522.05 351.53 620.03 715.28
210.79 668.69 405.75 283.63 66.75 554.58 211.10 1296.05 438.20 1310.40 1227.86 689.00 1276.99 126.17 121.01 92.06 178.41 262.18 270.24 183.39 415.87 309.78 351.49 670.47 733.59 480.86 267.42 425.86 1130.46 111.07 48.15 259.92 0.00 110.85 617.78 1274.61 281.24 73.09 566.67 556.66 447.79 1189.59 1205.48 385.31 291.62 249.56 315.69 837.18 399.15 268.25 937.64 364.14 161.01 159.93 210.51 652.33 429.96 478.61 86.96 360.56 384.34 560.01 420.49 198.78 187.58 96.28 343.14 367.09 746.36 81.84 218.93 697.28 1229.11 795.02 240.90 340.08 288.04 191.54 774.99 333.39 1245.29 180.48 136.92 125.18 643.21 247.71 497.37 340.80 193.88 425.37 481.99
237.89 627.27 349.47 172.78 97.41 482.00 234.44 1185.20 327.35 1199.55 1117.01 670.03 1182.43 126.33 231.86 202.91 236.32 159.47 267.98 214.05 305.02 214.07 340.96 620.26 672.43 525.44 254.14 335.58 1020.44 147.84 159.00 370.77 110.85 0.00 576.36 1163.76 270.84 135.38 476.24 445.81 336.94 1078.74 1138.27 460.15 291.30 138.71 390.71 749.42 288.30 211.97 851.51 253.29 130.38 183.27 149.31 639.05 319.11 418.72 173.58 249.71 422.70 498.45 358.93 112.65 153.30 133.82 246.06 287.33 699.04 112.34 329.78 727.08 1118.26 747.70 233.46 360.94 180.43 80.69 690.79 266.18 1150.73 69.63 247.77 189.79 601.79 278.21 527.87 229.95 304.73 345.73 409.15
705.04 50.91 647.86 684.26 655.81 230.18 688.31 894.33 669.32 920.43 842.09 93.67 904.92 651.14 695.56 666.61 668.11 632.37 560.21 559.68 686.98 650.62 776.16 52.69 221.77 474.07 698.16 677.93 816.85 632.55 569.63 847.11 617.78 576.36 0.00 884.64 774.72 621.20 841.17 566.50 365.12 799.62 1147.66 906.79 706.86 437.65 884.84 309.99 427.09 639.19 470.38 348.78 674.78 637.14 563.19 1083.07 282.96 243.95 632.95 520.80 412.69 233.20 370.24 527.89 667.91 628.26 431.37 653.59 128.58 683.25 786.17 302.33 839.14 177.24 648.70 846.09 482.24 559.85 302.39 510.49 915.40 594.54 754.70 638.04 25.43 517.38 400.59 546.72 644.54 677.01 311.55
1240.89 833.73 1242.46 1218.32 1256.07 727.56 1272.90 427.08 1151.21 35.79 68.07 918.30 138.85 1205.54 1314.79 1298.69 1282.05 1220.87 1284.14 1230.30 1226.74 1163.52 1318.14 937.33 1069.79 1358.71 1184.26 1212.39 330.00 1227.05 1263.12 1458.69 1274.61 1163.76 884.64 0.00 1303.62 1243.52 1297.43 1022.76 1003.59 85.02 548.61 1495.25 1245.21 1091.15 1403.07 1190.48 941.56 1226.33 715.43 931.79 1199.36 1262.48 1151.69 1465.53 996.01 1118.15 1251.73 1049.07 1081.17 909.84 950.52 1115.03 1202.08 1205.56 1014.38 1216.28 921.80 1268.40 1304.40 1184.26 76.79 970.46 1187.05 1379.79 1064.37 1083.07 844.46 1023.39 148.05 1117.76 1372.46 1269.00 907.36 1235.39 1285.23 1059.62 1361.40 1222.54 889.02
91.80 822.92 233.44 219.32 306.16 671.62 118.51 1388.22 336.16 1323.55 1235.55 799.52 1296.10 178.39 292.03 298.37 332.11 200.75 509.65 382.15 367.30 226.94 156.47 745.79 913.92 646.56 119.36 263.51 1085.12 170.17 233.09 362.29 281.24 270.84 774.72 1303.62 0.00 222.82 414.83 521.70 512.44 1266.35 1239.16 302.13 137.56 409.55 180.35 933.29 491.32 148.25 985.69 492.79 227.04 169.68 262.44 495.38 553.35 607.24 196.39 398.74 548.56 684.04 629.77 246.83 176.39 218.03 410.20 295.31 852.44 292.52 200.90 845.71 1226.83 901.10 126.02 160.68 451.27 278.79 892.03 367.07 1264.40 305.50 372.51 160.44 749.29 458.39 708.05 361.44 460.50 262.59 593.97
187.27 672.11 347.43 246.17 120.65 617.38 146.32 1320.58 402.66 1279.31 1200.97 691.02 1255.53 53.08 153.84 137.44 207.84 203.86 324.14 219.91 377.90 272.53 288.69 608.05 735.61 497.54 215.33 362.43 1115.52 63.08 51.57 333.01 73.09 135.38 621.20 1243.52 222.82 0.00 512.07 525.57 463.44 1158.50 1213.85 365.76 252.49 274.09 317.46 839.20 423.68 209.93 928.30 388.67 108.15 105.33 173.26 600.24 453.62 500.54 46.06 366.86 438.65 562.03 422.51 189.44 114.49 37.96 343.30 294.00 749.78 83.86 223.70 699.30 1198.02 798.44 200.00 277.28 315.81 160.45 816.30 341.76 1235.95 195.14 188.41 62.38 646.63 249.73 499.39 353.94 266.97 352.28 484.01
445.58 790.26 200.75 361.20 544.92 759.40 441.55 1133.76 199.05 1333.22 1266.98 874.83 1158.58 463.68 589.84 603.56 645.08 390.75 744.22 661.56 274.58 306.40 461.02 830.65 1026.32 883.62 388.95 230.82 1128.56 455.60 518.52 777.12 566.67 476.24 841.17 1297.43 414.83 512.07 0.00 274.67 540.77 1263.88 1048.94 683.62 408.42 511.46 576.02 1087.95 513.82 338.25 1053.29 624.42 485.84 406.74 405.67 674.93 585.41 732.95 481.82 464.30 759.68 782.37 642.85 449.55 437.46 503.46 572.59 252.30 953.13 565.82 615.73 1080.61 1266.54 962.27 413.48 547.65 642.97 441.30 816.87 432.63 1190.28 406.61 670.32 465.63 863.89 696.78 980.50 396.40 705.49 229.90 692.40
524.06 515.59 288.26 506.22 530.65 663.77 529.06 1331.27 390.98 1058.55 992.31 600.16 883.91 487.59 596.84 580.74 625.19 461.99 646.72 585.54 359.88 461.24 604.92 619.19 751.65 854.54 479.81 318.33 853.89 499.33 545.17 816.58 556.66 445.81 566.50 1022.76 521.70 525.57 274.67 0.00 405.55 989.21 1009.20 662.19 495.93 368.08 663.53 876.49 467.58 425.76 935.06 449.78 428.88 544.53 392.81 762.44 383.96 550.35 518.28 352.78 669.73 610.76 471.24 397.08 484.13 487.61 464.58 389.94 692.37 547.57 713.44 866.12 991.87 687.60 500.99 635.16 509.53 365.12 868.89 321.11 915.61 399.81 668.48 551.05 589.22 675.41 927.90 357.34 692.38 317.41 490.95
447.58 414.25 390.15 340.30 414.92 312.36 429.24 958.93 403.79 981.47 935.52 458.79 1034.76 425.46 525.90 496.95 467.31 401.91 520.23 408.13 405.40 285.50 440.12 417.81 586.89 568.69 466.91 420.22 910.16 410.10 435.11 666.32 447.79 336.94 365.12 1003.59 512.44 463.44 540.77 405.55 0.00 966.32 1017.46 674.88 418.65 211.62 653.04 675.11 62.03 364.19 686.83 83.65 419.28 458.96 356.73 851.82 82.16 237.39 436.32 177.04 367.93 308.96 169.44 334.95 422.00 425.48 120.14 288.47 493.70 418.95 627.56 667.45 926.80 542.36 439.42 557.88 313.59 302.99 532.77 145.37 1003.06 276.61 545.28 474.54 390.55 415.79 635.34 181.60 571.63 419.30 189.15
1189.07 748.71 1205.19 1150.54 1171.05 812.58 1206.79 342.06 1123.46 120.81 42.47 833.28 105.30 1120.52 1229.77 1213.67 1258.12 1135.85 1238.31 1189.36 1198.99 1095.74 1250.36 852.31 984.77 1273.69 1146.99 1175.12 318.26 1142.03 1178.10 1446.95 1189.59 1078.74 799.62 85.02 1266.35 1158.50 1263.88 989.21 966.32 0.00 516.34 1410.23 1208.98 1053.88 1365.80 1109.61 904.29 1141.31 683.22 906.19 1114.34 1177.46 1066.67 1380.51 958.74 1043.57 1166.71 987.28 1111.74 994.86 913.25 1030.01 1117.06 1120.54 985.41 1192.72 836.78 1183.38 1267.13 1099.24 39.52 885.44 1150.82 1324.70 979.35 998.05 832.72 955.61 115.78 1032.74 1301.41 1183.98 822.34 1150.37 1200.21 991.84 1276.38 1185.27 851.75
1217.79 1177.34 1124.31 1067.02 1222.15 1096.74 1155.96 855.19 1103.49 573.54 485.54 1092.77 425.56 1160.77 1252.62 1223.67 1314.48 1128.63 1364.95 1272.57 1132.12 1012.22 1166.84 1094.97 1306.64 1442.40 1193.63 1153.71 501.69 1182.28 1219.05 1430.37 1205.48 1138.27 1147.66 548.61 1239.16 1213.85 1048.94 1009.20 1017.46 516.34 0.00 1447.88 1186.10 1063.85 1379.76 1352.27 1063.09 1090.91 887.12 986.35 1156.06 1203.54 1089.00 1578.54 1052.17 1147.81 1208.02 903.76 1210.14 914.46 1053.98 1106.86 1172.20 1204.39 1015.56 1109.20 1218.16 1203.68 1354.28 1408.94 476.82 1169.50 1166.14 1325.33 1152.22 1107.64 1016.15 872.09 400.56 1083.84 1328.93 1224.23 1132.04 1259.66 1391.08 908.32 1399.36 1153.46 1100.46
299.00 957.54 499.79 433.08 452.06 898.18 328.05 1509.75 571.56 1531.04 1452.70 956.83 1509.38 333.82 319.20 348.15 438.96 417.06 574.66 555.53 582.01 435.66 281.04 918.98 1046.84 736.95 355.63 469.72 1347.39 325.74 337.16 443.55 385.31 460.15 906.79 1495.25 302.13 365.76 683.62 662.19 674.88 1410.23 1447.88 0.00 394.39 598.86 124.52 1040.49 612.85 420.08 1183.00 669.47 396.19 276.88 425.59 427.34 716.28 781.28 351.96 576.66 669.54 811.77 786.74 444.14 320.87 373.60 595.03 474.26 991.74 448.09 223.19 971.18 1449.75 1040.40 365.49 343.28 613.08 412.18 1026.22 575.79 1477.68 446.87 399.68 335.77 888.59 603.10 842.51 540.16 545.53 479.87 805.92
95.39 755.06 207.67 151.69 299.52 668.44 144.01 1335.16 310.39 1265.14 1177.14 746.46 1243.04 210.72 257.84 286.79 357.61 147.69 503.01 416.16 256.43 173.88 129.07 749.20 907.07 667.45 68.33 187.48 1116.41 198.42 258.03 473.84 291.62 291.30 706.86 1245.21 137.56 252.49 408.42 495.93 418.65 1208.98 1186.10 394.39 0.00 416.63 317.91 954.18 438.26 95.19 917.83 439.73 197.75 190.57 209.38 453.24 500.81 554.18 212.10 345.68 585.89 630.98 579.90 178.97 138.00 232.73 357.14 245.78 784.58 307.22 298.89 873.96 1175.80 833.24 58.16 139.23 366.40 210.93 853.98 314.01 1211.34 232.82 338.32 249.46 681.43 444.28 722.75 308.38 484.17 197.63 599.01
376.60 488.56 425.69 311.49 236.12 415.84 373.15 1046.49 354.54 1111.08 1023.08 531.32 1076.31 265.04 370.57 341.62 375.03 286.95 400.41 351.46 349.94 317.04 471.66 490.34 659.42 486.46 392.85 395.62 930.82 286.55 297.71 509.48 249.56 138.71 437.65 1091.15 409.55 274.09 511.46 368.08 211.62 1053.88 1063.85 598.86 416.63 0.00 528.74 747.64 149.59 331.96 768.12 187.13 269.09 321.98 217.77 777.76 252.95 379.74 312.29 160.09 463.92 381.19 265.43 237.66 292.01 272.53 107.35 349.07 566.23 251.05 468.49 739.98 1014.36 614.89 358.47 499.65 141.45 205.70 636.25 191.76 1061.11 208.34 386.48 328.50 463.08 312.47 559.82 227.99 412.74 405.77 270.44
272.15 935.75 375.27 388.75 377.93 839.20 223.80 1547.72 469.55 1423.00 1335.00 891.31 1434.24 264.38 194.68 223.63 314.44 292.54 450.14 431.01 509.13 407.29 336.82 868.20 922.32 612.43 299.71 345.20 1265.47 285.89 315.21 319.03 315.69 390.71 884.84 1403.07 180.35 317.46 576.02 663.53 653.04 1365.80 1379.76 124.52 317.91 528.74 0.00 1034.30 650.82 328.60 1139.44 644.00 332.33 270.69 361.72 546.80 650.50 694.15 311.63 539.34 628.60 798.87 679.79 400.58 287.31 308.00 569.70 410.29 985.55 341.14 98.67 846.66 1326.28 1034.21 306.37 258.33 548.56 386.85 901.70 507.67 1402.54 410.79 275.16 282.85 882.40 507.01 717.99 523.98 421.01 355.35 736.48
858.79 360.90 957.85 919.81 792.13 504.93 814.78 1098.94 979.31 1226.27 1152.08 353.08 1183.63 820.55 901.80 885.42 844.73 865.33 819.05 869.67 975.82 897.21 1031.14 257.30 276.00 682.88 915.42 975.36 1041.30 812.47 875.39 1014.41 837.18 749.42 309.99 1190.48 933.29 839.20 1087.95 876.49 675.11 1109.61 1352.27 1040.49 954.18 747.64 1034.30 0.00 737.08 913.94 655.87 658.77 779.14 763.61 837.94 1300.33 592.95 458.84 838.69 725.41 585.72 437.81 577.33 802.64 858.27 829.83 711.65 939.49 326.77 755.34 1007.14 312.51 1149.13 375.43 900.63 1037.40 697.13 830.11 548.22 757.08 1215.33 819.05 930.53 822.50 300.18 727.89 512.22 793.31 817.83 985.51 591.71
408.56 476.28 443.22 331.55 371.86 310.05 472.71 896.90 465.82 961.49 873.49 520.76 972.73 386.44 495.69 479.59 502.74 376.97 481.21 369.11 451.03 331.13 485.75 479.78 648.86 529.67 450.81 418.55 964.86 407.95 414.78 627.30 399.15 288.30 427.09 941.56 491.32 423.68 513.82 467.58 62.03 904.29 1063.09 612.85 438.26 149.59 650.82 737.08 0.00 343.07 715.09 145.68 380.26 443.38 332.59 835.72 144.13 299.42 432.63 194.13 429.90 354.96 231.41 295.93 382.98 386.46 81.12 350.50 555.67 379.93 574.64 632.33 864.77 604.33 416.74 577.49 251.56 263.97 530.46 191.00 941.03 298.66 536.07 449.90 452.52 422.58 669.93 227.23 545.12 428.70 251.12
141.72 687.39 137.50 84.28 249.36 573.25 161.08 1239.97 240.22 1262.12 1174.14 651.27 1147.85 171.93 274.91 301.41 359.79 52.50 452.85 348.11 250.16 78.69 182.64 660.53 856.91 660.14 107.74 167.57 1021.22 193.44 222.97 507.31 268.25 211.97 639.19 1226.33 148.25 209.93 338.25 425.76 364.19 1141.31 1090.91 420.08 95.19 331.96 328.60 913.94 343.07 0.00 850.16 344.54 147.59 193.87 114.19 492.65 410.36 458.99 207.84 250.49 531.02 535.79 484.71 111.30 99.21 171.97 261.95 168.90 716.91 246.46 341.37 843.74 1165.42 765.57 75.23 234.42 392.40 143.26 793.66 218.82 1116.15 177.95 355.22 217.56 613.76 394.12 661.99 213.19 445.77 166.65 517.35
916.01 419.47 852.54 895.23 930.30 469.30 915.64 538.61 943.05 679.64 652.42 504.04 694.06 893.29 955.91 984.86 989.82 854.88 928.77 932.71 945.40 861.10 950.80 523.07 655.53 944.45 909.13 882.61 385.43 914.80 889.49 1190.89 937.64 851.51 470.38 715.43 985.69 928.30 1053.29 935.06 686.83 683.22 887.12 1183.00 917.83 768.12 1139.44 655.87 715.09 850.16 0.00 670.49 885.75 950.23 786.54 1294.04 604.67 714.33 923.17 752.64 757.67 492.54 559.18 738.86 889.83 893.31 753.08 827.73 377.87 897.83 1077.83 651.62 643.70 329.21 859.67 1057.06 877.42 770.82 248.89 720.97 682.39 805.51 1036.39 893.19 481.02 904.26 736.71 691.68 1009.27 881.69 497.68
410.03 399.69 473.80 357.43 350.70 228.71 443.76 1042.58 452.18 951.72 863.72 442.45 972.12 379.62 485.15 456.20 450.97 356.93 482.68 370.58 451.42 366.19 517.90 401.47 570.55 531.14 452.28 467.42 826.51 401.13 412.29 624.06 364.14 253.29 348.78 931.79 492.79 388.67 624.42 449.78 83.65 906.19 986.35 669.47 439.73 187.13 644.00 658.77 145.68 344.54 670.49 0.00 381.73 392.59 334.06 837.19 65.82 232.21 426.87 253.02 328.05 273.16 140.17 297.40 384.45 387.11 82.59 372.12 477.36 365.63 583.07 618.75 872.44 519.10 418.21 505.85 266.35 265.44 449.12 226.06 948.70 300.13 501.06 443.08 374.21 437.37 630.16 258.78 546.59 457.27 172.81
176.53 722.98 285.09 231.87 101.77 610.44 108.53 1277.16 294.51 1235.15 1156.81 687.82 1219.64 77.44 223.45 196.38 212.20 160.99 305.26 218.41 370.04 226.28 281.55 663.69 709.32 532.37 189.05 315.16 1086.37 70.45 128.82 409.46 161.01 130.38 674.78 1199.36 227.04 108.15 485.84 428.88 419.28 1114.34 1156.06 396.19 197.75 269.09 332.33 779.14 380.26 147.59 885.75 381.73 0.00 119.31 136.53 573.96 444.51 513.63 89.40 315.64 400.78 572.98 457.34 146.89 93.89 70.19 299.14 316.49 752.50 118.69 306.85 696.15 1153.86 801.16 139.59 301.53 310.81 116.29 772.14 283.97 1193.40 150.98 253.44 123.79 649.35 246.53 528.49 247.74 298.18 314.24 518.84
95.18 685.34 291.97 156.20 185.30 621.30 51.17 1340.28 349.49 1298.27 1219.93 679.95 1232.50 56.94 183.10 196.82 238.34 174.31 388.79 301.94 363.56 201.97 267.53 642.10 792.61 476.88 151.81 322.04 1070.51 48.86 111.78 401.25 159.93 183.27 637.14 1262.48 169.68 105.33 406.74 544.53 458.96 1177.46 1203.54 276.88 190.57 321.98 270.69 763.61 443.38 193.87 950.23 392.59 119.31 0.00 181.21 536.72 439.40 504.40 75.08 299.78 498.86 626.24 509.86 211.37 94.66 96.72 362.26 297.86 714.86 171.21 243.53 724.40 1216.98 763.52 137.02 273.79 336.20 179.41 828.63 331.45 1200.80 207.47 263.58 58.89 611.71 326.22 573.76 351.35 298.75 321.12 529.04
189.31 611.39 251.69 143.58 143.76 562.77 192.32 1229.49 284.43 1187.48 1109.14 606.00 1125.89 177.44 300.34 284.24 284.13 69.18 347.25 260.40 270.74 99.27 253.89 605.53 784.96 573.83 197.83 252.15 999.10 198.95 198.31 470.43 210.51 149.31 563.19 1151.69 262.44 173.26 405.67 392.81 356.73 1066.67 1089.00 425.59 209.38 217.77 361.72 837.94 332.59 114.19 786.54 334.06 136.53 181.21 0.00 573.75 352.88 475.67 219.32 228.37 443.68 471.95 440.16 47.68 104.72 180.15 251.47 196.25 640.91 160.15 386.65 775.59 1106.19 689.57 168.49 297.65 329.74 68.62 711.77 216.91 1094.19 90.61 335.34 202.01 537.76 326.02 575.68 180.68 392.25 262.30 459.87
441.54 1131.27 474.18 562.84 675.73 1006.12 497.98 1722.57 576.90 1501.32 1422.98 1125.88 1485.81 558.47 619.14 590.19 681.00 543.52 879.22 792.37 562.51 571.34 529.89 1125.41 1254.84 978.99 384.91 455.18 1462.14 574.63 604.18 843.74 652.33 639.05 1083.07 1465.53 495.38 600.24 674.93 762.44 851.82 1380.51 1578.54 427.34 453.24 777.76 546.80 1300.33 835.72 492.65 1294.04 837.19 573.96 536.72 573.75 0.00 901.48 950.01 588.31 705.13 974.74 1028.44 977.36 555.18 485.75 589.03 754.60 575.86 1160.79 663.52 615.64 1213.22 1420.03 1209.45 434.37 455.98 798.31 587.14 1226.53 706.45 1496.29 621.83 695.45 595.61 1057.64 820.49 1079.05 670.22 809.39 445.03 975.22
475.85 333.87 472.31 422.46 416.52 279.81 467.01 1041.03 386.36 980.78 927.94 376.63 1027.18 412.05 504.91 475.96 385.15 357.96 474.30 436.40 443.22 367.66 493.20 335.65 504.73 596.96 516.57 502.38 890.22 390.54 453.46 608.29 429.96 319.11 282.96 996.01 553.35 453.62 585.41 383.96 82.16 958.74 1052.17 716.28 500.81 252.95 650.50 592.95 144.13 410.36 604.67 65.82 444.51 439.40 352.88 901.48 0.00 166.39 416.76 259.20 285.77 226.80 87.28 363.22 450.27 438.40 148.41 370.63 411.54 425.93 639.62 585.29 919.22 460.20 467.11 571.67 332.17 331.26 500.22 227.53 995.48 358.77 475.56 454.98 308.39 377.92 564.34 263.76 489.47 501.46 106.99
581.65 294.86 582.33 502.70 411.86 415.63 529.63 1043.18 552.75 1132.51 1050.08 297.32 1148.87 447.46 499.47 478.25 507.94 406.49 367.46 417.47 598.32 522.89 638.29 201.54 465.72 577.25 565.10 589.46 1008.71 461.73 524.65 631.27 478.61 418.72 243.95 1118.15 607.24 500.54 732.95 550.35 237.39 1043.57 1147.81 781.28 554.18 379.74 694.15 458.84 299.42 458.99 714.33 232.21 513.63 504.40 475.67 950.01 166.39 0.00 487.95 393.29 168.74 233.35 205.77 472.17 520.18 491.08 314.80 480.65 372.46 439.30 694.74 517.58 1058.80 421.12 515.64 693.41 238.29 440.21 514.35 382.76 1135.06 405.52 546.44 510.92 269.31 273.43 397.95 414.24 400.59 599.61 258.72
170.18 683.86 345.34 220.22 110.22 641.54 126.25 1329.53 383.91 1287.52 1209.18 656.40 1218.67 47.25 134.05 134.28 181.81 181.85 313.71 226.86 331.84 275.02 264.53 619.46 717.53 523.08 203.40 355.54 1091.36 26.22 63.32 346.88 86.96 173.58 632.95 1251.73 196.39 46.06 481.82 518.28 436.32 1166.71 1208.02 351.96 212.10 312.29 311.63 838.69 432.63 207.84 923.17 426.87 89.40 75.08 219.32 588.31 416.76 487.95 0.00 364.91 450.40 601.20 461.68 184.31 119.97 62.96 351.51 288.17 761.53 123.03 222.86 701.76 1206.23 810.19 153.94 253.12 331.51 168.66 805.99 335.93 1230.82 184.83 214.53 38.22 658.38 288.90 538.56 337.14 280.84 365.69 519.35
377.37 571.71 280.02 226.60 318.39 464.54 315.54 1091.03 356.96 1064.94 986.00 563.89 932.72 320.35 412.20 383.25 426.75 288.21 461.19 432.15 291.70 171.80 326.42 468.11 742.57 538.64 353.21 249.95 770.73 338.69 315.29 589.95 360.56 249.71 520.80 1049.07 398.74 366.86 464.30 352.78 177.04 987.28 903.76 576.66 345.68 160.09 539.34 725.41 194.13 250.49 752.64 253.02 315.64 299.78 228.37 705.13 259.20 393.29 364.91 0.00 523.68 408.18 346.48 203.10 331.78 337.26 170.43 268.78 554.59 302.77 513.86 752.11 977.28 603.25 323.91 484.91 283.98 214.77 671.97 31.67 901.02 180.08 448.75 357.43 535.88 355.90 685.50 67.90 506.20 260.10 366.19
549.72 426.21 668.52 500.81 400.66 353.61 509.31 1211.92 670.71 1116.96 1080.94 341.64 1140.68 468.59 433.92 404.97 495.78 480.40 365.46 449.68 688.44 542.95 662.83 370.28 390.82 464.26 589.83 663.37 1001.43 450.00 387.08 567.53 384.34 422.70 412.69 1081.17 548.56 438.65 759.68 669.73 367.93 1111.74 1210.14 669.54 585.89 463.92 628.60 585.72 429.90 531.02 757.67 328.05 400.78 498.86 443.68 974.74 285.77 168.74 450.40 523.68 0.00 338.01 198.49 419.72 494.67 445.71 403.62 570.77 436.38 409.56 603.27 537.54 1072.22 485.04 540.37 673.67 407.03 387.76 574.02 492.01 1108.98 353.07 415.03 458.77 409.88 305.64 566.69 455.78 501.48 673.52 259.99
601.28 262.88 669.53 612.24 514.96 182.28 575.07 1022.15 613.16 945.63 977.91 178.31 969.35 579.16 624.63 652.07 602.15 541.13 526.54 513.05 538.01 557.44 652.07 180.51 392.18 674.25 643.53 658.13 795.46 600.52 608.16 809.01 560.01 498.45 233.20 909.84 684.04 562.03 782.37 610.76 308.96 994.86 914.46 811.77 630.98 381.19 798.87 437.81 354.96 535.79 492.54 273.16 572.98 626.24 471.95 1028.44 226.80 233.35 601.20 408.18 338.01 0.00 139.52 488.65 575.70 552.66 273.84 597.43 303.70 478.17 773.39 494.48 986.63 255.04 609.46 769.60 471.64 456.69 281.00 417.31 937.65 491.38 653.36 624.41 217.58 506.78 476.62 410.56 633.94 648.52 186.00
550.20 322.14 559.59 497.60 375.44 230.78 539.69 1097.79 473.64 935.29 882.45 317.83 981.69 456.76 485.11 512.55 462.63 445.24 387.02 373.53 530.50 454.94 580.48 320.03 496.50 662.75 592.45 588.40 802.94 461.00 468.64 669.49 420.49 358.93 370.24 950.52 629.77 422.51 642.85 471.24 169.44 913.25 1053.98 786.74 579.90 265.43 679.79 577.33 231.41 484.71 559.18 140.17 457.34 509.86 440.16 977.36 87.28 205.77 461.68 346.48 198.49 139.52 0.00 437.57 512.23 413.14 222.76 457.91 340.11 338.65 639.42 536.56 873.73 388.77 554.39 646.02 354.76 405.61 420.52 314.81 949.99 428.56 513.84 484.89 357.10 422.48 603.72 351.04 535.42 588.74 61.50
177.15 576.09 248.80 156.37 191.44 526.11 176.78 1192.83 332.11 1150.82 1072.48 570.70 1078.21 154.43 263.68 247.58 292.03 116.02 380.63 252.38 318.42 146.95 293.94 570.23 749.66 599.73 170.27 274.70 973.83 175.94 150.63 458.70 198.78 112.65 527.89 1115.03 246.83 189.44 449.55 397.08 334.95 1030.01 1106.86 444.14 178.97 237.66 400.58 802.64 295.93 111.30 738.86 297.40 146.89 211.37 47.68 555.18 363.22 472.17 184.31 203.10 419.72 488.65 437.57 0.00 150.97 154.45 214.81 243.93 605.61 186.05 338.97 779.36 1069.53 654.27 120.81 318.20 293.08 31.96 687.81 234.77 1046.51 66.65 329.28 154.33 502.46 351.92 601.58 228.36 359.22 264.55 420.04
84.59 716.11 236.71 157.27 195.66 613.16 93.46 1279.88 339.43 1237.87 1159.53 704.58 1222.36 72.72 231.15 202.20 283.71 124.19 399.15 312.30 331.45 159.98 187.66 687.47 803.21 571.54 100.84 266.78 1102.51 94.23 154.23 442.55 187.58 153.30 667.91 1202.08 176.39 114.49 437.46 484.13 422.00 1117.06 1172.20 320.87 138.00 292.01 287.31 858.27 382.98 99.21 889.83 384.45 93.89 94.66 104.72 485.75 450.27 520.18 119.97 331.78 494.67 575.70 512.23 150.97 0.00 103.28 301.86 236.83 745.63 177.77 291.78 769.77 1156.58 794.29 114.01 207.64 312.56 119.01 774.86 300.11 1197.48 153.70 286.53 118.35 642.48 340.42 593.30 285.40 381.46 265.86 544.82
177.81 679.17 309.47 252.92 108.65 615.82 147.89 1283.36 364.70 1241.35 1163.01 681.65 1225.84 43.62 173.04 155.61 198.47 165.90 312.14 210.54 394.80 250.66 290.94 641.10 726.24 488.17 204.12 339.54 1107.99 47.86 58.63 339.27 96.28 133.82 628.26 1205.56 218.03 37.96 503.46 487.61 425.48 1120.54 1204.39 373.60 232.73 272.53 308.00 829.83 386.46 171.97 893.31 387.11 70.19 96.72 180.15 589.03 438.40 491.08 62.96 337.26 445.71 552.66 413.14 154.45 103.28 0.00 305.34 284.54 753.25 74.49 261.66 689.93 1160.06 801.91 174.57 310.92 314.25 122.49 778.34 332.30 1200.96 157.18 183.25 100.34 651.60 240.36 490.02 317.93 281.73 338.62 474.64
327.44 482.28 395.69 338.40 335.60 311.30 391.59 978.02 461.89 1034.31 946.31 452.15 1053.85 305.32 414.57 398.47 421.62 314.45 400.09 287.99 403.50 283.60 435.31 454.35 653.14 448.55 369.69 384.83 909.10 326.83 362.90 546.18 343.14 246.06 431.37 1014.38 410.20 343.30 572.59 464.58 120.14 985.41 1015.56 595.03 357.14 107.35 569.70 711.65 81.12 261.95 753.08 82.59 299.14 362.26 251.47 754.60 148.41 314.80 351.51 170.43 403.62 273.84 222.76 214.81 301.86 305.34 0.00 380.58 559.95 298.81 553.42 701.34 945.89 528.88 335.62 496.37 206.43 182.85 531.71 143.47 1022.15 217.54 465.79 368.78 456.80 361.00 624.80 176.19 464.00 374.68 255.40
203.51 702.72 101.68 149.47 340.01 600.83 271.51 1247.40 115.32 1180.49 1162.07 747.26 1194.91 240.92 421.32 415.20 451.91 213.39 543.50 456.65 117.67 96.98 242.56 682.19 875.36 770.08 247.69 131.75 886.28 262.43 322.43 572.50 367.09 287.33 653.59 1216.28 295.31 294.00 252.30 389.94 288.47 1192.72 1109.20 474.26 245.78 349.07 410.29 939.49 350.50 168.90 827.73 372.12 316.49 297.86 196.25 575.86 370.63 480.65 288.17 268.78 570.77 597.43 457.91 243.93 236.83 284.54 380.58 0.00 782.17 356.40 469.83 932.74 1170.79 830.83 244.13 385.01 467.76 252.39 764.78 237.11 1169.80 217.70 467.79 304.38 679.02 507.87 732.83 250.29 543.82 130.83 477.62
782.76 176.78 776.44 761.98 715.55 268.62 766.03 792.41 797.90 957.59 873.01 171.39 942.08 733.08 824.14 795.19 796.69 710.09 686.08 688.26 815.56 726.39 815.85 170.92 350.35 590.40 775.88 804.54 735.91 754.59 698.21 970.52 746.36 699.04 128.58 921.80 852.44 749.78 953.13 692.37 493.70 836.78 1218.16 991.74 784.58 566.23 985.55 326.77 555.67 716.91 377.87 477.36 752.50 714.86 640.91 1160.79 411.54 372.46 761.53 554.59 436.38 303.70 340.11 605.61 745.63 753.25 559.95 782.17 0.00 678.76 914.75 380.05 876.30 48.66 726.42 923.81 610.75 637.57 221.45 586.26 952.56 672.26 817.80 737.91 103.15 612.68 518.82 556.73 737.41 805.59 401.61
252.30 650.66 383.96 285.12 36.79 569.43 201.04 1276.83 413.20 1273.94 1221.10 607.16 1235.49 118.11 146.46 173.90 123.98 229.33 240.28 136.05 417.36 259.42 365.43 636.46 651.75 413.68 278.61 412.30 1073.50 122.35 129.99 330.84 81.84 112.34 683.25 1268.40 292.52 83.86 565.82 547.57 418.95 1183.38 1203.68 448.09 307.22 251.05 341.14 755.34 379.93 246.46 897.83 365.63 118.69 171.21 160.15 663.52 425.93 439.30 123.03 302.77 409.56 478.17 338.65 186.05 177.77 74.49 298.81 356.40 678.76 0.00 300.77 615.44 1212.38 727.42 249.06 361.14 258.08 185.33 759.17 334.44 1203.79 175.10 175.19 146.24 675.40 165.87 415.53 340.83 232.45 413.11 400.15
266.32 837.08 434.34 399.73 285.68 773.51 198.32 1471.54 537.06 1324.33 1236.33 865.77 1335.57 248.10 245.44 216.49 293.77 321.46 422.78 402.32 485.85 420.06 333.21 769.99 882.41 605.29 233.63 443.87 1237.78 249.08 216.54 228.10 218.93 329.78 786.17 1304.40 200.90 223.70 615.73 713.44 627.56 1267.13 1354.28 223.19 298.89 468.49 98.67 1007.14 574.64 341.37 1077.83 583.07 306.85 243.53 386.65 615.64 639.62 694.74 222.86 513.86 603.27 773.39 639.42 338.97 291.78 261.66 553.42 469.83 914.75 300.77 0.00 825.99 1227.61 963.41 283.09 159.66 506.97 370.57 952.46 482.19 1303.87 358.54 203.36 184.64 811.60 466.64 646.19 498.50 349.21 440.39 700.92
813.82 350.53 950.19 880.60 652.23 466.27 745.82 1157.68 971.65 1220.05 1141.71 345.14 1160.35 697.05 651.98 623.03 532.22 837.65 538.20 593.66 962.24 860.57 943.33 316.04 146.72 370.37 833.88 980.26 1037.05 675.54 720.01 701.90 697.28 727.08 302.33 1184.26 845.71 699.30 1080.61 866.12 667.45 1099.24 1408.94 971.18 873.96 739.98 846.66 312.51 632.33 843.74 651.62 618.75 696.15 724.40 775.59 1213.22 585.29 517.58 701.76 752.11 537.54 494.48 536.56 779.36 769.77 689.93 701.34 932.74 380.05 615.44 825.99 0.00 1138.76 428.71 815.80 954.88 618.28 774.48 597.90 720.44 1192.05 739.79 622.63 739.98 276.90 449.62 199.91 684.21 660.61 979.34 561.15
1164.10 788.23 1165.67 1141.53 1210.57 804.35 1213.55 378.37 1162.98 96.72 8.72 872.80 107.96 1160.04 1269.29 1253.19 1236.56 1175.37 1260.75 1228.88 1206.63 1086.73 1241.35 891.83 1024.29 1313.21 1107.47 1135.60 284.51 1181.55 1217.62 1413.20 1229.11 1118.26 839.14 76.79 1226.83 1198.02 1266.54 991.87 926.80 39.52 476.82 1449.75 1175.80 1014.36 1326.28 1149.13 864.77 1165.42 643.70 872.44 1153.86 1216.98 1106.19 1420.03 919.22 1058.80 1206.23 977.28 1072.22 986.63 873.73 1069.53 1156.58 1160.06 945.89 1170.79 876.30 1212.38 1227.61 1138.76 0.00 924.96 1127.70 1303.00 1018.87 1037.57 798.97 946.60 76.26 1072.26 1326.97 1223.50 861.86 1189.89 1239.73 982.83 1315.90 1145.75 812.23
831.42 172.01 825.10 810.64 764.21 310.15 814.69 841.07 846.56 1006.25 921.67 179.37 990.74 781.74 872.80 843.85 817.14 758.75 681.31 736.92 793.05 775.05 864.51 219.58 399.01 639.06 824.54 853.20 713.71 803.25 746.87 968.21 795.02 747.70 177.24 970.46 901.10 798.44 962.27 687.60 542.36 885.44 1169.50 1040.40 833.24 614.89 1034.21 375.43 604.33 765.57 329.21 519.10 801.16 763.52 689.57 1209.45 460.20 421.12 810.19 603.25 485.04 255.04 388.77 654.27 794.29 801.91 528.88 830.83 48.66 727.42 963.41 428.71 924.96 0.00 775.08 972.47 659.41 686.23 199.25 634.92 1001.22 720.92 834.60 786.57 151.81 620.66 515.29 605.39 688.75 854.25 408.02
66.49 696.90 212.73 128.47 241.36 646.92 85.85 1313.64 315.45 1206.98 1118.98 691.51 1199.02 161.77 199.68 228.63 299.45 109.15 444.85 358.00 301.68 153.92 187.23 691.04 848.91 613.90 49.46 242.80 1094.64 140.26 203.18 435.93 240.90 233.46 648.70 1187.05 126.02 200.00 413.48 500.99 439.42 1150.82 1166.14 365.49 58.16 358.47 306.37 900.63 416.74 75.23 859.67 418.21 139.59 137.02 168.49 434.37 467.11 515.64 153.94 323.91 540.37 609.46 554.39 120.81 114.01 174.57 335.62 244.13 726.42 249.06 283.09 815.80 1127.70 775.08 0.00 197.39 413.89 152.77 808.62 294.05 1167.32 187.46 280.16 192.16 623.27 386.12 664.59 288.42 426.01 241.88 540.85
217.04 894.29 346.90 290.92 363.34 734.56 228.75 1474.39 422.28 1399.72 1311.72 885.69 1382.27 278.36 346.49 352.83 434.93 286.92 566.83 479.98 346.75 313.11 230.96 800.25 970.65 679.04 195.53 326.71 1245.80 279.34 316.44 387.76 340.08 360.94 846.09 1379.79 160.68 277.28 547.65 635.16 557.88 1324.70 1325.33 343.28 139.23 499.65 258.33 1037.40 577.49 234.42 1057.06 505.85 301.53 273.79 297.65 455.98 571.67 693.41 253.12 484.91 673.67 769.60 646.02 318.20 207.64 310.92 496.37 385.01 923.81 361.14 159.66 954.88 1303.00 972.47 197.39 0.00 505.63 326.65 954.97 453.24 1350.57 361.34 363.02 214.90 820.66 527.01 776.67 447.61 488.03 336.86 646.40
395.10 533.15 484.82 341.98 221.29 495.06 387.37 1148.46 495.99 1100.16 1021.82 535.61 1084.65 306.76 353.88 380.10 324.21 339.90 258.96 210.01 485.45 374.73 495.47 439.83 654.59 345.01 413.40 465.82 910.60 328.27 336.19 528.86 288.04 180.43 482.24 1064.37 451.27 315.81 642.97 509.53 313.59 979.35 1152.22 613.08 366.40 141.45 548.56 697.13 251.56 392.40 877.42 266.35 310.81 336.20 329.74 798.31 332.17 238.29 331.51 283.98 407.03 471.64 354.76 293.08 312.56 314.25 206.43 467.76 610.75 258.08 506.97 618.28 1018.87 659.41 413.89 505.63 0.00 261.12 628.53 280.13 1095.13 250.06 414.62 369.73 507.60 171.02 418.37 279.00 297.03 455.67 411.89
191.02 608.05 280.76 188.33 173.00 494.15 208.74 1160.87 353.05 1118.86 1040.52 602.66 1103.35 122.47 231.72 215.62 260.07 137.80 348.67 220.42 339.36 167.89 275.07 602.19 753.12 599.01 202.23 306.66 985.50 143.98 180.05 451.46 191.54 80.69 559.85 1083.07 278.79 160.45 441.30 365.12 302.99 998.05 1107.64 412.18 210.93 205.70 386.85 830.11 263.97 143.26 770.82 265.44 116.29 179.41 68.62 587.14 331.26 440.21 168.66 214.77 387.76 456.69 405.61 31.96 119.01 122.49 182.85 252.39 637.57 185.33 370.57 774.48 1037.57 686.23 152.77 326.65 261.12 0.00 655.85 235.55 1078.47 34.69 303.36 185.93 534.42 324.86 600.86 238.50 327.26 296.51 438.25
846.87 353.30 866.46 806.55 759.47 220.41 808.15 787.50 780.76 808.67 790.25 378.62 823.09 778.32 707.02 735.97 826.78 748.49 745.41 723.15 819.01 780.43 872.97 355.08 523.24 776.46 841.62 896.53 514.46 779.77 779.66 999.60 774.99 690.79 302.39 844.46 892.03 816.30 816.87 868.89 532.77 832.72 1016.15 1026.22 853.98 636.25 901.70 548.22 530.46 793.66 248.89 449.12 772.14 828.63 711.77 1226.53 500.22 514.35 805.99 671.97 574.02 281.00 420.52 687.81 774.86 778.34 531.71 764.78 221.45 759.17 952.46 597.90 798.97 199.25 808.62 954.97 628.53 655.85 0.00 640.30 811.42 621.16 787.50 827.25 321.00 745.08 702.98 613.85 888.00 895.61 393.23
345.70 559.62 252.22 194.93 350.06 432.87 283.87 1087.90 325.29 1043.32 955.32 565.41 964.39 288.68 380.53 351.58 442.39 256.54 492.86 400.48 260.03 140.13 294.75 499.78 732.26 570.31 321.54 281.62 802.40 310.19 346.96 558.28 333.39 266.18 510.49 1023.39 367.07 341.76 432.63 321.11 145.37 955.61 872.09 575.79 314.01 191.76 507.67 757.08 191.00 218.82 720.97 226.06 283.97 331.45 216.91 706.45 227.53 382.76 335.93 31.67 492.01 417.31 314.81 234.77 300.11 332.30 143.47 237.11 586.26 334.44 482.19 720.44 946.60 634.92 294.05 453.24 280.13 235.55 640.30 0.00 932.69 211.75 456.84 352.14 535.92 387.57 698.50 36.23 527.27 281.37 334.52
1223.66 864.49 1181.04 1127.62 1219.41 755.37 1216.56 454.63 1204.08 172.98 84.98 949.06 31.70 1200.94 1310.19 1284.27 1249.01 1162.53 1311.95 1169.73 1134.70 1072.82 1227.44 968.09 1100.55 1389.47 1183.73 1150.97 296.96 1222.45 1197.14 1425.65 1245.29 1150.73 915.40 148.05 1264.40 1235.95 1190.28 915.61 1003.06 115.78 400.56 1477.68 1211.34 1061.11 1402.54 1215.33 941.03 1116.15 682.39 948.70 1193.40 1200.80 1094.19 1496.29 995.48 1135.06 1230.82 901.02 1108.98 937.65 949.99 1046.51 1197.48 1200.96 1022.15 1169.80 952.56 1203.79 1303.87 1192.05 76.26 1001.22 1167.32 1350.57 1095.13 1078.47 811.42 932.69 0.00 1081.10 1339.42 1200.84 915.15 1256.92 1315.99 968.92 1377.40 1161.12 888.49
225.71 642.74 315.45 223.02 138.31 528.84 186.99 1195.56 333.02 1153.55 1075.21 637.35 1112.80 157.16 266.41 250.31 291.90 127.33 337.61 254.95 335.37 189.88 309.76 607.06 742.06 588.78 236.92 310.30 950.81 158.61 158.50 440.40 180.48 69.63 594.54 1117.76 305.50 195.14 406.61 399.81 276.61 1032.74 1083.84 446.87 232.82 208.34 410.79 819.05 298.66 177.95 805.51 300.13 150.98 207.47 90.61 621.83 358.77 405.52 184.83 180.08 353.07 491.38 428.56 66.65 153.70 157.18 217.54 217.70 672.26 175.10 358.54 739.79 1072.26 720.92 187.46 361.34 250.06 34.69 621.16 211.75 1081.10 0.00 268.67 206.09 569.11 290.17 590.63 247.98 326.12 320.45 421.57
318.67 728.72 492.72 396.74 203.67 691.50 304.01 1432.97 547.95 1336.67 1318.25 735.28 1351.09 226.87 80.48 105.26 90.41 349.15 219.42 311.24 476.70 404.82 438.38 747.98 679.05 480.50 326.46 522.79 1042.46 231.11 185.07 228.66 136.92 247.77 754.70 1372.46 372.51 188.41 670.32 668.48 545.28 1301.41 1328.93 399.68 338.32 386.48 275.16 930.53 536.07 355.22 1036.39 501.06 253.44 263.58 335.34 695.45 475.56 546.44 214.53 448.75 415.03 653.36 513.84 329.28 286.53 183.25 465.79 467.79 817.80 175.19 203.36 622.63 1326.97 834.60 280.16 363.02 414.62 303.36 787.50 456.84 1339.42 268.67 0.00 212.07 780.13 324.71 442.83 447.46 145.85 521.87 575.34
154.07 688.95 347.39 215.09 148.44 665.62 110.06 1346.80 364.03 1304.79 1226.45 681.13 1232.54 63.46 131.59 137.93 220.03 220.07 351.93 265.08 370.06 260.86 226.31 585.35 755.75 526.73 210.70 317.32 1053.14 64.44 101.54 385.10 125.18 189.79 638.04 1269.00 160.44 62.38 465.63 551.05 474.54 1183.98 1224.23 335.77 249.46 328.50 282.85 822.50 449.90 217.56 893.19 443.08 123.79 58.89 202.01 595.61 454.98 510.92 38.22 357.43 458.77 624.41 484.89 154.33 118.35 100.34 368.78 304.38 737.91 146.24 184.64 739.98 1223.50 786.57 192.16 214.90 369.73 185.93 827.25 352.14 1200.84 206.09 212.07 0.00 653.12 312.11 561.77 371.53 319.06 327.47 535.56
679.61 73.63 673.29 658.83 670.28 204.75 662.88 895.56 694.75 943.15 864.81 68.24 883.45 629.93 720.99 692.04 693.54 606.94 582.93 585.11 712.41 637.03 791.65 67.77 247.20 499.50 672.73 703.36 835.46 651.44 595.06 867.37 643.21 601.79 25.43 907.36 749.29 646.63 863.89 589.22 390.55 822.34 1132.04 888.59 681.43 463.08 882.40 300.18 452.52 613.76 481.02 374.21 649.35 611.71 537.76 1057.64 308.39 269.31 658.38 535.88 409.88 217.58 357.10 502.46 642.48 651.60 456.80 679.02 103.15 675.40 811.60 276.90 861.86 151.81 623.27 820.66 507.60 534.42 321.00 535.92 915.15 569.11 780.13 653.12 0.00 509.53 415.67 572.15 669.90 702.44 333.48
418.17 484.79 531.62 450.99 202.66 524.67 355.06 1312.23 541.04 1271.18 1192.84 441.29 1255.67 283.98 312.33 339.77 289.85 388.03 105.29 144.04 583.23 425.29 528.08 470.59 565.82 322.13 435.58 561.69 1081.62 288.22 295.86 357.84 247.71 278.21 517.38 1235.39 458.39 249.73 696.78 675.41 415.79 1150.37 1259.66 603.10 444.28 312.47 507.01 727.89 422.58 394.12 904.26 437.37 246.53 326.22 326.02 820.49 377.92 273.43 288.90 355.90 305.64 506.78 422.48 351.92 340.42 240.36 361.00 507.87 612.68 165.87 466.64 449.62 1189.89 620.66 386.12 527.01 171.02 324.86 745.08 387.57 1256.92 290.17 324.71 312.11 509.53 0.00 329.60 379.14 253.69 560.77 483.98
667.83 451.50 799.49 700.65 452.32 620.42 616.57 1189.54 823.00 1321.02 1242.68 443.68 1299.12 533.64 523.31 548.09 467.12 644.86 338.29 473.64 832.89 674.60 780.96 347.90 236.22 313.77 694.14 827.83 1122.14 537.88 545.52 625.19 497.37 527.87 400.59 1285.23 708.05 499.39 980.50 927.90 635.34 1200.21 1391.08 842.51 722.75 559.82 717.99 512.22 669.93 661.99 736.71 630.16 528.49 573.76 575.68 1079.05 564.34 397.95 538.56 685.50 566.69 476.62 603.72 601.58 593.30 490.02 624.80 732.83 518.82 415.53 646.19 199.91 1239.73 515.29 664.59 776.67 418.37 600.86 702.98 698.50 1315.99 590.63 442.83 561.77 415.67 329.60 0.00 697.37 486.69 828.64 648.54
341.94 595.85 288.45 218.31 324.44 469.10 300.18 1124.13 329.82 1079.55 991.55 529.18 1000.62 324.91 416.76 387.81 459.94 249.86 484.43 364.25 278.03 176.36 259.12 536.01 768.49 606.54 285.31 311.46 838.63 318.19 376.56 522.05 340.80 229.95 546.72 1059.62 361.44 353.94 396.40 357.34 181.60 991.84 908.32 540.16 308.38 227.99 523.98 793.31 227.23 213.19 691.68 258.78 247.74 351.35 180.68 670.22 263.76 414.24 337.14 67.90 455.78 410.56 351.04 228.36 285.40 317.93 176.19 250.29 556.73 340.83 498.50 684.21 982.83 605.39 288.42 447.61 279.00 238.50 613.85 36.23 968.92 247.98 447.46 371.53 572.15 379.14 697.37 0.00 534.68 301.31 370.75
393.93 657.70 582.79 454.95 260.63 704.98 341.99 1442.02 575.93 1374.65 1318.85 607.65 1381.68 320.05 226.33 219.20 128.39 447.63 148.40 218.22 500.40 491.52 545.37 602.13 541.83 378.94 450.56 612.86 1080.44 304.95 242.03 351.53 193.88 304.73 644.54 1361.40 460.50 266.97 705.49 692.38 571.63 1276.38 1399.36 545.53 484.17 412.74 421.01 817.83 545.12 445.77 1009.27 546.59 298.18 298.75 392.25 809.39 489.47 400.59 280.84 506.20 501.48 633.94 535.42 359.22 381.46 281.73 464.00 543.82 737.41 232.45 349.21 660.61 1315.90 688.75 426.01 488.03 297.03 327.26 888.00 527.27 1377.40 326.12 145.85 319.06 669.90 253.69 486.69 534.68 0.00 611.94 596.46
263.39 727.92 29.15 198.04 406.06 685.98 269.95 1325.60 131.87 1242.47 1154.47 770.68 1192.82 323.06 441.56 465.40 483.55 193.12 609.55 514.76 163.01 225.85 326.70 728.21 898.78 798.00 206.76 10.15 1017.11 344.57 389.62 620.03 425.37 345.73 677.01 1222.54 262.59 352.28 229.90 317.41 419.30 1185.27 1153.46 479.87 197.63 405.77 355.35 985.51 428.70 166.65 881.69 457.27 314.24 321.12 262.30 445.03 501.46 599.61 365.69 260.10 673.52 648.52 588.74 264.55 265.86 338.62 374.68 130.83 805.59 413.11 440.39 979.34 1145.75 854.25 241.88 336.86 455.67 296.51 895.61 281.37 1161.12 320.45 521.87 327.47 702.44 560.77 828.64 301.31 611.94 0.00 608.45
539.53 260.64 579.30 529.45 436.94 172.82 574.00 1036.29 493.35 873.79 820.95 291.71 920.19 472.10 546.61 574.05 492.14 464.95 448.52 435.03 550.21 474.65 600.19 364.24 435.00 703.95 590.31 609.37 824.21 493.61 530.14 715.28 481.99 409.15 311.55 889.02 593.97 484.01 692.40 490.95 189.15 851.75 1100.46 805.92 599.01 270.44 736.48 591.71 251.12 517.35 497.68 172.81 518.84 529.04 459.87 975.22 106.99 258.72 519.35 366.19 259.99 186.00 61.50 420.04 544.82 474.64 255.40 477.62 401.61 400.15 700.92 561.15 812.23 408.02 540.85 646.40 411.89 438.25 393.23 334.52 888.49 421.57 575.34 535.56 333.48 483.98 648.54 370.75 596.46 608.45 0.00
DEMAND_SECTION
1 0
2 10
3 8
4 10
5 9
6 8
7 6
8 7
9 9
10 8
11 8
12 7
13 5
14 9
15 6
16 5
17 7
18 9
19 10
20 10
21 7
22 9
23 8
24 7
25 10
26 5
27 5
28 6
29 8
30 8
31 10
32 8
33 8
34 6
35 9
36 7
37 9
38 10
39 6
40 8
41 5
42 9
43 5
44 10
45 7
46 8
47 5
48 10
49 9
50 6
51 8
52 7
53 10
54 7
55 5
56 6
57 9
58 9
59 9
60 7
61 10
62 10
63 7
64 10
65 9
66 6
67 8
68 7
69 10
70 5
71 9
72 9
73 5
74 5
75 7
76 9
77 7
78 9
79 8
80 7
81 10
82 5
83 8
84 6
85 9
86 9
87 5
88 10
89 7
90 8
91 10
DEPOT_SECTION
1
-1
EOF
