NAME: LDG95_3375_rain_95_0035
COMMENT: CVRP with travel times.  rootPos=3,custPos=3,demandType=7,avgRouteSizeIndex=5,weather=rain,lambda_cluster=1,lambda_random=4, T1=300,T2=700,beta=1, alpha(i,j) ~ U(0.8,1.2)
TYPE: CVRP
DIMENSION: 96
EDGE_WEIGHT_TYPE: EXPLICIT
EDGE_WEIGHT_FORMAT: FULL_MATRIX
CAPACITY: 199
NODE_COORD_SECTION
1 0 0
2 718 917
3 981 131
4 779 946
5 863 107
6 984 59
7 311 551
8 601 990
9 987 114
10 475 954
11 992 533
12 741 46
13 822 94
14 78 886
15 997 125
16 995 227
17 449 253
18 653 853
19 826 703
20 675 404
21 272 54
22 951 699
23 668 841
24 814 174
25 737 902
26 610 228
27 893 187
28 801 113
29 714 896
30 700 201
31 84 672
32 684 658
33 824 73
34 521 903
35 84 601
36 304 204
37 621 963
38 677 890
39 375 523
40 885 167
41 827 142
42 913 155
43 651 958
44 898 102
45 862 264
46 233 753
47 732 809
48 732 60
49 875 302
50 494 449
51 731 929
52 935 177
53 477 445
54 658 807
55 989 103
56 729 524
57 830 435
58 732 109
59 759 749
60 707 332
61 753 597
62 352 81
63 795 628
64 885 705
65 765 688
66 786 892
67 895 890
68 893 231
69 851 662
70 987 95
71 854 809
72 847 788
73 685 600
74 737 871
75 666 922
76 2 138
77 484 818
78 478 985
79 367 175
80 650 975
81 671 663
82 890 169
83 339 72
84 800 941
85 506 622
86 0 447
87 470 366
88 789 864
89 578 589
90 335 344
91 962 132
92 962 600
93 893 902
94 393 983
95 745 841
96 819 180
EDGE_WEIGHT_SECTION
0.00 1223.83 1058.41 1267.30 930.97 1114.90 751.33 1292.84 1072.41 1228.37 1243.17 753.37 875.23 936.84 1076.56 1120.80 544.69 1139.67 1141.00 895.62 355.62 1282.05 1095.10 950.48 1209.53 794.72 1002.78 876.12 1187.81 840.84 702.90 1024.71 892.82 1154.17 859.53 443.51 1271.14 1182.38 780.66 991.42 920.97 1012.40 1261.34 980.90 1058.22 897.83 1187.38 777.76 1084.21 773.31 1202.82 1052.40 749.11 1140.28 1070.01 947.79 1024.82 856.39 1124.37 817.87 1066.55 432.90 1096.63 1148.43 1155.29 1246.59 1339.34 1043.32 1193.81 1086.72 1250.67 1223.52 978.89 1245.73 1234.71 139.58 1157.41 1291.86 527.96 1270.18 997.25 992.62 414.82 1296.25 956.90 706.77 701.48 1209.39 970.78 491.76 1030.98 1263.41 1324.95 1269.44 1223.13 934.68
1223.83 0.00 889.89 77.64 858.27 923.36 643.35 185.31 858.57 308.06 529.05 926.38 864.05 776.16 862.32 778.52 767.19 130.78 261.06 557.45 997.82 412.97 128.73 756.27 29.63 768.47 750.93 843.31 36.02 737.45 760.17 302.90 878.54 256.07 852.65 953.77 144.60 101.92 605.90 787.57 821.54 790.55 117.40 845.47 681.61 581.88 139.75 918.29 703.25 553.82 30.53 814.80 562.77 165.51 875.17 454.27 494.41 846.15 163.70 672.02 354.21 969.36 321.01 331.77 237.11 108.52 233.19 761.30 328.58 887.43 218.33 245.48 344.89 57.24 67.50 1188.83 305.66 282.16 868.26 104.71 330.36 776.28 985.76 109.86 433.27 924.85 688.53 119.02 409.33 796.31 884.19 479.40 229.86 372.36 104.53 772.07
1058.41 889.89 0.00 873.22 163.66 97.57 850.97 999.95 32.78 1075.32 514.14 305.04 183.18 1326.00 27.57 167.83 618.73 849.86 660.55 473.38 791.88 635.63 840.26 207.56 861.72 433.08 156.74 224.60 869.31 355.49 1134.47 641.97 211.86 1000.50 1107.90 737.45 970.92 904.01 763.13 145.07 206.99 114.78 962.07 151.51 248.85 1048.15 765.58 329.43 243.12 649.42 913.17 103.62 601.18 795.08 45.92 467.34 399.31 315.69 730.02 436.88 573.07 693.54 616.18 725.04 690.17 878.89 875.09 167.45 672.48 61.64 759.87 759.64 601.48 851.50 947.68 1091.89 968.51 1033.08 664.40 976.42 669.43 135.34 711.62 909.46 720.46 1047.93 643.31 841.69 657.30 810.55 27.43 524.43 844.37 1083.77 804.21 191.76
1267.30 77.64 873.22 0.00 870.64 913.72 704.92 235.88 848.93 349.28 550.11 959.16 895.61 853.80 873.65 812.47 773.02 203.91 287.39 625.15 1048.79 364.98 179.70 815.95 89.31 796.74 810.61 903.19 86.99 809.82 811.14 352.49 898.45 305.35 912.71 1014.59 201.40 171.90 656.87 805.23 853.07 758.44 158.62 839.61 753.98 632.85 175.94 979.14 691.68 590.01 64.48 815.62 613.74 224.88 865.53 480.60 566.78 900.51 236.07 697.73 379.47 1020.33 388.44 336.44 309.48 80.96 186.96 767.35 358.02 869.95 196.94 208.36 404.57 134.88 127.56 1162.92 356.63 342.22 909.76 166.28 379.95 797.70 1038.41 36.24 469.46 975.82 732.25 93.11 460.30 778.66 858.40 451.84 156.24 423.33 137.31 831.75
930.97 858.27 163.66 870.64 0.00 201.61 812.33 999.13 182.40 1046.54 581.88 177.60 55.74 1204.75 191.23 240.47 553.96 889.80 669.88 409.14 646.12 643.98 877.65 114.94 828.64 305.64 107.34 75.70 866.72 228.05 970.81 633.80 80.54 944.31 973.67 605.57 979.29 882.58 724.49 126.98 72.76 112.20 961.54 49.93 245.77 938.26 763.00 201.99 251.47 600.96 880.09 163.62 587.29 835.02 178.26 509.55 432.97 193.66 709.67 303.97 622.14 547.78 598.00 656.37 636.26 881.36 883.44 195.11 634.10 161.55 763.38 736.23 609.83 848.92 925.77 960.01 953.19 1043.95 500.74 962.98 661.26 132.69 565.86 906.88 708.81 1005.60 593.91 850.04 654.78 649.77 174.01 612.57 852.72 1125.98 801.63 122.23
1114.90 923.36 97.57 913.72 201.61 0.00 926.61 1059.20 64.79 1094.15 595.83 361.53 250.76 1393.38 89.51 199.84 630.07 909.11 748.11 521.70 833.53 663.29 881.34 270.95 893.73 500.66 183.50 263.11 909.81 420.79 1172.42 719.97 222.08 1041.58 1158.66 807.18 1026.07 960.38 859.28 187.30 257.75 155.28 1026.09 155.66 247.28 1122.70 806.08 352.56 270.78 696.86 945.18 158.77 697.33 854.33 70.12 554.90 434.48 391.87 765.19 475.56 653.17 735.19 681.16 749.24 770.27 906.55 902.75 237.77 688.98 72.98 827.46 800.31 629.14 892.00 990.86 1106.62 980.49 1069.43 702.35 1016.92 738.83 194.54 753.27 949.96 795.01 1145.50 670.07 869.35 744.86 773.67 106.22 548.63 872.03 1171.33 844.71 261.69
751.33 643.35 850.97 704.92 812.33 926.61 0.00 619.24 882.33 513.02 731.21 766.37 781.34 549.21 878.54 854.84 454.21 609.58 595.99 510.13 597.14 766.78 565.01 697.39 672.98 531.44 819.78 804.70 645.75 692.51 357.41 441.10 810.02 583.86 513.13 500.52 583.98 643.37 87.84 813.43 762.66 854.24 564.41 848.78 712.08 375.08 591.41 741.98 685.78 298.03 640.44 834.77 249.79 610.19 896.89 469.64 524.88 663.35 605.19 594.39 568.38 498.80 618.48 676.85 573.24 709.77 782.37 755.77 676.96 909.10 719.14 695.08 480.72 677.33 620.09 646.26 651.30 576.51 496.29 538.64 468.56 827.77 516.88 735.21 297.89 437.87 375.55 710.56 382.19 259.57 878.40 764.59 813.09 585.65 630.04 713.19
1292.84 185.31 999.95 235.88 999.13 1059.20 619.24 0.00 1013.73 243.16 691.97 1046.18 964.85 649.29 1012.14 930.39 815.52 153.17 402.41 641.58 1060.96 496.00 197.74 940.94 214.30 853.64 935.60 923.43 187.71 887.20 703.15 365.33 977.57 197.81 845.95 1012.95 52.45 156.22 668.61 944.32 967.42 942.24 77.26 992.23 838.02 524.86 291.44 1055.82 788.42 624.87 182.40 919.75 611.10 204.87 1008.96 532.61 663.05 995.90 332.34 758.25 466.26 962.62 457.42 483.27 405.75 274.14 383.94 864.09 506.12 1011.74 352.58 358.01 430.06 234.99 129.55 1265.50 248.64 179.67 908.12 80.60 385.06 956.15 980.70 238.13 403.31 969.81 736.86 253.35 474.71 860.22 995.94 593.70 353.22 266.67 269.98 928.49
1072.41 858.57 32.78 848.93 182.40 64.79 882.33 1013.73 0.00 1042.54 531.04 319.04 197.18 1328.59 24.72 135.05 585.95 872.39 693.33 477.58 797.02 641.16 827.82 206.16 828.94 447.08 149.74 238.60 845.02 356.00 1140.06 674.75 185.67 988.06 1093.87 742.59 961.28 895.59 794.49 122.51 192.96 90.49 961.30 132.47 249.09 1058.46 741.29 308.85 248.65 643.34 880.39 93.98 632.54 827.86 16.60 500.12 396.46 343.29 727.17 410.77 605.85 698.68 616.37 695.72 714.14 859.65 880.62 172.98 696.19 28.86 773.87 746.79 606.80 827.21 926.07 1097.03 944.25 1025.31 683.14 952.13 680.63 129.75 716.76 885.17 750.89 1080.71 636.31 847.22 690.08 816.08 41.43 495.11 849.90 1116.55 779.92 196.90
1228.37 308.06 1075.32 349.28 1046.54 1094.15 513.02 243.16 1042.54 0.00 799.59 1050.67 990.80 594.30 1067.26 957.01 716.92 292.65 492.53 720.74 1026.00 666.89 262.47 986.21 301.72 794.15 991.56 996.99 306.94 955.22 624.42 438.89 1013.50 102.23 729.77 923.34 223.93 269.62 600.86 980.55 1019.88 1005.47 190.66 1060.80 846.87 446.13 391.74 1075.06 879.48 560.74 318.23 1007.27 512.50 307.65 1059.14 613.52 712.85 1007.44 434.24 804.12 566.07 1005.60 525.10 573.39 502.70 380.61 505.28 928.27 596.24 1059.94 489.75 471.41 521.12 348.19 266.93 1088.79 169.91 63.49 853.66 216.43 411.43 966.21 1010.58 385.52 388.20 732.31 638.26 391.11 481.12 764.64 1074.12 707.10 478.11 171.73 385.29 970.41
1243.17 529.05 514.14 550.11 581.88 595.83 731.21 691.97 531.04 799.59 0.00 648.00 526.14 1094.85 541.71 460.74 734.94 563.84 314.60 418.14 1027.12 212.69 561.85 487.93 502.36 623.32 482.82 567.56 539.64 571.52 1049.38 394.09 554.82 697.36 924.31 976.51 651.06 579.78 744.89 482.27 521.60 507.19 614.71 562.52 348.59 807.28 476.42 672.39 411.89 646.28 553.81 505.75 613.07 547.55 547.64 341.92 254.81 618.52 365.35 461.76 312.30 928.78 310.54 298.88 400.97 469.15 452.15 426.75 299.35 559.90 377.10 349.95 399.96 511.40 596.55 1103.59 665.73 811.21 871.68 633.76 421.55 467.93 946.86 522.07 479.59 1157.01 729.66 506.35 524.05 760.16 541.57 98.27 421.43 875.98 464.11 472.13
753.37 926.38 305.04 959.16 177.60 361.53 766.37 1046.18 319.04 1050.67 648.00 0.00 121.86 1233.46 323.19 367.43 513.96 942.44 736.00 451.03 518.48 693.39 908.04 229.64 915.61 256.52 249.41 122.75 904.12 211.72 1012.27 680.85 139.45 1010.43 968.70 460.12 1045.41 936.39 678.53 243.22 172.77 259.03 1015.35 227.53 345.78 999.56 801.37 24.39 366.81 508.49 949.70 299.03 538.17 888.50 316.64 617.34 448.27 103.02 778.98 334.36 655.72 420.14 639.39 778.82 737.16 901.58 932.85 295.12 734.73 333.35 833.00 805.85 680.10 869.14 980.84 814.56 977.13 1110.07 523.28 1011.23 708.31 243.31 438.22 969.19 745.96 1006.91 484.80 907.11 665.92 648.79 277.61 723.19 902.13 1116.02 821.85 222.24
875.23 864.05 183.18 895.61 55.74 250.76 781.34 964.85 197.18 990.80 526.14 121.86 0.00 1239.59 201.33 265.44 530.05 861.95 614.14 410.49 611.84 667.15 852.35 107.78 834.42 249.90 158.85 41.42 839.18 172.31 1005.65 599.52 28.68 888.57 982.47 581.98 923.55 895.85 693.50 122.21 81.56 137.17 955.29 105.67 233.69 947.06 768.67 146.25 275.10 545.22 885.87 177.17 531.55 807.17 211.91 559.22 420.89 146.85 721.03 312.77 566.40 513.50 563.72 695.00 661.49 845.62 899.48 199.43 626.94 217.29 740.38 713.23 589.86 849.98 884.71 923.21 918.91 988.21 516.66 946.29 626.98 136.55 531.58 885.35 739.34 971.32 594.49 808.42 611.16 687.74 155.75 603.91 872.70 1124.55 802.69 123.58
936.84 776.16 1326.00 853.80 1204.75 1393.38 549.21 649.29 1328.59 594.30 1094.85 1233.46 1239.59 0.00 1353.31 1193.54 929.24 802.46 931.92 947.80 987.30 1074.65 825.14 1172.42 765.39 989.69 1307.69 1265.15 795.13 1103.65 233.94 855.85 1268.27 669.68 390.57 773.34 701.74 805.35 562.87 1281.14 1210.69 1316.95 726.55 1254.68 1215.80 345.19 804.84 1217.01 1152.50 773.06 799.48 1288.36 724.82 854.16 1344.07 868.38 1074.09 1138.38 798.65 1064.47 947.85 907.25 955.96 1012.78 872.06 791.00 928.45 1228.17 992.57 1327.74 929.41 921.95 877.96 718.92 778.84 797.26 621.41 640.91 878.17 729.89 848.37 1282.34 925.33 867.16 615.26 506.41 850.58 791.71 812.18 808.78 1353.43 1161.88 907.27 458.79 766.21 1180.10
1076.56 862.32 27.57 873.65 191.23 89.51 878.54 1012.14 24.72 1067.26 541.71 323.19 201.33 1353.31 0.00 159.77 610.20 862.05 688.12 478.03 813.17 634.88 852.45 230.88 853.66 451.23 174.46 242.75 869.74 373.64 1162.04 669.54 202.92 982.36 1118.59 765.02 986.00 916.20 790.70 147.23 217.68 115.21 979.72 157.19 244.95 1075.72 766.01 333.57 270.69 668.06 892.85 118.70 628.75 807.27 41.32 494.91 371.74 337.68 702.45 435.49 600.64 714.83 641.09 720.44 717.74 880.94 874.34 195.02 697.97 53.11 778.02 771.51 582.08 848.31 929.82 1119.46 968.97 1049.56 691.97 967.03 691.77 153.49 732.91 909.89 748.03 1075.50 661.03 869.26 684.87 827.42 45.58 519.83 843.62 1111.34 801.21 219.33
1120.80 778.52 167.83 812.47 240.47 199.84 854.84 930.39 135.05 957.01 460.74 367.43 265.44 1193.54 159.77 0.00 654.27 780.55 638.04 417.59 847.80 571.29 770.95 257.40 799.44 505.36 158.69 277.38 814.54 388.28 1005.01 573.04 268.28 931.19 1081.19 795.28 895.13 834.70 767.00 162.10 227.79 128.27 875.56 208.51 193.06 1043.71 756.89 343.04 178.78 653.29 747.99 94.82 605.05 725.77 150.53 462.90 337.81 376.25 668.52 381.09 624.80 749.46 536.99 591.24 634.76 796.82 810.75 111.66 641.95 134.20 764.28 737.13 537.14 814.38 846.02 1149.72 890.18 1020.50 741.21 849.79 545.58 167.53 767.54 847.36 716.02 1124.23 645.26 759.62 652.86 754.76 171.01 559.01 780.03 1079.33 767.28 249.59
544.69 767.19 618.73 773.02 553.96 630.07 454.21 815.52 585.95 716.92 734.94 513.96 530.05 929.24 610.20 654.27 0.00 700.32 637.34 350.93 309.08 788.17 655.75 554.69 749.46 365.92 579.42 567.39 731.17 357.74 811.62 571.35 558.73 698.18 694.65 241.57 831.79 743.03 366.37 574.84 504.39 569.28 821.99 504.03 561.66 666.56 642.69 489.57 613.59 228.62 797.72 613.50 204.42 659.39 573.80 444.13 480.13 466.44 676.52 273.18 521.86 288.68 581.68 654.55 638.96 717.11 816.65 542.61 653.47 557.09 763.58 736.43 434.20 728.61 795.36 596.01 699.20 780.41 136.74 830.83 543.89 576.04 306.76 780.94 412.21 634.85 311.07 679.91 426.09 238.00 627.38 719.22 795.47 864.18 681.32 553.86
1139.67 130.78 849.86 203.91 889.80 909.11 609.58 153.17 872.39 292.65 563.84 942.44 861.95 802.46 862.05 780.55 700.32 0.00 249.24 540.60 913.66 435.35 44.57 821.80 137.83 703.55 817.68 820.53 116.92 786.22 669.72 262.43 871.69 204.81 802.59 919.45 131.47 55.24 521.74 794.23 817.33 791.87 134.20 842.14 696.18 491.43 141.07 944.37 638.33 471.70 161.31 793.00 508.61 54.78 855.79 382.52 535.65 865.74 223.10 618.25 367.63 881.57 307.33 330.10 296.51 178.14 314.59 714.00 352.95 861.65 275.67 248.52 279.97 106.06 97.82 1205.69 215.21 269.66 816.99 130.51 234.97 808.57 899.65 239.60 434.59 936.38 613.94 177.85 321.54 740.46 869.19 500.20 293.41 411.53 124.34 806.00
1141.00 261.06 660.55 287.39 669.88 748.11 595.99 402.41 693.33 492.53 314.60 736.00 614.14 931.92 688.12 638.04 637.34 249.24 0.00 363.35 924.96 200.43 293.81 615.52 263.12 593.63 656.68 623.35 225.04 598.83 856.06 154.89 642.82 390.30 916.17 829.81 377.49 304.48 508.15 633.23 649.19 680.02 341.32 652.83 533.00 723.17 242.82 755.74 477.33 446.50 291.59 632.00 494.74 304.02 706.47 193.21 427.73 705.26 133.27 480.02 211.61 840.24 101.05 80.86 99.81 231.48 285.34 553.00 103.71 700.65 126.24 99.09 248.53 267.07 315.17 1180.49 455.18 518.90 774.08 332.15 182.35 647.57 858.32 271.21 395.48 949.35 588.74 194.28 383.17 687.84 676.87 263.62 258.56 561.38 232.03 599.72
895.62 557.45 473.38 625.15 409.14 521.70 510.13 641.58 477.58 720.74 418.14 451.03 410.49 947.80 478.03 417.59 350.93 540.60 363.35 0.00 660.01 493.04 543.06 302.71 567.95 337.86 409.61 401.52 574.78 245.62 867.54 312.20 419.63 618.51 850.46 592.50 603.45 485.36 422.29 386.16 336.38 427.96 564.32 433.12 387.33 660.23 481.18 432.95 379.30 336.30 578.31 384.93 318.47 497.88 465.43 170.14 323.62 354.32 393.75 116.67 290.45 630.31 318.98 416.77 320.34 570.43 564.42 305.93 336.06 448.72 428.21 455.36 319.83 539.80 537.69 946.94 671.31 752.35 487.67 590.09 339.66 390.24 612.23 588.91 332.54 861.45 333.56 557.63 360.10 464.60 461.12 396.48 533.70 786.57 492.51 286.91
355.62 997.82 791.88 1048.79 646.12 833.53 597.14 1060.96 797.02 1026.00 1027.12 518.48 611.84 987.30 813.17 847.80 309.08 913.66 924.96 660.01 0.00 1030.40 869.09 615.92 983.52 439.10 729.53 570.42 961.80 506.28 821.90 813.58 624.56 966.81 722.54 213.96 1045.13 956.37 626.64 706.01 635.56 724.86 1035.33 696.05 723.66 831.67 931.70 542.87 786.96 517.63 1028.35 752.98 513.50 901.62 813.62 753.21 789.21 614.98 918.75 582.26 764.09 98.34 823.91 896.78 881.19 1026.19 1125.73 755.21 895.70 807.67 1043.38 1016.23 676.43 1017.62 1008.70 348.79 969.58 1080.74 172.34 1044.17 786.12 707.21 116.42 1070.24 680.84 739.36 423.47 988.99 658.37 394.19 767.59 928.85 1104.55 1083.61 970.33 600.12
1282.05 412.97 635.63 364.98 643.98 663.29 766.78 496.00 641.16 666.89 212.69 693.39 667.15 1074.65 634.88 571.29 788.17 435.35 200.43 493.04 1030.40 0.00 407.38 559.37 398.21 747.83 571.86 651.69 395.32 678.74 1006.08 325.68 665.29 567.62 1043.12 984.01 443.55 428.72 678.94 548.41 586.55 595.20 476.23 639.58 455.81 827.79 351.68 669.00 392.51 591.31 410.43 547.18 639.55 380.57 632.54 347.41 467.50 674.98 310.63 518.73 348.13 992.29 246.41 133.62 261.96 322.71 239.46 468.18 209.46 615.83 222.63 195.48 353.97 355.73 432.41 1316.28 551.57 603.99 911.51 454.35 353.14 562.75 1010.37 328.74 510.83 1120.14 733.55 324.30 537.37 858.63 623.37 161.78 208.74 723.61 313.05 575.17
1095.10 128.73 840.26 179.70 877.65 881.34 565.01 197.74 827.82 262.47 561.85 908.04 852.35 825.14 852.45 770.95 655.75 44.57 293.81 543.06 869.09 407.38 0.00 812.20 114.43 693.95 808.08 810.93 92.71 778.54 682.90 252.83 862.09 160.24 808.99 877.25 176.04 87.28 477.17 784.63 804.89 802.06 166.24 832.54 686.58 479.95 151.26 932.43 628.73 427.13 159.26 783.40 475.37 45.18 811.22 372.92 526.05 887.24 262.33 573.68 358.03 869.16 297.73 357.32 306.93 179.14 316.03 704.40 393.89 827.93 239.05 211.90 270.37 150.63 139.61 1161.12 259.78 314.23 772.42 175.08 225.37 798.97 887.24 201.15 444.78 924.90 569.37 179.29 309.13 730.86 859.59 463.58 294.85 429.05 168.84 796.40
950.48 756.27 207.56 815.95 114.94 270.95 697.39 940.94 206.16 986.21 487.93 229.64 107.78 1172.42 230.88 257.40 554.69 821.80 615.52 302.71 615.92 559.37 812.20 0.00 726.64 304.07 148.74 130.41 764.72 241.10 1054.80 612.03 136.46 921.22 966.18 561.49 900.87 788.07 609.55 116.04 65.27 156.85 863.68 151.39 139.34 930.58 761.79 224.04 202.64 599.39 778.09 173.14 585.72 767.02 222.76 472.85 326.54 145.41 657.25 281.51 577.86 517.58 514.47 599.87 612.24 805.53 798.83 158.84 519.16 235.02 712.18 685.03 555.55 773.11 823.77 915.93 859.56 1038.43 570.83 860.98 639.49 130.38 535.66 828.41 635.25 1060.31 593.05 797.31 548.35 691.18 233.68 586.20 768.11 1048.53 756.01 15.80
1209.53 29.63 861.72 89.31 828.64 893.73 672.98 214.30 828.94 301.72 502.36 915.61 834.42 765.39 853.66 799.44 749.46 137.83 263.12 567.95 983.52 398.21 114.43 726.64 0.00 738.84 721.30 828.43 38.08 766.27 762.23 286.74 863.10 258.13 882.28 975.67 174.23 82.59 591.60 757.94 791.91 780.55 137.04 815.84 710.24 583.94 132.39 930.23 673.62 541.56 51.45 785.17 564.83 135.88 845.54 456.33 523.04 851.60 192.52 684.62 383.03 971.42 342.06 302.14 265.93 78.89 203.56 749.29 358.21 857.80 221.11 223.76 315.26 46.47 97.13 1159.20 307.72 311.79 886.20 134.34 314.20 746.65 974.99 101.77 425.91 926.91 683.80 89.39 411.39 819.69 854.56 449.77 204.95 374.42 93.76 742.44
794.72 768.47 433.08 796.74 305.64 500.66 531.44 853.64 447.08 794.15 623.32 256.52 249.90 989.69 451.23 505.36 365.92 703.55 593.63 337.86 439.10 747.83 693.95 304.07 738.84 0.00 374.57 291.32 776.92 161.07 755.75 560.73 278.58 775.41 813.64 371.59 835.02 757.70 443.60 348.02 277.57 387.07 806.27 355.57 384.00 764.63 690.57 280.91 444.44 295.32 790.29 410.54 281.65 648.77 461.81 400.42 368.51 233.84 607.78 274.63 417.27 418.70 527.83 631.78 534.37 720.69 834.02 399.92 616.81 467.19 719.87 692.72 423.58 753.83 801.37 726.03 720.61 857.64 266.76 832.04 533.27 349.22 436.69 815.06 489.44 833.78 407.41 757.24 409.40 437.84 405.65 643.16 839.62 941.41 706.54 319.87
1002.78 750.93 156.74 810.61 107.34 183.50 819.78 935.60 149.74 991.56 482.82 249.41 158.85 1307.69 174.46 158.69 579.42 817.68 656.68 409.61 729.53 571.86 808.08 148.74 721.30 374.57 0.00 159.11 759.38 270.13 1078.15 576.29 177.40 942.51 997.91 678.63 895.53 803.89 758.29 36.64 97.00 59.25 858.34 94.54 144.69 962.50 710.05 271.57 179.35 628.81 772.75 63.87 612.33 762.90 166.34 463.47 331.89 262.34 662.60 306.24 625.37 631.19 568.92 704.96 637.32 800.19 811.32 103.68 639.95 170.76 759.62 732.47 537.71 767.77 818.43 1033.07 913.69 1033.09 608.08 855.64 603.75 25.35 649.27 823.07 716.59 1089.01 486.57 777.92 653.43 726.47 133.26 505.23 780.60 1038.98 748.68 132.94
876.12 843.31 224.60 903.19 75.70 263.11 804.70 923.43 238.60 996.99 567.56 122.75 41.42 1265.15 242.75 277.38 567.39 820.53 623.35 401.52 570.42 651.69 810.93 130.41 828.43 291.32 159.11 0.00 830.98 213.73 1046.51 558.10 54.14 929.99 966.05 582.87 952.00 873.45 716.86 135.59 65.14 154.44 913.87 125.63 238.15 919.96 727.25 132.39 259.18 586.64 863.48 182.56 572.97 765.75 253.33 543.30 425.35 141.35 679.61 296.35 607.82 472.08 522.30 704.21 620.07 845.61 864.81 184.79 627.26 237.25 749.59 722.44 617.54 810.20 910.81 896.22 877.49 1029.63 558.08 938.09 585.56 136.79 490.16 874.35 734.06 929.90 588.99 817.63 647.16 687.12 197.17 616.67 834.09 1117.70 765.88 114.61
1187.81 36.02 869.31 86.99 866.72 909.81 645.75 187.71 845.02 306.94 539.64 904.12 839.18 795.13 869.74 814.54 731.17 116.92 225.04 574.78 961.80 395.32 92.71 764.72 38.08 776.92 759.38 830.98 0.00 754.78 724.15 287.58 856.28 220.05 875.28 937.59 152.45 120.67 569.88 796.02 829.99 754.53 116.28 835.70 698.94 545.86 103.73 892.15 702.37 517.80 66.55 811.71 526.75 137.89 861.62 418.25 511.74 813.52 181.03 666.39 371.54 933.34 326.09 305.90 254.44 86.43 241.64 778.04 325.78 866.04 228.65 234.76 353.34 84.55 90.13 1193.44 269.64 304.79 863.09 107.11 315.04 784.73 951.42 123.23 397.25 888.83 652.51 123.63 373.31 812.63 854.49 457.31 224.43 336.34 82.27 780.52
840.84 737.45 355.49 809.82 228.05 420.79 692.51 887.20 356.00 955.22 571.52 211.72 172.31 1103.65 373.64 388.28 357.74 786.22 598.83 245.62 506.28 678.74 778.54 241.10 766.27 161.07 270.13 213.73 754.78 0.00 869.71 557.82 200.99 864.13 974.71 532.66 849.07 730.98 604.67 233.49 175.83 280.28 809.94 277.98 222.93 905.85 684.82 187.33 286.23 456.39 767.98 300.77 442.72 733.36 372.60 405.62 369.34 108.70 573.75 205.14 536.07 407.94 554.46 662.39 565.96 752.24 810.04 276.62 581.68 357.11 673.83 697.92 559.30 719.80 783.31 832.08 793.10 997.97 427.83 835.71 585.28 247.48 426.02 834.53 578.16 896.32 556.34 757.77 481.89 539.81 328.06 642.10 779.32 1022.05 672.51 225.30
702.90 760.17 1134.47 811.14 970.81 1172.42 357.41 703.15 1140.06 624.42 1049.38 1012.27 1005.65 233.94 1162.04 1005.01 811.62 669.72 856.06 867.54 821.90 1006.08 682.90 1054.80 762.23 755.75 1078.15 1046.51 724.15 869.71 0.00 701.17 1034.33 570.34 156.63 618.37 650.70 724.96 445.25 1097.79 1033.32 1083.01 693.48 1020.74 995.52 242.10 727.61 1036.66 1043.19 655.44 790.70 1099.83 607.20 637.72 1149.07 822.91 882.29 978.41 807.51 951.80 828.35 752.28 809.70 916.54 831.75 810.58 891.42 1076.92 914.66 1132.36 837.75 810.60 756.51 748.74 727.80 563.32 454.51 686.95 723.20 696.04 673.71 1103.50 770.36 836.38 569.79 272.47 680.33 801.89 739.60 616.98 1144.82 1012.09 917.45 613.71 736.09 1070.60
1024.71 302.90 641.97 352.49 633.80 719.97 441.10 365.33 674.75 438.89 394.09 680.85 599.52 855.85 669.54 573.04 571.35 262.43 154.89 312.20 813.58 325.68 252.83 612.03 286.74 560.73 576.29 558.10 287.58 557.82 701.17 0.00 612.24 413.07 772.88 742.83 393.90 315.35 353.26 595.37 623.24 631.29 355.77 634.25 472.69 568.28 183.85 690.49 458.75 402.00 305.38 613.42 407.88 207.65 687.89 174.63 323.32 666.52 205.55 409.32 144.33 798.06 211.94 235.75 132.14 296.45 341.27 534.42 235.86 682.07 281.13 253.98 137.15 269.77 353.47 1087.36 368.44 502.38 708.09 381.54 27.46 592.03 816.14 316.25 240.59 794.46 533.64 303.00 238.03 532.95 669.40 370.22 371.99 608.65 222.48 596.23
892.82 878.54 211.86 898.45 80.54 222.08 810.02 977.57 185.67 1013.50 554.82 139.45 28.68 1268.27 202.92 268.28 558.73 871.69 642.82 419.63 624.56 665.29 862.09 136.46 863.10 278.58 177.40 54.14 856.28 200.99 1034.33 612.24 0.00 911.27 984.16 599.57 952.23 889.68 722.18 140.76 83.25 140.01 955.38 130.47 209.48 948.75 781.39 144.59 272.78 573.90 901.86 197.19 560.23 816.91 202.27 556.90 396.68 169.79 727.39 314.46 566.38 526.22 576.44 697.38 674.21 853.74 904.75 205.60 655.62 214.53 769.06 741.91 591.72 821.30 913.39 950.36 931.63 1016.89 545.34 963.39 639.70 154.90 544.30 914.03 751.03 984.04 605.00 837.10 639.84 715.56 184.43 603.57 874.03 1143.10 774.01 132.72
1154.17 256.07 1000.50 305.35 944.31 1041.58 583.86 197.81 988.06 102.23 697.36 1010.43 888.57 669.68 982.36 931.19 698.18 204.81 390.30 618.51 966.81 567.62 160.24 921.22 258.13 775.41 942.51 929.99 220.05 864.13 570.34 413.07 911.27 0.00 669.22 899.30 173.10 247.52 551.27 920.42 954.89 956.42 176.54 974.58 797.82 392.05 311.50 1034.50 788.97 542.00 272.23 943.64 493.76 205.42 971.46 533.16 610.62 972.83 332.01 733.92 517.57 926.43 457.97 471.16 400.47 286.58 455.30 864.64 494.01 969.54 399.29 372.14 430.61 304.60 220.52 1133.66 115.83 158.59 794.47 202.31 385.61 917.16 908.35 341.59 285.97 834.54 619.52 323.78 408.39 662.41 1019.83 623.82 424.58 273.96 302.32 905.42
859.53 852.65 1107.90 912.71 973.67 1158.66 513.13 845.95 1093.87 729.77 924.31 968.70 982.47 390.57 1118.59 1081.19 694.65 802.59 916.17 850.46 722.54 1043.12 808.99 966.18 882.28 813.64 997.91 966.05 875.28 974.71 156.63 772.88 984.16 669.22 0.00 508.58 807.33 837.48 580.09 971.36 900.91 1011.82 845.76 1020.58 1031.28 387.64 825.81 993.09 967.98 580.23 883.18 1033.88 531.99 794.35 1107.31 785.41 975.87 1020.61 936.88 911.48 877.00 642.49 934.25 997.03 905.02 944.17 1039.54 1023.26 1008.74 1122.73 953.54 967.23 794.99 903.18 785.15 719.95 611.14 666.28 613.41 852.67 765.40 972.56 660.57 948.95 532.29 276.29 657.75 944.96 729.21 487.70 1080.47 1022.58 1008.82 759.25 864.44 950.38
443.51 953.77 737.45 1014.59 605.57 807.18 500.52 1012.95 742.59 923.34 976.51 460.12 581.98 773.34 765.02 795.28 241.57 919.45 829.81 592.50 213.96 984.01 877.25 561.49 975.67 371.59 678.63 582.87 937.59 532.66 618.37 742.83 599.57 899.30 508.58 0.00 1012.95 964.53 412.68 665.61 595.16 686.74 1043.49 655.50 669.23 733.71 864.19 484.51 732.53 450.12 984.30 703.03 410.84 895.56 759.19 636.60 721.70 563.14 790.07 514.75 763.43 133.91 785.44 896.12 847.47 958.68 1053.08 717.51 882.62 767.12 920.83 928.90 675.77 936.12 1004.42 354.44 816.76 960.86 104.83 1039.16 715.37 660.72 151.99 1022.51 613.33 546.79 355.96 921.48 632.51 299.34 737.73 925.64 1022.36 910.49 888.83 545.69
1271.14 144.60 970.92 201.40 979.29 1026.07 583.98 52.45 961.28 223.93 651.06 1045.41 923.55 701.74 986.00 895.13 831.79 131.47 377.49 603.45 1045.13 443.55 176.04 900.87 174.23 835.02 895.53 952.00 152.45 849.07 650.70 393.90 952.23 173.10 807.33 1012.95 0.00 118.09 653.21 918.04 939.83 906.98 42.78 973.61 803.62 472.41 256.18 1036.40 769.80 603.17 147.14 867.30 640.08 186.25 977.88 513.99 616.42 957.77 285.71 720.12 431.78 1013.04 438.80 458.35 359.12 238.88 331.49 845.47 473.18 990.14 300.13 323.53 411.44 193.74 77.10 1214.02 196.19 160.44 948.46 45.34 366.44 903.70 1031.12 185.68 455.76 917.36 745.41 233.79 453.01 835.51 943.49 559.22 300.77 280.06 233.76 890.36
1182.38 101.92 904.01 171.90 882.58 960.38 643.37 156.22 895.59 269.62 579.78 936.39 895.85 805.35 916.20 834.70 743.03 55.24 304.48 485.36 956.37 428.72 87.28 788.07 82.59 757.70 803.89 873.45 120.67 730.98 724.96 315.35 889.68 247.52 837.48 964.53 118.09 0.00 564.45 840.53 821.74 805.10 78.96 886.27 732.34 546.67 154.30 918.31 692.48 514.41 113.86 847.15 562.65 108.93 898.50 436.67 545.14 839.68 214.43 602.03 404.94 936.81 361.48 372.34 287.84 158.51 265.75 768.15 396.93 915.21 243.91 271.06 334.12 86.43 52.33 1198.82 270.45 266.99 859.70 104.73 289.12 829.24 954.89 184.36 447.82 991.62 656.65 129.01 376.78 794.61 905.06 522.74 244.57 398.15 115.67 772.27
780.66 605.90 763.13 656.87 724.49 859.28 87.84 668.61 794.49 600.86 744.89 678.53 693.50 562.87 790.70 767.00 366.37 521.74 508.15 422.29 626.64 678.94 477.17 609.55 591.60 443.60 758.29 716.86 569.88 604.67 445.25 353.26 722.18 551.27 580.09 412.68 653.21 564.45 0.00 725.59 674.82 766.40 643.41 760.94 661.24 321.03 537.11 654.14 597.94 210.19 636.43 746.93 161.95 522.35 809.05 484.31 605.83 575.51 558.81 506.55 480.54 546.59 540.36 589.01 485.40 649.71 694.53 667.93 589.12 821.26 634.39 607.24 392.88 621.68 616.78 734.10 597.25 664.35 503.11 626.48 380.72 739.93 564.67 663.80 265.30 525.71 287.71 656.26 294.35 347.41 790.56 676.75 725.25 497.81 575.74 625.35
991.42 787.57 145.07 805.23 126.98 187.30 813.43 944.32 122.51 980.55 482.27 243.22 122.21 1281.14 147.23 162.10 574.84 794.23 633.23 386.16 706.01 548.41 784.63 116.04 757.94 348.02 36.64 135.59 796.02 233.49 1097.79 595.37 140.76 920.42 971.36 665.61 918.04 840.53 725.59 0.00 70.45 46.79 894.98 108.93 133.68 935.95 697.59 245.02 155.90 632.91 809.39 67.28 591.89 739.45 139.11 440.02 309.80 261.45 640.51 301.66 601.92 607.67 532.28 668.32 600.68 791.67 787.87 80.23 616.50 151.37 748.61 721.46 514.26 783.51 840.94 1020.05 877.05 1023.43 614.78 892.28 593.23 14.34 625.75 841.47 693.14 1065.49 523.21 754.47 629.98 716.15 117.64 494.22 757.15 1002.34 736.22 119.92
920.97 821.54 206.99 853.07 72.76 257.75 762.66 967.42 192.96 1019.88 521.60 172.77 81.56 1210.69 217.68 227.79 504.39 817.33 649.19 336.38 635.56 586.55 804.89 65.27 791.91 277.57 97.00 65.14 829.99 175.83 1033.32 623.24 83.25 954.89 900.91 595.16 939.83 821.74 674.82 70.45 0.00 110.91 900.70 119.67 173.01 865.50 735.10 174.57 194.04 562.46 843.36 132.97 559.22 762.55 206.40 478.16 360.21 194.64 690.92 231.21 588.70 537.22 548.14 665.14 645.91 829.81 826.01 122.35 584.43 221.82 690.62 663.47 552.40 821.02 874.07 949.60 893.23 1069.77 544.33 926.25 623.90 71.65 555.30 835.59 668.92 995.04 583.57 792.61 582.02 715.41 179.56 551.53 795.29 1072.79 773.73 49.47
1012.40 790.55 114.78 758.44 112.20 155.28 854.24 942.24 90.49 1005.47 507.19 259.03 137.17 1316.95 115.21 128.27 569.28 791.87 680.02 427.96 724.86 595.20 802.06 156.85 780.55 387.07 59.25 154.44 754.53 280.28 1083.01 631.29 140.01 956.42 1011.82 686.74 906.98 805.10 766.40 46.79 110.91 0.00 870.81 81.17 158.60 976.41 650.80 283.42 202.69 673.37 808.48 57.18 638.68 786.24 107.09 486.81 345.80 284.02 676.51 342.12 648.71 626.52 579.07 715.11 647.47 769.16 834.66 127.02 663.29 111.51 773.53 746.38 561.05 736.72 844.66 1041.18 923.84 999.93 612.94 861.64 618.15 39.26 644.60 794.68 739.93 1084.34 545.82 769.95 673.60 741.07 99.96 519.14 803.94 1049.13 689.43 141.05
1261.34 117.40 962.07 158.62 961.54 1026.09 564.41 77.26 961.30 190.66 614.71 1015.35 955.29 726.55 979.72 875.56 821.99 134.20 341.32 564.32 1035.33 476.23 166.24 863.68 137.04 806.27 858.34 913.87 116.28 809.94 693.48 355.77 955.38 176.54 845.76 1043.49 42.78 78.96 643.41 894.98 900.70 870.81 0.00 951.98 799.01 507.89 220.01 997.27 764.47 593.37 127.57 910.08 641.61 180.92 977.46 508.66 611.81 918.64 281.10 680.99 389.00 1015.77 433.47 422.18 354.51 202.71 318.17 840.14 442.06 969.19 299.09 280.75 406.11 159.55 76.27 1210.67 238.97 203.22 938.66 25.77 361.11 883.69 1033.85 194.86 462.51 922.97 735.61 207.97 455.74 823.98 970.77 516.44 287.45 322.84 194.63 851.23
980.90 845.47 151.51 839.61 49.93 155.66 848.78 992.23 132.47 1060.80 562.52 227.53 105.67 1254.68 157.19 208.51 504.03 842.14 652.83 433.12 696.05 639.58 832.54 151.39 815.84 355.57 94.54 125.63 835.70 277.98 1020.74 634.25 130.47 974.58 1020.58 655.50 973.61 886.27 760.94 108.93 119.67 81.17 951.98 0.00 213.93 985.17 731.97 251.92 247.07 650.89 867.29 113.69 637.22 787.36 128.33 459.62 401.13 243.59 731.84 350.88 625.40 597.71 608.46 706.30 686.19 850.33 879.04 171.40 670.55 111.62 779.07 751.92 605.43 817.89 912.97 1009.94 960.79 1081.10 550.67 942.81 661.71 94.59 615.79 875.85 688.61 1055.53 581.11 845.64 649.58 699.70 124.08 574.47 848.32 1076.05 770.60 146.21
1058.22 681.61 248.85 753.98 245.77 247.28 712.08 838.02 249.09 846.87 348.59 345.78 233.69 1215.80 244.95 193.06 561.66 696.18 533.00 387.33 723.66 455.81 686.58 139.34 710.24 384.00 144.69 238.15 698.94 222.93 995.52 472.69 209.48 797.82 1031.28 669.23 803.62 732.34 661.24 133.68 173.01 158.60 799.01 213.93 0.00 928.23 628.98 347.58 63.30 519.13 712.14 160.40 499.29 641.40 239.41 347.42 187.20 269.93 517.91 288.48 503.87 625.32 496.26 580.00 591.32 696.40 695.27 81.40 513.43 222.70 648.67 632.09 416.21 663.77 749.11 1023.67 841.13 910.36 650.76 786.32 500.15 119.34 643.40 762.90 600.54 979.32 619.50 661.87 531.80 582.47 227.25 446.86 664.55 963.85 616.67 123.54
897.83 581.88 1048.15 632.85 938.26 1122.70 375.08 524.86 1058.46 446.13 807.28 999.56 947.06 345.19 1075.72 1043.71 666.56 491.43 723.17 660.23 831.67 827.79 479.95 930.58 583.94 764.63 962.50 919.96 545.86 905.85 242.10 568.28 948.75 392.05 387.64 733.71 472.41 546.67 321.03 935.95 865.50 976.41 507.89 985.17 928.23 0.00 549.32 975.17 864.93 531.22 612.41 998.47 482.98 525.13 1066.43 580.81 846.07 896.54 660.39 747.89 602.66 733.33 631.41 738.25 676.87 632.29 754.83 940.60 736.37 1049.72 655.27 632.31 590.39 570.45 549.51 805.42 276.22 508.66 803.30 517.75 560.80 937.15 746.86 658.09 327.69 444.95 608.74 623.60 524.61 634.65 1045.06 828.55 739.16 371.61 587.95 914.97
1187.38 139.75 765.58 175.94 763.00 806.08 591.41 291.44 741.29 391.74 476.42 801.37 768.67 804.84 766.01 756.89 642.69 141.07 242.82 481.18 931.70 351.68 151.26 761.79 132.39 690.57 710.05 727.25 103.73 684.82 727.61 183.85 781.39 311.50 825.81 864.19 256.18 154.30 537.11 697.59 735.10 650.80 220.01 731.97 628.98 549.32 0.00 825.76 642.60 414.07 157.68 707.98 462.31 195.20 757.89 358.48 441.78 793.52 111.07 593.17 273.30 911.30 262.96 244.93 165.19 118.36 255.89 708.67 242.63 762.31 204.01 194.37 321.00 85.92 193.86 1148.06 273.10 349.13 759.36 210.84 211.31 690.06 929.38 167.82 293.52 978.31 556.31 119.15 421.88 716.80 750.76 443.71 227.49 434.61 38.63 752.52
777.76 918.29 329.43 979.14 201.99 352.56 741.98 1055.82 308.85 1075.06 672.39 24.39 146.25 1217.01 333.57 343.04 489.57 944.37 755.74 432.95 542.87 669.00 932.43 224.04 930.23 280.91 271.57 132.39 892.15 187.33 1036.66 690.49 144.59 1034.50 993.09 484.51 1036.40 918.31 654.14 245.02 174.57 283.42 997.27 251.92 347.58 975.17 825.76 0.00 361.10 532.88 946.73 307.54 562.56 898.14 292.25 592.95 423.88 78.63 754.59 358.75 631.33 444.53 654.69 802.62 748.43 925.97 908.46 296.92 743.20 308.96 808.61 781.46 679.56 893.53 970.64 838.95 980.43 1134.46 547.67 999.26 717.95 246.22 462.61 953.58 765.49 1021.25 460.41 906.58 669.22 624.40 302.00 726.10 877.74 1091.63 846.24 224.04
1084.21 703.25 243.12 691.68 251.47 270.78 685.78 788.42 248.65 879.48 411.89 366.81 275.10 1152.50 270.69 178.78 613.59 638.33 477.33 379.30 786.96 392.51 628.73 202.64 673.62 444.44 179.35 259.18 702.37 286.23 1043.19 458.75 272.78 788.97 967.98 732.53 769.80 692.48 597.94 155.90 194.04 202.69 764.47 247.07 63.30 864.93 642.60 361.10 0.00 484.23 721.24 154.67 435.99 583.55 240.03 284.12 210.05 282.47 540.76 340.41 446.02 688.62 432.96 526.13 530.73 635.77 631.97 75.67 530.14 223.32 603.57 576.42 358.36 671.36 736.15 1086.97 785.29 907.99 711.20 768.84 468.05 170.24 706.70 699.60 537.24 947.90 561.75 598.57 474.08 592.45 230.86 426.42 601.25 900.55 639.52 186.84
773.31 553.82 649.42 590.01 600.96 696.86 298.03 624.87 643.34 560.74 646.28 508.49 545.22 773.06 668.06 653.29 228.62 471.70 446.50 336.30 517.63 591.31 427.13 599.39 541.56 295.32 628.81 586.64 517.80 456.39 655.44 402.00 573.90 542.00 580.23 450.12 603.17 514.41 210.19 632.91 562.46 673.37 593.37 650.89 519.13 531.22 414.07 532.88 484.23 0.00 571.75 625.41 48.24 472.31 626.74 359.74 395.64 529.16 490.77 331.25 380.01 497.23 490.57 457.69 417.36 532.43 669.96 559.90 538.40 643.45 572.74 545.59 467.67 499.99 566.74 733.99 470.58 624.23 345.29 602.21 374.54 634.11 515.31 581.89 256.03 574.00 142.24 533.22 206.56 306.79 657.19 557.31 641.56 685.80 452.70 611.93
1202.82 30.53 913.17 64.48 880.09 945.18 640.44 182.40 880.39 318.23 553.81 949.70 885.87 799.48 892.85 747.99 797.72 161.31 291.59 578.31 1028.35 410.43 159.26 778.09 51.45 790.29 772.75 863.48 66.55 767.98 790.70 305.38 901.86 272.23 883.18 984.30 147.14 113.86 636.43 809.39 843.36 808.48 127.57 867.29 712.14 612.41 157.68 946.73 721.24 571.75 0.00 836.62 593.30 187.33 896.99 480.01 524.94 868.10 194.23 641.49 375.07 999.89 351.54 353.59 257.97 112.27 250.09 791.83 359.11 882.19 187.80 214.95 366.71 80.56 98.03 1192.48 336.19 307.58 898.79 101.80 332.84 798.10 1009.08 99.37 451.20 955.38 713.99 122.67 439.86 826.84 906.01 466.63 219.37 402.89 127.85 793.89
1052.40 814.80 103.62 815.62 163.62 158.77 834.77 919.75 93.98 1007.27 505.75 299.03 177.17 1288.36 118.70 94.82 613.50 793.00 632.00 384.93 752.98 547.18 783.40 173.14 785.17 410.54 63.87 182.56 811.71 300.77 1099.83 613.42 197.19 943.64 1033.88 703.03 867.30 847.15 746.93 67.28 132.97 57.18 910.08 113.69 160.40 998.47 707.98 307.54 154.67 625.41 836.62 0.00 590.66 738.22 110.58 438.79 345.89 281.43 676.60 348.43 600.69 654.64 582.89 680.80 667.96 790.44 786.64 79.00 615.27 122.84 754.09 726.94 513.03 793.90 882.30 1057.47 938.08 1027.74 664.36 912.64 622.72 73.17 672.72 851.86 691.91 1091.57 550.44 753.24 628.75 722.10 76.19 521.52 755.92 1055.22 746.61 157.34
749.11 562.77 601.18 613.74 587.29 697.33 249.79 611.10 632.54 512.50 613.07 538.17 531.55 724.82 628.75 605.05 204.42 508.61 494.74 318.47 513.50 639.55 475.37 585.72 564.83 281.65 612.33 572.97 526.75 442.72 607.20 407.88 560.23 493.76 531.99 410.84 640.08 562.65 161.95 591.89 559.22 638.68 641.61 637.22 499.29 482.98 462.31 562.56 435.99 48.24 593.30 590.66 0.00 492.15 647.10 407.98 443.88 515.49 536.10 379.49 428.25 493.10 538.81 505.93 465.60 580.67 718.20 511.66 582.41 659.31 620.98 593.83 470.49 548.23 606.43 753.17 501.22 575.99 341.16 633.86 380.42 606.23 511.18 630.13 207.79 622.24 125.76 581.46 221.67 285.88 628.61 514.80 689.80 659.76 500.94 601.52
1140.28 165.51 795.08 224.88 835.02 854.33 610.19 204.87 827.86 307.65 547.55 888.50 807.17 854.16 807.27 725.77 659.39 54.78 304.02 497.88 901.62 380.57 45.18 767.02 135.88 648.77 762.90 765.75 137.89 733.36 637.72 207.65 816.91 205.42 794.35 895.56 186.25 108.93 522.35 739.45 762.55 786.24 180.92 787.36 641.40 525.13 195.20 898.14 583.55 472.31 187.33 738.22 492.15 0.00 823.58 327.74 480.87 842.06 233.72 572.88 312.85 914.34 252.55 312.14 261.75 214.77 303.23 659.22 357.51 806.87 281.92 257.08 225.19 160.84 152.60 1201.04 256.87 324.44 796.13 185.29 180.19 753.79 932.42 237.65 410.27 910.19 614.55 224.47 354.31 685.68 814.41 464.82 333.95 466.31 179.12 751.22
1070.01 875.17 45.92 865.53 178.26 70.12 896.89 1008.96 16.60 1059.14 547.64 316.64 211.91 1344.07 41.32 150.53 573.80 855.79 706.47 465.43 813.62 632.54 811.22 222.76 845.54 461.81 166.34 253.33 861.62 372.60 1149.07 687.89 202.27 971.46 1107.31 759.19 977.88 898.50 809.05 139.11 206.40 107.09 977.46 128.33 239.41 1066.43 757.89 292.25 240.03 626.74 896.99 110.58 647.10 823.58 0.00 513.26 413.06 353.65 743.77 427.37 596.90 715.28 632.97 679.12 714.00 849.39 872.00 189.58 679.59 16.71 757.34 730.19 598.39 843.81 942.67 1113.63 927.65 1013.16 679.00 968.73 696.11 146.35 733.36 901.77 738.74 1093.85 652.91 838.60 703.22 811.80 56.16 478.51 841.28 1119.20 796.52 213.50
947.79 454.27 467.34 480.60 509.55 554.90 469.64 532.61 500.12 613.52 341.92 617.34 559.22 868.38 494.91 462.90 444.13 382.52 193.21 170.14 753.21 347.41 372.92 472.85 456.33 400.42 463.47 543.30 418.25 405.62 822.91 174.63 556.90 533.16 785.41 636.60 513.99 436.67 484.31 440.02 478.16 486.81 508.66 459.62 347.42 580.81 358.48 592.95 284.12 359.74 480.01 438.79 407.98 327.74 513.26 0.00 311.18 514.32 292.60 286.81 165.78 732.81 148.84 274.07 246.61 424.69 478.55 359.79 246.02 507.44 319.45 292.30 153.68 421.99 480.34 991.04 501.17 652.18 580.87 513.03 202.09 454.36 750.89 464.42 253.12 907.51 501.98 387.49 189.96 634.74 494.77 361.11 451.77 616.43 391.36 457.05
1024.82 494.41 399.31 566.78 432.97 434.48 524.88 663.05 396.46 712.85 254.81 448.27 420.89 1074.09 371.74 337.81 480.13 535.65 427.73 323.62 789.21 467.50 526.05 326.54 523.04 368.51 331.89 425.35 511.74 369.34 882.29 323.32 396.68 610.62 975.87 721.70 616.42 545.14 605.83 309.80 360.21 345.80 611.81 401.13 187.20 846.07 441.78 423.88 210.05 395.64 524.94 345.89 443.88 480.87 413.06 311.18 0.00 457.13 330.71 206.95 336.34 768.81 403.16 392.80 404.12 509.20 593.72 266.89 326.23 409.90 461.47 488.62 255.68 476.57 561.91 1076.14 682.92 769.21 616.87 599.12 350.78 306.54 786.89 598.36 518.38 962.75 474.85 514.73 403.22 702.43 414.45 353.08 563.00 848.08 429.47 310.74
856.39 846.15 315.69 900.51 193.66 391.87 663.35 995.90 343.29 1007.44 618.52 103.02 146.85 1138.38 337.68 376.25 466.44 865.74 705.26 354.32 614.98 674.98 887.24 145.41 851.60 233.84 262.34 141.35 813.52 108.70 978.41 666.52 169.79 972.83 1020.61 563.14 957.77 839.68 575.51 261.45 194.64 284.02 918.64 243.59 269.93 896.54 793.52 78.63 282.47 529.16 868.10 281.43 515.49 842.06 353.65 514.32 457.13 0.00 682.45 313.84 552.70 516.64 604.21 745.28 669.80 860.94 889.08 304.25 664.57 355.21 729.98 702.83 640.36 828.50 892.01 917.58 901.80 1070.93 500.60 920.63 693.98 261.42 534.72 874.95 686.86 942.62 447.64 866.47 590.59 545.77 302.60 708.89 862.30 1073.32 781.21 146.39
1124.37 163.70 730.02 236.07 709.67 765.19 605.19 332.34 727.17 434.24 365.35 778.98 721.03 798.65 702.45 668.52 676.52 223.10 133.27 393.75 918.75 310.63 262.33 657.25 192.52 607.78 662.60 679.61 181.03 573.75 807.51 205.55 727.39 332.01 936.88 790.07 285.71 214.43 558.81 640.51 690.92 676.51 281.10 731.84 517.91 660.39 111.07 754.59 540.76 490.77 194.23 676.60 536.10 233.72 743.77 292.60 330.71 682.45 0.00 509.05 190.51 847.96 157.31 214.13 73.41 178.49 263.01 597.60 193.92 740.61 130.76 157.91 242.32 146.05 231.20 1144.51 384.17 445.86 813.26 268.41 192.84 637.25 866.04 267.65 404.59 1000.01 576.67 184.02 314.43 632.61 745.16 369.58 232.29 517.37 98.76 641.45
817.87 672.02 436.88 697.73 303.97 475.56 594.39 758.25 410.77 804.12 461.76 334.36 312.77 1064.47 435.49 381.09 273.18 618.25 480.02 116.67 582.26 518.73 573.68 281.51 684.62 274.63 306.24 296.35 666.39 205.14 951.80 409.32 314.46 733.92 911.48 514.75 720.12 602.03 506.55 301.66 231.21 342.12 680.99 350.88 288.48 747.89 593.17 358.75 340.41 331.25 641.49 348.43 379.49 572.88 427.37 286.81 206.95 313.84 509.05 0.00 357.49 561.86 388.91 481.08 437.01 641.82 681.09 269.43 400.37 436.01 537.07 564.22 436.50 655.10 654.36 869.19 737.29 867.61 409.92 706.76 392.69 302.86 579.94 697.77 449.21 905.25 380.69 604.62 476.77 511.18 410.77 464.45 650.37 903.24 607.81 280.68
1066.55 354.21 573.07 379.47 622.14 653.17 568.38 466.26 605.85 566.07 312.30 655.72 566.40 947.85 600.64 624.80 521.86 367.63 211.61 290.45 764.09 348.13 358.03 577.86 383.03 417.27 625.37 607.82 371.54 536.07 828.35 144.33 566.38 517.57 877.00 763.43 431.78 404.94 480.54 601.92 588.70 648.71 389.00 625.40 503.87 602.66 273.30 631.33 446.02 380.01 375.07 600.69 428.25 312.85 596.90 165.78 336.34 552.70 190.51 357.49 0.00 760.74 110.56 214.51 117.10 346.21 416.75 521.69 199.54 580.19 317.93 290.78 87.66 336.56 389.52 1112.88 465.75 592.22 658.60 414.77 154.64 616.26 778.82 415.71 350.36 938.79 522.25 339.97 233.75 660.13 600.50 225.89 422.35 650.06 289.27 577.36
432.90 969.36 693.54 1020.33 547.78 735.19 498.80 962.62 698.68 1005.60 928.78 420.14 513.50 907.25 714.83 749.46 288.68 881.57 840.24 630.31 98.34 992.29 869.16 517.58 971.42 418.70 631.19 472.08 933.34 407.94 752.28 798.06 526.22 926.43 642.49 133.91 1013.04 936.81 546.59 607.67 537.22 626.52 1015.77 597.71 625.32 733.33 911.30 444.53 688.62 497.23 999.89 654.64 493.10 914.34 715.28 732.81 768.81 516.64 847.96 561.86 760.74 0.00 870.36 921.10 863.77 1005.79 1075.08 656.87 942.15 709.33 966.48 939.33 722.88 946.60 979.39 424.14 871.24 982.40 151.94 1012.08 800.10 608.87 18.08 1056.57 660.44 680.70 403.07 968.59 560.03 344.47 669.25 830.51 1080.25 1044.40 946.72 501.78
1096.63 321.01 616.18 388.44 598.00 681.16 618.48 457.42 616.37 525.10 310.54 639.39 563.72 955.96 641.09 536.99 581.68 307.33 101.05 318.98 823.91 246.41 297.73 514.47 342.06 527.83 568.92 522.30 326.09 554.46 809.70 211.94 576.44 457.97 934.25 785.44 438.80 361.48 540.36 532.28 548.14 579.07 433.47 608.46 496.26 631.41 262.96 654.69 432.96 490.57 351.54 582.89 538.81 252.55 632.97 148.84 403.16 604.21 157.31 388.91 110.56 870.36 0.00 181.91 97.77 330.78 342.51 508.63 104.96 645.23 227.29 200.14 147.48 303.36 388.51 1139.88 355.19 576.99 718.42 425.72 239.40 546.62 888.44 372.26 401.96 1006.40 632.81 295.33 338.80 744.89 643.61 212.27 311.79 595.40 256.07 498.67
1148.43 331.77 725.04 336.44 656.37 749.24 676.85 483.27 695.72 573.39 298.88 778.82 695.00 1012.78 720.44 591.24 654.55 330.10 80.86 416.77 896.78 133.62 357.32 599.87 302.14 631.78 704.96 704.21 305.90 662.39 916.54 235.75 697.38 471.16 997.03 896.12 458.35 372.34 589.01 668.32 665.14 715.11 422.18 706.30 580.00 738.25 244.93 802.62 526.13 457.69 353.59 680.80 505.93 312.14 679.12 274.07 392.80 745.28 214.13 481.08 214.51 921.10 181.91 0.00 148.11 280.53 294.38 601.80 80.71 695.83 178.70 151.55 220.35 304.85 396.03 1191.68 462.03 594.06 791.29 413.01 261.75 680.49 939.18 323.67 476.34 1030.21 599.93 243.33 424.22 764.48 735.28 200.61 311.02 642.24 283.56 615.67
1155.29 237.11 690.17 309.48 636.26 770.27 573.24 405.75 714.14 502.70 400.97 737.16 661.49 872.06 717.74 634.76 638.96 296.51 99.81 320.34 881.19 261.96 306.93 612.24 265.93 534.37 637.32 620.07 254.44 565.96 831.75 132.14 674.21 400.47 905.02 847.47 359.12 287.84 485.40 600.68 645.91 647.47 354.51 686.19 591.32 676.87 165.19 748.43 530.73 417.36 257.97 667.96 465.60 261.75 714.00 246.61 404.12 669.80 73.41 437.01 117.10 863.77 97.77 148.11 0.00 251.90 336.42 606.40 202.73 697.29 200.83 173.68 204.76 219.46 304.61 1151.35 400.65 514.32 762.65 341.82 158.04 615.02 881.85 333.01 372.73 926.60 559.60 257.43 303.74 663.53 717.60 310.04 305.70 532.96 172.17 596.44
1246.59 108.52 878.89 80.96 881.36 906.55 709.77 274.14 859.65 380.61 469.15 901.58 845.62 791.00 880.94 796.82 717.11 178.14 231.48 570.43 1026.19 322.71 179.14 805.53 78.89 720.69 800.19 845.61 86.43 752.24 810.58 296.45 853.74 286.58 944.17 958.68 238.88 158.51 649.71 791.67 829.81 769.16 202.71 850.33 696.40 632.29 118.36 925.97 635.77 532.43 112.27 790.44 580.67 214.77 849.39 424.69 509.20 860.94 178.49 641.82 346.21 1005.79 330.78 280.53 251.90 0.00 168.72 711.44 335.19 859.09 142.22 169.37 394.15 72.08 169.97 1107.01 356.07 377.31 853.85 193.54 323.91 806.01 1000.60 94.37 411.88 975.26 674.67 37.20 459.74 755.47 866.63 370.88 138.00 422.77 79.73 818.71
1339.34 233.19 875.09 186.96 883.44 902.75 782.37 383.94 880.62 505.28 452.15 932.85 899.48 928.45 874.34 810.75 816.65 314.59 285.34 564.42 1125.73 239.46 316.03 798.83 203.56 834.02 811.32 864.81 241.64 810.04 891.42 341.27 904.75 455.30 1039.54 1053.08 331.49 265.75 694.53 787.87 826.01 834.66 318.17 879.04 695.27 754.83 255.89 908.46 631.97 669.96 250.09 786.64 718.20 303.23 872.00 478.55 593.72 889.08 263.01 681.09 416.75 1075.08 342.51 294.38 336.42 168.72 0.00 707.64 315.61 855.29 163.04 186.25 478.42 209.53 254.39 1199.76 478.61 469.05 953.39 335.84 368.73 802.21 1057.00 150.72 549.41 1130.47 756.61 136.74 571.85 874.22 862.83 401.24 30.72 577.98 219.58 814.63
1043.32 761.30 167.45 767.35 195.11 237.77 755.77 864.09 172.98 928.27 426.75 295.12 199.43 1228.17 195.02 111.66 542.61 714.00 553.00 305.93 755.21 468.18 704.40 158.84 749.29 399.92 103.68 184.79 778.04 276.62 1076.92 534.42 205.60 864.64 1023.26 717.51 845.47 768.15 667.93 80.23 122.35 127.02 840.14 171.40 81.40 940.60 708.67 296.92 75.67 559.90 791.83 79.00 511.66 659.22 189.58 359.79 266.89 304.25 597.60 269.43 521.69 656.87 508.63 601.80 606.40 711.44 707.64 0.00 536.27 201.84 679.24 652.09 434.03 717.44 811.82 1071.95 860.96 983.66 666.68 844.51 543.72 94.57 674.95 775.27 612.91 1012.57 590.25 674.24 549.75 643.10 155.19 502.09 676.92 976.22 696.36 171.82
1193.81 328.58 672.48 358.02 634.10 688.98 676.96 506.12 696.19 596.24 299.35 734.73 626.94 992.57 697.97 641.95 653.47 352.95 103.71 336.06 895.70 209.46 393.89 519.16 358.21 616.81 639.95 627.26 325.78 581.68 914.66 235.86 655.62 494.01 1008.74 882.62 473.18 396.93 589.12 616.50 584.43 663.29 442.06 670.55 513.43 736.37 242.63 743.20 530.14 538.40 359.11 615.27 582.41 357.51 679.59 246.02 326.23 664.57 193.92 400.37 199.54 942.15 104.96 80.71 202.73 335.19 315.61 536.27 0.00 696.30 196.63 202.80 219.27 318.45 396.08 1237.06 460.15 591.76 790.21 432.89 252.65 630.84 948.29 357.33 476.45 1030.32 669.62 297.99 433.29 758.14 691.46 201.08 284.89 662.12 281.26 534.96
1086.72 887.43 61.64 869.95 161.55 72.98 909.10 1011.74 28.86 1059.94 559.90 333.35 217.29 1327.74 53.11 134.20 557.09 861.65 700.65 448.72 807.67 615.83 827.93 235.02 857.80 467.19 170.76 237.25 866.04 357.11 1132.36 682.07 214.53 969.54 1122.73 767.12 990.14 915.21 821.26 151.37 221.82 111.51 969.19 111.62 222.70 1049.72 762.31 308.96 223.32 643.45 882.19 122.84 659.31 806.87 16.71 507.44 409.90 355.21 740.61 436.01 580.19 709.33 645.23 695.83 697.29 859.09 855.29 201.84 696.30 0.00 774.05 746.90 581.68 848.23 954.93 1121.56 944.36 996.45 662.29 973.15 679.78 150.77 727.41 906.19 722.03 1109.57 657.33 821.89 697.40 795.09 70.29 495.22 824.57 1123.87 800.94 225.76
1250.67 218.33 759.87 196.94 763.38 827.46 719.14 352.58 773.87 489.75 377.10 833.00 740.38 929.41 778.02 764.28 763.58 275.67 126.24 428.21 1043.38 222.63 239.05 712.18 221.11 719.87 759.62 749.59 228.65 673.83 837.75 281.13 769.06 399.29 953.54 920.83 300.13 243.91 634.39 748.61 690.62 773.53 299.09 779.07 648.67 655.27 204.01 808.61 603.57 572.74 187.80 754.09 620.98 281.92 757.34 319.45 461.47 729.98 130.76 537.07 317.93 966.48 227.29 178.70 200.83 142.22 163.04 679.24 196.63 774.05 0.00 27.15 366.95 214.30 281.88 1216.52 383.24 460.57 900.32 289.60 296.26 734.27 984.56 160.70 421.25 1075.59 707.43 146.71 445.19 763.37 732.44 278.83 132.32 564.99 182.89 715.12
1223.52 245.48 759.64 208.36 736.23 800.31 695.08 358.01 746.79 471.41 349.95 805.85 713.23 921.95 771.51 737.13 736.43 248.52 99.09 455.36 1016.23 195.48 211.90 685.03 223.76 692.72 732.47 722.44 234.76 697.92 810.60 253.98 741.91 372.14 967.23 928.90 323.53 271.06 607.24 721.46 663.47 746.38 280.75 751.92 632.09 632.31 194.37 781.46 576.42 545.59 214.95 726.94 593.83 257.08 730.19 292.30 488.62 702.83 157.91 564.22 290.78 939.33 200.14 151.55 173.68 169.37 186.25 652.09 202.80 746.90 27.15 0.00 339.80 203.03 309.03 1243.67 356.09 483.97 873.17 306.52 281.44 707.12 957.41 172.12 448.40 1048.44 687.83 173.86 472.34 786.93 759.59 251.68 159.47 571.10 155.74 698.81
978.89 344.89 601.48 404.57 609.83 629.14 480.72 430.06 606.80 521.12 399.96 680.10 589.86 877.96 582.08 537.14 434.20 279.97 248.53 319.83 676.43 353.97 270.37 555.55 315.26 423.58 537.71 617.54 353.34 559.30 756.51 137.15 591.72 430.61 794.99 675.77 411.44 334.12 392.88 514.26 552.40 561.05 406.11 605.43 416.21 590.39 321.00 679.56 358.36 467.67 366.71 513.03 470.49 225.19 598.39 153.68 255.68 640.36 242.32 436.50 87.66 722.88 147.48 220.35 204.76 394.15 478.42 434.03 219.27 581.68 366.95 339.80 0.00 361.73 377.79 1025.22 427.24 549.63 570.94 410.48 109.69 528.60 740.96 417.03 262.70 918.59 576.20 404.65 268.84 604.56 589.22 313.55 459.27 667.45 341.08 539.75
1245.73 57.24 851.50 134.88 848.92 892.00 677.33 234.99 827.21 348.19 511.40 869.14 849.98 718.92 848.31 814.38 728.61 106.06 267.07 539.80 1017.62 355.73 150.63 773.11 46.47 753.83 767.77 810.20 84.55 719.80 748.74 269.77 821.30 304.60 903.18 936.12 193.74 86.43 621.68 783.51 821.02 736.72 159.55 817.89 663.77 570.45 85.92 893.53 671.36 499.99 80.56 793.90 548.23 160.84 843.81 421.99 476.57 828.50 146.05 655.10 336.56 946.60 303.36 304.85 219.46 72.08 209.53 717.44 318.45 848.23 214.30 203.03 361.73 0.00 118.03 1142.60 294.23 332.69 845.28 154.39 297.23 775.98 928.52 148.24 379.44 973.38 642.23 72.79 427.60 778.66 836.68 442.96 188.35 420.89 47.29 787.31
1234.71 67.50 947.68 127.56 925.77 990.86 620.09 129.55 926.07 266.93 596.55 980.84 884.71 778.84 929.82 846.02 795.36 97.82 315.17 537.69 1008.70 432.41 139.61 823.77 97.13 801.37 818.43 910.81 90.13 783.31 727.80 353.47 913.39 220.52 785.15 1004.42 77.10 52.33 616.78 840.94 874.07 844.66 76.27 912.97 749.11 549.51 193.86 970.64 736.15 566.74 98.03 882.30 606.43 152.60 942.67 480.34 561.91 892.01 231.20 654.36 389.52 979.39 388.51 396.03 304.61 169.97 254.39 811.82 396.08 954.93 281.88 309.03 377.79 118.03 0.00 1251.15 273.29 214.66 912.03 81.45 332.79 826.60 997.47 163.80 476.86 948.51 708.98 181.34 419.36 838.28 934.51 540.85 223.67 357.16 158.99 824.60
139.58 1188.83 1091.89 1162.92 960.01 1106.62 646.26 1265.50 1097.03 1088.79 1103.59 814.56 923.21 797.26 1119.46 1149.72 596.01 1205.69 1180.49 946.94 348.79 1316.28 1161.12 915.93 1159.20 726.03 1033.07 896.22 1193.44 832.08 563.32 1087.36 950.36 1133.66 719.95 354.44 1214.02 1198.82 734.10 1020.05 949.60 1041.18 1210.67 1009.94 1023.67 805.42 1148.06 838.95 1086.97 733.99 1192.48 1057.47 753.17 1201.04 1113.63 991.04 1076.14 917.58 1144.51 869.19 1112.88 424.14 1139.88 1191.68 1151.35 1107.01 1199.76 1071.95 1237.06 1121.56 1216.52 1243.67 1025.22 1142.60 1251.15 0.00 1017.83 1152.28 459.27 1184.90 1069.81 1015.16 406.06 1170.84 944.15 567.19 627.41 1069.81 940.55 600.04 1076.04 1201.86 1185.37 1177.03 1155.07 900.13
1157.41 305.66 968.51 356.63 953.19 980.49 651.30 248.64 944.25 169.91 665.73 977.13 918.91 621.41 968.97 890.18 699.20 215.21 455.18 671.31 969.58 551.57 259.78 859.56 307.72 720.61 913.69 877.49 269.64 793.10 454.51 368.44 931.63 115.83 611.14 816.76 196.19 270.45 597.25 877.05 893.23 923.84 238.97 960.79 841.13 276.22 273.10 980.43 785.29 470.58 336.19 938.08 501.22 256.87 927.65 501.17 682.92 901.80 384.17 737.29 465.75 871.24 355.19 462.03 400.65 356.07 478.61 860.96 460.15 944.36 383.24 356.09 427.24 294.23 273.29 1017.83 0.00 232.44 815.87 241.53 344.60 891.39 889.32 381.87 401.80 721.17 612.82 347.38 311.21 777.37 983.81 567.46 462.94 240.21 311.73 843.76
1291.86 282.16 1033.08 342.22 1043.95 1069.43 576.51 179.67 1025.31 63.49 811.21 1110.07 988.21 640.91 1049.56 1020.50 780.41 269.66 518.90 752.35 1080.74 603.99 314.23 1038.43 311.79 857.64 1033.09 1029.63 304.79 997.97 686.95 502.38 1016.89 158.59 666.28 960.86 160.44 266.99 664.35 1023.43 1069.77 999.93 203.22 1081.10 910.36 508.66 349.13 1134.46 907.99 624.23 307.58 1027.74 575.99 324.44 1013.16 652.18 769.21 1070.93 445.86 867.61 592.22 982.40 576.99 594.06 514.32 377.31 469.05 983.66 591.76 996.45 460.57 483.97 549.63 332.69 214.66 1152.28 232.44 0.00 917.15 205.78 474.92 1009.09 1000.48 346.12 444.56 795.80 701.75 394.23 543.65 821.00 1060.51 719.66 438.33 182.12 373.65 1033.90
527.96 868.26 664.40 909.76 500.74 702.35 496.29 908.12 683.14 853.66 871.68 523.28 516.66 878.17 691.97 741.21 136.74 816.99 774.08 487.67 172.34 911.51 772.42 570.83 886.20 266.76 608.08 558.08 863.09 427.83 723.20 708.09 545.34 794.47 613.41 104.83 948.46 859.70 503.11 614.78 544.33 612.94 938.66 550.67 650.76 803.30 759.36 547.67 711.20 345.29 898.79 664.36 341.16 796.13 679.00 580.87 616.87 500.60 813.26 409.92 658.60 151.94 718.42 791.29 762.65 853.85 953.39 666.68 790.21 662.29 900.32 873.17 570.94 845.28 912.03 459.27 815.87 917.15 0.00 947.50 680.63 615.98 170.02 917.68 508.50 567.02 251.13 816.65 551.85 236.72 672.41 855.96 932.21 911.27 797.99 586.63
1270.18 104.71 976.42 166.28 962.98 1016.92 538.64 80.60 952.13 216.43 633.76 1011.23 946.29 729.89 967.03 849.79 830.83 130.51 332.15 590.09 1044.17 454.35 175.08 860.98 134.34 832.04 855.64 938.09 107.11 835.71 696.04 381.54 963.39 202.31 852.67 1039.16 45.34 104.73 626.48 892.28 926.25 861.64 25.77 942.81 786.32 517.75 210.84 999.26 768.84 602.21 101.80 912.64 633.86 185.29 968.73 513.03 599.12 920.63 268.41 706.76 414.77 1012.08 425.72 413.01 341.82 193.54 335.84 844.51 432.89 973.15 289.60 306.52 410.48 154.39 81.45 1184.90 241.53 205.78 947.50 0.00 365.48 880.99 1030.16 196.57 453.04 948.74 744.45 223.73 452.05 798.21 961.60 542.21 305.12 325.40 189.38 876.78
997.25 330.36 669.43 379.95 661.26 738.83 468.56 385.06 680.63 411.43 421.55 708.31 626.98 848.37 691.77 545.58 543.89 234.97 182.35 339.66 786.12 353.14 225.37 639.49 314.20 533.27 603.75 585.56 315.04 585.28 673.71 27.46 639.70 385.61 765.40 715.37 366.44 289.12 380.72 593.23 623.90 618.15 361.11 661.71 500.15 560.80 211.31 717.95 468.05 374.54 332.84 622.72 380.42 180.19 696.11 202.09 350.78 693.98 192.84 392.69 154.64 800.10 239.40 261.75 158.04 323.91 368.73 543.72 252.65 679.78 296.26 281.44 109.69 297.23 332.79 1069.81 344.60 474.92 680.63 365.48 0.00 578.89 818.18 343.71 233.11 821.92 506.18 330.46 240.07 505.49 686.80 380.53 399.45 583.16 249.94 623.69
992.62 776.28 135.34 797.70 132.69 194.54 827.77 956.15 129.75 966.21 467.93 243.31 136.55 1282.34 153.49 167.53 576.04 808.57 647.57 390.24 707.21 562.75 798.97 130.38 746.65 349.22 25.35 136.79 784.73 247.48 1103.50 592.03 154.90 917.16 972.56 660.72 903.70 829.24 739.93 14.34 71.65 39.26 883.69 94.59 119.34 937.15 690.06 246.22 170.24 634.11 798.10 73.17 606.23 753.79 146.35 454.36 306.54 261.42 637.25 302.86 616.26 608.87 546.62 680.49 615.02 806.01 802.21 94.57 630.84 150.77 734.27 707.12 528.60 775.98 826.60 1015.16 891.39 1009.09 615.98 880.99 578.89 0.00 626.95 833.94 707.48 1066.69 511.92 768.81 644.32 701.81 107.91 479.88 771.49 1016.68 728.69 115.03
414.82 985.76 711.62 1038.41 565.86 753.27 516.88 980.70 716.76 1010.58 946.86 438.22 531.58 925.33 732.91 767.54 306.76 899.65 858.32 612.23 116.42 1010.37 887.24 535.66 974.99 436.69 649.27 490.16 951.42 426.02 770.36 816.14 544.30 908.35 660.57 151.99 1031.12 954.89 564.67 625.75 555.30 644.60 1033.85 615.79 643.40 746.86 929.38 462.61 706.70 515.31 1009.08 672.72 511.18 932.42 733.36 750.89 786.89 534.72 866.04 579.94 778.82 18.08 888.44 939.18 881.85 1000.60 1057.00 674.95 948.29 727.41 984.56 957.41 740.96 928.52 997.47 406.06 889.32 1000.48 170.02 1030.16 818.18 626.95 0.00 1074.65 678.52 698.78 421.15 986.67 578.11 326.39 687.33 848.59 1087.72 1062.48 964.80 519.86
1296.25 109.86 909.46 36.24 906.88 949.96 735.21 238.13 885.17 385.52 522.07 969.19 885.35 867.16 909.89 847.36 780.94 239.60 271.21 588.91 1070.24 328.74 201.15 828.41 101.77 815.06 823.07 874.35 123.23 834.53 836.38 316.25 914.03 341.59 948.95 1022.51 185.68 184.36 663.80 841.47 835.59 794.68 194.86 875.85 762.90 658.09 167.82 953.58 699.60 581.89 99.37 851.86 630.13 237.65 901.77 464.42 598.36 874.95 267.65 697.77 415.71 1056.57 372.26 323.67 333.01 94.37 150.72 775.27 357.33 906.19 160.70 172.12 417.03 148.24 163.80 1170.84 381.87 346.12 917.68 196.57 343.71 833.94 1074.65 0.00 461.34 1012.06 724.13 101.03 496.54 814.90 893.14 423.80 120.00 459.57 168.89 844.21
956.90 433.27 720.46 469.46 708.81 795.01 297.89 403.31 750.89 388.20 479.59 745.96 739.34 615.26 748.03 716.02 412.21 434.59 395.48 332.54 680.84 510.83 444.78 635.25 425.91 489.44 716.59 734.06 397.25 578.16 569.79 240.59 751.03 285.97 532.29 613.33 455.76 447.82 265.30 693.14 668.92 739.93 462.51 688.61 600.54 327.69 293.52 765.49 537.24 256.03 451.20 691.91 207.79 410.27 738.74 253.12 518.38 686.86 404.59 449.21 350.36 660.44 401.96 476.34 372.73 411.88 549.41 612.91 476.45 722.03 421.25 448.40 262.70 379.44 476.86 944.15 401.80 444.56 508.50 453.04 233.11 707.48 678.52 461.34 0.00 735.76 333.55 412.67 196.92 493.67 747.89 576.25 521.01 546.21 332.15 619.45
706.77 924.85 1047.93 975.82 1005.60 1145.50 437.87 969.81 1080.71 732.31 1157.01 1006.91 971.32 506.41 1075.50 1124.23 634.85 936.38 949.35 861.45 739.36 1120.14 924.90 1060.31 926.91 833.78 1089.01 929.90 888.83 896.32 272.47 794.46 984.04 834.54 276.29 546.79 917.36 991.62 525.71 1065.49 995.04 1084.34 922.97 1055.53 979.32 444.95 978.31 1021.25 947.90 574.00 955.38 1091.57 622.24 910.19 1093.85 907.51 962.75 942.62 1000.01 905.25 938.79 680.70 1006.40 1030.21 926.60 975.26 1130.47 1012.57 1030.32 1109.57 1075.59 1048.44 918.59 973.38 948.51 567.19 721.17 795.80 567.02 948.74 821.92 1066.69 698.78 1012.06 735.76 0.00 609.24 1012.46 780.56 396.85 1075.36 1131.31 1113.26 816.56 944.46 1044.51
701.48 688.53 643.31 732.25 593.91 670.07 375.55 736.86 636.31 638.26 729.66 484.80 594.49 850.58 661.03 645.26 311.07 613.94 588.74 333.56 423.47 733.55 569.37 593.05 683.80 407.41 486.57 588.99 652.51 556.34 680.33 533.64 605.00 619.52 657.75 355.96 745.41 656.65 287.71 523.21 583.57 545.82 735.61 581.11 619.50 608.74 556.31 460.41 561.75 142.24 713.99 550.44 125.76 614.55 652.91 501.98 474.85 447.64 576.67 380.69 522.25 403.07 632.81 599.93 559.60 674.67 756.61 590.25 669.62 657.33 707.43 687.83 576.20 642.23 708.98 627.41 612.82 701.75 251.13 744.45 506.18 511.92 421.15 724.13 333.55 609.24 0.00 675.46 347.43 239.90 619.83 640.56 783.80 750.43 594.94 594.03
1209.39 119.02 841.69 93.11 850.04 869.35 710.56 253.35 847.22 391.11 506.35 907.11 808.42 791.71 869.26 759.62 679.91 177.85 194.28 557.63 988.99 324.30 179.29 797.31 89.39 757.24 777.92 817.63 123.63 757.77 801.89 303.00 837.10 323.78 944.96 921.48 233.79 129.01 656.26 754.47 792.61 769.95 207.97 845.64 661.87 623.60 119.15 906.58 598.57 533.22 122.67 753.24 581.46 224.47 838.60 387.49 514.73 866.47 184.02 604.62 339.97 968.59 295.33 243.33 257.43 37.20 136.74 674.24 297.99 821.89 146.71 173.86 404.65 72.79 181.34 1069.81 347.38 394.23 816.65 223.73 330.46 768.81 986.67 101.03 412.67 1012.46 675.46 0.00 435.24 792.67 829.43 408.08 115.56 459.97 85.26 781.51
970.78 409.33 657.30 460.30 654.78 744.86 382.19 474.71 690.08 481.12 524.05 665.92 611.16 812.18 684.87 652.86 426.09 321.54 383.17 360.10 658.37 537.37 309.13 548.35 411.39 409.40 653.43 647.16 373.31 481.89 739.60 238.03 639.84 408.39 729.21 632.51 453.01 376.78 294.35 629.98 582.02 673.60 455.74 649.58 531.80 524.61 421.88 669.22 474.08 206.56 439.86 628.75 221.67 354.31 703.22 189.96 403.22 590.59 314.43 476.77 233.75 560.03 338.80 424.22 303.74 459.74 571.85 549.75 433.29 697.40 445.19 472.34 268.84 427.60 419.36 940.55 311.21 543.65 551.85 452.05 240.07 644.32 578.11 496.54 196.92 780.56 347.43 435.24 0.00 507.55 684.73 425.78 541.13 551.42 413.19 532.55
491.76 796.31 810.55 778.66 649.77 773.67 259.57 860.22 816.08 764.64 760.16 648.79 687.74 808.78 827.42 754.76 238.00 740.46 687.84 464.60 394.19 858.63 730.86 691.18 819.69 437.84 726.47 687.12 812.63 539.81 616.98 532.95 715.56 662.41 487.70 299.34 835.51 794.61 347.41 716.15 715.41 741.07 823.98 699.70 582.47 634.65 716.80 624.40 592.45 306.79 826.84 722.10 285.88 685.68 811.80 634.74 702.43 545.77 632.61 511.18 660.13 344.47 744.89 764.48 663.53 755.47 874.22 643.10 758.14 795.09 763.37 786.93 604.56 778.66 838.28 600.04 777.37 821.00 236.72 798.21 505.49 701.81 326.39 814.90 493.67 396.85 239.90 792.67 507.55 0.00 798.29 800.68 864.90 845.22 731.37 692.16
1030.98 884.19 27.43 858.40 174.01 106.22 878.40 995.94 41.43 1074.12 541.57 277.61 155.75 1353.43 45.58 171.01 627.38 869.19 676.87 461.12 767.59 623.37 859.59 233.68 854.56 405.65 133.26 197.17 854.49 328.06 1144.82 669.40 184.43 1019.83 1080.47 737.73 943.49 905.06 790.56 117.64 179.56 99.96 970.77 124.08 227.25 1045.06 750.76 302.00 230.86 657.19 906.01 76.19 628.61 814.41 56.16 494.77 414.45 302.60 745.16 410.77 600.50 669.25 643.61 735.28 717.60 866.63 862.83 155.19 691.46 70.29 732.44 759.59 589.22 836.68 934.51 1076.04 983.81 1060.51 672.41 961.60 686.80 107.91 687.33 893.14 747.89 1075.36 619.83 829.43 684.73 798.29 0.00 534.67 832.11 1111.20 789.39 219.19
1263.41 479.40 524.43 451.84 612.57 548.63 764.59 593.70 495.11 707.10 98.27 723.19 603.91 1161.88 519.83 559.01 719.22 500.20 263.62 396.48 928.85 161.78 463.58 586.20 449.77 643.16 505.23 616.67 457.31 642.10 1012.09 370.22 603.57 623.82 1022.58 925.64 559.22 522.74 676.75 494.22 551.53 519.14 516.44 574.47 446.86 828.55 443.71 726.10 426.42 557.31 466.63 521.52 514.80 464.82 478.51 361.11 353.08 708.89 369.58 464.45 225.89 830.51 212.27 200.61 310.04 370.88 401.24 502.09 201.08 495.22 278.83 251.68 313.55 442.96 540.85 1201.86 567.46 719.66 855.96 542.21 380.53 479.88 848.59 423.80 576.25 1131.31 640.56 408.08 425.78 800.68 534.67 0.00 370.52 793.65 407.42 570.40
1324.95 229.86 844.37 156.24 852.72 872.03 813.09 353.22 849.90 478.11 421.43 902.13 872.70 907.27 843.62 780.03 795.47 293.41 258.56 533.70 1104.55 208.74 294.85 768.11 204.95 839.62 780.60 834.09 224.43 779.32 917.45 371.99 874.03 424.58 1008.82 1022.36 300.77 244.57 725.25 757.15 795.29 803.94 287.45 848.32 664.55 739.16 227.49 877.74 601.25 641.56 219.37 755.92 689.80 333.95 841.28 451.77 563.00 862.30 232.29 650.37 422.35 1080.25 311.79 311.02 305.70 138.00 30.72 676.92 284.89 824.57 132.32 159.47 459.27 188.35 223.67 1185.37 462.94 438.33 932.21 305.12 399.45 771.49 1087.72 120.00 521.01 1113.26 783.80 115.56 541.13 864.90 832.11 370.52 0.00 560.77 188.86 783.91
1269.44 372.36 1083.77 423.33 1125.98 1171.33 585.65 266.67 1116.55 171.73 875.98 1116.02 1124.55 458.79 1111.34 1079.33 864.18 411.53 561.38 786.57 1083.61 723.61 429.05 1048.53 374.42 941.41 1038.98 1117.70 336.34 1022.05 613.71 608.65 1143.10 273.96 759.25 910.49 280.06 398.15 497.81 1002.34 1072.79 1049.13 322.84 1076.05 963.85 371.61 434.61 1091.63 900.55 685.80 402.89 1055.22 659.76 466.31 1119.20 616.43 848.08 1073.32 517.37 903.24 650.06 1044.40 595.40 642.24 532.96 422.77 577.98 976.22 662.12 1123.87 564.99 571.10 667.45 420.89 357.16 1177.03 240.21 182.12 911.27 325.40 583.16 1016.68 1062.48 459.57 546.21 816.56 750.43 459.97 551.42 845.22 1111.20 793.65 560.77 0.00 418.61 1032.73
1223.13 104.53 804.21 137.31 801.63 844.71 630.04 269.98 779.92 385.29 464.11 821.85 802.69 766.21 801.21 767.28 681.32 124.34 232.03 492.51 970.33 313.05 168.84 756.01 93.76 706.54 748.68 765.88 82.27 672.51 736.09 222.48 774.01 302.32 864.44 888.83 233.76 115.67 575.74 736.22 773.73 689.43 194.63 770.60 616.67 587.95 38.63 846.24 639.52 452.70 127.85 746.61 500.94 179.12 796.52 391.36 429.47 781.21 98.76 607.81 289.27 946.72 256.07 283.56 172.17 79.73 219.58 696.36 281.26 800.94 182.89 155.74 341.08 47.29 158.99 1155.07 311.73 373.65 797.99 189.38 249.94 728.69 964.80 168.89 332.15 944.46 594.94 85.26 413.19 731.37 789.39 407.42 188.86 418.61 0.00 740.21
934.68 772.07 191.76 831.75 122.23 261.69 713.19 928.49 196.90 970.41 472.13 222.24 123.58 1180.10 219.33 249.59 553.86 806.00 599.72 286.91 600.12 575.17 796.40 15.80 742.44 319.87 132.94 114.61 780.52 225.30 1070.60 596.23 132.72 905.42 950.38 545.69 890.36 772.27 625.35 119.92 49.47 141.05 851.23 146.21 123.54 914.97 752.52 224.04 186.84 611.93 793.89 157.34 601.52 751.22 213.50 457.05 310.74 146.39 641.45 280.68 577.36 501.78 498.67 615.67 596.44 818.71 814.63 171.82 534.96 225.76 715.12 698.81 539.75 787.31 824.60 900.13 843.76 1033.90 586.63 876.78 623.69 115.03 519.86 844.21 619.45 1044.51 594.03 781.51 532.55 692.16 219.19 570.40 783.91 1032.73 740.21 0.00
DEMAND_SECTION
1 0
2 97
3 95
4 58
5 50
6 54
7 99
8 5
9 2
10 1
11 7
12 9
13 4
14 5
15 8
16 8
17 4
18 10
19 4
20 9
21 10
22 9
23 5
24 1
25 9
26 2
27 4
28 7
29 5
30 7
31 5
32 1
33 8
34 2
35 1
36 2
37 9
38 7
39 1
40 5
41 7
42 2
43 10
44 9
45 3
46 9
47 6
48 8
49 10
50 1
51 9
52 3
53 8
54 9
55 5
56 5
57 7
58 4
59 6
60 10
61 10
62 9
63 2
64 3
65 7
66 8
67 9
68 6
69 8
70 4
71 4
72 10
73 8
74 5
75 7
76 9
77 2
78 10
79 5
80 1
81 5
82 2
83 3
84 10
85 4
86 4
87 2
88 10
89 4
90 8
91 3
92 4
93 9
94 8
95 6
96 9
DEPOT_SECTION
1
-1
EOF
