NAME: LDG90_1254_snow_90_0046
COMMENT: CVRP with travel times.  rootPos=1,custPos=2,demandType=5,avgRouteSizeIndex=4,weather=snow,lambda_cluster=1,lambda_random=4, T1=300,T2=700,beta=1, alpha(i,j) ~ U(0.8,1.2)
TYPE: CVRP
DIMENSION: 91
EDGE_WEIGHT_TYPE: EXPLICIT
EDGE_WEIGHT_FORMAT: FULL_MATRIX
CAPACITY: 930
NODE_COORD_SECTION
1 689 557
2 590 209
3 144 377
4 544 284
5 592 175
6 176 572
7 670 369
8 452 682
9 546 498
10 447 785
11 89 595
12 776 897
13 489 711
14 549 158
15 845 610
16 640 258
17 551 17
18 247 361
19 347 557
20 667 748
21 254 451
22 762 676
23 511 226
24 612 307
25 500 272
26 905 815
27 146 535
28 192 554
29 69 414
30 851 748
31 202 727
32 672 156
33 462 515
34 403 742
35 258 916
36 209 482
37 495 811
38 540 179
39 522 325
40 521 300
41 430 727
42 516 810
43 421 671
44 834 712
45 486 275
46 218 568
47 856 573
48 181 582
49 665 231
50 751 795
51 438 748
52 645 294
53 952 317
54 333 719
55 262 670
56 799 712
57 452 900
58 818 709
59 522 365
60 579 185
61 424 747
62 400 608
63 187 543
64 933 797
65 930 775
66 733 732
67 160 497
68 819 704
69 799 707
70 766 336
71 511 74
72 732 742
73 329 791
74 142 623
75 804 578
76 421 724
77 266 509
78 686 637
79 870 565
80 581 265
81 909 766
82 755 586
83 606 803
84 184 559
85 151 577
86 686 862
87 224 569
88 641 308
89 819 693
90 273 498
91 696 855
EDGE_WEIGHT_SECTION
0.00 606.14 899.01 413.88 608.84 809.86 442.34 449.40 442.39 573.00 929.94 488.39 439.93 649.30 286.06 438.07 758.93 895.16 737.68 340.36 809.33 341.83 550.66 409.18 489.81 571.83 818.52 758.46 965.32 421.12 784.88 593.84 478.80 553.94 935.64 718.72 499.46 631.82 496.56 514.06 478.03 507.39 374.15 314.22 529.84 769.74 298.52 797.08 504.16 374.60 511.47 385.68 735.24 627.16 678.23 345.47 722.83 362.09 544.71 600.24 535.24 618.49 777.07 507.59 469.52 290.57 740.79 360.87 331.63 376.58 704.04 322.66 643.37 900.25 280.92 504.93 727.17 110.29 239.39 502.37 519.74 209.11 513.35 783.94 813.81 456.73 752.51 351.39 358.03 698.53 427.48
606.14 0.00 843.86 244.39 62.44 854.91 392.50 787.84 501.93 939.15 957.43 1043.26 806.08 162.93 796.06 217.98 321.21 573.81 780.00 872.62 658.18 814.32 121.42 212.79 168.46 1100.36 746.40 803.51 798.01 949.65 1008.83 195.60 644.23 934.79 1160.29 748.79 978.88 129.81 285.50 243.98 858.88 1010.39 792.95 842.75 208.49 800.39 833.77 850.72 145.91 929.47 920.55 289.04 639.75 944.53 985.11 904.73 1129.34 885.88 375.22 87.61 916.09 760.94 784.90 1008.58 998.05 869.52 824.13 889.40 918.57 431.07 304.77 900.74 1050.70 947.04 788.74 885.78 685.86 665.16 774.64 177.36 1048.27 716.93 987.56 805.27 853.59 1015.50 799.30 254.75 912.90 657.22 1033.62
899.01 843.86 0.00 781.02 873.31 368.95 1000.08 675.59 756.57 797.30 512.79 1292.51 802.18 799.30 1178.20 906.76 945.75 299.74 450.77 988.99 330.13 1086.54 722.44 898.97 705.09 1335.31 345.51 341.31 183.18 1218.13 531.51 996.95 669.49 743.01 900.15 239.52 875.35 749.42 824.19 780.61 710.42 921.90 703.29 1161.97 665.06 283.15 1159.16 361.28 978.83 1143.18 776.30 948.58 1343.64 624.07 486.19 1089.45 878.01 1118.91 830.16 829.21 767.63 614.97 359.44 1355.34 1317.27 1077.55 331.74 1115.32 1075.61 1070.23 829.12 1045.46 702.33 448.12 1179.93 737.32 322.83 1009.30 1138.40 828.70 1335.77 1108.12 1031.59 315.83 398.08 1111.50 300.38 921.71 1126.16 294.19 1082.25
413.88 244.39 781.02 0.00 237.05 623.16 362.57 676.62 331.37 821.21 838.72 902.27 688.14 272.87 699.94 213.31 345.05 481.28 658.27 754.24 563.95 755.71 141.83 262.02 75.93 985.71 653.87 674.56 817.84 835.00 830.29 338.58 420.68 781.16 1016.49 654.56 811.66 222.99 114.04 100.18 705.25 875.97 601.37 728.10 115.96 656.59 712.40 664.19 273.03 788.48 738.69 208.37 664.59 758.03 859.35 759.35 988.90 775.97 130.83 225.00 762.46 516.55 693.17 921.47 883.40 704.45 731.60 774.75 745.51 418.98 362.25 736.54 864.20 801.56 602.53 732.15 593.33 524.17 653.27 88.49 933.62 576.85 898.69 687.74 704.06 870.61 673.82 242.66 771.91 564.69 841.36
608.84 62.44 873.31 237.05 0.00 826.34 395.20 744.33 520.63 942.08 933.47 1074.01 868.52 120.73 733.62 170.77 258.77 604.87 784.52 931.90 689.24 817.02 183.86 250.69 230.90 1056.85 777.46 787.24 860.45 906.14 1067.34 165.23 657.73 891.28 1222.73 742.06 1032.59 123.89 282.71 306.42 815.37 1004.47 819.58 799.24 239.55 850.96 804.97 807.21 133.73 983.44 877.04 256.63 627.57 941.74 1020.12 879.35 1132.27 847.11 367.88 44.10 872.58 753.60 774.67 992.61 954.54 899.41 834.28 845.89 885.60 400.39 242.33 931.50 1032.15 922.38 726.30 842.27 743.77 719.13 745.84 148.56 1004.76 654.49 958.76 761.76 798.81 1018.20 850.21 257.45 857.80 715.13 1036.32
809.86 854.91 368.95 623.16 826.34 0.00 853.87 478.24 631.48 551.59 215.56 1093.82 571.27 794.42 1029.46 836.47 925.70 398.90 334.65 867.12 262.10 970.42 733.49 781.91 699.09 1141.21 134.57 51.40 348.48 1093.70 334.16 928.92 523.28 469.64 699.33 173.09 620.20 814.65 685.79 642.21 446.63 658.11 435.71 1030.45 672.48 85.80 1076.30 41.03 896.19 948.17 464.74 831.53 1190.20 297.50 288.84 969.40 680.66 987.41 666.40 782.24 454.30 363.72 70.01 1102.17 1065.74 975.91 155.01 983.80 955.56 1008.67 892.03 963.63 382.08 178.40 1019.08 419.73 202.78 835.62 1018.99 711.65 1015.52 1012.97 738.60 64.58 80.90 913.15 103.03 832.35 1002.11 231.42 883.90
442.34 392.50 1000.08 362.57 395.20 853.87 0.00 623.47 325.50 784.67 1006.17 798.13 702.48 424.10 606.20 224.43 607.03 725.50 648.14 643.67 798.00 680.63 314.44 195.54 376.52 809.35 886.26 846.42 965.24 725.35 905.86 380.20 330.59 656.65 1100.69 760.56 711.94 395.60 290.65 334.23 664.04 776.25 560.16 720.37 360.18 772.45 618.95 831.93 296.45 611.31 697.48 154.20 380.06 738.69 865.96 662.80 935.31 672.50 405.44 386.60 691.63 581.38 848.74 838.98 800.91 517.52 852.78 681.19 650.59 314.07 490.40 549.61 829.38 878.35 499.16 690.94 802.57 552.63 622.10 274.08 851.13 570.97 780.65 820.94 880.73 721.73 755.22 137.75 690.99 804.72 692.48
449.40 787.84 675.59 676.62 744.33 478.24 623.47 0.00 348.56 197.75 629.02 616.92 126.59 776.86 705.30 697.66 1003.10 600.82 330.69 432.85 506.17 628.04 803.80 660.40 708.61 735.82 506.25 459.56 724.61 632.18 467.54 880.00 304.82 146.95 560.39 532.29 288.26 780.02 660.58 681.72 71.04 282.52 75.25 552.21 748.64 392.44 747.92 479.25 769.73 572.58 132.71 603.26 1003.53 220.17 325.88 524.67 387.94 519.42 545.79 700.23 128.25 291.02 468.73 745.58 707.51 531.23 553.73 505.56 538.51 813.87 986.66 563.32 287.82 491.82 650.57 97.94 418.42 357.38 688.79 723.14 671.32 578.76 356.00 485.04 508.52 435.91 409.67 637.55 529.55 389.78 406.66
442.39 501.93 756.57 331.37 520.63 631.48 325.50 348.56 0.00 510.05 785.55 729.88 376.98 553.16 686.23 376.61 676.42 762.03 459.85 575.42 607.66 631.13 473.20 337.15 407.30 719.04 687.00 675.77 776.95 615.40 782.60 551.38 142.30 495.51 872.69 517.05 533.28 554.36 322.51 366.09 419.60 597.59 371.87 550.51 447.33 586.17 701.32 643.64 448.68 543.06 442.25 429.23 705.56 550.40 674.44 541.69 700.24 502.64 432.15 476.53 476.81 372.56 662.46 741.41 703.34 449.27 609.27 516.50 545.94 571.26 693.62 481.36 636.38 648.35 581.53 446.50 634.13 510.81 681.78 419.86 753.56 651.50 631.32 671.01 692.44 653.48 603.40 394.94 538.81 616.43 624.23
573.00 939.15 797.30 821.21 942.08 551.59 784.67 197.75 510.05 0.00 667.45 598.90 133.07 915.00 740.28 886.66 1048.89 706.26 386.36 439.33 643.08 628.94 908.49 809.66 770.69 648.53 627.96 578.64 810.47 542.11 337.70 1001.19 454.08 132.27 362.64 678.16 131.21 939.48 782.02 825.60 126.71 155.19 224.51 649.01 810.72 514.15 724.40 544.18 958.73 550.68 87.19 801.01 1053.25 254.09 381.55 621.78 190.19 651.24 690.38 897.98 97.29 380.74 560.03 758.44 750.84 500.47 585.94 641.22 607.94 949.58 932.26 532.56 329.85 568.87 657.05 131.86 555.33 555.13 779.99 909.70 794.55 585.24 299.17 559.45 616.24 462.60 496.92 835.30 617.23 542.94 491.85
929.94 957.43 512.79 838.72 933.47 215.56 1006.17 629.02 785.55 667.45 0.00 1214.24 700.46 942.03 1162.38 972.79 1062.42 568.70 467.03 987.20 382.18 1098.34 850.82 943.90 788.97 1261.29 211.03 171.48 450.32 1209.56 329.75 1049.00 683.64 624.12 690.19 320.70 747.94 931.98 850.73 807.15 592.72 804.20 555.79 1155.36 748.94 250.74 1226.91 191.64 1044.81 1079.39 619.22 920.40 1308.04 451.98 337.88 1095.64 729.70 1107.49 831.34 914.62 608.78 496.10 190.09 1252.78 1216.35 1105.10 228.48 1121.35 1081.80 1062.43 945.79 1108.93 532.69 137.20 1139.16 574.21 329.02 986.40 1169.33 927.21 1166.13 1139.05 893.08 196.96 134.66 1033.23 250.95 886.11 1132.35 357.66 1003.98
488.39 1043.26 1292.51 902.27 1074.01 1093.82 798.13 616.92 729.88 598.90 1214.24 0.00 577.60 1137.69 442.15 926.46 1247.32 1077.46 947.61 341.01 1086.04 387.06 1039.05 897.57 978.20 266.49 1123.17 1042.76 1284.58 415.33 936.60 1054.28 746.61 731.17 924.95 1090.48 536.43 1120.21 984.95 1002.45 687.96 491.51 658.45 337.04 1013.54 1009.36 491.83 1081.38 992.55 186.82 686.09 874.07 857.64 796.32 942.80 319.07 648.41 302.57 893.35 1088.63 696.19 844.40 1061.37 350.87 312.80 280.61 1060.05 290.39 316.95 864.97 1192.43 293.61 818.42 1108.74 458.23 702.54 1035.34 378.10 550.96 987.67 316.70 469.71 355.22 1068.24 1098.11 181.01 1026.59 839.78 266.40 1006.70 210.26
439.93 806.08 802.18 688.14 868.52 571.27 702.48 126.59 376.98 133.07 700.46 577.60 0.00 856.29 631.02 753.59 1033.19 725.94 400.13 306.26 518.27 578.44 775.42 714.13 637.62 698.31 630.08 528.98 819.90 562.62 470.77 868.12 374.68 175.35 495.71 608.88 264.28 806.41 672.10 693.24 140.48 288.26 145.11 527.93 677.65 519.03 643.77 559.84 825.66 460.45 158.37 729.85 1072.93 273.77 395.32 547.88 323.26 559.62 557.31 826.82 140.37 291.18 510.37 721.30 683.23 404.64 595.37 568.31 537.71 816.51 1002.34 436.73 372.93 588.55 523.98 151.54 545.01 473.71 646.92 776.63 733.45 452.17 254.34 554.46 584.77 450.47 536.26 756.00 572.40 516.37 421.22
649.30 162.93 799.30 272.87 120.73 794.42 424.10 776.86 553.16 915.00 942.03 1137.69 856.29 0.00 854.35 272.45 343.71 598.24 804.43 882.24 682.61 830.76 131.04 292.85 268.84 1089.38 770.83 800.77 807.63 938.67 998.44 285.96 588.83 782.73 1171.12 621.33 979.81 49.88 295.12 254.81 847.90 930.46 769.52 831.77 232.92 811.22 862.38 820.74 216.93 1005.51 849.80 269.90 710.77 926.18 1013.49 911.88 1087.38 879.64 298.98 76.63 817.71 684.70 794.52 1025.14 987.07 939.87 713.55 878.42 918.13 418.36 277.55 971.96 1032.35 939.93 770.68 832.64 737.14 759.59 803.25 210.77 1037.29 775.22 1020.97 775.29 832.14 1058.66 828.45 297.91 902.41 708.50 1070.86
286.06 796.06 1178.20 699.94 733.62 1029.46 606.20 705.30 686.23 740.28 1162.38 442.15 631.02 854.35 0.00 724.13 951.70 1163.66 821.23 368.09 995.39 185.46 824.48 695.24 775.87 407.67 1057.47 1020.77 1178.58 279.44 1049.48 774.94 543.93 782.34 1031.11 938.68 641.53 827.84 693.53 714.67 764.09 650.18 660.21 172.54 815.90 943.66 120.25 1030.47 770.64 281.81 785.71 671.74 693.17 859.81 824.50 228.42 734.30 211.92 578.74 777.72 747.36 794.72 1019.95 365.91 327.84 356.37 1026.85 199.74 223.30 527.38 835.07 324.28 892.45 1074.17 107.04 758.13 959.03 396.35 142.49 739.77 378.06 178.85 441.11 1014.88 1059.74 503.42 926.43 637.45 175.75 972.06 474.17
438.07 217.98 906.76 213.31 170.77 836.47 224.43 697.66 376.61 886.66 972.79 926.46 753.59 272.45 724.13 0.00 429.54 653.78 613.75 778.43 710.50 646.25 285.95 144.47 289.24 934.21 846.70 887.87 890.78 830.57 949.13 216.96 518.91 844.61 1134.20 801.11 909.89 226.19 203.15 246.73 768.70 945.46 720.21 752.29 308.79 803.14 690.70 877.50 72.07 812.67 818.86 94.40 508.61 862.18 888.68 756.86 1065.43 717.81 249.67 195.82 825.91 635.39 879.43 934.74 907.59 728.64 845.75 731.67 761.11 246.68 378.18 760.73 965.62 961.70 718.99 795.60 751.50 548.36 631.57 124.82 910.00 647.18 935.02 883.82 838.13 847.43 820.37 86.68 753.98 770.33 865.55
758.93 321.21 945.75 345.05 258.77 925.70 607.03 1003.10 676.42 1048.89 1062.42 1247.32 1033.19 343.71 951.70 429.54 0.00 806.31 1003.32 1099.29 890.68 1028.85 374.99 509.46 400.96 1315.62 978.90 955.60 961.07 1164.91 1175.34 404.33 765.73 1126.21 1361.54 965.04 1156.71 293.83 459.09 445.23 1050.30 1174.41 946.42 1058.01 440.99 971.48 1057.45 884.67 392.50 1133.53 1083.74 503.57 886.34 1103.08 1173.36 1104.40 1239.08 1100.41 475.88 302.87 1107.51 861.60 955.03 1251.38 1213.31 1049.50 1040.03 1104.66 1090.56 645.60 116.63 1081.59 1209.25 1018.45 947.58 1077.20 918.36 869.22 998.32 407.33 1263.53 913.26 1204.57 930.12 927.76 1215.66 988.71 469.28 1116.57 889.72 1186.41
895.16 573.81 299.74 481.28 604.87 398.90 725.50 600.82 762.03 706.26 568.70 1077.46 725.94 598.24 1163.66 653.78 806.31 0.00 367.62 1007.98 238.90 1003.39 467.20 599.23 405.35 1252.16 428.46 397.22 336.56 1109.15 584.25 730.38 619.73 597.47 942.75 258.51 774.87 548.36 524.45 480.87 601.30 812.78 627.08 1026.18 365.32 370.35 1185.37 423.33 712.79 1057.40 647.32 648.84 1078.95 540.92 538.93 1006.30 896.45 1035.76 612.11 560.77 608.97 536.28 378.61 1200.16 1181.48 965.50 350.73 1032.17 992.46 775.97 770.07 933.41 615.50 500.86 1083.81 574.40 239.68 958.20 1126.24 528.96 1231.70 1058.13 952.17 377.88 443.83 1036.73 353.12 657.02 1043.01 211.04 1007.48
737.68 780.00 450.77 658.27 784.52 334.65 648.14 330.69 459.85 386.36 467.03 947.61 400.13 804.43 821.23 613.75 1003.32 367.62 0.00 706.39 272.97 635.77 673.39 758.22 611.54 980.66 345.69 295.55 491.41 862.41 474.91 830.71 317.55 335.56 702.08 299.09 487.02 754.55 601.67 558.09 259.65 471.13 363.53 755.51 571.51 261.01 859.63 315.52 685.82 761.19 325.53 708.15 1028.20 408.78 274.93 767.67 576.55 764.26 554.38 766.96 316.86 168.66 314.16 948.88 910.81 735.77 368.74 778.12 753.83 803.01 976.26 703.68 351.87 391.52 817.24 286.55 185.22 676.86 918.76 637.12 961.03 817.91 610.52 270.07 352.32 766.60 243.78 700.43 756.43 156.58 737.35
340.36 872.62 988.99 754.24 931.90 867.12 643.67 432.85 575.42 439.33 987.20 341.01 306.26 882.24 368.09 778.43 1099.29 1007.98 706.39 0.00 824.53 272.18 751.20 749.54 732.38 392.05 916.82 815.72 1066.22 256.36 766.35 906.25 460.29 481.61 801.97 749.47 507.77 832.36 734.32 777.90 446.74 529.62 451.37 221.67 692.35 825.29 424.15 865.41 844.52 154.19 464.63 726.04 835.57 580.03 701.58 241.62 600.54 269.54 750.14 887.80 446.63 560.30 816.63 415.04 376.97 126.15 841.69 268.32 241.44 716.94 1044.40 140.46 524.36 894.81 347.35 457.80 851.27 230.07 470.29 842.73 427.19 381.00 307.35 841.20 891.03 184.24 842.52 691.75 291.99 822.63 213.49
809.33 658.18 330.13 563.95 689.24 262.10 798.00 506.17 607.66 643.08 382.18 1086.04 518.27 682.61 995.39 710.50 890.68 238.90 272.97 824.53 0.00 861.32 551.57 673.81 489.72 1072.21 260.56 210.70 407.36 968.57 426.55 666.82 520.58 561.13 781.18 90.61 711.69 632.73 507.35 463.77 529.41 740.89 532.43 890.28 449.69 178.19 1045.07 262.45 782.57 978.72 556.23 719.56 1115.46 388.99 330.88 854.37 722.70 855.81 599.70 645.14 545.79 441.63 192.09 1083.65 1045.58 899.75 182.83 843.63 840.53 860.34 854.44 867.66 495.16 343.16 1011.47 511.22 87.75 863.55 1048.72 599.68 1071.17 970.44 772.61 225.95 280.40 942.08 195.42 693.53 819.64 116.39 912.83
341.83 814.32 1086.54 755.71 817.02 970.42 680.63 628.04 631.13 628.94 1098.34 387.06 578.44 830.76 185.46 646.25 1028.85 1003.39 635.77 272.18 861.32 0.00 758.84 617.36 796.98 344.89 969.57 931.11 1127.18 226.64 966.64 736.32 639.17 675.92 955.40 934.86 497.73 840.00 677.88 721.46 674.07 531.44 570.19 119.74 837.01 896.78 223.86 951.29 718.27 283.31 707.51 560.86 709.60 801.17 760.46 131.90 658.59 128.49 653.17 805.19 710.90 778.86 912.50 313.11 275.04 245.09 957.09 142.35 118.06 667.88 912.22 219.04 779.72 1027.29 181.47 678.94 773.57 270.66 282.99 680.74 325.26 251.65 365.40 905.84 988.09 363.70 879.55 559.57 120.66 792.35 334.45
550.66 121.42 722.44 141.83 183.86 733.49 314.44 803.80 473.20 908.49 850.82 1039.05 775.42 131.04 824.48 285.95 374.99 467.20 673.39 751.20 551.57 758.84 0.00 257.06 137.80 1046.80 639.79 682.09 676.59 943.16 928.54 317.02 534.13 895.30 1040.08 642.18 925.11 81.16 164.08 123.77 819.39 946.75 730.24 864.88 101.88 680.18 811.94 733.84 267.33 905.39 867.56 233.56 621.20 823.11 882.45 855.48 1098.68 830.40 259.70 150.57 876.60 645.42 663.48 1058.25 1020.18 831.96 717.52 826.80 853.36 375.59 345.43 864.05 929.28 835.92 717.44 846.29 606.10 660.95 760.48 181.85 1054.34 718.68 950.85 707.57 746.98 935.44 697.41 199.27 802.81 577.46 964.69
409.18 212.79 898.97 262.02 250.69 781.91 195.54 660.40 337.15 809.66 943.90 897.57 714.13 292.85 695.24 144.47 509.46 599.23 758.22 749.54 673.81 617.36 257.06 0.00 193.88 905.32 771.82 833.31 913.56 801.68 995.88 300.24 479.45 764.94 1126.35 763.25 870.43 242.97 253.62 210.04 689.03 900.51 585.15 723.40 233.91 766.45 670.46 822.94 198.27 783.78 722.47 92.08 479.72 838.16 890.95 727.97 974.55 688.92 333.40 294.79 746.24 709.71 838.87 916.77 878.70 699.75 753.87 702.78 732.22 234.11 410.44 731.84 854.37 931.42 690.10 715.93 711.28 519.47 619.00 173.53 928.92 618.29 872.34 846.49 809.24 818.54 783.68 57.79 725.09 682.64 836.66
489.81 168.46 705.09 75.93 230.90 699.09 376.52 708.61 407.30 770.69 788.97 978.20 637.62 268.84 775.87 289.24 400.96 405.35 611.54 732.38 489.72 796.98 137.80 193.88 0.00 1032.16 577.94 674.94 741.91 910.93 840.37 364.06 496.61 812.97 991.83 580.33 887.59 218.96 119.10 75.52 774.41 884.90 677.30 804.03 40.03 631.93 788.33 699.01 314.37 864.41 795.99 284.30 673.60 778.13 816.65 786.30 960.88 815.76 206.76 235.48 777.99 592.48 656.33 997.40 959.33 780.38 655.67 812.17 772.46 427.99 364.72 812.47 884.30 778.58 678.46 789.16 517.40 600.10 729.20 164.42 1009.55 652.78 891.96 653.56 685.13 916.62 630.84 251.67 823.01 488.76 917.29
571.83 1100.36 1335.31 985.71 1056.85 1141.21 809.35 735.82 719.04 648.53 1261.29 266.49 698.31 1089.38 407.67 934.21 1315.62 1252.16 980.66 392.05 1072.21 344.89 1046.80 905.32 1032.16 0.00 1190.91 1089.81 1317.08 201.90 986.23 1018.24 755.55 780.80 1011.17 1141.52 609.05 1092.54 1022.77 1044.53 739.40 544.74 811.07 257.61 1016.87 1128.26 411.95 1127.02 961.39 237.86 735.72 881.82 797.51 854.06 994.24 255.45 751.05 216.40 916.10 1012.75 745.82 952.35 1071.20 109.91 102.31 331.65 1156.20 230.26 259.70 855.97 1200.18 360.68 890.49 1168.84 444.40 766.30 1012.48 488.47 471.08 1001.70 152.53 445.05 515.31 1115.29 1161.08 346.62 1125.92 847.53 252.57 1041.12 375.87
818.52 746.40 345.51 653.87 777.46 134.57 886.26 506.25 687.00 627.96 211.03 1123.17 630.08 770.83 1057.47 846.70 978.90 428.46 345.69 916.82 260.56 969.57 639.79 771.82 577.94 1190.91 0.00 101.10 239.29 1091.30 362.17 902.97 557.68 502.80 730.81 169.95 677.56 720.95 697.04 653.46 571.69 741.87 485.41 1035.14 537.91 113.81 1117.04 121.07 885.38 1009.01 569.87 841.76 1251.54 430.75 316.85 962.62 708.67 992.08 694.41 733.36 537.78 374.76 119.71 1182.21 1145.78 922.83 77.73 988.49 948.78 948.56 918.32 954.92 462.12 230.76 1068.78 552.71 196.00 863.63 1057.91 721.88 1095.56 1024.01 811.18 75.62 107.19 942.16 131.04 829.61 999.33 224.64 912.91
758.46 803.51 341.31 674.56 787.24 51.40 846.42 459.56 675.77 578.64 171.48 1042.76 528.98 800.77 1020.77 887.87 955.60 397.22 295.55 815.72 210.70 931.11 682.09 833.31 674.94 1089.81 101.10 0.00 328.14 1048.77 325.47 877.52 533.47 452.66 694.11 179.44 576.46 763.25 689.59 646.01 488.19 640.77 384.31 983.88 639.01 89.60 1056.98 70.93 895.16 907.91 516.14 856.65 1226.48 348.90 280.15 924.16 671.97 936.01 670.20 743.14 481.35 324.62 18.61 1132.07 1095.64 933.62 103.61 949.87 910.32 998.68 918.86 937.45 411.98 153.83 967.68 471.13 157.54 816.94 997.85 763.05 1045.42 967.57 761.04 25.48 107.73 861.75 94.34 822.36 960.87 186.18 832.50
965.32 798.01 183.18 817.84 860.45 348.48 965.24 724.61 776.95 810.47 450.32 1284.58 819.90 807.63 1178.58 890.78 961.07 336.56 491.41 1066.22 407.36 1127.18 676.59 913.56 741.91 1317.08 239.29 328.14 0.00 1199.90 599.58 913.80 634.65 742.09 804.80 316.75 904.60 757.75 728.83 772.41 751.06 962.54 712.45 1143.74 701.88 353.10 1263.84 360.36 818.71 1198.83 751.53 910.15 1297.79 634.94 556.14 1071.22 947.96 1100.68 817.53 827.16 713.18 614.05 309.53 1337.11 1299.04 1118.19 224.53 1097.09 1057.38 1052.18 844.44 1086.10 701.41 320.16 1241.54 747.75 363.47 1003.16 1204.71 858.44 1334.85 1174.43 1050.47 314.91 346.48 1160.52 370.33 875.86 1107.93 334.83 1131.27
421.12 949.65 1218.13 835.00 906.14 1093.70 725.35 632.18 615.40 542.11 1209.56 415.33 562.62 938.67 279.44 830.57 1164.91 1109.15 862.41 256.36 968.57 226.64 943.16 801.68 910.93 201.90 1091.30 1048.77 1199.90 0.00 879.81 901.06 651.91 674.38 904.75 1005.83 645.65 941.83 904.52 935.18 668.82 635.61 707.43 106.90 948.71 1024.62 374.36 1078.95 902.59 240.84 629.30 778.18 693.87 796.20 923.66 151.81 732.30 112.76 812.46 862.04 639.40 765.06 1034.23 259.43 221.36 207.83 1078.82 126.62 142.52 778.77 1096.54 175.74 780.72 1110.98 340.76 673.97 895.30 384.83 393.88 898.06 255.00 344.00 451.29 1033.50 1115.75 290.23 1008.74 743.89 148.93 923.94 260.98
784.88 1008.83 531.51 830.29 1067.34 334.16 905.86 467.54 782.60 337.70 329.75 936.60 470.77 998.44 1049.48 949.13 1175.34 584.25 474.91 766.35 426.55 966.64 928.54 995.88 840.37 986.23 362.17 325.47 599.58 879.81 0.00 1093.37 640.30 327.76 368.64 460.16 468.91 948.56 814.25 804.77 396.50 492.89 410.73 973.04 848.79 248.36 966.40 335.17 1021.20 888.38 377.64 1009.36 1285.92 247.64 224.98 940.31 527.89 925.17 699.46 1028.35 339.29 454.09 324.65 1096.14 1088.54 838.17 409.65 939.03 945.64 1151.39 1175.57 870.26 241.99 378.87 994.10 369.87 344.57 824.92 1024.27 918.78 1115.08 922.94 636.87 319.58 364.44 800.30 231.13 975.07 952.25 373.21 829.55
593.84 195.60 996.95 338.58 165.23 928.92 380.20 880.00 551.38 1001.19 1049.00 1054.28 868.12 285.96 774.94 216.96 404.33 730.38 830.71 906.25 666.82 736.32 317.02 300.24 364.06 1018.24 902.97 877.52 913.80 901.06 1093.37 0.00 693.68 870.44 1314.48 757.43 1084.66 289.12 384.24 425.87 946.35 1101.23 851.97 844.90 365.06 845.01 787.12 929.27 144.89 940.49 937.51 276.74 638.73 1042.58 997.70 772.38 1175.09 801.84 466.63 209.33 905.42 852.35 858.91 1007.56 1000.20 880.54 849.65 798.25 758.54 343.10 338.25 859.52 1121.19 1009.98 788.89 920.35 754.57 676.18 727.99 250.09 1050.42 802.95 1060.29 892.77 947.22 1003.20 862.24 242.45 809.09 783.21 1021.32
478.80 644.23 669.49 420.68 657.73 523.28 330.59 304.82 142.30 454.08 683.64 746.61 374.68 588.83 543.93 518.91 765.73 619.73 317.55 460.29 520.58 639.17 534.13 479.45 496.61 755.55 557.68 533.47 634.65 651.91 640.30 693.68 0.00 409.36 809.93 429.97 390.98 538.95 404.64 425.78 333.45 455.29 229.57 587.02 536.64 443.87 664.18 501.34 590.98 614.48 366.89 484.79 710.65 408.10 535.37 578.20 614.35 539.15 289.85 618.74 390.66 250.79 520.16 777.92 739.85 572.87 522.19 553.01 582.45 644.66 782.93 600.75 498.79 547.76 650.97 360.35 491.83 368.51 628.47 509.17 790.07 667.38 591.40 546.79 550.14 644.53 461.10 468.34 575.32 474.13 673.78
553.94 934.79 743.01 781.16 891.28 469.64 656.65 146.95 495.51 132.27 624.12 731.17 175.35 782.73 782.34 844.61 1126.21 597.47 335.56 481.61 561.13 675.92 895.30 764.94 812.97 780.80 502.80 452.66 742.09 674.38 327.76 870.44 409.36 0.00 444.04 564.52 250.38 832.61 731.22 774.80 75.91 283.73 179.79 645.28 853.00 526.49 662.09 472.63 916.68 577.45 67.07 750.21 971.30 172.14 323.45 612.55 304.65 597.41 650.33 847.18 34.98 298.79 471.27 836.18 798.11 579.99 523.63 611.27 626.39 930.52 1060.28 570.92 267.54 486.92 699.33 49.91 473.38 504.33 721.22 865.37 810.77 627.52 426.78 427.18 509.43 554.71 509.26 784.50 632.29 458.83 525.46
935.64 1160.29 900.15 1016.49 1222.73 699.33 1100.69 560.39 872.69 362.64 690.19 924.95 495.71 1171.12 1031.11 1134.20 1361.54 942.75 702.08 801.97 781.18 955.40 1040.08 1126.35 991.83 1011.17 730.81 694.11 804.80 904.75 368.64 1314.48 809.93 444.04 0.00 828.80 493.85 1121.24 959.89 916.31 489.35 517.83 587.15 978.70 1031.86 617.00 1087.04 691.26 1206.27 810.00 449.83 1163.65 1415.34 401.83 450.30 912.61 296.81 942.07 1029.03 1190.65 459.93 643.31 693.29 1039.45 1001.38 853.13 778.29 932.05 898.77 1312.22 1294.90 866.51 350.21 716.61 1019.69 493.95 703.07 859.88 1142.63 1092.09 1051.60 947.88 590.00 688.22 733.08 743.94 599.77 1146.07 908.06 731.71 714.69
718.72 748.79 239.52 654.56 742.06 173.09 760.56 532.29 517.05 678.16 320.70 1090.48 608.88 621.33 938.68 801.11 965.04 258.51 299.09 749.47 90.61 934.86 642.18 763.25 580.33 1141.52 169.95 179.44 316.75 1005.83 460.16 757.43 429.97 564.52 828.80 0.00 755.90 671.21 597.96 554.38 558.74 770.22 558.55 971.14 540.30 253.51 1017.24 199.41 838.26 903.66 619.22 810.17 1140.62 470.59 421.49 937.77 813.31 946.42 678.48 697.96 580.87 453.10 177.22 1164.51 1126.44 875.62 92.22 934.24 923.93 950.95 898.88 889.93 540.46 318.60 999.64 585.64 171.15 798.48 958.11 690.29 1161.78 927.83 863.22 153.96 210.81 933.71 242.41 784.14 910.25 142.51 938.95
499.46 978.88 875.35 811.66 1032.59 620.20 711.94 288.26 533.28 131.21 747.94 536.43 264.28 979.81 641.53 909.89 1156.71 774.87 487.02 507.77 711.69 497.73 925.11 870.43 887.59 609.05 677.56 576.46 904.60 645.65 468.91 1084.66 390.98 250.38 493.85 755.90 0.00 929.93 795.62 816.76 227.37 64.31 331.25 589.12 909.18 592.20 721.59 623.04 981.96 477.87 218.40 850.35 1092.00 322.70 474.01 523.03 223.37 552.49 680.83 988.49 228.50 449.35 595.07 718.96 711.36 463.55 680.07 542.47 509.19 876.04 1063.47 476.93 281.99 637.48 635.73 200.47 623.94 499.81 738.85 900.15 703.67 630.62 200.42 601.94 684.19 355.42 574.97 849.69 518.48 643.60 384.67
631.82 129.81 749.42 222.99 123.89 814.65 395.60 780.02 554.36 939.48 931.98 1120.21 806.41 49.88 827.84 226.19 293.83 548.36 754.55 832.36 632.73 840.00 81.16 242.97 218.96 1092.54 720.95 763.25 757.75 941.83 948.56 289.12 538.95 832.61 1121.24 671.21 929.93 0.00 245.24 204.93 823.52 880.58 719.64 834.93 183.04 761.34 817.30 815.00 231.81 955.63 856.96 280.77 702.36 876.30 963.61 915.04 1107.17 882.80 249.10 79.79 867.59 634.82 744.64 1028.30 990.23 913.12 748.94 881.58 921.29 436.08 264.27 945.21 982.47 917.08 720.80 850.42 687.26 742.11 758.17 160.89 1040.45 778.38 971.09 788.73 828.14 1016.60 778.57 280.43 883.97 658.62 1020.98
496.56 285.50 824.19 114.04 282.71 685.79 290.65 660.58 322.51 782.02 850.73 984.95 672.10 295.12 693.53 203.15 459.09 524.45 601.67 734.32 507.35 677.88 164.08 253.62 119.10 1022.77 697.04 689.59 728.83 904.52 814.25 384.24 404.64 731.22 959.89 597.96 795.62 245.24 0.00 43.58 655.31 859.93 585.33 797.62 159.13 599.99 706.28 686.80 275.22 821.32 709.43 254.03 667.08 659.03 803.03 809.78 972.21 806.37 114.79 314.65 712.52 500.51 676.28 990.99 952.92 771.78 642.60 802.31 795.94 421.47 391.79 803.87 765.20 764.96 586.49 682.21 591.01 606.85 709.43 134.15 1003.14 658.30 786.77 705.67 716.07 915.92 617.22 245.15 778.32 607.86 886.67
514.06 243.98 780.61 100.18 306.42 642.21 334.23 681.72 366.09 825.60 807.15 1002.45 693.24 254.81 714.67 246.73 445.23 480.87 558.09 777.90 463.77 721.46 123.77 210.04 75.52 1044.53 653.46 646.01 772.41 935.18 804.77 425.87 425.78 774.80 916.31 554.38 816.76 204.93 43.58 0.00 698.89 881.07 606.47 828.28 115.55 556.41 727.42 643.22 318.80 842.46 743.79 258.56 651.69 702.61 759.45 852.13 994.00 835.63 135.93 274.34 756.10 521.65 632.70 1013.92 975.85 804.63 646.60 823.45 839.52 406.08 435.37 836.72 808.78 721.38 607.63 725.79 551.52 624.35 730.57 175.78 1026.07 677.03 830.35 662.09 672.49 937.06 573.64 229.76 799.46 564.28 907.81
478.03 858.88 710.42 705.25 815.37 446.63 664.04 71.04 419.60 126.71 592.72 687.96 140.48 847.90 764.09 768.70 1050.30 601.30 259.65 446.74 529.41 674.07 819.39 689.03 774.41 739.40 571.69 488.19 751.06 668.82 396.50 946.35 333.45 75.91 489.35 558.74 227.37 823.52 655.31 698.89 0.00 211.48 103.88 623.25 814.44 457.88 684.32 458.81 840.77 501.54 65.88 674.30 948.29 149.13 254.84 595.71 316.90 590.46 574.42 771.27 57.21 275.78 506.80 816.62 778.55 545.12 545.86 576.60 609.55 854.61 1047.10 538.09 255.30 463.91 664.46 26.90 441.66 428.42 717.42 789.46 742.36 592.65 350.87 503.09 527.53 506.95 440.65 708.59 600.59 416.23 477.70
507.39 1010.39 921.90 875.97 1004.47 658.11 776.25 282.52 597.59 155.19 804.20 491.51 288.26 930.46 650.18 945.46 1174.41 812.78 471.13 529.62 740.89 531.44 946.75 900.51 884.90 544.74 741.87 640.77 962.54 635.61 492.89 1101.23 455.29 283.73 517.83 770.22 64.31 880.58 859.93 881.07 211.48 0.00 315.36 531.31 844.87 656.51 743.32 670.29 1011.55 542.18 216.66 885.78 1104.99 360.61 466.32 492.50 287.68 531.55 745.14 960.37 252.48 487.26 659.38 654.65 647.05 486.08 741.13 537.74 506.34 883.97 1087.45 518.17 345.75 675.39 700.04 238.38 653.14 544.66 746.78 964.46 639.36 665.90 264.73 666.25 739.01 345.38 639.28 858.78 542.39 627.71 374.63
374.15 792.95 703.29 601.37 819.58 435.71 560.16 75.25 371.87 224.51 555.79 658.45 145.11 769.52 660.21 720.21 946.42 627.08 363.53 451.37 532.43 570.19 730.24 585.15 677.30 811.07 485.41 384.31 712.45 707.43 410.73 851.97 229.57 179.79 587.15 558.55 331.25 719.64 585.33 606.47 103.88 315.36 0.00 627.46 717.33 420.14 672.67 422.93 783.42 605.42 137.32 677.23 940.22 253.01 305.80 599.92 389.40 594.67 470.54 775.48 161.09 245.48 402.92 820.83 782.76 549.75 487.92 580.81 613.76 750.73 963.62 581.84 269.22 538.14 583.37 130.78 444.68 432.63 613.54 689.86 746.57 583.26 390.00 409.79 439.66 477.44 437.37 642.94 604.80 416.04 448.19
314.22 842.75 1161.97 728.10 799.24 1030.45 720.37 552.21 550.51 649.01 1155.36 337.04 527.93 831.77 172.54 752.29 1058.01 1026.18 755.51 221.67 890.28 119.74 864.88 723.40 804.03 257.61 1035.14 983.88 1143.74 106.90 973.04 844.90 587.02 645.28 978.70 971.14 589.12 834.93 797.62 828.28 623.25 531.31 627.46 0.00 844.06 944.65 292.79 1022.79 818.38 202.69 684.92 680.60 613.90 772.38 878.09 80.11 681.89 47.87 734.17 755.14 668.30 773.96 978.07 193.37 155.30 202.85 1016.34 46.65 86.36 671.87 1007.61 178.23 746.03 1044.03 262.47 650.15 839.14 287.81 286.98 800.48 205.52 238.96 388.70 977.34 1059.59 362.03 952.58 665.61 70.64 867.78 367.88
529.84 208.49 665.06 115.96 239.55 672.48 360.18 748.64 447.33 810.72 748.94 1013.54 677.65 232.92 815.90 308.79 440.99 365.32 571.51 692.35 449.69 837.01 101.88 233.91 40.03 1016.87 537.91 639.01 701.88 948.71 848.79 365.06 536.64 853.00 1031.86 540.30 909.18 183.04 159.13 115.55 814.44 844.87 717.33 844.06 0.00 627.88 828.36 658.98 347.47 846.54 836.02 303.85 713.63 805.46 780.57 826.33 1000.91 855.79 246.79 195.45 818.02 632.51 641.78 1037.43 999.36 818.50 615.64 852.20 812.49 410.65 404.75 832.81 911.63 765.40 718.49 829.19 504.22 635.44 769.23 183.97 1049.58 692.81 931.99 613.53 645.10 876.59 617.66 291.70 863.04 475.58 905.84
769.74 800.39 283.15 656.59 850.96 85.80 772.45 392.44 586.17 514.15 250.74 1009.36 519.03 811.22 943.66 803.14 971.48 370.35 261.01 825.29 178.19 896.78 680.18 766.45 631.93 1128.26 113.81 89.60 353.10 1024.62 248.36 845.01 443.87 526.49 617.00 253.51 592.20 761.34 599.99 556.41 457.88 656.51 420.14 944.65 627.88 0.00 1063.91 86.81 875.21 959.42 523.76 814.97 1152.51 381.43 203.04 897.29 594.86 911.86 580.60 823.33 511.15 376.68 76.29 1138.02 1099.95 923.67 161.29 898.00 883.45 962.49 927.21 910.58 427.86 164.97 1003.51 476.58 130.67 749.82 1009.13 732.19 1061.30 971.20 748.44 105.68 116.08 828.35 17.23 786.17 921.99 159.31 799.10
298.52 833.77 1159.16 712.40 804.97 1076.30 618.95 747.92 701.32 724.40 1226.91 491.83 643.77 862.38 120.25 690.70 1057.45 1185.37 859.63 424.15 1045.07 223.86 811.94 670.46 788.33 411.95 1117.04 1056.98 1263.84 374.36 966.40 787.12 664.18 662.09 1087.04 1017.24 721.59 817.30 706.28 727.42 684.32 743.32 672.67 292.79 828.36 1063.91 0.00 1035.27 752.77 402.06 665.46 646.96 705.92 783.91 935.22 250.82 836.68 261.60 591.49 800.31 627.11 840.85 1063.69 441.98 405.55 365.13 1039.31 249.42 236.98 444.02 955.32 333.04 859.67 1098.69 119.79 661.68 989.76 408.81 59.13 656.41 355.33 191.60 543.49 1080.72 1107.33 503.17 1046.68 612.67 225.43 997.05 473.92
797.08 850.72 361.28 664.19 807.21 41.03 831.93 479.25 643.64 544.18 191.64 1081.38 559.84 820.74 1030.47 877.50 884.67 423.33 315.52 865.41 262.45 951.29 733.84 822.94 699.01 1127.02 121.07 70.93 360.36 1078.95 335.17 929.27 501.34 472.63 691.26 199.41 623.04 815.00 686.80 643.22 458.81 670.29 422.93 1022.79 658.98 86.81 1035.27 0.00 915.13 959.66 476.92 857.80 1211.99 309.68 288.69 950.27 668.76 979.73 667.41 763.11 446.89 344.59 70.36 1061.14 1024.71 964.48 155.36 976.14 936.43 999.83 883.19 963.56 341.05 160.07 1006.30 431.91 183.65 836.63 977.96 752.68 974.49 993.84 750.78 45.45 72.06 900.37 104.04 823.51 986.98 212.29 871.12
504.16 145.91 978.83 273.03 133.73 896.19 296.45 769.73 448.68 958.73 1044.81 992.55 825.66 216.93 770.64 72.07 392.50 712.79 685.82 844.52 782.57 718.27 267.33 198.27 314.37 961.39 885.38 895.16 818.71 902.59 1021.20 144.89 590.98 916.68 1206.27 838.26 981.96 231.81 275.22 318.80 840.77 1011.55 783.42 818.38 347.47 875.21 752.77 915.13 0.00 878.76 890.93 166.47 493.84 934.25 960.75 828.88 1137.50 789.83 321.74 152.02 897.98 707.46 908.40 862.67 900.74 794.73 917.82 803.69 833.13 308.75 376.06 826.82 1037.69 1033.72 663.60 867.67 801.52 614.45 693.64 196.89 949.32 713.27 1007.09 869.68 910.15 919.45 892.44 158.70 826.00 803.13 931.64
374.60 929.47 1143.18 788.48 983.44 948.17 611.31 572.58 543.06 550.68 1079.39 186.82 460.45 1005.51 281.81 812.67 1133.53 1057.40 761.19 154.19 978.72 283.31 905.39 783.78 864.41 237.86 1009.01 907.91 1198.83 240.84 888.38 940.49 614.48 577.45 810.00 903.66 477.87 955.63 821.32 842.46 501.54 542.18 605.42 202.69 846.54 959.42 402.06 959.66 878.76 0.00 567.42 760.28 735.93 650.67 756.38 193.87 513.19 154.82 706.53 957.83 558.75 714.49 889.30 347.77 340.17 93.79 974.30 168.68 198.12 751.18 1078.64 123.99 678.55 965.45 373.08 528.44 903.90 264.31 424.30 861.73 390.39 386.06 277.45 933.39 979.18 221.61 942.19 725.99 190.99 875.26 192.36
511.47 920.55 776.30 738.69 877.04 464.74 697.48 132.71 442.25 87.19 619.22 686.09 158.37 849.80 785.71 818.86 1083.74 647.32 325.53 464.63 556.23 707.51 867.56 722.47 795.99 735.72 569.87 516.14 751.53 629.30 377.64 937.51 366.89 67.07 449.83 619.22 218.40 856.96 709.43 743.79 65.88 216.66 137.32 684.92 836.02 523.76 665.46 476.92 890.93 567.42 0.00 735.97 994.31 167.24 320.72 653.85 277.38 652.13 607.86 832.94 38.35 321.80 501.09 796.19 758.12 563.01 527.00 638.27 646.81 888.05 1019.45 574.29 270.91 482.02 682.35 72.92 468.48 490.09 722.77 827.18 804.03 610.54 386.36 494.25 545.64 549.79 506.53 770.26 655.30 482.11 528.83
385.68 289.04 948.58 208.37 256.63 831.53 154.20 603.26 429.23 801.01 920.40 874.07 729.85 269.90 671.74 94.40 503.57 648.84 708.15 726.04 719.56 560.86 233.56 92.08 284.30 881.82 841.76 856.65 910.15 778.18 1009.36 276.74 484.79 750.21 1163.65 810.17 850.35 280.77 254.03 258.56 674.30 885.78 677.23 680.60 303.85 814.97 646.96 857.80 166.47 760.28 735.97 0.00 456.22 823.43 929.14 692.76 971.03 665.42 309.90 244.33 731.51 695.62 838.04 873.97 835.90 671.72 845.95 679.28 678.92 210.61 386.94 703.81 891.08 909.31 653.36 701.20 699.11 495.97 595.50 119.88 861.74 594.79 899.03 837.31 785.74 795.04 812.55 34.29 681.52 727.75 813.16
735.24 639.75 1343.64 664.59 627.57 1190.20 380.06 1003.53 705.56 1053.25 1308.04 857.64 1072.93 710.77 693.17 508.61 886.34 1078.95 1028.20 835.57 1115.46 709.60 621.20 479.72 673.60 797.51 1251.54 1226.48 1297.79 693.87 1285.92 638.73 710.65 971.30 1415.34 1140.62 1092.00 702.36 667.08 651.69 948.29 1104.99 940.22 613.90 713.63 1152.51 705.92 1211.99 493.84 735.93 994.31 456.22 0.00 1043.62 1194.93 612.49 1202.49 581.11 697.54 645.86 955.96 961.44 1225.68 735.46 699.03 730.92 1232.84 567.25 606.96 517.42 774.58 698.83 1149.79 1258.41 586.13 921.39 1086.75 827.02 709.07 576.10 648.81 657.94 909.30 1201.00 1173.38 829.87 1135.28 421.93 591.24 1115.39 800.62
627.16 944.53 624.07 758.03 941.74 297.50 738.69 220.17 550.40 254.09 451.98 796.32 273.77 926.18 859.81 862.18 1103.08 540.92 408.78 580.03 388.99 801.17 823.11 838.16 778.13 854.06 430.75 348.90 634.94 796.20 247.64 1042.58 408.10 172.14 401.83 470.59 322.70 876.30 659.03 702.61 149.13 360.61 253.01 772.38 805.46 381.43 783.91 309.68 934.25 650.67 167.24 823.43 1043.62 0.00 178.39 744.84 433.88 739.59 627.20 920.40 156.80 241.48 367.51 963.43 925.36 678.41 452.51 725.73 749.87 1003.74 1050.82 666.13 106.17 314.78 797.75 122.23 301.24 577.55 843.04 793.18 891.49 725.94 441.10 355.13 378.40 643.76 364.20 857.72 704.61 329.88 626.83
678.23 985.11 486.19 859.35 1020.12 288.84 865.96 325.88 674.44 381.55 337.88 942.80 395.32 1013.49 824.50 888.68 1173.36 538.93 274.93 701.58 330.88 760.46 882.45 890.95 816.65 994.24 316.85 280.15 556.14 923.66 224.98 997.70 535.37 323.45 450.30 421.49 474.01 963.61 803.03 759.45 254.84 466.32 305.80 878.09 780.57 203.04 935.22 288.69 960.75 756.38 320.72 929.14 1194.93 178.39 0.00 850.55 391.82 845.30 764.25 976.02 308.11 378.53 272.91 1071.46 1033.39 799.96 357.91 831.44 864.39 1054.81 1130.25 792.93 277.61 278.13 889.17 273.54 299.25 683.26 917.62 912.05 997.20 847.49 605.71 274.26 319.12 761.79 185.81 948.74 855.43 327.89 732.54
345.47 904.73 1089.45 759.35 879.35 969.40 662.80 524.67 541.69 621.78 1095.64 319.07 547.88 911.88 228.42 756.86 1104.40 1006.30 767.67 241.62 854.37 131.90 855.48 727.97 786.30 255.45 962.62 924.16 1071.22 151.81 940.31 772.38 578.20 612.55 912.61 937.77 523.03 915.04 809.78 852.13 595.71 492.50 599.92 80.11 826.33 897.29 250.82 950.27 828.88 193.87 653.85 692.76 612.49 744.84 850.55 0.00 615.80 39.05 716.20 835.25 647.53 801.92 905.55 273.48 235.41 145.28 936.23 45.24 13.84 688.12 1022.83 114.82 765.98 1016.49 244.50 622.61 766.62 300.41 303.23 812.64 285.63 233.03 322.61 904.82 987.07 323.01 880.06 670.18 52.67 795.26 320.24
722.83 1129.34 878.01 988.90 1132.27 680.66 935.31 387.94 700.24 190.19 729.70 648.41 323.26 1087.38 734.30 1065.43 1239.08 896.45 576.55 600.54 722.70 658.59 1098.68 974.55 960.88 751.05 708.67 671.97 947.96 732.30 527.89 1175.09 614.35 304.65 296.81 813.31 223.37 1107.17 972.21 994.00 316.90 287.68 389.40 681.89 1000.91 594.86 836.68 668.76 1137.50 513.19 277.38 971.03 1202.49 433.88 391.82 615.80 0.00 645.26 858.07 1088.17 287.48 472.35 664.73 860.96 837.19 556.32 749.73 635.24 601.96 1099.41 1122.45 569.70 327.71 669.95 728.50 322.05 691.07 696.25 851.44 1028.96 862.78 723.39 293.19 666.08 710.94 519.02 577.63 1005.32 611.25 719.71 489.77
362.09 885.88 1118.91 775.97 847.11 987.41 672.50 519.42 502.64 651.24 1107.49 302.57 559.62 879.64 211.92 717.81 1100.41 1035.76 764.26 269.54 855.81 128.49 830.40 688.92 815.76 216.40 992.08 936.01 1100.68 112.76 925.17 801.84 539.15 597.41 942.07 946.42 552.49 882.80 806.37 835.63 590.46 531.55 594.67 47.87 855.79 911.86 261.60 979.73 789.83 154.82 652.13 665.42 581.11 739.59 845.30 39.05 645.26 0.00 699.70 803.01 632.39 780.27 935.01 238.77 200.70 154.98 975.28 13.86 43.30 705.62 983.78 144.28 793.90 1011.24 228.00 617.36 796.08 272.07 320.73 785.30 250.92 231.24 352.07 934.28 1016.53 323.58 909.52 631.13 36.17 824.72 329.94
544.71 375.22 830.16 130.83 367.88 666.40 405.44 545.79 432.15 690.38 831.34 893.35 557.31 298.98 578.74 249.67 475.88 612.11 554.38 750.14 599.70 653.17 259.70 333.40 206.76 916.10 694.41 670.20 817.53 812.46 699.46 466.63 289.85 650.33 1029.03 678.48 680.83 249.10 114.79 135.93 574.42 745.14 470.54 734.17 246.79 580.60 591.49 667.41 321.74 706.53 607.86 309.90 697.54 627.20 764.25 716.20 858.07 699.70 0.00 328.89 631.63 385.72 656.89 877.99 839.92 750.99 715.84 687.52 714.08 451.93 493.08 783.08 733.37 745.57 471.70 601.32 532.32 655.00 594.64 219.32 890.14 543.51 811.65 670.52 696.68 801.13 597.83 275.61 663.53 535.97 771.88
600.24 87.61 829.21 225.00 44.10 782.24 386.60 700.23 476.53 897.98 914.62 1088.63 826.82 76.63 777.72 195.82 302.87 560.77 766.96 887.80 645.14 805.19 150.57 294.79 235.48 1012.75 733.36 743.14 827.16 862.04 1028.35 209.33 618.74 847.18 1190.65 697.96 988.49 79.79 314.65 274.34 771.27 960.37 775.48 755.14 195.45 823.33 800.31 763.11 152.02 957.83 832.94 244.33 645.86 920.40 976.02 835.25 1088.17 803.01 328.89 0.00 828.48 714.61 761.75 948.51 910.44 890.81 790.18 801.79 841.50 356.29 286.43 922.90 988.05 886.48 770.40 798.17 699.67 710.53 741.18 190.36 960.66 698.59 1000.56 717.66 799.91 1009.60 806.11 248.85 825.78 671.03 1027.72
535.24 916.09 767.63 762.46 872.58 454.30 691.63 128.25 476.81 97.29 608.78 696.19 140.37 817.71 747.36 825.91 1107.51 608.97 316.86 446.63 545.79 710.90 876.60 746.24 777.99 745.82 537.78 481.35 713.18 639.40 339.29 905.42 390.66 34.98 459.93 580.87 228.50 867.59 712.52 756.10 57.21 252.48 161.09 668.30 818.02 511.15 627.11 446.89 897.98 558.75 38.35 731.51 955.96 156.80 308.11 647.53 287.48 632.39 631.63 828.48 0.00 283.45 462.74 834.54 796.47 545.01 488.65 633.81 636.92 911.82 1029.55 535.94 232.56 471.58 664.35 34.57 458.04 485.63 686.24 846.67 775.79 592.54 394.71 462.16 518.95 519.73 493.92 765.80 616.95 473.44 490.48
618.49 760.94 614.97 516.55 753.60 363.72 581.38 291.02 372.56 380.74 496.10 844.40 291.18 684.70 794.72 635.39 861.60 536.28 168.66 560.30 441.63 778.86 645.42 709.71 592.48 952.35 374.76 324.62 614.05 765.06 454.09 852.35 250.79 298.79 643.31 453.10 449.35 634.82 500.51 521.65 275.78 487.26 245.48 773.96 632.51 376.68 840.85 344.59 707.46 714.49 321.80 695.62 961.44 241.48 378.53 801.92 472.35 780.27 385.72 714.61 283.45 0.00 343.23 947.36 909.29 686.45 428.23 779.93 801.74 837.65 878.80 700.76 347.65 467.96 721.06 248.88 353.88 508.20 844.00 605.04 959.51 649.25 518.84 299.14 381.39 663.39 381.25 661.33 755.94 325.24 692.64
777.07 784.90 359.44 693.17 774.67 70.01 848.74 468.73 662.46 560.03 190.09 1061.37 510.37 794.52 1019.95 879.43 955.03 378.61 314.16 816.63 192.09 912.50 663.48 838.87 656.33 1071.20 119.71 18.61 309.53 1034.23 324.65 858.91 520.16 471.27 693.29 177.22 595.07 744.64 676.28 632.70 506.80 659.38 402.92 978.07 641.78 76.29 1063.69 70.36 908.40 889.30 501.09 838.04 1225.68 367.51 272.91 905.55 664.73 935.01 656.89 761.75 462.74 343.23 0.00 1131.50 1095.07 915.01 85.00 931.42 891.71 980.07 901.01 918.84 411.41 172.44 986.29 489.74 138.93 826.11 1016.46 781.66 1044.85 962.54 764.71 44.09 89.88 880.36 93.52 803.75 942.26 167.57 851.11
507.59 1008.58 1355.34 921.47 992.61 1102.17 838.98 745.58 741.41 758.44 1252.78 350.87 721.30 1025.14 365.91 934.74 1251.38 1200.16 948.88 415.04 1083.65 313.11 1058.25 916.77 997.40 109.91 1182.21 1132.07 1337.11 259.43 1096.14 1007.56 777.92 836.18 1039.45 1164.51 718.96 1028.30 990.99 1013.92 816.62 654.65 820.83 193.37 1037.43 1138.02 441.98 1061.14 862.67 347.77 796.19 873.97 735.46 963.43 1071.46 273.48 860.96 238.77 877.99 948.51 834.54 947.36 1131.50 0.00 38.07 393.75 1209.71 240.02 279.73 826.35 1200.98 371.60 908.78 1221.21 406.29 843.52 1032.51 439.16 441.46 993.85 86.65 384.83 582.07 1106.59 1133.20 456.53 1145.95 858.98 264.01 1061.15 485.78
469.52 998.05 1317.27 883.40 954.54 1065.74 800.91 707.51 703.34 750.84 1216.35 312.80 683.23 987.07 327.84 907.59 1213.31 1181.48 910.81 376.97 1045.58 275.04 1020.18 878.70 959.33 102.31 1145.78 1095.64 1299.04 221.36 1088.54 1000.20 739.85 798.11 1001.38 1126.44 711.36 990.23 952.92 975.85 778.55 647.05 782.76 155.30 999.36 1099.95 405.55 1024.71 900.74 340.17 758.12 835.90 699.03 925.36 1033.39 235.41 837.19 200.70 839.92 910.44 796.47 909.29 1095.07 38.07 0.00 355.68 1171.64 201.95 241.66 827.17 1162.91 333.53 901.33 1184.78 368.22 805.45 994.44 401.09 442.28 955.78 50.22 394.26 544.00 1070.16 1096.77 448.93 1107.88 820.91 225.94 1023.08 474.48
290.57 869.52 1077.55 704.45 899.41 975.91 517.52 531.23 449.27 500.47 1105.10 280.61 404.64 939.87 356.37 728.64 1049.50 965.50 735.77 126.15 899.75 245.09 831.96 699.75 780.38 331.65 922.83 933.62 1118.19 207.83 838.17 880.54 572.87 579.99 853.13 875.62 463.55 913.12 771.78 804.63 545.12 486.08 549.75 202.85 818.50 923.67 365.13 964.48 794.73 93.79 563.01 671.72 730.92 678.41 799.96 145.28 556.32 154.98 750.99 890.81 545.01 686.45 915.01 393.75 355.68 0.00 926.95 163.67 133.07 667.15 994.61 32.09 650.51 993.19 279.29 556.18 812.00 204.36 402.23 791.60 405.43 321.84 263.13 950.20 989.41 204.21 925.44 641.96 183.62 783.36 174.96
740.79 824.13 331.74 731.60 834.28 155.01 852.78 553.73 609.27 585.94 228.48 1060.05 595.37 713.55 1026.85 845.75 1040.03 350.73 368.74 841.69 182.83 957.09 717.52 753.87 655.67 1156.20 77.73 103.61 224.53 1078.82 409.65 849.65 522.19 523.63 778.29 92.22 680.07 748.94 642.60 646.60 545.86 741.13 487.92 1016.34 615.64 161.29 1039.31 155.36 917.82 974.30 527.00 845.95 1232.84 452.51 357.91 936.23 749.73 975.28 715.84 790.18 488.65 428.23 85.00 1209.71 1171.64 926.95 0.00 976.01 936.30 987.98 986.01 959.04 496.41 226.38 1021.71 523.22 183.52 851.08 980.18 735.53 1129.85 949.90 849.71 129.09 174.88 965.36 178.52 811.66 986.85 212.16 936.11
360.87 889.40 1115.32 774.75 845.89 983.80 681.19 505.56 516.50 641.22 1121.35 290.39 568.31 878.42 199.74 731.67 1104.66 1032.17 778.12 268.32 843.63 142.35 826.80 702.78 812.17 230.26 988.49 949.87 1097.09 126.62 939.03 798.25 553.01 611.27 932.05 934.24 542.47 881.58 802.31 823.45 576.60 537.74 580.81 46.65 852.20 898.00 249.42 976.14 803.69 168.68 638.27 679.28 567.25 725.73 831.44 45.24 635.24 13.86 687.52 801.79 633.81 779.93 931.42 240.02 201.95 163.67 976.01 0.00 39.71 693.44 997.64 131.58 792.68 997.38 215.82 603.50 792.49 271.73 308.55 799.16 252.17 217.38 342.05 930.69 1012.94 337.44 905.93 644.99 23.99 821.13 338.63
331.63 918.57 1075.61 745.51 885.60 955.56 650.59 538.51 545.94 607.94 1081.80 316.95 537.71 918.13 223.30 761.11 1090.56 992.46 753.83 241.44 840.53 118.06 853.36 732.22 772.46 259.70 948.78 910.32 1057.38 142.52 945.64 758.54 582.45 626.39 898.77 923.93 509.19 921.29 795.94 839.52 609.55 506.34 613.76 86.36 812.49 883.45 236.98 936.43 833.13 198.12 646.81 678.92 606.96 749.87 864.39 13.84 601.96 43.30 714.08 841.50 636.92 801.74 891.71 279.73 241.66 133.07 936.30 39.71 0.00 674.28 1027.08 100.98 765.80 1013.96 242.38 632.93 752.78 298.29 289.39 798.80 291.88 246.87 308.77 890.98 973.23 336.85 866.22 674.43 50.55 781.42 308.03
376.58 431.07 1070.23 418.98 400.39 1008.67 314.07 813.87 571.26 949.58 1062.43 864.97 816.51 418.36 527.38 246.68 645.60 775.97 803.01 716.94 860.34 667.88 375.59 234.11 427.99 855.97 948.56 998.68 1052.18 778.77 1151.39 343.10 644.66 930.52 1312.22 950.95 876.04 436.08 421.47 406.08 854.61 883.97 750.73 671.87 410.65 962.49 444.02 999.83 308.75 751.18 888.05 210.61 517.42 1003.74 1054.81 688.12 1099.41 705.62 451.93 356.29 911.82 837.65 980.07 826.35 827.17 667.15 987.98 693.44 674.28 0.00 528.97 699.24 1019.95 1051.34 507.83 881.51 841.14 486.87 384.89 330.49 799.35 579.64 889.93 979.34 927.77 833.31 954.58 176.32 669.45 869.78 804.06
704.04 304.77 829.12 362.25 242.33 892.03 490.40 986.66 693.62 932.26 945.79 1192.43 1002.34 277.55 835.07 378.18 116.63 770.07 976.26 1044.40 854.44 912.22 345.43 410.44 364.72 1200.18 918.32 918.86 844.44 1096.54 1175.57 338.25 782.93 1060.28 1294.90 898.88 1063.47 264.27 391.79 435.37 1047.10 1087.45 963.62 1007.61 404.75 927.21 955.32 883.19 376.06 1078.64 1019.45 386.94 774.58 1050.82 1130.25 1022.83 1122.45 983.78 493.08 286.43 1029.55 878.80 901.01 1200.98 1162.91 994.61 986.01 997.64 1027.08 528.97 0.00 1026.70 1156.99 901.82 942.11 1064.12 882.12 814.33 913.86 390.89 1213.13 896.82 1087.94 893.38 811.13 1113.40 944.44 352.65 1010.82 853.48 1131.52
322.66 900.74 1045.46 736.54 931.50 963.63 549.61 563.32 481.36 532.56 1108.93 293.61 436.73 971.96 324.28 760.73 1081.59 933.41 703.68 140.46 867.66 219.04 864.05 731.84 812.47 360.68 954.92 937.45 1086.10 175.74 870.26 859.52 600.75 570.92 866.51 889.93 476.93 945.21 803.87 836.72 538.09 518.17 581.84 178.23 832.81 910.58 333.04 963.56 826.82 123.99 574.29 703.81 698.83 666.13 792.93 114.82 569.70 144.28 783.08 922.90 535.94 700.76 918.84 371.60 333.53 32.09 959.04 131.58 100.98 699.24 1026.70 0.00 664.82 980.91 311.38 543.90 779.91 236.45 390.37 823.69 373.34 289.75 276.51 918.11 985.16 236.30 893.35 674.05 151.53 751.27 207.05
643.37 1050.70 702.33 864.20 1032.15 382.08 829.38 287.82 636.38 329.85 532.69 818.42 372.93 1032.35 892.45 965.62 1209.25 615.50 351.87 524.36 495.16 779.72 929.28 854.37 884.30 890.49 462.12 411.98 701.41 780.72 241.99 1121.19 498.79 267.54 350.21 540.46 281.99 982.47 765.20 808.78 255.30 345.75 269.22 746.03 911.63 427.86 859.67 341.05 1037.69 678.55 270.91 891.08 1149.79 106.17 277.61 765.98 327.71 793.90 733.37 988.05 232.56 347.65 411.41 908.78 901.33 650.51 496.41 792.68 765.80 1019.95 1156.99 664.82 0.00 420.95 852.59 228.40 407.41 645.20 882.76 899.35 951.55 818.36 482.41 386.50 413.11 637.41 445.09 912.16 800.47 436.05 666.66
900.25 947.04 448.12 801.56 922.38 178.40 878.35 491.82 648.35 568.87 137.20 1108.74 588.55 939.93 1074.17 961.70 1018.45 500.86 391.52 894.81 343.16 1027.29 835.92 931.42 778.58 1168.84 230.76 153.83 320.16 1110.98 378.87 1009.98 547.76 486.92 716.61 318.60 637.48 917.08 764.96 721.38 463.91 675.39 538.14 1044.03 765.40 164.97 1098.69 160.07 1033.72 965.45 482.02 909.31 1258.41 314.78 278.13 1016.49 669.95 1011.24 745.57 886.48 471.58 467.96 172.44 1221.21 1184.78 993.19 226.38 997.38 1013.96 1051.34 901.82 980.91 420.95 0.00 1112.53 437.01 261.18 849.20 1138.03 890.05 1134.56 1040.72 755.88 168.82 123.57 927.73 147.74 875.02 1019.39 289.82 898.48
280.92 788.74 1179.93 602.53 726.30 1019.08 499.16 650.57 581.53 657.05 1139.16 458.23 523.98 770.68 107.04 718.99 947.58 1083.81 817.24 347.35 1011.47 181.47 717.44 690.10 678.46 444.40 1068.78 967.68 1241.54 340.76 994.10 788.89 650.97 699.33 1019.69 999.64 635.73 720.80 586.49 607.63 664.46 700.04 583.37 262.47 718.49 1003.51 119.79 1006.30 663.60 373.08 682.35 653.36 586.13 797.75 889.17 244.50 728.50 228.00 471.70 770.40 664.35 721.06 986.29 406.29 368.22 279.29 1021.71 215.82 242.38 507.83 942.11 311.38 852.59 1112.53 0.00 675.52 935.35 315.50 122.94 691.02 418.44 71.81 435.31 993.16 1023.03 483.50 1020.74 632.31 191.83 906.71 454.25
504.93 885.78 737.32 732.15 842.27 419.73 690.94 97.94 446.50 131.86 574.21 702.54 151.54 832.64 758.13 795.60 1077.20 574.40 286.55 457.80 511.22 678.94 846.29 715.93 789.16 766.30 552.71 471.13 747.75 673.97 369.87 920.35 360.35 49.91 493.95 585.64 200.47 850.42 682.21 725.79 26.90 238.38 130.78 650.15 829.19 476.58 661.68 431.91 867.67 528.44 72.92 701.20 921.39 122.23 273.54 622.61 322.05 617.36 601.32 798.17 34.57 248.88 489.74 843.52 805.45 556.18 523.22 603.50 632.93 881.51 1064.12 543.90 228.40 437.01 675.52 0.00 423.47 455.32 720.81 816.36 769.26 603.71 377.77 477.09 500.63 521.53 459.35 735.49 582.38 443.13 504.60
727.17 685.86 322.83 593.33 743.77 202.78 802.57 418.42 634.13 555.33 329.02 1035.34 545.01 737.14 959.03 751.50 918.36 239.68 185.22 851.27 87.75 773.57 606.10 711.28 517.40 1012.48 196.00 157.54 363.47 895.30 344.57 754.57 491.83 473.38 703.07 171.15 623.94 687.26 591.01 551.52 441.66 653.14 444.68 839.14 504.22 130.67 989.76 183.65 801.52 903.90 468.48 699.11 1086.75 301.24 299.25 766.62 691.07 796.08 532.32 699.67 458.04 353.88 138.93 1032.51 994.44 812.00 183.52 792.49 752.78 841.14 882.12 779.91 407.41 261.18 935.35 423.47 0.00 775.80 966.56 681.82 1044.66 936.28 742.34 138.20 220.45 854.33 113.44 664.82 803.33 28.64 825.08
110.29 665.16 1009.30 524.17 719.13 835.62 552.63 357.38 510.81 555.13 986.40 378.10 473.71 759.59 396.35 548.36 869.22 958.20 676.86 230.07 863.55 270.66 660.95 519.47 600.10 488.47 863.63 816.94 1003.16 384.83 824.92 676.18 368.51 504.33 859.88 798.48 499.81 742.11 606.85 624.35 428.42 544.66 432.63 287.81 635.44 749.82 408.81 836.63 614.45 264.31 490.09 495.97 827.02 577.55 683.26 300.41 696.25 272.07 655.00 710.53 485.63 508.20 826.11 439.16 401.09 204.36 851.08 271.73 298.29 486.87 814.33 236.45 645.20 849.20 315.50 455.32 775.80 0.00 349.68 612.66 451.31 298.87 403.06 807.34 865.90 408.57 767.05 461.68 247.74 747.16 379.32
239.39 774.64 1138.40 653.27 745.84 1018.99 622.10 688.79 681.78 779.99 1169.33 550.96 646.92 803.25 142.49 631.57 998.32 1126.24 918.76 470.29 1048.72 282.99 760.48 619.00 729.20 471.08 1057.91 997.85 1204.71 393.88 1024.27 727.99 628.47 721.22 1142.63 958.11 738.85 758.17 709.43 730.57 717.42 746.78 613.54 286.98 769.23 1009.13 59.13 977.96 693.64 424.30 722.77 595.50 709.07 843.04 917.62 303.23 851.44 320.73 594.64 741.18 686.24 844.00 1016.46 441.46 442.28 402.23 980.18 308.55 289.39 384.89 913.86 390.37 882.76 1138.03 122.94 720.81 966.56 349.68 0.00 597.28 414.46 194.75 558.25 1023.33 1050.02 562.30 991.90 561.21 284.56 937.92 533.05
502.37 177.36 828.70 88.49 148.56 711.65 274.08 723.14 419.86 909.70 927.21 987.67 776.63 210.77 739.77 124.82 407.33 528.96 637.12 842.73 599.68 680.74 181.85 173.53 164.42 1001.70 721.88 763.05 858.44 898.06 918.78 250.09 509.17 865.37 1092.09 690.29 900.15 160.89 134.15 175.78 789.46 964.46 689.86 800.48 183.97 732.19 656.41 752.68 196.89 861.73 827.18 119.88 576.10 793.18 912.05 812.64 1028.96 785.30 219.32 190.36 846.67 605.04 781.66 993.85 955.78 791.60 735.53 799.16 798.80 330.49 390.89 823.69 899.35 890.05 691.02 816.36 681.82 612.66 597.28 0.00 981.62 665.34 810.20 776.23 792.55 914.92 749.42 154.17 801.40 653.18 929.85
519.74 1048.27 1335.77 933.62 1004.76 1015.52 851.13 671.32 753.56 794.55 1166.13 316.70 733.45 1037.29 378.06 910.00 1263.53 1231.70 961.03 427.19 1071.17 325.26 1054.34 928.92 1009.55 152.53 1095.56 1045.42 1334.85 255.00 1115.08 1050.42 790.07 810.77 1051.60 1161.78 703.67 1040.45 1003.14 1026.07 742.36 639.36 746.57 205.52 1049.58 1061.30 355.33 974.49 949.32 390.39 804.03 861.74 648.81 891.49 997.20 285.63 862.78 250.92 890.14 960.66 775.79 959.51 1044.85 86.65 50.22 405.43 1129.85 252.17 291.88 799.35 1213.13 373.34 951.55 1134.56 418.44 769.26 1044.66 451.31 414.46 981.62 0.00 444.48 569.59 1019.94 1046.55 453.51 1078.53 871.13 251.53 1061.10 424.26
209.11 716.93 1108.12 576.85 654.49 1012.97 570.97 578.76 651.50 585.24 1139.05 469.71 452.17 775.22 178.85 647.18 913.26 1058.13 817.91 381.00 970.44 251.65 718.68 618.29 652.78 445.05 1024.01 967.57 1174.43 344.00 922.94 802.95 667.38 627.52 947.88 927.83 630.62 778.38 658.30 677.03 592.65 665.90 583.26 238.96 692.81 971.20 191.60 993.84 713.27 386.06 610.54 594.79 657.94 725.94 847.49 233.03 723.39 231.24 543.51 698.59 592.54 649.25 962.54 384.83 394.26 321.84 949.90 217.38 246.87 579.64 896.82 289.75 818.36 1040.72 71.81 603.71 936.28 298.87 194.75 665.34 444.48 0.00 430.20 948.39 1022.92 526.05 961.62 560.50 203.31 907.64 496.80
513.35 987.56 1031.59 898.69 958.76 738.60 780.65 356.00 631.32 299.17 893.08 355.22 254.34 1020.97 441.11 935.02 1204.57 952.17 610.52 307.35 772.61 365.40 950.85 872.34 891.96 515.31 811.18 761.04 1050.47 451.29 636.87 1060.29 591.40 426.78 590.00 863.22 200.42 971.09 786.77 830.35 350.87 264.73 390.00 388.70 931.99 748.44 543.49 750.78 1007.09 277.45 386.36 899.03 909.30 441.10 605.71 322.61 293.19 352.07 811.65 1000.56 394.71 518.84 764.71 582.07 544.00 263.13 849.71 342.05 308.77 889.93 1087.94 276.51 482.41 755.88 435.31 377.77 742.34 403.06 558.25 810.20 569.59 430.20 0.00 735.56 817.81 270.84 751.39 864.74 318.06 745.78 241.59
783.94 805.27 315.83 687.74 761.76 64.58 820.94 485.04 671.01 559.45 196.96 1068.24 554.46 775.29 1014.88 883.82 930.12 377.88 270.07 841.20 225.95 905.84 707.57 846.49 653.56 1115.29 75.62 25.48 314.91 1033.50 319.58 892.77 546.79 427.18 688.22 153.96 601.94 788.73 705.67 662.09 503.09 666.25 409.79 977.34 613.53 105.68 1080.72 45.45 869.68 933.39 494.25 837.31 1201.00 355.13 274.26 904.82 666.08 934.28 670.52 717.66 462.16 299.14 44.09 1106.59 1070.16 950.20 129.09 930.69 890.98 979.34 893.38 918.11 386.50 168.82 993.16 477.09 138.20 807.34 1023.33 776.23 1019.94 948.39 735.56 0.00 82.25 887.23 88.45 803.02 941.53 166.84 857.98
813.81 853.59 398.08 704.06 798.81 80.90 880.73 508.52 692.44 616.24 134.66 1098.11 584.77 832.14 1059.74 838.13 927.76 443.83 352.32 891.03 280.40 988.09 746.98 809.24 685.13 1161.08 107.19 107.73 346.48 1115.75 364.44 947.22 550.14 509.43 733.08 210.81 684.19 828.14 716.07 672.49 527.53 739.01 439.66 1059.59 645.10 116.08 1107.33 72.06 910.15 979.18 545.64 785.74 1173.38 378.40 319.12 987.07 710.94 1016.53 696.68 799.91 518.95 381.39 89.88 1133.20 1096.77 989.41 174.88 1012.94 973.23 927.77 811.13 985.16 413.11 123.57 1023.03 500.63 220.45 865.90 1050.02 792.55 1046.55 1022.92 817.81 82.25 0.00 917.10 133.31 751.45 1023.78 233.89 887.85
456.73 1015.50 1111.50 870.61 1018.20 913.15 721.73 435.91 653.48 462.60 1033.23 181.01 450.47 1058.66 503.42 847.43 1215.66 1036.73 766.60 184.24 942.08 363.70 935.44 818.54 916.62 346.62 942.16 861.75 1160.52 290.23 800.30 1003.20 644.53 554.71 743.94 933.71 355.42 1016.60 915.92 937.06 506.95 345.38 477.44 362.03 876.59 828.35 503.17 900.37 919.45 221.61 549.79 795.04 829.87 643.76 761.79 323.01 519.02 323.58 801.13 1009.60 519.73 663.39 880.36 456.53 448.93 204.21 965.36 337.44 336.85 833.31 1113.40 236.30 637.41 927.73 483.50 521.53 854.33 408.57 562.30 914.92 453.51 526.05 270.84 887.23 917.10 0.00 845.58 760.75 359.75 825.69 29.25
752.51 799.30 300.38 673.82 850.21 103.03 755.22 409.67 603.40 496.92 250.95 1026.59 536.26 828.45 926.43 820.37 988.71 353.12 243.78 842.52 195.42 879.55 697.41 783.68 630.84 1125.92 131.04 94.34 370.33 1008.74 231.13 862.24 461.10 509.26 599.77 242.41 574.97 778.57 617.22 573.64 440.65 639.28 437.37 952.58 617.66 17.23 1046.68 104.04 892.44 942.19 506.53 812.55 1135.28 364.20 185.81 880.06 577.63 909.52 597.83 806.11 493.92 381.25 93.52 1145.95 1107.88 925.44 178.52 905.93 866.22 954.58 944.44 893.35 445.09 147.74 1020.74 459.35 113.44 767.05 991.90 749.42 1078.53 961.62 751.39 88.45 133.31 845.58 0.00 778.26 916.77 142.08 816.33
351.39 254.75 921.71 242.66 257.45 832.35 137.75 637.55 394.94 835.30 886.11 839.78 756.00 297.91 637.45 86.68 469.28 657.02 700.43 691.75 693.53 559.57 199.27 57.79 251.67 847.53 829.61 822.36 875.86 743.89 975.07 242.45 468.34 784.50 1146.07 784.14 849.69 280.43 245.15 229.76 708.59 858.78 642.94 665.61 291.70 786.17 612.67 823.51 158.70 725.99 770.26 34.29 421.93 857.72 948.74 670.18 1005.32 631.13 275.61 248.85 765.80 661.33 803.75 858.98 820.91 641.96 811.66 644.99 674.43 176.32 352.65 674.05 912.16 875.02 632.31 735.49 664.82 461.68 561.21 154.17 871.13 560.50 864.74 803.02 751.45 760.75 778.26 0.00 667.30 693.46 778.87
358.03 912.90 1126.16 771.91 857.80 1002.11 690.99 529.55 538.81 617.23 1132.35 266.40 572.40 902.41 175.75 753.98 1116.57 1043.01 756.43 291.99 819.64 120.66 802.81 725.09 823.01 252.57 999.33 960.87 1107.93 148.93 952.25 809.09 575.32 632.29 908.06 910.25 518.48 883.97 778.32 799.46 600.59 542.39 604.80 70.64 863.04 921.99 225.43 986.98 826.00 190.99 655.30 681.52 591.24 704.61 855.43 52.67 611.25 36.17 663.53 825.78 616.95 755.94 942.26 264.01 225.94 183.62 986.85 23.99 50.55 669.45 1010.82 151.53 800.47 1019.39 191.83 582.38 803.33 247.74 284.56 801.40 251.53 203.31 318.06 941.53 1023.78 359.75 916.77 667.30 0.00 831.97 358.58
698.53 657.22 294.19 564.69 715.13 231.42 804.72 389.78 616.43 542.94 357.66 1006.70 516.37 708.50 972.06 770.33 889.72 211.04 156.58 822.63 116.39 792.35 577.46 682.64 488.76 1041.12 224.64 186.18 334.83 923.94 373.21 783.21 474.13 458.83 731.71 142.51 643.60 658.62 607.86 564.28 416.23 627.71 416.04 867.78 475.58 159.31 997.05 212.29 803.13 875.26 482.11 727.75 1115.39 329.88 327.89 795.26 719.71 824.72 535.97 671.03 473.44 325.24 167.57 1061.15 1023.08 783.36 212.16 821.13 781.42 869.78 853.48 751.27 436.05 289.82 906.71 443.13 28.64 747.16 937.92 653.18 1061.10 907.64 745.78 166.84 233.89 825.69 142.08 693.46 831.97 0.00 796.44
427.48 1033.62 1082.25 841.36 1036.32 883.90 692.48 406.66 624.23 491.85 1003.98 210.26 421.22 1070.86 474.17 865.55 1186.41 1007.48 737.35 213.49 912.83 334.45 964.69 836.66 917.29 375.87 912.91 832.50 1131.27 260.98 829.55 1021.32 673.78 525.46 714.69 938.95 384.67 1020.98 886.67 907.81 477.70 374.63 448.19 367.88 905.84 799.10 473.92 871.12 931.64 192.36 528.83 813.16 800.62 626.83 732.54 320.24 489.77 329.94 771.88 1027.72 490.48 692.64 851.11 485.78 474.48 174.96 936.11 338.63 308.03 804.06 1131.52 207.05 666.66 898.48 454.25 504.60 825.08 379.32 533.05 929.85 424.26 496.80 241.59 857.98 887.85 29.25 816.33 778.87 358.58 796.44 0.00
DEMAND_SECTION
1 0
2 86
3 73
4 89
5 61
6 53
7 95
8 71
9 98
10 59
11 79
12 97
13 62
14 79
15 62
16 53
17 83
18 68
19 56
20 93
21 97
22 62
23 84
24 59
25 76
26 74
27 85
28 95
29 99
30 56
31 50
32 77
33 97
34 81
35 50
36 73
37 90
38 93
39 95
40 56
41 91
42 81
43 54
44 97
45 50
46 94
47 73
48 68
49 89
50 85
51 51
52 73
53 62
54 72
55 99
56 73
57 73
58 61
59 80
60 60
61 68
62 89
63 86
64 73
65 92
66 87
67 96
68 85
69 85
70 98
71 68
72 62
73 100
74 63
75 97
76 60
77 97
78 77
79 65
80 59
81 52
82 62
83 98
84 58
85 73
86 55
87 83
88 94
89 94
90 91
91 94
DEPOT_SECTION
1
-1
EOF
