NAME: LDG90_2323_fog_90_0276
COMMENT: CVRP with travel times.  rootPos=2,custPos=3,demandType=2,avgRouteSizeIndex=3,weather=fog,lambda_cluster=1,lambda_random=4, T1=300,T2=700,beta=1, alpha(i,j) ~ U(0.8,1.2)
TYPE: CVRP
DIMENSION: 91
EDGE_WEIGHT_TYPE: EXPLICIT
EDGE_WEIGHT_FORMAT: FULL_MATRIX
CAPACITY: 64
NODE_COORD_SECTION
1 500 500
2 516 850
3 188 703
4 446 663
5 531 841
6 464 411
7 306 372
8 416 500
9 309 89
10 74 283
11 457 432
12 137 337
13 505 590
14 530 376
15 670 633
16 936 929
17 948 383
18 546 535
19 646 760
20 489 713
21 514 23
22 573 681
23 52 331
24 771 130
25 189 388
26 767 923
27 726 241
28 748 935
29 337 767
30 475 902
31 7 348
32 640 415
33 518 608
34 88 329
35 390 404
36 256 620
37 728 587
38 61 676
39 577 551
40 661 233
41 561 527
42 48 118
43 586 645
44 85 669
45 84 980
46 118 832
47 477 779
48 867 847
49 803 311
50 569 922
51 960 626
52 418 100
53 347 856
54 781 935
55 435 866
56 209 949
57 82 192
58 537 587
59 270 868
60 628 631
61 733 956
62 10 340
63 508 415
64 28 96
65 637 786
66 312 765
67 58 381
68 334 401
69 806 298
70 805 969
71 395 233
72 414 498
73 262 886
74 855 99
75 719 823
76 534 451
77 779 347
78 463 798
79 635 439
80 528 610
81 739 640
82 27 358
83 7 303
84 205 872
85 740 295
86 331 852
87 625 591
88 365 866
89 736 904
90 518 219
91 473 742
EDGE_WEIGHT_SECTION
0.00 446.22 463.53 270.69 428.75 128.58 310.77 154.96 463.50 507.29 110.95 574.38 161.07 165.70 283.81 685.47 585.68 85.01 406.31 263.95 607.86 265.17 575.97 626.54 505.29 631.37 461.28 594.61 488.23 526.04 621.45 214.76 131.32 574.93 236.30 419.75 353.41 593.39 140.28 442.70 114.28 699.92 226.65 636.34 845.56 718.28 367.05 660.75 494.21 524.08 670.34 509.95 488.20 648.87 452.98 696.53 617.78 188.51 574.55 254.08 626.52 638.62 118.10 743.29 419.63 458.85 648.81 270.33 476.38 683.53 351.22 161.63 606.03 646.02 537.57 76.97 408.98 397.16 186.90 162.23 348.49 638.94 623.29 647.69 426.15 505.53 191.43 451.00 618.47 342.40 321.69
446.22 0.00 409.61 265.26 34.97 542.89 614.42 474.09 909.72 836.54 505.77 766.60 353.98 550.89 382.47 547.43 859.64 381.36 191.50 182.27 943.12 263.78 837.95 876.23 772.21 302.24 738.45 357.67 316.00 142.26 847.70 552.60 314.90 850.67 603.30 463.35 470.30 596.73 395.47 799.47 388.24 966.47 318.82 613.75 568.97 502.54 149.04 471.52 708.38 161.00 596.74 895.71 243.37 324.32 150.44 376.37 947.03 334.10 333.88 367.49 335.79 830.53 503.29 1004.02 239.02 242.08 805.65 587.49 729.11 418.94 748.31 467.42 285.25 921.73 274.10 474.06 737.87 99.94 524.74 301.80 438.21 839.52 911.94 387.43 648.18 237.58 406.59 233.61 370.70 720.03 149.46
463.53 409.61 0.00 322.59 444.58 485.19 538.72 411.62 927.03 548.17 467.28 555.06 432.21 594.22 608.89 908.77 991.70 487.93 560.99 406.89 954.91 507.04 494.23 981.97 496.16 711.85 880.74 721.81 251.54 408.72 521.60 674.95 412.93 453.31 524.47 124.50 678.71 187.12 483.11 846.12 520.30 773.16 512.32 230.07 438.91 254.75 416.87 872.30 909.99 568.20 941.98 896.78 301.41 733.93 381.63 364.26 658.66 470.12 311.21 576.17 680.72 538.77 546.62 784.17 608.51 167.53 550.33 474.34 889.26 815.77 698.27 418.29 359.84 1052.18 683.71 540.50 825.51 367.77 647.09 443.84 702.15 549.78 568.22 268.48 856.79 332.73 602.29 307.88 758.31 698.73 393.84
270.69 265.26 322.59 0.00 249.10 277.63 386.61 230.97 734.19 705.91 240.51 631.65 109.62 367.45 286.30 721.46 682.68 246.95 338.44 84.30 795.42 184.45 637.23 659.38 558.35 507.86 652.90 498.69 282.34 320.39 614.89 381.65 148.70 650.77 360.18 198.09 371.74 465.51 233.00 575.99 233.54 823.80 189.73 467.63 623.65 510.83 161.16 620.32 643.36 377.61 619.39 705.41 309.64 485.78 329.11 462.59 767.22 163.15 380.62 253.58 539.78 625.45 319.85 869.43 290.92 236.94 638.45 322.23 642.80 580.40 538.78 224.30 371.47 770.28 420.93 272.43 575.40 191.51 353.79 167.39 379.75 574.26 691.09 425.78 599.02 309.61 294.82 305.80 511.16 471.96 115.80
428.75 34.97 444.58 249.10 0.00 526.73 627.04 467.36 892.25 869.09 489.61 749.13 327.23 533.42 368.16 512.46 840.55 346.39 156.53 164.80 971.23 275.15 872.92 841.26 737.24 267.27 761.86 322.70 304.75 117.34 863.99 517.63 297.43 850.88 596.57 447.19 435.33 620.16 360.50 788.41 369.15 1001.44 307.35 648.72 603.94 467.57 181.59 436.55 743.35 151.20 561.77 887.95 208.40 289.35 185.41 411.34 952.00 299.13 311.79 332.52 328.20 865.50 485.82 1036.57 204.05 277.05 821.40 571.33 764.08 383.97 729.22 472.49 320.22 952.16 301.81 454.97 702.90 134.91 489.77 266.83 403.24 823.36 935.00 389.57 683.15 239.72 401.93 205.80 335.73 685.06 162.08
128.58 542.89 485.19 277.63 526.73 0.00 244.81 170.91 577.55 471.03 37.12 463.85 289.65 125.47 368.83 814.05 667.40 213.59 445.19 361.93 587.37 345.41 539.71 582.19 438.24 704.04 395.55 694.19 435.82 580.46 585.19 225.49 259.90 508.97 121.24 458.03 405.81 609.34 268.86 379.08 215.08 584.86 341.50 652.29 901.28 607.91 402.48 753.93 515.68 604.32 634.77 533.90 565.21 726.12 527.68 740.22 581.52 288.48 600.64 354.88 735.28 602.36 89.70 630.49 492.71 514.57 582.85 180.43 500.16 759.34 335.39 177.58 649.10 605.79 609.06 138.83 448.73 451.58 197.63 290.81 440.11 602.68 512.00 687.13 414.97 579.41 320.01 551.14 657.69 268.57 393.43
310.77 614.42 538.72 386.61 627.04 244.81 0.00 280.07 393.79 359.02 226.88 276.35 461.07 231.35 558.59 996.24 801.90 395.78 690.00 470.91 558.01 466.22 305.08 692.19 194.52 886.72 640.36 847.85 625.58 651.41 390.45 397.16 442.09 264.16 150.86 422.07 588.49 596.50 433.84 555.19 410.57 601.74 520.76 639.45 849.73 617.60 510.32 888.23 618.51 725.13 824.53 491.29 518.62 872.39 569.35 657.13 469.51 436.88 614.64 550.37 888.94 373.28 264.83 595.02 677.53 567.89 338.04 64.38 597.78 941.81 301.37 286.74 566.01 711.67 740.63 324.75 641.08 540.67 425.02 469.18 650.41 368.05 344.09 670.11 609.90 549.94 502.20 555.82 860.32 429.46 464.96
154.96 474.09 411.62 230.97 467.36 170.91 280.07 0.00 523.66 555.84 133.79 450.87 181.00 213.60 362.51 774.89 678.20 174.43 468.53 302.56 639.91 295.73 501.90 674.44 390.06 661.22 535.44 605.79 466.22 503.03 577.02 301.14 220.08 460.98 129.21 287.12 444.82 438.43 231.35 512.63 206.80 592.83 240.69 481.38 786.87 569.35 325.05 711.21 498.37 483.89 731.44 487.75 394.30 660.05 511.99 594.27 545.29 236.23 454.52 304.54 646.45 570.10 186.13 638.46 469.73 467.91 558.00 252.49 477.64 699.75 419.78 6.67 503.15 640.56 551.95 182.65 514.66 374.15 321.54 212.33 433.62 557.90 575.89 550.63 445.17 425.62 275.52 431.50 642.29 365.24 346.77
463.50 909.72 927.03 734.19 892.25 577.55 393.79 523.66 0.00 444.52 540.43 576.40 624.57 515.66 747.31 1148.97 862.53 548.51 869.81 727.45 306.94 728.67 513.20 711.82 588.31 1091.16 622.72 1058.11 879.26 989.54 510.13 613.21 594.82 474.65 484.08 803.34 793.53 906.14 603.78 518.49 577.78 373.99 690.15 866.68 1216.83 1008.89 830.55 1124.25 679.14 987.58 1118.93 154.78 912.41 1112.37 916.48 1050.70 405.49 652.01 978.18 717.58 1090.02 527.30 563.26 357.56 883.13 922.35 571.67 458.17 658.41 1147.03 251.70 530.33 959.58 649.33 1001.07 525.95 719.77 860.66 585.35 625.73 811.99 543.48 560.52 1063.68 612.17 943.73 654.93 914.50 1067.45 308.98 785.19
507.29 836.54 548.17 705.91 869.09 471.03 359.02 555.84 444.52 0.00 508.15 156.29 624.56 466.96 791.10 1192.76 1052.02 592.30 911.18 740.62 749.72 772.46 68.68 927.80 218.97 1080.46 806.12 1025.03 748.56 865.48 114.16 643.53 638.61 94.86 491.22 590.63 852.30 465.11 647.57 701.89 621.57 246.73 733.94 422.16 904.85 632.38 687.50 1168.04 868.63 960.20 1105.80 599.30 747.81 1079.29 854.46 775.40 110.49 680.36 761.45 761.37 1066.12 131.33 514.56 236.00 921.24 664.55 145.69 423.40 847.90 1118.99 493.08 549.17 766.56 947.28 1023.90 575.86 882.17 736.60 660.75 669.52 855.78 131.65 116.00 765.79 853.18 778.17 698.72 785.01 1061.53 652.75 718.77
110.95 505.77 467.28 240.51 489.61 37.12 226.88 133.79 540.43 508.15 0.00 467.96 272.02 126.94 331.71 796.42 652.39 195.96 482.31 324.81 554.91 308.29 531.96 587.78 421.40 666.92 432.67 679.71 398.70 560.90 617.33 237.89 242.27 491.04 125.35 420.91 378.15 572.22 248.10 378.84 187.53 588.97 313.95 615.17 864.16 645.03 401.67 734.00 510.53 567.20 597.65 496.78 528.09 689.00 490.56 703.10 618.64 275.15 563.52 327.33 720.80 600.16 79.34 634.60 482.97 477.45 564.92 217.55 489.80 773.67 298.27 140.46 611.98 607.26 582.70 101.71 433.72 432.02 210.03 261.20 425.16 594.93 549.12 650.01 424.41 542.29 292.04 514.02 643.21 231.45 356.31
574.38 766.60 555.06 631.65 749.13 463.85 276.35 450.87 576.40 156.29 467.96 0.00 537.05 507.70 724.48 1095.53 1048.09 604.73 774.04 584.33 748.87 631.82 142.67 968.54 81.83 998.02 854.07 961.26 643.44 788.76 200.05 653.89 497.97 101.75 342.61 453.49 763.75 483.81 622.55 749.84 583.23 371.81 646.86 496.15 883.73 706.37 687.43 1084.65 891.72 890.73 1065.61 596.71 610.67 985.81 728.36 691.13 235.57 555.16 624.31 677.98 1002.35 210.61 541.18 361.08 786.28 559.43 156.40 309.42 874.13 1050.18 551.27 444.20 629.42 988.02 906.23 497.41 829.42 717.78 636.30 528.88 787.19 159.42 185.87 717.00 846.59 641.99 632.10 647.87 986.54 578.11 642.07
161.07 353.98 432.21 109.62 327.23 289.65 461.07 181.00 624.57 624.56 272.02 537.05 0.00 291.09 191.14 685.04 573.06 139.96 365.32 171.71 736.38 158.80 669.56 709.27 557.72 526.38 545.55 502.37 335.86 399.14 724.51 274.30 39.08 628.64 310.21 307.71 264.39 575.13 125.65 466.37 123.92 773.83 159.72 577.25 726.46 605.57 221.16 599.51 553.28 417.71 602.05 642.72 346.40 548.46 385.41 541.09 693.65 55.80 483.43 209.50 465.45 735.07 243.49 819.16 317.80 339.75 693.45 400.18 535.45 581.70 483.99 174.33 449.97 771.41 433.21 209.74 468.05 270.26 246.44 60.40 284.59 683.88 722.92 527.57 508.46 377.72 185.20 383.60 538.87 502.63 225.42
165.70 550.89 594.22 367.45 533.42 125.47 231.35 213.60 515.66 466.96 126.94 507.70 291.09 0.00 389.86 827.55 585.06 227.09 525.25 368.62 461.90 376.18 535.64 460.84 425.87 674.11 428.07 686.90 512.99 630.95 581.12 176.57 293.38 495.51 246.15 500.72 385.34 652.03 255.29 323.84 194.72 709.77 321.14 694.98 926.16 686.68 471.72 738.56 401.67 635.09 684.26 458.89 594.56 696.19 595.06 733.56 577.45 266.15 668.12 331.89 727.99 598.29 47.60 702.96 505.60 585.62 569.39 295.73 380.94 780.86 263.96 206.93 700.26 480.32 650.59 108.90 420.49 502.07 193.79 297.04 447.26 598.61 575.44 760.24 392.67 625.88 299.23 604.58 650.40 249.73 426.36
283.81 382.47 608.89 286.30 368.16 368.83 558.59 362.51 747.31 791.10 331.71 724.48 191.14 389.86 0.00 599.14 536.91 230.14 211.63 252.94 770.36 176.86 767.31 700.56 642.65 423.24 555.26 412.70 462.38 481.64 852.68 305.39 230.22 726.39 457.06 484.39 148.14 751.81 224.68 538.43 197.77 920.68 121.82 753.93 829.67 691.79 333.55 464.64 439.47 435.77 415.30 715.69 477.39 401.16 399.58 637.07 822.77 192.88 564.45 57.97 453.79 835.51 359.19 948.28 256.08 468.93 823.41 543.08 460.20 495.78 556.96 361.23 557.84 739.60 325.68 282.71 494.15 359.10 277.53 207.07 93.45 830.28 841.30 595.92 504.30 446.07 92.38 491.85 376.20 553.90 295.84
685.47 547.43 908.77 721.46 512.46 814.05 996.24 774.89 1148.97 1192.76 796.42 1095.53 685.04 827.55 599.14 0.00 735.15 600.46 422.34 665.37 1183.63 609.38 1178.73 1090.86 1013.70 245.19 968.76 267.59 758.82 593.90 1253.65 718.66 686.43 1137.81 904.10 919.55 554.78 1095.89 657.38 891.06 632.83 1367.72 605.02 1126.42 974.73 975.68 605.12 134.50 866.44 434.42 521.27 1151.63 716.51 267.27 650.97 919.35 1303.25 629.24 818.30 541.17 228.05 1246.93 796.32 1413.35 430.54 741.24 1183.19 955.80 845.71 173.63 992.90 781.56 828.23 1109.92 337.42 718.65 913.11 647.37 690.80 661.54 512.68 1241.70 1252.72 897.68 952.82 747.83 629.77 718.26 304.09 967.17 607.63
585.68 859.64 991.70 682.68 840.55 667.40 801.90 678.20 862.53 1052.02 652.39 1048.09 573.06 585.06 536.91 735.15 0.00 503.77 696.63 707.70 726.49 644.86 1046.90 420.57 996.42 757.41 318.47 737.57 908.92 880.00 1122.38 462.59 598.74 1005.98 773.87 867.20 505.38 1079.50 531.97 419.95 471.40 1092.09 593.13 1036.55 1264.32 1135.74 794.22 686.85 183.39 902.85 455.74 741.82 919.46 779.49 865.50 1114.15 1095.81 567.84 1020.13 594.88 696.48 1105.21 589.08 1137.72 744.15 877.61 1103.00 811.05 204.12 831.53 713.22 684.87 1023.03 374.77 706.98 550.68 218.67 827.13 469.77 573.72 443.46 1085.07 1120.89 1066.45 284.43 950.78 595.51 936.12 726.21 553.55 765.44
85.01 381.36 487.93 246.95 346.39 213.59 395.78 174.43 548.51 592.30 195.96 604.73 139.96 227.09 230.14 600.46 503.77 0.00 321.30 243.10 649.08 196.68 660.98 621.99 522.90 559.16 458.27 570.30 439.46 450.03 706.46 187.02 110.47 632.36 303.64 363.43 292.38 612.86 56.92 483.92 32.37 767.26 141.64 597.52 760.55 647.73 346.20 578.84 477.21 455.59 602.93 551.17 475.08 572.33 367.97 657.27 702.79 105.51 517.52 172.17 574.41 723.63 197.68 812.89 336.96 373.84 671.55 355.34 466.72 600.86 392.44 181.10 566.15 694.73 452.56 118.19 399.32 347.73 159.16 79.56 300.05 711.88 708.30 562.68 421.18 506.40 156.48 460.24 533.80 411.08 300.84
406.31 191.50 560.99 338.44 156.53 445.19 690.00 468.53 869.81 911.18 482.31 774.04 365.32 525.25 211.63 422.34 696.63 321.30 0.00 280.14 923.38 246.73 857.24 800.77 692.21 269.72 698.70 249.00 440.28 273.87 863.13 458.41 335.83 816.32 566.43 536.53 278.80 748.11 378.22 691.45 330.53 1030.05 233.65 791.06 760.47 624.10 281.26 439.00 651.10 250.43 405.24 849.33 364.93 283.79 341.94 567.87 990.40 337.22 461.67 245.63 290.09 845.96 486.12 1075.68 47.52 433.58 913.34 625.62 671.83 314.15 690.60 475.20 476.75 890.30 229.18 416.35 605.49 291.44 430.55 304.92 284.35 897.15 931.23 546.10 657.32 396.25 245.40 362.33 212.50 706.92 273.74
263.95 182.27 406.89 84.30 164.80 361.93 470.91 302.56 727.45 740.62 324.81 584.33 171.71 368.62 252.94 665.37 707.70 243.10 280.14 0.00 830.52 110.35 721.53 743.68 621.86 423.56 658.57 440.63 224.28 262.33 699.19 408.32 132.63 686.08 431.77 282.39 365.64 549.81 257.21 638.08 236.30 895.39 142.55 551.93 644.78 550.77 103.10 563.01 684.84 316.00 625.57 750.09 291.60 401.48 244.81 452.18 787.20 189.82 312.43 206.40 481.72 709.75 321.02 912.71 283.96 290.26 717.06 406.53 667.01 496.10 591.36 308.60 361.06 848.94 358.98 317.11 599.61 133.45 380.46 163.54 303.72 658.56 770.20 445.16 642.48 313.72 295.00 259.19 453.10 556.26 57.74
607.86 943.12 954.91 795.42 971.23 587.37 558.01 639.91 306.94 749.72 554.91 748.87 736.38 461.90 770.36 1183.63 726.49 649.08 923.38 830.52 0.00 798.17 762.29 404.88 667.04 1088.69 408.02 1082.18 884.20 1030.48 739.95 520.69 715.37 781.59 590.57 830.41 701.01 1031.81 610.73 512.25 616.71 556.66 743.13 1074.76 1149.84 1013.83 933.62 1049.13 567.51 999.34 1026.41 152.16 1034.21 1110.77 1017.05 1073.43 639.23 680.58 1049.02 756.51 1123.27 750.51 509.50 602.29 924.86 968.21 746.60 520.00 555.51 1176.14 256.64 646.58 1065.28 515.78 970.61 530.89 547.95 939.87 492.83 704.40 762.93 699.32 809.39 961.18 489.60 1027.79 677.98 1047.81 1045.68 416.31 888.26
265.17 263.78 507.04 184.45 275.15 345.41 466.22 295.73 728.67 772.46 308.29 631.82 158.80 376.18 176.86 609.38 644.86 196.68 246.73 110.35 798.17 0.00 752.36 767.63 597.31 420.50 628.76 419.58 334.63 334.67 799.34 364.25 133.85 721.42 424.94 382.54 263.32 649.96 227.40 625.17 181.46 888.56 55.04 652.08 700.09 514.93 156.69 474.88 616.33 258.91 523.25 700.26 391.07 442.58 355.16 507.49 788.42 166.03 422.78 118.89 460.67 809.90 342.28 913.93 215.47 357.77 788.22 462.38 622.47 513.54 541.53 302.40 471.41 844.62 274.41 267.28 555.07 205.79 336.39 133.73 201.40 758.71 810.31 538.81 598.41 412.03 197.40 369.54 422.46 539.74 168.09
575.97 837.95 494.23 637.23 872.92 539.71 305.08 501.90 513.20 68.68 531.96 142.67 669.56 535.64 767.31 1178.73 1046.90 660.98 857.24 721.53 762.29 752.36 0.00 996.48 165.03 1098.23 874.80 1093.71 679.88 819.21 88.76 702.24 640.64 40.92 422.54 536.69 831.53 396.43 691.64 770.57 640.91 315.41 736.61 353.48 836.17 563.70 756.18 1174.40 913.46 975.96 1129.61 658.64 693.87 1120.31 809.97 706.72 179.17 650.93 707.51 767.73 1109.06 105.93 513.72 304.68 876.03 595.87 77.01 369.46 895.63 1086.57 505.65 495.23 712.62 1015.96 1026.77 555.09 828.23 796.11 693.98 618.63 860.76 62.97 73.99 697.11 858.79 709.49 715.30 723.38 1069.74 661.31 736.33
626.54 876.23 981.97 659.38 841.26 582.19 692.19 674.44 711.82 927.80 587.78 968.54 709.27 460.84 700.56 1090.86 420.57 621.99 800.77 743.68 404.88 767.63 996.48 0.00 886.71 979.31 186.64 947.35 941.72 958.60 1039.18 457.89 710.66 956.35 660.36 857.47 671.01 1112.87 654.95 290.87 647.12 901.07 712.59 1127.01 1283.03 1147.52 820.54 956.36 261.09 969.34 665.13 557.04 969.02 982.14 907.53 1121.97 917.22 653.47 1017.68 736.58 988.44 1056.35 508.44 946.70 837.82 896.32 1030.23 756.57 245.15 1041.31 583.68 667.77 1030.85 110.90 891.62 569.74 312.55 850.89 462.83 681.67 628.10 1025.54 1036.28 1085.16 276.91 968.99 647.98 965.18 910.85 462.00 775.18
505.29 772.21 496.16 558.35 737.24 438.24 194.52 390.06 588.31 218.97 421.40 81.83 557.72 425.87 642.65 1013.70 996.42 522.90 692.21 621.86 667.04 597.31 165.03 886.71 0.00 961.93 833.56 941.21 655.43 706.93 239.95 591.68 579.80 124.11 345.38 371.66 762.24 401.98 579.82 749.71 555.27 418.60 630.75 444.93 801.90 655.15 701.77 1045.54 813.03 810.93 1019.05 514.88 528.84 976.00 646.53 609.30 317.40 612.95 542.48 638.87 982.30 233.23 459.35 442.91 739.73 641.26 221.13 258.90 792.30 1006.36 469.44 383.39 547.59 906.19 871.72 511.26 833.62 735.19 619.54 589.05 716.55 228.00 239.02 635.17 784.18 560.16 550.27 566.04 904.71 496.28 659.48
631.37 302.24 711.85 507.86 267.27 704.04 886.72 661.22 1091.16 1080.46 666.92 998.02 526.38 674.11 423.24 245.19 757.41 559.16 269.72 423.56 1088.69 420.50 1098.23 979.31 961.93 0.00 873.38 55.43 572.02 384.61 1122.75 623.72 500.05 1079.38 790.43 705.95 413.13 887.43 573.27 886.72 559.93 1254.05 475.54 881.23 842.79 734.84 392.96 169.28 732.01 259.20 491.44 998.19 475.67 22.08 405.78 678.61 1154.62 511.90 579.06 420.31 60.93 1115.68 672.07 1247.94 222.20 544.32 1088.67 825.58 752.74 116.70 839.46 654.55 587.49 1024.63 146.09 565.21 732.15 402.18 595.86 479.60 351.21 1082.12 1171.36 656.84 833.05 506.99 440.67 473.07 68.46 858.10 429.35
461.28 738.45 880.74 652.90 761.86 395.55 640.36 535.44 622.72 806.12 432.67 854.07 545.55 428.07 555.26 968.76 318.47 458.27 698.70 658.57 408.02 628.76 874.80 186.64 833.56 873.38 0.00 879.57 816.89 802.95 860.67 271.25 525.94 889.24 516.79 814.37 507.29 973.87 492.07 104.23 466.24 876.68 580.46 942.64 1119.59 1003.46 761.67 834.48 159.49 805.62 649.52 467.94 829.58 895.46 720.89 989.26 779.63 489.75 876.56 551.48 920.66 877.84 416.44 900.33 651.18 732.88 887.00 575.98 147.49 973.53 397.04 528.77 925.19 283.40 776.89 384.31 201.76 749.04 299.11 495.03 569.21 838.90 907.55 921.72 90.27 798.26 462.88 813.16 851.96 354.85 716.31
594.61 357.67 721.81 498.69 322.70 694.19 847.85 605.79 1058.11 1025.03 679.71 961.26 502.37 686.90 412.70 267.59 737.57 570.30 249.00 440.63 1082.18 419.58 1093.71 947.35 941.21 55.43 879.57 0.00 549.43 406.94 1104.90 617.21 463.29 1053.43 735.00 696.78 381.17 908.93 579.84 870.56 563.26 1198.62 450.11 936.66 810.83 737.22 337.53 215.79 752.81 247.46 436.01 1010.98 529.55 54.26 459.71 688.33 1117.86 509.99 631.34 423.46 41.09 1094.96 684.86 1192.51 277.63 554.28 1042.21 820.92 732.08 93.96 852.25 599.12 620.55 992.67 145.17 578.00 700.19 386.63 589.35 494.20 319.25 1064.27 1141.03 683.91 811.68 534.06 462.95 528.50 36.50 865.72 382.89
488.23 316.00 251.54 282.34 304.75 435.82 625.58 466.22 879.26 748.56 398.70 643.44 335.86 512.99 462.38 758.82 908.92 439.46 440.28 224.28 884.20 334.63 679.88 941.72 655.43 572.02 816.89 549.43 0.00 244.70 717.62 610.16 356.91 704.85 524.05 283.77 576.36 438.66 453.57 777.54 459.78 808.40 340.56 481.61 470.72 357.90 211.90 682.27 740.28 404.18 845.52 826.07 174.91 594.10 193.96 304.57 852.90 391.66 164.82 404.41 590.52 734.79 478.04 854.03 392.76 84.01 647.58 587.52 761.01 643.39 627.56 472.89 213.45 993.31 471.67 500.41 795.97 232.27 582.30 359.90 528.00 688.36 753.87 251.31 823.11 143.59 493.01 173.64 561.90 630.15 166.54
526.04 142.26 408.72 320.39 117.34 580.46 651.41 503.03 989.54 865.48 560.90 788.76 399.14 630.95 481.64 593.90 880.00 450.03 273.87 262.33 1030.48 334.67 819.21 958.60 706.93 384.61 802.95 406.94 244.70 0.00 876.64 556.42 394.96 831.04 632.24 518.48 552.67 588.69 458.02 848.18 482.40 1020.55 378.61 631.64 567.81 437.26 177.98 553.89 850.64 159.48 679.11 972.35 178.09 396.60 82.06 375.21 975.97 388.17 305.70 442.46 365.85 859.47 583.35 1032.96 252.85 296.16 818.05 642.62 867.74 485.97 773.84 496.36 297.45 990.87 416.36 561.61 800.34 128.88 578.81 384.17 520.58 880.63 883.38 335.60 790.44 185.75 435.53 174.33 396.71 792.35 204.59
621.45 847.70 521.60 614.89 863.99 585.19 390.45 577.02 510.13 114.16 617.33 200.05 724.51 581.12 852.68 1253.65 1122.38 706.46 863.13 699.19 739.95 799.34 88.76 1039.18 239.95 1122.75 860.67 1104.90 717.62 876.64 0.00 757.69 698.02 126.29 511.30 485.82 812.39 403.29 719.45 756.44 720.14 251.56 804.62 442.24 924.93 652.46 767.37 1125.42 947.34 971.36 1150.05 664.91 767.49 1100.67 839.20 772.36 224.65 739.69 736.04 856.49 1145.99 17.17 599.09 297.19 905.81 633.61 104.82 454.83 926.61 1114.38 483.31 580.60 762.07 995.69 1035.82 640.46 903.71 747.76 774.91 707.39 874.31 40.63 76.20 727.17 873.81 798.25 790.22 773.96 1075.63 577.18 730.69
214.76 552.60 674.95 381.65 517.63 225.49 397.16 301.14 613.21 643.53 237.89 653.89 274.30 176.57 305.39 718.66 462.59 187.02 458.41 408.32 520.69 364.25 702.24 457.89 591.68 623.72 271.25 617.21 610.16 556.42 757.69 0.00 275.69 661.32 311.28 550.45 236.04 739.57 220.82 362.69 194.99 774.90 309.21 760.14 947.57 786.40 495.46 584.16 304.12 534.37 561.44 599.73 620.70 633.42 554.99 791.41 754.02 218.50 704.54 301.61 658.30 770.44 224.17 820.53 499.72 560.86 735.20 405.92 311.32 711.17 440.53 307.81 724.27 546.16 505.64 166.75 243.92 477.79 27.86 250.80 297.96 755.19 737.49 749.70 272.61 633.36 213.01 647.26 580.71 304.23 457.21
131.32 314.90 412.93 148.70 297.43 259.90 442.09 220.08 594.82 638.61 242.27 497.97 39.08 293.38 230.22 686.43 598.74 110.47 335.83 132.63 715.37 133.85 640.64 710.66 579.80 500.05 525.94 463.29 356.91 394.96 698.02 275.69 0.00 599.72 349.29 288.43 265.78 600.05 124.58 505.45 133.23 790.81 148.89 557.97 765.54 625.09 235.73 586.68 552.21 392.76 603.44 617.46 372.98 517.55 377.44 580.17 654.57 57.19 445.06 180.01 504.38 708.58 249.42 780.08 288.31 378.83 654.37 401.65 534.38 552.21 458.73 213.41 489.05 773.70 408.26 184.48 466.98 266.08 247.83 30.91 289.22 657.39 683.84 551.94 509.85 404.30 218.02 391.82 499.79 473.72 190.37
574.93 850.67 453.31 650.77 850.88 508.97 264.16 460.98 474.65 94.86 491.04 101.75 628.64 495.51 726.39 1137.81 1005.98 632.36 816.32 686.08 781.59 721.42 40.92 956.35 124.11 1079.38 889.24 1053.43 704.85 831.04 126.29 661.32 599.72 0.00 415.02 495.77 790.61 437.35 660.56 796.75 599.99 341.59 701.67 394.40 877.09 604.62 772.69 1146.46 872.54 935.04 1088.69 629.43 652.95 1087.56 770.64 733.41 205.35 656.91 666.59 739.79 1094.09 109.12 472.80 330.86 863.84 620.84 97.02 328.54 854.71 1106.58 546.57 454.31 671.70 975.83 995.83 514.17 787.31 804.83 653.06 630.63 819.84 103.89 114.91 721.79 817.87 684.27 674.38 690.15 1028.82 620.39 729.12
236.30 603.30 524.47 360.18 596.57 121.24 150.86 129.21 484.08 491.22 125.35 342.61 310.21 246.15 457.06 904.10 773.87 303.64 566.43 431.77 590.57 424.94 422.54 660.36 345.38 790.43 516.79 735.00 524.05 632.24 511.30 311.28 349.29 415.02 0.00 399.97 503.50 567.64 282.98 500.32 312.88 463.62 369.90 610.59 916.08 676.50 454.26 840.42 615.40 613.10 723.00 532.44 523.51 789.26 581.47 723.48 578.18 352.83 583.73 433.75 775.66 524.14 204.69 509.25 598.94 597.12 488.90 123.28 606.85 828.96 333.93 135.88 632.36 668.13 681.16 227.06 555.20 503.36 318.87 341.54 550.51 485.51 454.13 663.48 536.21 554.83 404.73 560.71 768.56 356.80 475.98
419.75 463.35 124.50 198.09 447.19 458.03 422.07 287.12 803.34 590.63 420.91 453.49 307.71 500.72 484.39 919.55 867.20 363.43 536.53 282.39 830.41 382.54 536.69 857.47 371.66 705.95 814.37 696.78 283.77 518.48 485.82 550.45 288.43 495.77 399.97 0.00 554.21 311.62 358.61 774.08 395.80 705.37 387.82 269.54 550.73 368.63 359.25 818.41 785.49 575.70 817.48 772.28 405.15 683.87 470.41 382.68 569.13 345.62 396.24 451.67 737.87 502.99 473.25 694.64 489.01 292.03 590.64 404.01 764.76 778.49 573.77 293.79 367.61 927.68 619.02 469.77 701.01 389.60 522.59 319.34 577.65 526.45 562.02 263.51 732.29 406.78 492.80 432.38 709.25 652.36 313.89
353.41 470.30 678.71 371.74 435.33 405.81 588.49 444.82 793.53 852.30 378.15 763.75 264.39 385.34 148.14 554.78 505.38 292.38 278.80 365.64 701.01 263.32 831.53 671.01 762.24 413.13 507.29 381.17 576.36 552.67 812.39 236.04 265.78 790.61 503.50 554.21 0.00 837.25 255.66 489.39 305.03 967.12 259.29 823.75 930.35 776.49 420.01 420.28 481.39 522.23 337.66 709.42 539.31 415.96 547.72 754.85 920.35 208.59 653.17 199.65 422.26 795.22 383.30 1012.75 326.32 604.14 870.29 536.81 481.45 475.13 550.69 438.15 686.58 611.50 325.44 276.44 414.05 467.88 208.18 240.89 61.92 846.41 888.59 713.70 470.20 563.85 211.97 509.32 344.67 484.55 409.82
593.39 596.73 187.12 465.51 620.16 609.34 596.50 438.43 906.14 465.11 572.22 483.81 575.13 652.03 751.81 1095.89 1079.50 612.86 748.11 549.81 1031.81 649.96 396.43 1112.87 401.98 887.43 973.87 908.93 438.66 588.69 403.29 739.57 600.05 437.35 567.64 311.62 837.25 0.00 668.67 951.06 608.10 654.85 655.24 42.95 525.64 253.17 603.99 1056.71 936.80 727.59 1034.23 916.86 451.56 909.51 506.63 396.19 575.60 628.66 332.75 719.09 867.84 413.85 624.56 700.48 756.43 354.65 399.00 660.88 916.07 1002.89 805.34 445.10 358.78 1078.99 862.16 621.08 953.09 554.89 759.97 613.98 827.24 362.66 427.15 323.88 883.60 452.70 713.95 414.36 929.84 792.04 580.96
140.28 395.47 483.11 233.00 360.50 268.86 433.84 231.35 603.78 647.57 248.10 622.55 125.65 255.29 224.68 657.38 531.97 56.92 378.22 257.21 610.73 227.40 691.64 654.95 579.82 573.27 492.07 579.84 453.57 458.02 719.45 220.82 124.58 660.56 282.98 358.61 255.66 668.67 0.00 427.91 60.57 746.60 173.85 625.72 817.47 637.75 346.81 607.04 427.63 486.31 546.01 579.37 472.05 595.35 424.89 666.74 758.06 69.85 569.64 200.37 538.75 717.62 225.88 792.23 351.07 430.76 614.63 406.26 409.80 614.97 420.64 238.02 575.62 710.53 501.81 146.39 342.40 329.14 192.96 93.67 300.47 678.82 737.11 619.60 453.89 503.37 134.19 485.55 583.22 439.28 308.56
442.70 799.47 846.12 575.99 788.41 379.08 555.19 512.63 518.49 701.89 378.84 749.84 466.37 323.84 538.43 891.06 419.95 483.92 691.45 638.08 512.25 625.17 770.57 290.87 749.71 886.72 104.23 870.56 777.54 848.18 756.44 362.69 505.45 796.75 500.32 774.08 489.39 951.06 427.91 0.00 451.55 885.29 577.97 989.21 1179.79 986.99 687.53 756.56 237.11 841.34 687.10 363.71 812.77 905.35 825.12 990.39 812.38 497.76 936.76 534.65 911.65 773.61 362.58 876.05 732.76 793.08 821.58 559.51 221.78 909.88 468.75 519.30 916.34 387.63 812.61 365.73 201.28 719.30 334.83 521.58 551.31 797.07 817.89 966.83 151.29 816.98 446.05 849.97 834.06 418.55 691.79
114.28 388.24 520.30 233.54 369.15 215.08 410.57 206.80 577.78 621.57 187.53 583.23 123.92 194.72 197.77 632.83 471.40 32.37 330.53 236.30 616.71 181.46 640.91 647.12 555.27 559.93 466.24 563.26 459.78 482.40 720.14 194.99 133.23 599.99 312.88 395.80 305.03 608.10 60.57 451.55 0.00 776.50 126.42 565.15 792.92 664.34 338.15 546.47 474.23 440.37 598.25 518.80 470.32 539.96 400.34 653.56 732.06 96.44 548.73 139.80 565.34 709.11 165.31 822.13 337.91 406.21 675.20 346.19 470.37 592.93 360.07 213.47 562.44 675.04 455.87 85.82 402.97 355.73 184.29 102.32 276.40 679.51 714.90 595.05 435.00 501.64 124.11 492.61 526.76 378.71 294.04
699.92 966.47 773.16 823.80 1001.44 584.86 601.74 592.83 373.99 246.73 588.97 371.81 773.83 709.77 920.68 1367.72 1092.09 767.26 1030.05 895.39 556.66 888.56 315.41 901.07 418.60 1254.05 876.68 1198.62 808.40 1020.55 251.56 774.90 790.81 341.59 463.62 705.37 967.12 654.85 746.60 885.29 776.50 0.00 833.52 668.89 1111.10 879.11 900.61 1304.04 958.65 1076.72 1186.62 521.58 858.27 1252.88 938.49 1007.82 136.24 816.45 868.07 897.37 1237.58 268.73 668.31 45.63 1062.56 724.39 356.38 586.90 940.82 1292.58 479.64 599.50 916.70 1011.97 1141.51 690.68 873.42 924.63 782.49 805.16 1014.13 292.19 257.65 913.23 958.93 889.59 868.35 864.74 1232.18 639.31 939.60
226.65 318.82 512.32 189.73 307.35 341.50 520.76 240.69 690.15 733.94 313.95 646.86 159.72 321.14 121.82 605.02 593.13 141.64 233.65 142.55 743.13 55.04 736.61 712.59 630.75 475.54 580.46 450.11 340.56 378.61 804.62 309.21 148.89 701.67 369.90 387.82 259.29 655.24 173.85 577.97 126.42 833.52 0.00 657.36 719.74 569.97 211.73 470.52 561.29 313.95 530.92 645.22 434.15 464.01 387.36 527.14 785.98 134.67 454.98 63.85 491.20 810.79 291.73 879.15 261.96 406.54 788.48 472.61 567.43 466.51 486.49 247.36 436.02 799.67 329.45 212.24 500.03 249.73 281.35 117.98 215.27 763.99 810.60 540.12 543.37 456.11 152.45 401.74 413.61 505.13 174.02
636.34 613.75 230.07 467.63 648.72 652.29 639.45 481.38 866.68 422.16 615.17 496.15 577.25 694.98 753.93 1126.42 1036.55 597.52 791.06 551.93 1074.76 652.08 353.48 1127.01 444.93 881.23 942.64 936.66 481.61 631.64 442.24 760.14 557.97 394.40 610.59 269.54 823.75 42.95 625.72 989.21 565.15 668.89 657.36 0.00 482.69 210.22 628.79 1050.51 953.41 751.48 991.28 958.08 469.39 903.31 549.58 353.24 532.65 615.16 375.70 704.95 910.79 456.80 667.51 658.16 758.55 397.60 356.05 633.76 959.02 997.93 843.31 488.05 401.73 1121.94 887.85 650.97 963.86 597.84 749.44 588.88 841.55 405.61 427.47 343.63 852.37 493.48 689.26 457.31 949.69 749.09 583.43
845.56 568.97 438.91 623.65 603.94 901.28 849.73 786.87 1216.83 904.85 864.16 883.73 726.46 926.16 829.67 974.73 1264.32 760.55 760.47 644.78 1149.84 700.09 836.17 1283.03 801.90 842.79 1119.59 810.83 470.72 567.81 924.93 947.57 765.54 877.09 916.08 550.73 930.35 525.64 817.47 1179.79 792.92 1111.10 719.74 482.69 0.00 352.61 543.40 1007.15 1207.98 682.73 1165.71 1207.90 414.92 845.62 499.11 192.60 1015.34 749.93 332.35 783.59 851.92 925.46 924.12 1140.85 777.14 386.71 838.74 890.22 1190.15 904.79 1009.39 793.54 283.72 1393.93 818.39 817.26 1122.75 586.95 919.71 782.23 892.31 888.30 910.16 287.22 1166.44 383.60 821.47 438.13 774.33 1095.61 588.76
718.28 502.54 254.75 510.83 467.57 607.91 617.60 569.35 1008.89 632.38 645.03 706.37 605.57 686.68 691.79 975.68 1135.74 647.73 624.10 550.77 1013.83 514.93 563.70 1147.52 655.15 734.84 1003.46 737.22 357.90 437.26 652.46 786.40 625.09 604.62 676.50 368.63 776.49 253.17 637.75 986.99 664.34 879.11 569.97 210.22 352.61 0.00 493.55 904.12 1065.38 541.26 1029.34 955.70 259.17 756.92 376.86 247.56 742.87 567.90 266.14 633.82 747.63 667.02 639.08 868.38 671.62 273.89 566.27 553.22 1046.99 831.18 757.19 576.02 237.51 1167.00 744.17 741.34 980.15 474.13 758.54 600.20 716.33 615.83 637.69 133.41 984.15 283.26 708.65 296.37 773.72 876.48 506.41
367.05 149.04 416.87 161.16 181.59 402.48 510.32 325.05 830.55 687.50 401.67 687.43 221.16 471.72 333.55 605.12 794.22 346.20 281.26 103.10 933.62 156.69 756.18 820.54 701.77 392.96 761.67 337.53 211.90 177.98 767.37 495.46 235.73 772.69 454.26 359.25 420.01 603.99 346.81 687.53 338.15 900.61 211.73 628.79 543.40 493.55 0.00 538.22 773.02 272.70 679.94 812.80 234.38 391.79 214.88 350.80 797.99 276.96 308.32 275.58 378.62 777.93 424.12 854.98 233.74 249.34 704.68 483.39 756.61 431.49 694.46 318.38 356.95 931.44 350.49 420.21 689.21 49.10 467.60 266.64 358.09 726.74 803.50 382.12 729.62 265.70 354.09 241.04 374.03 633.12 45.36
660.75 471.52 872.30 620.32 436.55 753.93 888.23 711.21 1124.25 1168.04 734.00 1084.65 599.51 738.56 464.64 134.50 686.85 578.84 439.00 563.01 1049.13 474.88 1174.40 956.36 1045.54 169.28 834.48 215.79 682.27 553.89 1125.42 584.16 586.68 1146.46 840.42 818.41 420.28 1056.71 607.04 756.56 546.47 1304.04 470.52 1050.51 1007.15 904.12 538.22 0.00 731.94 398.65 386.77 1065.27 644.95 161.53 575.06 847.89 1241.25 543.71 748.34 406.67 230.21 1142.59 711.78 1349.67 391.48 713.60 1162.88 823.85 711.21 153.32 906.54 717.88 756.77 1011.94 315.37 632.29 778.61 571.46 556.30 555.77 482.20 1166.05 1201.62 826.12 818.32 676.27 495.27 642.35 232.82 832.67 583.58
494.21 708.38 909.99 643.36 743.35 515.68 618.51 498.37 679.14 868.63 510.53 891.72 553.28 401.67 439.47 866.44 183.39 477.21 651.10 684.84 567.51 616.33 913.46 261.09 813.03 732.01 159.49 752.81 740.28 850.64 947.34 304.12 552.21 872.54 615.40 785.49 481.39 936.80 427.63 237.11 474.23 958.65 561.29 953.41 1207.98 1065.38 773.02 731.94 0.00 822.03 490.03 558.43 875.38 754.09 839.05 1041.90 912.42 497.48 905.10 497.44 792.94 957.68 431.19 1004.28 695.55 821.27 956.55 677.61 20.73 846.77 529.83 505.04 953.73 321.46 703.64 417.24 85.23 756.77 318.05 521.30 440.12 951.63 962.60 936.28 101.04 883.87 503.20 912.58 722.87 370.16 735.31
524.08 161.00 568.20 377.61 151.20 604.32 725.13 483.89 987.58 960.20 567.20 890.73 417.71 635.09 435.77 434.42 902.85 455.59 250.43 316.00 999.34 258.91 975.96 969.34 810.93 259.20 805.62 247.46 404.18 159.48 971.36 534.37 392.76 935.04 613.10 575.70 522.23 727.59 486.31 841.34 440.37 1076.72 313.95 751.48 682.73 541.26 272.70 398.65 822.03 0.00 655.67 959.17 282.09 237.12 235.56 490.13 1029.18 424.94 423.49 377.80 206.37 954.19 601.19 1122.35 202.91 403.08 958.63 699.84 804.20 326.49 800.44 490.56 399.01 1042.08 385.28 526.19 736.80 223.60 506.51 392.64 460.31 951.87 1036.88 463.26 768.53 313.41 456.31 313.23 237.23 782.88 299.31
670.34 596.74 941.98 619.39 561.77 634.77 824.53 731.44 1118.93 1105.80 597.65 1065.61 602.05 684.26 415.30 521.27 455.74 602.93 405.24 625.57 1026.41 523.25 1129.61 665.13 1019.05 491.44 649.52 436.01 845.52 679.11 1150.05 561.44 603.44 1088.69 723.00 817.48 337.66 1034.23 546.01 687.10 598.25 1186.62 530.92 991.28 1165.71 1029.34 679.94 386.77 490.03 655.67 0.00 1047.08 770.17 490.27 747.18 973.11 1216.29 546.25 866.91 467.07 477.10 1132.88 676.99 1232.25 452.76 838.82 1160.64 815.20 510.76 488.77 888.35 738.11 881.99 776.03 458.85 614.10 575.26 696.68 533.58 578.55 321.85 1147.64 1146.77 951.34 591.07 801.49 488.13 767.57 472.51 809.95 678.98
509.95 895.71 896.78 705.41 887.95 533.90 491.29 487.75 154.78 599.30 496.78 596.71 642.72 458.89 715.69 1151.63 741.82 551.17 849.33 750.09 152.16 700.26 658.64 557.04 514.88 998.19 467.94 1010.98 826.07 972.35 664.91 599.73 617.46 629.43 532.44 772.28 709.42 916.86 579.37 363.71 518.80 521.58 645.22 958.08 1207.90 955.70 812.80 1065.27 558.43 959.17 1047.08 0.00 882.05 1020.27 919.14 1015.30 560.27 606.42 918.85 658.60 1052.07 682.08 506.49 512.34 856.71 910.08 669.32 461.87 579.16 1104.94 198.51 494.42 967.48 494.55 949.22 432.98 564.99 861.90 571.87 621.12 771.34 641.19 715.30 1035.79 457.39 913.37 623.31 919.25 974.48 358.18 807.83
488.20 243.37 301.41 309.64 208.40 565.21 518.62 394.30 912.41 747.81 528.09 610.67 346.40 594.56 477.39 716.51 919.46 475.08 364.93 291.60 1034.21 391.07 693.87 969.02 528.84 475.67 829.58 529.55 174.91 178.09 767.49 620.70 372.98 652.95 523.51 405.15 539.31 451.56 472.05 812.77 470.32 858.27 434.15 469.39 414.92 259.17 234.38 644.95 875.38 282.09 770.17 882.05 0.00 497.75 117.69 222.32 846.24 402.20 142.63 498.00 488.46 762.07 567.09 903.90 412.45 133.88 697.45 583.00 871.94 592.37 800.74 387.63 147.27 1021.52 485.00 556.14 814.45 229.14 592.84 395.52 477.39 738.23 767.86 181.17 774.34 31.32 531.60 37.20 519.32 759.54 279.74
648.87 324.32 733.93 485.78 289.35 726.12 872.39 660.05 1112.37 1079.29 689.00 985.81 548.46 696.19 401.16 267.27 779.49 572.33 283.79 401.48 1110.77 442.58 1120.31 982.14 976.00 22.08 895.46 54.26 594.10 396.60 1100.67 633.42 517.55 1087.56 789.26 683.87 415.96 909.51 595.35 905.35 539.96 1252.88 464.01 903.31 845.62 756.92 391.79 161.53 754.09 237.12 490.27 1020.27 497.75 0.00 427.86 700.69 1172.12 533.98 601.14 400.16 83.01 1111.23 694.15 1246.77 244.28 566.40 1096.47 808.01 774.82 94.62 861.54 653.38 609.57 1027.46 168.17 587.29 734.98 424.26 617.94 501.68 354.04 1060.04 1171.68 678.92 846.47 529.07 462.75 495.15 71.29 880.18 437.15
452.98 150.44 381.63 329.11 185.41 527.68 569.35 511.99 916.48 854.46 490.56 728.36 385.41 595.06 399.58 650.97 865.50 367.97 341.94 244.81 1017.05 355.16 809.97 907.53 646.53 405.78 720.89 459.71 193.96 82.06 839.20 554.99 377.44 770.64 581.47 470.41 547.72 506.63 424.89 825.12 400.34 938.49 387.36 549.58 499.11 376.86 214.88 575.06 839.05 235.56 747.18 919.14 117.69 427.86 0.00 306.51 963.93 434.63 236.12 411.81 441.93 838.98 565.65 984.12 334.91 214.10 735.99 633.73 834.69 522.48 760.41 505.32 215.39 1004.29 424.54 486.16 767.29 199.31 527.13 408.35 493.03 798.57 801.32 296.65 789.15 146.80 491.96 92.27 423.21 713.33 231.79
696.53 376.37 364.26 462.59 411.34 740.22 657.13 594.27 1050.70 775.40 703.10 691.13 541.09 733.56 637.07 919.35 1114.15 657.27 567.87 452.18 1073.43 507.49 706.72 1121.97 609.30 678.61 989.26 688.33 304.57 375.21 772.36 791.41 580.17 733.41 723.48 382.68 754.85 396.19 666.74 990.39 653.56 1007.82 527.14 353.24 192.60 247.56 350.80 847.89 1041.90 490.13 973.11 1015.30 222.32 700.69 306.51 0.00 885.89 596.89 139.75 590.99 691.30 755.19 731.52 1011.40 584.54 283.43 709.29 721.51 1024.07 782.29 816.79 600.94 91.12 1213.88 625.79 624.66 956.67 399.90 763.55 601.49 699.71 758.85 780.71 119.17 973.84 191.00 635.59 245.53 694.81 917.55 396.16
617.78 947.03 658.66 767.22 952.00 581.52 469.51 545.29 405.49 110.49 618.64 235.57 693.65 577.45 822.77 1303.25 1095.81 702.79 990.40 787.20 639.23 788.42 179.17 917.22 317.40 1154.62 779.63 1117.86 852.90 975.97 224.65 754.02 654.57 205.35 578.18 569.13 920.35 575.60 758.06 812.38 732.06 136.24 785.98 532.65 1015.34 742.87 797.99 1241.25 912.42 1029.18 1216.29 560.27 846.24 1172.12 963.93 885.89 0.00 711.76 859.88 834.58 1158.95 214.05 625.05 125.51 942.88 775.04 256.18 496.67 891.69 1206.78 382.59 551.96 864.99 922.18 1062.83 656.84 900.86 847.09 771.24 685.48 916.22 242.14 170.16 832.64 832.10 877.56 809.21 883.44 1154.36 542.26 829.26
188.51 334.10 470.12 163.15 299.13 288.48 436.88 236.23 652.01 680.36 275.15 555.16 55.80 266.15 192.88 629.24 567.84 105.51 337.22 189.82 680.58 166.03 650.93 653.47 612.95 511.90 489.75 509.99 391.66 388.17 739.69 218.50 57.19 656.91 352.83 345.62 208.59 628.66 69.85 497.76 96.44 816.45 134.67 615.16 749.93 567.90 276.96 543.71 497.48 424.94 546.25 606.42 402.20 533.98 434.63 596.89 711.76 0.00 502.25 181.40 468.90 756.86 222.70 837.27 289.70 395.55 684.48 372.50 479.65 553.60 447.69 229.56 505.77 726.21 440.44 173.44 412.25 259.29 190.64 32.30 270.51 713.90 724.92 583.37 452.66 433.52 204.04 439.40 539.63 466.33 238.71
574.55 333.88 311.21 380.62 311.79 600.64 614.64 454.52 978.18 761.45 563.52 624.31 483.43 668.12 564.45 818.30 1020.13 517.52 461.67 312.43 1049.02 422.78 707.51 1017.68 542.48 579.06 876.56 631.34 164.82 305.70 736.04 704.54 445.06 666.59 583.73 396.24 653.17 332.75 569.64 936.76 548.73 868.07 454.98 375.70 332.35 266.14 308.32 748.34 905.10 423.49 866.91 918.85 142.63 601.14 236.12 139.75 859.88 502.25 0.00 518.83 590.25 746.60 633.45 913.70 447.39 143.68 707.25 647.19 925.83 695.76 792.38 461.19 48.63 1095.08 583.30 629.54 879.72 304.22 676.68 475.97 616.15 695.41 759.90 132.73 899.69 119.95 578.44 143.85 647.52 794.97 331.36
254.08 367.49 576.17 253.58 332.52 354.88 550.37 304.54 717.58 761.37 327.33 677.98 209.50 331.89 57.97 541.17 594.88 172.17 245.63 206.40 756.51 118.89 767.73 736.58 638.87 420.31 551.48 423.46 404.41 442.46 856.49 301.61 180.01 739.79 433.75 451.67 199.65 719.09 200.37 534.65 139.80 897.37 63.85 704.95 783.59 633.82 275.58 406.67 497.44 377.80 467.07 658.60 498.00 400.16 411.81 590.99 834.58 181.40 518.83 0.00 464.55 848.91 305.11 943.00 198.11 410.96 815.00 485.99 503.58 494.78 499.87 311.21 499.87 735.82 383.65 225.62 436.18 313.58 273.75 149.10 151.42 819.31 841.72 554.66 500.52 504.04 88.60 465.59 386.96 518.51 237.87
626.52 335.79 680.72 539.78 328.20 735.28 888.94 646.45 1090.02 1066.12 720.80 1002.35 465.45 727.99 453.79 228.05 696.48 574.41 290.09 481.72 1123.27 460.67 1109.06 988.44 982.30 60.93 920.66 41.09 590.52 365.85 1145.99 658.30 504.38 1094.09 775.66 737.87 422.26 867.84 538.75 911.65 565.34 1237.58 491.20 910.79 851.92 747.63 378.62 230.21 792.94 206.37 477.10 1052.07 488.46 83.01 441.93 691.30 1158.95 468.90 590.25 464.55 0.00 1136.05 691.60 1233.60 283.13 513.19 1076.76 841.40 773.17 135.05 893.34 639.78 600.18 1033.76 186.26 619.09 741.28 427.72 630.44 501.20 360.34 1105.36 1182.12 669.63 852.77 519.78 501.60 519.60 77.59 906.81 423.98
638.62 830.53 538.77 625.45 865.50 602.36 373.28 570.10 527.30 131.33 600.16 210.61 735.07 598.29 835.51 1246.93 1105.21 723.63 845.96 709.75 750.51 809.90 105.93 1056.35 233.23 1115.68 877.84 1094.96 734.79 859.47 17.17 770.44 708.58 109.12 524.14 502.99 795.22 413.85 717.62 773.61 709.11 268.73 810.79 456.80 925.46 667.02 777.93 1142.59 957.68 954.19 1132.88 682.08 762.07 1111.23 838.98 755.19 214.05 756.86 746.60 848.91 1136.05 0.00 581.92 314.36 893.48 650.78 102.99 437.66 943.78 1112.55 493.87 563.43 772.63 978.52 1046.38 623.29 886.54 730.59 762.18 724.56 857.14 51.19 93.37 737.73 856.64 793.39 783.50 791.13 1058.46 594.35 741.25
118.10 503.29 546.62 319.85 485.82 89.70 264.83 186.13 563.26 514.56 79.34 541.18 243.49 47.60 359.19 796.32 589.08 197.68 486.12 321.02 509.50 342.28 513.72 508.44 459.35 672.07 416.44 684.86 478.04 583.35 599.09 224.17 249.42 472.80 204.69 473.25 383.30 624.56 225.88 362.58 165.31 668.31 291.73 667.51 924.12 639.08 424.12 711.78 431.19 601.19 676.99 506.49 567.09 694.15 565.65 731.52 625.05 222.70 633.45 305.11 691.60 581.92 0.00 713.94 458.00 538.02 569.82 248.87 410.46 758.24 311.56 179.46 682.08 527.92 616.69 106.86 438.87 454.47 241.39 255.00 433.09 576.69 587.71 726.86 345.07 598.41 266.81 569.10 648.36 297.33 378.76
743.29 1004.02 784.17 869.43 1036.57 630.49 595.02 638.46 357.56 236.00 634.60 361.08 819.16 702.96 948.28 1413.35 1137.72 812.89 1075.68 912.71 602.29 913.93 304.68 946.70 442.91 1247.94 900.33 1192.51 854.03 1032.96 297.19 820.53 780.08 330.86 509.25 694.64 1012.75 700.48 792.23 876.05 822.13 45.63 879.15 658.16 1140.85 868.38 854.98 1349.67 1004.28 1122.35 1232.25 512.34 903.90 1246.77 984.12 1011.40 125.51 837.27 913.70 943.00 1233.60 314.36 713.94 0.00 1068.39 770.02 381.69 622.18 986.45 1286.47 508.10 645.13 962.33 1006.89 1187.14 736.31 919.05 904.08 828.12 810.99 1041.73 337.82 295.67 958.15 957.61 935.22 913.98 910.37 1229.01 666.54 900.34
419.63 239.02 608.51 290.92 204.05 492.71 677.53 469.73 883.13 921.24 482.97 786.28 317.80 505.60 256.08 430.54 744.15 336.96 47.52 283.96 924.86 215.47 876.03 837.82 739.73 222.20 651.18 277.63 392.76 252.85 905.81 499.72 288.31 863.84 598.94 489.01 326.32 756.43 351.07 732.76 337.91 1062.56 261.96 758.55 777.14 671.62 233.74 391.48 695.55 202.91 452.76 856.71 412.45 244.28 334.91 584.54 942.88 289.70 447.39 198.11 283.13 893.48 458.00 1068.39 0.00 458.74 885.54 613.15 701.69 338.90 697.98 463.06 496.02 933.93 219.17 423.73 634.29 282.84 471.86 257.40 331.87 865.18 950.02 580.12 698.63 438.60 286.71 409.85 249.93 714.42 226.22
458.85 242.08 167.53 236.94 277.05 514.57 567.89 467.91 922.35 664.55 477.45 559.43 339.75 585.62 468.93 741.24 877.61 373.84 433.58 290.26 968.21 357.77 595.87 896.32 641.26 544.32 732.88 554.28 84.01 296.16 633.61 560.86 378.83 620.84 597.12 292.03 604.14 354.65 430.76 793.08 406.21 724.39 406.54 397.60 386.71 273.89 249.34 713.60 821.27 403.08 838.82 910.08 133.88 566.40 214.10 283.43 775.04 395.55 143.68 410.96 513.19 650.78 538.02 770.02 458.74 0.00 563.57 503.51 803.44 648.24 711.57 461.24 192.31 1007.22 516.18 492.03 736.04 200.24 533.00 400.15 559.17 604.35 669.86 188.84 795.02 165.20 434.76 140.35 590.78 708.90 232.52
648.81 805.65 550.33 638.45 821.40 582.85 338.04 558.00 571.67 145.69 564.92 156.40 693.45 569.39 823.41 1183.19 1103.00 671.55 913.34 717.06 746.60 788.22 77.01 1030.23 221.13 1088.67 887.00 1042.21 647.58 818.05 104.82 735.20 654.37 97.02 488.90 590.64 870.29 399.00 614.63 821.58 675.20 356.38 788.48 356.05 838.74 566.27 704.68 1162.88 956.55 958.63 1160.64 669.32 697.45 1096.47 735.99 709.29 256.18 684.48 707.25 815.00 1076.76 102.99 569.82 381.69 885.54 563.57 0.00 402.42 935.82 1009.56 489.96 551.33 686.64 1029.55 964.45 611.19 884.33 735.03 750.08 685.28 915.10 64.19 151.00 699.68 914.89 728.77 748.82 703.92 1054.68 649.63 659.32
270.33 587.49 474.34 322.23 571.33 180.43 64.38 252.49 458.17 423.40 217.55 309.42 400.18 295.73 543.08 955.80 811.05 355.34 625.62 406.53 520.00 462.38 369.46 756.57 258.90 825.58 575.98 820.92 587.52 642.62 454.83 405.92 401.65 328.54 123.28 404.01 536.81 660.88 406.26 559.51 346.19 586.90 472.61 633.76 890.22 553.22 483.39 823.85 677.61 699.84 815.20 461.87 583.00 808.01 633.73 721.51 496.67 372.50 647.19 485.99 841.40 437.66 248.87 622.18 613.15 503.51 402.42 0.00 659.33 902.63 263.36 257.35 630.39 776.05 736.79 260.37 592.38 513.74 378.06 404.80 598.73 432.43 408.47 667.52 593.94 614.32 450.70 620.20 801.87 365.08 438.03
476.38 729.11 889.26 642.80 764.08 500.16 597.78 477.64 658.41 847.90 489.80 874.13 535.45 380.94 460.20 845.71 204.12 466.72 671.83 667.01 555.51 622.47 895.63 245.15 792.30 752.74 147.49 732.08 761.01 867.74 926.61 311.32 534.38 854.71 606.85 764.76 481.45 916.07 409.80 221.78 470.37 940.82 567.43 959.02 1190.15 1046.99 756.61 711.21 20.73 804.20 510.76 579.16 871.94 774.82 834.69 1024.07 891.69 479.65 925.83 503.58 773.17 943.78 410.46 986.45 701.69 803.44 935.82 659.33 0.00 826.04 509.10 484.31 974.46 300.73 724.37 399.41 67.40 738.94 318.50 503.47 460.85 933.80 941.87 957.01 121.77 903.26 503.65 895.35 731.09 349.43 718.36
683.53 418.94 815.77 580.40 383.97 759.34 941.81 699.75 1147.03 1118.99 773.67 1050.18 581.70 780.86 495.78 173.63 831.53 600.86 314.15 496.10 1176.14 513.54 1086.57 1041.31 1006.36 116.70 973.53 93.96 643.39 485.97 1114.38 711.17 552.21 1106.58 828.96 778.49 475.13 1002.89 614.97 909.88 592.93 1292.58 466.51 997.93 904.79 831.18 431.49 153.32 846.77 326.49 488.77 1104.94 592.37 94.62 522.48 782.29 1206.78 553.60 695.76 494.78 135.05 1112.55 758.24 1286.47 338.90 648.24 1009.56 902.63 826.04 0.00 946.21 693.08 704.19 1086.63 239.13 671.96 794.15 480.59 683.31 521.30 413.21 1073.75 1160.56 773.54 905.64 623.69 539.11 589.77 130.46 959.68 476.85
351.22 748.31 698.27 538.78 729.22 335.39 301.37 419.78 251.70 493.08 298.27 551.27 483.99 263.96 556.96 992.90 713.22 392.44 690.60 591.36 256.64 541.53 505.65 583.68 469.44 839.46 397.04 852.25 627.56 773.84 483.31 440.53 458.73 546.57 333.93 573.77 550.69 805.34 420.64 468.75 360.07 479.64 486.49 843.31 1009.39 757.19 694.46 906.54 529.83 800.44 888.35 198.51 800.74 861.54 760.41 816.79 382.59 447.69 792.38 499.87 893.34 493.87 311.56 508.10 697.98 711.57 489.96 263.36 509.10 946.21 0.00 413.11 841.01 539.59 815.94 274.25 572.36 706.98 413.14 462.39 612.61 442.68 552.75 837.28 479.29 771.15 464.58 791.17 815.75 159.67 649.10
161.63 467.42 418.29 224.30 472.49 177.58 286.74 6.67 530.33 549.17 140.46 444.20 174.33 206.93 361.23 781.56 684.87 181.10 475.20 308.60 646.58 302.40 495.23 667.77 383.39 654.55 528.77 599.12 472.89 496.36 580.60 307.81 213.41 454.31 135.88 293.79 438.15 445.10 238.02 519.30 213.47 599.50 247.36 488.05 793.54 576.02 318.38 717.88 505.04 490.56 738.11 494.42 387.63 653.38 505.32 600.94 551.96 229.56 461.19 311.21 639.78 563.43 179.46 645.13 463.06 461.24 551.33 257.35 484.31 693.08 413.11 0.00 509.82 633.89 558.62 189.32 521.33 367.48 328.21 205.66 426.95 558.20 569.22 557.30 438.50 418.95 268.85 424.83 635.62 371.91 340.10
606.03 285.25 359.84 371.47 320.22 649.10 566.01 503.15 959.58 766.56 611.98 629.42 449.97 700.26 557.84 828.23 1023.03 566.15 476.75 361.06 1065.28 471.41 712.62 1030.85 547.59 587.49 925.19 620.55 213.45 297.45 762.07 724.27 489.05 671.70 632.36 367.61 686.58 358.78 575.62 916.34 562.44 916.70 436.02 401.73 283.72 237.51 356.95 756.77 953.73 399.01 881.99 967.48 147.27 609.57 215.39 91.12 864.99 505.77 48.63 499.87 600.18 772.63 682.08 962.33 496.02 192.31 686.64 630.39 974.46 704.19 841.01 509.82 0.00 1141.75 534.67 591.36 918.02 352.85 696.41 510.37 624.66 721.44 785.93 104.10 921.61 129.10 544.47 183.63 603.69 843.43 373.04
646.02 921.73 1052.18 770.28 952.16 605.79 711.67 640.56 649.33 947.28 607.26 988.02 771.41 480.32 739.60 1109.92 374.77 694.73 890.30 848.94 515.78 844.62 1015.96 110.90 906.19 1024.63 283.40 992.67 993.31 990.87 995.69 546.16 773.70 975.83 668.13 927.68 611.50 1078.99 710.53 387.63 675.04 1011.97 799.67 1121.94 1393.93 1167.00 931.44 1011.94 321.46 1042.08 776.03 494.55 1021.52 1027.46 1004.29 1213.88 922.18 726.21 1095.08 735.82 1033.76 978.52 527.92 1006.89 933.93 1007.22 1029.55 776.05 300.73 1086.63 539.59 633.89 1141.75 0.00 936.94 589.22 368.13 953.87 535.57 758.51 673.42 982.27 1055.76 1191.19 273.55 1052.84 647.22 1058.72 956.17 572.90 886.08
537.57 274.10 683.71 420.93 301.81 609.06 740.63 551.95 1001.07 1023.90 582.70 906.23 433.21 650.59 325.68 337.42 706.98 452.56 229.18 358.98 970.61 274.41 1026.77 891.62 871.72 146.09 776.89 145.17 471.67 416.36 1035.82 505.64 408.26 995.83 681.16 619.02 325.44 862.16 501.81 812.61 455.87 1141.51 329.45 887.85 818.39 744.17 350.49 315.37 703.64 385.28 458.85 949.22 485.00 168.17 424.54 625.79 1062.83 440.44 583.30 383.65 186.26 1046.38 616.69 1187.14 219.17 516.18 964.45 736.79 724.37 239.13 815.94 558.62 534.67 936.94 0.00 541.69 728.88 374.04 477.78 408.14 263.52 995.19 1084.72 622.45 739.80 472.60 418.06 447.80 148.05 754.15 305.13
76.97 474.06 540.50 272.43 454.97 138.83 324.75 182.65 525.95 575.86 101.71 497.41 209.74 108.90 282.71 718.65 550.68 118.19 416.35 317.11 530.89 267.28 555.09 569.74 511.26 565.21 384.31 578.00 500.41 561.61 640.46 166.75 184.48 514.17 227.06 469.77 276.44 621.08 146.39 365.73 85.82 690.68 212.24 650.97 817.26 741.34 420.21 632.29 417.24 526.19 614.10 432.98 556.14 587.29 486.16 624.66 656.84 173.44 629.54 225.62 619.09 623.29 106.86 736.31 423.73 492.03 611.19 260.37 399.41 671.96 274.25 189.32 591.36 589.22 541.69 0.00 332.01 432.73 138.89 188.14 338.36 618.06 629.08 651.34 349.18 582.04 190.33 527.97 541.50 292.89 374.85
408.98 737.87 825.51 575.40 702.90 448.73 641.08 514.66 719.77 882.17 433.72 829.42 468.05 420.49 494.15 913.11 218.67 399.32 605.49 599.61 547.95 555.07 828.23 312.55 833.62 732.15 201.76 700.19 795.97 800.34 903.71 243.92 466.98 787.31 555.20 701.01 414.05 953.09 342.40 201.28 402.97 873.42 500.03 963.86 1122.75 980.15 689.21 778.61 85.23 736.80 575.26 564.99 814.45 734.98 767.29 956.67 900.86 412.25 879.72 436.18 741.28 886.54 438.87 919.05 634.29 736.04 884.33 592.38 67.40 794.15 572.36 521.33 918.02 368.13 728.88 332.01 0.00 671.54 251.10 436.07 475.97 866.40 902.22 924.88 111.49 845.77 436.25 827.95 663.69 416.83 650.96
397.16 99.94 367.77 191.51 134.91 451.58 540.67 374.15 860.66 736.60 432.02 717.78 270.26 502.07 359.10 647.37 827.13 347.73 291.44 133.45 939.87 205.79 796.11 850.89 735.19 402.18 749.04 386.63 232.27 128.88 747.76 477.79 266.08 804.83 503.36 389.60 467.88 554.89 329.14 719.30 355.73 924.63 249.73 597.84 586.95 474.13 49.10 571.46 756.77 223.60 696.68 861.90 229.14 424.26 199.31 399.90 847.09 259.29 304.22 313.58 427.72 730.59 454.47 904.08 282.84 200.24 735.03 513.74 738.94 480.59 706.98 367.48 352.85 953.87 374.04 432.73 671.54 0.00 449.93 268.17 407.19 765.77 823.96 353.04 711.95 241.99 306.65 191.94 423.13 663.47 75.71
186.90 524.74 647.09 353.79 489.77 197.63 425.02 321.54 585.35 660.75 210.03 636.30 246.44 193.79 277.53 690.80 469.77 159.16 430.55 380.46 492.83 336.39 693.98 462.83 619.54 595.86 299.11 589.35 582.30 578.81 774.91 27.86 247.83 653.06 318.87 522.59 208.18 759.97 192.96 334.83 184.29 782.49 281.35 749.44 919.71 758.54 467.60 556.30 318.05 506.51 533.58 571.87 592.84 617.94 527.13 763.55 771.24 190.64 676.68 273.75 630.44 762.18 241.39 828.12 471.86 533.00 750.08 378.06 318.50 683.31 413.14 328.21 696.41 535.57 477.78 138.89 251.10 449.93 0.00 222.94 270.10 756.95 709.63 721.84 262.02 624.16 185.15 619.40 552.85 276.37 429.35
162.23 301.80 443.84 167.39 266.83 290.81 469.18 212.33 625.73 669.52 261.20 528.88 60.40 297.04 207.07 661.54 573.72 79.56 304.92 163.54 704.40 133.73 618.63 681.67 589.05 479.60 495.03 494.20 359.90 384.17 707.39 250.80 30.91 630.63 341.54 319.34 240.89 613.98 93.67 521.58 102.32 805.16 117.98 588.88 782.23 600.20 266.64 555.77 521.30 392.64 578.55 621.12 395.52 501.68 408.35 601.49 685.48 32.30 475.97 149.10 501.20 724.56 255.00 810.99 257.40 400.15 685.28 404.80 503.47 521.30 462.39 205.66 510.37 758.51 408.14 188.14 436.07 268.17 222.94 0.00 258.31 681.60 692.62 576.69 484.96 426.84 187.11 407.95 507.33 481.03 221.28
348.49 438.21 702.15 379.75 403.24 440.11 650.41 433.62 811.99 855.78 425.16 787.19 284.59 447.26 93.45 512.68 443.46 300.05 284.35 303.72 762.93 201.40 860.76 628.10 716.55 351.21 569.21 319.25 528.00 520.58 874.31 297.96 289.22 819.84 550.51 577.65 61.92 827.24 300.47 551.31 276.40 1014.13 215.27 841.55 892.31 716.33 358.09 482.20 440.12 460.31 321.85 771.34 477.39 354.04 493.03 699.71 916.22 270.51 616.15 151.42 360.34 857.14 433.09 1041.73 331.87 559.17 915.10 598.73 460.85 413.21 612.61 426.95 624.66 673.42 263.52 338.36 475.97 407.19 270.10 258.31 0.00 908.33 934.75 658.56 532.12 508.71 166.28 514.59 282.75 546.47 361.46
638.94 839.52 549.78 574.26 823.36 602.68 368.05 557.90 543.48 131.65 594.93 159.42 683.88 598.61 830.28 1241.70 1085.07 711.88 897.15 658.56 699.32 758.71 62.97 1025.54 228.00 1082.12 838.90 1064.27 688.36 880.63 40.63 755.19 657.39 103.89 485.51 526.45 846.41 362.66 678.82 797.07 679.51 292.19 763.99 405.61 888.30 615.83 726.74 1166.05 951.63 951.87 1147.64 641.19 738.23 1060.04 798.57 758.85 242.14 713.90 695.41 819.31 1105.36 51.19 576.69 337.82 865.18 604.35 64.19 432.43 933.80 1073.75 442.68 558.20 721.44 982.27 995.19 618.06 866.40 765.77 756.95 681.60 908.33 0.00 116.83 686.54 907.83 769.55 778.27 744.70 1085.42 602.35 690.06
623.29 911.94 568.22 691.09 935.00 512.00 344.09 575.89 560.52 116.00 549.12 185.87 722.92 575.44 841.30 1252.72 1120.89 708.30 931.23 770.20 809.39 810.31 73.99 1036.28 239.02 1171.36 907.55 1141.03 753.87 883.38 76.20 737.49 683.84 114.91 454.13 562.02 888.59 427.15 737.11 817.89 714.90 257.65 810.60 427.47 910.16 637.69 803.50 1201.62 962.60 1036.88 1146.77 715.30 767.86 1171.68 801.32 780.71 170.16 724.92 759.90 841.72 1182.12 93.37 587.71 295.67 950.02 669.86 151.00 408.47 941.87 1160.56 552.75 569.22 785.93 1055.76 1084.72 629.08 902.22 823.96 709.63 692.62 934.75 116.83 0.00 751.03 926.97 783.48 789.29 797.37 1143.73 653.38 806.89
647.69 387.43 268.48 425.78 389.57 687.13 670.11 550.63 1063.68 765.79 650.01 717.00 527.57 760.24 595.92 897.68 1066.45 562.68 546.10 445.16 961.18 538.81 697.11 1085.16 635.17 656.84 921.72 683.91 251.31 335.60 727.17 749.70 551.94 721.79 663.48 263.51 713.70 323.88 619.60 966.83 595.05 913.23 540.12 343.63 287.22 133.41 382.12 826.12 936.28 463.26 951.34 1035.79 181.17 678.92 296.65 119.17 832.64 583.37 132.73 554.66 669.63 737.73 726.86 958.15 580.12 188.84 699.68 667.52 957.01 773.54 837.28 557.30 104.10 1191.19 622.45 651.34 924.88 353.04 721.84 576.69 658.56 686.54 751.03 0.00 937.04 149.85 623.60 204.38 700.49 881.46 417.85
426.15 648.18 856.79 599.02 683.15 414.97 609.90 445.17 612.17 853.18 424.41 846.59 508.46 392.67 504.30 952.82 284.43 421.18 657.32 642.48 489.60 598.41 858.79 276.91 784.18 833.05 90.27 811.68 823.11 790.44 873.81 272.61 509.85 817.87 536.21 732.29 470.20 883.60 453.89 151.29 435.00 958.93 543.37 852.37 1166.44 984.15 729.62 818.32 101.04 768.53 591.07 457.39 774.34 846.47 789.15 973.84 832.10 452.66 899.69 500.52 852.77 856.64 345.07 957.61 698.63 795.02 914.89 593.94 121.77 905.64 479.29 438.50 921.61 273.55 739.80 349.18 111.49 711.95 262.02 484.96 532.12 907.83 926.97 937.04 0.00 805.66 411.92 811.54 775.18 388.49 691.37
505.53 237.58 332.73 309.61 239.72 579.41 549.94 425.62 943.73 778.17 542.29 641.99 377.72 625.88 446.07 747.83 950.78 506.40 396.25 313.72 1027.79 412.03 709.49 968.99 560.16 506.99 798.26 534.06 143.59 185.75 798.25 633.36 404.30 684.27 554.83 406.78 563.85 452.70 503.37 816.98 501.64 889.59 456.11 493.48 383.60 283.26 265.70 676.27 883.87 313.41 801.49 913.37 31.32 529.07 146.80 191.00 877.56 433.52 119.95 504.04 519.78 793.39 598.41 935.22 438.60 165.20 728.77 614.32 903.26 623.69 771.15 418.95 129.10 1052.84 472.60 582.04 845.77 241.99 624.16 426.84 508.71 769.55 783.48 149.85 805.66 0.00 538.45 54.53 550.64 773.74 282.09
191.43 406.59 602.29 294.82 401.93 320.01 502.20 275.52 654.93 698.72 292.04 632.10 185.20 299.23 92.38 629.77 595.51 156.48 245.40 295.00 677.98 197.40 715.30 647.98 550.27 440.67 462.88 462.95 493.01 435.53 790.22 213.01 218.02 674.38 404.73 492.80 211.97 713.95 134.19 446.05 124.11 868.35 152.45 689.26 821.47 708.65 354.09 495.27 503.20 456.31 488.13 623.31 531.60 462.75 491.96 635.59 809.21 204.04 578.44 88.60 501.60 783.50 266.81 913.98 286.71 434.76 748.82 450.70 503.65 539.11 464.58 268.85 544.47 647.22 418.06 190.33 436.25 306.65 185.15 187.11 166.28 778.27 789.29 623.60 411.92 538.45 0.00 498.59 449.03 461.52 326.47
451.00 233.61 307.88 305.80 205.80 551.14 555.82 431.50 914.50 785.01 514.02 647.87 383.60 604.58 491.85 718.26 936.12 460.24 362.33 259.19 1047.81 369.54 723.38 965.18 566.04 473.07 813.16 528.50 173.64 174.33 773.96 647.26 391.82 690.15 560.71 432.38 509.32 414.36 485.55 849.97 492.61 864.74 401.74 457.31 438.13 296.37 241.04 642.35 912.58 313.23 767.57 919.25 37.20 495.15 92.27 245.53 883.44 439.40 143.85 465.59 519.60 791.13 569.10 910.37 409.85 140.35 703.92 620.20 895.35 589.77 791.17 424.83 183.63 1058.72 447.80 527.97 827.95 191.94 619.40 407.95 514.59 744.70 797.37 204.38 811.54 54.53 498.59 0.00 515.48 745.47 267.65
618.47 370.70 758.31 511.16 335.73 657.69 860.32 642.29 1067.45 1061.53 643.21 986.54 538.87 650.40 376.20 304.09 726.21 533.80 212.50 453.10 1045.68 422.46 1069.74 910.85 904.71 68.46 851.96 36.50 561.90 396.71 1075.63 580.71 499.79 1028.82 768.56 709.25 344.67 929.84 583.22 834.06 526.76 1232.18 413.61 949.69 774.33 773.72 374.03 232.82 722.87 237.23 472.51 974.48 519.32 71.29 423.21 694.81 1154.36 539.63 647.52 386.96 77.59 1058.46 648.36 1229.01 249.93 590.78 1054.68 801.87 731.09 130.46 815.75 635.62 603.69 956.17 148.05 541.50 663.69 423.13 552.85 507.33 282.75 1085.42 1143.73 700.49 775.18 550.64 449.03 515.48 0.00 829.22 395.36
342.40 720.03 698.73 471.96 685.06 268.57 429.46 365.24 308.98 652.75 231.45 578.11 502.63 249.73 553.90 967.17 553.55 411.08 706.92 556.26 416.31 539.74 661.31 462.00 496.28 858.10 354.85 865.72 630.15 792.35 577.18 304.23 473.72 620.39 356.80 652.36 484.55 792.04 439.28 418.55 378.71 639.31 505.13 749.09 1095.61 876.48 633.12 832.67 370.16 782.88 809.95 358.18 759.54 880.18 713.33 917.55 542.26 466.33 794.97 518.51 906.81 594.35 297.33 666.54 714.42 708.90 649.63 365.08 349.43 959.68 159.67 371.91 843.43 572.90 754.15 292.89 416.83 663.47 276.37 481.03 546.47 602.35 653.38 881.46 388.49 773.74 461.52 745.47 829.22 0.00 587.76
321.69 149.46 393.84 115.80 162.08 393.43 464.96 346.77 785.19 718.77 356.31 642.07 225.42 426.36 295.84 607.63 765.44 300.84 273.74 57.74 888.26 168.09 736.33 775.18 659.48 429.35 716.31 382.89 166.54 204.59 730.69 457.21 190.37 729.12 475.98 313.89 409.82 580.96 308.56 691.79 294.04 939.60 174.02 583.43 588.76 506.41 45.36 583.58 735.31 299.31 678.98 807.83 279.74 437.15 231.79 396.16 829.26 238.71 331.36 237.87 423.98 741.25 378.76 900.34 226.22 232.52 659.32 438.03 718.36 476.85 649.10 340.10 373.04 886.08 305.13 374.85 650.96 75.71 429.35 221.28 361.46 690.06 806.89 417.85 691.37 282.09 326.47 267.65 395.36 587.76 0.00
DEMAND_SECTION
1 0
2 5
3 4
4 6
5 10
6 8
7 6
8 8
9 7
10 8
11 9
12 8
13 2
14 5
15 3
16 6
17 3
18 3
19 7
20 10
21 5
22 10
23 2
24 10
25 5
26 4
27 1
28 1
29 8
30 4
31 9
32 9
33 7
34 3
35 2
36 2
37 4
38 3
39 10
40 4
41 3
42 6
43 7
44 10
45 2
46 9
47 8
48 8
49 9
50 10
51 7
52 7
53 6
54 9
55 9
56 10
57 4
58 10
59 10
60 9
61 1
62 9
63 6
64 6
65 8
66 7
67 10
68 7
69 1
70 1
71 10
72 1
73 5
74 6
75 8
76 5
77 2
78 5
79 8
80 8
81 5
82 10
83 2
84 6
85 3
86 6
87 3
88 5
89 4
90 3
91 1
DEPOT_SECTION
1
-1
EOF
