NAME: LDG90_1213_snow_90_0271
COMMENT: CVRP with travel times.  rootPos=1,custPos=2,demandType=1,avgRouteSizeIndex=3,weather=snow,lambda_cluster=1,lambda_random=4, T1=300,T2=700,beta=1, alpha(i,j) ~ U(0.8,1.2)
TYPE: CVRP
DIMENSION: 91
EDGE_WEIGHT_TYPE: EXPLICIT
EDGE_WEIGHT_FORMAT: FULL_MATRIX
CAPACITY: 8
NODE_COORD_SECTION
1 88 488
2 614 808
3 779 320
4 539 403
5 521 953
6 528 595
7 488 386
8 653 960
9 717 522
10 594 295
11 634 947
12 704 371
13 756 378
14 465 914
15 617 318
16 503 389
17 661 531
18 783 368
19 615 908
20 766 241
21 516 931
22 703 317
23 662 745
24 527 245
25 620 752
26 680 568
27 528 381
28 494 237
29 711 323
30 536 406
31 536 332
32 659 240
33 544 896
34 555 355
35 745 378
36 499 202
37 640 769
38 713 975
39 769 374
40 479 296
41 684 221
42 453 309
43 616 827
44 433 337
45 556 688
46 700 785
47 494 334
48 281 469
49 751 456
50 600 879
51 673 908
52 668 777
53 554 943
54 986 805
55 816 493
56 562 154
57 611 956
58 419 926
59 562 292
60 506 860
61 651 753
62 527 300
63 687 750
64 426 471
65 733 379
66 671 772
67 619 864
68 684 279
69 621 335
70 435 278
71 445 836
72 503 836
73 640 339
74 676 441
75 514 940
76 649 431
77 710 259
78 792 467
79 458 339
80 482 908
81 666 852
82 726 382
83 547 953
84 680 314
85 520 240
86 700 756
87 684 335
88 467 220
89 616 733
90 622 282
91 865 477
EDGE_WEIGHT_SECTION
0.00 1126.22 1132.52 783.70 1037.24 1044.78 725.54 1224.81 1009.27 890.21 1172.82 1026.62 1073.97 971.18 849.96 694.81 1045.74 1120.99 1053.02 1154.47 1034.24 983.18 1065.23 880.24 985.79 1134.98 667.15 940.86 997.07 765.23 752.02 963.10 1070.27 803.97 1033.62 976.84 1053.35 1286.91 1080.47 789.81 1027.60 846.17 1180.51 863.82 1003.18 1119.32 867.24 742.69 1111.84 1170.05 1227.89 1088.88 1093.42 1609.97 1260.64 1020.01 1195.34 1103.27 838.37 1074.07 1074.95 801.37 1119.23 666.77 1002.85 1108.49 1176.37 992.49 893.33 939.95 934.19 1113.35 925.16 956.60 993.09 952.64 1074.54 1212.81 804.38 1018.15 1176.81 1019.61 1113.99 926.44 900.98 1158.37 990.14 965.70 1018.91 902.34 1274.03
1126.22 0.00 815.14 679.53 330.79 381.12 784.23 341.65 543.24 885.82 289.66 756.29 785.97 283.92 840.73 753.50 503.83 795.00 249.45 895.38 302.42 795.48 193.84 939.62 140.43 414.59 759.14 972.18 765.59 661.06 819.88 936.67 284.02 833.12 745.62 951.82 129.57 397.79 779.49 864.16 988.09 807.80 54.29 817.04 269.24 179.46 827.46 910.73 657.19 136.24 269.21 118.48 328.80 542.21 683.93 1053.66 287.01 389.90 897.71 280.36 193.39 893.36 215.33 772.41 776.39 132.35 138.49 853.63 822.98 913.00 399.08 245.87 778.59 588.93 286.64 654.66 915.14 617.23 741.29 236.95 144.57 771.19 337.39 852.22 918.45 201.60 822.92 887.77 131.34 877.53 709.61
1132.52 815.14 0.00 447.34 1050.27 703.70 527.57 1011.38 398.33 325.53 959.39 198.18 173.93 1054.98 330.65 496.84 418.04 122.84 944.51 270.20 1007.11 149.34 751.18 461.15 674.71 467.42 465.37 504.93 151.09 459.90 446.72 291.36 956.64 426.39 166.89 548.33 742.27 1077.86 174.08 560.15 248.92 538.23 869.43 614.82 753.89 764.96 491.28 876.02 234.06 868.49 955.05 755.39 1036.46 1019.86 317.60 503.71 1026.34 1085.36 372.58 937.51 763.87 458.94 697.18 658.68 136.12 735.78 890.14 203.40 308.84 546.74 1048.28 898.23 255.45 269.46 1021.36 323.45 182.72 250.90 595.13 1052.09 907.12 121.13 1054.22 206.08 448.59 751.47 202.40 554.13 707.83 296.40 346.61
783.70 679.53 447.34 0.00 890.63 483.61 130.67 916.07 403.15 288.73 864.08 371.30 391.39 837.01 256.19 99.94 300.18 442.48 825.48 449.19 855.51 324.64 596.89 303.24 581.31 375.05 116.55 356.24 354.53 18.47 177.29 393.96 863.24 153.59 373.74 399.84 581.33 976.22 420.59 256.78 403.51 265.72 733.82 268.95 661.52 692.74 184.87 544.63 337.66 708.45 849.55 653.75 901.01 1071.66 502.59 411.07 924.29 942.99 240.43 824.99 644.38 250.77 624.96 211.34 342.97 658.38 775.77 376.07 275.90 335.04 763.43 785.71 329.29 298.33 896.66 232.60 361.71 438.63 250.20 790.04 747.33 326.21 935.26 267.90 324.41 679.25 292.39 325.18 548.19 327.61 510.91
1037.24 330.79 1050.27 890.63 0.00 688.56 976.55 283.52 754.34 1114.55 231.53 967.39 966.03 161.08 1051.83 945.82 714.93 1015.36 311.45 1106.48 64.37 1026.72 455.00 1104.58 375.56 625.69 891.49 1139.59 1056.61 872.16 976.36 1182.14 141.71 1018.18 957.56 1162.92 440.74 344.25 1004.41 1089.79 1193.29 1053.04 338.04 1070.80 480.34 475.40 1038.56 792.78 831.45 256.09 327.22 413.77 93.48 837.34 945.74 1244.35 176.10 219.82 1062.71 202.45 448.98 1025.71 487.17 880.29 935.36 394.16 276.39 1143.45 1034.08 1158.24 311.19 241.73 1035.66 882.04 44.15 889.24 1146.38 879.04 995.05 114.11 342.93 952.12 77.49 1083.46 1125.32 486.70 1034.02 1190.04 342.44 1117.60 993.36
1044.78 381.12 703.70 483.61 688.56 0.00 479.13 695.48 336.10 627.42 643.49 655.82 589.19 655.83 572.65 509.86 409.14 640.28 597.34 822.70 683.54 698.63 353.60 558.50 361.15 319.90 497.40 591.06 704.77 465.14 582.27 710.72 643.08 578.80 619.86 620.73 369.93 706.02 644.39 483.04 750.29 426.68 435.41 435.92 208.22 451.10 475.37 529.61 513.26 487.86 598.19 383.55 675.69 841.13 592.08 735.49 668.13 771.02 605.59 595.62 306.11 519.23 407.60 437.20 589.09 375.01 519.61 680.44 513.31 531.88 716.82 625.86 566.70 473.58 667.76 516.23 749.23 594.52 360.17 618.07 473.55 582.57 714.82 641.89 537.33 405.43 679.17 595.18 346.12 544.98 686.51
725.54 784.23 527.57 130.67 976.55 479.13 0.00 987.46 427.18 252.70 935.47 349.22 482.98 942.59 267.87 30.73 374.94 494.80 901.41 548.39 961.09 378.23 701.59 285.54 686.01 464.18 85.06 292.83 408.12 123.17 164.16 349.47 936.37 181.94 451.53 355.80 686.03 1080.92 484.00 191.41 418.54 135.05 838.52 138.28 687.35 813.19 160.60 499.26 468.33 813.15 929.56 758.45 904.96 1166.52 633.26 437.92 932.82 1038.94 234.80 929.69 747.47 219.28 745.41 305.00 420.76 763.08 784.30 381.10 230.09 224.76 894.10 890.41 283.48 371.49 1002.24 306.95 460.91 569.30 119.53 895.62 852.03 417.80 944.09 344.35 306.71 791.05 387.43 303.55 652.89 313.61 641.58
1224.81 341.65 1011.38 916.07 283.52 695.48 987.46 0.00 733.38 1083.76 51.99 960.50 936.86 343.94 1025.09 956.73 646.60 938.25 171.79 1145.08 297.30 938.32 419.01 1061.58 384.54 700.91 995.68 1137.06 968.21 897.60 1021.31 1121.12 312.36 969.71 896.51 1158.18 392.04 265.12 930.38 1104.29 1190.19 1047.93 287.36 1106.51 547.76 298.44 1064.00 865.95 842.05 207.62 147.68 364.21 190.04 769.28 827.18 1256.58 118.94 448.65 1107.66 310.70 418.42 1123.46 366.22 976.85 927.28 357.52 203.16 1062.08 965.75 1153.13 443.17 349.98 978.50 813.71 290.37 820.91 1057.98 760.48 1030.76 362.77 250.98 943.51 217.55 995.06 1082.75 365.38 965.69 1204.60 417.66 1049.27 895.02
1009.27 543.24 398.33 403.15 754.34 336.10 427.18 733.38 0.00 436.84 697.58 349.08 382.53 827.16 370.33 396.45 102.97 343.17 629.44 486.60 788.46 430.17 390.85 555.21 445.02 128.65 342.12 578.52 441.96 384.68 426.99 496.42 711.12 460.35 370.00 640.44 471.58 791.15 385.77 540.42 542.92 545.86 569.49 555.10 415.12 434.94 512.53 784.30 177.16 641.42 634.66 468.68 730.62 881.38 255.98 639.67 755.22 866.19 500.96 740.56 438.34 476.34 367.16 597.05 342.78 452.34 606.70 408.46 383.00 614.92 769.69 731.30 329.61 143.76 798.49 209.49 494.70 258.42 479.35 780.19 592.98 326.02 742.54 434.27 575.95 421.45 422.06 640.67 411.90 432.36 350.41
890.21 885.82 325.53 288.73 1114.55 627.42 252.70 1083.76 436.84 0.00 1031.77 231.76 306.73 1045.43 92.22 221.97 437.16 337.40 963.63 396.73 1099.09 236.09 767.99 140.44 833.10 526.40 223.06 215.92 264.74 270.26 138.19 240.25 1088.26 137.91 289.08 237.04 833.12 1028.66 335.93 251.62 269.86 212.70 940.11 289.37 728.53 845.39 165.75 587.54 425.07 900.00 1064.39 845.82 1092.56 1149.16 464.94 289.75 966.79 913.34 64.12 989.43 815.48 150.48 804.00 443.35 258.31 829.48 956.34 216.07 140.73 295.69 1052.16 950.15 107.23 296.89 1133.25 269.47 323.62 431.82 279.21 1033.62 982.92 241.55 1065.40 179.35 161.61 778.45 190.06 281.65 799.98 82.44 544.41
1172.82 289.66 959.39 864.08 231.53 643.49 935.47 51.99 697.58 1031.77 0.00 908.51 926.11 291.95 973.10 904.74 594.61 886.26 119.80 1093.09 245.31 973.72 367.02 1009.59 332.55 648.92 943.69 1085.07 956.19 845.61 969.32 1103.46 260.37 917.72 912.76 1106.19 341.76 248.95 937.50 1052.30 1142.88 995.94 235.37 1054.52 495.77 314.69 1012.01 813.96 790.06 155.63 95.69 312.22 138.05 717.29 775.19 1204.59 66.95 396.66 1055.67 351.63 374.43 1071.47 382.47 924.86 908.28 305.53 151.17 1026.42 913.76 1101.14 411.06 363.97 926.51 761.72 238.38 768.92 1081.29 708.49 978.77 310.78 220.33 891.52 165.56 977.40 1030.76 381.63 913.70 1152.61 365.67 997.28 843.03
1026.62 756.29 198.18 371.30 967.39 655.82 349.22 960.50 349.08 231.76 908.51 0.00 142.23 1016.46 176.66 379.95 313.90 154.04 840.37 342.82 947.90 135.68 691.97 372.20 658.07 403.14 359.47 412.53 105.79 353.72 331.21 248.25 940.00 279.26 107.68 461.99 723.25 1038.25 134.78 444.64 310.52 444.46 810.58 487.50 659.58 705.75 397.51 728.89 290.00 892.53 910.97 715.78 1005.11 984.66 316.80 411.31 973.34 1046.06 288.69 905.81 739.46 354.13 637.97 569.00 76.91 734.98 852.53 176.06 186.91 499.34 980.62 866.53 211.37 205.32 989.05 139.59 255.34 250.10 468.75 993.24 847.91 77.05 1017.03 122.19 393.37 692.26 124.69 470.24 624.95 204.00 394.94
1073.97 785.97 173.93 391.39 966.03 589.19 482.98 936.86 382.53 306.73 926.11 142.23 0.00 881.05 274.70 452.25 362.09 51.09 888.56 240.31 912.66 153.25 607.03 447.17 686.47 372.22 406.82 495.87 140.68 409.86 381.60 311.76 890.75 329.65 40.35 543.77 675.06 1007.33 55.20 495.03 369.01 519.43 785.67 549.70 658.69 638.42 451.33 779.28 238.23 844.90 857.42 684.86 950.22 936.03 247.18 494.65 930.14 966.48 362.55 763.58 654.52 420.11 570.64 602.73 71.12 668.52 781.62 234.55 252.89 550.12 903.46 724.30 199.50 238.77 924.31 220.66 272.91 217.62 539.19 883.75 796.46 65.18 965.75 196.05 468.34 624.93 213.27 544.10 655.47 287.34 315.36
971.18 283.92 1054.98 837.01 161.08 655.83 942.59 343.94 827.16 1045.43 291.95 1016.46 881.05 0.00 972.17 911.86 787.75 932.14 298.77 1121.36 112.44 975.11 470.12 1018.87 415.45 698.51 857.53 1054.61 945.22 855.48 942.40 1116.30 161.69 990.60 921.40 1115.47 413.49 440.25 936.25 961.86 1149.81 968.06 291.48 1044.73 504.87 463.38 1021.88 885.86 888.27 260.08 387.64 402.40 231.32 826.13 967.85 1210.39 225.00 132.09 1026.36 117.47 477.31 940.00 499.25 860.60 952.17 416.27 313.76 1039.09 1031.51 1073.26 157.80 156.75 1039.11 872.85 137.23 876.87 1094.77 901.15 994.76 46.97 389.50 946.23 192.19 1031.85 1039.61 485.52 1019.90 1104.33 415.26 1092.72 946.80
849.96 840.73 330.65 256.19 1051.83 572.65 267.87 1025.09 370.33 92.22 973.10 176.66 274.70 972.17 0.00 237.14 378.49 305.37 904.96 304.51 1052.58 211.06 761.18 232.66 742.51 467.73 182.81 308.14 235.23 274.66 154.55 163.16 1024.44 102.60 257.05 329.26 807.69 1026.90 303.90 267.98 177.64 304.92 895.02 322.65 647.14 805.27 257.97 552.23 393.04 864.69 1004.99 825.61 1023.83 1117.13 493.46 346.17 934.76 1005.56 135.02 1004.00 808.67 208.13 737.49 417.53 226.28 806.00 936.97 142.53 59.34 330.40 1019.62 964.72 75.20 257.95 1093.73 237.44 245.54 426.76 320.04 993.37 961.38 209.52 1033.37 189.91 253.83 746.42 211.69 372.46 709.39 138.86 564.06
694.81 753.50 496.84 99.94 945.82 509.86 30.73 956.73 396.45 221.97 904.74 379.95 452.25 911.86 237.14 0.00 374.15 464.07 876.92 517.66 930.36 347.50 670.86 254.81 655.28 463.39 54.33 323.56 377.39 92.44 133.43 318.74 905.64 185.38 420.80 351.41 655.30 1050.19 467.65 209.40 387.81 165.78 807.79 169.01 718.08 782.46 188.45 468.53 437.60 782.42 937.07 727.72 874.23 1145.63 602.53 407.19 902.09 1008.21 219.78 898.96 716.74 188.55 714.68 274.27 390.03 732.35 753.57 379.67 199.36 255.49 863.37 859.68 252.75 343.78 971.51 306.57 430.18 538.57 150.26 864.89 821.30 387.07 913.36 313.62 275.98 760.32 356.70 334.28 622.16 282.88 610.85
1045.74 503.83 418.04 300.18 714.93 409.14 374.94 646.60 102.97 437.16 594.61 313.90 362.09 787.75 378.49 374.15 0.00 413.18 526.47 570.34 764.88 379.11 421.67 538.36 405.61 89.24 379.79 601.87 361.58 281.71 440.53 508.85 687.54 453.77 344.44 605.26 470.79 776.45 391.29 553.96 556.13 509.99 558.12 489.27 375.71 530.77 448.11 778.39 263.33 608.83 690.30 485.68 691.21 984.35 358.95 609.98 661.56 763.22 501.28 703.59 469.16 486.37 462.99 494.08 313.67 466.07 600.07 431.81 319.15 599.70 666.72 726.40 336.55 167.11 759.08 174.31 486.68 361.39 494.47 740.78 624.48 296.91 703.13 382.79 559.53 493.23 319.09 621.71 372.49 402.67 414.14
1120.99 795.00 122.84 442.48 1015.36 640.28 494.80 938.25 343.17 337.40 886.26 154.04 51.09 932.14 305.37 464.07 413.18 0.00 907.78 291.40 963.75 202.92 658.12 471.96 735.61 419.24 453.84 464.83 173.03 460.95 406.62 328.02 941.84 361.46 87.37 514.29 719.82 1004.73 51.24 520.05 371.76 550.10 819.82 574.72 705.71 683.18 482.00 811.09 259.85 886.49 902.18 682.26 963.33 932.07 244.47 463.61 953.21 962.52 401.48 814.67 705.61 450.78 615.40 639.99 118.14 662.65 817.01 240.06 283.56 595.99 954.55 775.39 230.17 289.86 971.21 271.75 234.11 177.77 569.86 934.84 841.22 116.27 1002.46 234.98 493.13 669.69 207.15 534.53 702.49 256.30 311.40
1053.02 249.45 944.51 825.48 311.45 597.34 901.41 171.79 629.44 963.63 119.80 840.37 888.56 298.77 904.96 876.92 526.47 907.78 0.00 1096.81 306.11 905.58 303.35 981.77 328.61 615.71 905.09 1057.25 888.05 807.01 929.74 1035.32 228.77 879.12 870.91 1078.37 289.79 249.98 908.89 1014.94 1082.60 958.58 198.98 967.82 389.90 293.07 973.41 933.76 751.46 117.03 174.87 225.52 257.85 698.28 796.71 1136.45 142.32 307.52 1007.22 269.21 291.23 994.28 344.73 957.57 840.14 245.13 123.35 958.28 845.62 1063.78 321.35 308.49 863.02 693.58 347.26 700.78 1013.15 730.01 892.07 251.80 123.79 823.38 240.93 909.26 1002.94 337.67 845.56 1107.93 350.93 929.14 854.30
1154.47 895.38 270.20 449.19 1106.48 822.70 548.39 1145.08 486.60 396.73 1093.09 342.82 240.31 1121.36 304.51 517.66 570.34 291.40 1096.81 0.00 1152.97 207.14 847.34 414.72 797.16 608.17 487.32 463.45 237.03 430.72 459.06 198.92 1079.09 407.11 280.66 511.32 862.34 1204.43 284.51 534.65 156.53 524.92 949.67 568.98 894.64 878.73 437.03 856.74 405.02 1031.62 1097.73 881.96 1118.39 1115.04 451.30 530.94 1123.51 1195.79 430.04 1003.89 886.32 383.57 810.95 660.53 311.43 862.35 991.62 202.26 357.26 528.78 1143.77 964.61 303.87 466.96 1150.63 431.82 87.48 384.60 542.63 1124.06 1016.03 305.49 1157.52 263.54 435.89 865.24 251.25 511.48 764.04 337.23 433.63
1034.24 302.42 1007.11 855.51 64.37 683.54 961.09 297.30 788.46 1099.09 245.31 947.90 912.66 112.44 1052.58 930.36 764.88 963.75 306.11 1152.97 0.00 1029.16 397.61 1066.90 359.27 675.64 876.03 1086.22 1050.12 873.98 960.90 1168.23 77.34 1009.10 901.76 1149.19 426.83 402.89 948.61 1056.03 1201.98 999.67 307.07 1076.34 530.29 411.03 1040.38 789.78 828.45 274.40 341.00 390.46 118.88 844.63 921.17 1228.89 178.36 189.14 1047.25 149.08 428.71 988.03 451.61 892.21 870.99 383.77 229.41 1123.96 1075.46 1104.87 270.24 188.36 1022.07 891.35 41.15 939.19 1126.38 868.65 1013.26 65.47 339.93 887.75 79.75 1042.17 1087.64 476.31 1072.59 1150.93 392.39 1111.22 962.39
983.18 795.48 149.34 324.64 1026.72 698.63 378.23 938.32 430.17 236.09 973.72 135.68 153.25 975.11 211.06 347.50 379.11 202.92 905.58 207.14 1029.16 0.00 730.12 311.81 717.40 401.03 316.03 362.18 29.89 310.80 303.97 182.80 999.33 292.41 188.94 408.41 782.58 1119.94 151.68 417.40 251.87 448.79 849.77 472.07 687.50 783.62 387.69 730.96 283.03 917.46 1002.62 797.47 965.78 943.75 364.81 360.96 995.42 1062.96 223.24 916.83 777.61 309.60 715.84 529.66 158.17 777.86 911.86 123.76 189.25 454.81 1045.83 877.55 135.86 290.41 1066.11 224.68 119.66 300.61 453.26 1022.08 929.17 171.94 1004.91 56.74 332.98 770.13 60.02 404.79 684.28 153.65 411.84
1065.23 193.84 751.18 596.89 455.00 353.60 701.59 419.01 390.85 767.99 367.02 691.97 607.03 470.12 761.18 670.86 421.67 658.12 303.35 847.34 397.61 730.12 0.00 848.04 79.44 395.81 676.50 913.66 739.95 578.42 737.24 866.05 320.27 750.48 584.29 926.61 88.36 400.30 618.16 836.64 933.77 780.28 178.64 789.52 185.73 121.78 744.82 883.21 568.01 260.59 339.57 77.83 362.17 582.51 607.21 971.02 364.37 573.65 703.87 377.42 47.49 790.23 54.00 771.46 615.06 61.49 215.85 799.31 740.82 885.48 453.01 353.16 720.46 534.61 438.76 586.85 838.47 540.51 713.77 423.15 214.93 631.82 401.30 739.99 826.87 94.20 740.76 903.76 112.56 823.21 713.14
880.24 939.62 461.15 303.24 1104.58 558.50 285.54 1061.58 555.21 140.44 1009.59 372.20 447.17 1018.87 232.66 254.81 538.36 471.96 981.77 414.72 1066.90 311.81 848.04 0.00 874.01 627.60 213.09 75.48 341.70 311.17 181.02 327.26 1010.49 232.97 429.52 96.60 874.03 1108.71 463.49 119.93 258.19 176.29 942.62 252.96 766.72 958.24 173.93 571.25 565.51 938.63 1076.54 890.69 1057.69 1255.56 601.54 219.33 1006.94 1053.78 144.17 917.82 864.61 78.87 902.04 434.41 398.75 874.55 858.42 299.55 246.09 220.49 923.99 878.54 247.67 437.33 1078.55 409.91 397.53 534.84 224.14 1023.65 981.01 381.99 1057.32 310.67 21.17 918.89 330.50 143.02 840.89 222.88 684.85
985.79 140.43 674.71 581.31 375.56 361.15 686.01 384.54 445.02 833.10 332.55 658.07 686.47 415.45 742.51 655.28 405.61 735.61 328.61 797.16 359.27 717.40 79.44 874.01 0.00 316.37 660.92 916.57 747.29 562.84 721.66 872.82 281.93 734.90 648.24 853.60 67.56 425.56 695.09 835.09 920.15 787.83 194.72 797.07 171.02 133.53 729.24 837.09 558.97 276.67 349.33 103.09 418.64 624.18 674.28 955.44 399.50 527.51 783.31 297.98 89.16 795.14 133.44 692.02 679.01 122.70 260.70 834.13 724.76 893.03 373.57 320.79 742.16 572.72 400.42 579.92 837.06 607.58 721.32 377.38 233.56 695.77 379.51 774.14 882.83 172.58 724.70 889.05 33.12 808.28 725.29
1134.98 414.59 467.42 375.05 625.69 319.90 464.18 700.91 128.65 526.40 648.92 403.14 372.22 698.51 467.73 463.39 89.24 419.24 615.71 608.17 675.64 401.03 395.81 627.60 316.37 0.00 469.03 691.11 430.92 370.95 529.77 583.83 598.30 528.64 331.87 694.50 381.55 718.91 378.72 631.83 645.37 599.23 468.88 578.51 286.47 441.53 537.35 689.15 242.60 550.83 659.88 396.44 601.97 940.55 384.63 699.22 659.35 803.21 590.52 614.35 405.53 575.61 373.75 583.32 362.64 376.83 510.83 521.05 408.39 688.94 689.94 637.16 425.79 256.35 669.84 263.55 520.69 343.57 583.71 651.54 535.24 379.40 613.89 457.77 648.77 403.99 408.33 700.23 283.25 491.91 415.85
667.15 759.14 465.37 116.55 891.49 497.40 85.06 995.68 342.12 223.06 943.69 359.47 406.82 857.53 182.81 54.33 379.79 453.84 905.09 487.32 876.03 316.03 676.50 213.09 660.92 469.03 0.00 288.57 329.92 98.08 84.87 295.95 942.85 136.82 366.47 309.69 660.94 1055.83 413.32 198.30 360.45 203.74 813.43 212.98 705.62 777.06 200.09 442.18 444.69 788.06 942.71 733.36 928.56 1151.27 593.49 352.86 956.42 963.51 171.22 880.19 723.99 134.22 709.28 304.55 335.70 737.99 807.90 325.34 226.18 272.80 879.98 840.91 258.01 289.45 917.18 285.49 407.39 545.66 137.23 810.56 826.94 352.46 955.78 259.29 233.83 763.57 322.99 298.55 627.80 235.19 606.88
940.86 972.18 504.93 356.24 1139.59 591.06 292.83 1137.06 578.52 215.92 1085.07 412.53 495.87 1054.61 308.14 323.56 601.87 464.83 1057.25 463.45 1086.22 362.18 913.66 75.48 916.57 691.11 288.57 0.00 392.07 374.71 256.50 264.53 1064.31 233.23 461.14 62.97 937.57 1174.33 489.18 151.05 333.60 207.41 993.84 284.08 799.28 964.99 249.41 495.77 590.00 995.32 1107.66 897.44 1123.78 1305.93 639.64 294.81 1082.42 1088.92 209.79 937.14 897.17 154.35 945.68 447.07 474.23 917.05 933.90 343.99 292.05 190.75 955.11 897.86 323.15 434.76 1097.87 451.71 375.97 610.32 230.89 1057.31 1056.49 457.47 1132.80 305.44 96.65 994.37 342.75 118.73 883.45 208.53 749.34
997.07 765.59 151.09 354.53 1056.61 704.77 408.12 968.21 441.96 264.74 956.19 105.79 140.68 945.22 235.23 377.39 361.58 173.03 888.05 237.03 1050.12 29.89 739.95 341.70 747.29 430.92 329.92 392.07 0.00 340.69 327.25 171.08 1029.22 275.30 168.64 438.30 790.37 1097.68 121.79 440.68 228.33 477.44 819.88 495.35 717.39 753.73 411.86 724.93 264.80 899.23 972.73 775.21 995.67 973.64 334.92 390.85 1019.59 1033.07 253.13 904.26 787.44 339.49 685.95 559.55 179.13 755.60 904.08 93.87 213.42 484.70 1028.30 864.98 160.03 311.11 1052.10 245.38 149.55 270.72 444.04 992.19 910.16 173.62 1034.80 86.63 351.89 740.24 74.68 434.68 714.17 183.54 381.95
765.23 661.06 459.90 18.47 872.16 465.14 123.17 897.60 384.68 270.26 845.61 353.72 409.86 855.48 274.66 92.44 281.71 460.95 807.01 430.72 873.98 310.80 578.42 311.17 562.84 370.95 98.08 374.71 340.69 0.00 158.82 379.01 844.77 172.06 392.21 407.77 562.86 957.75 420.10 272.25 421.98 254.29 715.35 261.45 657.42 690.02 166.40 540.26 356.13 689.98 844.63 635.28 882.54 1053.19 521.06 392.60 905.82 961.46 245.17 806.52 625.91 232.30 622.24 229.81 361.44 639.91 757.30 394.54 257.43 347.93 781.90 767.24 310.82 279.86 915.13 214.13 343.24 457.10 235.31 808.51 728.86 344.68 921.67 286.37 319.99 667.88 310.86 340.00 529.72 309.14 529.38
752.02 819.88 446.72 177.29 976.36 582.27 164.16 1021.31 426.99 138.19 969.32 331.21 381.60 942.40 154.55 133.43 440.53 406.62 929.74 459.06 960.90 303.97 737.24 181.02 721.66 529.77 84.87 256.50 327.25 158.82 0.00 317.71 970.22 51.95 341.25 277.62 721.68 1035.61 388.10 113.43 332.19 169.79 850.70 168.10 652.48 780.69 115.22 453.86 461.90 814.04 997.12 713.14 994.21 1212.01 549.83 357.63 966.67 1048.38 86.35 941.10 762.43 102.15 781.06 366.88 372.02 693.53 818.15 285.78 213.89 231.66 917.49 901.82 229.75 332.12 1002.05 266.39 400.09 483.13 222.10 895.43 887.68 364.07 1017.05 247.23 187.67 786.07 284.34 259.06 688.54 150.32 635.15
963.10 936.67 291.36 393.96 1182.14 710.72 349.47 1121.12 496.42 240.25 1103.46 248.25 311.76 1116.30 163.16 318.74 508.85 328.02 1035.32 198.92 1168.23 182.80 866.05 327.26 872.82 583.83 295.95 264.53 171.08 379.01 317.71 0.00 1154.75 265.76 281.76 327.50 916.47 1190.06 292.87 371.56 69.07 427.92 962.20 469.15 701.80 879.83 406.00 715.39 428.98 1027.85 1098.83 882.41 1148.58 1126.55 460.26 344.05 1052.26 1153.59 292.56 1075.34 880.57 365.04 812.05 580.69 297.24 862.80 1017.16 87.96 197.82 415.52 1147.46 1036.06 192.70 352.66 1209.38 354.94 111.44 412.77 433.18 1106.51 1037.87 280.48 1150.87 126.06 348.43 863.92 189.76 312.56 839.70 170.30 514.56
1070.27 284.02 956.64 863.24 141.71 643.08 936.37 312.36 711.12 1088.26 260.37 940.00 890.75 161.69 1024.44 905.64 687.54 941.84 228.77 1079.09 77.34 999.33 320.27 1010.49 281.93 598.30 942.85 1064.31 1029.22 844.77 970.22 1154.75 0.00 994.37 904.56 1107.09 349.49 333.42 938.43 1034.12 1202.08 977.76 229.73 1017.05 452.95 333.69 1011.17 867.12 776.59 232.28 356.06 313.12 136.71 813.53 843.83 1229.82 193.42 261.45 1024.14 127.17 367.76 966.12 374.27 870.30 935.33 306.43 152.07 1116.06 1006.69 1082.96 267.05 166.45 1024.09 854.65 118.49 861.85 1094.13 791.31 979.67 142.81 274.66 952.09 97.58 1056.07 1031.66 398.97 1006.63 1130.45 315.05 1090.21 885.05
803.97 833.12 426.39 153.59 1018.18 578.80 181.94 969.71 460.35 137.91 917.72 279.26 329.65 990.60 102.60 185.38 453.77 361.46 879.12 407.11 1009.10 292.41 750.48 232.97 734.90 528.64 136.82 233.23 275.30 172.06 51.95 265.76 994.37 0.00 289.30 296.20 734.92 1087.56 336.15 165.38 280.24 221.74 844.04 220.05 600.53 832.64 167.17 449.63 480.00 762.09 1003.14 765.09 954.65 1216.98 527.61 393.79 984.67 1051.25 138.30 978.58 779.30 154.10 778.55 314.93 320.07 745.48 842.30 245.13 161.94 283.61 917.02 939.30 177.80 350.22 995.34 284.49 348.14 529.36 218.63 943.63 900.92 312.12 993.78 283.39 239.62 832.84 232.39 311.01 701.78 186.48 596.31
1033.62 745.62 166.89 373.74 957.56 619.86 451.53 896.51 370.00 289.08 912.76 107.68 40.35 921.40 257.05 420.80 344.44 87.37 870.91 280.66 901.76 188.94 584.29 429.52 648.24 331.87 366.47 461.14 168.64 392.21 341.25 281.76 904.56 289.30 0.00 510.60 634.71 971.97 46.85 454.68 350.83 488.09 761.34 509.35 618.34 598.07 433.68 738.93 197.88 804.55 817.07 649.50 933.84 927.68 238.31 459.92 941.36 958.13 322.20 803.93 631.78 402.46 530.29 585.08 30.77 638.48 792.84 262.51 235.24 509.77 943.81 764.65 181.85 226.24 942.91 218.10 254.18 257.97 503.70 924.10 756.11 47.53 945.76 155.70 445.20 584.58 219.40 503.75 615.12 252.61 307.01
976.84 951.82 548.33 399.84 1162.92 620.73 355.80 1158.18 640.44 237.04 1106.19 461.99 543.77 1115.47 329.26 351.41 605.26 514.29 1078.37 511.32 1149.19 408.41 926.61 96.60 853.60 694.50 309.69 62.97 438.30 407.77 277.62 327.50 1107.09 296.20 510.60 0.00 918.78 1187.28 538.64 214.02 354.79 269.59 1006.11 287.28 819.12 987.13 270.53 558.74 626.46 1035.23 1147.33 927.11 1143.73 1352.16 689.10 255.39 1103.54 1150.38 222.74 1000.11 926.84 175.47 965.21 484.23 495.35 946.72 955.02 393.45 341.51 253.72 1018.08 960.83 344.27 496.68 1160.84 430.95 438.94 631.44 260.56 1120.25 1022.69 478.59 1104.60 354.90 99.74 989.01 392.21 101.09 820.48 257.99 781.45
1053.35 129.57 742.27 581.33 440.74 369.93 686.03 392.04 471.58 833.12 341.76 723.25 675.06 413.49 807.69 655.30 470.79 719.82 289.79 862.34 426.83 782.58 88.36 874.03 67.56 381.55 660.94 937.57 790.37 562.86 721.68 916.47 349.49 734.92 634.71 918.78 0.00 394.89 668.58 835.11 984.84 796.61 159.48 802.06 236.20 132.17 729.26 899.54 596.46 241.43 281.77 72.42 383.68 598.84 634.58 955.46 381.99 516.54 792.23 304.08 63.82 795.16 104.42 757.20 665.48 83.00 233.47 880.04 789.94 901.81 441.13 264.80 776.24 615.34 416.21 645.10 888.89 567.88 730.10 366.52 166.00 682.24 422.81 790.41 882.85 105.02 789.88 902.86 98.30 872.00 740.51
1286.91 397.79 1077.86 976.22 344.25 706.02 1080.92 265.12 791.15 1028.66 248.95 1038.25 1007.33 440.25 1026.90 1050.19 776.45 1004.73 249.98 1204.43 402.89 1119.94 400.30 1108.71 425.56 718.91 1055.83 1174.33 1097.68 957.75 1035.61 1190.06 333.42 1087.56 971.97 1187.28 394.89 0.00 1005.84 1110.85 1204.54 1054.49 442.10 1063.73 578.68 390.02 1103.18 1062.91 927.93 367.01 219.44 322.47 362.27 866.60 828.88 1285.70 224.53 554.24 964.54 460.59 399.91 1050.90 441.68 1054.52 993.05 342.08 373.05 1151.77 1086.24 1159.69 571.33 423.08 1066.38 934.91 388.40 904.14 1226.15 826.96 987.98 458.36 344.08 1009.81 323.14 1127.67 1087.54 434.62 1095.54 1215.23 458.68 1111.10 967.00
1080.47 779.49 174.08 420.59 1004.41 644.39 484.00 930.38 385.77 335.93 937.50 134.78 55.20 936.25 303.90 467.65 391.29 51.24 908.89 284.51 948.61 151.68 618.16 463.49 695.09 378.72 413.32 489.18 121.79 420.10 388.10 292.87 938.43 336.15 46.85 538.64 668.58 1005.84 0.00 501.53 350.12 534.94 795.21 556.20 665.19 631.94 480.53 785.78 208.61 838.42 850.94 683.37 973.03 880.83 213.13 487.96 975.23 911.28 350.24 818.78 665.65 436.60 564.16 631.93 77.62 672.35 826.71 215.66 282.09 556.62 958.66 779.50 228.70 273.09 979.51 264.95 260.12 229.01 533.19 938.95 789.98 94.38 992.61 183.74 473.24 618.45 196.47 531.79 661.97 280.65 260.16
789.81 864.16 560.15 256.78 1089.79 483.04 191.41 1104.29 540.42 251.62 1052.30 444.64 495.03 961.86 267.98 209.40 553.96 520.05 1014.94 534.65 1056.03 417.40 836.64 119.93 835.09 631.83 198.30 151.05 440.68 272.25 113.43 371.56 1034.12 165.38 454.68 214.02 835.11 1110.85 501.53 0.00 378.12 56.36 842.79 133.03 691.26 856.97 144.25 567.29 575.33 924.74 956.61 789.42 1077.07 1324.17 663.26 317.07 1025.90 1041.46 194.95 906.95 789.15 158.30 881.74 371.54 485.45 806.96 926.99 399.21 302.59 161.56 804.06 867.67 343.18 445.55 1067.68 379.82 476.96 596.56 122.87 1008.83 940.81 477.50 1109.12 360.66 118.91 888.47 397.77 224.86 801.97 263.75 748.58
1027.60 988.09 248.92 403.51 1193.29 750.29 418.54 1190.19 542.92 269.86 1142.88 310.52 369.01 1149.81 177.64 387.81 556.13 371.76 1082.60 156.53 1201.98 251.87 933.77 258.19 920.15 645.37 360.45 333.60 228.33 421.98 332.19 69.07 1202.08 280.24 350.83 354.79 984.84 1204.54 350.12 378.12 0.00 434.48 1031.27 500.29 770.87 948.90 432.12 729.87 482.98 1010.83 1167.90 938.88 1201.47 1195.62 501.09 413.12 1112.40 1183.20 312.66 1132.59 949.64 337.06 881.12 595.17 330.99 919.27 1073.63 134.46 236.98 478.68 1166.94 1093.31 252.84 399.16 1196.88 388.73 171.72 434.39 482.33 1171.01 1101.99 341.31 1211.01 195.13 279.36 924.06 257.99 373.01 887.03 234.97 559.68
846.17 807.80 538.23 265.72 1053.04 426.68 135.05 1047.93 545.86 212.70 995.94 444.46 519.43 968.06 304.92 165.78 509.99 550.10 958.58 524.92 999.67 448.79 780.28 176.29 787.83 599.23 203.74 207.41 477.44 254.29 169.79 427.92 977.76 221.74 488.09 269.59 796.61 1054.49 534.94 56.36 434.48 0.00 862.09 76.67 634.90 800.61 87.89 581.40 563.92 914.54 900.25 733.06 1030.07 1267.81 677.64 373.43 1042.63 1063.05 251.31 850.59 732.79 182.95 834.28 352.97 471.01 752.67 894.11 428.77 350.17 105.20 860.42 811.31 319.93 456.66 1011.32 390.93 437.44 638.92 66.51 970.76 900.23 454.25 1052.76 392.05 175.27 832.11 402.76 168.50 772.80 295.14 737.17
1180.51 54.29 869.43 733.82 338.04 435.41 838.52 287.36 569.49 940.11 235.37 810.58 785.67 291.48 895.02 807.79 558.12 819.82 198.98 949.67 307.07 849.77 178.64 942.62 194.72 468.88 813.43 993.84 819.88 715.35 850.70 962.20 229.73 844.04 761.34 1006.11 159.48 442.10 795.21 842.79 1031.27 862.09 0.00 871.33 260.40 205.11 881.75 965.02 711.48 81.95 222.66 137.56 274.51 596.50 708.75 1034.02 232.72 397.46 882.51 310.87 193.64 947.65 231.05 826.70 792.11 157.17 84.20 907.92 848.20 967.29 344.79 284.76 832.88 643.22 315.20 708.95 969.43 642.05 795.58 244.51 98.02 808.87 283.10 906.51 961.70 249.71 877.21 942.06 185.63 931.72 655.32
863.82 817.04 614.82 268.95 1070.80 435.92 138.28 1106.51 555.10 289.37 1054.52 487.50 549.70 1044.73 322.65 169.01 489.27 574.72 967.82 568.98 1076.34 472.07 789.52 252.96 797.07 578.51 212.98 284.08 495.35 261.45 168.10 469.15 1017.05 220.05 509.35 287.28 802.06 1063.73 556.20 133.03 500.29 76.67 871.33 0.00 644.14 809.85 164.56 621.96 573.16 900.29 976.92 742.30 1043.24 1222.28 717.93 450.10 1051.87 1139.72 254.45 927.26 742.03 234.81 843.52 429.64 540.12 761.91 903.35 453.88 368.37 161.66 937.09 887.98 396.60 424.79 1087.99 434.49 481.50 651.23 75.75 1023.54 909.47 530.92 1059.96 415.33 251.94 841.35 452.44 234.44 782.04 318.42 742.22
1003.18 269.24 753.89 661.52 480.34 208.22 687.35 547.76 415.12 728.53 495.77 659.58 658.69 504.87 647.14 718.08 375.71 705.71 389.90 894.64 530.29 687.50 185.73 766.72 171.02 286.47 705.62 799.28 717.39 657.42 652.48 701.80 452.95 600.53 618.34 819.12 236.20 578.68 665.19 691.26 770.87 634.90 260.40 644.14 0.00 304.55 683.59 737.83 529.07 342.35 470.85 256.21 534.91 654.75 605.74 878.63 493.12 636.96 738.83 387.40 178.77 727.45 239.73 645.42 649.11 247.22 344.60 789.67 587.80 740.10 527.28 417.64 641.19 542.82 524.49 550.02 807.16 539.04 568.39 504.91 346.21 665.87 543.50 744.24 745.55 278.09 694.80 718.03 137.90 671.32 702.32
1119.32 179.46 764.96 692.74 475.40 451.10 813.19 298.44 434.94 845.39 314.69 705.75 638.42 463.38 805.27 782.46 530.77 683.18 293.07 878.73 411.03 783.62 121.78 958.24 133.53 441.53 777.06 964.99 753.73 690.02 780.69 879.83 333.69 832.64 598.07 987.13 132.17 390.02 631.94 856.97 948.90 800.61 205.11 809.85 304.55 0.00 849.30 970.62 612.10 271.78 219.00 67.55 387.84 606.12 638.74 1057.99 377.12 569.36 825.65 366.39 144.99 882.84 67.78 799.60 628.84 87.16 228.60 843.40 791.55 905.81 506.27 396.97 738.16 578.70 452.18 644.43 852.25 572.04 734.10 416.41 293.60 645.60 426.97 753.77 948.65 66.94 817.47 969.11 166.65 850.68 744.67
867.24 827.46 491.28 184.87 1038.56 475.37 160.60 1064.00 512.53 165.75 1012.01 397.51 451.33 1021.88 257.97 188.45 448.11 482.00 973.41 437.03 1040.38 387.69 744.82 173.93 729.24 537.35 200.09 249.41 411.86 166.40 115.22 406.00 1011.17 167.17 433.68 270.53 729.26 1103.18 480.53 144.25 432.12 87.89 881.75 164.56 683.59 849.30 0.00 493.51 498.55 856.38 988.14 781.75 1048.94 1219.59 617.73 324.27 1065.86 1079.09 181.42 934.01 781.48 95.06 788.64 396.21 402.91 801.36 917.34 381.82 262.28 193.09 948.30 894.73 251.83 368.77 1081.53 303.04 349.55 551.03 115.20 974.91 895.26 386.15 1088.07 345.10 194.67 834.28 355.81 173.60 696.12 248.19 671.80
742.69 910.73 876.02 544.63 792.78 529.61 499.26 865.95 784.30 587.54 813.96 728.89 779.28 885.86 552.23 468.53 778.39 811.09 933.76 856.74 789.78 730.96 883.21 571.25 837.09 689.15 442.18 495.77 724.93 540.26 453.86 715.39 867.12 449.63 738.93 558.74 899.54 1062.91 785.78 567.29 729.87 581.40 965.02 621.96 737.83 970.62 493.51 0.00 802.95 893.40 909.65 913.16 848.96 1370.74 954.28 790.58 880.91 978.92 540.21 841.38 835.72 556.01 937.21 333.29 769.70 904.62 965.13 694.76 611.57 685.52 767.31 802.10 627.43 673.17 748.63 607.44 797.77 895.86 575.52 855.25 1003.16 761.75 869.53 701.09 592.42 935.04 682.02 614.50 870.21 604.18 976.20
1111.84 657.19 234.06 337.66 831.45 513.26 468.33 842.05 177.16 425.07 790.06 290.00 238.23 888.27 393.04 437.60 263.33 259.85 751.46 405.02 828.45 283.03 568.01 565.51 558.97 242.60 444.69 590.00 264.80 356.13 461.90 428.98 776.59 480.00 197.88 626.46 596.46 927.93 208.61 575.33 482.98 563.92 711.48 573.16 529.07 612.10 498.55 802.95 0.00 634.43 811.82 605.46 826.99 785.80 164.93 643.99 851.12 983.26 489.19 770.80 532.64 535.23 544.32 549.00 228.65 585.85 702.60 358.67 371.23 669.12 910.68 731.52 317.84 155.24 787.30 195.51 317.54 100.97 497.41 847.54 700.08 232.50 856.49 339.77 586.68 598.61 339.48 662.84 525.85 436.68 173.25
1170.05 136.24 868.49 708.45 256.09 487.86 813.15 207.62 641.42 900.00 155.63 892.53 844.90 260.08 864.69 782.42 608.83 886.49 117.03 1031.62 274.40 917.46 260.59 938.63 276.67 550.83 788.06 995.32 899.23 689.98 814.04 1027.85 232.28 762.09 804.55 1035.23 241.43 367.01 838.42 924.74 1010.83 914.54 81.95 900.29 342.35 271.78 856.38 893.40 634.43 0.00 244.68 204.23 192.56 581.25 775.42 1082.58 222.58 366.06 900.39 228.92 275.59 916.19 274.26 908.65 835.32 223.84 80.21 989.87 924.03 1019.74 368.80 268.20 894.23 725.17 233.25 757.91 951.97 708.72 848.03 213.11 179.97 852.08 231.69 960.25 959.80 314.86 927.92 1024.01 267.58 948.57 737.27
1227.89 269.21 955.05 849.55 327.22 598.19 929.56 147.68 634.66 1064.39 95.69 910.97 857.42 387.64 1004.99 937.07 690.30 902.18 174.87 1097.73 341.00 1002.62 339.57 1076.54 349.33 659.88 942.71 1107.66 972.73 844.63 997.12 1098.83 356.06 1003.14 817.07 1147.33 281.77 219.44 850.94 956.61 1167.90 900.25 222.66 976.92 470.85 219.00 988.14 909.65 811.82 244.68 0.00 283.98 233.74 666.83 855.17 1237.23 162.64 482.39 1043.44 444.08 292.08 1076.93 286.78 1016.03 847.84 303.59 246.86 1043.12 1009.45 1005.45 494.38 410.54 957.16 778.42 334.07 844.15 1071.25 788.47 950.53 406.47 124.64 833.92 261.25 972.77 1075.52 285.94 1009.39 1068.75 376.63 1067.02 877.98
1088.88 118.48 755.39 653.75 413.77 383.55 758.45 364.21 468.68 845.82 312.22 715.78 684.86 402.40 825.61 727.72 485.68 682.26 225.52 881.96 390.46 797.47 77.83 890.69 103.09 396.44 733.36 897.44 775.21 635.28 713.14 882.41 313.12 765.09 649.50 927.11 72.42 322.47 683.37 789.42 938.88 733.06 137.56 742.30 256.21 67.55 781.75 913.16 605.46 204.23 283.98 0.00 320.29 544.13 571.19 1027.88 309.57 508.38 781.70 354.77 77.44 815.29 119.21 732.05 680.27 19.61 161.05 829.30 766.27 838.26 476.66 337.22 783.37 612.44 405.12 659.99 903.68 504.49 666.55 355.43 235.58 697.03 359.42 805.20 890.64 112.15 804.77 901.56 136.21 849.79 677.12
1093.42 328.80 1036.46 901.01 93.48 675.69 904.96 190.04 730.62 1092.56 138.05 1005.11 950.22 231.32 1023.83 874.23 691.21 963.33 257.85 1118.39 118.88 965.78 362.17 1057.69 418.64 601.97 928.56 1123.78 995.67 882.54 994.21 1148.58 136.71 954.65 933.84 1143.73 383.68 362.27 973.03 1077.07 1201.47 1030.07 274.51 1043.24 534.91 387.84 1048.94 848.96 826.99 192.56 233.74 320.29 0.00 773.81 852.26 1275.14 137.74 270.23 1065.18 241.30 369.58 978.82 408.87 786.81 964.61 300.68 238.03 1089.54 1010.36 1124.03 273.01 225.92 997.30 858.32 100.33 865.52 1085.44 785.56 986.84 184.35 341.79 981.37 39.13 1022.52 1078.43 393.22 1010.30 1143.15 435.92 1072.80 929.83
1609.97 542.21 1019.86 1071.66 837.34 841.13 1166.52 769.28 881.38 1149.16 717.29 984.66 936.03 826.13 1117.13 1145.63 984.35 932.07 698.28 1115.04 844.63 943.75 582.51 1255.56 624.18 940.55 1151.27 1305.93 973.64 1053.19 1212.01 1126.55 813.53 1216.98 927.68 1352.16 598.84 866.60 880.83 1324.17 1195.62 1267.81 596.50 1222.28 654.75 606.12 1219.59 1370.74 785.80 581.25 666.83 544.13 773.81 0.00 819.53 1304.71 784.24 932.11 1166.99 810.17 535.02 1253.35 601.51 1276.18 924.37 563.74 661.46 1067.51 1095.32 1373.01 941.29 788.08 1041.93 941.04 814.50 981.31 1063.41 854.04 1201.30 779.16 686.78 907.61 812.94 1000.49 1276.73 634.34 1003.77 1348.54 657.30 1097.40 681.41
1260.64 683.93 317.60 502.59 945.74 592.08 633.26 827.18 255.98 464.94 775.19 316.80 247.18 967.85 493.46 602.53 358.95 244.47 796.71 451.30 921.17 364.81 607.21 601.54 674.28 384.63 593.49 639.64 334.92 521.06 549.83 460.26 843.83 527.61 238.31 689.10 634.58 828.88 213.13 663.26 501.09 677.64 708.75 717.93 605.74 638.74 617.73 954.28 164.93 775.42 855.17 571.19 852.26 819.53 0.00 638.42 842.14 1062.73 500.70 886.74 620.48 522.67 600.80 713.93 269.08 551.58 705.94 391.51 473.55 667.88 1025.67 881.61 420.16 320.17 952.23 346.84 473.25 66.70 662.34 920.88 787.92 285.84 891.39 334.20 622.28 622.90 397.90 682.25 667.88 431.11 138.12
1020.01 1053.66 503.71 411.07 1244.35 735.49 437.92 1256.58 639.67 289.75 1204.59 411.31 494.65 1210.39 346.17 407.19 609.98 463.61 1136.45 530.94 1228.89 360.96 971.02 219.33 955.44 699.22 352.86 294.81 390.85 392.60 357.63 344.05 1229.82 393.79 459.92 255.39 955.46 1285.70 487.96 317.07 413.12 373.43 1034.02 450.10 878.63 1057.99 324.27 790.58 643.99 1082.58 1237.23 1027.88 1275.14 1304.71 638.42 0.00 1203.78 1203.09 321.16 1131.42 1018.51 297.77 990.21 611.40 475.40 1032.51 1077.75 342.77 290.83 397.48 1121.13 1092.14 344.22 495.91 1270.04 506.46 455.49 641.38 439.47 1163.42 1121.46 458.64 1276.65 304.22 198.16 1015.44 341.53 356.48 922.32 207.31 748.12
1195.34 287.01 1026.34 924.29 176.10 668.13 932.82 118.94 755.22 966.79 66.95 973.34 930.14 225.00 934.76 902.09 661.56 953.21 142.32 1123.51 178.36 995.42 364.37 1006.94 399.50 659.35 956.42 1082.42 1019.59 905.82 966.67 1052.26 193.42 984.67 941.36 1103.54 381.99 224.53 975.23 1025.90 1112.40 1042.63 232.72 1051.87 493.12 377.12 1065.86 880.91 851.12 222.58 162.64 309.57 137.74 784.24 842.14 1203.78 0.00 329.71 1030.91 300.78 371.78 1068.82 411.07 924.55 967.04 302.88 148.52 1032.72 912.95 1147.83 382.80 340.06 859.56 768.02 219.51 833.75 1075.95 775.44 976.12 243.83 266.11 950.28 98.61 972.98 1028.11 395.42 980.65 1149.96 376.10 996.47 888.04
1103.27 389.90 1085.36 942.99 219.82 771.02 1038.94 448.65 866.19 913.34 396.66 1046.06 966.48 132.09 1005.56 1008.21 763.22 962.52 307.52 1195.79 189.14 1062.96 573.65 1053.78 527.51 803.21 963.51 1088.92 1033.07 961.46 1048.38 1153.59 261.45 1051.25 958.13 1150.38 516.54 554.24 911.28 1041.46 1183.20 1063.05 397.46 1139.72 636.96 569.36 1079.09 978.92 983.26 366.06 482.39 508.38 270.23 932.11 1062.73 1203.09 329.71 0.00 977.46 249.56 566.31 1051.41 605.23 955.59 988.90 512.16 357.80 1126.94 1054.07 1168.25 237.40 251.74 1020.57 930.33 230.29 937.53 1171.40 997.04 1100.74 152.95 398.87 1005.66 231.10 1092.69 1074.95 591.50 1082.31 1194.99 519.96 995.78 1052.78
838.37 897.71 372.58 240.43 1062.71 605.59 234.80 1107.66 500.96 64.12 1055.67 288.69 362.55 1026.36 135.02 219.78 501.28 401.48 1007.22 430.04 1047.25 223.24 703.87 144.17 783.31 590.52 171.22 209.79 253.13 245.17 86.35 292.56 1024.14 138.30 322.20 222.74 792.23 964.54 350.24 194.95 312.66 251.31 882.51 254.45 738.83 825.65 181.42 540.21 489.19 900.39 1043.44 781.70 1065.18 1166.99 500.70 321.16 1030.91 977.46 0.00 925.31 751.36 86.36 757.87 451.77 322.43 765.36 904.50 274.67 194.36 231.57 999.01 886.03 171.35 361.01 1086.04 333.59 342.90 495.94 245.42 981.78 918.80 305.67 1103.40 166.50 123.00 798.07 230.20 250.69 774.89 146.56 608.53
1074.07 280.36 937.51 824.99 202.45 595.62 929.69 310.70 740.56 989.43 351.63 905.81 763.58 117.47 1004.00 898.96 703.59 814.67 269.21 1003.89 149.08 916.83 377.42 917.82 297.98 614.35 880.19 937.14 904.26 806.52 941.10 1075.34 127.17 978.58 803.93 1000.11 304.08 460.59 818.78 906.95 1132.59 850.59 310.87 927.26 387.40 366.39 934.01 841.38 770.80 228.92 444.08 354.77 241.30 810.17 886.74 1131.42 300.78 249.56 925.31 0.00 367.90 838.95 403.42 743.13 834.70 335.16 254.36 998.13 975.20 955.79 139.88 39.28 928.80 869.29 160.73 877.90 1036.49 820.04 917.10 157.52 325.18 828.76 202.17 959.63 938.56 409.10 976.85 1003.28 331.10 1020.48 944.05
1074.95 193.39 763.87 644.38 448.98 306.11 747.47 418.42 438.34 815.48 374.43 739.46 654.52 477.31 808.67 716.74 469.16 705.61 291.23 886.32 428.71 777.61 47.49 864.61 89.16 405.53 723.99 897.17 787.44 625.91 762.43 880.57 367.76 779.30 631.78 926.84 63.82 399.91 665.65 789.15 949.64 732.79 193.64 742.03 178.77 144.99 781.48 835.72 532.64 275.59 292.08 77.44 369.58 535.02 620.48 1018.51 371.78 566.31 751.36 367.90 0.00 825.34 101.49 743.31 662.55 68.90 223.26 846.80 766.57 837.99 410.71 328.62 767.95 582.10 466.22 634.34 850.18 553.78 666.28 430.34 167.44 679.31 408.71 787.48 843.44 99.32 788.25 896.80 122.28 850.09 705.89
801.37 893.36 458.94 250.77 1025.71 519.23 219.28 1123.46 476.34 150.48 1071.47 354.13 420.11 940.00 208.13 188.55 486.37 450.78 994.28 383.57 988.03 309.60 790.23 78.87 795.14 575.61 134.22 154.35 339.49 232.30 102.15 365.04 966.12 154.10 402.46 175.47 795.16 1050.90 436.60 158.30 337.06 182.95 947.65 234.81 727.45 882.84 95.06 556.01 535.23 916.19 1076.93 815.29 978.82 1253.35 522.67 297.77 1068.82 1051.41 86.36 838.95 825.34 0.00 843.50 438.77 371.69 795.68 920.30 350.66 167.22 145.21 962.36 799.67 220.61 379.99 999.68 368.54 318.66 455.97 159.06 944.78 961.16 354.93 1017.95 252.86 99.61 884.43 316.56 164.33 762.02 232.92 628.60
1119.23 215.33 697.18 624.96 487.17 407.60 745.41 366.22 367.16 804.00 382.47 637.97 570.64 499.25 737.49 714.68 462.99 615.40 344.73 810.95 451.61 715.84 54.00 902.04 133.44 373.75 709.28 945.68 685.95 622.24 781.06 812.05 374.27 778.55 530.29 965.21 104.42 441.68 564.16 881.74 881.12 834.28 231.05 843.52 239.73 67.78 788.64 937.21 544.32 274.26 286.78 119.21 408.87 601.51 600.80 990.21 411.07 605.23 757.87 403.42 101.49 843.50 0.00 803.63 561.06 108.19 262.55 775.62 750.16 939.48 498.39 364.14 696.77 510.92 492.76 576.65 784.47 564.71 767.77 452.28 225.82 577.82 448.00 685.99 880.87 54.29 749.69 950.14 144.73 782.90 717.57
666.77 772.41 658.68 211.34 880.29 437.20 305.00 976.85 597.05 443.35 924.86 569.00 602.73 860.60 417.53 274.27 494.08 639.99 957.57 660.53 892.21 529.66 771.46 434.41 692.02 583.32 304.55 447.07 559.55 229.81 366.88 580.69 870.30 314.93 585.08 484.23 757.20 1054.52 631.93 371.54 595.17 352.97 826.70 429.64 645.42 799.60 396.21 333.29 549.00 908.65 1016.03 732.05 786.81 1276.18 713.93 611.40 924.55 955.59 451.77 743.13 743.31 438.77 803.63 0.00 554.31 712.44 866.80 553.04 463.21 431.18 883.01 703.85 409.82 495.14 887.14 429.41 573.05 649.97 375.39 863.30 910.75 537.55 825.94 472.92 413.24 804.98 487.75 383.14 658.90 501.41 722.25
1002.85 776.39 136.12 342.97 935.36 589.09 420.76 927.28 342.78 258.31 908.28 76.91 71.12 952.17 226.28 390.03 313.67 118.14 840.14 311.43 870.99 158.17 615.06 398.75 679.01 362.64 335.70 474.23 179.13 361.44 372.02 297.24 935.33 320.07 30.77 495.35 665.48 993.05 77.62 485.45 330.99 471.01 792.11 540.12 649.11 628.84 402.91 769.70 228.65 835.32 847.84 680.27 964.61 924.37 269.08 475.40 967.04 988.90 322.43 834.70 662.55 371.69 561.06 554.31 0.00 669.25 823.61 252.97 204.47 516.90 974.58 795.42 151.08 199.02 912.14 187.33 255.39 241.41 472.93 936.46 771.00 16.76 950.74 171.18 419.92 615.35 201.60 519.23 645.89 268.09 337.78
1108.49 132.35 735.78 658.38 394.16 375.01 763.08 357.52 452.34 829.48 305.53 734.98 668.52 416.27 806.00 732.35 466.07 662.65 245.13 862.35 383.77 777.86 61.49 874.55 122.70 376.83 737.99 917.05 755.60 639.91 693.53 862.80 306.43 745.48 638.48 946.72 83.00 342.08 672.35 806.96 919.27 752.67 157.17 761.91 247.22 87.16 801.36 904.62 585.85 223.84 303.59 19.61 300.68 563.74 551.58 1032.51 302.88 512.16 765.36 335.16 68.90 795.68 108.19 712.44 669.25 0.00 154.36 809.69 746.66 857.87 475.04 330.03 763.76 596.10 401.01 640.38 892.66 484.88 686.16 369.30 236.34 686.01 339.81 794.18 871.03 92.54 785.16 921.17 155.82 830.18 657.51
1176.37 138.49 890.14 775.77 276.39 519.61 784.30 203.16 606.70 956.34 151.17 852.53 781.62 313.76 936.97 753.57 600.07 817.01 123.35 991.62 229.41 911.86 215.85 858.42 260.70 510.83 807.90 933.90 904.08 757.30 818.15 1017.16 152.07 842.30 792.84 955.02 233.47 373.05 826.71 926.99 1073.63 894.11 84.20 903.35 344.60 228.60 917.34 965.13 702.60 80.21 246.86 161.05 238.03 661.46 705.94 1077.75 148.52 357.80 904.50 254.36 223.26 920.30 262.55 866.80 823.61 154.36 0.00 964.05 901.02 999.31 394.24 293.64 917.08 727.42 270.56 774.38 1020.14 639.24 827.60 293.32 122.59 840.37 198.90 948.54 879.59 246.90 919.16 1001.44 227.58 968.47 739.52
992.49 853.63 203.40 376.07 1143.45 680.44 381.10 1062.08 408.46 216.07 1026.42 176.06 234.55 1039.09 142.53 379.67 431.81 240.06 958.28 202.26 1123.96 123.76 799.31 299.55 834.13 521.05 325.34 343.99 93.87 394.54 285.78 87.96 1116.06 245.13 262.51 393.45 880.04 1151.77 215.66 399.21 134.46 428.77 907.92 453.88 789.67 843.40 381.82 694.76 358.67 989.87 1043.12 829.30 1089.54 1067.51 391.51 342.77 1032.72 1126.94 274.67 998.13 846.80 350.66 775.62 553.04 252.97 809.69 964.05 0.00 201.87 472.93 1098.53 958.85 185.29 264.70 1140.27 315.65 114.78 324.81 457.83 1086.06 998.20 252.59 1128.67 108.17 307.70 829.91 123.53 400.52 801.01 135.46 475.82
893.33 822.98 308.84 275.90 1034.08 513.31 230.09 965.75 383.00 140.73 913.76 186.91 252.89 1031.51 59.34 199.36 319.15 283.56 845.62 357.26 1075.46 189.25 740.82 246.09 724.76 408.39 226.18 292.05 213.42 257.43 213.89 197.82 1006.69 161.94 235.24 341.51 789.94 1086.24 282.09 302.59 236.98 350.17 848.20 368.37 587.80 791.55 262.28 611.57 371.23 924.03 1009.45 766.27 1010.36 1095.32 473.55 290.83 912.95 1054.07 194.36 975.20 766.57 167.22 750.16 463.21 204.47 746.66 901.02 201.87 0.00 312.43 985.87 942.91 53.39 243.05 1078.23 215.63 269.78 412.36 326.28 1036.74 934.01 187.71 1011.56 177.30 266.83 724.61 165.86 331.55 691.64 83.52 509.65
939.95 913.00 546.74 335.04 1158.24 531.88 224.76 1153.13 614.92 295.69 1101.14 499.34 550.12 1073.26 330.40 255.49 599.70 595.99 1063.78 528.78 1104.87 454.81 885.48 220.49 893.03 688.94 272.80 190.75 484.70 347.93 231.66 415.52 1082.96 283.61 509.77 253.72 901.81 1159.69 556.62 161.56 478.68 105.20 967.29 161.66 740.10 905.81 193.09 685.52 669.12 1019.74 1005.45 838.26 1124.03 1373.01 667.88 397.48 1147.83 1168.25 231.57 955.79 837.99 145.21 939.48 431.18 516.90 857.87 999.31 472.93 312.43 0.00 965.62 916.51 365.82 525.20 1116.52 474.97 463.87 601.18 171.71 1075.96 1005.43 500.14 1157.96 398.07 199.32 937.31 461.77 154.25 877.65 378.13 773.81
934.19 399.08 1048.28 763.43 311.19 716.82 894.10 443.17 769.69 1052.16 411.06 980.62 903.46 157.80 1019.62 863.37 666.72 954.55 321.35 1143.77 270.24 1045.83 453.01 923.99 373.57 689.94 879.98 955.11 1028.30 781.90 917.49 1147.46 267.05 917.02 943.81 1018.08 441.13 571.33 958.66 804.06 1166.94 860.42 344.79 937.09 527.28 506.27 948.30 767.31 910.68 368.80 494.38 476.66 273.01 941.29 1025.67 1121.13 382.80 237.40 999.01 139.88 410.71 962.36 498.39 883.01 974.58 475.04 394.24 1098.53 985.87 965.62 0.00 179.16 1003.27 833.83 295.03 841.03 1125.14 959.92 914.42 204.77 442.81 963.63 312.14 1031.33 922.97 510.03 985.81 1028.92 406.69 1067.81 902.47
1113.35 245.87 898.23 785.71 241.73 625.86 890.41 349.98 731.30 950.15 363.97 866.53 724.30 156.75 964.72 859.68 726.40 775.39 308.49 964.61 188.36 877.55 353.16 878.54 320.79 637.16 840.91 897.86 864.98 767.24 901.82 1036.06 166.45 939.30 764.65 960.83 264.80 423.08 779.50 867.67 1093.31 811.31 284.76 887.98 417.64 396.97 894.73 802.10 731.52 268.20 410.54 337.22 225.92 788.08 881.61 1092.14 340.06 251.74 886.03 39.28 328.62 799.67 364.14 703.85 795.42 330.03 293.64 958.85 942.91 916.51 179.16 0.00 889.52 834.80 200.01 900.53 997.21 814.91 877.82 159.45 285.90 789.48 241.45 920.35 899.28 369.82 937.57 964.00 353.91 1011.64 904.77
925.16 778.59 255.45 329.29 1035.66 566.70 283.48 978.50 329.61 107.23 926.51 211.37 199.50 1039.11 75.20 252.75 336.55 230.17 863.02 303.87 1022.07 135.86 720.46 247.67 742.16 425.79 258.01 323.15 160.03 310.82 229.75 192.70 1024.09 177.80 181.85 344.27 776.24 1066.38 228.70 343.18 252.84 319.93 832.88 396.60 641.19 738.16 251.83 627.43 317.84 894.23 957.16 783.37 997.30 1041.93 420.16 344.22 859.56 1020.57 171.35 928.80 767.95 220.61 696.77 409.82 151.08 763.76 917.08 185.29 53.39 365.82 1003.27 889.52 0.00 189.66 1063.22 162.24 216.39 358.97 339.69 1015.54 922.08 134.32 958.17 123.91 268.84 671.22 145.47 384.94 709.04 136.91 488.86
956.60 588.93 269.46 298.33 882.04 473.58 371.49 813.71 143.76 296.89 761.72 205.32 238.77 872.85 257.95 343.78 167.11 289.86 693.58 466.96 891.35 290.41 534.61 437.33 572.72 256.35 289.45 434.76 311.11 279.86 332.12 352.66 854.65 350.22 226.24 496.68 615.34 934.91 273.09 445.55 399.16 456.66 643.22 424.79 542.82 578.70 368.77 673.17 155.24 725.17 778.42 612.44 858.32 941.04 320.17 495.91 768.02 930.33 361.01 869.29 582.10 379.99 510.92 495.14 199.02 596.10 727.42 264.70 243.05 525.20 833.83 834.80 189.66 0.00 875.57 65.73 379.48 256.21 426.68 825.88 733.50 182.26 866.63 290.51 449.42 565.21 294.86 542.37 539.60 288.60 317.43
993.09 286.64 1021.36 896.66 44.15 667.76 1002.24 290.37 798.49 1133.25 238.38 989.05 924.31 137.23 1093.73 971.51 759.08 971.21 347.26 1150.63 41.15 1066.11 438.76 1078.55 400.42 669.84 917.18 1097.87 1052.10 915.13 1002.05 1209.38 118.49 995.34 942.91 1160.84 416.21 388.40 979.51 1067.68 1196.88 1011.32 315.20 1087.99 524.49 452.18 1081.53 748.63 787.30 233.25 334.07 405.12 100.33 814.50 952.23 1270.04 219.51 230.29 1086.04 160.73 466.22 999.68 492.76 887.14 912.14 401.01 270.56 1140.27 1078.23 1116.52 295.03 200.01 1063.22 875.57 0.00 933.39 1104.84 885.89 1027.93 106.62 298.78 928.90 120.90 1083.32 1099.29 488.24 1078.17 1164.01 386.59 1152.37 960.55
952.64 654.66 323.45 232.60 889.24 516.23 306.95 820.91 209.49 269.47 768.92 139.59 220.66 876.87 237.44 306.57 174.31 271.75 700.78 431.82 939.19 224.68 586.85 409.91 579.92 263.55 285.49 451.71 245.38 214.13 266.39 354.94 861.85 284.49 218.10 430.95 645.10 904.14 264.95 379.82 388.73 390.93 708.95 434.49 550.02 644.43 303.04 607.44 195.51 757.91 844.15 659.99 865.52 981.31 346.84 506.46 833.75 937.53 333.59 877.90 634.34 368.54 576.65 429.41 187.33 640.38 774.38 315.65 215.63 474.97 841.03 900.53 162.24 65.73 933.39 0.00 344.34 288.42 418.24 891.61 798.79 204.09 877.44 261.78 431.08 630.94 264.28 476.64 546.80 299.15 368.76
1074.54 915.14 182.72 361.71 1146.38 749.23 460.91 1057.98 494.70 323.62 1081.29 255.34 272.91 1094.77 245.54 430.18 486.68 234.11 1013.15 87.48 1126.38 119.66 838.47 397.53 837.06 520.69 407.39 375.97 149.55 343.24 400.09 111.44 1094.13 348.14 254.18 438.94 888.89 1226.15 260.12 476.96 171.72 437.44 969.43 481.50 807.16 852.25 349.55 797.77 317.54 951.97 1071.25 903.68 1085.44 1063.41 473.25 455.49 1075.95 1171.40 342.90 1036.49 850.18 318.66 784.47 573.05 255.39 892.66 1020.14 114.78 269.78 463.87 1125.14 997.21 216.39 379.48 1104.84 344.34 0.00 411.88 464.75 1141.74 1010.29 252.51 1124.57 176.40 395.24 838.76 167.59 424.00 803.94 250.24 490.79
1212.81 617.23 250.90 438.63 879.04 594.52 569.30 760.48 258.42 431.82 708.49 250.10 217.62 901.15 426.76 538.57 361.39 177.77 730.01 384.60 868.65 300.61 540.51 534.84 607.58 343.57 545.66 610.32 270.72 457.10 483.13 412.77 791.31 529.36 257.97 631.44 567.88 826.96 229.01 596.56 434.39 638.92 642.05 651.23 539.04 572.04 551.03 895.86 100.97 708.72 788.47 504.49 785.56 854.04 66.70 641.38 775.44 997.04 495.94 820.04 553.78 455.97 564.71 649.97 241.41 484.88 639.24 324.81 412.36 601.18 959.92 814.91 358.97 256.21 885.89 288.42 411.88 0.00 598.38 854.18 721.22 224.65 824.69 357.35 555.58 577.42 345.40 620.30 626.82 434.07 172.63
804.38 741.29 595.13 250.20 995.05 360.17 119.53 1030.76 479.35 279.21 978.77 468.75 539.19 994.76 320.04 150.26 494.47 569.86 892.07 542.63 1013.26 453.26 713.77 224.14 721.32 583.71 137.23 230.89 444.04 235.31 222.10 433.18 979.67 218.63 503.70 260.56 730.10 987.98 533.19 122.87 482.33 66.51 795.58 75.75 568.39 734.10 115.20 575.52 497.41 848.03 950.53 666.55 986.84 1201.30 662.34 439.47 976.12 1100.74 245.42 917.10 666.28 159.06 767.77 375.39 472.93 686.16 827.60 457.83 326.28 171.71 914.42 877.82 339.69 426.68 1027.93 418.24 464.75 598.38 0.00 947.79 833.72 474.01 1025.97 396.52 241.78 765.60 451.02 235.01 706.29 322.37 670.66
1018.15 236.95 1052.09 790.04 114.11 618.07 895.62 362.77 780.19 1033.62 310.78 993.24 883.75 46.97 993.37 864.89 740.78 934.84 251.80 1124.06 65.47 1022.08 423.15 1023.65 377.38 651.54 810.56 1057.31 992.19 808.51 895.43 1106.51 142.81 943.63 924.10 1120.25 366.52 458.36 938.95 1008.83 1171.01 970.76 244.51 1023.54 504.91 416.41 974.91 855.25 847.54 213.11 406.47 355.43 184.35 779.16 920.88 1163.42 243.83 152.95 981.78 157.52 430.34 944.78 452.28 863.30 936.46 369.30 293.32 1086.06 1036.74 1075.96 204.77 159.45 1015.54 825.88 106.62 891.61 1141.74 854.18 947.79 0.00 342.53 948.93 145.22 1057.94 1044.39 438.55 1059.87 1109.11 368.29 1045.75 899.83
1176.81 144.57 907.12 747.33 342.93 473.55 852.03 250.98 592.98 982.92 220.33 847.91 796.46 389.50 961.38 821.30 624.48 841.22 123.79 1016.03 339.93 929.17 214.93 981.01 233.56 535.24 826.94 1056.49 910.16 728.86 887.68 1037.87 274.66 900.92 756.11 1022.69 166.00 344.08 789.98 940.81 1101.99 900.23 98.02 909.47 346.21 293.60 895.26 1003.16 700.08 179.97 124.64 235.58 341.79 686.78 787.92 1121.46 266.11 398.87 918.80 325.18 167.44 961.16 225.82 910.75 771.00 236.34 122.59 998.20 934.01 1005.43 442.81 285.90 922.08 733.50 298.78 798.79 1010.29 721.22 833.72 342.53 0.00 787.76 302.66 911.81 1002.18 266.76 943.57 1032.34 251.99 1008.72 753.34
1019.61 771.19 121.13 326.21 952.12 582.57 417.80 943.51 326.02 241.55 891.52 77.05 65.18 946.23 209.52 387.07 296.91 116.27 823.38 305.49 887.75 171.94 631.82 381.99 695.77 379.40 352.46 457.47 173.62 344.68 364.07 280.48 952.09 312.12 47.53 478.59 682.24 1009.81 94.38 477.50 341.31 454.25 808.87 530.92 665.87 645.60 386.15 761.75 232.50 852.08 833.92 697.03 981.37 907.61 285.84 458.64 950.28 1005.66 305.67 828.76 679.31 354.93 577.82 537.55 16.76 686.01 840.37 252.59 187.71 500.14 963.63 789.48 134.32 182.26 928.90 204.09 252.51 224.65 474.01 948.93 787.76 0.00 967.50 154.42 403.16 632.11 201.74 502.47 662.65 251.33 354.54
1113.99 337.39 1054.22 935.26 77.49 714.82 944.09 217.55 742.54 1065.40 165.56 1017.03 965.75 192.19 1033.37 913.36 703.13 1002.46 240.93 1157.52 79.75 1004.91 401.30 1057.32 379.51 613.89 955.78 1132.80 1034.80 921.67 1017.05 1150.87 97.58 993.78 945.76 1104.60 422.81 323.14 992.61 1109.12 1211.01 1052.76 283.10 1059.96 543.50 426.97 1088.07 869.53 856.49 231.69 261.25 359.42 39.13 812.94 891.39 1276.65 98.61 231.10 1103.40 202.17 408.71 1017.95 448.00 825.94 950.74 339.81 198.90 1128.67 1011.56 1157.96 312.14 241.45 958.17 866.63 120.90 877.44 1124.57 824.69 1025.97 145.22 302.66 967.50 0.00 1061.65 1078.49 432.35 1022.22 1182.28 412.63 1095.08 920.76
926.44 852.22 206.08 267.90 1083.46 641.89 344.35 995.06 434.27 179.35 977.40 122.19 196.05 1031.85 189.91 313.62 382.79 234.98 909.26 263.54 1042.17 56.74 739.99 310.67 774.14 457.77 259.29 305.44 86.63 286.37 247.23 126.06 1056.07 283.39 155.70 354.90 790.41 1127.67 183.74 360.66 195.13 392.05 906.51 415.33 744.24 753.77 345.10 701.09 339.77 960.25 972.77 805.20 1022.52 1000.49 334.20 304.22 972.98 1092.69 166.50 959.63 787.48 252.86 685.99 472.92 171.18 794.18 948.54 108.17 177.30 398.07 1031.33 920.35 123.91 290.51 1083.32 261.78 176.40 357.35 396.52 1057.94 911.81 154.42 1061.65 0.00 289.50 740.28 63.70 348.05 741.02 96.91 443.90
900.98 918.45 448.59 324.41 1125.32 537.33 306.71 1082.75 575.95 161.61 1030.76 393.37 468.34 1039.61 253.83 275.98 559.53 493.13 1002.94 435.89 1087.64 332.98 826.87 21.17 882.83 648.77 233.83 96.65 351.89 319.99 187.67 348.43 1031.66 239.62 445.20 99.74 882.85 1087.54 473.24 118.91 279.36 175.27 961.70 251.94 745.55 948.65 194.67 592.42 586.68 959.80 1075.52 890.64 1078.43 1276.73 622.28 198.16 1028.11 1074.95 123.00 938.56 843.44 99.61 880.87 413.24 419.92 871.03 879.59 307.70 266.83 199.32 922.97 899.28 268.84 449.42 1099.29 431.08 395.24 555.58 241.78 1044.39 1002.18 403.16 1078.49 289.50 0.00 921.07 341.85 164.19 849.71 244.05 706.02
1158.37 201.60 751.47 679.25 486.70 405.43 791.05 365.38 421.45 778.45 381.63 692.26 624.93 485.52 746.42 760.32 493.23 669.69 337.67 865.24 476.31 770.13 94.20 918.89 172.58 403.99 763.57 994.37 740.24 667.88 786.07 863.92 398.97 832.84 584.58 989.01 105.02 434.62 618.45 888.47 924.06 832.11 249.71 841.35 278.09 66.94 834.28 935.04 598.61 314.86 285.94 112.15 393.22 634.34 622.90 1015.44 395.42 591.50 798.07 409.10 99.32 884.43 54.29 804.98 615.35 92.54 246.90 829.91 724.61 937.31 510.03 369.82 671.22 565.21 488.24 630.94 838.76 577.42 765.60 438.55 266.76 632.11 432.35 740.28 921.07 0.00 803.98 996.12 168.53 808.13 721.56
990.14 822.92 202.40 292.39 1034.02 679.17 387.43 965.69 422.06 190.06 913.70 124.69 213.27 1019.90 211.69 356.70 319.09 207.15 845.56 251.25 1072.59 60.02 740.76 330.50 724.70 408.33 322.99 342.75 74.68 310.86 284.34 189.76 1006.63 232.39 219.40 392.21 789.88 1095.54 196.47 397.77 257.99 402.76 877.21 452.44 694.80 817.47 355.81 682.02 339.48 927.92 1009.39 804.77 1010.30 1003.77 397.90 341.53 980.65 1082.31 230.20 976.85 788.25 316.56 749.69 487.75 201.60 785.16 919.16 123.53 165.86 461.77 985.81 937.57 145.47 294.86 1078.17 264.28 167.59 345.40 451.02 1059.87 943.57 201.74 1022.22 63.70 341.85 803.98 0.00 411.75 691.58 134.22 456.63
965.70 887.77 554.13 325.18 1190.04 595.18 303.55 1204.60 640.67 281.65 1152.61 470.24 544.10 1104.33 372.46 334.28 621.71 534.53 1107.93 511.48 1150.93 404.79 903.76 143.02 889.05 700.23 298.55 118.73 434.68 340.00 259.06 312.56 1130.45 311.01 503.75 101.09 902.86 1215.23 531.79 224.86 373.01 168.50 942.06 234.44 718.03 969.11 173.60 614.50 662.84 1024.01 1068.75 901.56 1143.15 1348.54 682.25 356.48 1149.96 1194.99 250.69 1003.28 896.80 164.33 950.14 383.14 519.23 921.17 1001.44 400.52 331.55 154.25 1028.92 964.00 384.94 542.37 1164.01 476.64 424.00 620.30 235.01 1109.11 1032.34 502.47 1182.28 348.05 164.19 996.12 411.75 0.00 855.93 278.23 791.95
1018.91 131.34 707.83 548.19 342.44 346.12 652.89 417.66 411.90 799.98 365.67 624.95 655.47 415.26 709.39 622.16 372.49 702.49 350.93 764.04 392.39 684.28 112.56 840.89 33.12 283.25 627.80 883.45 714.17 529.72 688.54 839.70 315.05 701.78 615.12 820.48 98.30 458.68 661.97 801.97 887.03 772.80 185.63 782.04 137.90 166.65 696.12 870.21 525.85 267.58 376.63 136.21 435.92 657.30 667.88 922.32 376.10 519.96 774.89 331.10 122.28 762.02 144.73 658.90 645.89 155.82 227.58 801.01 691.64 877.65 406.69 353.91 709.04 539.60 386.59 546.80 803.94 626.82 706.29 368.29 251.99 662.65 412.63 741.02 849.71 168.53 691.58 855.93 0.00 775.16 699.10
902.34 877.53 296.40 327.61 1117.60 544.98 313.61 1049.27 432.36 82.44 997.28 204.00 287.34 1092.72 138.86 282.88 402.67 256.30 929.14 337.23 1111.22 153.65 823.21 222.88 808.28 491.91 235.19 208.53 183.54 309.14 150.32 170.30 1090.21 186.48 252.61 257.99 872.00 1111.10 280.65 263.75 234.97 295.14 931.72 318.42 671.32 850.68 248.19 604.18 436.68 948.57 1067.02 849.79 1072.80 1097.40 431.11 207.31 996.47 995.78 146.56 1020.48 850.09 232.92 782.90 501.41 268.09 830.18 968.47 135.46 83.52 378.13 1067.81 1011.64 136.91 288.60 1152.37 299.15 250.24 434.07 322.37 1045.75 1008.72 251.33 1095.08 96.91 244.05 808.13 134.22 278.23 775.16 0.00 540.81
1274.03 709.61 346.61 510.91 993.36 686.51 641.58 895.02 350.41 544.41 843.03 394.94 315.36 946.80 564.06 610.85 414.14 311.40 854.30 433.63 962.39 411.84 713.14 684.85 725.29 415.85 606.88 749.34 381.95 529.38 635.15 514.56 885.05 596.31 307.01 781.45 740.51 967.00 260.16 748.58 559.68 737.17 655.32 742.22 702.32 744.67 671.80 976.20 173.25 737.27 877.98 677.12 929.83 681.41 138.12 748.12 888.04 1052.78 608.53 944.05 705.89 628.60 717.57 722.25 337.78 657.51 739.52 475.82 509.65 773.81 902.47 904.77 488.86 317.43 960.55 368.76 490.79 172.63 670.66 899.83 753.34 354.54 920.76 443.90 706.02 721.56 456.63 791.95 699.10 540.81 0.00
DEMAND_SECTION
1 0
2 1
3 1
4 1
5 1
6 1
7 1
8 1
9 1
10 1
11 1
12 1
13 1
14 1
15 1
16 1
17 1
18 1
19 1
20 1
21 1
22 1
23 1
24 1
25 1
26 1
27 1
28 1
29 1
30 1
31 1
32 1
33 1
34 1
35 1
36 1
37 1
38 1
39 1
40 1
41 1
42 1
43 1
44 1
45 1
46 1
47 1
48 1
49 1
50 1
51 1
52 1
53 1
54 1
55 1
56 1
57 1
58 1
59 1
60 1
61 1
62 1
63 1
64 1
65 1
66 1
67 1
68 1
69 1
70 1
71 1
72 1
73 1
74 1
75 1
76 1
77 1
78 1
79 1
80 1
81 1
82 1
83 1
84 1
85 1
86 1
87 1
88 1
89 1
90 1
91 1
DEPOT_SECTION
1
-1
EOF
