NAME: LDG90_3271_fog_90_0284
COMMENT: CVRP with travel times.  rootPos=3,custPos=2,demandType=7,avgRouteSizeIndex=1,weather=fog,lambda_cluster=1,lambda_random=4, T1=300,T2=700,beta=1, alpha(i,j) ~ U(0.8,1.2)
TYPE: CVRP
DIMENSION: 91
EDGE_WEIGHT_TYPE: EXPLICIT
EDGE_WEIGHT_FORMAT: FULL_MATRIX
CAPACITY: 122
NODE_COORD_SECTION
1 0 0
2 732 481
3 9 387
4 731 584
5 49 653
6 661 492
7 16 328
8 496 853
9 356 219
10 692 419
11 765 324
12 53 493
13 36 495
14 356 337
15 644 459
16 563 517
17 700 456
18 48 379
19 323 188
20 354 177
21 569 461
22 548 692
23 43 86
24 330 269
25 107 401
26 336 191
27 623 527
28 269 244
29 660 537
30 452 178
31 350 116
32 540 560
33 59 681
34 427 478
35 11 372
36 103 372
37 830 530
38 695 459
39 471 537
40 642 679
41 496 511
42 918 381
43 53 476
44 576 522
45 286 173
46 424 399
47 356 226
48 92 564
49 663 436
50 407 668
51 497 147
52 184 155
53 4 444
54 511 708
55 623 485
56 244 205
57 377 67
58 636 518
59 25 392
60 210 176
61 145 401
62 406 226
63 684 534
64 95 268
65 228 95
66 686 410
67 8 405
68 501 395
69 407 72
70 312 209
71 591 529
72 584 82
73 214 214
74 143 312
75 362 173
76 464 236
77 321 197
78 10 335
79 302 231
80 608 514
81 898 432
82 697 594
83 285 76
84 724 827
85 763 314
86 627 645
87 107 348
88 355 154
89 680 485
90 66 343
91 780 878
EDGE_WEIGHT_SECTION
0.00 1073.52 490.20 1135.06 840.14 1005.47 374.54 1217.08 521.87 1014.62 1031.31 613.74 613.80 629.32 1010.81 974.95 1039.35 490.15 481.75 514.18 961.54 1136.80 317.28 575.70 543.41 477.57 1018.85 557.07 996.42 631.41 500.67 967.22 845.25 876.71 451.90 504.68 1251.27 1053.95 940.27 1197.72 868.60 1196.59 576.41 946.48 474.09 802.43 513.93 719.15 1017.08 920.86 585.93 439.92 563.50 1056.72 1011.16 535.26 489.59 1043.49 492.86 458.58 585.21 586.40 1049.27 545.57 345.22 1011.82 529.61 813.74 538.20 494.11 977.99 770.93 493.50 576.76 523.84 661.99 453.56 411.96 512.40 1021.79 1182.97 1109.68 341.63 1338.81 1015.15 1143.84 505.51 549.96 1002.70 452.03 1427.97
1073.52 0.00 869.20 205.18 818.11 114.18 904.51 562.77 597.95 126.78 244.48 837.97 853.57 562.33 146.93 239.78 51.82 804.57 648.15 672.70 268.04 412.17 941.45 553.16 811.57 642.08 166.72 694.46 149.14 582.14 675.46 252.99 809.89 411.31 888.56 826.03 177.75 75.95 353.98 372.93 346.13 369.29 800.64 239.09 685.36 356.42 577.24 775.44 129.91 454.38 561.06 786.13 931.41 466.10 154.46 709.30 640.00 175.24 847.60 760.76 745.50 548.02 96.29 828.16 811.65 112.46 870.16 315.12 688.61 643.95 208.12 517.23 665.35 821.41 653.71 472.43 619.96 940.31 623.41 191.24 213.22 179.91 782.65 528.29 228.32 299.23 826.26 642.50 70.82 851.66 557.20
490.20 869.20 0.00 907.80 349.94 808.00 115.66 932.37 470.32 827.24 964.58 173.31 142.54 479.75 722.27 769.20 829.82 64.63 454.30 504.26 781.06 673.43 357.74 471.87 118.58 486.65 790.82 359.13 800.96 589.14 586.67 761.47 366.28 673.02 38.30 165.04 1044.50 849.63 581.98 839.43 662.85 1047.93 161.48 744.48 487.25 609.60 476.35 272.24 783.31 747.02 622.90 428.20 114.58 755.66 781.50 422.22 638.50 761.00 21.60 428.99 204.60 540.90 842.12 217.30 487.76 812.92 47.40 647.00 667.50 454.54 754.39 786.50 364.33 269.90 530.22 573.44 462.64 90.05 440.86 800.52 1082.42 908.98 531.00 1079.06 962.16 802.20 198.65 507.98 798.38 135.43 1129.63
1135.06 205.18 907.80 0.00 837.62 214.72 902.82 512.92 642.30 249.56 371.54 949.49 971.39 613.75 238.39 261.89 178.88 843.17 704.50 694.10 267.79 290.82 949.82 665.84 853.77 657.49 176.62 747.40 171.39 673.60 733.26 275.24 820.39 455.98 927.16 805.46 278.17 192.55 407.45 187.30 326.58 352.19 922.59 243.81 738.30 483.48 630.18 844.08 256.97 435.21 679.26 812.10 921.83 365.37 223.10 746.77 804.38 146.80 886.20 769.13 767.75 548.66 118.54 857.12 867.17 263.88 908.76 437.07 799.80 696.18 212.30 668.65 673.72 700.60 703.76 617.37 681.50 940.24 691.76 186.32 336.05 95.19 817.80 406.20 355.38 162.05 771.85 729.88 170.01 846.34 418.07
840.14 818.11 349.94 837.62 0.00 703.93 465.60 751.45 757.59 803.75 958.95 294.30 248.88 658.35 771.40 694.44 766.29 412.85 741.57 750.10 668.88 738.01 707.68 679.26 405.85 713.49 714.12 646.40 723.09 876.41 858.83 716.66 60.93 868.72 388.24 437.20 980.97 790.42 744.68 814.29 776.53 1128.31 301.81 656.83 781.84 821.38 763.62 259.36 824.56 455.23 934.27 745.58 346.04 685.09 722.43 694.38 904.65 690.82 369.82 730.45 396.25 816.99 752.12 567.24 837.70 818.07 376.92 787.33 883.19 735.04 625.32 1058.66 675.73 519.67 758.64 835.46 737.50 439.99 693.83 685.65 1031.33 793.28 873.80 982.72 942.79 728.39 470.81 785.88 764.09 483.65 1054.70
1005.47 114.18 808.00 214.72 703.93 0.00 858.98 573.31 558.26 99.82 255.02 795.36 821.39 503.54 85.73 151.68 62.36 743.37 580.10 564.51 175.74 373.49 917.24 520.98 731.89 527.90 116.09 655.42 111.17 520.94 650.52 230.68 761.00 325.82 827.36 774.38 277.04 86.49 268.49 341.58 234.64 455.54 768.46 167.98 616.24 366.96 578.97 689.95 140.45 388.27 497.71 720.05 829.89 430.14 68.97 670.03 719.06 87.41 786.40 715.43 707.53 549.70 128.03 749.81 745.11 114.14 808.96 282.94 671.74 574.06 139.34 518.91 675.89 779.27 574.17 474.11 551.91 855.98 584.14 79.01 327.40 211.65 688.21 517.63 238.86 255.68 740.77 600.29 60.16 814.17 550.33
374.54 904.51 115.66 902.82 465.60 858.98 0.00 902.40 520.61 831.01 944.33 239.20 239.26 404.48 773.25 756.34 852.69 115.61 444.19 464.76 770.80 766.99 305.11 436.97 168.87 496.39 791.47 409.42 807.03 619.03 518.99 757.38 473.95 651.87 77.36 130.14 1062.63 876.82 603.25 860.70 658.76 1091.40 201.87 750.55 442.00 643.42 518.51 344.61 774.60 657.87 657.59 393.76 188.96 682.18 802.77 354.54 600.45 811.98 118.32 313.33 210.67 488.27 859.88 261.26 422.64 816.69 155.07 614.03 551.84 481.64 782.06 718.82 348.72 202.22 481.96 563.86 472.38 37.42 440.43 814.39 1117.73 943.50 484.87 1142.88 960.49 895.76 130.97 500.54 835.83 77.49 1108.66
1217.08 562.77 932.37 512.92 751.45 573.31 902.40 0.00 904.10 543.83 675.52 869.93 915.35 828.48 614.18 614.27 510.95 905.45 809.97 859.93 616.29 417.38 1154.74 925.28 813.79 862.17 609.85 929.90 631.72 967.73 956.95 578.90 787.73 581.09 966.44 805.04 725.63 486.82 457.05 568.59 537.92 865.11 907.26 576.66 914.74 685.51 883.39 892.25 589.04 296.22 1007.03 1068.59 979.03 365.79 621.71 957.30 998.30 580.03 948.48 1001.68 885.57 857.76 618.51 905.90 1043.61 558.15 959.02 760.81 1046.91 834.49 545.15 962.92 992.37 842.68 885.89 849.40 838.16 939.82 875.70 605.48 717.92 608.11 1022.48 643.42 659.36 546.15 771.43 867.78 538.07 845.92 569.58
521.87 597.95 470.32 642.30 757.59 558.26 520.61 904.10 0.00 492.75 692.63 513.71 529.31 178.56 554.28 530.42 546.13 448.59 95.03 98.43 567.33 708.20 433.64 135.69 351.74 90.06 537.00 111.19 503.20 212.84 174.33 538.62 754.02 425.95 508.62 427.63 760.81 549.76 447.05 704.50 440.00 809.87 476.38 553.26 128.83 355.50 20.71 619.12 532.36 710.28 274.03 312.26 517.93 751.73 489.29 187.26 228.42 539.44 472.66 231.83 414.79 102.23 556.05 413.33 257.70 507.07 505.60 373.73 273.79 100.89 560.25 450.04 205.27 330.01 124.39 169.06 68.31 501.80 117.21 499.92 783.52 639.67 239.54 945.59 703.20 653.29 401.26 134.21 572.93 452.16 942.36
1014.62 126.78 827.24 249.56 803.75 99.82 831.01 543.83 492.75 0.00 199.88 739.83 755.43 536.17 104.97 251.50 81.14 762.61 587.78 590.51 204.37 453.38 891.71 455.02 797.70 558.71 198.59 596.81 201.91 505.73 577.32 283.80 860.82 381.52 827.01 761.85 284.38 57.01 368.31 346.48 311.78 393.53 702.50 226.89 598.31 306.68 513.46 772.08 76.73 488.09 507.88 687.99 848.93 494.44 168.79 611.16 672.64 187.23 805.64 675.53 746.72 449.88 188.70 701.38 727.18 14.32 816.58 216.98 628.37 545.81 239.16 419.09 615.61 748.93 587.62 374.29 561.06 868.43 525.27 178.83 340.00 194.26 684.51 564.76 216.04 335.02 795.46 554.73 108.26 753.52 603.44
1031.31 244.48 964.58 371.54 958.95 255.02 944.33 675.52 692.63 199.88 0.00 913.69 929.29 703.17 242.31 393.97 192.66 899.95 666.68 686.49 378.23 585.07 978.43 628.88 922.59 664.63 353.81 713.88 333.60 677.52 630.03 415.49 1000.16 518.86 958.66 917.10 383.49 188.70 506.82 531.80 483.69 249.86 876.36 396.44 659.71 480.54 696.50 866.14 262.05 637.32 693.20 801.49 1022.48 626.13 307.30 745.37 546.76 326.57 942.98 788.79 836.57 623.74 320.39 901.26 686.09 188.18 965.54 390.84 595.37 618.47 388.39 573.18 776.35 922.79 710.17 548.15 659.02 906.91 659.48 328.06 293.23 394.14 694.72 697.42 16.16 467.04 950.71 677.28 239.95 927.38 739.78
613.74 837.97 173.31 949.49 294.30 795.36 239.20 869.93 513.71 739.83 913.69 0.00 45.42 505.61 772.52 762.54 820.97 192.76 497.69 547.65 752.65 716.68 481.28 493.94 161.97 530.04 800.25 402.52 784.68 632.53 608.74 754.81 354.92 592.61 161.84 187.11 1015.72 796.84 590.73 834.67 656.19 1132.27 37.33 728.20 531.75 527.08 519.74 105.41 816.56 573.71 726.34 473.19 109.10 631.87 726.39 444.29 702.20 802.69 166.36 502.75 188.32 601.26 837.53 318.23 588.59 725.51 146.08 522.85 714.36 497.93 759.42 808.57 448.03 291.97 550.71 668.09 506.03 213.59 484.25 763.17 1051.19 921.15 651.83 905.75 929.85 845.45 220.72 583.43 790.68 263.56 1038.57
613.80 853.57 142.54 971.39 248.88 821.39 239.26 915.35 529.31 755.43 929.29 45.42 0.00 460.19 817.41 795.68 836.57 163.97 513.29 563.25 707.23 697.93 481.34 495.15 177.57 545.64 826.18 418.12 830.10 648.13 609.95 791.03 309.81 638.03 161.90 188.32 1031.32 812.44 636.15 815.92 692.41 1147.27 52.93 758.07 532.96 572.50 535.34 150.83 832.16 619.13 722.24 496.70 97.16 613.12 752.42 445.50 717.80 828.72 120.94 481.57 233.74 616.86 882.95 319.44 612.10 741.11 128.04 538.45 720.08 513.53 775.02 809.78 426.85 270.79 586.44 672.78 521.63 213.65 473.35 789.20 1066.79 900.21 633.79 951.17 945.45 826.70 221.93 599.03 806.28 234.77 1039.60
629.32 562.33 479.75 613.75 658.35 503.54 404.48 828.48 178.56 536.17 703.17 505.61 460.19 0.00 503.52 351.86 510.51 415.12 203.95 181.00 454.62 563.32 528.92 103.59 399.29 199.77 446.20 158.74 454.84 328.29 311.47 444.87 597.42 247.39 457.62 374.06 658.63 534.64 371.43 628.88 376.79 687.95 513.12 389.47 252.34 238.94 157.85 611.02 542.78 661.18 366.07 336.56 557.35 648.13 440.65 259.73 335.55 466.95 458.15 324.10 446.20 158.64 507.69 463.38 381.21 521.85 470.09 319.19 384.16 194.38 420.98 532.61 252.82 337.73 206.96 234.23 175.76 441.90 173.84 427.43 775.55 588.94 360.08 781.80 687.01 574.56 407.67 216.78 520.82 344.32 894.00
1010.81 146.93 722.27 238.39 771.40 85.73 773.25 614.18 554.28 104.97 242.31 772.52 817.41 503.52 0.00 151.66 107.55 657.64 582.70 532.74 174.80 368.19 933.45 479.72 727.91 553.05 122.45 580.14 169.76 435.21 611.49 198.61 798.86 276.55 741.63 758.05 322.23 127.36 264.51 330.79 241.38 377.84 764.48 171.40 595.81 368.66 556.81 667.11 61.04 395.01 492.19 712.69 811.41 411.72 64.99 584.30 670.19 125.27 700.67 648.67 711.28 484.05 119.85 756.55 724.68 90.65 723.23 278.96 625.00 539.62 146.08 495.42 657.35 773.63 506.78 408.46 577.06 793.38 498.41 85.75 360.15 203.47 713.36 533.46 239.89 262.04 736.79 539.67 76.11 728.44 580.76
974.95 239.78 769.20 261.89 694.44 151.68 756.34 614.27 530.42 251.50 393.97 762.54 795.68 351.86 151.66 0.00 209.25 730.23 538.19 532.86 105.78 262.59 848.34 426.07 650.62 536.14 109.98 510.60 149.96 513.15 618.63 93.01 755.37 235.75 779.44 658.02 379.91 220.21 187.22 325.62 106.35 494.67 742.75 37.61 593.72 263.31 509.71 672.54 190.92 318.05 546.87 650.09 701.60 306.12 88.79 582.21 687.41 115.09 773.26 595.74 577.49 444.12 188.55 735.51 715.03 242.31 795.59 257.23 702.94 489.98 69.12 536.59 572.24 689.59 558.82 505.08 527.62 727.69 496.32 75.57 453.00 237.08 633.32 429.94 385.75 249.57 659.50 568.64 168.96 696.18 562.76
1039.35 51.82 829.82 178.88 766.29 62.36 852.69 510.95 546.13 81.14 192.66 820.97 836.57 510.51 107.55 209.25 0.00 765.19 599.74 620.88 216.22 420.50 889.63 536.16 794.25 590.26 168.01 642.64 147.80 542.76 649.81 250.92 823.36 384.10 849.18 822.89 214.68 24.13 330.85 347.84 297.00 394.89 783.64 230.34 633.54 304.60 525.42 752.31 78.09 450.63 509.24 754.50 892.25 461.56 131.33 681.36 691.82 149.77 808.22 708.94 744.16 522.37 148.11 782.52 762.41 95.46 830.78 298.12 683.27 626.34 201.70 500.23 613.53 769.59 614.33 446.78 585.79 890.11 605.96 141.37 265.04 231.73 750.57 511.62 176.50 297.89 803.13 590.68 54.15 834.66 586.96
490.15 804.57 64.63 843.17 412.85 743.37 115.61 905.45 448.59 762.61 899.95 192.76 163.97 415.12 657.64 730.23 765.19 0.00 432.57 458.07 757.40 738.06 335.81 407.24 96.85 464.92 726.19 337.40 777.30 561.84 522.04 739.74 384.47 662.51 83.99 100.41 979.87 785.00 560.25 817.70 641.12 1035.48 179.67 692.62 445.05 587.87 454.62 292.73 718.68 737.11 620.93 411.37 153.77 777.09 722.63 357.59 573.87 696.37 43.03 416.05 180.94 536.14 777.49 192.72 526.56 748.29 65.59 607.34 622.48 432.81 724.13 721.87 361.33 205.27 476.24 508.81 440.91 135.74 419.13 735.89 1017.79 844.35 571.34 1084.95 897.53 865.78 134.02 443.35 733.75 70.80 1194.26
481.75 648.15 454.30 704.50 741.57 580.10 444.19 809.97 95.03 587.78 666.68 497.69 513.29 203.95 582.70 538.19 599.74 432.57 0.00 49.96 536.17 739.66 393.52 139.00 335.72 52.20 572.95 128.16 556.81 204.23 146.98 574.38 738.62 451.34 458.52 411.61 814.42 623.87 500.66 758.11 493.61 714.84 460.36 500.58 104.77 407.56 74.32 582.98 585.97 781.02 251.55 272.14 501.91 759.02 580.59 175.14 204.51 597.59 471.69 191.71 387.00 155.84 609.66 360.65 233.64 579.70 489.58 377.04 242.01 48.21 532.09 379.56 183.81 319.79 75.92 222.67 28.19 406.77 89.42 589.55 735.05 684.31 212.51 892.91 650.52 706.90 391.04 85.74 577.33 437.23 991.27
514.18 672.70 504.26 694.10 750.10 564.51 464.76 859.93 98.43 590.51 686.49 547.65 563.25 181.00 532.74 532.86 620.88 458.07 49.96 0.00 520.58 724.07 413.56 136.15 385.68 36.61 570.44 164.13 577.95 154.27 136.31 571.87 723.03 409.09 507.79 442.98 835.56 645.01 513.15 770.60 483.21 762.98 510.32 498.07 113.27 388.24 95.46 533.02 593.78 778.51 201.59 287.89 551.87 784.98 587.72 200.73 154.55 595.08 501.10 224.14 388.35 145.44 630.80 395.21 242.14 576.85 523.66 374.19 203.16 82.77 529.58 351.61 216.24 369.75 25.96 221.03 60.62 456.73 119.41 584.12 685.09 697.54 196.92 890.40 670.33 693.88 424.30 35.78 608.85 387.27 988.42
961.54 268.04 781.06 267.79 668.88 175.74 770.80 616.29 567.33 204.37 378.23 752.65 707.23 454.62 174.80 105.78 216.22 757.40 536.17 520.58 0.00 364.65 812.11 521.50 662.48 483.97 126.32 611.49 202.73 407.37 612.70 195.07 729.81 207.23 783.97 656.99 406.98 192.09 245.17 351.81 164.30 496.21 760.16 121.27 572.31 227.08 546.62 730.49 179.41 321.53 545.04 544.31 759.55 408.18 133.51 609.06 592.89 136.25 800.43 624.74 576.46 465.10 229.28 719.25 659.71 190.05 816.34 283.46 597.16 530.13 152.78 430.81 536.01 692.07 530.24 531.31 507.98 785.64 545.22 96.73 481.26 272.99 644.28 473.87 364.63 265.91 690.60 525.86 217.15 741.77 606.69
1136.80 412.17 673.43 290.82 738.01 373.49 766.99 417.38 708.20 453.38 585.07 716.68 697.93 563.32 368.19 262.59 420.50 738.06 739.66 724.07 364.65 0.00 1031.17 666.91 675.36 687.46 268.36 722.06 278.86 735.22 785.57 169.58 708.97 372.01 711.73 751.25 526.23 396.37 349.07 171.63 268.20 628.86 750.86 243.38 775.80 476.43 687.49 611.27 387.06 282.78 737.31 881.94 788.01 84.81 338.35 755.60 861.69 286.08 695.03 801.51 761.38 605.97 315.88 824.14 883.42 455.95 720.83 463.00 910.30 695.75 241.24 793.04 785.36 719.43 733.73 681.56 711.47 763.48 736.96 301.57 556.43 291.50 795.17 503.89 568.91 128.77 732.08 759.85 372.51 794.97 456.20
317.28 941.45 357.74 949.82 707.68 917.24 305.11 1154.74 433.64 891.71 978.43 481.28 481.34 528.92 933.45 848.34 889.63 335.81 393.52 413.56 812.11 1031.17 0.00 487.47 421.95 389.34 930.62 370.18 908.19 566.46 437.96 917.47 701.24 689.45 319.44 415.74 1104.31 913.76 813.49 971.77 818.85 1108.36 443.95 858.25 421.21 585.03 425.70 586.69 937.35 962.98 611.24 407.74 451.48 987.29 888.70 349.15 528.55 922.77 360.40 354.64 485.75 498.17 961.04 476.64 292.34 877.39 382.36 674.73 532.26 405.88 857.27 765.17 276.10 312.06 435.61 573.76 365.33 267.69 435.04 908.84 1081.67 1021.45 380.59 1250.58 962.27 1016.62 383.31 449.34 914.47 382.60 1288.96
575.70 553.16 471.87 665.84 679.26 520.98 436.97 925.28 135.69 455.02 628.88 493.94 495.15 103.59 479.72 426.07 536.16 407.24 139.00 136.15 521.50 666.91 487.47 0.00 382.34 136.95 525.77 141.79 494.45 261.90 257.73 519.08 618.33 350.98 491.23 306.83 730.91 512.03 475.02 730.44 480.38 791.54 456.61 457.66 167.65 327.74 156.40 599.35 531.75 723.54 337.74 232.97 548.53 732.19 452.01 156.14 273.96 528.31 450.27 220.51 367.83 169.92 547.30 403.23 291.36 440.70 470.66 238.04 322.57 90.79 474.61 487.76 229.19 293.91 162.11 211.56 122.14 454.88 70.25 488.79 766.38 630.92 297.26 849.99 645.04 644.54 340.44 157.20 505.87 380.82 852.27
543.41 811.57 118.58 853.77 405.85 731.89 168.87 813.79 351.74 797.70 922.59 161.97 177.57 399.29 727.91 650.62 794.25 96.85 335.72 385.68 662.48 675.36 421.95 382.34 0.00 368.07 698.27 240.55 682.38 470.56 470.06 642.89 426.92 587.44 156.88 75.89 977.57 792.00 463.40 720.85 544.27 1050.56 124.64 625.90 417.33 491.02 357.77 267.38 765.05 735.68 587.27 395.09 166.19 760.17 662.92 329.87 540.23 722.91 139.88 377.79 86.02 439.29 735.23 176.44 510.28 783.38 153.86 580.72 552.39 335.96 657.41 694.15 333.61 177.55 411.64 506.12 344.06 154.26 322.28 699.70 1024.79 818.85 528.38 1018.23 934.16 804.13 106.30 421.46 740.75 119.61 1121.54
477.57 642.08 486.65 657.49 713.49 527.90 496.39 862.17 90.06 558.71 664.63 530.04 545.64 199.77 553.05 536.14 590.26 464.92 52.20 36.61 483.97 687.46 389.34 136.95 368.07 0.00 570.90 127.52 551.84 177.12 157.00 545.22 686.42 429.40 505.66 416.96 804.94 609.24 495.69 752.17 446.60 767.04 492.71 498.53 88.34 400.94 69.35 569.63 581.00 767.90 221.90 255.19 534.26 752.40 578.54 168.69 191.16 595.54 488.99 187.53 380.38 108.83 604.69 358.60 217.21 544.39 521.93 374.99 237.83 46.16 530.04 388.22 179.63 335.69 46.27 184.42 24.01 458.97 82.80 580.70 705.40 680.13 160.31 890.86 648.47 666.27 392.26 72.39 573.15 423.88 989.22
1018.85 166.72 790.82 176.62 714.12 116.09 791.47 609.85 537.00 198.59 353.81 800.25 826.18 446.20 122.45 109.98 168.01 726.19 572.95 570.44 126.32 268.36 930.62 525.77 698.27 570.90 0.00 604.94 96.08 533.69 655.41 146.17 703.41 322.11 804.89 692.78 307.78 165.11 244.42 225.49 192.71 471.45 773.25 72.37 636.52 353.40 557.71 694.84 154.65 337.73 531.94 670.63 787.96 314.05 73.86 640.49 719.21 29.82 769.22 630.50 612.25 530.48 128.79 707.88 749.79 212.91 791.78 287.73 682.82 524.74 88.80 528.55 662.33 731.75 595.24 530.91 565.29 814.05 565.95 37.08 379.94 177.80 719.68 464.70 337.65 139.59 660.50 606.22 113.86 734.99 535.24
557.07 694.46 359.13 747.40 646.40 655.42 409.42 929.90 111.19 596.81 713.88 402.52 418.12 158.74 580.14 510.60 642.64 337.40 128.16 164.13 611.49 722.06 370.18 141.79 240.55 127.52 604.94 0.00 599.71 230.01 229.51 603.61 667.47 406.13 397.43 316.44 817.37 653.82 530.17 787.62 535.53 838.72 365.19 542.49 179.13 397.68 117.22 507.93 628.87 784.43 349.42 215.82 406.74 751.33 593.80 104.96 308.40 625.69 361.47 173.52 326.57 198.74 652.56 304.64 308.00 582.49 394.41 379.83 311.84 95.41 574.00 469.34 94.08 218.82 173.79 265.57 103.51 394.81 81.73 586.17 832.92 736.18 287.83 934.82 697.72 733.30 290.07 199.91 647.66 360.16 994.06
996.42 149.14 800.96 171.39 723.09 111.17 807.03 631.72 503.20 201.91 333.60 784.68 830.10 454.84 169.76 149.96 147.80 777.30 556.81 577.95 202.73 278.86 908.19 494.45 682.38 551.84 96.08 599.71 0.00 604.97 636.11 189.11 766.45 382.98 803.87 676.89 318.77 144.90 323.15 235.99 256.31 489.03 807.02 116.06 590.61 413.27 482.49 770.39 183.74 346.70 607.49 727.42 782.27 363.67 149.41 650.59 731.62 94.64 820.33 674.19 596.36 564.01 52.85 803.96 719.48 216.23 836.24 334.34 735.57 568.43 97.77 621.00 678.94 770.05 598.11 569.72 542.86 824.94 564.70 133.16 362.36 136.47 712.15 506.97 317.44 150.09 710.50 613.73 93.65 761.67 439.16
631.41 582.14 589.14 673.60 876.41 520.94 619.03 967.73 212.84 505.73 677.52 632.53 648.13 328.29 435.21 513.15 542.76 561.84 204.23 154.27 407.37 735.22 566.46 261.90 470.56 177.12 533.69 230.01 604.97 0.00 205.33 565.64 863.54 386.64 627.44 546.45 757.44 556.26 510.68 759.18 507.42 608.71 595.20 526.12 223.92 282.22 192.13 687.29 496.25 728.90 153.83 370.60 636.75 778.75 500.20 311.38 238.40 543.62 591.48 364.65 513.77 169.65 555.06 534.65 352.79 491.41 579.16 306.50 189.79 223.28 543.07 338.83 324.09 448.83 151.38 131.44 201.13 611.00 255.91 504.10 752.41 638.68 289.78 881.24 675.10 673.28 520.08 118.49 511.32 541.54 920.73
500.67 675.46 586.67 733.26 858.83 650.52 518.99 956.95 174.33 577.32 630.03 608.74 609.95 311.47 611.49 618.63 649.81 522.04 146.98 136.31 612.70 785.57 437.96 257.73 470.06 157.00 655.41 229.51 636.11 205.33 0.00 620.99 843.42 510.63 563.53 421.63 853.21 627.85 579.96 757.86 522.37 814.04 571.41 634.38 136.27 487.55 153.62 669.33 654.05 669.13 309.05 270.85 634.93 834.10 581.55 164.45 172.95 657.85 565.07 241.13 495.81 184.60 688.96 404.87 155.45 563.00 575.61 450.88 162.20 195.19 665.89 487.92 237.50 393.56 133.42 203.03 175.17 553.75 219.15 618.33 792.55 771.58 213.71 1026.71 628.47 671.96 388.02 100.53 665.19 462.51 1065.11
967.22 252.99 761.47 275.24 716.66 230.68 757.38 578.90 538.62 283.80 415.49 754.81 791.03 444.87 198.61 93.01 250.92 739.74 574.38 571.87 195.07 169.58 917.47 519.08 642.89 545.22 146.17 603.61 189.11 565.64 620.99 0.00 777.59 228.02 771.71 685.38 374.01 226.79 179.49 232.61 98.62 576.45 767.53 73.80 626.03 332.44 517.91 664.81 259.65 340.27 567.73 712.36 693.87 213.11 181.80 619.49 692.11 156.84 782.77 631.93 613.68 436.39 156.70 786.24 713.84 286.37 787.86 293.42 740.72 526.17 91.34 625.88 641.37 723.02 591.49 511.98 566.72 719.96 567.38 151.67 466.21 216.10 625.59 458.54 399.33 285.76 651.77 607.65 260.03 726.26 591.36
845.25 809.89 366.28 820.39 60.93 761.00 473.95 787.73 754.02 860.82 1000.16 354.92 309.81 597.42 798.86 755.37 823.36 384.47 738.62 723.03 729.81 708.97 701.24 618.33 426.92 686.42 703.41 667.47 766.45 863.54 843.42 777.59 0.00 844.81 396.59 440.13 981.23 811.46 738.79 826.96 819.66 1101.98 362.74 717.76 774.76 832.36 733.58 253.47 852.02 516.16 908.32 731.98 406.97 624.16 749.89 697.31 877.58 673.59 369.89 716.85 453.22 756.06 713.60 571.25 847.38 875.14 318.88 848.26 924.25 709.12 686.25 1061.59 662.13 506.07 732.69 829.89 710.43 448.34 688.58 713.11 1023.11 797.22 824.63 1043.65 984.00 789.32 473.74 758.81 778.01 455.27 1050.64
876.71 411.31 673.02 455.98 868.72 325.82 651.87 581.09 425.95 381.52 518.86 592.61 638.03 247.39 276.55 235.75 384.10 662.51 451.34 409.09 207.23 372.01 689.45 350.98 587.44 429.40 322.11 406.13 382.98 386.64 510.63 228.02 844.81 0.00 634.72 621.45 589.06 391.74 124.04 381.49 129.40 586.04 629.94 273.36 457.16 104.42 405.24 609.36 337.59 413.79 449.61 554.32 701.71 441.13 256.85 486.40 540.62 309.18 675.68 508.76 673.46 359.99 384.72 596.59 586.03 367.20 712.43 194.12 576.43 441.77 285.21 583.41 413.35 569.41 383.13 435.58 423.15 670.60 421.23 285.03 624.53 444.12 589.71 665.69 516.44 327.17 596.32 410.10 340.49 591.71 798.51
451.90 888.56 38.30 927.16 388.24 827.36 77.36 966.44 508.62 827.01 958.66 161.84 161.90 457.62 741.63 779.44 849.18 83.99 458.52 507.79 783.97 711.73 319.44 491.23 156.88 505.66 804.89 397.43 803.87 627.44 563.53 771.71 396.59 634.72 0.00 184.40 1063.86 868.99 620.28 877.73 673.09 1067.29 124.51 747.39 486.54 634.96 514.65 267.25 802.67 712.42 642.26 389.90 152.74 759.54 806.62 399.08 643.90 780.36 40.96 390.69 207.51 502.60 842.89 215.69 500.00 812.69 77.71 610.03 629.20 483.91 716.09 782.86 326.03 266.26 533.75 578.19 481.65 51.75 479.16 776.42 1101.78 884.05 499.20 1067.59 974.82 840.50 195.01 527.34 817.74 120.52 1167.93
504.68 826.03 165.04 805.46 437.20 774.38 130.14 805.04 427.63 761.85 917.10 187.11 188.32 374.06 758.05 658.02 822.89 100.41 411.61 442.98 656.99 751.25 415.74 306.83 75.89 416.96 692.78 316.44 676.89 546.45 421.63 685.38 440.13 621.45 184.40 0.00 932.49 818.86 505.89 763.34 586.76 1062.01 149.78 620.41 344.64 518.29 433.66 292.52 807.54 751.09 612.73 329.27 242.08 801.44 705.41 257.18 578.79 717.42 143.44 315.64 80.53 463.02 729.74 131.12 444.67 747.53 163.83 544.87 554.15 375.37 651.92 621.46 260.92 104.86 437.10 518.39 404.13 148.05 334.16 709.38 1039.25 813.36 515.21 1012.74 933.26 826.98 33.61 450.07 770.54 84.78 1116.05
1251.27 177.75 1044.50 278.17 980.97 277.04 1062.63 725.63 760.81 284.38 383.49 1015.72 1031.32 658.63 322.23 379.91 214.68 979.87 814.42 835.56 406.98 526.23 1104.31 730.91 977.57 804.94 307.78 817.37 318.77 757.44 853.21 374.01 981.23 589.06 1063.86 932.49 0.00 238.81 531.73 403.23 472.63 466.66 978.39 380.15 848.22 519.28 740.10 953.19 292.77 602.87 723.92 818.17 1067.88 482.03 332.21 887.05 817.75 307.64 1022.90 898.60 915.13 725.77 274.04 985.76 933.57 290.21 1045.46 492.87 866.36 821.70 373.14 694.98 828.21 978.77 829.01 650.18 797.71 1080.54 801.16 317.17 310.59 234.73 960.40 605.23 391.18 397.46 966.10 805.36 248.57 1002.95 643.91
1053.95 75.95 849.63 192.55 790.42 86.49 876.82 486.82 549.76 57.01 188.70 796.84 812.44 534.64 127.36 220.21 24.13 785.00 623.87 645.01 192.09 396.37 913.76 512.03 792.00 609.24 165.11 653.82 144.90 556.26 627.85 226.79 811.46 391.74 868.99 818.86 238.81 0.00 334.41 371.97 317.65 406.24 759.51 207.74 655.32 328.73 549.55 755.87 102.22 452.30 522.90 736.40 905.94 437.43 134.89 668.17 715.95 137.87 828.03 732.54 741.26 500.41 131.69 758.39 783.30 71.33 850.59 273.99 678.90 602.82 203.37 476.10 637.66 793.72 634.14 424.82 600.39 914.24 582.28 165.50 289.17 215.31 741.52 508.72 172.54 294.99 806.69 611.74 51.25 810.53 584.06
940.27 353.98 581.98 407.45 744.68 268.49 603.25 457.05 447.05 368.31 506.82 590.73 636.15 371.43 264.51 187.22 330.85 560.25 500.66 513.15 245.17 349.07 813.49 475.02 463.40 495.69 244.42 530.17 323.15 510.68 579.96 179.49 738.79 124.04 620.28 505.89 531.73 334.41 0.00 257.45 80.87 605.40 588.04 224.83 534.46 228.46 426.34 485.32 301.65 374.27 549.98 643.53 629.59 365.21 199.52 601.74 615.04 260.65 603.28 563.10 549.42 400.71 336.19 606.75 663.33 355.16 617.26 318.16 646.43 527.26 225.38 675.98 537.39 543.53 504.30 392.35 486.71 617.66 545.27 236.30 567.20 384.39 607.84 589.71 504.40 343.35 472.28 484.52 283.16 546.77 722.53
1197.72 372.93 839.43 187.30 814.29 341.58 860.70 568.59 704.50 346.48 531.80 834.67 815.92 628.88 330.79 325.62 347.84 817.70 758.11 770.60 351.81 171.63 971.77 730.44 720.85 752.17 225.49 787.62 235.99 759.18 757.86 232.61 826.96 381.49 877.73 763.34 403.23 371.97 257.45 0.00 331.23 457.23 845.49 289.23 791.91 485.91 683.79 729.26 269.75 359.06 700.90 896.12 887.04 202.80 299.35 852.10 872.49 255.31 860.73 820.55 806.87 643.34 276.64 864.20 913.31 360.80 874.71 494.29 874.93 741.60 257.72 754.04 794.84 800.98 761.75 649.80 744.16 875.11 782.81 262.57 513.56 248.63 858.20 332.26 515.64 85.90 729.73 741.97 329.64 804.22 465.08
868.60 346.13 662.85 326.58 776.53 234.64 658.76 537.92 440.00 311.78 483.69 656.19 692.41 376.79 241.38 106.35 297.00 641.12 493.61 483.21 164.30 268.20 818.85 480.38 544.27 446.60 192.71 535.53 256.31 507.42 522.37 98.62 819.66 129.40 673.09 586.76 472.63 317.65 80.87 331.23 0.00 598.29 668.91 143.96 527.41 233.82 419.29 566.19 294.54 321.30 469.11 677.98 595.25 311.73 192.41 520.87 593.49 179.78 684.15 597.55 630.29 337.77 255.32 687.62 615.22 297.46 689.24 256.28 642.10 492.76 175.47 595.11 542.75 624.40 492.87 413.36 470.61 621.34 529.40 155.63 559.35 314.72 526.97 536.29 473.50 332.30 553.15 518.99 275.31 627.64 669.11
1196.59 369.29 1047.93 352.19 1128.31 455.54 1091.40 865.11 809.87 393.53 249.86 1132.27 1147.27 687.95 377.84 494.67 394.89 1035.48 714.84 762.98 496.21 628.86 1108.36 791.54 1050.56 767.04 471.45 838.72 489.03 608.71 814.04 576.45 1101.98 586.04 1067.29 1062.01 466.66 406.24 605.40 457.23 598.29 0.00 1096.03 531.63 819.61 690.46 789.16 1026.86 316.80 751.92 724.53 979.31 1119.98 660.03 405.88 889.98 796.62 482.18 1026.33 906.55 1071.51 714.97 465.58 1075.49 903.63 407.85 1077.34 610.51 798.50 763.05 502.99 667.79 898.65 1025.68 760.09 740.15 743.03 1119.04 804.26 442.66 156.07 447.38 898.49 758.39 233.70 514.24 1077.68 727.20 395.38 1032.27 770.26
576.41 800.64 161.48 922.59 301.81 768.46 201.87 907.26 476.38 702.50 876.36 37.33 52.93 513.12 764.48 742.75 783.64 179.67 460.36 510.32 760.16 750.86 443.95 456.61 124.64 492.71 773.25 365.19 807.02 595.20 571.41 767.53 362.74 629.94 124.51 149.78 978.39 759.51 588.04 845.49 668.91 1096.03 0.00 705.14 494.42 564.41 482.41 142.74 779.23 611.04 711.91 479.05 146.43 666.05 699.49 406.96 664.87 775.79 165.09 465.42 210.66 563.93 830.89 280.90 594.45 688.18 114.08 485.52 677.03 460.60 722.09 771.24 410.70 254.64 536.28 630.76 468.70 176.26 446.92 736.27 1013.86 890.05 619.83 943.08 892.52 879.63 183.39 546.10 753.35 231.13 1075.90
946.48 239.09 744.48 243.81 656.83 167.98 750.55 576.66 553.26 226.89 396.44 728.20 758.07 389.47 171.40 37.61 230.34 692.62 500.58 498.07 121.27 243.38 858.25 457.66 625.90 498.53 72.37 542.49 116.06 526.12 634.38 73.80 717.76 273.36 747.39 620.41 380.15 207.74 224.83 289.23 143.96 531.63 705.14 0.00 564.15 300.92 547.32 710.15 227.02 280.44 583.83 638.56 725.79 286.91 125.75 579.47 652.62 97.01 735.65 558.13 539.88 481.73 158.31 751.53 677.42 212.57 758.21 219.62 691.96 452.37 31.51 552.08 609.85 713.57 524.03 467.47 492.92 765.30 493.58 88.97 452.31 199.47 658.84 392.33 380.28 211.96 654.02 533.85 186.23 705.19 525.15
474.09 685.36 487.25 738.30 781.84 616.24 442.00 914.74 128.83 598.31 659.71 531.75 532.96 252.34 595.81 593.72 633.54 445.05 104.77 113.27 572.31 775.80 421.21 167.65 417.33 88.34 636.52 179.13 590.61 223.92 136.27 626.03 774.76 457.16 486.54 344.64 848.22 655.32 534.46 791.91 527.41 819.61 494.42 564.15 0.00 415.54 108.12 637.16 619.77 800.10 268.09 244.27 557.94 767.00 618.12 87.46 235.95 608.28 480.97 164.14 394.98 189.64 643.46 379.41 128.87 583.99 498.62 405.69 284.56 111.78 595.66 395.65 160.51 305.57 92.46 256.47 76.58 479.42 97.40 628.75 751.59 727.08 174.89 956.48 675.87 740.70 311.03 105.43 625.72 385.52 1019.92
802.43 356.42 609.60 483.48 821.38 366.96 643.42 685.51 355.50 306.68 480.54 527.08 572.50 238.94 368.66 263.31 304.60 587.87 407.56 388.24 227.08 476.43 585.03 327.74 491.02 400.94 353.40 397.68 413.27 282.22 487.55 332.44 832.36 104.42 634.96 518.29 519.28 328.73 228.46 485.91 233.82 690.46 564.41 300.92 415.54 0.00 334.79 632.49 382.69 518.21 430.39 449.90 636.18 524.10 303.67 381.98 520.62 363.33 630.90 404.34 577.04 394.74 435.07 492.17 544.41 292.36 644.88 89.70 472.01 359.35 326.27 478.99 308.93 464.99 362.28 337.55 395.16 645.28 318.14 323.81 569.64 494.23 561.25 693.25 481.10 431.59 536.24 395.17 357.53 583.26 703.93
513.93 577.24 476.35 630.18 763.62 578.97 518.51 883.39 20.71 513.46 696.50 519.74 535.34 157.85 556.81 509.71 525.42 454.62 74.32 95.46 546.62 687.49 425.70 156.40 357.77 69.35 557.71 117.22 482.49 192.13 153.62 517.91 733.58 405.24 514.65 433.66 740.10 549.55 426.34 683.79 419.29 789.16 482.41 547.32 108.12 334.79 0.00 625.15 511.65 730.99 286.26 304.32 523.96 731.02 510.00 195.58 249.13 560.15 478.69 223.89 435.50 81.52 535.34 406.69 236.99 508.32 511.63 386.56 253.08 100.92 578.83 447.07 211.30 336.04 115.62 148.35 60.37 481.09 137.92 520.63 769.32 618.96 229.66 939.65 701.92 632.58 407.29 131.24 576.14 472.87 921.65
719.15 775.44 272.24 844.08 259.36 689.95 344.61 892.25 619.12 772.08 866.14 105.41 150.83 611.02 667.11 672.54 752.31 292.73 582.98 533.02 730.49 611.27 586.69 599.35 267.38 569.63 694.84 507.93 770.39 687.29 669.33 664.81 253.47 609.36 267.25 292.52 953.19 755.87 485.32 729.26 566.19 1026.86 142.74 710.15 637.16 632.49 625.15 0.00 713.98 630.29 734.61 566.56 214.51 526.46 620.98 549.70 687.57 697.28 250.64 486.85 288.89 678.46 774.84 347.91 652.67 757.76 251.49 628.26 725.36 603.34 710.70 842.43 553.44 397.38 558.98 754.05 593.64 319.00 586.47 657.76 988.66 831.76 729.94 1011.16 882.30 740.04 326.13 568.80 704.62 363.53 952.94
1017.08 129.91 783.31 256.97 824.56 140.45 774.60 589.04 532.36 76.73 262.05 816.56 832.16 542.78 61.04 190.92 78.09 718.68 585.97 593.78 179.41 387.06 937.35 531.75 765.05 581.00 154.65 628.87 183.74 496.25 654.05 259.65 852.02 337.59 802.67 807.54 292.77 102.22 301.65 269.75 294.54 316.80 779.23 227.02 619.77 382.69 511.65 713.98 0.00 448.17 431.15 723.72 872.45 468.70 102.13 645.34 653.79 178.43 761.71 709.71 755.87 504.69 180.89 778.11 748.64 91.05 784.27 293.71 605.18 600.66 199.24 495.82 691.62 825.66 567.82 451.02 572.02 812.02 559.45 138.91 343.13 220.61 675.45 555.74 245.89 258.29 773.93 600.71 132.24 789.48 622.90
920.86 454.38 747.02 435.21 455.23 388.27 657.87 296.22 710.28 488.09 637.32 573.71 619.13 661.18 395.01 318.05 450.63 737.11 781.02 778.51 321.53 282.78 962.98 723.54 735.68 767.90 337.73 784.43 346.70 728.90 669.13 340.27 516.16 413.79 712.42 751.09 602.87 452.30 374.27 359.06 321.30 751.92 611.04 280.44 800.10 518.21 730.99 630.29 448.17 0.00 790.41 864.70 682.81 232.23 346.04 788.59 842.08 314.43 740.07 819.14 762.03 659.07 358.09 684.99 824.58 485.66 719.79 485.50 831.33 732.81 248.93 752.34 723.73 812.05 776.77 733.35 773.36 695.29 702.70 309.26 667.60 368.14 848.27 527.49 622.01 273.16 740.80 769.66 418.85 666.31 599.47
585.93 561.06 622.90 679.26 934.27 497.71 657.59 1007.03 274.03 507.88 693.20 726.34 722.24 366.07 492.19 546.87 509.24 620.93 251.55 201.59 545.04 737.31 611.24 337.74 587.27 221.90 531.94 349.42 607.49 153.83 309.05 567.73 908.32 449.61 642.26 612.73 723.92 522.90 549.98 700.90 469.11 724.53 711.91 583.83 268.09 430.39 286.26 734.61 431.15 790.41 0.00 443.95 723.93 780.84 458.08 355.55 222.64 534.38 601.30 409.43 538.02 207.43 560.72 580.50 332.55 508.77 652.31 414.72 174.03 268.06 555.19 185.00 401.53 542.23 175.63 166.87 245.91 658.28 288.72 494.86 774.28 644.34 244.30 942.57 677.04 654.76 579.12 208.52 541.72 588.86 1008.94
439.92 786.13 428.20 812.10 745.58 720.05 393.76 1068.59 312.26 687.99 801.49 473.19 496.70 336.56 712.69 650.09 754.50 411.37 272.14 287.89 544.31 881.94 407.74 232.97 395.09 255.19 670.63 215.82 727.42 370.60 270.85 712.36 731.98 554.32 389.90 329.27 818.17 736.40 643.53 896.12 677.98 979.31 479.05 638.56 244.27 449.90 304.32 566.56 723.72 864.70 443.95 0.00 495.83 898.91 677.82 157.11 318.53 680.56 430.86 80.43 399.60 364.02 773.59 218.65 115.40 673.67 467.61 471.01 269.92 250.75 670.07 624.07 140.97 225.91 285.00 439.61 243.95 431.18 229.31 641.04 944.13 817.30 203.65 1018.18 785.33 810.22 297.16 252.11 738.84 371.65 1085.24
563.50 931.41 114.58 921.83 346.04 829.89 188.96 979.03 517.93 848.93 1022.48 109.10 97.16 557.35 811.41 701.60 892.25 153.77 501.91 551.87 759.55 788.01 451.48 548.53 166.19 534.26 787.96 406.74 782.27 636.75 634.93 693.87 406.97 701.71 152.74 242.08 1067.88 905.94 629.59 887.04 595.25 1119.98 146.43 725.79 557.94 636.18 523.96 214.51 872.45 682.81 723.93 495.83 0.00 710.28 787.66 470.48 706.42 775.03 136.18 502.29 185.91 605.48 835.12 277.18 602.34 834.61 93.99 631.95 718.58 502.15 757.30 834.76 474.22 318.16 548.30 662.58 510.25 183.79 483.49 750.88 1144.63 909.97 599.74 1014.85 1038.64 916.78 246.91 581.19 870.56 224.57 1136.76
1056.72 466.10 755.66 365.37 685.09 430.14 682.18 365.79 751.73 494.44 626.13 631.87 613.12 648.13 411.72 306.12 461.56 777.09 759.02 784.98 408.18 84.81 987.29 732.19 760.17 752.40 314.05 751.33 363.67 778.75 834.10 213.11 624.16 441.13 759.54 801.44 482.03 437.43 365.21 202.80 311.73 660.03 666.05 286.91 767.00 524.10 731.02 526.46 468.70 232.23 780.84 898.91 710.28 0.00 387.91 755.49 905.22 343.87 734.06 819.86 815.35 649.50 369.81 874.37 895.43 499.48 741.16 506.53 950.40 710.81 302.69 838.99 828.54 804.24 782.69 725.09 751.36 719.60 669.60 351.13 641.24 305.30 838.70 535.06 609.97 213.58 813.15 815.58 427.91 759.67 426.48
1011.16 154.46 781.50 223.10 722.43 68.97 802.77 621.71 489.29 168.79 307.30 726.39 752.42 440.65 64.99 88.79 131.33 722.63 580.59 587.72 133.51 338.35 888.70 452.01 662.92 578.54 73.86 593.80 149.41 500.20 581.55 181.80 749.89 256.85 806.62 705.41 332.21 134.89 199.52 299.35 192.41 405.88 699.49 125.75 618.12 303.67 510.00 620.98 102.13 346.04 458.08 677.82 787.66 387.91 0.00 608.15 680.72 76.30 765.66 672.52 665.63 519.01 153.86 707.58 737.00 155.64 788.22 213.97 632.11 532.38 97.11 528.25 612.60 737.04 571.77 461.82 557.60 813.75 522.26 36.78 367.68 213.04 702.38 484.49 304.88 213.45 671.80 604.66 83.64 746.29 588.57
535.26 709.30 422.22 746.77 694.38 670.03 354.54 957.30 187.26 611.16 745.37 444.29 445.50 259.73 584.30 582.21 681.36 357.59 175.14 200.73 609.06 755.60 349.15 156.14 329.87 168.69 640.49 104.96 650.59 311.38 164.45 619.49 697.31 486.40 399.08 257.18 887.05 668.17 601.74 852.10 520.87 889.98 406.96 579.47 87.46 381.98 195.58 549.70 645.34 788.59 355.55 157.11 470.48 755.49 608.15 0.00 323.41 610.67 400.62 76.68 337.71 277.10 659.11 291.95 216.33 596.84 411.16 394.18 315.19 127.10 610.98 483.11 73.05 229.11 179.92 338.24 146.95 391.96 85.89 644.93 839.05 742.73 258.03 971.80 729.21 780.08 223.57 192.89 660.41 298.06 1008.41
489.59 640.00 638.50 804.38 904.65 719.06 600.45 998.30 228.42 672.64 546.76 702.20 717.80 335.55 670.19 687.41 691.82 573.87 204.51 154.55 592.89 861.69 528.55 273.96 540.23 191.16 719.21 308.40 731.62 238.40 172.95 692.11 877.58 540.62 643.90 578.79 817.75 715.95 615.04 872.49 593.49 796.62 664.87 652.62 235.95 520.62 249.13 687.57 653.79 842.08 222.64 318.53 706.42 905.22 680.72 323.41 0.00 701.61 616.90 287.12 525.80 255.72 736.29 525.43 236.21 658.32 639.46 512.00 48.61 212.99 684.13 391.03 317.87 473.93 163.41 298.35 215.17 595.41 254.20 689.62 822.54 819.91 147.96 1044.95 562.92 813.16 545.18 130.52 710.82 541.82 1126.23
1043.49 175.24 761.00 146.80 690.82 87.41 811.98 580.03 539.44 187.23 326.57 802.69 828.72 466.95 125.27 115.09 149.77 696.37 597.59 595.08 136.25 286.08 922.77 528.31 722.91 595.54 29.82 625.69 94.64 543.62 657.85 156.84 673.59 309.18 780.36 717.42 307.64 137.87 260.65 255.31 179.78 482.18 775.79 97.01 608.28 363.33 560.15 697.28 178.43 314.43 534.38 680.56 775.03 343.87 76.30 610.67 701.61 0.00 739.40 655.14 636.89 517.55 147.49 710.32 737.15 201.55 761.96 290.27 653.00 549.38 65.50 530.99 646.67 739.78 597.68 533.73 589.93 801.12 590.59 39.52 388.46 147.98 706.75 487.23 310.41 169.41 690.32 630.57 104.42 764.81 533.80
492.86 847.60 21.60 886.20 369.82 786.40 118.32 948.48 472.66 805.64 942.98 166.36 120.94 458.15 700.67 773.26 808.22 43.03 471.69 501.10 800.43 695.03 360.40 450.27 139.88 488.99 769.22 361.47 820.33 591.48 565.07 782.77 369.89 675.68 40.96 143.44 1022.90 828.03 603.28 860.73 684.15 1026.33 165.09 735.65 480.97 630.90 478.69 250.64 761.71 740.07 601.30 430.86 136.18 734.06 765.66 400.62 616.90 739.40 0.00 431.65 223.97 543.56 820.52 235.75 509.36 791.32 51.01 650.37 665.51 456.88 757.05 764.90 366.99 248.30 519.27 551.84 464.98 92.71 443.20 778.92 1060.82 887.38 540.16 1072.11 940.56 823.80 177.05 486.38 776.78 113.83 1151.23
458.58 760.76 428.99 769.13 730.45 715.43 313.33 1001.68 231.83 675.53 788.79 502.75 481.57 324.10 648.67 595.74 708.94 416.05 191.71 224.14 624.74 801.51 354.64 220.51 377.79 187.53 630.50 173.52 674.19 364.65 241.13 631.93 716.85 508.76 390.69 315.64 898.60 732.54 563.10 820.55 597.55 906.55 465.42 558.13 164.14 404.34 223.89 486.85 709.71 819.14 409.43 80.43 502.29 819.86 672.52 76.68 287.12 655.14 431.65 0.00 384.47 296.36 716.44 264.93 165.82 661.21 464.30 458.55 238.51 170.32 589.64 559.79 95.41 210.78 233.80 371.95 163.52 350.75 150.26 647.10 892.93 757.60 254.07 950.46 772.63 770.09 282.03 259.92 712.66 356.52 1072.78
585.21 745.50 204.60 767.75 396.25 707.53 210.67 885.57 414.79 746.72 836.57 188.32 233.74 446.20 711.28 577.49 744.16 180.94 387.00 388.35 576.46 761.38 485.75 367.83 86.02 380.38 612.25 326.57 596.36 513.77 495.81 613.68 453.22 673.46 207.51 80.53 915.13 741.26 549.42 806.87 630.29 1071.51 210.66 539.88 394.98 577.04 435.50 288.89 755.87 762.03 538.02 399.60 185.91 815.35 665.63 337.71 525.80 636.89 223.97 384.47 0.00 489.21 649.21 211.65 515.00 732.40 239.88 529.74 574.41 338.79 571.39 701.99 329.75 173.69 362.39 564.80 379.34 228.58 297.58 628.85 958.72 732.83 540.69 932.21 852.73 746.45 114.14 395.28 690.01 165.31 1035.52
586.40 548.02 540.90 548.66 816.99 549.70 488.27 857.76 102.23 449.88 623.74 601.26 616.86 158.64 484.05 444.12 522.37 536.14 155.84 145.44 465.10 605.97 498.17 169.92 439.29 108.83 530.48 198.74 564.01 169.65 184.60 436.39 756.06 359.99 502.60 463.02 725.77 500.41 400.71 643.34 337.77 714.97 563.93 481.73 189.64 394.74 81.52 678.46 504.69 659.07 207.43 364.02 605.48 649.50 519.01 277.10 255.72 517.55 543.56 296.36 489.21 0.00 593.09 467.43 318.51 435.56 580.31 305.04 304.33 154.99 513.24 392.43 288.46 417.56 155.10 75.59 132.84 450.85 191.63 493.40 696.56 643.85 269.14 874.06 633.17 557.44 488.81 181.22 551.66 502.96 919.27
1049.27 96.29 842.12 118.54 752.12 128.03 859.88 618.51 556.05 188.70 320.39 837.53 882.95 507.69 119.85 188.55 148.11 777.49 609.66 630.80 229.28 315.88 961.04 547.30 735.23 604.69 128.79 652.56 52.85 555.06 688.96 156.70 713.60 384.72 842.89 729.74 274.04 131.69 336.19 276.64 255.32 465.58 830.89 158.31 643.46 435.07 535.34 774.84 180.89 358.09 560.72 773.59 835.12 369.81 153.86 659.11 736.29 147.49 820.52 716.44 649.21 593.09 0.00 803.35 772.33 203.02 843.08 345.37 734.75 610.68 126.80 594.18 707.97 819.14 626.63 528.31 595.71 876.66 573.22 132.55 309.51 83.62 765.00 454.12 304.23 202.94 763.35 659.52 129.61 814.52 460.91
545.57 828.16 217.30 857.12 567.24 749.81 261.26 905.90 413.33 701.38 901.26 318.23 319.44 463.38 756.55 735.51 782.52 192.72 360.65 395.21 719.25 824.14 476.64 403.23 176.44 358.60 707.88 304.64 803.96 534.65 404.87 786.24 571.25 596.59 215.69 131.12 985.76 758.39 606.75 864.20 687.62 1075.49 280.90 751.53 379.41 492.17 406.69 347.91 778.11 684.99 580.50 218.65 277.18 874.37 707.58 291.95 525.43 710.32 235.75 264.93 211.65 467.43 803.35 0.00 333.84 715.70 258.31 581.87 488.57 312.44 731.13 722.32 320.64 164.58 404.87 543.02 352.99 258.15 353.65 670.80 1041.38 847.06 422.09 1118.51 914.75 847.47 134.47 430.99 791.22 208.96 1196.10
345.22 811.65 487.76 867.17 837.70 745.11 422.64 1043.61 257.70 727.18 686.09 588.59 612.10 381.21 724.68 715.03 762.41 526.56 233.64 242.14 659.71 883.42 292.34 291.36 510.28 217.21 749.79 308.00 719.48 352.79 155.45 713.84 847.38 586.03 500.00 444.67 933.57 783.30 663.33 913.31 615.22 903.63 594.45 677.42 128.87 544.41 236.99 652.67 748.64 824.58 332.55 115.40 602.34 895.43 737.00 216.33 236.21 737.15 509.36 165.82 515.00 318.51 772.33 333.84 0.00 712.86 535.16 529.40 284.82 225.05 708.93 517.55 237.55 341.31 221.33 358.48 205.45 460.06 226.27 756.44 880.46 855.95 88.25 1069.75 669.93 827.41 412.56 234.30 754.59 487.05 1143.63
1011.82 112.46 812.92 263.88 818.07 114.14 816.69 558.15 507.07 14.32 188.18 725.51 741.11 521.85 90.65 242.31 95.46 748.29 579.70 576.85 190.05 455.95 877.39 440.70 783.38 544.39 212.91 582.49 216.23 491.41 563.00 286.37 875.14 367.20 812.69 747.53 290.21 71.33 355.16 360.80 297.46 407.85 688.18 212.57 583.99 292.36 508.32 757.76 91.05 485.66 508.77 673.67 834.61 499.48 155.64 596.84 658.32 201.55 791.32 661.21 732.40 435.56 203.02 715.70 712.86 0.00 802.26 202.66 614.05 531.49 236.73 404.77 601.29 734.61 590.66 359.97 562.84 854.11 510.95 176.40 325.68 208.58 670.19 579.08 204.34 349.34 781.14 569.05 122.58 739.20 617.76
529.61 870.16 47.40 908.76 376.92 808.96 155.07 959.02 505.60 816.58 965.54 146.08 128.04 470.09 723.23 795.59 830.78 65.59 489.58 523.66 816.34 720.83 382.36 470.66 153.86 521.93 791.78 394.41 836.24 579.16 575.61 787.86 318.88 712.43 77.71 163.83 1045.46 850.59 617.26 874.71 689.24 1077.34 114.08 758.21 498.62 644.88 511.63 251.49 784.27 719.79 652.31 467.61 93.99 741.16 788.22 411.16 639.46 761.96 51.01 464.30 239.88 580.31 843.08 258.31 535.16 802.26 0.00 599.60 688.07 489.82 789.72 775.44 403.74 253.52 541.83 574.40 497.92 129.46 476.14 801.48 1083.38 909.94 505.75 1051.83 963.12 849.60 187.59 508.94 799.34 136.39 1167.64
813.74 315.12 647.00 437.07 787.33 282.94 614.03 760.81 373.73 216.98 390.84 522.85 538.45 319.19 278.96 257.23 298.12 607.34 377.04 374.19 283.46 463.00 674.73 238.04 580.72 374.99 287.73 379.83 334.34 306.50 450.88 293.42 848.26 194.12 610.03 544.87 492.87 273.99 318.16 494.29 256.28 610.51 485.52 219.62 405.69 89.70 386.56 628.26 293.71 485.50 414.72 471.01 631.95 506.53 213.97 394.18 512.00 290.27 650.37 458.55 529.74 305.04 345.37 581.87 529.40 202.66 599.60 0.00 496.29 328.83 236.57 563.14 398.63 531.95 400.15 247.85 360.18 651.45 308.29 250.75 528.34 404.53 535.30 611.95 407.00 427.32 578.48 395.24 267.83 536.54 614.23
538.20 688.61 667.50 799.80 883.19 671.74 551.84 1046.91 273.79 628.37 595.37 714.36 720.08 384.16 625.00 702.94 683.27 622.48 242.01 203.16 597.16 910.30 532.26 322.57 552.39 237.83 682.82 311.84 735.57 189.79 162.20 740.72 924.25 576.43 629.20 554.15 866.36 678.90 646.43 874.93 642.10 798.50 677.03 691.96 284.56 472.01 253.08 725.36 605.18 831.33 174.03 269.92 718.58 950.40 632.11 315.19 48.61 653.00 665.51 238.51 574.41 304.33 734.75 488.57 284.82 614.05 688.07 496.29 0.00 239.59 718.50 355.80 333.92 449.29 212.02 254.08 213.82 589.26 280.80 668.89 871.15 800.98 196.57 1071.03 611.53 822.41 520.54 179.13 701.11 590.43 1110.52
494.11 643.95 454.54 696.18 735.04 574.06 481.64 834.49 100.89 545.81 618.47 497.93 513.53 194.38 539.62 489.98 626.34 432.81 48.21 82.77 530.13 695.75 405.88 90.79 335.96 46.16 524.74 95.41 568.43 223.28 195.19 526.17 709.12 441.77 483.91 375.37 821.70 602.82 527.26 741.60 492.76 763.05 460.60 452.37 111.78 359.35 100.92 603.34 600.66 732.81 268.06 250.75 502.15 710.81 532.38 127.10 212.99 549.38 456.88 170.32 338.79 154.99 610.68 312.44 225.05 531.49 489.82 328.83 239.59 0.00 483.88 427.77 157.88 313.94 92.43 230.58 40.55 454.98 41.21 541.34 751.56 651.84 206.47 844.70 602.31 664.33 350.67 118.55 589.69 425.16 943.06
977.99 208.12 754.39 212.30 625.32 139.34 782.06 545.15 560.25 239.16 388.39 759.42 775.02 420.98 146.08 69.12 201.70 724.13 532.09 529.58 152.78 241.24 857.27 474.61 657.41 530.04 88.80 574.00 97.77 543.07 665.89 91.34 686.25 285.21 716.09 651.92 373.14 203.37 225.38 257.72 175.47 502.99 722.09 31.51 595.66 326.27 578.83 710.70 199.24 248.93 555.19 670.07 757.30 302.69 97.11 610.98 684.13 65.50 757.05 589.64 571.39 513.24 126.80 731.13 708.93 236.73 789.72 236.57 718.50 483.88 0.00 551.80 581.17 737.23 538.79 484.42 524.43 767.84 525.09 60.33 421.34 167.96 690.35 423.84 373.08 228.39 685.53 565.36 169.92 736.70 536.93
770.93 517.23 786.50 668.65 1058.66 518.91 718.82 962.92 450.04 419.09 573.18 808.57 809.78 532.61 495.42 536.59 500.23 721.87 379.56 351.61 430.81 793.04 765.17 487.76 694.15 388.22 528.55 469.34 621.00 338.83 487.92 625.88 1061.59 583.41 782.86 621.46 694.98 476.10 675.98 754.04 595.11 667.79 771.24 552.08 395.65 478.99 447.07 842.43 495.82 752.34 185.00 624.07 834.76 838.99 528.25 483.11 391.03 530.99 764.90 559.79 701.99 392.43 594.18 722.32 517.55 404.77 775.44 563.14 355.80 427.77 551.80 0.00 556.16 659.10 360.63 351.87 407.75 756.24 468.98 491.47 730.45 613.35 429.30 904.68 557.02 668.14 587.85 387.39 527.35 662.34 1022.53
493.50 665.35 364.33 673.72 675.73 675.89 348.72 992.37 205.27 615.61 776.35 448.03 426.85 252.82 657.35 572.24 613.53 361.33 183.81 216.24 536.01 785.36 276.10 229.19 333.61 179.63 662.33 94.08 678.94 324.09 237.50 641.37 662.13 413.35 326.03 260.92 828.21 637.66 537.39 794.84 542.75 898.65 410.70 609.85 160.51 308.93 211.30 553.44 691.62 723.73 401.53 140.97 474.22 828.54 612.60 73.05 317.87 646.67 366.99 95.41 329.75 288.46 707.97 320.64 237.55 601.29 403.74 398.63 333.92 157.88 581.17 556.16 0.00 156.06 225.90 359.65 155.62 364.88 158.94 632.74 878.57 749.13 325.80 1002.18 760.19 740.52 227.31 252.02 666.46 301.80 1012.86
576.76 821.41 269.90 700.60 519.67 779.27 202.22 842.68 330.01 748.93 922.79 291.97 270.79 337.73 773.63 689.59 769.59 205.27 319.79 369.75 692.07 719.43 312.06 293.91 177.55 335.69 731.75 218.82 770.05 448.83 393.56 723.02 506.07 569.41 266.26 104.86 978.77 793.72 543.53 800.98 624.40 1025.68 254.64 713.57 305.57 464.99 336.04 397.38 825.66 812.05 542.23 225.91 318.16 804.24 737.04 229.11 473.93 739.78 248.30 210.78 173.69 417.56 819.14 164.58 341.31 734.61 253.52 531.95 449.29 313.94 737.23 659.10 156.06 0.00 381.96 484.39 311.68 239.64 300.55 700.26 1034.63 795.79 429.56 1105.90 916.25 848.20 71.25 405.53 799.78 145.74 1118.67
523.84 653.71 530.22 703.76 758.64 574.17 481.96 885.89 124.39 587.62 710.17 550.71 586.44 206.96 506.78 558.82 614.33 476.24 75.92 25.96 530.24 733.73 435.61 162.11 411.64 46.27 595.24 173.79 598.11 151.38 133.42 591.49 732.69 383.13 533.75 437.10 829.01 634.14 504.30 761.75 492.87 760.09 536.28 524.03 92.46 362.28 115.62 558.98 567.82 776.77 175.63 285.00 548.30 782.69 571.77 179.92 163.41 597.68 519.27 233.80 362.39 155.10 626.63 404.87 221.33 590.66 541.83 400.15 212.02 92.43 538.79 360.63 225.90 381.96 0.00 230.69 70.28 482.69 113.09 558.16 659.13 706.75 206.58 910.27 694.74 710.30 403.49 32.89 582.89 413.23 1014.38
661.99 472.43 573.44 617.37 835.46 474.11 563.86 849.40 169.06 374.29 548.15 668.09 672.78 234.23 408.46 505.08 446.78 508.81 222.67 221.03 531.31 681.56 573.76 211.56 506.12 184.42 530.91 265.57 569.72 131.44 203.03 511.98 829.89 435.58 578.19 518.39 650.18 424.82 392.35 649.80 413.36 740.15 630.76 467.47 256.47 337.55 148.35 754.05 451.02 733.35 166.87 439.61 662.58 725.09 461.82 338.24 298.35 533.73 551.84 371.95 564.80 75.59 528.31 543.02 358.48 359.97 574.40 247.85 254.08 230.58 484.42 351.87 359.65 484.39 230.69 0.00 208.43 526.44 267.22 494.21 620.97 568.55 329.16 859.80 557.58 601.09 552.00 249.93 476.07 578.55 862.08
453.56 619.96 462.64 681.50 737.50 551.91 472.38 838.16 68.31 561.06 659.02 506.03 521.63 175.76 577.06 527.62 585.79 440.91 28.19 60.62 507.98 711.47 365.33 122.14 344.06 24.01 565.29 103.51 542.86 201.13 175.17 566.72 710.43 423.15 481.65 404.13 797.71 600.39 486.71 744.16 470.61 743.03 468.70 492.92 76.58 395.16 60.37 593.64 572.02 773.36 245.91 243.95 510.25 751.36 557.60 146.95 215.17 589.93 464.98 163.52 379.34 132.84 595.71 352.99 205.45 562.84 497.92 360.18 213.82 40.55 524.43 407.75 155.62 311.68 70.28 208.43 0.00 434.96 81.76 568.23 729.41 656.12 184.32 885.25 642.86 690.28 370.52 96.40 549.14 445.01 974.41
411.96 940.31 90.05 940.24 439.99 855.98 37.42 939.82 501.80 868.43 906.91 213.59 213.65 441.90 793.38 727.69 890.11 135.74 406.77 456.73 785.64 763.48 267.69 454.88 154.26 458.97 814.05 394.81 824.94 611.00 553.75 719.96 448.34 670.60 51.75 148.05 1080.54 914.24 617.66 875.11 621.34 1119.04 176.26 765.30 479.42 645.28 481.09 319.00 812.02 695.29 658.28 431.18 183.79 719.60 813.75 391.96 595.41 801.12 92.71 350.75 228.58 450.85 876.66 258.15 460.06 854.11 129.46 651.45 589.26 454.98 767.84 756.24 364.88 239.64 482.69 526.44 434.96 0.00 476.54 776.97 1141.82 935.80 447.45 1119.34 923.07 892.25 168.39 492.51 869.49 114.91 1146.08
512.40 623.41 440.86 691.76 693.83 584.14 440.43 875.70 117.21 525.27 659.48 484.25 473.35 173.84 498.41 496.32 605.96 419.13 89.42 119.41 545.22 736.96 435.04 70.25 322.28 82.80 565.95 81.73 564.70 255.91 219.15 567.38 688.58 421.23 479.16 334.16 801.16 582.28 545.27 782.81 529.40 804.26 446.92 493.58 97.40 318.14 137.92 586.47 559.45 702.70 288.72 229.31 483.49 669.60 522.26 85.89 254.20 590.59 443.20 150.26 297.58 191.63 573.22 353.65 226.27 510.95 476.14 308.29 280.80 41.21 525.09 468.98 158.94 300.55 113.09 267.22 81.76 476.54 0.00 559.04 772.22 656.84 243.11 885.91 643.32 705.54 309.46 145.98 574.52 383.95 922.52
1021.79 191.24 800.52 186.32 685.65 79.01 814.39 605.48 499.92 178.83 328.06 763.17 789.20 427.43 85.75 75.57 141.37 735.89 589.55 584.12 96.73 301.57 908.84 488.79 699.70 580.70 37.08 586.17 133.16 504.10 618.33 151.67 713.11 285.03 776.42 709.38 317.17 165.50 236.30 262.57 155.63 442.66 736.27 88.97 628.75 323.81 520.63 657.76 138.91 309.26 494.86 641.04 750.88 351.13 36.78 644.93 689.62 39.52 778.92 647.10 628.85 493.40 132.55 670.80 756.44 176.40 801.48 250.75 668.89 541.34 60.33 491.47 632.74 700.26 558.16 494.21 568.23 776.97 559.04 0.00 404.46 176.26 682.60 447.71 317.87 176.67 697.58 591.05 120.42 771.75 572.32
1182.97 213.22 1082.42 336.05 1031.33 327.40 1117.73 717.92 783.52 340.00 293.23 1051.19 1066.79 775.55 360.15 453.00 265.04 1017.79 735.05 685.09 481.26 556.43 1081.67 766.38 1024.79 705.40 379.94 832.92 362.36 752.41 792.55 466.21 1023.11 624.53 1101.78 1039.25 310.59 289.17 567.20 513.56 559.35 156.07 1013.86 452.31 751.59 569.64 769.32 988.66 343.13 667.60 774.28 944.13 1144.63 641.24 367.68 839.05 822.54 388.46 1060.82 892.93 958.72 696.56 309.51 1041.38 880.46 325.68 1083.38 528.34 871.15 751.56 421.34 730.45 878.57 1034.63 659.13 620.97 729.41 1141.82 772.22 404.46 0.00 351.11 865.71 721.61 277.07 427.66 1039.48 692.02 284.04 1064.88 754.12
1109.68 179.91 908.98 95.19 793.28 211.65 943.50 608.11 639.67 194.26 394.14 921.15 900.21 588.94 203.47 237.08 231.73 844.35 684.31 697.54 272.99 291.50 1021.45 630.92 818.85 680.13 177.80 736.18 136.47 638.68 771.58 216.10 797.22 444.12 884.05 813.36 234.73 215.31 384.39 248.63 314.72 447.38 890.05 199.47 727.08 494.23 618.96 831.76 220.61 368.14 644.34 817.30 909.97 305.30 213.04 742.73 819.91 147.98 887.38 757.60 732.83 643.85 83.62 847.06 855.95 208.58 909.94 404.53 800.98 651.84 167.96 613.35 749.13 795.79 706.75 568.55 656.12 935.80 656.84 176.26 351.11 0.00 840.44 370.50 387.85 162.73 838.30 733.32 179.34 898.14 409.18
341.63 782.65 531.00 817.80 873.80 688.21 484.87 1022.48 239.54 684.51 694.72 651.83 633.79 360.08 713.36 633.32 750.57 571.34 212.51 196.92 644.28 795.17 380.59 297.26 528.38 160.31 719.68 287.83 712.15 289.78 213.71 625.59 824.63 589.71 499.20 515.21 960.40 741.52 607.84 858.20 526.97 898.49 619.83 658.84 174.89 561.25 229.66 729.94 675.45 848.27 244.30 203.65 599.74 838.70 702.38 258.03 147.96 706.75 540.16 254.07 540.69 269.14 765.00 422.09 88.25 670.19 505.75 535.30 196.57 206.47 690.35 429.30 325.80 429.56 206.58 329.16 184.32 447.45 243.11 682.60 865.71 840.44 0.00 1051.17 710.88 826.58 481.60 232.70 733.46 556.09 1149.53
1338.81 528.29 1079.06 406.20 982.72 517.63 1142.88 643.42 945.59 564.76 697.42 905.75 951.17 781.80 533.46 429.94 511.62 1084.95 892.91 890.40 473.87 503.89 1250.58 849.99 1018.23 890.86 464.70 934.82 506.97 881.24 1026.71 458.54 1043.65 665.69 1067.59 1012.74 605.23 508.72 589.71 332.26 536.29 758.39 943.08 392.33 956.48 693.25 939.65 1011.16 555.74 527.49 942.57 1018.18 1014.85 535.06 484.49 971.80 1044.95 487.23 1072.11 950.46 932.21 874.06 454.12 1118.51 1069.75 579.08 1051.83 611.95 1071.03 844.70 423.84 904.68 1002.18 1105.90 910.27 859.80 885.25 1119.34 885.91 447.71 721.61 370.50 1051.17 0.00 681.26 418.16 1046.35 926.18 457.47 1097.52 132.82
1015.15 228.32 962.16 355.38 942.79 238.86 960.49 659.36 703.20 216.04 16.16 929.85 945.45 687.01 239.89 385.75 176.50 897.53 650.52 670.33 364.63 568.91 962.27 645.04 934.16 648.47 337.65 697.72 317.44 675.10 628.47 399.33 984.00 516.44 974.82 933.26 391.18 172.54 504.40 515.64 473.50 233.70 892.52 380.28 675.87 481.10 701.92 882.30 245.89 622.01 677.04 785.33 1038.64 609.97 304.88 729.21 562.92 310.41 940.56 772.63 852.73 633.17 304.23 914.75 669.93 204.34 963.12 407.00 611.53 602.31 373.08 557.02 760.19 916.25 694.74 557.58 642.86 923.07 643.32 317.87 277.07 387.85 710.88 681.26 0.00 467.53 952.78 693.44 223.79 943.54 723.62
1143.84 299.23 802.20 162.05 728.39 255.68 895.76 546.15 653.29 335.02 467.04 845.45 826.70 574.56 262.04 249.57 297.89 865.78 706.90 693.88 265.91 128.77 1016.62 644.54 804.13 666.27 139.59 733.30 150.09 673.28 671.96 285.76 789.32 327.17 840.50 826.98 397.46 294.99 343.35 85.90 332.30 514.24 879.63 211.96 740.70 431.59 632.58 740.04 258.29 273.16 654.76 810.22 916.78 213.58 213.45 780.08 813.16 169.41 823.80 770.09 746.45 557.44 202.94 847.47 827.41 349.34 849.60 427.32 822.41 664.33 228.39 668.14 740.52 848.20 710.30 601.09 690.28 892.25 705.54 176.67 427.66 162.73 826.58 418.16 467.53 0.00 800.09 729.66 243.74 874.58 550.98
505.51 826.26 198.65 771.85 470.81 740.77 130.97 771.43 401.26 795.46 950.71 220.72 221.93 407.67 736.79 659.50 803.13 134.02 391.04 424.30 690.60 732.08 383.31 340.44 106.30 392.26 660.50 290.07 710.50 520.08 388.02 651.77 473.74 596.32 195.01 33.61 966.10 806.69 472.28 729.73 553.15 1077.68 183.39 654.02 311.03 536.24 407.29 326.13 773.93 740.80 579.12 297.16 246.91 813.15 671.80 223.57 545.18 690.32 177.05 282.03 114.14 488.81 763.35 134.47 412.56 781.14 187.59 578.48 520.54 350.67 685.53 587.85 227.31 71.25 403.49 552.00 370.52 168.39 309.46 697.58 1039.48 838.30 481.60 1046.35 952.78 800.09 0.00 416.46 755.44 74.49 1149.66
549.96 642.50 507.98 729.88 785.88 600.29 500.54 867.78 134.21 554.73 677.28 583.43 599.03 216.78 539.67 568.64 590.68 443.35 85.74 35.78 525.86 759.85 449.34 157.20 421.46 72.39 606.22 199.91 613.73 118.49 100.53 607.65 758.81 410.10 527.34 450.07 805.36 611.74 484.52 741.97 518.99 727.20 546.10 533.85 105.43 395.17 131.24 568.80 600.71 769.66 208.52 252.11 581.19 815.58 604.66 192.89 130.52 630.57 486.38 259.92 395.28 181.22 659.52 430.99 234.30 569.05 508.94 395.24 179.13 118.55 565.36 387.39 252.02 405.53 32.89 249.93 96.40 492.51 145.98 591.05 692.02 733.32 232.70 926.18 693.44 729.66 416.46 0.00 615.78 423.05 1009.47
1002.70 70.82 798.38 170.01 764.09 60.16 835.83 538.07 572.93 108.26 239.95 790.68 806.28 520.82 76.11 168.96 54.15 733.75 577.33 608.85 217.15 372.51 914.47 505.87 740.75 573.15 113.86 647.66 93.65 511.32 665.19 260.03 778.01 340.49 817.74 770.54 248.57 51.25 283.16 329.64 275.31 395.38 753.35 186.23 625.72 357.53 576.14 704.62 132.24 418.85 541.72 738.84 870.56 427.91 83.64 660.41 710.82 104.42 776.78 712.66 690.01 551.66 129.61 791.22 754.59 122.58 799.34 267.83 701.11 589.69 169.92 527.35 666.46 799.78 582.89 476.07 549.14 869.49 574.52 120.42 284.04 179.34 733.46 457.47 223.79 243.74 755.44 615.78 0.00 804.37 532.81
452.03 851.66 135.43 846.34 483.65 814.17 77.49 845.92 452.16 753.52 927.38 263.56 234.77 344.32 728.44 696.18 834.66 70.80 437.23 387.27 741.77 794.97 382.60 380.82 119.61 423.88 734.99 360.16 761.67 541.54 462.51 726.26 455.27 591.71 120.52 84.78 1002.95 810.53 546.77 804.22 627.64 1032.27 231.13 705.19 385.52 583.26 472.87 363.53 789.48 666.31 588.86 371.65 224.57 759.67 746.29 298.06 541.82 764.81 113.83 356.52 165.31 502.96 814.52 208.96 487.05 739.20 136.39 536.54 590.43 425.16 736.70 662.34 301.80 145.74 413.23 578.55 445.01 114.91 383.95 771.75 1064.88 898.14 556.09 1097.52 943.54 874.58 74.49 423.05 804.37 0.00 1150.77
1427.97 557.20 1129.63 418.07 1054.70 550.33 1108.66 569.58 942.36 603.44 739.78 1038.57 1039.60 894.00 580.76 562.76 586.96 1194.26 991.27 988.42 606.69 456.20 1288.96 852.27 1121.54 989.22 535.24 994.06 439.16 920.73 1065.11 591.36 1050.64 798.51 1167.93 1116.05 643.91 584.06 722.53 465.08 669.11 770.26 1075.90 525.15 1019.92 703.93 921.65 952.94 622.90 599.47 1008.94 1085.24 1136.76 426.48 588.57 1008.41 1126.23 533.80 1151.23 1072.78 1035.52 919.27 460.91 1196.10 1143.63 617.76 1167.64 614.23 1110.52 943.06 536.93 1022.53 1012.86 1118.67 1014.38 862.08 974.41 1146.08 922.52 572.32 754.12 409.18 1149.53 132.82 723.62 550.98 1149.66 1009.47 532.81 1150.77 0.00
DEMAND_SECTION
1 0
2 74
3 77
4 84
5 81
6 88
7 65
8 83
9 89
10 92
11 80
12 88
13 71
14 99
15 100
16 50
17 58
18 93
19 86
20 75
21 60
22 97
23 71
24 57
25 51
26 85
27 94
28 87
29 96
30 54
31 54
32 77
33 95
34 78
35 61
36 78
37 62
38 68
39 74
40 1
41 2
42 8
43 9
44 3
45 2
46 7
47 7
48 3
49 9
50 9
51 9
52 7
53 4
54 5
55 2
56 6
57 1
58 6
59 10
60 9
61 3
62 1
63 10
64 3
65 6
66 3
67 10
68 2
69 5
70 6
71 5
72 1
73 6
74 7
75 4
76 4
77 6
78 1
79 6
80 7
81 5
82 10
83 1
84 6
85 5
86 4
87 1
88 3
89 4
90 6
91 9
DEPOT_SECTION
1
-1
EOF
