NAME: LDG90_3241_snow_90_0165
COMMENT: CVRP with travel times.  rootPos=3,custPos=2,demandType=4,avgRouteSizeIndex=1,weather=snow,lambda_cluster=1,lambda_random=4, T1=300,T2=700,beta=1, alpha(i,j) ~ U(0.8,1.2)
TYPE: CVRP
DIMENSION: 91
EDGE_WEIGHT_TYPE: EXPLICIT
EDGE_WEIGHT_FORMAT: FULL_MATRIX
CAPACITY: 195
NODE_COORD_SECTION
1 0 0
2 706 430
3 516 960
4 595 916
5 613 645
6 361 246
7 801 616
8 316 309
9 344 335
10 718 933
11 513 864
12 722 907
13 544 941
14 491 723
15 415 195
16 801 546
17 558 652
18 748 915
19 805 759
20 598 769
21 643 875
22 766 537
23 851 921
24 788 544
25 686 927
26 723 729
27 577 666
28 707 897
29 608 444
30 380 184
31 390 99
32 617 724
33 800 477
34 813 730
35 434 181
36 560 305
37 654 328
38 825 459
39 788 904
40 661 859
41 478 580
42 813 515
43 509 208
44 403 555
45 661 635
46 805 502
47 347 278
48 676 861
49 489 273
50 329 150
51 603 526
52 393 78
53 594 904
54 543 959
55 659 825
56 589 610
57 827 573
58 442 202
59 556 373
60 604 620
61 384 344
62 286 181
63 829 580
64 362 207
65 600 683
66 590 783
67 709 437
68 751 636
69 752 837
70 587 499
71 658 230
72 799 496
73 684 774
74 708 845
75 786 515
76 792 943
77 773 861
78 424 238
79 846 547
80 495 770
81 180 442
82 690 824
83 268 114
84 355 318
85 615 455
86 410 415
87 469 861
88 639 620
89 438 144
90 360 0
91 412 221
EDGE_WEIGHT_SECTION
0.00 1219.06 1592.17 1716.41 1311.67 746.11 1507.90 787.30 853.05 1665.14 1591.65 1691.11 1670.78 1421.37 718.10 1346.75 1277.44 1683.27 1552.11 1472.54 1613.35 1354.31 1754.97 1341.82 1609.92 1403.90 1317.71 1701.02 1148.73 776.83 843.10 1400.02 1333.18 1587.25 738.95 987.15 1173.66 1351.91 1707.50 1557.62 1283.79 1329.04 874.28 1161.72 1217.69 1264.49 828.50 1595.63 855.84 563.59 1243.07 843.89 1687.31 1651.52 1584.69 1332.11 1423.41 781.17 1079.23 1301.21 891.77 692.44 1423.88 747.67 1370.35 1490.62 1241.73 1473.54 1613.75 1140.86 1082.10 1287.25 1466.86 1556.79 1301.49 1758.62 1601.74 759.23 1432.07 1500.05 838.44 1543.12 608.33 861.46 1177.94 1028.44 1499.02 1266.93 740.03 768.71 715.20
1219.06 0.00 812.68 774.98 455.90 618.16 373.47 577.99 554.08 720.86 716.28 750.90 828.94 563.91 500.96 264.54 419.98 749.89 547.12 518.22 668.79 279.23 786.01 224.28 754.85 434.94 379.71 749.86 137.39 583.16 657.62 518.30 187.93 569.68 527.52 231.91 289.22 256.98 745.40 610.56 364.52 260.61 434.49 469.26 437.68 256.28 535.77 648.57 363.22 655.47 245.39 671.12 740.25 814.63 646.69 435.42 305.87 525.30 254.10 404.66 496.30 673.39 319.02 591.68 432.35 579.67 22.67 356.00 655.07 244.31 437.20 240.37 592.67 660.95 219.28 820.67 668.36 538.49 347.79 642.59 819.57 596.92 785.45 503.83 166.60 498.24 763.83 411.11 568.74 829.69 510.60
1592.17 812.68 0.00 164.66 470.55 1000.11 666.43 1078.79 1026.27 341.98 196.77 387.66 100.46 344.24 1104.66 750.23 473.24 385.22 601.21 356.58 295.64 746.93 564.47 722.50 283.45 516.63 432.97 355.16 731.15 1139.35 1249.05 410.09 793.92 602.98 1133.50 981.24 942.12 826.58 427.98 282.53 606.97 773.43 1080.29 704.37 553.55 741.97 1034.58 295.07 966.92 1187.09 672.87 1222.88 152.84 59.35 333.72 551.41 701.25 1087.65 889.16 528.05 1024.17 1142.49 688.10 1100.24 380.33 295.13 790.01 590.78 426.61 624.23 1048.72 741.48 397.72 352.85 704.97 386.58 438.62 1005.86 744.71 360.38 1143.97 354.65 1275.42 1004.63 707.38 864.50 247.20 536.90 1185.10 1378.85 1049.89
1716.41 774.98 164.66 0.00 490.59 1044.37 565.42 1048.06 1007.14 190.32 198.83 236.00 142.31 295.04 1044.35 638.07 438.97 233.56 446.06 256.76 136.92 645.38 424.36 590.43 131.79 351.97 438.77 222.89 741.32 1111.72 1201.01 329.28 711.20 493.14 1102.71 944.03 842.80 720.01 263.32 172.69 612.77 663.59 1100.33 700.46 515.42 642.51 1076.66 172.03 906.61 1152.82 638.60 1235.19 43.00 183.42 223.88 503.25 591.41 1068.69 851.95 540.20 989.90 1186.15 578.26 1095.18 400.37 314.35 752.31 480.94 261.95 644.27 990.78 665.27 287.88 229.47 646.01 284.12 309.28 1025.90 634.87 339.44 1134.11 189.99 1221.73 973.90 737.24 843.56 291.46 485.29 1155.80 1313.82 1014.10
1311.67 455.90 470.55 490.59 0.00 736.66 376.32 625.67 620.12 451.49 423.52 499.69 525.12 237.72 714.98 358.04 93.79 536.10 346.71 233.83 389.50 289.64 608.74 344.59 486.21 280.19 84.88 517.13 318.51 747.42 851.39 176.17 421.46 427.10 725.59 510.69 529.48 392.54 558.16 360.44 258.88 399.15 609.74 373.24 93.98 379.46 654.27 398.45 637.37 801.41 256.80 846.37 487.90 484.01 328.89 80.86 358.65 676.13 418.61 63.79 608.10 804.08 371.80 730.88 90.22 295.28 441.92 216.50 435.73 224.14 648.63 391.76 294.26 394.15 363.78 579.08 454.57 605.77 423.63 316.40 795.88 330.12 897.98 551.51 307.09 540.39 422.96 66.35 743.99 971.72 649.80
746.11 618.16 1000.11 1044.37 736.66 0.00 934.24 126.13 168.43 1132.82 845.54 1122.15 958.20 865.13 174.49 822.08 780.81 1136.05 1040.27 827.28 1007.46 794.07 1255.67 774.44 1126.39 913.00 761.73 1093.24 480.77 139.24 248.94 794.13 806.09 978.38 207.20 388.00 526.12 866.05 1103.93 1000.21 607.48 864.81 224.09 485.41 781.06 816.54 82.39 1012.33 312.23 260.92 581.18 280.31 1081.35 952.87 949.02 655.80 853.85 192.30 454.44 692.34 229.88 281.36 867.00 100.13 775.89 825.31 640.83 844.14 1082.66 531.99 414.42 793.78 925.66 1013.92 830.02 1183.04 1101.50 150.36 818.68 786.45 452.84 977.05 341.41 185.15 509.98 282.33 752.91 734.60 222.27 426.41 109.31
1507.90 373.47 666.43 565.42 376.32 934.24 0.00 899.83 882.46 503.58 586.36 455.38 699.02 510.64 867.44 205.81 379.01 448.66 276.60 388.30 458.63 188.37 525.28 203.42 542.26 314.63 338.74 495.22 453.47 915.21 981.08 315.78 285.16 196.21 809.08 605.38 495.44 320.31 497.39 416.08 512.74 215.80 764.41 627.10 290.21 268.07 851.85 454.09 736.69 976.78 445.88 946.90 545.77 666.52 364.89 397.45 121.83 858.54 621.89 415.28 797.18 1025.71 108.68 921.43 286.10 449.75 350.80 166.68 471.03 450.45 643.42 260.38 447.31 424.64 251.07 540.26 486.01 832.08 115.56 517.49 1041.96 375.43 1039.56 825.67 424.26 686.32 663.07 318.65 886.29 1108.99 876.11
787.30 577.99 1078.79 1048.06 625.67 126.13 899.83 0.00 65.75 1038.67 911.45 1071.63 1024.11 788.43 274.42 772.67 676.61 1088.88 965.92 818.12 963.03 757.72 1153.49 767.74 1065.08 802.42 659.05 1031.79 498.93 235.02 344.72 749.70 720.09 978.70 296.63 346.08 534.48 752.75 1104.25 936.21 496.49 738.68 339.03 374.42 672.85 690.41 100.55 901.34 354.40 364.63 500.21 376.09 1005.06 1019.44 907.37 544.81 829.06 250.18 343.45 581.76 148.91 259.50 842.21 185.39 711.69 783.66 566.86 733.15 988.51 532.31 540.55 667.65 851.52 946.93 727.41 1143.28 1007.35 168.99 812.47 771.84 373.31 882.90 392.43 74.16 526.54 267.72 879.04 623.61 348.40 522.19 213.02
853.05 554.08 1026.27 1007.14 620.12 168.43 882.46 65.75 0.00 972.92 905.90 1005.88 1018.56 757.42 268.87 743.69 613.49 1023.13 960.37 756.47 897.28 694.09 1095.77 725.23 1023.74 796.87 593.30 966.04 496.83 234.64 344.34 683.95 698.02 974.13 268.60 340.53 491.01 767.07 1047.36 893.67 490.94 800.48 333.48 368.87 667.30 756.16 166.30 895.79 290.77 393.50 436.58 375.71 999.51 1013.89 860.28 539.26 788.33 219.14 299.98 576.21 85.28 321.18 801.48 209.42 645.94 778.11 571.07 727.60 922.76 535.32 541.30 733.40 815.48 881.18 759.55 1100.51 941.60 234.74 781.00 706.09 439.06 817.15 415.08 68.61 508.76 201.97 821.31 618.06 345.81 521.81 277.74
1665.14 720.86 341.98 190.32 451.49 1132.82 503.58 1038.67 972.92 0.00 383.77 48.20 323.74 464.12 1057.04 603.85 454.18 110.18 318.58 378.03 132.72 611.16 234.13 556.21 58.53 285.92 413.91 72.53 685.00 1128.45 1210.71 346.05 689.66 309.52 1114.44 942.25 838.60 685.79 141.35 185.38 587.91 631.73 1061.23 702.27 447.45 633.54 1050.43 211.33 919.30 1168.03 653.81 1244.89 218.23 282.63 214.91 500.89 543.44 1068.59 852.74 506.58 1005.11 1202.88 556.59 1111.91 361.27 338.62 698.19 464.95 194.24 605.17 986.58 653.06 262.13 219.80 611.79 127.59 137.57 986.80 608.42 498.61 1124.91 155.77 1283.98 971.54 698.14 892.96 469.08 490.04 1115.89 1309.62 1030.83
1591.65 716.28 196.77 198.83 423.52 845.54 586.36 911.45 905.90 383.77 0.00 429.45 112.66 312.90 1010.92 639.67 407.41 427.01 450.93 198.06 335.75 588.41 559.66 592.03 325.24 430.48 367.14 414.88 589.28 984.78 1094.48 270.58 700.77 525.13 1021.53 846.53 800.25 688.48 462.15 311.51 414.96 642.96 1033.26 545.85 409.54 669.36 927.93 335.50 897.68 1097.35 559.50 1125.85 241.83 153.77 260.32 396.68 640.89 972.07 767.33 359.73 910.80 994.44 641.44 945.67 341.67 136.61 693.61 460.31 386.65 520.08 944.57 692.12 299.82 325.22 645.21 477.57 405.49 901.71 698.05 242.65 951.96 281.04 1127.37 837.29 603.03 746.77 92.63 407.58 1067.37 1271.95 945.74
1691.11 750.90 387.66 236.00 499.69 1122.15 455.38 1071.63 1005.88 48.20 429.45 0.00 342.06 473.13 1076.53 581.09 480.38 92.24 285.89 358.29 167.47 588.40 243.54 533.45 104.21 315.96 440.11 39.84 652.31 1158.73 1233.19 380.80 666.90 357.72 1134.89 909.56 860.81 644.17 155.28 204.87 614.11 640.20 1109.43 706.08 473.42 610.78 1050.69 170.59 938.79 1194.23 655.44 1267.37 242.16 328.31 173.13 527.12 536.29 1100.87 849.16 536.62 1006.74 1237.67 549.44 1146.70 409.47 296.84 728.23 477.02 187.09 653.37 1008.79 633.54 307.70 206.02 589.03 132.17 89.37 1035.00 570.94 456.83 1151.11 203.97 1324.21 997.77 681.52 941.16 488.57 517.47 1083.20 1344.37 1065.62
1670.78 828.94 100.46 142.31 525.12 958.20 699.02 1024.11 1018.56 323.74 112.66 342.06 0.00 425.56 1086.42 746.04 520.07 366.98 548.27 310.72 279.23 701.07 557.87 704.69 265.21 494.28 479.80 302.22 701.94 1097.44 1156.60 383.24 693.46 583.42 1134.19 959.19 912.91 726.12 405.63 286.36 527.62 712.05 1134.86 658.51 453.09 663.78 1040.59 284.12 948.68 1210.01 672.16 1122.42 156.67 41.11 337.55 509.34 705.08 1084.73 879.99 472.39 1023.46 1107.10 691.93 1058.33 434.90 249.27 806.27 572.97 404.26 632.74 1057.23 641.02 401.55 311.44 700.78 417.54 427.67 1014.37 748.54 355.31 1064.62 332.30 1240.03 949.95 689.14 859.43 205.29 502.33 1180.03 1293.13 1058.40
1421.37 563.91 344.24 295.04 237.72 865.13 510.64 788.43 757.42 464.12 312.90 473.13 425.56 0.00 902.96 551.92 143.93 507.35 543.57 214.91 393.74 527.36 551.43 504.28 426.83 354.76 184.20 512.97 468.14 917.28 1026.98 194.86 614.39 489.90 913.57 688.43 679.11 580.52 558.36 351.19 347.20 608.56 847.46 414.01 331.70 581.61 817.03 389.20 787.70 857.78 343.56 1058.35 338.04 403.59 300.00 275.73 498.10 864.11 596.35 251.77 694.86 918.13 511.25 918.86 236.84 176.29 541.24 454.22 436.00 412.12 827.09 604.37 311.03 364.90 559.86 579.16 454.84 793.75 563.08 78.68 884.20 330.39 987.76 714.27 495.07 582.80 228.70 304.07 903.40 1058.48 837.78
718.10 500.96 1104.66 1044.35 714.98 174.49 867.44 274.42 268.87 1057.04 1010.92 1076.53 1086.42 902.96 0.00 764.04 759.03 1112.63 1017.62 822.52 929.89 752.92 1207.39 725.24 1015.95 871.85 783.21 1036.69 468.55 85.45 156.66 750.00 688.89 937.23 58.36 269.05 468.97 754.83 1062.78 871.66 622.59 746.33 217.36 500.52 758.00 681.78 226.97 909.67 137.74 154.51 593.13 190.84 1001.35 1045.31 922.85 670.91 806.83 63.07 361.13 651.19 275.01 222.65 819.98 135.08 730.57 883.97 523.63 846.73 1030.79 490.84 425.18 704.54 881.53 983.21 718.78 1141.89 1053.22 109.21 806.46 846.76 594.11 970.47 284.49 200.26 497.76 342.64 927.40 708.76 111.45 334.13 65.18
1346.75 264.54 750.23 638.07 358.04 822.08 205.81 772.67 743.69 603.85 639.67 581.09 746.04 551.92 764.04 0.00 407.99 573.25 390.52 548.45 545.84 68.40 645.89 47.64 606.00 358.39 367.72 565.74 341.31 846.24 920.70 475.93 132.05 310.13 773.42 496.45 401.00 163.62 597.48 487.61 528.55 59.11 699.03 656.08 319.74 82.26 739.69 508.10 626.30 859.38 325.91 935.66 617.30 738.84 486.01 377.69 85.67 724.85 512.96 395.52 677.21 928.19 98.82 826.99 419.54 503.06 241.87 179.36 434.87 330.48 548.98 105.02 435.44 494.44 45.26 664.07 491.72 712.11 90.25 586.13 999.16 448.08 989.36 751.96 312.10 649.77 710.65 298.89 833.28 1021.73 756.14
1277.44 419.98 473.24 438.97 93.79 780.81 379.01 676.61 613.49 454.18 407.41 480.38 520.07 143.93 759.03 407.99 0.00 526.24 440.50 217.64 338.41 383.43 611.43 360.35 424.47 328.50 40.27 445.21 324.21 791.47 884.62 169.94 493.41 520.89 769.64 581.28 535.18 436.59 513.55 280.18 203.27 467.10 703.53 328.63 187.77 437.68 698.42 318.19 655.02 713.85 199.63 918.80 409.87 486.70 307.25 131.80 425.07 720.18 489.20 107.84 550.93 855.02 438.22 774.93 92.91 270.80 397.31 310.29 438.42 268.19 683.16 460.44 301.47 396.84 415.93 552.12 457.26 649.82 479.17 222.61 740.27 332.81 843.83 602.45 351.14 499.72 372.63 160.14 837.78 914.55 693.85
1683.27 749.89 385.22 233.56 536.10 1136.05 448.66 1088.88 1023.13 110.18 427.01 92.24 366.98 507.35 1112.63 573.25 526.24 0.00 346.60 308.77 228.18 573.80 235.70 525.61 101.77 347.11 498.52 100.55 713.02 1158.10 1192.71 375.66 610.11 371.33 1158.37 944.94 878.97 628.84 86.92 246.06 672.52 582.46 1088.08 740.30 465.58 541.42 1100.64 211.73 974.89 1212.09 685.46 1226.89 261.47 325.87 237.07 550.00 507.17 1122.28 852.86 527.52 1036.76 1232.53 520.32 1141.56 445.88 331.06 751.81 399.81 157.97 658.86 1026.95 564.18 244.13 142.45 578.42 91.60 81.53 1040.49 564.22 479.50 1195.75 205.98 1334.19 1020.65 736.66 936.67 519.64 472.04 1143.91 1370.18 1060.48
1552.11 547.12 601.21 446.06 346.71 1040.27 276.60 965.92 960.37 318.58 450.93 285.89 548.27 543.57 1017.62 390.52 440.50 346.60 0.00 421.23 309.14 406.76 344.02 364.49 337.15 188.81 431.59 246.05 572.91 1050.06 1100.05 348.71 456.20 80.39 1036.05 779.03 717.85 488.86 352.66 323.16 605.59 415.42 956.45 717.84 334.42 426.52 957.88 355.46 903.72 1104.05 602.61 1134.23 448.37 559.29 317.84 427.57 311.53 990.20 765.32 409.47 953.91 1109.13 324.68 1033.52 434.66 441.55 524.45 232.77 230.10 526.78 865.83 403.76 346.54 262.76 420.07 273.55 327.82 908.41 374.02 553.56 1142.59 326.79 1234.03 891.76 571.12 834.89 543.56 380.31 1090.70 1277.52 952.44
1472.54 518.22 356.58 256.76 233.83 827.28 388.30 818.12 756.47 378.03 198.06 358.29 310.72 214.91 822.52 548.45 217.64 308.77 421.23 0.00 250.88 513.25 506.24 515.51 336.94 232.42 196.25 357.68 494.43 854.96 958.93 72.52 570.57 411.75 855.23 717.79 705.40 589.30 395.69 192.65 370.25 491.80 843.57 443.70 327.81 501.88 846.72 230.66 699.62 908.95 417.27 993.11 254.07 297.23 185.16 281.29 462.78 840.33 652.44 287.51 768.57 929.39 475.93 838.42 143.61 61.45 495.55 383.79 330.04 387.51 795.93 524.64 132.82 218.63 538.88 400.37 355.35 769.14 503.86 221.44 907.25 244.30 1038.93 743.96 480.48 675.30 274.77 300.18 932.44 1132.19 757.34
1613.35 668.79 295.64 136.92 389.50 1007.46 458.63 963.03 897.28 132.72 335.75 167.47 279.23 393.74 929.89 545.84 338.41 228.18 309.14 250.88 0.00 540.47 319.36 498.20 126.46 272.17 351.92 127.63 650.10 995.77 1086.55 213.33 606.94 378.68 985.68 858.60 705.88 627.78 235.16 58.23 525.92 549.13 988.41 626.69 420.07 575.53 1015.89 85.95 792.15 1049.76 538.04 1120.73 142.80 250.15 93.74 442.48 494.08 954.23 805.46 434.58 889.34 1070.20 507.23 979.23 299.28 217.45 646.12 366.48 186.47 543.18 853.86 598.29 196.73 177.53 553.78 250.58 229.50 924.81 559.06 377.44 1062.92 152.88 1179.74 913.13 636.15 799.20 341.93 370.83 1041.34 1176.90 898.15
1354.31 279.23 746.93 645.38 289.64 794.07 188.37 757.72 694.09 611.16 588.41 588.40 701.07 527.36 752.92 68.40 383.43 573.80 406.76 513.25 540.47 0.00 653.20 54.95 614.52 353.02 374.52 555.73 340.38 785.36 880.40 465.81 131.82 369.25 705.02 511.14 408.31 177.24 604.79 482.24 532.03 118.64 699.85 597.65 352.83 89.82 738.76 502.73 633.86 839.35 257.51 914.58 611.93 687.58 514.53 330.65 136.54 725.50 519.95 353.43 608.81 859.79 149.69 768.82 379.86 451.80 274.96 173.99 485.74 262.08 556.29 112.58 442.75 519.42 78.35 665.40 499.03 643.71 158.65 593.44 930.76 455.39 969.33 683.56 311.17 581.37 680.98 355.99 782.23 972.43 687.74
1754.97 786.01 564.47 424.36 608.74 1255.67 525.28 1153.49 1095.77 234.13 559.66 243.54 557.87 551.43 1207.39 645.89 611.43 235.70 344.02 506.24 319.36 653.20 0.00 598.25 292.66 351.07 571.16 283.38 819.16 1255.36 1342.40 510.97 635.14 361.20 1233.53 1017.92 951.61 667.80 161.04 335.73 745.16 653.73 1145.93 854.03 537.28 605.46 1173.28 297.72 1069.65 1309.35 777.49 1376.58 439.95 516.76 321.08 608.68 601.09 1184.07 975.59 571.73 1128.79 1329.79 614.24 1238.82 518.52 444.79 763.34 483.65 251.89 732.08 1067.03 582.70 393.82 322.62 642.46 177.89 154.17 1113.71 640.84 604.78 1282.16 278.62 1406.83 1079.33 808.36 997.15 619.43 581.26 1280.18 1486.70 1157.74
1341.82 224.28 722.50 590.43 344.59 774.44 203.42 767.74 725.23 556.21 592.03 533.45 704.69 504.28 725.24 47.64 360.35 525.61 364.49 515.51 498.20 54.95 598.25 0.00 584.26 310.75 320.08 573.29 293.67 807.44 881.90 457.85 133.45 357.57 751.80 456.19 353.36 129.58 549.84 439.97 494.08 106.75 658.77 608.44 330.06 77.33 692.05 460.46 587.50 854.45 288.65 895.40 569.66 691.20 459.58 385.60 81.59 735.17 473.24 350.38 639.95 897.67 94.74 779.35 371.90 455.42 226.20 131.72 430.79 317.03 501.34 100.09 387.80 464.47 55.58 617.21 444.08 697.14 123.51 538.49 968.15 400.44 984.43 714.70 264.46 612.51 684.60 346.53 793.02 1003.57 734.88
1609.92 754.85 283.45 131.79 486.21 1126.39 542.26 1065.08 1023.74 58.53 325.24 104.21 265.21 426.83 1015.95 606.00 424.47 101.77 337.15 336.94 126.46 614.52 292.66 584.26 0.00 344.45 444.35 91.10 692.52 1098.15 1172.61 339.79 693.00 368.05 1074.31 943.39 832.34 713.84 147.22 144.29 618.35 630.79 1074.47 710.32 392.23 643.19 1090.90 182.30 878.21 1138.32 624.10 1206.79 159.70 224.10 177.37 520.27 520.33 1040.29 872.09 532.31 975.40 1188.38 533.48 1105.69 416.18 301.08 732.18 452.54 171.13 660.08 980.32 665.95 280.98 179.30 639.84 152.33 177.49 1041.71 585.31 461.07 1155.35 214.30 1268.30 990.92 663.31 924.19 417.87 441.47 1127.40 1303.36 1024.61
1403.90 434.94 516.63 351.97 280.19 913.00 314.63 802.42 796.87 285.92 430.48 315.96 494.28 354.76 871.85 358.39 328.50 347.11 188.81 232.42 272.17 353.02 351.07 310.75 344.45 0.00 298.49 355.80 468.09 904.29 1004.28 159.90 419.49 269.20 882.46 666.85 648.89 440.33 310.46 272.31 449.76 361.68 869.43 586.85 186.21 384.11 831.02 264.19 787.00 958.28 433.09 1038.46 394.97 510.64 221.12 257.61 359.61 833.00 664.94 220.66 784.39 978.72 360.16 887.75 245.85 293.87 412.27 179.03 267.59 381.01 796.87 406.87 157.73 226.01 366.33 389.57 265.58 762.64 416.77 364.75 986.76 161.98 1074.73 728.26 457.29 646.08 507.19 230.19 959.67 1135.63 806.67
1317.71 379.71 432.97 438.77 84.88 761.73 338.74 659.05 593.30 413.91 367.14 440.11 479.80 184.20 783.21 367.72 40.27 498.52 431.59 196.25 351.92 374.52 571.16 320.08 444.35 298.49 0.00 479.55 321.60 787.98 855.35 138.59 453.53 511.98 772.23 578.85 532.57 449.66 473.28 318.17 174.00 426.83 694.62 288.36 178.86 397.41 691.38 356.18 652.41 754.12 239.90 889.53 447.86 446.43 266.98 119.19 401.67 742.21 503.49 148.11 591.20 841.19 414.82 802.72 52.64 230.53 357.04 292.82 398.15 296.54 680.55 420.17 270.12 356.57 375.66 511.85 416.99 678.17 443.59 262.88 711.00 292.54 884.10 588.62 350.81 539.99 412.90 151.23 828.87 954.82 722.20
1701.02 749.86 355.16 222.89 517.13 1093.24 495.22 1031.79 966.04 72.53 414.88 39.84 302.22 512.97 1036.69 565.74 445.21 100.55 246.05 357.68 127.63 555.73 283.38 573.29 91.10 355.80 479.55 0.00 612.47 1118.89 1193.35 340.96 687.55 326.44 1095.05 869.72 820.97 684.01 187.47 165.03 636.00 618.16 1072.30 745.92 483.33 641.97 1010.85 138.80 898.95 1159.06 623.65 1227.53 202.32 315.20 212.97 495.33 507.70 1061.03 809.32 532.28 974.95 1197.83 520.85 1106.86 426.91 336.68 752.92 467.54 158.50 670.81 968.95 649.81 314.20 212.52 611.00 172.01 129.21 1052.44 572.68 496.67 1173.00 199.27 1289.04 965.98 641.68 926.83 448.73 477.63 1043.36 1304.53 1025.78
1148.73 137.39 731.15 741.32 318.51 480.77 453.47 498.93 496.83 685.00 589.28 652.31 701.94 468.14 468.55 341.31 324.21 713.02 572.91 494.43 650.10 340.38 819.16 293.67 692.52 468.09 321.60 612.47 0.00 550.75 625.21 436.77 325.32 519.94 526.91 257.25 210.97 394.37 678.86 604.39 339.01 398.00 459.83 331.87 300.29 371.00 398.38 609.43 330.81 585.14 124.58 659.39 698.32 677.24 576.38 304.22 373.08 492.89 196.85 267.27 475.88 627.06 386.23 536.09 350.82 452.67 160.06 425.39 652.07 106.92 358.95 377.76 555.45 639.39 349.25 757.97 684.34 461.89 337.91 546.82 762.32 590.72 715.12 466.14 29.21 440.27 626.44 341.79 580.00 797.28 455.01
776.83 583.16 1139.35 1111.72 747.42 139.24 915.21 235.02 234.64 1128.45 984.78 1158.73 1097.44 917.28 85.45 846.24 791.47 1158.10 1050.06 854.96 995.77 785.36 1255.36 807.44 1098.15 904.29 787.98 1118.89 550.75 0.00 109.70 782.44 771.09 969.67 106.13 351.25 475.62 837.03 1095.22 953.86 613.98 828.53 240.81 585.97 808.38 763.98 220.60 991.87 219.94 213.24 630.25 141.07 1083.55 1092.11 1005.05 720.58 889.03 148.52 428.16 683.63 296.45 231.86 896.54 49.63 767.18 916.41 605.83 879.17 1112.69 523.28 448.63 786.74 913.97 1015.65 800.98 1174.33 1131.53 141.65 883.03 838.60 592.08 1007.08 236.85 285.71 574.33 334.48 892.15 780.26 168.83 287.17 97.62
843.10 657.62 1249.05 1201.01 851.39 248.94 981.08 344.72 344.34 1210.71 1094.48 1233.19 1156.60 1026.98 156.66 920.70 884.62 1192.71 1100.05 958.93 1086.55 880.40 1342.40 881.90 1172.61 1004.28 855.35 1193.35 625.21 109.70 0.00 886.41 845.55 1073.64 175.38 425.71 535.76 911.49 1199.19 1028.32 681.35 883.86 270.81 657.18 818.07 838.44 330.30 1066.33 294.40 279.51 734.22 34.18 1158.01 1197.71 1079.51 824.55 939.69 219.73 517.79 787.60 406.15 341.56 926.54 159.33 871.15 1020.38 680.29 867.28 1161.67 627.25 478.63 861.20 948.58 1050.26 875.44 1240.34 1188.23 245.62 963.12 948.30 701.78 1063.78 284.77 356.92 654.42 444.18 1001.85 865.42 171.11 177.47 201.59
1400.02 518.30 410.09 329.28 176.17 794.13 315.78 749.70 683.95 346.05 270.58 380.80 383.24 194.86 750.00 475.93 169.94 375.66 348.71 72.52 213.33 465.81 510.97 457.85 339.79 159.90 138.59 340.96 436.77 782.44 886.41 0.00 527.46 410.46 782.71 645.27 647.74 523.79 427.32 265.17 312.59 419.28 785.91 426.95 270.15 483.83 805.89 299.28 627.10 836.43 369.57 920.59 326.59 350.74 257.68 232.48 390.26 767.81 594.78 221.25 720.87 856.87 403.41 765.90 85.95 133.97 495.63 326.13 344.62 329.85 754.34 490.31 131.53 233.21 513.43 423.29 371.18 711.48 431.34 204.85 849.59 246.73 966.41 703.13 422.82 617.64 347.29 242.52 859.92 1063.88 684.82
1333.18 187.93 793.92 711.20 421.46 806.09 285.16 720.09 698.02 689.66 700.77 666.90 693.46 614.39 688.89 132.05 493.41 610.11 456.20 570.57 606.94 131.82 635.14 133.45 693.00 419.49 453.53 687.55 325.32 771.09 845.55 527.46 0.00 392.45 715.45 419.84 477.15 69.05 683.29 548.71 502.76 108.18 622.42 657.19 380.17 68.69 723.70 569.20 551.15 806.80 389.33 859.05 678.40 734.57 593.03 361.61 213.85 713.23 398.04 397.80 684.23 836.29 226.21 776.57 480.64 564.16 210.60 240.46 563.05 393.90 431.89 52.44 521.25 597.92 105.69 701.71 577.53 726.23 169.60 632.77 956.82 533.89 936.78 667.33 340.94 601.18 756.97 377.85 756.67 1017.62 698.53
1587.25 569.68 602.98 493.14 427.10 978.38 196.21 978.70 974.13 309.52 525.13 357.72 583.42 489.90 937.23 310.13 520.89 371.33 80.39 411.75 378.68 369.25 361.20 357.57 368.05 269.20 511.98 326.44 519.94 969.67 1073.64 410.46 392.45 0.00 955.66 770.81 691.65 428.64 301.18 320.45 647.52 369.24 944.86 637.45 398.17 366.30 918.32 358.46 850.75 1023.66 553.36 1107.82 450.14 592.15 371.64 455.95 275.98 909.81 699.51 489.86 904.66 1028.74 289.13 953.13 482.31 388.52 547.01 246.53 296.50 446.39 824.34 343.54 278.93 271.98 355.39 353.94 289.80 828.02 311.77 548.51 1115.07 336.01 1153.64 905.52 490.73 779.74 604.15 447.41 1032.87 1201.01 872.05
738.95 527.52 1133.50 1102.71 725.59 207.20 809.08 296.63 268.60 1114.44 1021.53 1134.89 1134.19 913.57 58.36 773.42 769.64 1158.37 1036.05 855.23 985.68 705.02 1233.53 751.80 1074.31 882.46 772.23 1095.05 526.91 106.13 175.38 782.71 715.45 955.66 0.00 295.61 495.53 784.50 1081.21 930.02 680.44 788.13 159.00 558.37 794.37 740.14 285.33 968.03 196.10 175.36 616.24 209.56 1059.71 1103.67 981.21 698.75 827.88 49.46 387.69 661.80 306.00 216.63 814.73 155.76 753.17 916.68 550.19 865.16 1081.55 509.27 366.82 762.90 914.24 1015.92 729.05 1160.32 1111.58 127.64 863.67 900.42 588.09 993.07 305.34 258.11 556.12 396.30 960.11 758.43 77.21 352.85 97.89
987.15 231.91 981.24 944.03 510.69 388.00 605.38 346.08 340.53 942.25 846.53 909.56 959.19 688.43 269.05 496.45 581.28 944.94 779.03 717.79 858.60 511.14 1017.92 456.19 943.39 666.85 578.85 869.72 257.25 351.25 425.71 645.27 419.84 770.81 295.61 0.00 199.92 488.89 936.11 842.47 444.45 492.52 202.58 424.72 551.16 488.19 374.68 866.68 131.31 423.56 381.83 439.21 901.03 928.11 833.63 560.33 537.78 293.39 92.08 523.38 264.39 441.48 550.93 359.77 600.91 709.92 254.58 587.91 886.98 364.17 347.90 472.28 700.81 802.49 451.19 992.57 900.27 306.58 579.70 643.59 657.55 789.05 553.54 271.92 280.08 336.21 793.61 577.04 336.83 597.78 278.69
1173.66 289.22 942.12 842.80 529.48 526.12 495.44 534.48 491.01 838.60 800.25 860.81 912.91 679.11 468.97 401.00 535.18 878.97 717.85 705.40 705.88 408.31 951.61 353.36 832.34 648.89 532.57 820.97 210.97 475.62 535.76 647.74 477.15 691.65 495.53 199.92 0.00 482.94 889.83 764.11 543.40 460.11 355.80 523.67 462.68 420.71 563.08 766.03 331.23 610.07 335.55 569.94 848.68 888.21 757.71 515.19 434.95 493.31 191.03 478.24 464.31 608.22 448.10 425.99 561.79 663.64 266.55 485.08 784.15 317.89 147.98 443.47 739.83 762.60 383.71 956.46 797.44 506.50 476.87 757.79 756.50 698.57 672.31 460.32 240.18 435.17 804.78 511.92 490.05 713.23 478.61
1351.91 256.98 826.58 720.01 392.54 866.05 320.31 752.75 767.07 685.79 688.48 644.17 726.12 580.52 754.83 163.62 436.59 628.84 488.86 589.30 627.78 177.24 667.80 129.58 713.84 440.33 449.66 684.01 394.37 837.03 911.49 523.79 69.05 428.64 784.50 488.89 482.94 0.00 660.56 569.55 533.71 104.51 659.45 726.24 398.90 87.42 792.75 590.04 617.09 839.46 418.23 896.08 699.24 767.23 577.46 365.70 211.17 779.17 467.09 328.75 753.28 905.34 224.32 845.62 455.05 585.00 279.65 261.30 560.37 439.32 451.63 85.10 517.38 594.05 124.42 720.44 554.80 795.28 229.92 659.20 1025.87 530.02 969.44 736.38 394.04 670.23 687.92 410.51 793.70 1060.25 767.58
1707.50 745.40 427.98 263.32 558.16 1103.93 497.39 1104.25 1047.36 141.35 462.15 155.28 405.63 558.36 1062.78 597.48 513.55 86.92 352.66 395.69 235.16 604.79 161.04 549.84 147.22 310.46 473.28 187.47 678.86 1095.22 1199.19 427.32 683.29 301.18 1081.21 936.11 889.83 660.56 0.00 244.73 647.28 636.75 1094.66 761.64 489.81 627.17 1077.24 206.72 978.65 1149.21 678.91 1233.37 306.32 371.32 275.95 563.25 526.29 1035.36 868.00 531.12 1030.21 1169.65 539.44 1078.68 470.11 399.66 722.73 486.73 177.09 571.94 996.43 644.72 331.05 229.37 605.42 79.11 105.76 953.57 591.27 559.65 1184.28 230.21 1279.19 1033.90 664.91 905.29 508.46 539.05 1158.42 1326.56 997.60
1557.62 610.56 282.53 172.69 360.44 1000.21 416.08 936.21 893.67 185.38 311.51 204.87 286.36 351.19 871.66 487.61 280.18 246.06 323.16 192.65 58.23 482.24 335.73 439.97 144.29 272.31 318.17 165.03 604.39 953.86 1028.32 265.17 548.71 320.45 930.02 842.47 764.11 569.55 244.73 0.00 483.45 490.90 930.18 584.14 361.84 517.30 964.81 38.01 733.92 994.03 479.81 1062.50 129.69 285.42 51.19 391.40 451.53 896.00 769.38 388.02 831.11 1044.09 464.68 1003.49 290.00 174.90 587.89 308.25 159.13 533.90 912.09 540.06 184.50 130.71 495.55 293.19 181.56 915.53 516.51 334.89 1020.45 110.33 1124.01 862.05 626.87 779.90 283.70 312.60 983.11 1194.73 936.84
1283.79 364.52 606.97 612.77 258.88 607.48 512.74 496.49 490.94 587.91 414.96 614.11 527.62 347.20 622.59 528.55 203.27 672.52 605.59 370.25 525.92 532.03 745.16 494.08 618.35 449.76 174.00 636.00 339.01 613.98 681.35 312.59 502.76 647.52 680.44 444.45 543.40 533.71 647.28 483.45 0.00 510.84 647.03 207.26 318.14 446.29 525.09 521.46 575.76 744.95 337.54 715.53 613.14 568.73 440.98 201.38 486.00 669.13 352.37 229.10 497.08 674.90 499.15 647.38 226.64 404.53 387.19 466.82 520.86 336.95 691.38 469.05 444.12 530.57 483.29 685.85 590.99 656.77 550.98 328.73 537.00 466.54 768.80 422.33 368.22 530.77 478.75 268.90 682.66 858.82 687.77
1329.04 260.61 773.43 663.59 399.15 864.81 215.80 738.68 800.48 631.73 642.96 640.20 712.05 608.56 746.33 59.11 467.10 582.46 415.42 491.80 549.13 118.64 653.73 106.75 630.79 361.68 426.83 618.16 398.00 828.53 883.86 419.28 108.18 369.24 788.13 492.52 460.11 104.51 636.75 490.90 510.84 0.00 695.10 715.19 353.09 64.55 796.38 511.39 608.59 825.39 363.90 918.04 620.59 742.13 510.80 422.03 110.46 770.67 506.22 385.08 715.20 918.76 123.61 852.29 422.83 506.35 283.28 182.65 459.66 380.72 540.07 71.03 494.55 519.23 94.35 674.06 550.83 762.35 144.39 624.13 1043.40 475.96 955.37 764.10 371.21 687.76 735.44 358.00 829.35 1061.33 771.21
874.28 434.49 1080.29 1100.33 609.74 224.09 764.41 339.03 333.48 1061.23 1033.26 1109.43 1134.86 847.46 217.36 699.03 703.53 1088.08 956.45 843.57 988.41 699.85 1145.93 658.77 1074.47 869.43 694.62 1072.30 459.83 240.81 270.81 785.91 622.42 944.86 159.00 202.58 355.80 659.45 1094.66 930.18 647.03 695.10 0.00 565.13 703.72 690.77 253.36 968.19 196.26 310.69 584.41 236.63 1059.87 1093.75 938.63 690.60 668.88 208.46 294.66 673.53 339.62 344.59 655.73 253.62 699.96 905.02 457.16 745.57 930.11 522.72 207.82 674.86 903.39 1003.89 653.77 1161.69 1027.83 216.57 712.34 846.17 676.93 939.86 403.23 264.87 459.49 401.16 977.00 676.09 134.25 407.34 172.54
1161.72 469.26 704.37 700.46 373.24 485.41 627.10 374.42 368.87 702.27 545.85 706.08 658.51 414.01 500.52 656.08 328.63 740.30 717.84 443.70 626.69 597.65 854.03 608.44 710.32 586.85 288.36 745.92 331.87 585.97 657.18 426.95 657.19 637.45 558.37 424.72 523.67 726.24 761.64 584.14 207.26 715.19 565.13 0.00 411.23 653.55 403.02 622.15 454.79 655.03 442.54 691.36 680.59 645.02 532.95 371.17 675.90 563.59 332.64 408.12 375.01 552.83 689.05 559.81 341.00 409.24 491.93 581.18 686.51 335.57 671.65 676.31 558.48 597.85 664.02 800.21 703.14 534.70 669.78 492.69 744.26 580.90 646.73 300.26 361.08 461.62 588.23 439.59 611.97 834.65 565.70
1217.69 437.68 553.55 515.42 93.98 781.06 290.21 672.85 667.30 447.45 409.54 473.42 453.09 331.70 758.00 319.74 187.77 465.58 334.42 327.81 420.07 352.83 537.28 330.06 392.23 186.21 178.86 483.33 300.29 808.38 818.07 270.15 380.17 398.17 794.37 551.16 462.68 398.90 489.81 361.84 318.14 353.09 703.72 411.23 0.00 311.48 698.67 399.85 620.26 862.37 268.19 852.25 491.53 494.20 384.57 128.04 264.67 748.52 479.86 145.87 619.49 851.26 277.82 791.84 184.20 272.93 437.68 266.74 396.06 285.10 610.66 334.24 277.15 339.10 274.48 544.56 384.05 666.73 329.65 388.60 855.14 325.43 945.16 598.69 271.08 592.05 502.11 49.24 837.97 983.11 710.76
1264.49 256.28 741.97 642.51 379.46 816.54 268.07 690.41 756.16 633.54 669.36 610.78 663.78 581.61 681.78 82.26 437.68 541.42 426.52 501.88 575.53 89.82 605.46 77.33 643.19 384.11 397.41 641.97 371.00 763.98 838.44 483.83 68.69 366.30 740.14 488.19 420.71 87.42 627.17 517.30 446.29 64.55 690.77 653.55 311.48 0.00 769.38 537.79 544.04 777.12 347.33 872.62 646.99 704.89 536.91 420.47 158.92 706.12 466.73 416.17 698.63 854.21 159.39 813.61 449.23 532.75 233.61 209.05 508.12 351.90 500.58 22.76 465.13 541.80 37.00 633.02 521.41 733.53 167.58 603.09 983.29 477.77 907.10 699.55 341.79 669.87 753.11 348.17 793.23 1010.51 746.96
828.50 535.77 1034.58 1076.66 654.27 82.39 851.85 100.55 166.30 1050.43 927.93 1050.69 1040.59 817.03 226.97 739.69 698.42 1100.64 957.88 846.72 1015.89 738.76 1173.28 692.05 1090.90 831.02 691.38 1010.85 398.38 220.60 330.30 805.89 723.70 918.32 285.33 374.68 563.08 792.75 1077.24 964.81 525.09 796.38 253.36 403.02 698.67 769.38 0.00 929.94 282.03 343.31 498.79 361.67 1033.66 1035.26 935.97 573.41 771.46 265.77 372.05 610.36 147.49 260.06 784.61 170.97 744.02 812.26 558.44 761.75 1000.27 505.30 461.18 768.20 880.12 958.69 747.63 1156.35 1019.11 185.05 736.29 809.17 473.86 894.66 327.70 102.76 427.59 305.05 835.30 652.21 304.66 507.77 191.70
1595.63 648.57 295.07 172.03 398.45 1012.33 454.09 901.34 895.79 211.33 335.50 170.59 284.12 389.20 909.67 508.10 318.19 211.73 355.46 230.66 85.95 502.73 297.72 460.46 182.30 264.19 356.18 138.80 609.43 991.87 1066.33 299.28 569.20 358.46 968.03 866.68 766.03 590.04 206.72 38.01 521.46 511.39 968.19 622.15 399.85 537.79 929.94 0.00 771.93 1032.04 484.85 1100.51 142.23 249.94 89.20 356.53 489.54 934.01 803.11 393.48 836.15 1079.75 488.32 1041.50 328.01 212.91 625.90 328.74 151.44 553.83 914.01 560.55 194.38 92.70 516.04 255.18 143.55 935.46 544.93 372.90 1058.46 140.88 1162.02 827.18 636.78 808.71 321.71 350.61 1021.12 1199.77 974.85
855.84 363.22 966.92 906.61 637.37 312.23 736.69 354.40 290.77 919.30 897.68 938.79 948.68 787.70 137.74 626.30 655.02 974.89 903.72 699.62 792.15 633.86 1069.65 587.50 878.21 787.00 652.41 898.95 330.81 219.94 294.40 627.10 551.15 850.75 196.10 131.31 331.23 617.09 978.65 733.92 575.76 608.59 196.26 454.79 620.26 544.04 282.03 771.93 0.00 292.25 455.39 328.58 863.61 907.57 785.11 635.03 669.09 162.08 223.39 598.08 205.49 310.17 682.24 269.57 681.63 761.07 385.89 715.83 893.05 437.73 404.08 566.80 758.63 860.31 581.04 1027.11 915.48 216.60 668.72 709.02 560.54 844.25 422.23 280.24 360.02 204.90 859.04 571.02 249.19 466.47 202.92
563.59 655.47 1187.09 1152.82 801.41 260.92 976.78 364.63 393.50 1168.03 1097.35 1194.23 1210.01 857.78 154.51 859.38 713.85 1212.09 1104.05 908.95 1049.76 839.35 1309.35 854.45 1138.32 958.28 754.12 1159.06 585.14 213.24 279.51 836.43 806.80 1023.66 175.36 423.56 610.07 839.46 1149.21 994.03 744.95 825.39 310.69 655.03 862.37 777.12 343.31 1032.04 292.25 0.00 684.24 280.30 1123.72 1187.17 1021.10 774.57 915.77 217.58 515.64 737.62 359.51 183.82 928.92 184.08 806.76 970.40 678.14 933.16 1152.27 577.27 518.51 754.36 967.96 1069.64 814.12 1228.32 1171.11 195.64 899.18 936.46 555.28 1046.66 129.98 354.77 614.35 468.58 1013.83 834.25 176.44 336.59 151.61
1243.07 245.39 672.87 638.60 256.80 581.18 445.88 500.21 436.58 653.81 559.50 655.44 672.16 343.56 593.13 325.91 199.63 685.46 602.61 417.27 538.04 257.51 777.49 288.65 624.10 433.09 239.90 623.65 124.58 630.25 734.22 369.57 389.33 553.36 616.24 381.83 335.55 418.23 678.91 479.81 337.54 363.90 584.41 442.54 268.19 347.33 498.79 484.85 455.39 684.24 0.00 768.40 609.50 658.67 506.88 190.03 351.75 570.39 321.43 215.67 351.30 678.62 364.90 598.12 292.54 422.89 268.06 420.37 527.49 106.97 483.53 370.09 496.74 577.55 328.46 740.03 623.32 488.60 412.16 422.24 679.50 532.44 721.46 426.05 153.79 323.86 572.26 268.83 693.45 714.92 532.63
843.89 671.12 1222.88 1235.19 846.37 280.31 946.90 376.09 375.71 1244.89 1125.85 1267.37 1122.42 1058.35 190.84 935.66 918.80 1226.89 1134.23 993.11 1120.73 914.58 1376.58 895.40 1206.79 1038.46 889.53 1227.53 659.39 141.07 34.18 920.59 859.05 1107.82 209.56 439.21 569.94 896.08 1233.37 1062.50 715.53 918.04 236.63 691.36 852.25 872.62 361.67 1100.51 328.58 280.30 768.40 0.00 1192.19 1163.53 1113.69 858.73 905.51 249.48 531.29 821.78 437.52 343.66 892.36 190.70 905.33 1054.56 693.79 901.46 1166.74 661.43 444.45 895.38 982.76 1084.44 890.40 1274.52 1222.41 279.80 948.97 979.67 715.12 1097.96 312.21 391.10 688.60 475.55 1033.22 899.60 205.29 170.71 235.77
1687.31 740.25 152.84 43.00 487.90 1081.35 545.77 1005.06 999.51 218.23 241.83 242.16 156.67 338.04 1001.35 617.30 409.87 261.47 448.37 254.07 142.80 611.93 439.95 569.66 159.70 394.97 447.86 202.32 698.32 1083.55 1158.01 326.59 678.40 450.14 1059.71 901.03 848.68 699.24 306.32 129.69 613.14 620.59 1059.87 680.59 491.53 646.99 1033.66 142.23 863.61 1123.72 609.50 1192.19 0.00 155.73 180.88 460.25 548.41 1025.69 808.95 497.20 960.80 1173.78 535.26 1092.49 397.68 271.35 717.58 437.94 288.82 641.58 996.66 669.75 244.88 200.01 625.24 312.03 285.78 1023.21 591.87 382.44 1091.11 232.99 1178.73 930.90 727.53 886.56 334.46 442.29 1112.80 1319.70 1011.41
1651.52 814.63 59.35 183.42 484.01 952.87 666.52 1019.44 1013.89 282.63 153.77 328.31 41.11 403.59 1045.31 738.84 486.70 325.87 559.29 297.23 250.15 687.58 516.76 691.20 224.10 510.64 446.43 315.20 677.24 1092.11 1197.71 350.74 734.57 592.15 1103.67 928.11 888.21 767.23 371.32 285.42 568.73 742.13 1093.75 645.02 494.20 704.89 1035.26 249.94 907.57 1187.17 658.67 1163.53 155.73 0.00 336.61 549.29 704.14 1069.65 856.81 513.50 1009.97 1148.21 690.99 1053.00 393.79 235.78 792.78 559.48 395.23 637.69 1036.19 682.13 398.99 337.22 741.89 376.43 393.49 1019.32 747.60 349.98 1100.47 373.41 1281.14 945.28 648.03 854.10 199.96 543.44 1156.76 1334.24 1035.56
1584.69 646.69 333.72 223.88 328.89 949.02 364.89 907.37 860.28 214.91 260.32 173.13 337.55 300.00 922.85 486.01 307.25 237.07 317.84 185.16 93.74 514.53 321.08 459.58 177.37 221.12 266.98 212.97 576.38 1005.05 1079.51 257.68 593.03 371.64 981.21 833.63 757.71 577.46 275.95 51.19 440.98 510.80 938.63 532.95 384.57 536.91 935.97 89.20 785.11 1021.10 506.88 1113.69 180.88 336.61 0.00 386.17 400.34 946.13 747.50 384.82 858.18 1080.42 413.49 989.45 238.81 123.71 624.02 359.44 164.75 482.71 905.69 559.67 174.34 123.17 515.16 305.30 170.19 864.34 465.32 283.70 977.98 59.14 1151.08 833.21 575.68 770.50 334.89 363.79 1034.30 1221.80 908.37
1332.11 435.42 551.41 503.25 80.86 655.80 397.45 544.81 539.26 500.89 396.68 527.12 509.34 275.73 670.91 377.69 131.80 550.00 427.57 281.29 442.48 330.65 608.68 385.60 520.27 257.61 119.19 495.33 304.22 720.58 824.55 232.48 361.61 455.95 698.75 560.33 515.19 365.70 563.25 391.40 201.38 422.03 690.60 371.17 128.04 420.47 573.41 356.53 635.03 774.57 190.03 858.73 460.25 549.29 386.17 0.00 359.14 649.29 480.08 36.95 541.33 723.22 372.29 704.04 171.08 313.51 458.09 269.30 450.73 197.30 621.79 404.21 306.71 408.39 402.52 598.47 469.57 578.93 424.12 294.66 738.38 345.12 817.12 470.65 280.25 513.89 396.12 78.80 775.96 904.95 622.96
1423.41 305.87 701.25 591.41 358.65 853.85 121.83 829.06 788.33 543.44 640.89 536.29 705.08 498.10 806.83 85.67 425.07 507.17 311.53 462.78 494.08 136.54 601.09 81.59 520.33 359.61 401.67 507.70 373.08 889.03 939.69 390.26 213.85 275.98 827.88 537.78 434.95 211.17 526.29 451.53 486.00 110.46 668.88 675.90 264.67 158.92 771.46 489.54 669.09 915.77 351.75 905.51 548.41 704.14 400.34 359.14 0.00 810.52 550.87 322.19 703.05 979.26 13.15 860.94 407.93 504.28 307.79 180.58 349.20 383.26 582.93 161.41 469.39 408.77 130.93 580.78 446.92 764.89 64.98 576.78 1023.00 438.02 988.98 777.80 343.87 675.61 624.98 313.91 803.13 1013.46 808.92
781.17 525.30 1087.65 1068.69 676.13 192.30 858.54 250.18 219.14 1068.59 972.07 1100.87 1084.73 864.11 63.07 724.85 720.18 1122.28 990.20 840.33 954.23 725.50 1184.07 735.17 1040.29 833.00 742.21 1061.03 492.89 148.52 219.73 767.81 713.23 909.81 49.46 293.39 493.31 779.17 1035.36 896.00 669.13 770.67 208.46 563.59 748.52 706.12 265.77 934.01 162.08 217.58 570.39 249.48 1025.69 1069.65 946.13 649.29 810.52 0.00 385.47 612.34 256.54 255.04 823.67 153.62 707.32 901.78 547.97 819.31 1052.83 463.42 416.28 728.88 899.34 997.41 679.59 1114.47 1071.67 81.79 815.10 850.96 591.59 947.22 345.92 263.33 514.47 346.84 945.21 708.97 126.67 353.75 82.99
1079.23 254.10 889.16 851.95 418.61 454.44 621.89 343.45 299.98 852.74 767.33 849.16 879.99 596.35 361.13 512.96 489.20 852.86 765.32 652.44 805.46 519.95 975.59 473.24 872.09 664.94 503.49 809.32 196.85 428.16 517.79 594.78 398.04 699.51 387.69 92.08 191.03 467.09 868.00 769.38 352.37 506.22 294.66 332.64 479.86 466.73 372.05 803.11 223.39 515.64 321.43 531.29 808.95 856.81 747.50 480.08 550.87 385.47 0.00 452.08 344.04 521.86 537.72 378.53 508.83 649.52 271.09 555.51 802.58 296.06 339.01 450.48 608.73 710.41 467.70 900.49 821.42 328.19 517.48 675.03 565.47 696.97 615.76 269.29 208.78 244.14 811.25 484.96 428.91 689.86 370.77
1301.21 404.66 528.05 540.20 63.79 692.34 415.28 581.76 576.21 506.58 359.73 536.62 472.39 251.77 651.19 395.52 107.84 527.52 409.47 287.51 434.58 353.43 571.73 350.38 532.31 220.66 148.11 532.28 267.27 683.63 787.60 221.25 397.80 489.86 661.80 523.38 478.24 328.75 531.12 388.02 229.10 385.08 673.53 408.12 145.87 416.17 610.36 393.48 598.08 737.62 215.67 821.78 497.20 513.50 384.82 36.95 322.19 612.34 452.08 0.00 566.97 758.06 335.34 667.09 147.72 348.96 427.33 280.29 487.68 160.35 584.84 413.85 288.18 385.07 405.96 579.94 486.24 541.98 387.17 330.45 766.10 382.07 854.07 507.60 243.30 493.70 359.17 96.63 739.01 914.97 586.01
891.77 496.30 1024.17 989.90 608.10 229.88 797.18 148.91 85.28 1005.11 910.80 1006.74 1023.46 694.86 275.01 677.21 550.93 1036.76 953.91 768.57 889.34 608.81 1128.79 639.95 975.40 784.39 591.20 974.95 475.88 296.45 406.15 720.87 684.23 904.66 306.00 264.39 464.31 753.28 1030.21 831.11 497.08 715.20 339.62 375.01 619.49 698.63 147.49 836.15 205.49 359.51 351.30 437.52 960.80 1009.97 858.18 541.33 703.05 256.54 344.04 566.97 0.00 327.32 716.20 246.82 643.84 774.19 518.97 733.74 878.79 458.27 547.44 721.39 848.04 928.85 674.27 1091.33 974.62 228.45 763.46 725.98 466.74 883.74 421.22 74.75 505.09 221.86 876.00 620.13 383.21 583.62 272.48
692.44 673.39 1142.49 1186.15 804.08 281.36 1025.71 259.50 321.18 1202.88 994.44 1237.67 1107.10 918.13 222.65 928.19 855.02 1232.53 1109.13 929.39 1070.20 859.79 1329.79 897.67 1188.38 978.72 841.19 1197.83 627.06 231.86 341.56 856.87 836.29 1028.74 216.63 441.48 608.22 905.34 1169.65 1044.09 674.90 918.76 344.59 552.83 851.26 854.21 260.06 1079.75 310.17 183.82 678.62 343.66 1173.78 1148.21 1080.42 723.22 979.26 255.04 521.86 758.06 327.32 0.00 992.41 182.23 841.61 962.07 696.06 911.56 1173.95 597.71 552.41 876.97 988.40 1090.08 891.21 1248.76 1192.79 216.08 957.46 958.98 371.46 1068.34 132.93 252.57 648.76 454.86 1034.27 802.02 276.39 339.54 172.05
1423.88 319.02 688.10 578.26 371.80 867.00 108.68 842.21 801.48 556.59 641.44 549.44 691.93 511.25 819.98 98.82 438.22 520.32 324.68 475.93 507.23 149.69 614.24 94.74 533.48 360.16 414.82 520.85 386.23 896.54 926.54 403.41 226.21 289.13 814.73 550.93 448.10 224.32 539.44 464.68 499.15 123.61 655.73 689.05 277.82 159.39 784.61 488.32 682.24 928.92 364.90 892.36 535.26 690.99 413.49 372.29 13.15 823.67 537.72 335.34 716.20 992.41 0.00 874.09 394.78 504.83 320.94 181.13 362.35 396.41 596.08 174.56 482.54 395.62 144.08 593.93 460.07 778.04 56.61 589.93 1036.15 424.87 980.61 790.95 357.02 688.76 638.13 327.06 789.98 1000.31 822.07
747.67 591.68 1100.24 1095.18 730.88 100.13 921.43 185.39 209.42 1111.91 945.67 1146.70 1058.33 918.86 135.08 826.99 774.93 1141.56 1033.52 838.42 979.23 768.82 1238.82 779.35 1105.69 887.75 802.72 1106.86 536.09 49.63 159.33 765.90 776.57 953.13 155.76 359.77 425.99 845.62 1078.68 1003.49 647.38 852.29 253.62 559.81 791.84 813.61 170.97 1041.50 269.57 184.08 598.12 190.70 1092.49 1053.00 989.45 704.04 860.94 153.62 378.53 667.09 246.82 182.23 874.09 0.00 750.64 899.87 614.35 862.63 1096.15 506.74 461.44 829.01 897.43 999.11 809.70 1157.79 1114.99 125.11 866.49 886.58 552.97 990.54 246.32 259.55 557.79 382.46 853.04 763.72 183.85 336.80 81.08
1370.35 432.35 380.33 400.37 90.22 775.89 286.10 711.69 645.94 361.27 341.67 409.47 434.90 236.84 730.57 419.54 92.91 445.88 434.66 143.61 299.28 379.86 518.52 371.90 416.18 245.85 52.64 426.91 350.82 767.18 871.15 85.95 480.64 482.31 753.17 600.91 561.79 455.05 470.11 290.00 226.64 422.83 699.96 341.00 184.20 449.23 744.02 328.01 681.63 806.76 292.54 905.33 397.68 393.79 238.81 171.08 407.93 707.32 508.83 147.72 643.84 841.61 394.78 750.64 0.00 205.06 409.68 240.18 345.51 243.90 668.39 471.99 217.48 303.93 427.48 488.86 364.35 625.53 401.66 231.39 763.64 239.90 936.74 641.26 336.87 531.69 378.97 156.57 830.38 998.52 669.56
1490.62 579.67 295.13 314.35 295.28 825.31 449.75 783.66 778.11 338.62 136.61 296.84 249.27 176.29 883.97 503.06 270.80 331.06 441.55 61.45 217.45 451.80 444.79 455.42 301.08 293.87 230.53 336.68 452.67 916.41 1020.38 133.97 564.16 388.52 916.68 709.92 663.64 585.00 399.66 174.90 404.53 506.35 905.02 409.24 272.93 532.75 812.26 212.91 761.07 970.40 422.89 1054.56 271.35 235.78 123.71 313.51 504.28 901.78 649.52 348.96 774.19 962.07 504.83 899.87 205.06 0.00 557.00 323.70 288.46 448.96 811.62 555.51 163.21 188.61 508.60 422.66 293.90 830.59 561.44 159.99 864.69 182.85 1055.97 709.50 481.88 664.11 229.18 322.17 984.71 1137.81 818.79
1241.73 22.67 790.01 752.31 441.92 640.83 350.80 566.86 571.07 698.19 693.61 728.23 806.27 541.24 523.63 241.87 397.31 751.81 524.45 495.55 646.12 274.96 763.34 226.20 732.18 412.27 357.04 752.92 160.06 605.83 680.29 495.63 210.60 547.01 550.19 254.58 266.55 279.65 722.73 587.89 387.19 283.28 457.16 491.93 437.68 233.61 558.44 625.90 385.89 678.14 268.06 693.79 717.58 792.78 624.02 458.09 307.79 547.97 271.09 427.33 518.97 696.06 320.94 614.35 409.68 557.00 0.00 357.92 656.99 266.98 414.53 256.37 570.00 638.28 196.61 798.00 670.28 561.16 332.12 619.92 836.56 574.25 808.12 526.50 189.27 515.23 769.94 388.44 591.41 852.36 533.27
1473.54 356.00 590.78 480.94 216.50 844.14 166.68 733.15 727.60 464.95 460.31 477.02 572.97 454.22 846.73 179.36 310.29 399.81 232.77 383.79 366.48 173.99 483.65 131.72 452.54 179.03 292.82 467.54 425.39 879.17 867.28 326.13 240.46 246.53 865.16 587.91 485.08 261.30 486.73 308.25 466.82 182.65 745.57 581.18 266.74 209.05 761.75 328.74 715.83 933.16 420.37 901.46 437.94 559.48 359.44 269.30 180.58 819.31 555.51 280.29 733.74 911.56 181.13 862.63 240.18 323.70 357.92 0.00 446.62 422.33 633.06 231.81 336.76 405.04 187.30 491.41 444.61 737.52 237.74 471.57 1003.82 341.01 1005.46 658.99 396.18 744.23 552.88 277.96 879.82 1044.75 781.55
1613.75 655.07 426.61 261.95 435.73 1082.66 471.03 988.51 922.76 194.24 386.65 187.09 404.26 436.00 1030.79 434.87 438.42 157.97 230.10 330.04 186.47 485.74 251.89 430.79 171.13 267.59 398.15 158.50 652.07 1112.69 1161.67 344.62 563.05 296.50 1081.55 886.98 784.15 560.37 177.09 159.13 520.86 459.66 930.11 686.51 396.06 508.12 1000.27 151.44 893.05 1152.27 527.49 1166.74 288.82 395.23 164.75 450.73 349.20 1052.83 802.58 487.68 878.79 1173.95 362.35 1096.15 345.51 288.46 656.99 446.62 0.00 589.41 896.09 510.61 213.09 111.41 480.13 231.58 97.72 971.04 414.18 448.45 1057.86 105.61 1233.82 921.38 667.14 851.35 442.83 441.00 1064.36 1242.41 1015.07
1140.86 244.31 624.23 644.27 224.14 531.99 450.45 532.31 535.32 605.17 520.08 653.37 632.74 412.12 490.84 330.48 268.19 658.86 526.78 387.51 543.18 262.08 732.08 317.03 660.08 381.01 296.54 670.81 106.92 523.28 627.25 329.85 393.90 446.39 509.27 364.17 317.89 439.32 571.94 533.90 336.95 380.72 522.72 335.57 285.10 351.90 505.30 553.83 437.73 577.27 106.97 661.43 641.58 637.69 482.71 197.30 383.26 463.42 296.06 160.35 458.27 597.71 396.41 506.74 243.90 448.96 266.98 422.33 589.41 0.00 424.49 374.66 448.53 545.42 334.83 651.05 608.25 381.63 401.67 475.29 668.68 483.80 707.25 517.17 92.97 333.35 519.52 256.98 586.48 754.62 425.66
1082.10 437.20 1048.72 990.78 648.63 414.42 643.42 540.55 541.30 986.58 944.57 1008.79 1057.23 827.09 425.18 548.98 683.16 1026.95 865.83 795.93 853.86 556.29 1067.03 501.34 980.32 796.87 680.55 968.95 358.95 448.63 478.63 754.34 431.89 824.34 366.82 347.90 147.98 451.63 996.43 912.09 691.38 540.07 207.82 671.65 610.66 500.58 461.18 914.01 404.08 518.51 483.53 444.45 996.66 1036.19 905.69 621.79 582.93 416.28 339.01 584.84 547.44 552.41 596.08 461.44 668.39 811.62 414.53 633.06 896.09 424.49 0.00 484.33 830.51 910.58 531.69 1075.54 945.42 410.13 601.49 899.78 867.26 846.55 611.05 472.69 388.16 583.15 944.01 602.60 342.07 615.16 380.36
1287.25 240.37 741.48 665.27 391.76 793.78 260.38 667.65 733.40 653.06 692.12 633.54 641.02 604.37 704.54 105.02 460.44 564.18 403.76 524.64 598.29 112.58 582.70 100.09 665.95 406.87 420.17 649.81 377.76 786.74 861.20 490.31 52.44 343.54 762.90 472.28 443.47 85.10 644.72 540.06 469.05 71.03 674.86 676.31 334.24 22.76 768.20 560.55 566.80 754.36 370.09 895.38 669.75 682.13 559.67 404.21 161.41 728.88 450.48 413.85 721.39 876.97 174.56 829.01 471.99 555.51 256.37 231.81 510.61 374.66 484.33 0.00 487.89 564.56 59.76 655.78 544.17 756.29 144.82 580.33 1006.05 500.53 884.34 719.77 364.55 653.62 730.35 325.41 809.11 1033.27 750.97
1466.86 592.67 397.72 287.88 294.26 925.66 447.31 851.52 815.48 262.13 299.82 307.70 401.55 311.03 881.53 435.44 301.47 244.13 346.54 132.82 196.73 442.75 393.82 387.80 280.98 157.73 270.12 314.20 555.45 913.97 948.58 131.53 521.25 278.93 914.24 700.81 739.83 517.38 331.05 184.50 444.12 494.55 903.39 558.48 277.15 465.13 880.12 194.38 758.63 967.96 496.74 982.76 244.88 398.99 174.34 306.71 469.39 899.34 608.73 288.18 848.04 988.40 482.54 897.43 217.48 163.21 570.00 336.76 213.09 448.53 830.51 487.89 0.00 101.68 443.38 291.76 239.65 830.16 511.31 323.20 981.12 115.20 1097.94 777.36 531.48 749.17 392.39 227.91 991.45 1126.05 816.35
1556.79 660.95 352.85 229.47 394.15 1013.92 424.64 946.93 881.18 219.80 325.22 206.02 311.44 364.90 983.21 494.44 396.84 142.45 262.76 218.63 177.53 519.42 322.62 464.47 179.30 226.01 356.57 212.52 639.39 1015.65 1050.26 233.21 597.92 271.98 1015.92 802.49 762.60 594.05 229.37 130.71 530.57 519.23 1003.89 597.85 339.10 541.80 958.69 92.70 860.31 1069.64 577.55 1084.44 200.01 337.22 123.17 408.39 408.77 997.41 710.41 385.07 928.85 1090.08 395.62 999.11 303.93 188.61 638.28 405.04 111.41 545.42 910.58 564.56 101.68 0.00 520.05 234.05 168.45 927.05 452.23 348.60 1053.30 64.03 1192.24 879.04 610.18 794.22 392.86 329.59 1093.13 1227.73 918.03
1301.49 219.28 704.97 646.01 363.78 830.02 251.07 727.41 759.55 611.79 645.21 589.03 700.78 559.86 718.78 45.26 415.93 578.42 420.07 538.88 553.78 78.35 642.46 55.58 639.84 366.33 375.66 611.00 349.25 800.98 875.44 513.43 105.69 355.39 729.05 451.19 383.71 124.42 605.42 495.55 483.29 94.35 653.77 664.02 274.48 37.00 747.63 516.04 581.04 814.12 328.46 890.40 625.24 741.89 515.16 402.52 130.93 679.59 467.70 405.96 674.27 891.21 144.08 809.70 427.48 508.60 196.61 187.30 480.13 334.83 531.69 59.76 443.38 520.05 0.00 670.02 499.66 716.46 135.51 594.07 1003.51 456.02 944.10 723.11 320.04 652.32 737.78 323.72 788.02 976.47 729.88
1758.62 820.67 386.58 284.12 579.08 1183.04 540.26 1143.28 1100.51 127.59 477.57 132.17 417.54 579.16 1141.89 664.07 552.12 91.60 273.55 400.37 250.58 665.40 177.89 617.21 152.33 389.57 511.85 172.01 757.97 1174.33 1240.34 423.29 701.71 353.94 1160.32 992.57 956.46 720.44 79.11 293.19 685.85 674.06 1161.69 800.21 544.56 633.02 1156.35 255.18 1027.11 1228.32 740.03 1274.52 312.03 376.43 305.30 598.47 580.78 1114.47 900.49 579.94 1091.33 1248.76 593.93 1157.79 488.86 422.66 798.00 491.41 231.58 651.05 1075.54 655.78 291.76 234.05 670.02 0.00 173.13 1032.68 645.76 571.10 1222.85 283.36 1358.30 1069.12 744.02 984.40 570.20 519.67 1215.37 1405.67 1076.71
1601.74 668.36 438.62 309.28 454.57 1101.50 486.01 1007.35 941.60 137.57 405.49 89.37 427.67 454.84 1053.22 491.72 457.26 81.53 327.82 355.35 229.50 499.03 154.17 444.08 177.49 265.58 416.99 129.21 684.34 1131.53 1188.23 371.18 577.53 289.80 1111.58 900.27 797.44 554.80 105.76 181.56 590.99 550.83 1027.83 703.14 384.05 521.41 1019.11 143.55 915.48 1171.11 623.32 1222.41 285.78 393.49 170.19 469.57 446.92 1071.67 821.42 486.24 974.62 1192.79 460.07 1114.99 364.35 293.90 670.28 444.61 97.72 608.25 945.42 544.17 239.65 168.45 499.66 173.13 0.00 989.88 511.90 453.89 1127.99 124.45 1252.66 940.22 655.13 896.04 465.26 433.29 1162.08 1338.24 1033.91
759.23 538.49 1005.86 1025.90 605.77 150.36 832.08 168.99 234.74 986.80 901.71 1035.00 1014.37 793.75 109.21 712.11 649.82 1040.49 908.41 769.14 924.81 643.71 1113.71 697.14 1041.71 762.64 678.17 1052.44 461.89 141.65 245.62 711.48 726.23 828.02 127.64 306.58 506.50 795.28 953.57 915.53 656.77 762.35 216.57 534.70 666.73 733.53 185.05 935.46 216.60 195.64 488.60 279.80 1023.21 1019.32 864.34 578.93 764.89 81.79 328.19 541.98 228.45 216.08 778.04 125.11 625.53 830.59 561.16 737.52 971.04 381.63 410.13 756.29 830.16 927.05 716.46 1032.68 989.88 0.00 741.38 856.92 542.30 865.43 325.62 234.44 432.68 421.50 901.15 638.61 204.85 372.99 44.03
1432.07 347.79 744.71 634.87 423.63 818.68 115.56 812.47 781.00 608.42 698.05 570.94 748.54 563.08 806.46 90.25 479.17 564.22 374.02 503.86 559.06 158.65 640.84 123.51 585.31 416.77 443.59 572.68 337.91 883.03 963.12 431.34 169.60 311.77 863.67 579.70 476.87 229.92 591.27 516.51 550.98 144.39 712.34 669.78 329.65 167.58 736.29 544.93 668.72 899.18 412.16 948.97 591.87 747.60 465.32 424.12 64.98 815.10 517.48 387.17 763.46 957.46 56.61 866.49 401.66 561.44 332.12 237.74 414.18 401.67 601.49 144.82 511.31 452.23 135.51 645.76 511.90 741.38 0.00 633.05 1070.35 481.48 924.00 761.08 308.70 735.02 689.96 378.89 846.59 1056.92 785.41
1500.05 642.59 360.38 339.44 316.40 786.45 517.49 771.84 706.09 498.61 242.65 456.83 355.31 78.68 846.76 586.13 222.61 479.50 553.56 221.44 377.44 593.44 604.78 538.49 461.07 364.75 262.88 496.67 546.82 838.60 948.30 204.85 632.77 548.51 900.42 643.59 757.79 659.20 559.65 334.89 328.73 624.13 846.17 492.69 388.60 603.09 809.17 372.90 709.02 936.46 422.24 979.67 382.44 349.98 283.70 294.66 576.78 850.96 675.03 330.45 725.98 958.98 589.93 886.58 231.39 159.99 619.92 471.57 448.45 475.29 899.78 580.33 323.20 348.60 594.07 571.10 453.89 856.92 633.05 0.00 859.76 342.84 989.97 706.41 562.52 504.12 150.02 339.36 824.72 1125.77 889.67
838.44 819.57 1143.97 1134.11 795.88 452.84 1041.96 373.31 439.06 1124.91 951.96 1151.11 1064.62 884.20 594.11 999.16 740.27 1195.75 1142.59 907.25 1062.92 930.76 1282.16 968.15 1155.35 986.76 711.00 1173.00 762.32 592.08 701.78 849.59 956.82 1115.07 588.09 657.55 756.50 1025.87 1184.28 1020.45 537.00 1043.40 676.93 744.26 855.14 983.29 473.86 1058.46 560.54 555.28 679.50 715.12 1091.11 1100.47 977.98 738.38 1023.00 591.59 565.47 766.10 466.74 371.46 1036.15 552.97 763.64 864.69 836.56 1003.82 1057.86 668.68 867.26 1006.05 981.12 1053.30 1003.51 1222.85 1127.99 542.30 1070.35 859.76 0.00 1003.54 504.39 447.47 761.65 355.64 1009.78 805.90 647.85 711.00 543.51
1543.12 596.92 354.65 189.99 330.12 977.05 375.43 882.90 817.15 155.77 281.04 203.97 332.30 330.39 970.47 448.08 332.81 205.98 326.79 244.30 152.88 455.39 278.62 400.44 214.30 161.98 292.54 199.27 590.72 1007.08 1063.78 246.73 533.89 336.01 993.07 789.05 698.57 530.02 230.21 110.33 466.54 475.96 939.86 580.90 325.43 477.77 894.66 140.88 844.25 1046.66 532.44 1097.96 232.99 373.41 59.14 345.12 438.02 947.22 696.97 382.07 883.74 1068.34 424.87 990.54 239.90 182.85 574.25 341.01 105.61 483.80 846.55 500.53 115.20 64.03 456.02 283.36 124.45 865.43 481.48 342.84 1003.54 0.00 1128.21 815.77 576.77 771.59 373.67 343.11 1070.28 1238.42 909.46
608.33 785.45 1275.42 1221.73 897.98 341.41 1039.56 392.43 415.08 1283.98 1127.37 1324.21 1240.03 987.76 284.49 989.36 843.83 1334.19 1234.03 1038.93 1179.74 969.33 1406.83 984.43 1268.30 1074.73 884.10 1289.04 715.12 236.85 284.77 966.41 936.78 1153.64 305.34 553.54 672.31 969.44 1279.19 1124.01 768.80 955.37 403.23 646.73 945.16 907.10 327.70 1162.02 422.23 129.98 721.46 312.21 1178.73 1281.14 1151.08 817.12 988.98 345.92 615.76 854.07 421.22 132.93 980.61 246.32 936.74 1055.97 808.12 1005.46 1233.82 707.25 611.05 884.34 1097.94 1192.24 944.10 1358.30 1252.66 325.62 924.00 989.97 504.39 1128.21 0.00 346.47 744.33 485.85 1094.32 895.92 268.98 206.61 281.59
861.46 503.83 1004.63 973.90 551.51 185.15 825.67 74.16 68.61 971.54 837.29 997.77 949.95 714.27 200.26 751.96 602.45 1020.65 891.76 743.96 913.13 683.56 1079.33 714.70 990.92 728.26 588.62 965.98 466.14 285.71 356.92 703.13 667.33 905.52 258.11 271.92 460.32 736.38 1033.90 862.05 422.33 764.10 264.87 300.26 598.69 699.55 102.76 827.18 280.24 354.77 426.05 391.10 930.90 945.28 833.21 470.65 777.80 263.33 269.29 507.60 74.75 252.57 790.95 259.55 641.26 709.50 526.50 658.99 921.38 517.17 472.69 719.77 777.36 879.04 723.11 1069.12 940.22 234.44 761.08 706.41 447.47 815.77 346.47 0.00 452.38 202.29 856.43 549.45 311.71 534.39 265.44
1177.94 166.60 707.38 737.24 307.09 509.98 424.26 526.54 508.76 698.14 603.03 681.52 689.14 495.07 497.76 312.10 351.14 736.66 571.12 480.48 636.15 311.17 808.36 264.46 663.31 457.29 350.81 641.68 29.21 574.33 654.42 422.82 340.94 490.73 556.12 280.08 240.18 394.04 664.91 626.87 368.22 371.21 459.49 361.08 271.08 341.79 427.59 636.78 360.02 614.35 153.79 688.60 727.53 648.03 575.68 280.25 343.87 514.47 208.78 243.30 505.09 648.76 357.02 557.79 336.87 481.88 189.27 396.18 667.14 92.97 388.16 364.55 531.48 610.18 320.04 744.02 655.13 432.68 308.70 562.52 761.65 576.77 744.33 452.38 0.00 426.32 602.47 320.32 593.74 779.87 476.71
1028.44 498.24 864.50 843.56 540.39 282.33 686.32 267.72 201.97 892.96 746.77 941.16 859.43 582.80 342.64 649.77 499.72 936.67 834.89 675.30 799.20 581.37 997.15 612.51 924.19 646.08 539.99 926.83 440.27 334.48 444.18 617.64 601.18 779.74 396.30 336.21 435.17 670.23 905.29 779.90 530.77 687.76 401.16 461.62 592.05 669.87 305.05 808.71 204.90 468.58 323.86 475.55 886.56 854.10 770.50 513.89 675.61 346.84 244.14 493.70 221.86 454.86 688.76 382.46 531.69 664.11 515.23 744.23 851.35 333.35 583.15 653.62 749.17 794.22 652.32 984.40 896.04 421.50 735.02 504.12 355.64 771.59 485.85 202.29 426.32 0.00 654.14 590.33 454.09 621.65 391.64
1499.02 763.83 247.20 291.46 422.96 752.91 663.07 879.04 821.31 469.08 92.63 488.57 205.29 228.70 927.40 710.65 372.63 519.64 543.56 274.77 341.93 680.98 619.43 684.60 417.87 507.19 412.90 448.73 626.44 892.15 1001.85 347.29 756.97 604.15 960.11 793.61 804.78 687.92 508.46 283.70 478.75 735.44 977.00 588.23 502.11 753.11 835.30 321.71 859.04 1013.83 572.26 1033.22 334.46 199.96 334.89 396.12 624.98 945.21 811.25 359.17 876.00 1034.27 638.13 853.04 378.97 229.18 769.94 552.88 442.83 519.52 944.01 730.35 392.39 392.86 737.78 570.20 465.26 901.15 689.96 150.02 1009.78 373.67 1094.32 856.43 602.47 654.14 0.00 455.80 974.74 1179.32 862.22
1266.93 411.11 536.90 485.29 66.35 734.60 318.65 623.61 618.06 490.04 407.58 517.47 502.33 304.07 708.76 298.89 160.14 472.04 380.31 300.18 370.83 355.99 581.26 346.53 441.47 230.19 151.23 477.63 341.79 780.26 865.42 242.52 377.85 447.41 758.43 577.04 511.92 410.51 539.05 312.60 268.90 358.00 676.09 439.59 49.24 348.17 652.21 350.61 571.02 834.25 268.83 899.60 442.29 543.44 363.79 78.80 313.91 708.97 484.96 96.63 620.13 802.02 327.06 763.72 156.57 322.17 388.44 277.96 441.00 256.98 602.60 325.41 227.91 329.59 323.72 519.67 433.29 638.61 378.89 339.36 805.90 343.11 895.92 549.45 320.32 590.33 455.80 0.00 810.34 983.75 682.64
740.03 568.74 1185.10 1155.80 743.99 222.27 886.29 348.40 345.81 1115.89 1067.37 1083.20 1180.03 903.40 111.45 833.28 837.78 1143.91 1090.70 932.44 1041.34 782.23 1280.18 793.02 1127.40 959.67 828.87 1043.36 580.00 168.83 171.11 859.92 756.67 1032.87 77.21 336.83 490.05 793.70 1158.42 983.11 682.66 829.35 134.25 611.97 837.97 793.23 304.66 1021.12 249.19 176.44 693.45 205.29 1112.80 1156.76 1034.30 775.96 803.13 126.67 428.91 739.01 383.21 276.39 789.98 183.85 830.38 984.71 591.41 879.82 1064.36 586.48 342.07 809.11 991.45 1093.13 788.02 1215.37 1162.08 204.85 846.59 824.72 647.85 1070.28 268.98 311.71 593.74 454.09 974.74 810.34 0.00 306.25 175.10
768.71 829.69 1378.85 1313.82 971.72 426.41 1108.99 522.19 521.81 1309.62 1271.95 1344.37 1293.13 1058.48 334.13 1021.73 914.55 1370.18 1277.52 1132.19 1176.90 972.43 1486.70 1003.57 1303.36 1135.63 954.82 1304.53 797.28 287.17 177.47 1063.88 1017.62 1201.01 352.85 597.78 713.23 1060.25 1326.56 1194.73 858.82 1061.33 407.34 834.65 983.11 1010.51 507.77 1199.77 466.47 336.59 714.92 170.71 1319.70 1334.24 1221.80 904.95 1013.46 353.75 689.86 914.97 583.62 339.54 1000.31 336.80 998.52 1137.81 852.36 1044.75 1242.41 754.62 615.16 1033.27 1126.05 1227.73 976.47 1405.67 1338.24 372.99 1056.92 1125.77 711.00 1238.42 206.61 534.39 779.87 621.65 1179.32 983.75 306.25 0.00 379.06
715.20 510.60 1049.89 1014.10 649.80 109.31 876.11 213.02 277.74 1030.83 945.74 1065.62 1058.40 837.78 65.18 756.14 693.85 1060.48 952.44 757.34 898.15 687.74 1157.74 734.88 1024.61 806.67 722.20 1025.78 455.01 97.62 201.59 684.82 698.53 872.05 97.89 278.69 478.61 767.58 997.60 936.84 687.77 771.21 172.54 565.70 710.76 746.96 191.70 974.85 202.92 151.61 532.63 235.77 1011.41 1035.56 908.37 622.96 808.92 82.99 370.77 586.01 272.48 172.05 822.07 81.08 669.56 818.79 533.27 781.55 1015.07 425.66 380.36 750.97 816.35 918.03 729.88 1076.71 1033.91 44.03 785.41 889.67 543.51 909.46 281.59 265.44 476.71 391.64 862.22 682.64 175.10 379.06 0.00
DEMAND_SECTION
1 0
2 58
3 89
4 57
5 43
6 80
7 75
8 28
9 43
10 67
11 60
12 80
13 50
14 90
15 28
16 96
17 45
18 9
19 3
20 78
21 84
22 53
23 69
24 52
25 48
26 57
27 45
28 24
29 99
30 31
31 3
32 80
33 81
34 23
35 20
36 71
37 18
38 67
39 42
40 53
41 91
42 40
43 83
44 13
45 39
46 54
47 1
48 37
49 41
50 42
51 11
52 64
53 39
54 29
55 78
56 94
57 13
58 37
59 3
60 56
61 99
62 34
63 1
64 40
65 21
66 17
67 35
68 83
69 100
70 80
71 78
72 40
73 6
74 51
75 11
76 35
77 74
78 12
79 97
80 46
81 67
82 6
83 64
84 85
85 87
86 71
87 89
88 24
89 17
90 5
91 39
DEPOT_SECTION
1
-1
EOF
