NAME: LDG95_3232_rain_95_0161
COMMENT: CVRP with travel times.  rootPos=3,custPos=2,demandType=3,avgRouteSizeIndex=2,weather=rain,lambda_cluster=1,lambda_random=4, T1=300,T2=700,beta=1, alpha(i,j) ~ U(0.8,1.2)
TYPE: CVRP
DIMENSION: 96
EDGE_WEIGHT_TYPE: EXPLICIT
EDGE_WEIGHT_FORMAT: FULL_MATRIX
CAPACITY: 60
NODE_COORD_SECTION
1 0 0
2 327 30
3 143 834
4 85 689
5 49 941
6 134 812
7 58 885
8 517 210
9 7 923
10 219 738
11 439 199
12 160 709
13 185 667
14 104 854
15 6 826
16 125 815
17 16 719
18 131 813
19 584 133
20 439 291
21 422 187
22 489 169
23 210 808
24 97 835
25 424 194
26 213 808
27 398 201
28 409 138
29 141 700
30 276 929
31 485 73
32 202 724
33 253 691
34 33 814
35 33 623
36 3 822
37 324 123
38 177 901
39 233 802
40 83 856
41 430 188
42 205 933
43 506 643
44 144 791
45 37 727
46 380 815
47 236 885
48 78 767
49 439 39
50 526 161
51 21 733
52 347 109
53 331 71
54 276 174
55 22 856
56 448 200
57 387 181
58 17 783
59 24 634
60 452 213
61 98 769
62 280 944
63 232 770
64 184 780
65 349 809
66 337 578
67 210 783
68 432 202
69 152 824
70 60 877
71 300 699
72 199 794
73 288 881
74 319 663
75 225 556
76 159 814
77 119 829
78 61 824
79 117 722
80 225 814
81 64 793
82 184 734
83 53 869
84 412 210
85 354 15
86 212 114
87 207 741
88 464 427
89 500 252
90 399 195
91 457 40
92 78 898
93 207 12
94 488 106
95 6 721
96 188 798
EDGE_WEIGHT_SECTION
0.00 546.15 954.44 952.13 1073.03 949.88 1022.49 638.86 1085.44 837.63 568.37 907.13 892.05 1014.25 976.64 953.78 841.52 959.07 758.54 651.64 543.58 600.30 902.93 1001.71 546.24 916.23 513.46 554.36 848.83 1087.16 617.82 798.65 902.04 924.31 950.79 959.41 504.46 1016.80 922.65 1025.48 540.06 1054.58 1056.47 907.15 889.56 1061.12 1019.49 925.78 602.40 664.64 867.70 459.57 534.86 426.09 980.37 575.21 557.21 896.71 928.37 567.60 951.14 1068.25 883.28 890.03 1036.07 921.05 872.46 557.30 955.04 1020.14 973.91 894.49 1064.83 934.15 773.51 952.32 978.30 973.89 893.41 927.10 962.54 852.89 995.13 549.85 586.91 303.33 821.21 836.87 640.90 495.45 635.10 1055.57 489.30 606.73 819.00 915.74
546.15 0.00 911.87 877.81 1010.00 903.09 964.59 301.51 1057.26 816.43 230.12 754.91 708.72 944.97 950.16 886.00 857.53 905.15 321.58 344.63 192.96 310.28 881.73 959.55 210.30 879.88 222.60 181.74 819.01 1020.20 220.09 777.45 771.57 937.39 853.12 932.93 105.06 955.82 897.17 910.09 212.88 1010.11 741.68 876.80 854.58 852.23 928.69 886.31 131.00 328.70 828.72 116.76 48.28 198.42 993.45 234.54 222.05 899.43 847.60 260.59 845.46 1034.69 856.53 868.83 914.87 695.17 851.26 238.76 888.71 970.46 792.19 873.29 951.34 732.66 547.63 892.51 922.40 922.69 829.43 904.66 924.02 770.49 966.95 244.27 40.76 242.82 800.01 539.28 313.72 214.53 169.33 961.15 204.82 266.02 877.42 854.76
954.44 911.87 0.00 200.11 191.21 33.63 132.85 778.97 229.68 167.90 753.31 156.96 215.37 82.51 168.46 37.06 217.58 32.91 870.40 735.99 771.15 812.46 114.37 106.38 776.94 124.09 737.79 824.32 180.97 265.31 881.68 179.55 201.01 147.13 292.85 185.69 866.00 118.64 132.43 82.51 770.76 129.53 469.91 47.29 198.11 304.87 179.14 140.53 900.54 858.51 188.77 883.04 863.59 774.16 131.83 741.56 787.91 185.86 284.87 715.51 113.40 239.76 164.27 88.17 264.11 396.78 127.37 764.38 23.16 123.07 256.43 85.62 233.92 292.88 364.24 43.78 46.56 113.11 136.39 105.25 164.79 146.52 139.37 757.71 952.63 834.42 156.99 631.68 756.91 726.15 938.87 133.57 947.24 835.75 237.47 89.79
952.13 877.81 200.11 0.00 316.67 176.81 225.26 798.67 330.72 192.46 767.43 122.90 188.41 217.60 236.49 193.90 131.61 186.00 831.04 701.93 802.16 821.85 225.00 182.19 784.82 231.70 800.20 872.73 118.63 387.74 875.67 153.48 291.69 188.33 159.71 240.42 790.44 291.19 248.98 247.14 791.03 329.64 576.50 201.91 161.68 404.31 335.94 137.25 953.47 737.14 160.42 835.33 829.53 803.33 244.39 782.93 824.47 210.12 137.29 768.44 96.40 380.21 226.47 155.04 384.24 331.88 201.56 756.36 213.16 256.63 278.90 211.52 370.31 288.98 330.18 200.58 203.83 186.91 74.05 254.56 175.16 184.38 252.62 802.26 918.57 800.36 176.04 578.66 753.01 818.21 929.96 275.58 958.00 869.18 154.13 190.13
1073.03 1010.00 191.21 316.67 0.00 204.40 132.51 949.94 118.91 294.74 872.86 301.85 367.36 166.38 132.10 208.03 256.93 208.47 1022.39 863.75 873.11 948.38 264.28 134.48 860.23 253.15 860.79 948.53 312.73 312.67 1026.57 278.82 371.41 148.72 381.33 139.04 998.00 218.09 255.55 143.26 862.27 163.80 641.67 202.28 301.86 459.86 248.96 247.99 1026.39 978.63 275.07 1002.58 961.72 928.67 92.66 874.87 905.82 204.36 358.91 860.40 240.65 274.03 296.19 233.06 423.52 521.30 279.58 867.70 168.05 142.48 408.82 257.38 348.48 414.32 505.72 192.35 202.24 198.30 268.15 228.37 198.19 289.99 159.87 821.80 1040.92 975.90 256.26 768.08 878.35 876.20 1061.42 137.67 1012.49 980.64 254.03 242.18
949.88 903.09 33.63 176.81 204.40 0.00 127.19 759.00 221.63 159.95 766.50 170.15 210.81 67.43 173.17 17.09 206.92 9.19 865.84 727.21 750.56 807.28 109.54 72.75 753.22 122.84 720.44 800.60 147.34 261.43 894.87 163.57 229.20 113.50 326.48 167.53 850.02 131.58 133.71 102.31 747.04 163.16 481.51 42.73 164.48 300.31 185.05 144.11 911.16 838.54 187.64 880.03 854.81 802.07 156.01 748.99 764.19 179.49 307.70 728.70 147.03 248.50 148.78 72.19 268.78 407.18 118.71 764.28 36.35 134.06 248.48 97.22 247.11 287.04 355.46 49.69 46.43 93.14 102.76 118.44 144.82 148.06 131.32 737.74 943.85 825.64 141.01 627.12 751.07 702.43 922.52 153.37 913.61 848.94 218.81 81.84
1022.49 964.59 132.85 225.26 132.51 127.19 0.00 852.01 105.46 254.94 854.21 252.76 318.27 70.82 115.04 110.10 215.70 129.06 973.30 788.71 865.41 923.82 214.50 91.04 869.18 227.80 840.31 920.47 259.91 297.11 1013.40 288.88 309.46 131.85 313.18 97.81 932.71 193.87 223.61 54.50 866.91 206.95 552.77 156.73 235.84 407.36 229.87 173.03 1001.89 931.55 209.05 948.20 916.31 882.61 96.86 862.99 884.06 169.38 299.54 847.23 175.49 317.18 260.50 199.38 373.74 473.21 227.50 843.14 154.88 31.37 358.88 193.04 307.56 380.05 416.96 169.56 106.77 84.98 224.71 236.97 140.94 240.78 27.36 830.75 1005.35 887.14 267.13 719.99 844.08 822.30 963.56 50.32 971.26 967.47 203.49 192.24
638.86 301.51 778.97 798.67 949.94 759.00 852.01 0.00 954.36 715.02 138.91 675.77 693.93 814.26 906.24 741.91 807.32 761.06 173.44 161.09 108.55 101.81 782.23 815.46 122.58 795.53 125.40 183.97 739.87 935.79 235.02 677.95 662.47 867.54 798.20 920.53 270.93 806.75 782.21 840.63 104.78 861.04 594.62 788.54 862.92 744.13 843.92 807.18 268.90 79.54 836.13 238.02 299.72 268.36 887.89 127.16 160.81 901.84 786.37 101.11 776.51 903.21 741.57 769.33 785.57 602.52 751.76 133.81 786.69 880.89 590.60 772.12 866.93 542.45 532.84 801.56 778.31 817.96 784.45 789.47 855.27 722.88 864.05 145.25 342.27 391.12 700.51 355.74 78.42 143.41 274.95 881.09 497.05 206.14 829.84 757.24
1085.44 1057.26 229.68 330.72 118.91 221.63 105.46 954.36 0.00 357.29 918.93 345.18 410.69 154.20 135.96 212.45 250.39 212.44 1065.72 881.38 899.48 969.86 297.88 172.98 916.82 311.18 864.02 974.90 322.86 387.65 1042.11 372.26 392.84 176.24 374.79 132.50 998.44 256.82 301.26 147.17 916.15 238.78 636.15 245.14 266.49 490.74 292.82 264.55 995.61 1030.16 274.78 1028.95 1008.98 965.99 120.18 902.39 925.31 204.07 352.37 928.44 267.91 349.01 341.90 293.82 456.39 559.80 322.53 907.86 246.09 109.02 451.73 276.42 387.21 461.72 509.63 252.94 190.15 177.40 299.75 326.13 225.71 346.24 90.31 903.01 1080.31 979.81 355.54 806.58 925.75 882.03 1033.94 150.75 1005.95 996.18 266.44 285.09
837.63 816.43 167.90 192.46 294.74 159.95 254.94 715.02 357.29 0.00 689.83 118.03 132.38 209.00 275.77 144.84 266.20 150.76 787.41 640.55 690.42 748.98 93.59 216.72 707.76 106.89 713.56 765.84 129.30 289.70 818.20 38.98 99.23 270.47 299.29 258.54 765.74 179.17 103.96 243.56 707.33 233.46 427.82 148.88 210.60 241.16 217.92 185.85 837.06 794.56 237.39 792.39 768.15 672.38 290.82 678.08 682.94 288.99 276.87 652.03 203.58 266.76 63.32 107.30 252.83 282.59 70.97 694.98 152.24 275.63 171.10 99.59 246.14 172.57 268.80 127.94 181.24 220.89 163.16 129.64 225.43 65.79 266.98 694.51 857.19 738.98 38.48 529.37 636.60 724.18 840.89 276.62 924.95 772.27 281.16 78.11
568.37 230.12 753.31 767.43 872.86 766.50 854.21 138.91 918.93 689.83 0.00 644.53 598.34 824.40 819.70 771.71 684.58 766.16 215.55 121.84 37.16 91.75 727.49 818.78 35.42 740.79 54.91 112.58 708.63 864.40 194.67 652.76 648.66 812.41 726.34 802.47 200.44 767.50 747.21 799.71 35.08 821.79 531.31 738.03 740.18 674.43 818.00 775.86 199.20 153.82 713.39 166.63 229.23 197.87 813.98 31.77 89.42 779.10 737.22 37.80 735.08 889.40 721.77 743.54 737.07 563.27 697.02 11.07 730.15 860.08 576.79 743.13 795.54 517.26 437.25 748.92 796.13 812.31 719.05 745.58 813.84 660.11 856.57 51.06 238.36 320.63 675.32 316.49 135.92 72.92 188.56 850.77 402.87 148.74 707.10 738.20
907.13 754.91 156.96 122.90 301.85 170.15 252.76 675.77 345.18 118.03 644.53 0.00 65.51 221.23 277.03 178.58 214.85 178.10 720.54 579.03 679.26 714.14 148.95 240.81 661.92 162.25 677.30 749.83 64.10 345.06 825.14 108.48 185.27 217.36 204.67 266.27 796.73 229.28 168.67 232.43 668.13 283.57 492.04 147.56 200.24 317.26 265.51 131.41 832.25 755.31 227.03 783.33 706.63 758.33 273.42 660.03 713.34 244.75 227.09 663.07 134.07 306.87 139.42 130.37 299.26 320.73 118.48 633.46 133.80 256.54 224.37 164.59 290.93 243.98 207.28 137.60 185.28 167.78 108.68 185.00 212.83 62.68 254.87 679.36 795.67 677.46 95.65 481.82 708.01 695.31 833.09 258.18 863.43 779.21 216.93 146.95
892.05 708.72 215.37 188.41 367.36 210.81 318.27 693.93 410.69 132.38 598.34 65.51 0.00 275.18 311.76 214.71 269.87 220.00 655.03 532.84 633.07 667.95 193.17 254.38 615.73 198.59 631.11 684.32 129.61 371.99 778.95 93.40 138.06 252.09 270.18 306.12 750.54 294.79 195.34 286.41 621.94 339.89 426.53 168.08 214.27 268.11 314.24 196.92 786.06 719.74 241.06 737.14 660.44 711.21 308.15 613.84 667.15 256.78 283.17 616.88 177.34 363.00 178.03 184.78 330.75 255.22 167.21 587.27 199.31 322.05 209.93 189.24 337.52 228.90 161.09 203.11 239.23 233.29 120.71 221.85 256.10 128.19 320.38 633.17 749.48 631.27 115.96 416.31 692.93 649.12 786.90 323.69 817.24 733.02 282.44 210.49
1014.25 944.97 82.51 217.60 166.38 67.43 70.82 814.26 154.20 209.00 824.40 221.23 275.18 0.00 138.24 72.35 211.01 58.24 930.21 769.09 799.61 856.33 143.68 35.41 802.27 156.98 769.49 849.65 213.66 305.60 960.45 218.06 238.64 128.15 300.69 138.72 905.15 138.78 189.66 34.88 796.09 185.65 481.95 107.10 221.03 336.54 203.14 119.73 960.21 893.80 202.64 929.08 896.69 811.79 119.64 813.36 813.24 179.53 292.71 794.28 121.24 295.88 189.68 139.62 302.92 422.23 168.33 813.33 101.93 66.63 297.53 122.22 236.74 336.93 397.34 98.74 35.95 78.57 169.08 179.73 122.94 215.16 63.89 793.00 985.73 867.52 208.44 669.01 800.96 751.48 954.80 85.94 981.04 914.52 226.51 130.89
976.64 950.16 168.46 236.49 132.10 173.17 115.04 906.24 135.96 275.77 819.70 277.03 311.76 138.24 0.00 164.33 135.12 182.36 966.79 821.18 854.43 889.31 281.34 157.54 837.09 274.09 852.47 929.85 227.21 387.29 1000.31 295.53 368.52 59.67 259.52 17.23 883.17 277.02 300.89 113.57 843.30 271.29 620.19 192.40 186.30 449.98 302.21 152.09 1007.42 955.49 159.51 920.05 948.78 941.67 87.03 835.20 888.51 88.80 237.10 857.50 151.60 377.10 321.95 245.36 432.57 467.17 281.73 808.63 191.62 143.56 337.18 254.08 352.35 396.71 449.43 212.24 174.19 109.25 194.72 273.71 112.79 271.84 130.09 854.53 990.92 919.61 272.97 713.95 860.74 870.48 985.16 157.73 890.68 954.38 157.64 246.47
953.78 886.00 37.06 193.90 208.03 17.09 110.10 741.91 212.45 144.84 771.71 178.58 214.71 72.35 164.33 0.00 189.83 19.15 869.74 710.12 760.52 817.24 117.01 73.55 759.08 130.31 730.40 810.56 164.43 244.34 903.30 179.59 238.07 125.63 313.03 179.66 857.30 140.26 143.82 98.72 757.00 166.59 487.91 46.63 181.57 304.21 195.01 161.20 921.12 821.45 170.55 889.99 837.72 805.97 145.98 752.89 774.15 179.98 290.61 737.13 143.83 258.46 165.87 89.28 276.25 412.02 117.40 764.55 44.78 138.98 248.78 103.62 237.19 269.95 338.37 59.65 36.40 76.05 119.85 126.87 127.73 165.15 122.14 720.65 926.76 808.55 157.03 631.02 733.98 712.39 932.48 139.18 930.70 857.37 212.35 82.14
841.52 857.53 217.58 131.61 256.93 206.92 215.70 807.32 250.39 266.20 684.58 214.85 269.87 211.01 135.12 189.83 0.00 208.98 900.13 753.84 719.31 754.19 236.03 201.62 701.97 249.33 717.35 794.73 191.74 423.81 865.19 254.65 364.88 127.83 154.31 117.89 752.47 330.09 282.01 203.45 708.18 342.06 620.44 204.71 55.60 457.91 297.43 91.28 872.30 820.37 28.81 797.36 842.57 845.83 183.89 700.08 753.39 94.52 131.89 722.38 132.13 420.68 286.45 224.04 395.27 444.14 233.88 673.51 234.61 223.66 352.01 264.78 369.17 390.15 382.09 237.61 223.63 152.88 149.16 272.08 160.35 200.41 198.65 719.41 869.42 852.27 234.14 621.72 796.94 735.36 873.14 254.51 851.92 819.26 22.52 259.13
959.07 905.15 32.91 186.00 208.47 9.19 129.06 761.06 212.44 150.76 766.16 178.10 220.00 58.24 182.36 19.15 208.98 0.00 875.03 729.27 741.37 798.09 107.52 73.99 744.03 120.82 711.25 791.41 156.53 263.49 904.06 169.63 233.92 122.69 325.76 166.80 856.78 122.39 134.33 93.12 737.85 162.44 478.42 51.92 173.67 309.50 175.86 153.30 901.97 840.60 189.70 870.84 856.87 807.07 153.81 758.18 755.00 187.81 309.76 737.89 146.31 239.31 157.97 81.38 266.76 402.53 116.16 755.09 45.54 124.87 239.29 94.13 245.02 289.10 357.52 40.50 44.23 95.20 111.95 127.63 146.88 156.92 122.13 739.80 945.91 827.70 150.20 636.31 753.13 693.24 913.33 144.18 922.80 858.13 228.00 72.65
758.54 321.58 870.40 831.04 1022.39 865.84 973.30 173.44 1065.72 787.41 215.55 720.54 655.03 930.21 966.79 869.74 900.13 875.03 0.00 331.76 229.64 180.82 848.20 909.41 212.30 853.62 265.10 276.21 784.64 1002.34 252.96 748.43 793.09 907.12 887.80 961.15 404.00 949.82 850.37 941.44 226.30 994.92 729.53 823.11 869.30 865.65 969.27 851.95 225.12 93.90 896.09 359.11 369.86 408.06 963.18 221.67 271.05 911.81 865.38 247.72 832.37 1018.03 833.06 839.81 913.26 609.43 822.24 226.62 854.34 977.08 729.67 844.27 988.02 670.14 652.55 858.14 894.26 888.32 775.74 876.88 911.13 783.22 975.41 250.73 280.82 473.40 770.99 421.47 206.11 263.09 186.79 978.72 457.52 207.03 922.65 865.52
651.64 344.63 735.99 701.93 863.75 727.21 788.71 161.09 881.38 640.55 121.84 579.03 532.84 769.09 821.18 710.12 753.84 729.27 331.76 0.00 151.67 155.23 705.85 783.67 142.50 704.00 143.06 217.30 643.13 798.56 250.21 601.57 628.22 761.51 694.14 813.60 288.59 645.66 721.29 734.21 139.34 699.95 514.63 700.92 729.12 778.69 696.16 710.43 269.07 237.86 755.91 251.57 317.38 264.45 817.57 110.09 174.42 789.62 671.72 84.04 669.58 810.18 680.65 692.95 806.62 441.43 675.38 121.84 712.83 794.58 623.03 697.41 776.05 563.50 371.75 716.63 746.52 713.86 653.55 728.78 748.34 594.61 791.07 104.07 323.19 387.21 624.13 194.65 200.15 156.19 307.40 785.27 463.61 204.28 776.36 678.88
543.58 192.96 771.15 802.16 873.11 750.56 865.41 108.55 899.48 690.42 37.16 679.26 633.07 799.61 854.43 760.52 719.31 741.37 229.64 151.67 0.00 117.32 709.41 815.36 17.34 722.71 35.46 75.42 690.38 827.24 201.49 678.87 678.49 847.14 708.26 837.20 174.36 797.33 729.13 834.44 19.92 851.62 548.72 747.84 769.44 659.27 825.97 756.88 184.04 135.74 748.12 129.47 206.17 178.42 823.79 41.58 52.26 813.83 730.68 67.63 769.81 865.88 710.67 725.46 721.91 566.97 678.94 45.80 753.77 866.24 606.62 725.05 758.38 547.09 471.98 729.47 785.60 836.57 734.24 745.46 803.74 624.63 863.50 51.31 233.72 301.18 658.36 346.32 120.76 48.13 217.45 878.15 397.78 185.90 741.83 708.90
600.30 310.28 812.46 821.85 948.38 807.28 923.82 101.81 969.86 748.98 91.75 714.14 667.95 856.33 889.31 817.24 754.19 798.09 180.82 155.23 117.32 0.00 767.86 862.01 103.67 780.19 105.84 162.01 778.24 868.80 133.21 711.91 707.44 882.02 706.98 872.08 251.37 800.89 813.84 869.32 102.50 855.18 590.46 782.00 809.79 741.85 851.39 845.47 222.30 86.92 783.00 225.50 271.10 248.80 857.95 75.74 99.90 848.71 684.56 96.95 804.69 907.44 780.92 795.59 804.49 511.67 765.27 80.68 789.30 922.96 635.94 739.11 875.70 576.41 506.86 799.85 842.32 869.09 788.66 789.55 883.45 729.72 920.22 126.58 285.22 371.56 732.90 264.89 164.27 104.85 221.04 913.68 455.90 104.33 776.71 760.59
902.93 881.73 114.37 225.00 264.28 109.54 214.50 782.23 297.88 93.59 727.49 148.95 193.17 143.68 281.34 117.01 236.03 107.52 848.20 705.85 709.41 767.86 0.00 151.65 692.07 13.30 744.87 784.83 172.54 196.11 885.41 104.28 137.81 223.04 310.57 274.32 804.32 135.93 45.98 178.56 709.87 154.60 413.04 111.64 260.26 221.88 152.04 173.07 873.99 796.51 264.84 830.97 833.45 710.96 217.31 745.02 750.82 245.75 332.99 719.24 163.88 226.26 67.43 69.96 159.24 333.58 30.47 720.53 96.23 210.31 201.51 28.75 188.10 239.78 334.10 84.70 107.73 176.08 207.93 36.05 183.87 115.45 207.57 730.50 922.49 804.28 81.72 580.36 703.81 735.63 912.32 209.01 881.65 839.48 258.55 34.87
1001.71 959.55 106.38 182.19 134.48 72.75 91.04 815.46 172.98 216.72 818.78 240.81 254.38 35.41 157.54 73.55 201.62 73.99 909.41 783.67 815.36 862.01 151.65 0.00 818.02 163.98 785.24 865.40 178.25 304.13 947.15 218.74 262.98 139.24 317.31 140.31 896.47 166.92 197.63 70.29 811.84 155.26 507.19 94.56 185.62 352.14 218.84 113.51 966.01 895.00 172.81 912.01 911.27 836.13 153.94 800.82 828.99 170.58 304.22 780.98 137.86 265.49 190.60 133.76 307.51 386.82 169.01 827.39 107.01 89.37 304.42 122.90 269.19 301.52 411.92 114.49 71.36 89.66 133.67 187.70 104.75 220.81 82.67 794.20 999.44 882.10 202.58 633.60 765.55 767.23 971.42 121.35 981.94 901.22 220.29 144.38
546.24 210.30 776.94 784.82 860.23 753.22 869.18 122.58 916.82 707.76 35.42 661.92 615.73 802.27 837.09 759.08 701.97 744.03 212.30 142.50 17.34 103.67 692.07 818.02 0.00 705.37 52.80 92.76 707.72 844.58 218.83 683.80 679.70 829.80 713.71 819.86 191.70 788.16 711.79 817.10 17.80 842.45 546.60 759.21 757.57 657.15 808.63 774.22 181.92 118.40 730.78 146.81 217.04 195.76 835.16 52.95 58.75 796.49 736.13 68.84 752.47 857.39 727.88 708.12 719.79 569.63 661.60 28.46 761.19 868.90 607.83 707.71 775.72 548.30 454.64 746.81 788.26 829.70 716.90 728.12 812.69 641.97 866.16 38.43 251.06 318.52 675.70 337.15 118.64 50.79 220.25 868.16 397.97 174.21 724.49 719.05
916.23 879.88 124.09 231.70 253.15 122.84 227.80 795.53 311.18 106.89 740.79 162.25 198.59 156.98 274.09 130.31 249.33 120.82 853.62 704.00 722.71 780.19 13.30 163.98 705.37 0.00 758.17 798.13 170.38 184.84 898.71 117.58 151.11 236.34 322.90 276.82 817.62 149.23 51.96 191.86 723.17 141.30 425.37 124.94 254.20 231.97 165.34 180.68 887.29 809.81 278.14 844.27 831.60 724.26 230.61 738.59 764.12 259.05 345.32 732.54 177.18 223.48 54.13 76.66 172.54 327.19 43.77 733.83 100.93 223.61 205.10 41.08 194.14 253.08 332.25 98.00 121.03 189.38 214.96 24.78 197.17 109.39 220.87 743.80 920.64 802.43 95.02 573.97 717.11 748.93 925.62 195.71 870.38 852.78 271.85 48.17
513.46 222.60 737.79 800.20 860.79 720.44 840.31 125.40 864.02 713.56 54.91 677.30 631.11 769.49 852.47 730.40 717.35 711.25 265.10 143.06 35.46 105.84 744.87 785.24 52.80 758.17 0.00 110.88 725.84 862.70 235.52 674.58 692.33 833.94 672.80 835.24 145.53 788.72 764.59 804.37 52.13 843.01 578.63 739.18 772.95 691.48 829.37 792.34 216.25 171.20 746.16 164.93 174.32 142.96 852.62 70.41 61.29 795.06 695.22 85.12 767.85 892.82 746.13 760.92 754.12 536.85 714.40 43.84 718.31 836.12 620.46 741.98 793.84 560.93 470.02 694.01 755.48 806.45 751.82 780.92 839.20 660.09 833.38 38.99 258.11 265.72 693.82 337.71 152.97 18.01 238.10 842.69 398.53 189.59 739.87 743.84
554.36 181.74 824.32 872.73 948.53 800.60 920.47 183.97 974.90 765.84 112.58 749.83 684.32 849.65 929.85 810.56 794.73 791.41 276.21 217.30 75.42 162.01 784.83 865.40 92.76 798.13 110.88 0.00 765.80 902.66 172.19 754.29 753.91 914.10 783.68 912.62 171.94 862.96 804.55 884.53 95.34 917.25 624.14 823.26 844.86 734.69 901.39 832.30 259.46 205.68 823.54 127.05 155.78 185.56 899.21 117.00 111.89 889.25 806.10 143.05 845.23 941.30 786.09 800.88 797.33 617.01 754.36 121.22 829.19 916.28 682.04 800.47 833.80 622.51 547.40 804.89 835.64 886.61 805.03 820.88 879.16 700.05 913.54 126.73 222.50 308.32 733.78 411.95 196.18 98.17 228.32 935.59 386.56 126.26 817.25 784.32
848.83 819.01 180.97 118.63 312.73 147.34 259.91 739.87 322.86 129.30 708.63 64.10 129.61 213.66 227.21 164.43 191.74 156.53 784.64 643.13 690.38 778.24 172.54 178.25 707.72 170.38 725.84 765.80 0.00 305.66 865.43 113.38 208.68 182.58 213.64 236.61 832.56 238.58 169.40 248.54 710.30 292.87 457.87 149.33 136.14 325.38 289.10 137.53 874.42 819.41 162.93 812.12 770.73 763.23 238.64 724.13 742.64 180.65 236.06 699.26 108.97 329.95 151.79 159.64 279.97 356.99 142.07 697.56 183.69 257.56 160.27 171.50 311.58 219.80 271.38 171.11 192.28 199.48 44.58 145.60 187.73 65.75 232.55 741.69 859.77 741.56 90.82 545.92 683.83 738.51 897.19 292.99 927.53 819.50 206.70 150.02
1087.16 1020.20 265.31 387.74 312.67 261.43 297.11 935.79 387.65 289.70 864.40 345.06 371.99 305.60 387.29 244.34 423.81 263.49 1002.34 798.56 827.24 868.80 196.11 304.13 844.58 184.84 862.70 902.66 305.66 0.00 1002.01 288.51 303.10 356.32 481.17 370.06 950.01 198.02 187.24 298.50 847.16 148.87 520.95 281.50 407.25 228.37 126.38 342.57 1011.28 931.48 395.00 956.71 1016.44 876.25 300.26 868.82 879.50 409.52 473.19 882.60 301.72 38.64 227.88 259.58 165.73 462.35 226.58 873.04 242.15 328.48 351.25 224.86 68.86 408.85 517.09 236.33 269.65 320.39 313.69 160.06 344.02 294.23 324.47 878.55 1060.96 987.27 270.41 603.91 872.88 875.37 1044.69 347.43 1005.66 973.13 433.86 224.49
617.82 220.09 881.68 875.67 1026.57 894.87 1013.40 235.02 1042.11 818.20 194.67 825.14 778.95 960.45 1000.31 903.30 865.19 904.06 252.96 250.21 201.49 133.21 885.41 947.15 218.83 898.71 235.52 172.19 865.43 1002.01 0.00 781.13 777.03 980.45 840.19 983.08 228.91 895.87 890.78 964.19 218.51 950.16 659.68 898.48 919.19 857.86 946.37 956.47 89.09 177.97 892.40 202.60 255.37 322.27 974.43 192.22 233.11 914.46 817.77 166.17 915.69 1017.77 850.14 872.51 888.75 644.88 854.94 191.68 858.52 998.33 705.16 872.32 959.87 645.63 617.86 882.82 924.50 964.07 899.66 904.03 967.58 826.12 1021.05 231.60 230.87 314.49 803.69 398.10 242.05 238.06 117.44 982.90 389.30 45.93 887.71 866.57
798.65 777.45 179.55 153.48 278.82 163.57 288.88 677.95 372.26 38.98 652.76 108.48 93.40 218.06 295.53 179.59 254.65 169.63 748.43 601.57 678.87 711.91 104.28 218.74 683.80 117.58 674.58 754.29 113.38 288.51 781.13 0.00 138.21 249.65 297.34 282.01 743.21 218.15 124.00 245.33 670.26 255.93 429.58 132.96 199.05 262.47 220.84 186.49 799.99 757.49 225.84 769.86 729.17 649.85 291.98 641.01 721.92 252.28 274.92 614.96 164.60 269.60 84.63 91.38 237.42 243.61 73.81 656.00 156.39 284.69 195.03 95.84 266.18 135.50 229.82 166.92 204.11 242.41 124.18 128.45 186.45 54.24 281.95 657.44 818.21 700.00 22.56 490.39 599.53 687.11 838.32 280.77 885.97 735.20 260.02 117.09
902.04 771.57 201.01 291.69 371.41 229.20 309.46 662.47 392.84 99.23 648.66 185.27 138.06 238.64 368.52 238.07 364.88 233.92 793.09 628.22 678.49 707.44 137.81 262.98 679.70 151.11 692.33 753.91 208.68 303.10 777.03 138.21 0.00 323.02 386.57 351.29 666.51 262.62 154.75 273.52 663.56 292.41 328.59 236.44 309.28 245.51 268.71 285.08 795.89 742.01 336.07 693.16 755.82 573.15 312.27 636.91 707.99 346.27 364.15 610.86 296.02 268.81 114.11 190.70 281.88 195.77 168.28 659.73 224.17 305.27 71.87 140.08 268.55 131.40 256.47 211.39 202.69 273.44 253.26 143.04 319.86 164.47 302.53 653.34 812.33 695.91 130.74 442.55 595.43 683.01 834.22 320.79 881.88 731.10 379.84 161.56
924.31 937.39 147.13 188.33 148.72 113.50 131.85 867.54 176.24 270.47 812.41 217.36 252.09 128.15 59.67 125.63 127.83 122.69 907.12 761.51 847.14 882.02 223.04 139.24 829.80 236.34 833.94 914.10 182.58 356.32 980.45 249.65 323.02 0.00 237.10 54.03 860.36 243.33 247.21 114.23 836.01 231.40 589.03 156.23 163.49 413.81 287.52 112.41 963.82 925.47 136.70 870.46 889.11 896.17 56.06 827.91 872.13 65.99 214.68 842.20 91.93 341.63 262.28 185.69 382.28 407.50 232.21 801.34 149.85 100.48 342.85 204.74 321.12 385.15 389.76 163.19 120.33 49.58 138.00 231.94 63.20 242.31 125.49 846.28 977.31 859.94 254.51 654.28 849.18 815.93 925.49 142.82 927.48 947.09 105.31 195.34
950.79 853.12 292.85 159.71 381.33 326.48 313.18 798.20 374.79 299.29 726.34 204.67 270.18 300.69 259.52 313.03 154.31 325.76 887.80 694.14 708.26 706.98 310.57 317.31 713.71 322.90 672.80 783.68 213.64 481.17 840.19 297.34 386.57 237.10 0.00 242.29 748.06 404.36 356.55 301.63 715.75 422.38 666.11 287.02 190.51 483.86 432.34 220.30 879.87 793.90 163.72 775.40 821.74 815.76 293.16 743.21 734.09 205.87 22.42 740.71 179.45 508.85 333.91 314.75 466.43 438.40 323.15 716.64 316.01 325.74 340.21 281.82 453.36 399.74 322.39 310.04 286.88 236.98 233.76 342.64 258.21 247.87 307.92 675.28 893.88 792.57 274.78 685.18 809.21 690.81 910.90 288.95 977.38 811.31 131.79 303.30
959.41 932.93 185.69 240.42 139.04 167.53 97.81 920.53 132.50 258.54 802.47 266.27 306.12 138.72 17.23 179.66 117.89 166.80 961.15 813.60 837.20 872.08 274.32 140.31 819.86 276.82 835.24 912.62 236.61 370.06 983.08 282.01 351.29 54.03 242.29 0.00 865.94 277.50 301.13 103.84 826.07 254.06 620.67 209.63 169.07 467.21 284.98 134.86 990.19 938.26 142.28 902.82 941.20 924.44 69.80 817.97 871.28 71.57 219.87 840.27 144.02 359.87 316.31 239.72 433.56 461.53 277.46 791.40 195.10 129.18 354.41 258.77 365.73 402.44 441.85 207.30 174.36 103.61 192.03 277.19 95.56 267.11 112.86 837.30 973.69 912.03 290.20 708.31 866.47 853.25 977.58 148.13 873.45 937.15 140.41 239.45
504.46 105.06 866.00 790.44 998.00 850.02 932.71 270.93 998.44 765.74 200.44 796.73 750.54 905.15 883.17 857.30 752.47 856.78 404.00 288.59 174.36 251.37 804.32 896.47 191.70 817.62 145.53 171.94 832.56 950.01 228.91 743.21 666.51 860.36 748.06 865.94 0.00 908.39 821.26 898.30 194.28 908.79 705.93 852.14 750.45 756.70 823.63 843.75 207.52 310.10 723.66 44.89 90.10 93.36 916.42 215.94 170.49 794.37 770.48 212.42 871.34 935.32 780.62 777.83 819.34 682.38 792.99 189.37 842.84 936.49 687.13 806.59 932.74 627.60 589.45 839.54 869.20 847.73 844.01 809.55 852.15 775.47 914.41 184.52 145.82 210.46 741.74 455.77 295.12 163.54 220.42 949.36 309.88 263.54 772.36 812.92
1016.80 955.82 118.64 291.19 218.09 131.58 193.87 806.75 256.82 179.17 767.50 229.28 294.79 138.78 277.02 140.26 330.09 122.39 949.82 645.66 797.33 800.89 135.93 166.92 788.16 149.23 788.72 862.96 238.58 198.02 895.87 218.15 262.62 243.33 404.36 277.50 908.39 0.00 162.74 173.66 785.00 54.29 506.83 153.48 281.06 325.98 84.76 244.03 914.73 883.52 307.41 897.23 907.54 835.77 235.75 755.75 820.08 281.96 403.51 729.70 232.04 164.52 191.18 136.15 265.44 430.94 158.51 767.50 95.48 191.52 241.51 122.54 130.39 301.04 408.19 119.78 161.46 193.75 234.34 165.49 249.71 185.33 166.51 749.73 968.85 878.37 204.97 677.72 765.07 801.85 953.06 154.79 1011.09 849.94 342.64 101.06
922.65 897.17 132.43 248.98 255.55 133.71 223.61 782.21 301.26 103.96 747.21 168.67 195.34 189.66 300.89 143.82 282.01 134.33 850.37 721.29 729.13 813.84 45.98 197.63 711.79 51.96 764.59 804.55 169.40 187.24 890.78 124.00 154.75 247.21 356.55 301.13 821.26 162.74 0.00 214.94 729.59 193.26 459.02 141.33 271.49 218.48 146.45 192.79 893.71 830.19 298.28 847.91 848.89 727.90 257.73 740.99 770.54 272.56 353.80 724.61 190.37 199.18 40.64 93.94 205.22 313.70 50.19 740.25 109.27 192.24 191.61 74.73 142.18 245.15 349.54 111.51 153.71 219.87 202.37 27.18 211.14 126.68 217.25 750.22 918.94 819.72 101.44 560.48 709.18 762.58 932.04 233.65 872.78 844.85 299.57 61.68
1025.48 910.09 82.51 247.14 143.26 102.31 54.50 840.63 147.17 243.56 799.71 232.43 286.41 34.88 113.57 98.72 203.45 93.12 941.44 734.21 834.44 869.32 178.56 70.29 817.10 191.86 804.37 884.53 248.54 298.50 964.19 245.33 273.52 114.23 301.63 103.84 898.30 173.66 214.94 0.00 823.31 204.61 516.83 118.33 201.43 371.42 238.02 152.70 983.05 920.17 174.64 927.87 861.81 846.67 84.76 815.21 848.12 168.59 279.21 798.02 150.74 314.84 224.56 170.68 337.80 452.88 203.21 788.64 105.67 60.37 332.41 157.10 271.62 368.67 362.46 126.29 70.83 64.65 203.96 187.76 120.61 229.03 56.86 819.37 950.85 832.64 222.77 699.66 832.70 786.36 984.30 51.06 977.29 918.26 219.54 165.77
540.06 212.88 770.76 791.03 862.27 747.04 866.91 104.78 916.15 707.33 35.08 668.13 621.94 796.09 843.30 757.00 708.18 737.85 226.30 139.34 19.92 102.50 709.87 811.84 17.80 723.17 52.13 95.34 710.30 847.16 218.51 670.26 663.56 836.01 715.75 826.07 194.28 785.00 729.59 823.31 0.00 839.29 528.80 741.41 763.78 639.35 826.43 776.80 164.12 132.40 736.99 149.39 210.86 195.09 817.36 35.15 62.71 802.70 738.17 55.30 758.68 875.19 730.59 725.92 701.99 563.45 679.40 34.67 747.65 862.72 594.29 725.51 778.30 534.76 460.85 746.14 782.08 833.05 734.70 745.92 794.89 644.55 859.98 40.47 253.64 317.85 678.28 333.99 100.84 44.61 202.45 872.03 400.01 172.58 730.70 728.82
1054.58 1010.11 129.53 329.64 163.80 163.16 206.95 861.04 238.78 233.46 821.79 283.57 339.89 185.65 271.29 166.59 342.06 162.44 994.92 699.95 851.62 855.18 154.60 155.26 842.45 141.30 843.01 917.25 292.87 148.87 950.16 255.93 292.41 231.40 422.38 254.06 908.79 54.29 193.26 204.61 839.29 0.00 561.12 176.82 327.64 326.38 85.16 268.77 969.02 937.81 318.30 951.52 961.83 865.56 256.46 810.04 874.37 297.39 414.40 783.99 242.93 110.23 195.43 190.44 313.84 468.49 185.07 821.79 149.77 208.14 295.80 176.83 184.68 355.33 462.48 173.31 157.50 228.25 265.92 166.08 260.01 239.62 220.80 804.02 1023.14 932.66 233.37 712.63 819.36 855.68 1007.35 209.08 1011.68 904.23 336.71 155.35
1056.47 741.68 469.91 576.50 641.67 481.51 552.77 594.62 636.15 427.82 531.31 492.04 426.53 481.95 620.19 487.91 620.44 478.42 729.53 514.63 548.72 590.46 413.04 507.19 546.60 425.37 578.63 624.14 457.87 520.95 659.68 429.58 328.59 589.03 666.11 620.67 705.93 506.83 459.02 516.83 528.80 561.12 0.00 480.65 586.25 292.58 513.22 529.16 678.54 647.33 613.04 661.04 731.91 721.59 601.59 519.56 591.51 616.65 688.53 493.51 540.23 559.59 442.70 440.77 355.22 450.55 430.40 542.38 479.90 548.58 350.19 384.29 481.67 294.08 429.06 455.60 516.47 539.45 502.45 449.09 565.17 441.44 545.84 558.94 769.67 753.14 452.14 429.24 523.42 565.66 716.87 567.89 848.97 613.75 635.94 405.77
907.15 876.80 47.29 201.91 202.28 42.73 156.73 788.54 245.14 148.88 738.03 147.56 168.08 107.10 192.40 46.63 204.71 51.92 823.11 700.92 747.84 782.00 111.64 94.56 759.21 124.94 739.18 823.26 149.33 281.50 898.48 132.96 236.44 156.23 287.02 209.63 852.14 153.48 141.33 118.33 741.41 176.82 480.65 0.00 207.21 257.58 180.53 126.69 905.53 834.03 217.18 877.31 828.52 759.34 179.12 706.26 800.10 212.93 279.04 732.31 107.57 243.98 171.96 95.37 270.88 376.57 141.89 732.83 58.00 170.36 261.64 96.36 261.89 268.46 329.17 45.17 71.15 122.68 127.86 122.90 160.57 144.13 154.83 767.28 917.56 799.35 110.40 584.39 732.49 745.16 926.59 169.39 956.34 852.55 227.23 95.00
889.56 854.58 198.11 161.68 301.86 164.48 235.84 862.92 266.49 210.60 740.18 200.24 214.27 221.03 186.30 181.57 55.60 173.67 869.30 729.12 769.44 809.79 260.26 185.62 757.57 254.20 772.95 844.86 136.14 407.25 919.19 199.05 309.28 163.49 190.51 169.07 750.45 281.06 271.49 201.43 763.78 327.64 586.25 207.21 0.00 404.44 283.27 119.66 927.90 869.58 26.79 795.34 840.55 843.81 214.91 755.68 808.99 97.50 168.09 777.98 157.95 406.52 230.85 236.67 385.58 388.54 229.79 729.11 185.58 239.62 296.41 239.08 396.34 334.55 357.37 209.88 210.91 150.86 93.56 267.67 109.38 144.81 217.54 775.01 813.82 827.55 178.54 566.12 798.58 790.96 928.74 252.49 796.32 874.86 70.56 229.08
1061.12 852.23 304.87 404.31 459.86 300.31 407.36 744.13 490.74 241.16 674.43 317.26 268.11 336.54 449.98 304.21 457.91 309.50 865.65 778.69 659.27 741.85 221.88 352.14 657.15 231.97 691.48 734.69 325.38 228.37 857.86 262.47 245.51 413.81 483.86 467.21 756.70 325.98 218.48 371.42 639.35 326.38 292.58 257.58 404.44 0.00 241.22 384.27 803.47 771.75 431.23 788.74 846.80 818.66 436.70 674.50 702.06 446.18 488.89 694.65 365.15 267.01 177.84 254.43 62.64 376.07 244.12 674.02 315.58 403.17 173.64 247.25 197.69 233.17 429.20 302.75 328.73 376.39 339.57 245.66 405.75 259.63 400.43 679.82 892.99 899.38 239.91 622.85 697.20 683.96 841.80 422.48 1016.98 811.93 475.00 256.75
1019.49 928.69 179.14 335.94 248.96 185.05 229.87 843.92 292.82 217.92 818.00 265.51 314.24 203.14 302.21 195.01 297.43 175.86 969.27 696.16 825.97 851.39 152.04 218.84 808.63 165.34 829.37 901.39 289.10 126.38 946.37 220.84 268.71 287.52 432.34 284.98 823.63 84.76 146.45 238.02 826.43 85.16 513.22 180.53 283.27 241.22 0.00 289.63 965.23 923.46 268.62 868.52 913.73 841.86 273.78 806.25 867.38 308.55 409.92 780.20 265.95 123.25 154.60 193.55 246.29 427.66 147.03 818.00 159.66 227.52 253.32 153.69 114.02 312.85 450.66 135.36 167.19 237.94 261.89 149.11 293.90 232.01 202.51 800.23 969.45 920.84 198.28 674.44 776.88 847.38 1003.56 239.55 994.71 900.44 317.32 175.17
925.78 886.31 140.53 137.25 247.99 144.11 173.03 807.18 264.55 185.85 775.86 131.41 196.92 119.73 152.09 161.20 91.28 153.30 851.95 710.43 756.88 845.47 173.07 113.51 774.22 180.68 792.34 832.30 137.53 342.57 956.47 186.49 285.08 112.41 220.30 134.86 843.75 244.03 192.79 152.70 776.80 268.77 529.16 126.69 119.66 384.27 289.63 0.00 912.74 874.39 120.09 886.35 838.03 836.34 168.47 791.36 809.14 159.01 204.61 794.47 40.85 338.39 208.88 132.76 332.31 424.03 142.60 764.79 148.55 166.35 297.80 188.71 277.89 321.99 338.68 159.00 136.83 88.05 92.95 204.04 93.18 132.25 174.24 808.19 927.07 808.86 165.98 613.23 786.02 805.01 874.41 203.76 915.98 910.54 106.78 167.85
602.40 131.00 900.54 953.47 1026.39 911.16 1001.89 268.90 995.61 837.06 199.20 832.25 786.06 960.21 1007.42 921.12 872.30 901.97 225.12 269.07 184.04 222.30 873.99 966.01 181.92 887.29 216.25 259.46 874.42 1011.28 89.09 799.99 795.89 963.82 879.87 990.19 207.52 914.73 893.71 983.05 164.12 969.02 678.54 905.53 927.90 803.47 965.23 912.74 0.00 219.99 901.11 162.63 166.28 282.64 981.48 199.27 226.83 966.82 902.29 185.03 871.89 1036.63 869.00 890.04 866.11 710.50 843.52 198.79 877.38 970.52 724.02 889.63 942.42 664.49 624.97 901.68 943.36 962.40 898.82 910.04 950.65 808.67 995.53 204.59 141.78 299.07 822.55 463.72 264.96 208.73 38.33 1001.76 318.48 135.02 894.82 885.43
664.64 328.70 858.51 737.14 978.63 838.54 931.55 79.54 1030.16 794.56 153.82 755.31 719.74 893.80 955.49 821.45 820.37 840.60 93.90 237.86 135.74 86.92 796.51 895.00 118.40 809.81 171.20 205.68 819.41 931.48 177.97 757.49 742.01 925.47 793.90 938.26 310.10 883.52 830.19 920.17 132.40 937.81 647.33 834.03 869.58 771.75 923.46 874.39 219.99 0.00 842.79 265.21 335.44 314.16 909.98 127.77 177.15 913.50 771.48 153.82 833.54 970.12 821.11 826.52 834.39 574.35 780.00 146.86 846.17 960.43 670.14 825.26 894.12 621.99 558.65 865.21 857.85 897.50 811.19 832.56 912.30 760.37 943.59 156.83 361.77 435.44 780.05 327.57 157.96 169.19 195.41 960.63 516.37 132.04 842.89 831.38
867.70 828.72 188.77 160.42 275.07 187.64 209.05 836.13 274.78 237.39 713.39 227.03 241.06 202.64 159.51 170.55 28.81 189.70 896.09 755.91 748.12 783.00 264.84 172.81 730.78 278.14 746.16 823.54 162.93 395.00 892.40 225.84 336.07 136.70 163.72 142.28 723.66 307.41 298.28 174.64 736.99 318.30 613.04 217.18 26.79 431.23 268.62 120.09 901.11 842.79 0.00 768.55 813.76 817.02 192.76 728.89 782.20 70.71 141.30 751.19 147.68 391.87 257.64 252.85 412.37 415.33 256.58 702.32 211.93 212.83 323.20 265.87 382.64 361.34 384.16 230.20 194.82 124.07 120.35 288.15 136.17 171.60 190.75 748.22 840.61 854.34 205.33 592.91 825.37 764.17 901.95 225.70 823.11 848.07 48.70 252.69
459.57 116.76 883.04 835.33 1002.58 880.03 948.20 238.02 1028.95 792.39 166.63 783.33 737.14 929.08 920.05 889.99 797.36 870.84 359.11 251.57 129.47 225.50 830.97 912.01 146.81 844.27 164.93 127.05 812.12 956.71 202.60 769.86 693.16 870.46 775.40 902.82 44.89 897.23 847.91 927.87 149.39 951.52 661.04 877.31 795.34 788.74 868.52 886.35 162.63 265.21 768.55 0.00 76.70 120.01 912.79 171.05 125.60 839.26 752.98 167.53 873.88 961.97 807.27 822.72 808.13 693.00 808.41 175.27 859.88 951.98 706.52 833.24 887.85 646.99 576.05 858.94 895.85 863.22 856.70 836.20 807.26 754.10 950.31 180.78 145.57 242.77 786.63 446.22 250.23 177.60 175.53 959.13 321.58 248.53 817.25 838.37
534.86 48.28 863.59 829.53 961.72 854.81 916.31 299.72 1008.98 768.15 229.23 706.63 660.44 896.69 948.78 837.72 842.57 856.87 369.86 317.38 206.17 271.10 833.45 911.27 217.04 831.60 174.32 155.78 770.73 1016.44 255.37 729.17 755.82 889.11 821.74 941.20 90.10 907.54 848.89 861.81 210.86 961.83 731.91 828.52 840.55 846.80 913.73 838.03 166.28 335.44 813.76 76.70 0.00 183.46 945.17 244.73 173.77 884.47 799.32 238.40 797.18 986.41 808.25 820.55 884.83 646.89 802.98 218.16 840.43 922.18 757.15 825.01 964.55 717.70 499.35 844.23 874.12 874.41 781.15 856.38 875.94 722.21 918.67 213.31 89.04 291.10 751.73 512.03 311.70 166.25 204.61 912.87 253.10 282.04 862.46 806.48
426.09 198.42 774.16 803.33 928.67 802.07 882.61 268.36 965.99 672.38 197.87 758.33 711.21 811.79 941.67 805.97 845.83 807.07 408.06 264.45 178.42 248.80 710.96 836.13 195.76 724.26 142.96 185.56 763.23 876.25 322.27 649.85 573.15 896.17 815.76 924.44 93.36 835.77 727.90 846.67 195.09 865.56 721.59 759.34 843.81 818.66 841.86 836.34 282.64 314.16 817.02 120.01 183.46 0.00 885.42 213.37 156.83 887.73 838.18 228.08 814.45 841.96 687.26 741.23 855.03 605.64 723.66 186.80 797.32 878.42 645.02 713.23 841.70 703.89 592.94 784.54 775.84 846.59 774.03 716.19 836.30 704.09 875.68 181.95 239.18 122.76 672.41 410.78 295.93 160.97 280.87 893.94 308.73 311.82 865.72 734.71
980.37 993.45 131.83 244.39 92.66 156.01 96.86 887.89 120.18 290.82 813.98 273.42 308.15 119.64 87.03 145.98 183.89 153.81 963.18 817.57 823.79 857.95 217.31 153.94 835.16 230.61 852.62 899.21 238.64 300.26 974.43 291.98 312.27 56.06 293.16 69.80 916.42 235.75 257.73 84.76 817.36 256.46 601.59 179.12 214.91 436.70 273.78 168.47 981.48 909.98 192.76 912.79 945.17 885.42 0.00 782.21 876.05 122.05 270.74 808.26 147.99 338.90 263.31 220.00 376.55 463.56 247.78 808.78 154.99 65.49 384.14 217.45 295.93 415.93 445.82 175.61 109.58 105.64 194.06 237.08 105.53 278.35 71.27 854.68 1028.73 916.00 288.82 710.34 879.96 847.05 981.55 103.17 943.25 928.50 161.37 221.62
575.21 234.54 741.56 782.93 874.87 748.99 862.99 127.16 902.39 678.08 31.77 660.03 613.84 813.36 835.20 752.89 700.08 758.18 221.67 110.09 41.58 75.74 745.02 800.82 52.95 738.59 70.41 117.00 724.13 868.82 192.22 641.01 636.91 827.91 743.21 817.97 215.94 755.75 740.99 815.21 35.15 810.04 519.56 706.26 755.68 674.50 806.25 791.36 199.27 127.77 728.89 171.05 244.73 213.37 782.21 0.00 93.84 794.60 752.72 26.05 750.58 877.65 710.02 732.39 737.14 551.52 714.55 26.57 718.40 847.70 565.04 736.85 799.96 505.51 452.75 742.70 777.41 823.95 734.55 713.81 827.46 666.21 853.48 72.47 253.86 336.13 663.57 304.74 112.28 79.76 220.33 842.78 421.99 146.29 722.60 726.45
557.21 222.05 787.91 824.47 905.82 764.19 884.06 160.81 925.31 682.94 89.42 713.34 667.15 813.24 888.51 774.15 753.39 755.00 271.05 174.42 52.26 99.90 750.82 828.99 58.75 764.12 61.29 111.89 742.64 879.50 233.11 721.92 707.99 872.13 734.09 871.28 170.49 820.08 770.54 848.12 62.71 874.37 591.51 800.10 808.99 702.06 867.38 809.14 226.83 177.15 782.20 125.60 173.77 156.83 876.05 93.84 0.00 847.91 743.99 118.01 780.20 916.14 746.26 766.87 764.70 580.60 720.35 79.88 779.60 879.87 657.00 766.46 810.64 597.47 506.06 755.30 799.23 850.20 775.65 786.87 856.00 676.89 877.13 84.02 247.71 279.59 710.62 364.79 163.55 61.76 265.16 899.18 383.68 204.23 775.91 749.58
896.71 899.43 185.86 210.12 204.36 179.49 169.38 901.84 204.07 288.99 779.10 244.75 256.78 179.53 88.80 179.98 94.52 187.81 911.81 789.62 813.83 848.71 245.75 170.58 796.49 259.05 795.06 889.25 180.65 409.52 914.46 252.28 346.27 65.99 205.87 71.57 794.37 281.96 272.56 168.59 802.70 297.39 616.65 212.93 97.50 446.18 308.55 159.01 966.82 913.50 70.71 839.26 884.47 887.73 122.05 794.60 847.91 0.00 187.08 816.90 143.76 372.00 268.34 191.75 404.99 473.49 238.27 768.03 186.48 166.47 340.92 232.36 344.37 387.78 417.87 173.19 143.58 103.94 136.07 249.79 65.83 223.60 184.43 813.93 911.32 888.05 257.33 663.62 851.81 813.07 967.66 208.81 893.82 913.78 77.71 210.88
928.37 847.60 284.87 137.29 358.91 307.70 299.54 786.37 352.37 276.87 737.22 227.09 283.17 292.71 237.10 290.61 131.89 309.76 865.38 671.72 730.68 684.56 332.99 304.22 736.13 345.32 695.22 806.10 236.06 473.19 817.77 274.92 364.15 214.68 22.42 219.87 770.48 403.51 353.80 279.21 738.17 414.40 688.53 279.04 168.09 488.89 409.92 204.61 902.29 771.48 141.30 752.98 799.32 838.18 270.74 752.72 743.99 187.08 0.00 755.76 171.47 499.40 314.43 292.33 467.22 447.51 303.61 726.15 308.03 303.32 362.63 304.24 445.38 410.42 299.97 302.06 278.90 214.56 211.34 334.66 250.23 270.29 285.50 697.70 888.36 770.15 252.36 694.29 831.63 713.23 905.60 311.37 956.12 788.89 109.37 321.07
567.60 260.59 715.51 768.44 860.40 728.70 847.23 101.11 928.44 652.03 37.80 663.07 616.88 794.28 857.50 737.13 722.38 737.89 247.72 84.04 67.63 96.95 719.24 780.98 68.84 732.54 85.12 143.05 699.26 882.60 166.17 614.96 610.86 842.20 740.71 840.27 212.42 729.70 724.61 798.02 55.30 783.99 493.51 732.31 777.98 694.65 780.20 794.47 185.03 153.82 751.19 167.53 238.40 228.08 808.26 26.05 118.01 816.90 755.76 0.00 753.62 851.60 683.97 706.34 722.58 525.47 688.77 48.87 692.35 832.16 538.99 710.80 826.01 479.46 455.79 716.65 758.33 797.90 737.59 737.86 801.41 669.20 854.88 65.43 276.16 350.84 637.52 278.69 125.48 72.15 223.36 816.73 395.94 120.24 744.90 700.40
951.14 845.46 113.40 96.40 240.65 147.03 175.49 776.51 267.91 203.58 735.08 134.07 177.34 121.24 151.60 143.83 132.13 146.31 832.37 669.58 769.81 804.69 163.88 137.86 752.47 177.18 767.85 845.23 108.97 301.72 915.69 164.60 296.02 91.93 179.45 144.02 871.34 232.04 190.37 150.74 758.68 242.93 540.23 107.57 157.95 365.15 265.95 40.85 871.89 833.54 147.68 873.88 797.18 814.45 147.99 750.58 780.20 143.76 171.47 753.62 0.00 329.40 189.35 149.37 323.12 408.21 165.20 724.01 136.56 179.27 269.24 155.94 273.91 300.10 297.83 130.59 107.43 90.51 64.39 163.19 78.76 173.10 177.60 769.91 886.22 768.01 187.16 593.65 764.13 785.86 833.56 201.80 953.98 869.76 132.14 149.60
1068.25 1034.69 239.76 380.21 274.03 248.50 317.18 903.21 349.01 266.76 889.40 306.87 363.00 295.88 377.10 258.46 420.68 239.31 1018.03 810.18 865.88 907.44 226.26 265.49 857.39 223.48 892.82 941.30 329.95 38.64 1017.77 269.60 268.81 341.63 508.85 359.87 935.32 164.52 199.18 314.84 875.19 110.23 559.59 243.98 406.52 267.01 123.25 338.39 1036.63 970.12 391.87 961.97 986.41 841.96 338.90 877.65 916.14 372.00 499.40 851.60 329.40 0.00 225.90 225.17 204.37 464.58 195.79 885.85 223.11 318.37 312.61 241.90 107.50 372.14 487.06 198.81 267.73 320.62 325.34 198.70 370.24 264.20 325.76 894.08 1075.45 957.24 247.04 642.55 836.17 908.18 1074.96 319.31 1044.30 971.84 440.57 248.64
883.28 856.53 164.27 226.47 296.19 148.78 260.50 741.57 341.90 63.32 721.77 139.42 178.03 189.68 321.95 165.87 286.45 157.97 833.06 680.65 710.67 780.92 67.43 190.60 727.88 54.13 746.13 786.09 151.79 227.88 850.14 84.63 114.11 262.28 333.91 316.31 780.62 191.18 40.64 224.56 730.59 195.43 442.70 171.96 230.85 177.84 154.60 208.88 869.00 821.11 257.64 807.27 808.25 687.26 263.31 710.02 746.26 268.34 314.43 683.97 189.35 225.90 0.00 76.59 226.67 273.06 66.28 732.84 141.60 232.88 150.97 87.46 182.82 204.51 308.90 138.46 153.73 224.48 161.73 67.82 251.30 86.04 253.57 726.45 897.29 779.08 62.07 519.84 668.54 756.12 904.21 249.84 913.42 804.21 301.41 95.01
890.03 868.83 88.17 155.04 233.06 72.19 199.38 769.33 293.82 107.30 743.54 130.37 184.78 139.62 245.36 89.28 224.04 81.38 839.81 692.95 725.46 795.59 69.96 133.76 708.12 76.66 760.92 800.88 159.64 259.58 872.51 91.38 190.70 185.69 314.75 239.72 777.83 136.15 93.94 170.68 725.92 190.44 440.77 95.37 236.67 254.43 193.55 132.76 890.04 826.52 252.85 822.72 820.55 741.23 220.00 732.39 766.87 191.75 292.33 706.34 149.37 225.17 76.59 0.00 229.20 334.99 46.52 736.58 65.01 206.25 201.73 56.48 236.12 226.88 321.20 79.86 118.62 165.33 159.40 99.52 183.73 102.55 203.51 746.55 909.59 762.07 68.82 581.77 690.91 758.91 928.37 189.39 945.12 826.58 239.54 35.09
1036.07 914.87 264.11 384.24 423.52 268.78 373.74 785.57 456.39 252.83 737.07 299.26 330.75 302.92 432.57 276.25 395.27 266.76 913.26 806.62 721.91 804.49 159.24 307.51 719.79 172.54 754.12 797.33 279.97 165.73 888.75 237.42 281.88 382.28 466.43 433.56 819.34 265.44 205.22 337.80 701.99 313.84 355.22 270.88 385.58 62.64 246.29 332.31 866.11 834.39 412.37 808.13 884.83 855.03 376.55 737.14 764.70 404.99 467.22 722.58 323.12 204.37 226.67 229.20 0.00 409.71 189.71 736.66 255.47 369.55 236.28 184.61 135.05 243.12 467.24 243.94 266.97 335.32 311.13 195.29 343.11 248.59 366.81 742.46 953.70 937.42 214.86 656.49 707.15 746.60 890.75 368.25 1026.93 842.82 417.79 194.11
921.05 695.17 396.78 331.88 521.30 407.18 473.21 602.52 559.80 282.59 563.27 320.73 255.22 422.23 467.17 412.02 444.14 402.53 609.43 441.43 566.97 511.67 333.58 386.82 569.63 327.19 536.85 617.01 356.99 462.35 644.88 243.61 195.77 407.50 438.40 461.53 682.38 430.94 313.70 452.88 563.45 468.49 450.55 376.57 388.54 376.07 427.66 424.03 710.50 574.35 415.33 693.00 646.89 605.64 463.56 551.52 580.60 473.49 447.51 525.47 408.21 464.58 273.06 334.99 409.71 0.00 317.42 563.27 400.00 476.19 226.12 335.85 393.49 166.59 147.54 379.71 398.46 388.23 367.79 338.81 430.06 291.78 469.49 545.50 714.16 617.72 266.17 246.78 554.34 518.84 732.71 503.94 735.14 616.00 459.10 329.88
872.46 851.26 127.37 201.56 279.58 118.71 227.50 751.76 322.53 70.97 697.02 118.48 167.21 168.33 281.73 117.40 233.88 116.16 822.24 675.38 678.94 765.27 30.47 169.01 661.60 43.77 714.40 754.36 142.07 226.58 854.94 73.81 168.28 232.21 323.15 277.46 792.99 158.51 50.19 203.21 679.40 185.07 430.40 141.89 229.79 244.12 147.03 142.60 843.52 780.00 256.58 808.41 802.98 723.66 247.78 714.55 720.35 238.27 303.61 688.77 165.20 195.79 66.28 46.52 189.71 317.42 0.00 690.06 111.53 234.96 217.25 46.11 192.37 209.31 303.63 107.28 138.20 193.45 186.65 66.52 185.38 84.98 232.22 700.03 892.02 773.81 51.25 564.20 673.34 712.39 881.85 235.91 912.12 809.01 249.38 57.45
557.30 238.76 764.38 756.36 867.70 764.28 843.14 133.81 907.86 694.98 11.07 633.46 587.27 813.33 808.63 764.55 673.51 755.09 226.62 121.84 45.80 80.68 720.53 827.39 28.46 733.83 43.84 121.22 697.56 873.04 191.68 656.00 659.73 801.34 716.64 791.40 189.37 767.50 740.25 788.64 34.67 821.79 542.38 732.83 729.11 674.02 818.00 764.79 198.79 146.86 702.32 175.27 218.16 186.80 808.78 26.57 79.88 768.03 726.15 48.87 724.01 885.85 732.84 736.58 736.66 563.27 690.06 0.00 741.22 849.01 587.86 736.17 804.18 528.33 426.18 737.85 799.32 801.24 707.98 740.38 802.77 649.04 845.50 45.90 227.29 309.56 678.56 316.49 135.51 61.85 199.63 839.70 403.99 145.75 696.03 733.31
955.04 888.71 23.16 213.16 168.05 36.35 154.88 786.69 246.09 152.24 730.15 133.80 199.31 101.93 191.62 44.78 234.61 45.54 854.34 712.83 753.77 789.30 96.23 107.01 761.19 100.93 718.31 829.19 183.69 242.15 858.52 156.39 224.17 149.85 316.01 195.10 842.84 95.48 109.27 105.67 747.65 149.77 479.90 58.00 185.58 315.58 159.66 148.55 877.38 846.17 211.93 859.88 840.43 797.32 154.99 718.40 779.60 186.48 308.03 692.35 136.56 223.11 141.60 65.01 255.47 400.00 111.53 741.22 0.00 146.23 240.77 95.61 210.76 291.89 341.08 24.30 65.98 120.83 139.11 82.09 163.07 154.14 162.53 757.30 929.47 811.26 133.83 615.62 755.92 736.32 915.71 124.38 927.69 812.59 255.16 74.13
1020.14 970.46 123.07 256.63 142.48 134.06 31.37 880.89 109.02 275.63 860.08 256.54 322.05 66.63 143.56 138.98 223.66 124.87 977.08 794.58 866.24 922.96 210.31 89.37 868.90 223.61 836.12 916.28 257.56 328.48 998.33 284.69 305.27 100.48 325.74 129.18 936.49 191.52 192.24 60.37 862.72 208.14 548.58 170.36 239.62 403.17 227.52 166.35 970.52 960.43 212.83 951.98 922.18 878.42 65.49 847.70 879.87 166.47 303.32 832.16 179.27 318.37 232.88 206.25 369.55 476.19 234.96 849.01 146.23 0.00 364.16 188.85 303.37 352.70 422.83 165.37 102.58 88.76 223.04 217.11 144.72 252.31 25.01 859.63 1011.22 893.01 275.07 722.97 816.73 818.11 932.19 42.34 1002.63 952.40 201.14 197.52
973.91 792.19 256.43 278.90 408.82 248.48 358.88 590.60 451.73 171.10 576.79 224.37 209.93 297.53 337.18 248.78 352.01 239.29 729.67 623.03 606.62 635.94 201.51 304.42 607.83 205.10 620.46 682.04 160.27 351.25 705.16 195.03 71.87 342.85 340.21 354.41 687.13 241.51 191.61 332.41 594.29 295.80 350.19 261.64 296.41 173.64 253.32 297.80 724.02 670.14 323.20 706.52 757.15 645.02 384.14 565.04 657.00 340.92 362.63 538.99 269.24 312.61 150.97 201.73 236.28 226.12 217.25 587.86 240.77 364.16 0.00 181.52 307.11 59.53 257.80 216.47 274.56 324.83 204.85 198.87 348.00 226.02 361.42 581.47 800.59 727.98 202.61 472.90 523.56 611.14 762.35 365.15 843.34 659.23 366.97 166.64
894.49 873.29 85.62 211.52 257.38 97.22 193.04 772.12 276.42 99.59 743.13 164.59 189.24 122.22 254.08 103.62 264.78 94.13 844.27 697.41 725.05 739.11 28.75 122.90 707.71 41.08 741.98 800.47 171.50 224.86 872.32 95.84 140.08 204.74 281.82 258.77 806.59 122.54 74.73 157.10 725.51 176.83 384.29 96.36 239.08 247.25 153.69 188.71 889.63 825.26 265.87 833.24 825.01 713.23 217.45 736.85 766.46 232.36 304.24 710.80 155.94 241.90 87.46 56.48 184.61 335.85 46.11 736.17 95.61 188.85 181.52 0.00 216.85 231.34 325.66 71.31 132.18 155.16 197.84 64.80 180.88 105.75 186.11 702.99 914.05 795.84 97.36 582.63 695.37 757.39 927.96 208.16 910.40 831.04 287.30 21.48
1064.83 951.34 233.92 370.31 348.48 247.11 307.56 866.93 387.21 246.14 795.54 290.93 337.52 236.74 352.35 237.19 369.17 245.02 988.02 776.05 758.38 875.70 188.10 269.19 775.72 194.14 793.84 833.80 311.58 68.86 959.87 266.18 268.55 321.12 453.36 365.73 932.74 130.39 142.18 271.62 778.30 184.68 481.67 261.89 396.34 197.69 114.02 277.89 942.42 894.12 382.64 887.85 964.55 841.70 295.93 799.96 810.64 344.37 445.38 826.01 273.91 107.50 182.82 236.12 135.05 393.49 192.37 804.18 210.76 303.37 307.11 216.85 0.00 366.64 491.72 235.06 200.79 271.54 338.30 169.36 327.50 268.86 296.90 809.69 992.10 961.90 243.62 640.27 830.67 806.51 975.83 285.18 1014.96 944.28 367.45 203.86
934.15 732.66 292.88 288.98 414.32 287.04 380.05 542.45 461.72 172.57 517.26 243.98 228.90 336.93 396.71 269.95 390.15 289.10 670.14 563.50 547.09 576.41 239.78 301.52 548.30 253.08 560.93 622.51 219.80 408.85 645.63 135.50 131.40 385.15 399.74 402.44 627.60 301.04 245.15 368.67 534.76 355.33 294.08 268.46 334.55 233.17 312.85 321.99 664.49 621.99 361.34 646.99 717.70 703.89 415.93 505.51 597.47 387.78 410.42 479.46 300.10 372.14 204.51 226.88 243.12 166.59 209.31 528.33 291.89 352.70 59.53 231.34 366.64 0.00 314.13 270.77 306.35 346.00 259.68 258.40 321.95 189.74 377.71 521.94 741.06 784.31 158.06 413.37 464.03 551.61 702.82 395.04 783.81 599.70 395.52 220.94
773.51 547.63 364.24 330.18 505.72 355.46 416.96 532.84 509.63 268.80 437.25 207.28 161.09 397.34 449.43 338.37 382.09 357.52 652.55 371.75 471.98 506.86 334.10 411.92 454.64 332.25 470.02 547.40 271.38 517.09 617.86 229.82 256.47 389.76 322.39 441.85 589.45 408.19 349.54 362.46 460.85 462.48 429.06 329.17 357.37 429.20 450.66 338.68 624.97 558.65 384.16 576.05 499.35 592.94 445.82 452.75 506.06 417.87 299.97 455.79 297.83 487.06 308.90 321.20 467.24 147.54 303.63 426.18 341.08 422.83 257.80 325.66 491.72 314.13 0.00 344.88 374.77 375.06 281.80 357.03 376.59 222.86 419.32 472.08 588.39 470.18 252.38 394.32 561.69 488.03 625.81 413.52 656.15 571.93 404.61 307.13
952.32 892.51 43.78 200.58 192.35 49.69 169.56 801.56 252.94 127.94 748.92 137.60 203.11 98.74 212.24 59.65 237.61 40.50 858.14 716.63 729.47 799.85 84.70 114.49 746.81 98.00 694.01 804.89 171.11 236.33 882.82 166.92 211.39 163.19 310.04 207.30 839.54 119.78 111.51 126.29 746.14 173.31 455.60 45.17 209.88 302.75 135.36 159.00 901.68 865.21 230.20 858.94 844.23 784.54 175.61 742.70 755.30 173.19 302.06 716.65 130.59 198.81 138.46 79.86 243.94 379.71 107.28 737.85 24.30 165.37 216.47 71.31 235.06 270.77 344.88 0.00 84.73 121.81 126.53 106.39 177.77 134.10 162.63 733.00 933.27 815.06 148.68 619.42 734.80 712.02 905.44 148.68 951.99 836.89 250.90 49.83
978.30 922.40 46.56 203.83 202.24 46.43 106.77 778.31 190.15 181.24 796.13 185.28 239.23 35.95 174.19 36.40 223.63 44.23 894.26 746.52 785.60 842.32 107.73 71.36 788.26 121.03 755.48 835.64 192.28 269.65 924.50 204.11 202.69 120.33 286.88 174.36 869.20 161.46 153.71 70.83 782.08 157.50 516.47 71.15 210.91 328.73 167.19 136.83 943.36 857.85 194.82 895.85 874.12 775.84 109.58 777.41 799.23 143.58 278.90 758.33 107.43 267.73 153.73 118.62 266.97 398.46 138.20 799.32 65.98 102.58 274.56 132.18 200.79 306.35 374.77 84.73 0.00 70.75 149.19 143.78 126.71 180.61 99.84 757.05 963.16 844.95 181.55 645.24 770.38 737.47 940.99 118.10 960.04 878.57 221.29 116.88
973.89 922.69 113.11 186.91 198.30 93.14 84.98 817.96 177.40 220.89 812.31 167.78 233.29 78.57 109.25 76.05 152.88 95.20 888.32 713.86 836.57 869.09 176.08 89.66 829.70 189.38 806.45 886.61 199.48 320.39 964.07 242.41 273.44 49.58 236.98 103.61 847.73 193.75 219.87 64.65 833.05 228.25 539.45 122.68 150.86 376.39 237.94 88.05 962.40 897.50 124.07 863.22 874.41 846.59 105.64 823.95 850.20 103.94 214.56 797.90 90.51 320.62 224.48 165.33 335.32 388.23 193.45 801.24 120.83 88.76 324.83 155.16 271.54 346.00 375.06 121.81 70.75 0.00 154.90 202.92 55.96 220.30 87.09 796.70 963.45 845.24 233.08 635.01 810.03 788.44 924.07 115.71 947.18 918.14 154.89 158.19
893.41 829.43 136.39 74.05 268.15 102.76 224.71 784.45 299.75 163.16 719.05 108.68 120.71 169.08 194.72 119.85 149.16 111.95 775.74 653.55 734.24 788.66 207.93 133.67 716.90 214.96 751.82 805.03 44.58 313.69 899.66 124.18 253.26 138.00 233.76 192.03 844.01 234.34 202.37 203.96 734.70 265.92 502.45 127.86 93.56 339.57 261.89 92.95 898.82 811.19 120.35 856.70 781.15 774.03 194.06 734.55 775.65 136.07 211.34 737.59 64.39 325.34 161.73 159.40 311.13 367.79 186.65 707.98 139.11 223.04 204.85 197.84 338.30 259.68 281.80 126.53 149.19 154.90 0.00 190.18 143.15 110.33 216.34 753.88 870.19 751.98 135.40 537.02 723.71 767.69 897.95 255.02 889.88 853.73 164.12 176.36
927.10 904.66 105.25 254.56 228.37 118.44 236.97 789.47 326.13 129.64 745.58 185.00 221.85 179.73 273.71 126.87 272.08 127.63 876.88 728.78 745.46 789.55 36.05 187.70 728.12 24.78 780.92 820.88 145.60 160.06 904.03 128.45 143.04 231.94 342.64 277.19 809.55 165.49 27.18 187.76 745.92 166.08 449.09 122.90 267.67 245.66 149.11 204.04 910.04 832.56 288.15 836.20 856.38 716.19 237.08 713.81 786.87 249.79 334.66 737.86 163.19 198.70 67.82 99.52 195.29 338.81 66.52 740.38 82.09 217.11 198.87 64.80 169.36 258.40 357.03 106.39 143.78 202.92 190.18 0.00 183.96 134.17 242.12 766.55 945.42 827.21 110.35 585.59 722.43 771.68 934.14 206.47 845.60 858.10 294.60 64.43
962.54 924.02 164.79 175.16 198.19 144.82 140.94 855.27 225.71 225.43 813.84 212.83 256.10 122.94 112.79 127.73 160.35 146.88 911.13 748.34 803.74 883.45 183.87 104.75 812.69 197.17 839.20 879.16 187.73 344.02 967.58 186.45 319.86 63.20 258.21 95.56 852.15 249.71 211.14 120.61 794.89 260.01 565.17 160.57 109.38 405.75 293.90 93.18 950.65 912.30 136.17 807.26 875.94 836.30 105.53 827.46 856.00 65.83 250.23 801.41 78.76 370.24 251.30 183.73 343.11 430.06 185.38 802.77 163.07 144.72 348.00 180.88 327.50 321.95 376.59 177.77 126.71 55.96 143.15 183.96 0.00 179.11 143.05 835.36 923.20 846.77 209.01 672.41 785.98 839.50 912.32 151.87 905.70 921.65 143.54 202.36
852.89 770.49 146.52 184.38 289.99 148.06 240.78 722.88 346.24 65.79 660.11 62.68 128.19 215.16 271.84 165.15 200.41 156.92 783.22 594.61 624.63 729.72 115.45 220.81 641.97 109.39 660.09 700.05 65.75 294.23 826.12 54.24 164.47 242.31 247.87 267.11 775.47 185.33 126.68 229.03 644.55 239.62 441.44 144.13 144.81 259.63 232.01 132.25 808.67 760.37 171.60 754.10 722.21 704.09 278.35 666.21 676.89 223.60 270.29 669.20 173.10 264.20 86.04 102.55 248.59 291.78 84.98 649.04 154.14 252.31 226.02 105.75 268.86 189.74 222.86 134.10 180.61 220.30 110.33 134.17 179.11 0.00 268.14 675.94 811.25 693.04 33.73 538.56 653.77 672.76 842.08 278.52 879.01 789.44 215.37 84.27
995.13 966.95 139.37 252.62 159.87 131.32 27.36 864.05 90.31 266.98 856.57 254.87 320.38 63.89 130.09 122.14 198.65 122.13 975.41 791.07 863.50 920.22 207.57 82.67 866.16 220.87 833.38 913.54 232.55 324.47 1021.05 281.95 302.53 125.49 307.92 112.86 914.41 166.51 217.25 56.86 859.98 220.80 545.84 154.83 217.54 400.43 202.51 174.24 995.53 943.59 190.75 950.31 918.67 875.68 71.27 853.48 877.13 184.43 285.50 854.88 177.60 325.76 253.57 203.51 366.81 469.49 232.22 845.50 162.53 25.01 361.42 186.11 296.90 377.71 419.32 162.63 99.84 87.09 216.34 242.12 143.05 268.14 0.00 842.79 1007.71 889.50 265.23 716.27 841.74 815.37 957.20 60.44 986.31 975.12 176.13 194.78
549.85 244.27 757.71 802.26 821.80 737.74 830.75 145.25 903.01 694.51 51.06 679.36 633.17 793.00 854.53 720.65 719.41 739.80 250.73 104.07 51.31 126.58 730.50 794.20 38.43 743.80 38.99 126.73 741.69 878.55 231.60 657.44 653.34 846.28 675.28 837.30 184.52 749.73 750.22 819.37 40.47 804.02 558.94 767.28 775.01 679.82 800.23 808.19 204.59 156.83 748.22 180.78 213.31 181.95 854.68 72.47 84.02 813.93 697.70 65.43 769.91 894.08 726.45 746.55 742.46 545.50 700.03 45.90 757.30 859.63 581.47 702.99 809.69 521.94 472.08 733.00 757.05 796.70 753.88 766.55 835.36 675.94 842.79 0.00 219.12 304.71 680.00 298.72 133.93 54.40 239.62 859.83 359.54 185.67 741.93 724.47
586.91 40.76 952.63 918.57 1040.92 943.85 1005.35 342.27 1080.31 857.19 238.36 795.67 749.48 985.73 990.92 926.76 869.42 945.91 280.82 323.19 233.72 285.22 922.49 999.44 251.06 920.64 258.11 222.50 859.77 1060.96 230.87 818.21 812.33 977.31 893.88 973.69 145.82 968.85 918.94 950.85 253.64 1023.14 769.67 917.56 813.82 892.99 969.45 927.07 141.78 361.77 840.61 145.57 89.04 239.18 1028.73 253.86 247.71 911.32 888.36 276.16 886.22 1075.45 897.29 909.59 953.70 714.16 892.02 227.29 929.47 1011.22 800.59 914.05 992.10 741.06 588.39 933.27 963.16 963.45 870.19 945.42 923.20 811.25 1007.71 219.12 0.00 283.58 840.77 517.84 319.03 255.29 180.11 1001.91 176.70 276.80 884.38 895.52
303.33 242.82 834.42 800.36 975.90 825.64 887.14 391.12 979.81 738.98 320.63 677.46 631.27 867.52 919.61 808.55 852.27 827.70 473.40 387.21 301.18 371.56 804.28 882.10 318.52 802.43 265.72 308.32 741.56 987.27 314.49 700.00 695.91 859.94 792.57 912.03 210.46 878.37 819.72 832.64 317.85 932.66 753.14 799.35 827.55 899.38 920.84 808.86 299.07 435.44 854.34 242.77 291.10 122.76 916.00 336.13 279.59 888.05 770.15 350.84 768.01 957.24 779.08 762.07 937.42 617.72 773.81 309.56 811.26 893.01 727.98 795.84 961.90 784.31 470.18 815.06 844.95 845.24 751.98 827.21 846.77 693.04 889.50 304.71 283.58 0.00 722.56 533.54 418.69 283.73 337.40 883.70 185.97 303.40 874.79 777.31
821.21 800.01 156.99 176.04 256.26 141.01 267.13 700.51 355.54 38.48 675.32 95.65 115.96 208.44 272.97 157.03 234.14 150.20 770.99 624.13 658.36 732.90 81.72 202.58 675.70 95.02 693.82 733.78 90.82 270.41 803.69 22.56 130.74 254.51 274.78 290.20 741.74 204.97 101.44 222.77 678.28 233.37 452.14 110.40 178.54 239.91 198.28 165.98 822.55 780.05 205.33 786.63 751.73 672.41 288.82 663.57 710.62 257.33 252.36 637.52 187.16 247.04 62.07 68.82 214.86 266.17 51.25 678.56 133.83 275.07 202.61 97.36 243.62 158.06 252.38 148.68 181.55 233.08 135.40 110.35 209.01 33.73 265.23 680.00 840.77 722.56 0.00 512.95 622.09 706.49 860.88 258.21 908.53 757.76 249.10 103.91
836.87 539.28 631.68 578.66 768.08 627.12 719.99 355.74 806.58 529.37 316.49 481.82 416.31 669.01 713.95 631.02 621.72 636.31 421.47 194.65 346.32 264.89 580.36 633.60 337.15 573.97 337.71 411.95 545.92 603.91 398.10 490.39 442.55 654.28 685.18 708.31 455.77 677.72 560.48 699.66 333.99 712.63 429.24 584.39 566.12 622.85 674.44 613.23 463.72 327.57 592.91 446.22 512.03 410.78 710.34 304.74 364.79 663.62 694.29 278.69 593.65 642.55 519.84 581.77 656.49 246.78 564.20 316.49 615.62 722.97 472.90 582.63 640.27 413.37 394.32 619.42 645.24 635.01 537.02 585.59 672.41 538.56 716.27 298.72 517.84 533.54 512.95 0.00 394.80 350.84 485.93 740.00 658.26 369.22 636.68 576.66
640.90 313.72 756.91 753.01 878.35 751.07 844.08 78.42 925.75 636.60 135.92 708.01 692.93 800.96 860.74 733.98 796.94 753.13 206.11 200.15 120.76 164.27 703.81 765.55 118.64 717.11 152.97 196.18 683.83 872.88 242.05 599.53 595.43 849.18 809.21 866.47 295.12 765.07 709.18 832.70 100.84 819.36 523.42 732.49 798.58 697.20 776.88 786.02 264.96 157.96 825.37 250.23 311.70 295.93 879.96 112.28 163.55 851.81 831.63 125.48 764.13 836.17 668.54 690.91 707.15 554.34 673.34 135.51 755.92 816.73 523.56 695.37 830.67 464.03 561.69 734.80 770.38 810.03 723.71 722.43 785.98 653.77 841.74 133.93 319.03 418.69 622.09 394.80 0.00 145.45 268.14 859.07 493.47 196.12 819.46 684.97
495.45 214.53 726.15 818.21 876.20 702.43 822.30 143.41 882.03 724.18 72.92 695.31 649.12 751.48 870.48 712.39 735.36 693.24 263.09 156.19 48.13 104.85 735.63 767.23 50.79 748.93 18.01 98.17 738.51 875.37 238.06 687.11 683.01 815.93 690.81 853.25 163.54 801.85 762.58 786.36 44.61 855.68 565.66 745.16 790.96 683.96 847.38 805.01 208.73 169.19 764.17 177.60 166.25 160.97 847.05 79.76 61.76 813.07 713.23 72.15 785.86 908.18 756.12 758.91 746.60 518.84 712.39 61.85 736.32 818.11 611.14 757.39 806.51 551.61 488.03 712.02 737.47 788.44 767.69 771.68 839.50 672.76 815.37 54.40 255.29 283.73 706.49 350.84 145.45 0.00 220.09 837.42 413.94 192.39 757.88 757.03
635.10 169.33 938.87 929.96 1061.42 922.52 963.56 274.95 1033.94 840.89 188.56 833.09 786.90 954.80 985.16 932.48 873.14 913.33 186.79 307.40 217.45 221.04 912.32 971.42 220.25 925.62 238.10 228.32 897.19 1044.69 117.44 838.32 834.22 925.49 910.90 977.58 220.42 953.06 932.04 984.30 202.45 1007.35 716.87 926.59 928.74 841.80 1003.56 874.41 38.33 195.41 901.95 175.53 204.61 280.87 981.55 220.33 265.16 967.66 905.60 223.36 833.56 1074.96 904.21 928.37 890.75 732.71 881.85 199.63 915.71 932.19 762.35 927.96 975.83 702.82 625.81 905.44 940.99 924.07 897.95 934.14 912.32 842.08 957.20 239.62 180.11 337.40 860.88 485.93 268.14 220.09 0.00 974.53 356.81 116.71 895.66 919.00
1055.57 961.15 133.57 275.58 137.67 153.37 50.32 881.09 150.75 276.62 850.77 258.18 323.69 85.94 157.73 139.18 254.51 144.18 978.72 785.27 878.15 913.68 209.01 121.35 868.16 195.71 842.69 935.59 292.99 347.43 982.90 280.77 320.79 142.82 288.95 148.13 949.36 154.79 233.65 51.06 872.03 209.08 567.89 169.39 252.49 422.48 239.55 203.76 1001.76 960.63 225.70 959.13 912.87 893.94 103.17 842.78 899.18 208.81 311.37 816.73 201.80 319.31 249.84 189.39 368.25 503.94 235.91 839.70 124.38 42.34 365.15 208.16 285.18 395.04 413.52 148.68 118.10 115.71 255.02 206.47 151.87 278.52 60.44 859.83 1001.91 883.70 258.21 740.00 859.07 837.42 974.53 0.00 1021.58 936.97 236.57 198.51
489.30 204.82 947.24 958.00 1012.49 913.61 971.26 497.05 1005.95 924.95 402.87 863.43 817.24 981.04 890.68 930.70 851.92 922.80 457.52 463.61 397.78 455.90 881.65 981.94 397.97 870.38 398.53 386.56 927.53 1005.66 389.30 885.97 881.88 927.48 977.38 873.45 309.88 1011.09 872.78 977.29 400.01 1011.68 848.97 956.34 796.32 1016.98 994.71 915.98 318.48 516.37 823.11 321.58 253.10 308.73 943.25 421.99 383.68 893.82 956.12 395.94 953.98 1044.30 913.42 945.12 1026.93 735.14 912.12 403.99 927.69 1002.63 843.34 910.40 1014.96 783.81 656.15 951.99 960.04 947.18 889.88 845.60 905.70 879.01 986.31 359.54 176.70 185.97 908.53 658.26 493.47 413.94 356.81 1021.58 0.00 435.23 866.88 910.03
606.73 266.02 835.75 869.18 980.64 848.94 967.47 206.14 996.18 772.27 148.74 779.21 733.02 914.52 954.38 857.37 819.26 858.13 207.03 204.28 185.90 104.33 839.48 901.22 174.21 852.78 189.59 126.26 819.50 973.13 45.93 735.20 731.10 947.09 811.31 937.15 263.54 849.94 844.85 918.26 172.58 904.23 613.75 852.55 874.86 811.93 900.44 910.54 135.02 132.04 848.07 248.53 282.04 311.82 928.50 146.29 204.23 913.78 788.89 120.24 869.76 971.84 804.21 826.58 842.82 616.00 809.01 145.75 812.59 952.40 659.23 831.04 944.28 599.70 571.93 836.89 878.57 918.14 853.73 858.10 921.65 789.44 975.12 185.67 276.80 303.40 757.76 369.22 196.12 192.39 116.71 936.97 435.23 0.00 841.78 820.64
819.00 877.42 237.47 154.13 254.03 218.81 203.49 829.84 266.44 281.16 707.10 216.93 282.44 226.51 157.64 212.35 22.52 228.00 922.65 776.36 741.83 776.71 258.55 220.29 724.49 271.85 739.87 817.25 206.70 433.86 887.71 260.02 379.84 105.31 131.79 140.41 772.36 342.64 299.57 219.54 730.70 336.71 635.94 227.23 70.56 475.00 317.32 106.78 894.82 842.89 48.70 817.25 862.46 865.72 161.37 722.60 775.91 77.71 109.37 744.90 132.14 440.57 301.41 239.54 417.79 459.10 249.38 696.03 255.16 201.14 366.97 287.30 367.45 395.52 404.61 250.90 221.29 154.89 164.12 294.60 143.54 215.37 176.13 741.93 884.38 874.79 249.10 636.68 819.46 757.88 895.66 236.57 866.88 841.78 0.00 274.63
915.74 854.76 89.79 190.13 242.18 81.84 192.24 757.24 285.09 78.11 738.20 146.95 210.49 130.89 246.47 82.14 259.13 72.65 865.52 678.88 708.90 760.59 34.87 144.38 719.05 48.17 743.84 784.32 150.02 224.49 866.57 117.09 161.56 195.34 303.30 239.45 812.92 101.06 61.68 165.77 728.82 155.35 405.77 95.00 229.08 256.75 175.17 167.85 885.43 831.38 252.69 838.37 806.48 734.71 221.62 726.45 749.58 210.88 321.07 700.40 149.60 248.64 95.01 35.09 194.11 329.88 57.45 733.31 74.13 197.52 166.64 21.48 203.86 220.94 307.13 49.83 116.88 158.19 176.36 64.43 202.36 84.27 194.78 724.47 895.52 777.31 103.91 576.66 684.97 757.03 919.00 198.51 910.03 820.64 274.63 0.00
DEMAND_SECTION
1 0
2 10
3 6
4 7
5 7
6 9
7 8
8 10
9 9
10 7
11 5
12 9
13 7
14 5
15 10
16 9
17 9
18 5
19 9
20 9
21 10
22 7
23 8
24 10
25 7
26 10
27 8
28 10
29 5
30 6
31 9
32 10
33 9
34 5
35 6
36 6
37 8
38 9
39 9
40 8
41 10
42 10
43 8
44 8
45 5
46 9
47 8
48 6
49 6
50 7
51 7
52 7
53 8
54 9
55 5
56 6
57 7
58 6
59 9
60 10
61 9
62 5
63 5
64 9
65 8
66 10
67 5
68 10
69 5
70 6
71 6
72 6
73 5
74 9
75 10
76 5
77 9
78 10
79 9
80 8
81 7
82 5
83 10
84 7
85 7
86 5
87 5
88 7
89 10
90 10
91 5
92 10
93 10
94 9
95 9
96 10
DEPOT_SECTION
1
-1
EOF
