NAME: LDG90_3363_none_90_0067
COMMENT: CVRP with travel times.  rootPos=3,custPos=3,demandType=6,avgRouteSizeIndex=3,weather=none,lambda_cluster=1,lambda_random=4, T1=300,T2=700,beta=1, alpha(i,j) ~ U(0.8,1.2)
TYPE: CVRP
DIMENSION: 91
EDGE_WEIGHT_TYPE: EXPLICIT
EDGE_WEIGHT_FORMAT: FULL_MATRIX
CAPACITY: 645
NODE_COORD_SECTION
1 0 0
2 522 804
3 585 799
4 653 575
5 506 795
6 54 253
7 456 493
8 879 612
9 415 886
10 618 71
11 405 811
12 638 137
13 331 47
14 290 795
15 829 81
16 779 910
17 522 717
18 920 638
19 543 89
20 465 811
21 987 631
22 601 859
23 946 621
24 702 787
25 420 785
26 472 703
27 349 733
28 830 513
29 552 690
30 935 695
31 876 50
32 550 647
33 939 528
34 569 704
35 477 775
36 911 200
37 458 733
38 564 657
39 881 562
40 181 38
41 695 961
42 9 400
43 728 252
44 816 679
45 633 753
46 954 619
47 842 900
48 373 211
49 443 81
50 292 213
51 646 919
52 527 171
53 485 764
54 894 471
55 880 50
56 513 725
57 385 957
58 856 930
59 910 558
60 940 580
61 843 423
62 949 645
63 561 954
64 367 32
65 268 713
66 540 867
67 517 745
68 493 913
69 19 660
70 583 609
71 963 784
72 159 730
73 684 828
74 621 755
75 894 608
76 678 322
77 572 776
78 916 665
79 8 319
80 595 130
81 894 588
82 611 592
83 470 753
84 114 229
85 931 653
86 127 205
87 887 438
88 922 300
89 367 787
90 148 965
91 433 785
EDGE_WEIGHT_SECTION
0.00 921.39 972.00 814.69 891.78 310.30 722.16 946.27 1020.52 632.18 942.83 543.30 307.34 961.30 764.42 1160.28 889.07 989.14 519.78 958.87 1028.80 948.31 977.84 1077.47 934.90 933.52 868.81 946.90 846.32 1028.27 860.04 857.07 984.87 870.89 941.40 819.88 933.90 880.05 880.52 272.75 1074.62 472.57 739.11 1032.27 952.93 996.00 1198.49 524.59 440.32 417.69 1031.45 532.30 937.98 983.71 846.54 897.93 1108.01 1162.58 915.83 961.73 942.38 1006.74 1099.03 360.76 841.77 1004.87 906.75 1040.57 684.12 790.39 1096.44 851.74 1026.13 977.58 941.00 757.44 946.84 1011.17 365.45 621.68 913.04 830.24 960.10 255.28 1004.77 250.02 1007.62 939.84 939.66 1006.56 951.44
921.39 0.00 64.67 278.58 29.61 723.47 334.83 425.83 168.78 704.04 132.50 686.59 775.51 255.51 757.33 334.09 79.64 447.82 717.60 96.70 503.91 101.97 440.17 236.90 104.54 134.77 215.68 465.29 120.25 420.19 834.36 162.47 486.47 120.46 79.23 731.00 113.83 178.75 440.90 814.53 245.86 640.74 602.57 306.40 137.37 461.07 352.15 622.71 690.65 571.39 170.27 645.67 65.55 523.90 820.86 83.53 284.59 379.89 450.41 455.11 537.11 445.53 198.50 722.09 327.29 103.07 63.75 119.18 543.02 223.28 471.06 399.73 201.83 112.72 399.68 505.24 57.38 404.70 673.99 617.65 408.38 229.54 100.82 707.39 426.48 671.37 536.52 611.04 173.60 405.01 119.83
972.00 64.67 0.00 251.93 94.28 713.11 384.74 378.89 232.67 731.12 197.17 676.23 754.89 306.21 759.84 292.77 129.07 400.88 696.17 161.37 456.97 56.56 417.36 189.96 167.64 184.02 269.08 446.82 125.68 384.59 801.59 197.73 467.28 122.97 131.08 696.34 151.53 190.73 413.22 804.17 201.92 705.41 577.94 270.80 87.78 414.13 306.74 634.69 740.08 620.64 139.70 661.88 116.25 479.90 815.09 132.78 279.39 315.22 431.22 408.17 501.51 398.59 207.28 724.60 350.90 97.87 110.22 183.85 587.24 225.79 425.41 450.43 156.42 65.78 352.74 551.71 47.02 357.76 737.09 644.73 389.19 219.18 125.33 760.90 379.54 721.98 525.20 605.80 223.27 468.90 158.02
814.69 278.58 251.93 0.00 282.56 715.74 217.31 291.50 343.85 549.06 346.94 506.09 720.80 388.81 616.20 401.24 212.28 335.00 580.95 310.52 390.48 265.18 361.00 264.80 313.74 244.07 358.41 196.75 185.84 343.59 603.05 134.61 324.90 160.36 282.96 555.62 264.92 157.59 313.37 691.97 401.82 620.31 464.11 229.80 210.80 370.44 452.10 440.13 587.82 521.78 348.32 509.76 279.29 256.78 616.55 231.04 448.05 458.74 348.51 347.67 317.86 332.10 403.29 683.89 466.83 309.35 233.33 355.57 686.49 88.89 406.49 533.03 321.41 186.15 317.65 379.28 221.20 310.22 691.37 462.67 315.26 49.04 257.39 624.00 313.05 606.50 302.08 435.66 355.33 580.08 313.68
891.78 29.61 94.28 282.56 0.00 748.28 305.22 446.27 180.58 725.20 102.89 690.57 790.22 227.83 772.04 320.71 107.04 446.91 732.31 67.09 475.70 131.58 410.56 259.24 114.28 137.72 214.96 474.04 149.79 445.00 815.01 183.63 506.57 135.17 49.62 740.10 94.48 206.61 465.71 839.34 247.70 611.13 623.73 331.21 165.75 434.73 381.76 619.01 718.05 600.55 199.88 616.06 46.20 538.61 801.51 112.69 294.61 409.50 475.22 458.91 541.14 439.46 222.95 736.80 305.12 113.09 84.91 148.79 530.19 237.99 441.45 372.05 231.44 141.10 428.06 526.40 82.19 433.08 683.73 638.81 433.19 233.52 71.21 677.78 454.86 641.76 553.09 620.14 146.79 382.63 97.74
310.30 723.47 713.11 715.74 748.28 0.00 576.36 859.56 748.20 599.57 670.51 592.06 354.49 664.56 776.29 942.80 748.29 912.93 566.93 741.39 986.92 745.09 924.52 849.18 657.70 780.13 614.63 912.49 705.54 969.08 807.92 674.58 927.33 723.57 728.53 868.64 740.25 697.56 925.31 302.22 897.38 162.27 732.36 915.11 749.65 947.10 995.27 294.98 446.53 278.52 828.23 520.76 715.09 923.99 821.42 758.00 855.91 1001.94 924.80 881.81 947.37 953.42 877.36 404.91 655.84 754.24 729.29 820.86 488.53 694.34 1059.01 541.44 844.95 725.00 885.71 729.20 666.09 926.28 88.25 570.84 920.13 730.58 714.05 159.23 934.88 109.24 885.38 935.33 685.48 757.37 674.24
722.16 334.83 384.74 217.31 305.22 576.36 0.00 432.28 417.83 501.08 354.59 504.25 579.94 481.97 577.96 519.29 331.01 454.27 469.21 372.31 527.95 376.87 470.75 430.95 321.39 314.75 432.53 371.00 288.26 501.53 673.58 210.55 474.41 285.31 344.01 543.05 311.58 233.53 441.05 565.63 526.77 426.72 554.37 447.11 370.66 467.52 598.02 313.79 448.05 304.47 460.01 310.84 343.88 424.00 660.08 307.35 519.60 580.31 476.36 461.56 475.89 495.27 510.35 533.69 375.45 418.31 309.27 454.01 667.66 208.12 609.03 455.26 448.05 363.79 406.13 457.04 340.43 476.30 555.74 474.37 442.58 168.27 298.54 486.45 476.22 473.75 469.30 554.89 390.45 560.77 310.52
946.27 425.83 378.89 291.50 446.27 859.56 432.28 0.00 527.85 544.80 464.61 476.34 790.99 593.10 504.77 325.87 391.33 53.37 583.72 461.22 127.36 435.45 89.72 302.70 431.41 441.57 518.81 127.40 366.42 109.52 495.33 376.25 117.39 380.81 420.53 417.64 401.26 399.23 65.75 817.58 377.50 859.00 438.22 182.23 337.76 87.54 351.50 565.74 686.82 682.51 451.51 579.82 420.40 153.31 508.83 417.04 629.62 397.82 65.24 81.58 161.12 94.37 523.64 808.66 623.15 460.17 390.54 480.57 836.97 309.57 199.45 736.04 359.31 313.11 26.15 340.89 372.02 66.72 853.86 554.72 60.57 269.72 375.06 844.68 75.32 851.79 198.61 311.19 473.00 740.68 445.80
1020.52 168.78 232.67 343.85 180.58 748.20 417.83 527.85 0.00 816.11 77.69 751.86 818.16 188.84 887.05 430.35 229.59 581.22 823.90 124.45 577.78 236.37 591.14 348.52 96.44 218.87 187.51 540.60 272.34 565.00 884.32 274.54 600.95 250.18 157.25 801.39 178.99 297.52 534.46 945.86 323.76 585.93 709.88 451.21 297.21 612.86 442.47 694.02 832.73 705.41 271.58 684.71 168.55 564.58 897.82 217.55 130.71 478.15 569.77 609.43 602.43 594.30 176.05 764.74 251.93 134.80 213.46 96.73 492.06 329.58 598.53 318.68 310.65 272.56 554.00 645.38 222.95 564.54 665.89 729.72 566.98 294.81 152.79 765.24 586.32 806.30 609.88 681.43 121.59 236.23 112.98
632.18 704.04 731.12 549.06 725.20 599.57 501.08 544.80 816.11 0.00 756.86 103.51 324.84 812.64 324.63 853.42 651.59 598.17 112.40 746.12 644.53 748.48 618.32 676.79 723.66 660.51 774.85 523.87 610.51 649.10 234.71 541.57 556.71 608.15 699.47 380.09 681.36 564.55 558.27 461.29 849.47 719.11 213.05 661.55 667.87 609.36 889.50 342.57 233.71 321.05 822.62 190.24 701.48 458.69 247.92 669.00 864.49 877.52 550.42 584.17 500.42 639.17 841.37 280.74 876.53 758.22 640.29 823.22 964.70 505.33 710.00 817.53 733.40 692.52 553.70 310.38 684.10 611.52 626.93 86.39 582.28 528.09 682.12 540.95 620.12 490.33 413.39 484.04 780.06 1032.93 730.12
942.83 132.50 197.17 346.94 102.89 670.51 354.59 464.61 77.69 756.86 0.00 740.39 754.92 164.00 823.81 423.60 166.35 517.98 760.66 70.88 564.05 230.04 513.45 285.28 33.20 149.97 114.75 543.69 209.10 526.26 821.08 215.29 575.57 186.94 95.96 804.48 107.58 230.91 471.22 873.10 350.59 508.24 665.02 412.47 239.07 537.62 480.22 621.26 769.49 642.17 302.77 656.82 105.31 574.41 834.58 154.31 208.40 468.19 506.53 546.19 584.76 542.35 229.67 701.50 226.36 173.02 148.78 150.35 442.83 266.34 544.34 307.56 315.28 214.42 490.76 567.69 185.08 506.40 602.65 670.47 503.74 297.90 89.55 687.55 528.18 733.54 573.70 684.52 43.90 313.92 49.74
543.30 686.59 676.23 506.09 690.57 592.06 504.25 476.34 751.86 103.51 740.39 0.00 342.36 796.82 221.12 749.91 620.29 498.33 129.92 694.17 572.01 708.21 514.81 697.18 715.36 652.08 766.42 481.91 593.85 545.59 316.74 533.56 453.20 599.72 680.56 276.58 632.81 556.54 510.67 548.92 841.18 691.89 228.11 636.21 659.44 511.58 786.47 297.08 294.71 413.85 791.35 193.41 672.09 527.88 303.24 646.00 856.06 835.22 481.94 505.62 442.09 539.33 831.82 384.25 874.84 717.36 632.28 763.58 880.53 496.90 653.09 890.80 725.89 652.57 450.19 285.04 629.21 520.36 615.05 78.38 486.64 457.05 659.01 451.69 520.28 502.31 509.41 396.54 750.82 988.09 721.69
307.34 775.51 754.89 720.80 790.22 354.49 579.94 790.99 818.16 324.84 754.92 342.36 0.00 878.29 470.71 972.41 711.66 832.73 212.44 777.41 882.11 810.00 830.76 862.24 721.72 732.47 791.04 663.59 686.59 854.06 559.55 644.52 777.10 655.05 777.65 616.62 744.87 621.54 773.61 241.63 896.51 509.89 431.77 801.27 778.14 845.98 1041.62 284.53 132.98 282.64 869.52 280.73 778.67 709.10 552.83 737.37 919.93 993.58 800.83 814.51 635.04 852.09 942.27 53.42 756.67 810.20 743.24 894.69 721.78 666.46 928.72 779.12 836.06 775.28 784.59 450.10 731.00 811.26 442.74 339.53 801.51 671.76 764.57 295.87 833.04 245.25 700.28 736.58 790.78 995.05 705.18
961.30 255.51 306.21 388.81 227.83 664.56 481.97 593.10 188.84 812.64 164.00 796.82 878.29 0.00 836.81 530.08 256.97 636.74 816.77 170.49 665.53 344.58 600.39 407.77 179.23 261.81 186.06 585.56 299.72 619.35 875.29 271.42 645.91 275.13 178.21 846.35 217.78 294.40 612.55 920.40 475.53 590.85 599.59 520.82 343.25 624.56 574.31 692.57 838.82 640.70 425.78 733.02 189.96 645.59 861.79 256.45 217.20 596.68 647.86 637.63 640.87 629.29 342.71 847.53 121.62 317.09 237.39 285.57 411.49 322.45 669.28 144.22 393.73 318.60 601.78 643.89 300.59 598.87 712.44 726.60 610.25 339.77 218.04 721.16 620.65 711.28 642.47 726.39 120.10 292.42 195.77
764.42 757.33 759.84 616.20 772.04 776.29 577.96 504.77 887.05 324.63 823.81 221.12 470.71 836.81 0.00 799.04 693.48 474.20 351.04 810.91 550.71 772.65 510.55 731.77 790.61 764.05 890.14 419.45 673.71 549.97 95.62 711.63 449.41 636.87 759.47 145.91 772.59 718.63 482.22 621.03 790.67 895.83 237.22 574.36 762.80 526.19 782.21 518.20 515.83 497.77 843.64 414.53 760.49 418.54 82.12 719.19 973.54 818.65 510.27 523.97 343.65 515.20 903.17 437.56 942.25 792.02 716.63 876.51 1052.78 662.07 650.66 981.03 767.93 749.38 522.34 334.55 712.82 517.93 803.65 288.57 514.74 651.27 746.39 672.81 496.15 667.05 373.24 265.87 844.33 1099.88 796.18
1160.28 334.09 292.77 401.24 320.71 942.80 519.29 325.87 430.35 853.42 423.60 749.91 972.41 530.08 799.04 0.00 321.30 324.84 864.21 380.11 353.63 236.21 288.49 178.65 419.87 365.98 464.25 419.42 316.16 320.71 821.20 373.85 384.50 324.74 362.03 688.00 370.33 350.87 360.20 1033.86 138.27 931.47 674.53 243.40 207.35 312.66 78.73 794.83 932.31 802.60 179.48 781.45 364.04 426.88 832.44 314.74 502.72 90.04 378.20 336.84 474.11 317.39 294.04 926.37 575.86 321.20 302.85 333.62 747.70 369.89 258.23 660.45 136.35 232.00 299.72 577.20 276.71 358.22 968.71 788.83 336.17 409.74 363.87 905.00 336.44 912.46 459.44 605.64 451.47 666.58 418.18
889.07 79.64 129.07 212.28 107.04 748.29 331.01 391.33 229.59 651.59 166.35 620.29 711.66 256.97 693.48 321.30 0.00 413.32 640.58 129.37 472.58 175.78 407.44 207.77 133.15 70.57 204.97 409.03 42.75 405.31 789.10 120.46 469.38 56.61 85.20 669.82 81.30 105.16 424.25 793.27 298.07 662.20 523.10 330.86 113.95 383.27 385.95 549.12 611.01 513.57 249.91 615.47 67.01 460.05 775.60 25.71 331.36 397.85 433.76 420.61 464.68 421.18 276.43 658.24 316.58 151.51 33.58 197.11 517.01 146.26 465.64 365.04 200.08 125.84 365.18 425.77 96.78 380.35 700.08 565.20 391.73 163.24 96.30 681.37 402.13 639.05 492.60 549.86 194.24 431.45 116.61
989.14 447.82 400.88 335.00 446.91 912.93 454.27 53.37 581.22 598.17 517.98 498.33 832.73 636.74 474.20 324.84 413.32 0.00 628.25 470.58 76.51 416.48 36.35 260.01 484.78 477.55 567.35 169.14 388.41 75.77 548.70 412.81 132.36 367.47 471.71 435.86 454.63 389.83 108.62 870.95 412.36 880.99 458.21 159.70 359.75 51.99 308.01 619.11 728.56 722.06 428.98 623.94 473.72 175.30 556.32 439.03 636.92 344.45 117.66 84.70 214.49 41.00 480.95 832.68 669.40 466.83 412.53 533.94 890.34 362.94 176.46 772.02 316.62 335.10 48.14 382.63 394.01 43.73 907.23 576.71 84.59 323.09 428.43 898.05 21.95 891.34 220.60 354.06 526.37 794.05 499.17
519.78 717.60 696.17 580.95 732.31 566.93 469.21 583.72 823.90 112.40 760.66 129.92 212.44 816.77 351.04 864.21 640.58 628.25 0.00 738.25 698.03 752.09 644.73 739.81 727.46 649.50 763.84 541.16 599.50 641.62 347.11 561.00 564.66 597.14 716.58 406.50 670.35 583.98 561.17 454.07 838.60 710.45 230.34 653.31 656.86 641.50 883.60 316.34 164.79 323.35 811.61 158.37 707.59 508.39 360.32 666.29 853.48 866.51 596.48 602.92 422.60 639.65 835.19 265.86 810.28 752.29 659.72 755.87 934.22 494.32 727.29 819.83 768.52 681.51 580.11 327.67 673.09 598.82 629.23 127.09 593.69 531.91 671.11 508.31 620.60 457.69 487.84 526.46 769.05 1029.98 719.11
958.87 96.70 161.37 310.52 67.09 741.39 372.31 461.22 124.45 746.12 70.88 694.17 777.41 170.49 810.91 380.11 129.37 470.58 738.25 0.00 539.30 198.67 477.65 237.28 88.77 142.94 160.21 502.66 172.12 466.92 831.17 209.34 549.61 174.04 51.44 740.96 99.19 222.52 486.83 891.13 314.79 579.12 649.44 353.13 172.76 496.46 444.76 639.29 740.38 616.71 266.97 670.51 62.36 562.23 817.67 128.85 255.16 470.15 485.62 490.50 562.35 480.92 221.08 723.99 240.75 146.60 110.62 193.92 488.29 243.93 508.54 314.71 277.12 148.11 435.07 552.11 139.79 440.09 658.22 662.87 471.52 261.48 96.91 744.87 461.87 708.85 575.77 621.00 114.78 360.68 72.23
1028.80 503.91 456.97 390.48 475.70 986.92 527.95 127.36 577.78 644.53 564.05 572.01 882.11 665.53 550.71 353.63 472.58 76.51 698.03 539.30 0.00 492.99 65.14 336.52 530.85 518.52 618.25 232.31 459.79 120.09 554.72 430.57 161.15 422.95 519.97 464.65 500.70 407.59 148.28 936.69 469.29 954.67 491.43 201.85 415.84 89.31 336.80 693.10 791.73 749.08 471.13 659.98 519.84 204.70 541.22 493.31 624.50 385.55 112.97 111.72 286.15 58.76 557.46 828.69 722.59 442.98 464.60 544.53 936.41 436.93 215.21 809.75 393.13 391.19 121.82 445.80 450.10 99.21 981.22 578.35 130.33 397.08 474.50 955.58 77.43 918.36 231.14 378.13 572.44 814.01 545.24
948.31 101.97 56.56 265.18 131.58 745.09 376.87 435.45 236.37 748.48 230.04 708.21 810.00 344.58 772.65 236.21 175.78 416.48 752.09 198.67 492.99 0.00 446.77 156.47 206.51 200.50 317.65 461.93 182.24 419.95 811.13 229.71 493.42 154.95 172.81 721.88 202.90 247.29 406.02 836.15 158.73 738.28 535.43 325.37 103.48 432.88 250.18 690.66 786.79 658.77 83.14 677.58 154.62 507.56 797.63 170.91 283.09 298.93 438.43 464.73 544.59 451.23 150.72 756.58 407.46 101.57 142.20 153.44 638.61 257.77 374.97 488.80 99.86 122.34 409.30 540.71 79.00 410.40 761.84 676.71 430.00 251.16 181.89 748.91 432.18 698.29 550.90 637.78 273.94 458.06 214.58
977.84 440.17 417.36 361.00 410.56 924.52 470.75 89.72 591.14 618.32 513.45 514.81 830.76 600.39 510.55 288.49 407.44 36.35 644.73 477.65 65.14 446.77 0.00 290.30 521.13 475.06 583.83 167.17 404.89 98.86 583.08 400.71 96.01 393.47 460.18 399.51 488.74 377.73 97.32 887.02 416.77 897.47 445.51 171.99 376.23 24.17 271.66 635.18 726.59 685.71 441.27 595.89 456.76 175.59 569.58 433.15 667.21 320.41 94.25 48.35 228.67 28.90 511.24 829.05 685.88 488.40 429.01 559.35 911.91 399.29 202.46 744.61 346.91 351.58 64.62 380.66 410.49 69.73 943.58 593.19 80.96 359.44 464.78 895.23 47.95 854.99 219.13 342.76 557.35 793.19 508.30
1077.47 236.90 189.96 264.80 259.24 849.18 430.95 302.70 348.52 676.79 285.28 697.18 862.24 407.77 731.77 178.65 207.77 260.01 739.81 237.28 336.52 156.47 290.30 0.00 252.08 237.99 339.48 366.17 236.42 296.73 744.61 220.40 353.90 231.91 241.20 601.44 221.93 243.38 249.55 939.18 172.68 793.52 509.47 202.95 148.83 276.41 238.66 687.34 818.78 715.49 187.95 653.45 241.07 351.09 731.11 227.63 376.91 260.82 284.86 330.76 388.12 294.76 220.94 833.54 435.90 258.04 198.92 300.26 657.64 287.08 370.48 532.46 56.61 124.18 308.15 412.14 183.09 253.93 821.53 670.99 282.07 313.84 195.73 822.19 275.71 832.72 394.43 494.99 293.67 554.37 239.53
934.90 104.54 167.64 313.74 114.28 657.70 321.39 431.41 96.44 723.66 33.20 715.36 721.72 179.23 790.61 419.87 133.15 484.78 727.46 88.77 530.85 206.51 521.13 252.08 0.00 122.43 111.14 510.49 175.90 520.28 787.88 182.09 542.37 153.74 70.83 771.28 82.55 204.90 438.02 869.49 350.40 541.44 655.84 410.94 212.87 516.42 456.69 617.65 736.29 608.97 274.81 632.23 72.11 541.21 801.38 121.11 198.21 434.99 473.33 512.99 551.56 518.31 262.87 668.30 222.75 190.95 117.02 183.55 439.22 233.14 555.73 313.22 283.52 217.26 457.56 558.51 161.92 477.48 569.45 637.27 470.54 264.70 56.35 720.75 499.26 729.93 559.13 651.32 69.06 309.27 16.54
933.52 134.77 184.02 244.07 137.72 780.13 314.75 441.57 218.87 660.51 149.97 652.08 732.47 261.81 764.05 365.98 70.57 477.55 649.50 142.94 518.52 200.50 475.06 237.99 122.43 0.00 193.57 440.82 106.56 469.12 831.27 133.91 480.98 127.18 91.78 701.61 44.03 110.93 435.41 806.73 349.13 658.21 592.34 378.39 184.52 453.84 444.71 554.89 681.58 539.10 283.64 615.35 92.31 480.57 817.77 51.24 308.73 437.27 444.92 465.63 473.60 459.76 288.77 728.81 305.18 193.46 75.53 209.45 479.74 155.18 536.21 294.47 233.06 173.37 429.41 496.34 138.73 450.92 691.88 574.12 402.89 195.03 66.51 690.29 472.70 683.50 501.52 581.65 162.04 431.70 137.25
868.81 215.68 269.08 358.41 214.96 614.63 432.53 518.81 187.51 774.85 114.75 766.42 791.04 186.06 890.14 464.25 204.97 567.35 763.84 160.21 618.25 317.65 583.83 339.48 111.14 193.57 0.00 555.16 247.72 551.06 899.02 290.58 615.51 253.27 181.97 747.15 169.95 293.28 549.16 758.35 453.47 533.38 691.97 437.27 256.90 580.60 525.06 506.51 658.06 623.28 385.95 683.77 183.25 615.19 912.52 179.26 243.97 522.39 584.05 574.64 587.94 565.06 344.42 750.27 111.61 287.77 206.47 265.10 328.08 269.52 617.99 226.01 367.76 232.25 519.21 594.64 240.00 524.23 526.38 688.46 555.66 309.37 143.75 669.41 546.01 618.79 600.65 695.99 70.85 296.25 127.68
946.90 465.29 446.82 196.75 474.04 912.49 371.00 127.40 540.60 523.87 543.69 481.91 663.59 585.56 419.45 419.42 409.03 169.14 541.16 502.66 232.31 461.93 167.17 366.17 510.49 440.82 555.16 0.00 376.27 216.40 515.07 331.36 182.39 357.11 458.49 413.33 461.67 354.34 116.62 808.54 504.90 797.72 310.82 176.02 384.26 182.39 438.83 636.88 559.42 675.47 445.30 454.80 440.30 101.08 501.57 427.79 644.80 487.58 151.93 150.92 121.11 196.07 587.11 702.03 657.26 492.43 430.08 552.32 883.24 285.64 319.44 729.78 422.78 381.04 121.00 213.49 417.95 191.17 888.12 472.34 143.84 245.79 454.14 820.75 191.09 803.25 146.38 293.37 552.08 776.83 510.43
846.32 120.25 125.68 185.84 149.79 705.54 288.26 366.42 272.34 610.51 209.10 593.85 686.59 299.72 673.71 316.16 42.75 388.41 599.50 172.12 459.79 182.24 404.89 236.42 175.90 106.56 247.72 376.27 0.00 362.56 769.33 77.71 442.94 36.84 127.95 643.38 124.05 65.05 400.75 760.85 278.30 680.70 546.46 315.59 148.24 401.66 394.89 509.01 653.76 556.32 251.31 574.39 109.76 434.69 755.83 68.46 352.63 384.02 413.99 395.70 423.60 401.41 318.75 638.47 280.99 190.66 72.73 239.43 559.76 105.18 460.48 395.39 179.81 131.57 340.27 468.52 112.79 360.58 657.33 524.12 371.96 136.80 135.45 640.29 382.36 596.30 451.52 523.42 233.39 474.20 159.36
1028.27 420.19 384.59 343.59 445.00 969.08 501.53 109.52 565.00 649.10 526.26 545.59 854.06 619.35 549.97 320.71 405.31 75.77 641.62 466.92 120.09 419.95 98.86 296.73 520.28 469.12 551.06 216.40 362.56 0.00 604.85 400.87 190.46 366.54 456.40 493.96 459.61 381.66 147.75 927.10 387.09 928.25 522.85 113.79 335.68 95.57 241.98 675.26 775.82 760.03 383.07 671.20 472.32 222.56 618.35 431.02 610.70 290.73 168.57 122.67 262.21 83.63 484.42 879.94 602.60 430.20 423.78 531.75 879.14 419.09 162.87 717.00 320.09 318.81 95.40 429.89 362.81 42.80 963.38 623.97 131.85 379.24 476.06 899.17 64.58 929.31 267.86 393.19 570.16 801.23 517.05
860.04 834.36 801.59 603.05 815.01 807.92 673.58 495.33 884.32 234.71 821.08 316.74 559.55 875.29 95.62 821.20 789.10 548.70 347.11 831.17 554.72 811.13 583.08 744.61 787.88 831.27 899.02 515.07 769.33 604.85 0.00 737.66 487.07 732.49 787.00 183.57 817.09 757.11 495.06 696.00 872.83 953.82 275.70 646.81 801.28 582.47 846.83 512.94 468.42 555.76 894.27 424.95 768.81 431.80 13.50 814.81 986.09 893.15 523.53 557.28 439.27 589.70 961.85 515.45 926.00 887.64 812.25 929.48 1090.44 676.09 694.78 1019.51 801.22 787.86 521.48 373.03 808.40 562.05 861.64 320.15 527.58 636.24 814.15 739.14 570.65 725.04 386.50 249.62 856.94 1086.18 771.34
857.07 162.47 197.73 134.61 183.63 674.58 210.55 376.25 274.54 541.57 215.29 533.56 644.52 271.42 711.63 373.85 120.46 412.81 561.00 209.34 430.57 229.71 400.71 220.40 182.09 133.91 290.58 331.36 77.71 400.87 737.66 0.00 412.67 74.76 157.90 613.11 146.31 22.98 379.31 718.78 316.22 637.27 504.39 287.08 176.51 410.15 448.51 466.94 618.49 515.02 289.23 521.39 159.91 391.39 729.27 127.43 375.95 438.87 392.77 438.67 385.10 371.81 299.80 676.39 349.19 216.65 98.72 281.65 566.89 66.68 498.40 415.64 237.50 175.47 389.91 486.98 150.71 398.50 735.04 455.18 409.88 106.53 161.44 601.79 390.86 652.41 413.02 493.15 251.15 491.36 198.63
984.87 486.47 467.28 324.90 506.57 927.33 474.41 117.39 600.95 556.71 575.57 453.20 777.10 645.91 449.41 384.50 469.38 132.36 564.66 549.61 161.15 493.42 96.01 353.90 542.37 480.98 615.51 182.39 442.94 190.46 487.07 412.67 0.00 413.21 535.81 303.50 518.65 435.65 104.35 865.03 494.89 901.13 349.50 231.45 426.15 109.80 367.67 661.56 698.78 712.09 486.52 499.88 536.39 133.04 473.57 495.09 694.02 416.42 112.23 74.73 142.06 124.91 557.89 747.11 723.93 517.24 478.93 597.96 943.59 345.99 261.49 775.45 393.56 401.50 114.54 392.04 429.09 165.74 948.47 511.02 78.09 306.14 492.45 799.22 143.96 849.84 178.34 280.60 590.39 837.18 558.91
870.89 120.46 122.97 160.36 135.17 723.57 285.31 380.81 250.18 608.15 186.94 599.72 655.05 275.13 636.87 324.74 56.61 367.47 597.14 174.04 422.95 154.95 393.47 231.91 153.74 127.18 253.27 357.11 36.84 366.54 732.49 74.76 413.21 0.00 122.60 635.34 135.72 96.37 367.64 778.78 241.46 685.47 557.74 324.97 126.86 402.91 386.57 540.33 667.62 570.18 214.47 572.03 123.62 403.44 718.99 82.32 336.67 394.64 377.15 397.86 421.12 364.57 287.22 601.63 317.83 155.15 90.19 239.64 571.43 102.82 423.64 419.35 190.43 120.23 354.66 482.38 75.95 323.74 694.17 521.76 335.12 142.67 109.52 637.93 345.52 620.87 448.74 515.38 207.46 463.01 159.31
941.40 79.23 131.08 282.96 49.62 728.53 344.01 420.53 157.25 699.47 95.96 680.56 777.65 178.21 759.47 362.03 85.20 471.71 716.58 51.44 519.97 172.81 460.18 241.20 70.83 91.78 181.97 458.49 127.95 456.40 787.00 157.90 535.81 122.60 0.00 755.02 47.75 171.08 484.05 839.69 297.32 604.20 598.00 342.61 199.15 468.47 422.99 587.85 696.21 572.54 249.50 619.07 18.19 526.04 773.50 84.68 268.77 424.11 485.77 479.00 540.68 485.70 213.82 724.23 292.19 162.71 59.18 142.48 483.46 222.26 491.07 322.43 225.68 181.29 423.57 500.67 122.38 446.34 640.28 613.08 457.72 248.44 45.47 710.65 468.12 691.38 524.33 635.06 139.86 380.10 80.27
819.88 731.00 696.34 555.62 740.10 868.64 543.05 417.64 801.39 380.09 804.48 276.58 616.62 846.35 145.91 688.00 669.82 435.86 406.50 740.96 464.65 721.88 399.51 601.44 771.28 701.61 747.15 413.33 643.38 493.96 183.57 613.11 303.50 635.34 755.02 0.00 722.46 636.09 351.89 766.94 738.09 968.47 383.13 503.64 680.04 413.30 671.17 573.66 544.11 629.02 753.36 445.01 736.83 312.25 170.07 695.53 905.59 719.92 387.20 378.23 353.98 428.41 786.35 583.47 796.34 766.89 703.40 813.11 906.87 546.43 564.99 910.74 622.02 699.33 412.37 314.40 678.74 469.24 891.63 304.69 381.59 506.58 714.93 728.27 447.46 778.89 266.95 119.96 796.75 1037.62 771.22
933.90 113.83 151.53 264.92 94.48 740.25 311.58 401.26 178.99 681.36 107.58 632.81 744.87 217.78 772.59 370.33 81.30 454.63 670.35 99.19 500.70 202.90 488.74 221.93 82.55 44.03 169.95 461.67 124.05 459.61 817.09 146.31 518.65 135.72 47.75 722.46 0.00 123.33 467.01 791.94 335.92 615.82 604.40 390.36 182.72 464.57 449.06 540.10 691.65 543.45 284.10 571.32 48.28 492.97 803.59 55.59 264.70 404.84 466.50 482.84 494.45 472.16 244.74 737.35 268.19 202.23 84.30 165.42 435.71 176.03 534.12 338.50 250.80 202.80 427.41 507.07 147.50 459.46 652.00 594.97 446.92 215.88 26.20 678.62 476.58 712.73 476.58 602.50 118.01 391.82 96.94
880.05 178.75 190.73 157.59 206.61 697.56 233.53 399.23 297.52 564.55 230.91 556.54 621.54 294.40 718.63 350.87 105.16 389.83 583.98 222.52 407.59 247.29 377.73 243.38 204.90 110.93 293.28 354.34 65.05 381.66 757.11 22.98 435.65 96.37 171.08 636.09 123.33 0.00 402.29 695.80 330.59 615.65 481.41 310.06 156.60 387.17 428.60 443.96 595.51 538.00 310.84 544.37 167.30 369.64 743.61 130.87 352.97 418.73 369.79 415.69 408.08 348.83 322.78 674.96 326.21 239.63 121.70 288.75 543.91 89.66 502.77 405.40 214.52 161.76 405.32 509.96 172.32 389.66 722.38 478.16 411.82 129.51 149.53 624.77 367.88 661.35 414.94 516.13 241.34 503.20 188.36
880.52 440.90 413.22 313.37 465.71 925.31 441.05 65.75 534.46 558.27 471.22 510.67 773.61 612.55 482.22 360.20 424.25 108.62 561.17 486.83 148.28 406.02 97.32 249.55 438.02 435.41 549.16 116.62 400.75 147.75 495.06 379.31 104.35 367.64 484.05 351.89 467.01 402.29 0.00 835.18 422.23 867.77 415.83 151.75 372.09 115.48 368.98 631.49 676.04 718.57 421.03 565.18 486.06 103.19 481.56 449.96 626.46 417.73 35.31 81.21 138.57 126.22 470.49 780.61 660.77 468.16 424.87 546.32 877.24 312.63 215.92 729.88 306.16 347.44 60.48 330.11 383.52 130.65 915.11 577.35 32.52 272.78 440.81 847.74 124.25 887.85 144.88 245.44 507.08 747.29 454.56
272.75 814.53 804.17 691.97 839.34 302.22 565.63 817.58 945.86 461.29 873.10 548.92 241.63 920.40 621.03 1033.86 793.27 870.95 454.07 891.13 936.69 836.15 887.02 939.18 869.49 806.73 758.35 808.54 760.85 927.10 696.00 718.78 865.03 778.78 839.69 766.94 791.94 695.80 835.18 0.00 988.44 464.49 646.52 921.77 840.71 905.12 1086.33 251.84 374.61 279.70 919.29 521.94 834.05 731.99 703.15 767.56 1002.32 1093.00 823.72 838.67 817.78 911.95 968.42 295.05 852.39 845.30 796.27 933.71 695.83 773.75 1017.03 776.18 910.32 816.06 843.73 595.05 757.15 884.30 347.48 527.70 865.75 733.90 818.14 269.92 892.90 219.30 777.29 874.13 829.20 859.42 872.13
1074.62 245.86 201.92 401.82 247.70 897.38 526.77 377.50 323.76 849.47 350.59 841.18 896.51 475.53 790.67 138.27 298.07 412.36 838.60 314.79 469.29 158.73 416.77 172.68 350.40 349.13 453.47 504.90 278.30 387.09 872.83 316.22 494.89 241.46 297.32 738.09 335.92 330.59 422.23 988.44 0.00 858.83 654.25 344.87 262.21 440.94 145.11 774.55 909.08 799.14 75.59 798.23 293.90 523.77 872.79 311.28 370.48 193.86 442.74 441.90 538.62 445.67 155.77 843.09 552.82 188.96 282.57 235.09 727.42 344.28 324.61 619.75 116.07 248.10 403.65 556.92 231.29 426.61 919.85 763.22 428.29 384.13 309.72 819.34 434.31 857.02 567.11 667.67 394.49 559.99 345.44
472.57 640.74 705.41 620.31 611.13 162.27 426.72 859.00 585.93 719.11 508.24 691.89 509.89 590.85 895.83 931.47 662.20 880.99 710.45 579.12 954.67 738.28 897.47 793.52 541.44 658.21 533.38 797.72 680.70 928.25 953.82 637.27 901.13 685.47 604.20 968.47 615.82 615.65 867.77 464.49 858.83 0.00 773.85 850.11 747.31 894.24 988.46 457.25 608.80 398.06 811.01 552.08 613.55 850.72 967.03 657.33 716.64 976.43 903.08 888.28 902.61 921.99 737.91 560.31 561.99 681.26 628.62 658.59 371.62 634.84 1026.80 447.59 795.12 722.66 832.85 793.39 691.82 903.02 129.02 715.61 869.30 594.99 597.79 240.20 902.94 264.64 896.02 981.61 552.14 663.52 557.98
739.11 602.57 577.94 464.11 623.73 732.36 554.37 438.22 709.88 213.05 665.02 228.11 431.77 599.59 237.22 674.53 523.10 458.21 230.34 649.44 491.43 535.43 445.51 509.47 655.84 592.34 691.97 310.82 546.46 522.85 275.70 504.39 349.50 557.74 598.00 383.13 604.40 481.41 415.83 646.52 654.25 773.85 0.00 448.50 525.58 427.28 676.45 437.38 357.05 490.65 618.57 248.41 590.11 349.18 262.20 548.81 794.24 725.20 440.91 413.10 330.92 465.62 686.15 485.19 707.94 637.00 538.82 688.87 951.02 454.92 496.95 743.81 538.18 512.16 431.82 97.33 571.07 501.94 796.53 161.52 427.59 415.07 601.54 679.80 480.16 659.93 303.88 442.62 621.12 892.01 639.71
1032.27 306.40 270.80 229.80 331.21 915.11 447.11 182.23 451.21 661.55 412.47 636.21 801.27 520.82 574.36 243.40 330.86 159.70 653.31 353.13 201.85 325.37 171.99 202.95 410.94 378.39 437.27 176.02 315.59 113.79 646.81 287.08 231.45 324.97 342.61 503.64 390.36 310.06 151.75 921.77 344.87 850.11 448.50 0.00 221.89 181.43 322.13 669.93 735.44 695.51 269.28 592.48 360.80 254.94 633.31 338.70 497.93 333.44 187.06 216.10 230.71 143.09 415.25 839.71 548.88 316.41 309.99 417.96 765.35 318.69 258.39 622.99 259.56 205.02 188.20 351.17 249.02 125.66 921.17 610.02 153.36 278.84 372.71 853.80 147.44 836.30 296.63 397.19 456.37 687.44 403.26
952.93 137.37 87.78 210.80 165.75 749.65 370.66 337.76 297.21 667.87 239.07 659.44 778.14 343.25 762.80 207.35 113.95 359.75 656.86 172.76 415.84 103.48 376.23 148.83 212.87 184.52 256.90 384.26 148.24 335.68 801.28 176.51 426.15 126.86 199.15 680.04 182.72 156.60 372.09 840.71 262.21 747.31 525.58 221.89 0.00 373.00 272.00 600.56 724.96 627.52 186.62 574.10 180.96 438.77 787.78 139.66 353.23 297.39 390.09 367.04 452.60 357.46 253.98 728.49 368.51 171.71 146.76 256.55 584.98 162.54 361.09 478.99 152.70 24.65 311.61 537.86 83.56 316.63 761.36 581.48 348.06 202.39 156.52 697.65 338.41 744.54 484.07 560.08 254.46 522.14 227.26
996.00 461.07 414.13 370.44 434.73 947.10 467.52 87.54 612.86 609.36 537.62 511.58 845.98 624.56 526.19 312.66 383.27 51.99 641.50 496.46 89.31 432.88 24.17 276.41 516.42 453.84 580.60 182.39 401.66 95.57 582.47 410.15 109.80 402.91 468.47 413.30 464.57 387.17 115.48 905.12 440.94 894.24 427.28 181.43 373.00 0.00 295.83 653.28 741.81 709.88 450.71 609.68 450.28 188.55 568.97 408.98 653.32 344.58 118.42 72.52 248.66 38.34 497.35 834.11 682.65 495.41 416.85 568.11 900.28 397.11 211.90 748.31 333.02 348.35 61.39 395.88 407.26 79.17 941.40 588.80 86.02 357.26 462.60 909.02 57.39 879.16 195.97 342.96 560.54 814.72 499.88
1198.49 352.15 306.74 452.10 381.76 995.27 598.02 351.50 442.47 889.50 480.22 786.47 1041.62 574.31 782.21 78.73 385.95 308.01 883.60 444.76 336.80 250.18 271.66 238.66 456.69 444.71 525.06 438.83 394.89 241.98 846.83 448.51 367.67 386.57 422.99 671.17 449.06 428.60 368.98 1086.33 145.11 988.46 676.45 322.13 272.00 295.83 0.00 872.56 960.50 881.33 220.70 761.60 404.80 447.25 841.24 393.47 483.22 48.75 365.91 320.01 500.33 300.56 266.42 988.20 636.67 334.07 381.58 345.74 826.43 420.94 179.50 717.87 215.08 296.65 336.28 650.80 329.18 284.78 1012.02 837.97 352.62 460.79 427.39 956.05 306.56 948.47 490.79 614.42 454.21 678.70 464.76
524.59 622.71 634.69 440.13 619.01 294.98 313.79 565.74 694.02 342.57 621.26 297.08 284.53 692.57 518.20 794.83 549.12 619.11 316.34 639.29 693.10 690.66 635.18 687.34 617.65 554.89 506.51 636.88 509.01 675.26 512.94 466.94 661.56 540.33 587.85 573.66 540.10 443.96 631.49 251.84 774.55 457.25 437.38 669.93 600.56 653.28 872.56 0.00 151.55 116.77 754.80 311.58 588.38 635.70 526.44 574.83 750.48 862.69 630.98 586.83 677.43 660.11 766.74 243.76 618.12 683.59 565.66 705.52 663.49 521.91 765.19 613.25 658.48 605.72 591.89 534.71 616.28 632.46 383.23 275.86 626.31 482.06 566.30 311.93 641.06 286.05 590.40 640.35 577.36 802.76 624.31
440.32 690.65 740.08 587.82 718.05 446.53 448.05 686.82 832.73 233.71 769.49 294.71 132.98 838.82 515.83 932.31 611.01 728.56 164.79 740.38 791.73 786.79 726.59 818.78 736.29 681.58 658.06 559.42 653.76 775.82 468.42 618.49 698.78 667.62 696.21 544.11 691.65 595.51 676.04 374.61 909.08 608.80 357.05 735.44 724.96 741.81 960.50 151.55 0.00 268.32 860.92 198.90 678.02 660.50 481.63 636.72 902.03 911.75 711.35 710.34 587.39 755.49 887.44 148.84 717.20 762.52 644.59 808.12 815.04 578.63 854.00 764.80 810.03 734.30 680.42 440.21 707.79 750.59 534.78 239.42 703.26 538.78 679.94 420.53 750.51 378.23 647.10 664.07 728.91 954.31 727.62
417.69 571.39 620.64 521.78 600.55 278.52 304.47 682.51 705.41 321.05 642.17 413.85 282.64 640.70 497.77 802.60 513.57 722.06 323.35 616.71 749.08 658.77 685.71 715.49 608.97 539.10 623.28 675.47 556.32 760.03 555.76 515.02 712.09 570.18 572.54 629.02 543.45 538.00 718.57 279.70 799.14 398.06 490.65 695.51 627.52 709.88 881.33 116.77 268.32 0.00 741.66 242.24 554.35 728.47 568.97 487.86 807.18 884.78 683.26 637.36 668.85 714.61 769.89 229.22 590.56 634.50 516.57 690.57 643.65 512.59 881.96 496.48 683.07 638.68 692.79 483.55 579.77 749.23 305.88 392.63 700.10 472.74 561.37 219.90 733.66 169.28 707.17 748.98 659.31 712.41 592.43
1031.45 170.27 139.70 348.32 199.88 828.23 460.01 451.51 271.58 822.62 302.77 791.35 869.52 425.78 843.64 179.48 249.91 428.98 811.61 266.97 471.13 83.14 441.27 187.95 274.81 283.64 385.95 445.30 251.31 383.07 894.27 289.23 486.52 214.47 249.50 753.36 284.10 310.84 421.03 919.29 75.59 811.01 618.57 269.28 186.62 450.71 220.70 754.80 860.92 741.66 0.00 760.72 235.82 524.22 880.77 253.80 326.38 269.45 450.46 471.17 499.99 412.37 145.97 816.10 490.60 172.84 225.34 174.85 713.29 317.29 400.20 545.25 131.34 172.51 444.88 572.19 162.14 394.94 844.26 736.23 408.43 334.30 265.03 832.05 416.72 781.43 565.91 666.47 343.87 495.62 290.10
532.30 645.67 661.88 509.76 616.06 520.76 310.84 579.82 684.71 190.24 656.82 193.41 280.73 733.02 414.53 781.45 615.47 623.94 158.37 670.51 659.98 677.58 595.89 653.45 632.23 615.35 683.77 454.80 574.39 671.20 424.95 521.39 499.88 572.03 619.07 445.01 571.32 544.37 565.18 521.94 798.23 552.08 248.41 592.48 574.10 609.68 761.60 311.58 198.90 242.24 760.72 0.00 619.60 500.31 438.16 618.19 786.04 712.85 547.01 574.61 426.61 624.79 816.06 247.23 686.29 727.18 620.11 736.74 885.89 469.21 745.36 704.87 682.16 598.75 575.80 241.31 647.98 645.97 548.12 163.53 577.97 479.11 597.52 462.14 636.92 411.52 513.64 564.97 612.92 871.61 621.36
937.98 65.55 116.25 279.29 46.20 715.09 343.88 420.40 168.55 701.48 105.31 672.09 778.67 189.96 760.49 364.04 67.01 473.72 707.59 62.36 519.84 154.62 456.76 241.07 72.11 92.31 183.25 440.30 109.76 472.32 768.81 159.91 536.39 123.62 18.19 736.83 48.28 167.30 486.06 834.05 293.90 613.55 590.11 360.80 180.96 450.28 404.80 588.38 678.02 554.35 235.82 619.60 0.00 527.06 755.31 66.49 270.32 409.08 485.64 481.01 531.69 485.66 232.01 725.25 293.43 159.29 61.19 160.67 483.99 213.27 487.65 334.18 227.69 178.27 425.58 492.78 122.93 447.36 641.56 615.09 458.74 230.25 45.34 712.66 469.14 687.96 524.86 616.87 141.17 381.38 88.65
983.71 523.90 479.90 256.78 538.61 923.99 424.00 153.31 564.58 458.69 574.41 527.88 709.10 645.59 418.54 426.88 460.05 175.30 508.39 562.23 204.70 507.56 175.59 351.09 541.21 480.57 615.19 101.08 434.69 222.56 431.80 391.39 133.04 403.44 526.04 312.25 492.97 369.64 103.19 731.99 523.77 850.72 349.18 254.94 438.77 188.55 447.25 635.70 660.50 728.47 524.22 500.31 527.06 0.00 418.30 472.29 695.29 496.00 91.73 127.24 85.79 204.49 572.03 694.22 690.37 558.59 490.11 612.35 913.55 345.67 317.16 775.04 407.70 414.12 127.16 259.00 473.03 186.73 948.15 510.70 133.76 305.82 512.96 880.78 197.25 863.28 45.30 192.29 575.10 800.81 557.75
846.54 820.86 815.09 616.55 801.51 821.42 660.08 508.83 897.82 247.92 834.58 303.24 552.83 861.79 82.12 832.44 775.60 556.32 360.32 817.67 541.22 797.63 569.58 731.11 801.38 817.77 912.52 501.57 755.83 618.35 13.50 729.27 473.57 718.99 773.50 170.07 803.59 743.61 481.56 703.15 872.79 967.03 262.20 633.31 787.78 568.97 841.24 526.44 481.63 568.97 880.77 438.16 755.31 418.30 0.00 801.31 999.59 889.99 510.03 543.78 425.77 597.32 948.35 519.68 912.50 874.14 798.75 915.98 1076.94 662.59 697.48 1006.01 787.72 774.36 534.98 359.53 794.90 575.55 874.85 333.65 514.08 622.74 800.65 752.64 578.27 738.25 373.00 236.12 870.44 1099.68 784.84
897.93 83.53 132.78 231.04 112.69 758.00 307.35 417.04 217.55 669.00 154.31 646.00 737.37 256.45 719.19 314.74 25.71 439.03 666.29 128.85 493.31 170.91 433.15 227.63 121.11 51.24 179.26 427.79 68.46 431.02 814.81 127.43 495.09 82.32 84.68 695.53 55.59 130.87 449.96 767.56 311.28 657.33 548.81 338.70 139.66 408.98 393.47 574.83 636.72 487.86 253.80 618.19 66.49 472.29 801.31 0.00 319.32 399.42 428.06 446.32 490.39 446.89 282.03 683.95 290.87 146.64 28.71 202.71 491.30 171.97 491.35 345.71 195.21 150.82 390.89 451.48 91.91 406.06 690.56 582.61 417.44 188.95 73.51 680.18 427.84 657.14 517.59 575.57 171.45 419.41 104.57
1108.01 284.59 279.39 448.05 294.61 855.91 519.60 629.62 130.71 864.49 208.40 856.06 919.93 217.20 973.54 502.72 331.36 636.92 853.48 255.16 624.50 283.09 667.21 376.91 198.21 308.73 243.97 644.80 352.63 610.70 986.09 375.95 694.02 336.67 268.77 905.59 264.70 352.97 626.46 1002.32 370.48 716.64 794.24 497.93 353.23 653.32 483.22 750.48 902.03 807.18 326.38 786.04 270.32 695.29 999.59 319.32 0.00 524.64 657.96 670.09 677.58 641.02 222.54 866.51 266.24 181.52 299.45 211.42 572.05 359.16 658.06 361.42 382.95 328.58 615.54 696.91 269.67 620.56 767.66 778.10 615.93 399.01 254.56 894.27 642.34 862.76 702.92 785.63 173.12 238.12 214.75
1162.58 379.89 315.22 458.74 409.50 1001.94 580.31 397.82 478.15 877.52 468.19 835.22 993.58 596.68 818.65 90.04 397.85 344.45 866.51 470.15 385.55 298.93 320.41 260.82 434.99 437.27 522.39 487.58 384.02 290.73 893.15 438.87 416.42 394.64 424.11 719.92 404.84 418.73 417.73 1093.00 193.86 976.43 725.20 333.44 297.39 344.58 48.75 862.69 911.75 884.78 269.45 712.85 409.08 496.00 889.99 399.42 524.64 0.00 414.66 368.76 549.08 349.31 302.10 960.08 626.73 382.82 370.71 381.42 815.56 372.19 228.25 731.74 204.21 322.04 385.03 645.06 335.85 333.53 1004.44 791.13 401.37 412.04 378.64 907.30 355.31 957.92 539.54 663.17 476.58 714.38 449.38
915.83 450.41 431.22 348.51 475.22 924.80 476.36 65.24 569.77 550.42 506.53 481.94 800.83 647.86 510.27 378.20 433.76 117.66 596.48 485.62 112.97 438.43 94.25 284.86 473.33 444.92 584.05 151.93 413.99 168.57 523.53 392.77 112.23 377.15 485.77 387.20 466.50 369.79 35.31 823.72 442.74 903.08 440.91 187.06 390.09 118.42 365.91 630.98 711.35 683.26 450.46 547.01 485.64 91.73 510.03 428.06 657.96 414.66 0.00 45.90 173.88 123.15 505.80 785.95 657.68 481.18 442.87 522.25 902.21 347.94 225.43 739.39 341.47 365.44 78.48 350.73 393.03 131.96 919.10 560.32 42.03 308.09 440.30 883.05 131.08 852.54 137.03 280.75 538.24 782.60 489.87
961.73 455.11 408.17 347.67 458.91 881.81 461.56 81.58 609.43 584.17 546.19 505.62 814.51 637.63 523.97 336.84 420.61 84.70 602.92 490.50 111.72 464.73 48.35 330.76 512.99 465.63 574.64 150.92 395.70 122.67 557.28 438.67 74.73 397.86 479.00 378.23 482.84 415.69 81.21 838.67 441.90 888.28 413.10 216.10 367.04 72.52 320.01 586.83 710.34 637.36 471.17 574.61 481.01 127.24 543.78 446.32 670.09 368.76 45.90 0.00 180.32 77.25 551.70 810.83 676.69 488.57 419.82 562.15 902.72 391.15 246.14 760.10 387.37 342.39 55.43 364.41 401.30 118.08 925.67 574.62 62.74 351.30 456.64 857.26 96.30 806.64 170.78 317.77 554.58 822.26 527.38
942.38 537.11 501.51 317.86 541.14 947.37 475.89 161.12 602.43 500.42 584.76 442.09 635.04 640.87 343.65 474.11 464.68 214.49 422.60 562.35 286.15 544.59 228.67 388.12 551.56 473.60 587.94 121.11 423.60 262.21 439.27 385.10 142.06 421.12 540.68 353.98 494.45 408.08 138.57 817.78 538.62 902.61 330.92 230.71 452.60 248.66 500.33 677.43 587.39 668.85 499.99 426.61 531.69 85.79 425.77 490.39 677.58 549.08 173.88 180.32 0.00 229.36 559.52 673.84 604.58 547.12 483.82 614.15 916.02 318.42 354.49 718.98 444.73 435.73 187.27 334.60 479.73 227.84 949.95 492.44 171.09 307.62 495.21 853.53 210.31 838.13 87.03 234.02 593.15 838.66 543.21
1006.74 445.53 398.59 332.10 439.46 953.42 495.27 94.37 594.30 639.17 542.35 539.33 852.09 629.29 515.20 317.39 421.18 41.00 639.65 480.92 58.76 451.23 28.90 294.76 518.31 459.76 565.06 196.07 401.41 83.63 589.70 371.81 124.91 364.57 485.70 428.41 472.16 348.83 126.22 911.95 445.67 921.99 465.62 143.09 357.46 38.34 300.56 660.11 755.49 714.61 412.37 624.79 485.66 204.49 597.32 446.89 641.02 349.31 123.15 77.25 229.36 0.00 515.70 853.88 675.04 459.50 453.08 561.05 892.74 398.73 173.56 754.23 351.37 332.81 89.14 409.56 391.72 40.83 948.23 617.71 105.79 364.09 469.43 897.20 19.05 883.89 234.31 371.66 545.33 794.90 523.88
1099.03 198.50 207.28 403.29 222.95 877.36 510.35 523.64 176.05 841.37 229.67 831.82 942.27 342.71 903.17 294.04 276.43 480.95 835.19 221.08 557.46 150.72 511.24 220.94 262.87 288.77 344.42 587.11 318.75 484.42 961.85 299.80 557.89 287.22 213.82 786.35 244.74 322.78 470.49 968.42 155.77 737.91 686.15 415.25 253.98 497.35 266.42 766.74 887.44 769.89 145.97 816.06 232.01 572.03 948.35 282.03 222.54 302.10 505.80 551.70 559.52 515.70 0.00 888.85 406.87 153.12 262.25 79.32 665.07 362.79 445.92 486.93 164.33 229.33 516.29 605.18 211.27 474.87 832.32 754.98 503.01 374.77 259.29 897.90 496.65 849.01 615.37 715.93 273.57 412.28 279.41
360.76 722.09 724.60 683.89 736.80 404.91 533.69 808.66 764.74 280.74 701.50 384.25 53.42 847.53 437.56 926.37 658.24 832.68 265.86 723.99 828.69 756.58 829.05 833.54 668.30 728.81 750.27 702.03 638.47 879.94 515.45 676.39 747.11 601.63 724.23 583.47 737.35 674.96 780.61 295.05 843.09 560.31 485.19 839.71 728.49 834.11 988.20 243.76 148.84 229.22 816.10 247.23 725.25 694.22 519.68 683.95 866.51 960.08 785.95 810.83 673.84 853.88 888.85 0.00 810.09 756.78 691.82 841.27 767.57 704.45 931.49 725.70 792.06 721.86 784.54 488.54 677.58 843.35 445.98 355.77 748.09 687.62 711.15 338.73 854.63 295.67 694.13 703.43 737.36 941.63 651.76
841.77 327.29 350.90 466.83 305.12 655.84 375.45 623.15 251.93 876.53 226.36 874.84 756.67 121.62 942.25 575.86 316.58 669.40 810.28 240.75 722.59 407.46 685.88 435.90 222.75 305.18 111.61 657.26 280.99 602.60 926.00 349.19 723.93 317.83 292.19 796.34 268.19 326.21 660.77 852.39 552.82 561.99 707.94 548.88 368.51 682.65 636.67 618.12 717.20 590.56 490.60 686.29 293.43 690.37 912.50 290.87 266.24 626.73 657.68 676.69 604.58 675.04 406.87 810.09 0.00 386.73 310.81 348.66 363.15 381.13 729.60 114.40 460.80 343.86 621.26 610.61 351.61 635.84 597.60 800.07 652.95 417.79 248.09 650.69 657.62 691.21 658.52 676.38 182.46 261.04 239.29
1004.87 103.07 97.87 309.35 113.09 754.24 418.31 460.17 134.80 758.22 173.02 717.36 810.20 317.09 792.02 321.20 151.51 466.83 752.29 146.60 442.98 101.57 488.40 258.04 190.95 193.46 287.77 492.43 190.66 430.20 887.64 216.65 517.24 155.15 162.71 766.89 202.23 239.63 468.16 845.30 188.96 681.26 637.00 316.41 171.71 495.41 334.07 683.59 762.52 634.50 172.84 727.18 159.29 558.59 874.14 146.64 181.52 382.82 481.18 488.57 547.12 459.50 153.12 756.78 386.73 0.00 117.93 101.55 615.85 257.97 476.54 453.48 201.43 147.06 434.02 543.14 88.15 439.04 760.40 671.83 439.15 260.31 180.65 769.40 460.82 754.85 567.29 646.93 216.92 371.03 174.41
906.75 63.75 110.22 233.33 84.91 729.29 309.27 390.54 213.46 640.29 148.78 632.28 743.24 237.39 716.63 302.85 33.58 412.53 659.72 110.62 464.60 142.20 429.01 198.92 117.02 75.53 206.47 430.08 72.73 423.78 812.25 98.72 478.93 90.19 59.18 703.40 84.30 121.70 424.87 796.27 282.57 628.62 538.82 309.99 146.76 416.85 381.58 565.66 644.59 516.57 225.34 620.11 61.19 490.11 798.75 28.71 299.45 370.71 442.87 419.82 483.82 453.08 262.25 691.82 310.81 117.93 0.00 182.93 520.01 165.40 480.37 370.00 166.50 122.11 364.39 441.49 63.20 413.93 686.47 553.90 400.84 196.82 62.72 651.47 434.48 669.03 511.74 583.44 160.66 426.29 131.45
1040.57 119.18 183.85 355.57 148.79 820.86 454.01 480.57 96.73 823.22 150.35 763.58 894.69 285.57 876.51 333.62 197.11 533.94 755.87 193.92 544.53 153.44 559.35 300.26 183.55 209.45 265.10 552.32 239.43 531.75 929.48 281.65 597.96 239.64 142.48 813.11 165.42 288.75 546.32 933.71 235.09 658.59 688.87 417.96 256.55 568.11 345.74 705.52 808.12 690.57 174.85 736.74 160.67 612.35 915.98 202.71 211.42 381.42 522.25 562.15 614.15 561.05 79.32 841.27 348.66 101.55 182.93 0.00 588.79 341.45 525.24 415.41 243.65 231.90 506.72 622.88 176.56 523.88 753.00 736.83 527.56 306.53 187.95 826.57 545.66 790.55 642.00 693.15 194.25 332.96 200.09
684.12 543.02 587.24 686.49 530.19 488.53 667.66 836.97 492.06 964.70 442.83 880.53 721.78 411.49 1052.78 747.70 517.01 890.34 934.22 488.29 936.41 638.61 911.91 657.64 439.22 479.74 328.08 883.24 559.76 879.14 1090.44 566.89 943.59 571.43 483.46 906.87 435.71 543.91 877.24 695.83 727.42 371.62 951.02 765.35 584.98 900.28 826.43 663.49 815.04 643.65 713.29 885.89 483.99 913.55 1076.94 491.30 572.05 815.56 902.21 902.72 916.02 892.74 665.07 767.57 363.15 615.85 520.01 588.79 0.00 597.60 925.22 267.27 611.35 560.33 847.29 922.72 568.08 852.31 400.28 939.35 882.63 637.45 461.91 428.84 874.09 476.53 912.29 1024.07 398.93 368.18 455.76
790.39 223.28 225.79 88.89 237.99 694.34 208.12 309.57 329.58 505.33 266.34 496.90 666.46 322.45 662.07 369.89 146.26 362.94 494.32 243.93 436.93 257.77 399.29 287.08 233.14 155.18 269.52 285.64 105.18 419.09 676.09 66.68 345.99 102.82 222.26 546.43 176.03 89.66 312.63 773.75 344.28 634.84 454.92 318.69 162.54 397.11 420.94 521.91 578.63 512.59 317.29 469.21 213.27 345.67 662.59 171.97 359.16 372.19 347.94 391.15 318.42 398.73 362.79 704.45 381.13 257.97 165.40 341.45 597.60 0.00 495.38 449.65 284.99 187.19 335.72 420.30 178.77 376.29 682.18 418.94 345.15 39.85 176.79 535.11 379.68 585.73 346.34 426.47 274.73 539.63 224.79
1096.44 471.06 425.41 406.49 441.45 1059.01 609.03 199.45 598.53 710.00 544.34 653.09 928.72 669.28 650.66 258.23 465.64 176.46 727.29 508.54 215.21 374.97 202.46 370.48 555.73 536.21 617.99 319.44 460.48 162.87 694.78 498.40 261.49 423.64 491.07 564.99 534.12 502.77 215.92 1017.03 324.61 1026.80 496.95 258.39 361.09 211.90 179.50 765.19 854.00 881.96 400.20 745.36 487.65 317.16 697.48 491.35 658.06 228.25 225.43 246.14 354.49 173.56 445.92 931.49 729.60 476.54 480.37 525.24 925.22 495.38 0.00 813.50 313.87 385.74 202.90 532.93 426.67 132.73 1053.31 658.47 183.40 455.53 512.66 917.67 154.51 968.29 352.29 461.36 588.24 824.08 539.19
851.74 399.73 450.43 533.03 372.05 541.44 455.26 736.04 318.68 817.53 307.56 890.80 779.12 144.22 981.03 660.45 365.04 772.02 819.83 314.71 809.75 488.80 744.61 532.46 313.22 294.47 226.01 729.78 395.39 717.00 1019.51 415.64 775.45 419.35 322.43 910.74 338.50 405.40 729.88 776.18 619.75 447.59 743.81 622.99 478.99 748.31 717.87 613.25 764.80 496.48 545.25 704.87 334.18 775.04 1006.01 345.71 361.42 731.74 739.39 760.10 718.98 754.23 486.93 725.70 114.40 453.48 370.00 415.41 267.27 449.65 813.50 0.00 527.53 458.26 723.88 725.01 433.20 743.09 576.61 812.42 697.36 483.99 360.98 685.74 764.87 650.68 772.92 790.78 263.66 215.93 296.68
1026.13 201.83 156.42 321.41 231.44 844.95 448.05 359.31 310.65 733.40 315.28 725.89 836.06 393.73 767.93 136.35 200.08 316.62 768.52 277.12 393.13 99.86 346.91 56.61 283.52 233.06 367.76 422.78 179.81 320.09 801.22 237.50 393.56 190.43 225.68 622.02 250.80 214.52 306.16 910.32 116.07 795.12 538.18 259.56 152.70 333.02 215.08 658.48 810.03 683.07 131.34 682.16 227.69 407.70 787.72 195.21 382.95 204.21 341.47 387.37 444.73 351.37 164.33 792.06 460.80 201.43 166.50 243.65 611.35 284.99 313.87 527.53 0.00 135.51 364.76 440.85 178.86 310.54 837.14 692.68 338.68 307.50 229.22 817.97 332.32 776.11 451.04 551.60 315.12 546.88 296.14
977.58 112.72 65.78 186.15 141.10 725.00 363.79 313.11 272.56 692.52 214.42 652.57 775.28 318.60 749.38 232.00 125.84 335.10 681.51 148.11 391.19 122.34 351.58 124.18 217.26 173.37 232.25 381.04 131.57 318.81 787.86 175.47 401.50 120.23 181.29 699.33 202.80 161.76 347.44 816.06 248.10 722.66 512.16 205.02 24.65 348.35 296.65 605.72 734.30 638.68 172.51 598.75 178.27 414.12 774.36 150.82 328.58 322.04 365.44 342.39 435.73 332.81 229.33 721.86 343.86 147.06 122.11 231.90 560.33 187.19 385.74 458.26 135.51 0.00 286.96 536.32 58.91 291.98 736.71 606.13 323.41 195.52 176.60 722.30 313.76 727.87 459.42 582.14 258.32 508.79 220.34
941.00 399.68 352.74 317.65 428.06 885.71 406.13 26.15 554.00 553.70 490.76 450.19 784.59 601.78 522.34 299.72 365.18 48.14 580.11 435.07 121.82 409.30 64.62 308.15 457.56 429.41 519.21 121.00 340.27 95.40 521.48 389.91 114.54 354.66 423.57 412.37 427.41 405.32 60.48 843.73 403.65 832.85 431.82 188.20 311.61 61.39 336.28 591.89 680.42 692.79 444.88 575.80 425.58 127.16 534.98 390.89 615.54 385.03 78.48 55.43 187.27 89.14 516.29 784.54 621.26 434.02 364.39 506.72 847.29 335.72 202.90 723.88 364.76 286.96 0.00 334.49 345.87 70.17 880.01 528.57 36.45 295.87 401.21 870.83 70.09 862.07 172.46 305.92 499.15 766.83 471.95
757.44 505.24 551.71 379.28 526.40 729.20 457.04 340.89 645.38 310.38 567.69 285.04 450.10 643.89 334.55 577.20 425.77 382.63 327.67 552.11 445.80 540.71 380.66 412.14 558.51 496.34 594.64 213.49 468.52 429.89 373.03 486.98 392.04 482.38 500.67 314.40 507.07 509.96 330.11 595.05 556.92 793.39 97.33 351.17 537.86 395.88 650.80 534.71 440.21 483.55 572.19 241.31 492.78 259.00 359.53 451.48 696.91 645.06 350.73 364.41 334.60 409.56 605.18 488.54 610.61 543.14 441.49 622.88 922.72 420.30 532.93 725.01 440.85 536.32 334.49 0.00 504.69 404.66 739.55 258.85 357.33 428.32 504.21 703.45 404.58 652.83 304.30 377.66 523.79 857.22 542.38
946.84 57.38 47.02 221.20 82.19 666.09 340.43 372.02 222.95 684.10 185.08 629.21 731.00 300.59 712.82 276.71 96.78 394.01 673.09 139.79 450.10 79.00 410.49 183.09 161.92 138.73 240.00 417.95 112.79 362.81 808.40 150.71 429.09 75.95 122.38 678.74 147.50 172.32 383.52 757.15 231.29 691.82 571.07 249.02 83.56 407.26 329.18 616.28 707.79 579.77 162.14 647.98 122.93 473.03 794.90 91.91 269.67 335.85 393.03 401.30 479.73 391.72 211.27 677.58 351.61 88.15 63.20 176.56 568.08 178.77 426.67 433.20 178.86 58.91 345.87 504.69 0.00 350.89 731.37 597.71 351.00 172.16 125.92 713.88 372.67 696.82 479.14 558.78 223.86 459.18 177.21
1011.17 404.70 357.76 310.22 433.08 926.28 476.30 66.72 564.54 611.52 506.40 520.36 811.26 598.87 517.93 358.22 380.35 43.73 598.82 440.09 99.21 410.40 69.73 253.93 477.48 450.92 524.23 191.17 360.58 42.80 562.05 398.50 165.74 323.74 446.34 469.24 459.46 389.66 130.65 884.30 426.61 903.02 501.94 125.66 316.63 79.17 284.78 632.46 750.59 749.23 394.94 645.97 447.36 186.73 575.55 406.06 620.56 333.53 131.96 118.08 227.84 40.83 474.87 843.35 635.84 439.04 413.93 523.88 852.31 376.29 132.73 743.09 310.54 291.98 70.17 404.66 350.89 0.00 920.58 598.74 106.62 336.44 433.26 856.37 21.78 906.99 232.03 376.09 531.20 786.75 483.05
365.45 673.99 737.09 691.37 683.73 88.25 555.74 853.86 665.89 626.93 602.65 615.05 442.74 712.44 803.65 968.71 700.08 907.23 629.23 658.22 981.22 761.84 943.58 821.53 569.45 691.88 526.38 888.12 657.33 963.38 861.64 735.04 948.47 694.17 640.28 891.63 652.00 722.38 915.11 347.48 919.85 129.02 796.53 921.17 761.36 941.40 1012.02 383.23 534.78 305.88 844.26 548.12 641.56 948.15 874.85 690.56 767.66 1004.44 919.10 925.67 949.95 948.23 832.32 445.98 597.60 760.40 686.47 753.00 400.28 682.18 1053.31 576.61 837.14 736.71 880.01 739.55 731.37 920.58 0.00 659.09 914.43 642.33 625.80 163.36 929.18 197.49 973.63 1011.59 597.23 768.46 585.99
621.68 617.65 644.73 462.67 638.81 570.84 474.37 554.72 729.72 86.39 670.47 78.38 339.53 726.60 288.57 788.83 565.20 576.71 127.09 662.87 578.35 676.71 593.19 670.99 637.27 574.12 688.46 472.34 524.12 623.97 320.15 455.18 511.02 521.76 613.08 304.69 594.97 478.16 577.35 527.70 763.22 715.61 161.52 610.02 581.48 588.80 837.97 275.86 239.42 392.63 736.23 163.53 615.09 510.70 333.65 582.61 778.10 791.13 560.32 574.62 492.44 617.71 754.98 355.77 800.07 671.83 553.90 736.83 939.35 418.94 658.47 812.42 692.68 606.13 528.57 258.85 597.71 598.74 659.09 0.00 565.02 441.70 595.73 530.07 598.66 561.91 465.40 424.65 693.67 946.54 643.73
913.04 408.38 389.19 315.26 433.19 920.13 442.58 60.57 566.98 582.28 503.74 486.64 801.51 610.25 514.74 336.17 391.73 84.59 593.69 471.52 130.33 430.00 80.96 282.07 470.54 402.89 555.66 143.84 371.96 131.85 527.58 409.88 78.09 335.12 457.72 381.59 446.92 411.82 32.52 865.75 428.29 869.30 427.59 153.36 348.06 86.02 352.62 626.31 703.26 700.10 408.43 577.97 458.74 133.76 514.08 417.44 615.93 401.37 42.03 62.74 171.09 105.79 503.01 748.09 652.95 439.15 400.84 527.56 882.63 345.15 183.40 697.36 338.68 323.41 36.45 357.33 351.00 106.62 914.43 565.02 0.00 305.30 435.63 877.31 106.54 869.38 168.89 277.96 533.57 779.81 487.08
830.24 229.54 219.18 49.04 233.52 730.58 168.27 269.72 294.81 528.09 297.90 457.05 671.76 339.77 651.27 409.74 163.24 323.09 531.91 261.48 397.08 251.16 359.44 313.84 264.70 195.03 309.37 245.79 136.80 379.24 636.24 106.53 306.14 142.67 248.44 506.58 215.88 129.51 272.78 733.90 384.13 594.99 415.07 278.84 202.39 357.26 460.79 482.06 538.78 472.74 334.30 479.11 230.25 305.82 622.74 188.95 399.01 412.04 308.09 351.30 307.62 364.09 374.77 687.62 417.79 260.31 196.82 306.53 637.45 39.85 455.53 483.99 307.50 195.52 295.87 428.32 172.16 336.44 642.33 441.70 305.30 0.00 208.35 574.96 345.04 625.58 351.12 386.62 306.29 531.04 264.64
960.10 100.82 125.33 257.39 71.21 714.05 298.54 375.06 152.79 682.12 89.55 659.01 764.57 218.04 746.39 363.87 96.30 428.43 671.11 96.91 474.50 181.89 464.78 195.73 56.35 66.51 143.75 454.14 135.45 476.06 814.15 161.44 492.45 109.52 45.47 714.93 26.20 149.53 440.81 818.14 309.72 597.79 601.54 372.71 156.52 462.60 427.39 566.30 679.94 561.37 265.03 597.52 45.34 512.96 800.65 73.51 254.56 378.64 440.30 456.64 495.21 469.43 259.29 711.15 248.09 180.65 62.72 187.95 461.91 176.79 512.66 360.98 229.22 176.60 401.21 504.21 125.92 433.26 625.80 595.73 435.63 208.35 0.00 704.82 450.38 712.97 502.78 594.97 97.94 365.62 70.74
255.28 707.39 760.90 624.00 677.78 159.23 486.45 844.68 765.24 540.95 687.55 451.69 295.87 721.16 672.81 905.00 681.37 898.05 508.31 744.87 955.58 748.91 895.23 822.19 720.75 690.29 669.41 820.75 640.29 899.17 739.14 601.79 799.22 637.93 710.65 728.27 678.62 624.77 847.74 269.92 819.34 240.20 679.80 853.80 697.65 909.02 956.05 311.93 420.53 219.90 832.05 462.14 712.66 880.78 752.64 680.18 894.27 907.30 883.05 857.26 853.53 897.20 897.90 338.73 650.69 769.40 651.47 826.57 428.84 535.11 917.67 685.74 817.97 722.30 870.83 703.45 713.88 856.37 163.36 530.07 877.31 574.96 704.82 0.00 878.15 50.62 881.45 848.23 731.45 797.02 737.29
1004.77 426.48 379.54 313.05 454.86 934.88 476.22 75.32 586.32 620.12 528.18 520.28 833.04 620.65 496.15 336.44 402.13 21.95 620.60 461.87 77.43 432.18 47.95 275.71 499.26 472.70 546.01 191.09 382.36 64.58 570.65 390.86 143.96 345.52 468.12 447.46 476.58 367.88 124.25 892.90 434.31 902.94 480.16 147.44 338.41 57.39 306.56 641.06 750.51 733.66 416.72 636.92 469.14 197.25 578.27 427.84 642.34 355.31 131.08 96.30 210.31 19.05 496.65 854.63 657.62 460.82 434.48 545.66 874.09 379.68 154.51 764.87 332.32 313.76 70.09 404.58 372.67 21.78 929.18 598.66 106.54 345.04 450.38 878.15 0.00 902.94 242.55 356.88 548.32 775.85 504.83
250.02 671.37 721.98 606.50 641.76 109.24 473.75 851.79 806.30 490.33 733.54 502.31 245.25 711.28 667.05 912.46 639.05 891.34 457.69 708.85 918.36 698.29 854.99 832.72 729.93 683.50 618.79 803.25 596.30 929.31 725.04 652.41 849.84 620.87 691.38 778.89 712.73 661.35 887.85 219.30 857.02 264.64 659.93 836.30 744.54 879.16 948.47 286.05 378.23 169.28 781.43 411.52 687.96 863.28 738.25 657.14 862.76 957.92 852.54 806.64 838.13 883.89 849.01 295.67 691.21 754.85 669.03 790.55 476.53 585.73 968.29 650.68 776.11 727.87 862.07 652.83 696.82 906.99 197.49 561.91 869.38 625.58 712.97 50.62 902.94 0.00 876.45 898.85 689.64 844.71 739.50
1007.62 536.52 525.20 302.08 553.09 885.38 469.30 198.61 609.88 413.39 573.70 509.41 700.28 642.47 373.24 459.44 492.60 220.60 487.84 575.77 231.14 550.90 219.13 394.43 559.13 501.52 600.65 146.38 451.52 267.86 386.50 413.02 178.34 448.74 524.33 266.95 476.58 414.94 144.88 777.29 567.11 896.02 303.88 296.63 484.07 195.97 490.79 590.40 647.10 707.17 565.91 513.64 524.86 45.30 373.00 517.59 702.92 539.54 137.03 170.78 87.03 234.31 615.37 694.13 658.52 567.29 511.74 642.00 912.29 346.34 352.29 772.92 451.04 459.42 172.46 304.30 479.14 232.03 973.63 465.40 168.89 351.12 502.78 881.45 242.55 876.45 0.00 146.99 529.80 846.11 571.13
939.84 611.04 605.80 435.66 620.14 935.33 554.89 311.19 681.43 484.04 684.52 396.54 736.58 726.39 265.87 605.64 549.86 354.06 526.46 621.00 378.13 637.78 342.76 494.99 651.32 581.65 695.99 293.37 523.42 393.19 249.62 493.15 280.60 515.38 635.06 119.96 602.50 516.13 245.44 874.13 667.67 981.61 442.62 397.19 560.08 342.96 614.42 640.35 664.07 748.98 666.47 564.97 616.87 192.29 236.12 575.57 785.63 663.17 280.75 317.77 234.02 371.66 715.93 703.43 676.38 646.93 583.44 693.15 1024.07 426.47 461.36 790.78 551.60 582.14 305.92 377.66 558.78 376.09 1011.59 424.65 277.96 386.62 594.97 848.23 356.88 898.85 146.99 0.00 676.79 917.66 651.26
939.66 173.60 223.27 355.33 146.79 685.48 390.45 473.00 121.59 780.06 43.90 750.82 790.78 120.10 844.33 451.47 194.24 526.37 769.05 114.78 572.44 273.94 557.35 293.67 69.06 162.04 70.85 552.08 233.39 570.16 856.94 251.15 590.39 207.46 139.86 796.75 118.01 241.34 507.08 829.20 394.49 552.14 621.12 456.37 254.46 560.54 454.21 577.36 728.91 659.31 343.87 612.92 141.17 575.10 870.44 171.45 173.12 476.58 538.24 554.58 593.15 545.33 273.57 737.36 182.46 216.92 160.66 194.25 398.93 274.73 588.24 263.66 315.12 258.32 499.15 523.79 223.86 531.20 597.23 693.67 533.57 306.29 97.94 731.45 548.32 689.64 529.80 676.79 0.00 357.82 85.60
1006.56 405.01 468.90 580.08 382.63 757.37 560.77 740.68 236.23 1032.93 313.92 988.09 995.05 292.42 1099.88 666.58 431.45 794.05 1029.98 360.68 814.01 458.06 793.19 554.37 309.27 431.70 296.25 776.83 474.20 801.23 1086.18 491.36 837.18 463.01 380.10 1037.62 391.82 503.20 747.29 859.42 559.99 663.52 892.01 687.44 522.14 814.72 678.70 802.76 954.31 712.41 495.62 871.61 381.38 800.81 1099.68 419.41 238.12 714.38 782.60 822.26 838.66 794.90 412.28 941.63 261.04 371.03 426.29 332.96 368.18 539.63 824.08 215.93 546.88 508.79 766.83 857.22 459.18 786.75 768.46 946.54 779.81 531.04 365.62 797.02 775.85 844.71 846.11 917.66 357.82 0.00 314.84
951.44 119.83 158.02 313.68 97.74 674.24 310.52 445.80 112.98 730.12 49.74 721.69 705.18 195.77 796.18 418.18 116.61 499.17 719.11 72.23 545.24 214.58 508.30 239.53 16.54 137.25 127.68 510.43 159.36 517.05 771.34 198.63 558.91 159.31 80.27 771.22 96.94 188.36 454.56 872.13 345.44 557.98 639.71 403.26 227.26 499.88 464.76 624.31 727.62 592.43 290.10 621.36 88.65 557.75 784.84 104.57 214.75 449.38 489.87 527.38 543.21 523.88 279.41 651.76 239.29 174.41 131.45 200.09 455.76 224.79 539.19 296.68 296.14 220.34 471.95 542.38 177.21 483.05 585.99 643.73 487.08 264.64 70.74 737.29 504.83 739.50 571.13 651.26 85.60 314.84 0.00
DEMAND_SECTION
1 0
2 99
3 87
4 56
5 74
6 59
7 81
8 69
9 16
10 12
11 15
12 17
13 53
14 22
15 41
16 84
17 51
18 63
19 50
20 33
21 100
22 78
23 82
24 54
25 42
26 17
27 48
28 56
29 100
30 96
31 6
32 86
33 78
34 52
35 50
36 9
37 25
38 88
39 80
40 84
41 76
42 88
43 34
44 67
45 51
46 80
47 75
48 78
49 79
50 71
51 75
52 38
53 35
54 9
55 40
56 96
57 15
58 65
59 74
60 81
61 32
62 73
63 78
64 68
65 38
66 64
67 90
68 47
69 36
70 82
71 51
72 24
73 66
74 62
75 71
76 32
77 98
78 78
79 81
80 24
81 52
82 76
83 2
84 83
85 91
86 65
87 12
88 36
89 37
90 39
91 38
DEPOT_SECTION
1
-1
EOF
