NAME: LDG90_1152_snow_90_0063
COMMENT: CVRP with travel times.  rootPos=1,custPos=1,demandType=5,avgRouteSizeIndex=2,weather=snow,lambda_cluster=1,lambda_random=4, T1=300,T2=700,beta=1, alpha(i,j) ~ U(0.8,1.2)
TYPE: CVRP
DIMENSION: 91
EDGE_WEIGHT_TYPE: EXPLICIT
EDGE_WEIGHT_FORMAT: FULL_MATRIX
CAPACITY: 588
NODE_COORD_SECTION
1 642 601
2 627 721
3 72 398
4 999 539
5 481 375
6 654 951
7 863 398
8 868 484
9 173 763
10 966 591
11 768 791
12 989 475
13 352 22
14 213 923
15 585 92
16 504 173
17 723 192
18 951 881
19 570 156
20 826 742
21 194 584
22 93 980
23 165 411
24 808 994
25 335 223
26 26 344
27 571 194
28 976 284
29 504 446
30 711 224
31 320 729
32 425 518
33 773 280
34 318 157
35 658 430
36 888 916
37 469 64
38 592 540
39 454 194
40 265 344
41 122 1
42 581 458
43 963 928
44 297 106
45 39 608
46 438 188
47 491 854
48 261 278
49 571 961
50 896 22
51 791 70
52 8 713
53 273 245
54 731 152
55 561 94
56 535 114
57 926 642
58 376 717
59 409 59
60 825 23
61 325 390
62 411 552
63 505 58
64 365 723
65 383 469
66 205 397
67 696 391
68 846 815
69 88 275
70 58 415
71 486 615
72 536 488
73 704 637
74 578 601
75 709 441
76 687 169
77 238 570
78 11 562
79 838 207
80 341 647
81 932 990
82 810 361
83 707 887
84 505 151
85 749 248
86 516 531
87 331 404
88 681 441
89 286 768
90 53 191
91 328 627
EDGE_WEIGHT_SECTION
0.00 140.56 734.24 493.29 374.08 489.59 382.79 288.77 568.20 481.79 330.85 526.29 742.49 678.43 608.05 578.03 462.09 545.02 539.25 318.31 558.26 783.60 637.46 595.87 514.27 772.73 543.62 620.83 271.70 466.08 414.36 279.10 372.70 616.33 183.68 521.75 692.31 102.87 541.11 538.45 830.98 234.20 582.08 678.88 748.91 512.86 492.21 548.22 436.40 717.57 624.81 748.26 605.12 507.41 563.96 586.85 429.52 368.99 718.09 644.78 438.07 295.06 652.72 343.13 371.14 546.76 299.83 365.55 762.74 744.21 180.60 233.60 144.29 124.99 264.91 544.74 498.68 737.37 481.47 354.98 606.81 383.39 429.83 597.45 437.13 171.42 403.64 220.16 461.05 813.76 365.69
140.56 0.00 808.17 509.45 502.97 349.03 442.95 429.33 501.42 531.27 190.29 609.81 834.21 665.65 686.00 661.75 602.65 469.70 679.81 315.44 578.07 834.25 672.68 459.82 654.83 893.34 656.64 680.99 412.26 606.64 401.58 367.42 513.26 756.89 324.24 446.43 796.93 243.43 681.67 601.79 971.54 374.76 521.11 819.44 754.08 653.42 368.23 688.78 295.84 858.13 723.23 735.48 716.84 647.97 704.52 727.41 421.32 356.21 858.65 785.34 558.78 345.34 791.32 330.35 459.46 687.32 402.00 290.23 839.06 796.64 300.78 374.16 190.48 201.96 373.93 682.16 539.57 739.90 622.03 416.71 579.77 523.95 289.27 693.73 577.69 311.98 533.45 318.58 441.09 903.43 377.13
734.24 808.17 0.00 1090.15 529.47 954.98 916.67 967.69 492.61 1081.16 912.06 1069.02 554.28 734.39 729.89 645.15 785.91 1219.67 609.88 952.72 230.10 628.77 166.73 1093.71 423.78 105.70 671.78 1090.58 580.93 800.93 455.70 492.03 820.58 432.06 741.01 1136.73 579.21 690.07 551.46 344.11 532.02 644.04 1216.49 437.06 310.06 523.21 747.53 304.58 866.30 1086.17 974.42 399.64 361.48 831.23 696.92 664.35 1004.76 527.22 510.13 1008.51 352.66 516.40 629.49 526.93 429.10 187.48 716.60 1049.34 200.77 26.92 607.76 605.11 719.53 706.58 769.30 782.73 289.68 270.74 936.02 433.38 1182.05 863.23 923.16 626.45 868.37 562.82 376.15 721.69 551.57 255.50 431.04
493.29 509.45 1090.15 0.00 670.97 571.75 274.57 204.52 981.18 73.72 414.70 100.36 938.28 1069.52 670.51 760.56 568.08 443.25 690.37 333.30 958.58 1145.76 1000.39 623.60 897.89 1128.64 658.48 404.31 618.97 534.41 774.73 682.19 441.03 908.86 456.84 526.19 783.38 461.41 744.18 918.59 1157.21 553.63 491.32 990.18 1084.99 772.43 683.21 963.10 713.80 650.93 617.04 1133.97 978.43 576.56 714.60 736.05 183.67 774.36 852.46 675.72 825.72 700.43 733.10 748.50 725.78 902.67 373.55 418.20 1131.86 1117.07 585.97 549.77 439.49 487.15 425.70 632.97 899.00 1142.74 437.40 760.35 534.26 338.11 554.42 748.07 497.16 588.66 806.45 420.36 870.60 1169.67 762.71
374.08 502.97 529.47 670.97 0.00 749.63 468.24 466.45 624.92 647.63 612.18 631.96 468.24 750.25 434.16 361.28 359.34 880.36 340.14 669.52 400.92 862.67 439.71 872.05 374.65 567.96 278.24 657.55 102.38 409.32 478.46 230.43 458.10 364.27 248.33 821.21 366.59 271.21 267.59 334.99 773.01 151.36 926.28 448.43 658.50 239.34 630.66 314.00 646.79 639.52 547.85 719.13 370.90 404.66 427.18 392.99 721.56 449.49 435.67 558.33 234.61 291.52 416.87 457.94 171.99 341.99 301.90 739.08 553.78 556.39 319.05 202.83 436.33 368.82 252.47 452.16 416.88 714.95 498.96 340.27 898.85 430.03 701.50 342.58 446.26 216.28 269.04 284.63 522.25 591.46 377.68
489.59 349.03 954.98 571.75 749.63 0.00 775.43 661.96 631.02 579.27 238.29 672.11 1138.74 586.12 971.97 984.43 951.68 359.04 947.43 300.79 735.27 754.72 864.72 241.56 988.60 1031.92 917.85 932.19 678.10 921.12 499.28 606.13 862.29 973.93 673.27 276.10 1056.23 592.46 993.84 897.87 1231.27 693.26 366.88 1058.09 801.86 965.59 248.18 941.86 142.05 1205.26 1037.38 833.18 902.51 997.00 927.88 969.75 469.32 453.91 1052.92 1124.07 797.49 545.04 1016.64 428.05 694.50 865.84 735.12 280.10 1043.68 979.61 430.58 635.82 430.82 529.40 697.88 976.93 678.15 901.89 971.06 563.13 403.40 800.06 195.35 1007.44 906.02 571.71 780.21 667.61 488.87 1102.40 569.17
382.79 442.95 916.67 274.57 468.24 775.43 0.00 117.54 942.35 310.56 541.21 174.21 704.27 1024.52 513.29 513.33 309.51 583.32 473.15 474.64 792.09 1154.56 858.14 798.05 719.07 992.60 411.25 238.04 411.20 287.18 760.45 518.30 193.80 730.09 219.91 666.26 604.04 448.21 565.41 739.85 977.47 316.88 633.32 756.17 998.01 593.66 796.94 782.24 709.57 482.67 427.66 993.88 731.20 354.83 489.70 513.47 416.28 715.08 618.45 401.48 639.47 567.16 578.46 689.22 579.73 766.63 237.51 619.91 934.52 943.59 526.69 409.68 435.00 495.95 268.44 378.19 782.87 986.67 323.68 697.93 771.10 90.88 712.00 500.84 222.59 479.76 666.36 243.22 835.14 1033.63 696.68
288.77 429.33 967.69 204.52 466.45 661.96 117.54 0.00 856.97 193.02 423.67 237.52 784.87 910.77 585.05 594.01 399.15 465.78 485.85 431.09 847.03 1072.37 877.93 680.51 781.55 1006.18 528.79 355.58 491.65 358.94 703.13 535.97 265.56 734.12 302.41 548.72 643.37 341.31 635.79 773.46 1008.83 399.38 554.97 818.28 880.47 646.24 750.56 780.45 592.03 596.14 542.37 1000.77 809.68 444.47 561.46 544.83 298.74 657.76 699.05 519.02 673.08 566.29 646.24 631.90 576.74 780.21 251.09 502.37 997.75 994.61 469.37 416.57 429.31 413.76 221.18 457.50 787.45 986.20 395.44 643.75 653.56 208.42 594.46 584.25 337.30 428.29 660.51 276.53 749.82 1047.21 654.46
568.20 501.42 492.61 981.18 624.92 631.02 942.35 856.97 0.00 907.46 647.76 1042.44 937.06 271.89 957.81 813.04 908.01 917.32 882.58 748.81 262.51 440.49 474.37 750.02 704.75 598.31 843.30 1057.21 571.38 957.99 206.45 472.13 923.42 691.31 722.44 834.38 918.87 545.28 801.60 574.93 930.04 625.47 930.62 775.47 310.04 809.03 382.84 630.69 574.20 1219.59 1063.70 362.43 685.95 913.01 934.14 892.27 878.79 285.91 883.19 1150.39 528.14 442.12 965.78 277.12 467.78 464.00 795.54 791.65 665.03 519.53 439.65 595.13 691.90 538.47 717.79 979.29 322.09 415.11 985.71 284.65 911.86 882.80 626.93 845.02 924.85 533.58 522.06 723.12 142.15 731.00 262.09
481.79 531.27 1081.16 73.72 647.63 579.27 310.56 193.02 907.46 0.00 340.98 174.08 909.45 995.80 718.47 718.51 516.19 384.82 678.33 296.01 889.93 1160.14 984.54 574.80 870.45 1132.49 616.43 352.92 545.25 492.36 701.01 629.63 398.98 910.17 478.46 461.49 809.22 429.85 770.59 867.54 1189.97 561.18 474.01 961.35 1073.49 765.44 609.49 942.30 717.65 668.41 675.79 1060.25 913.57 561.51 694.88 725.97 109.95 784.13 823.63 671.06 767.16 651.72 783.64 772.24 652.06 921.47 442.69 344.48 1091.83 1094.74 626.28 476.05 365.77 527.46 397.23 590.92 851.43 1110.96 511.12 728.57 460.54 296.06 489.77 706.02 470.72 546.13 732.73 452.58 796.88 1169.18 688.99
330.85 190.29 912.06 414.70 612.18 238.29 541.21 423.67 647.76 340.98 0.00 515.06 956.93 723.64 851.55 816.13 732.81 311.79 811.02 125.15 768.36 876.18 862.97 341.34 845.12 1003.74 767.27 693.90 509.80 682.83 572.47 510.11 664.69 898.76 455.45 336.41 921.88 411.74 755.55 735.40 1061.99 477.50 330.82 982.92 818.60 727.30 337.33 845.32 380.34 989.34 879.09 906.37 850.45 778.13 807.46 849.33 231.03 527.10 966.61 936.77 669.08 535.63 896.22 501.24 602.15 777.77 496.83 180.21 972.67 938.98 488.44 472.51 192.53 389.62 490.83 781.39 729.86 923.89 753.24 605.32 389.48 561.77 170.79 830.54 708.90 402.43 634.65 474.44 505.61 1037.04 567.42
526.29 609.81 1069.02 100.36 631.96 672.11 174.21 237.52 1042.44 174.08 515.06 0.00 851.14 1128.63 570.15 660.20 483.72 534.37 620.02 433.66 900.22 1246.12 1004.68 718.04 865.94 1132.93 558.12 356.90 574.92 434.05 864.56 682.02 340.67 876.96 383.81 617.31 725.75 497.16 712.28 903.57 1099.69 480.60 591.68 903.04 1090.87 740.53 755.82 862.74 814.16 656.88 516.68 1157.60 878.07 529.04 614.24 635.69 284.03 819.19 765.32 575.69 803.19 731.06 675.47 793.33 743.45 906.96 384.38 487.72 1098.24 1095.94 630.80 573.40 420.57 587.51 402.68 532.61 840.64 1160.88 444.81 805.18 634.62 237.75 634.17 647.71 396.80 624.41 830.08 347.33 939.25 1102.74 815.89
742.49 834.21 554.28 938.28 468.24 1138.74 704.27 784.87 937.06 909.45 956.93 851.14 0.00 1084.25 305.58 278.81 476.90 1139.74 300.87 969.80 727.42 1183.05 648.35 1284.45 289.64 638.51 327.68 752.68 570.62 491.92 893.80 595.06 562.30 245.75 643.21 1222.68 154.90 639.62 257.88 475.42 313.11 619.60 1228.93 161.59 809.16 229.63 1014.70 402.91 1115.03 634.15 466.27 953.92 360.37 501.83 266.40 240.04 1019.40 840.49 85.82 552.96 524.35 656.15 205.18 822.57 582.36 550.63 615.43 1104.97 496.10 581.20 708.16 671.07 852.19 737.23 693.18 444.76 706.32 825.02 616.16 782.54 1293.39 613.39 1123.48 246.83 534.61 657.03 516.60 638.77 810.64 526.48 788.05
678.43 665.65 734.39 1069.52 750.25 586.12 1024.52 910.77 271.89 995.80 723.64 1128.63 1084.25 0.00 1074.23 1008.17 1070.67 835.81 980.21 848.79 534.40 168.60 591.35 700.69 915.05 796.39 918.31 1199.16 701.84 1094.28 369.48 562.81 1024.99 948.81 817.78 752.87 1101.02 694.26 934.69 734.63 1062.10 760.51 810.14 1004.77 471.57 906.44 386.31 837.77 577.67 1341.45 1185.95 522.45 817.41 1115.99 1067.25 1041.04 885.85 361.16 1072.05 1272.64 696.03 519.92 1142.45 335.30 654.85 689.07 864.72 866.22 692.53 725.01 497.83 695.59 775.91 596.65 836.65 1084.67 591.84 494.83 1115.57 460.69 862.53 1001.72 630.40 1007.90 1056.54 638.96 687.46 781.30 273.61 935.98 471.53
608.05 686.00 729.89 670.51 434.16 971.97 513.29 585.05 957.81 718.47 851.55 570.15 305.58 1074.23 0.00 144.77 232.00 965.24 123.18 798.04 700.96 1142.42 643.72 1106.76 350.17 694.50 155.92 469.65 427.84 226.11 804.89 598.66 319.49 379.53 424.37 980.15 155.60 554.72 214.85 535.71 529.54 423.39 1028.45 357.48 856.27 219.19 963.97 437.82 981.84 423.61 267.22 977.65 447.81 232.61 44.09 65.54 828.42 801.33 219.76 342.42 435.33 568.19 105.32 794.38 543.95 600.51 431.16 920.70 666.79 719.01 661.97 456.73 687.29 596.54 411.41 139.18 714.79 813.13 364.47 714.57 1026.84 422.41 975.27 115.95 294.78 526.81 469.76 460.85 863.61 570.40 695.72
578.03 661.75 645.15 760.56 361.28 984.43 513.33 594.01 813.04 718.51 816.13 660.20 278.81 1008.17 144.77 0.00 290.68 978.93 130.38 744.20 616.99 1058.45 559.75 1076.00 251.69 597.25 102.08 588.84 306.33 244.02 660.12 477.15 328.45 262.66 445.75 999.16 135.18 475.16 97.98 450.49 543.23 400.65 1007.97 246.75 725.35 121.94 865.46 340.57 957.31 518.12 411.99 898.75 349.33 319.78 121.10 79.23 797.10 666.21 198.20 436.93 351.36 504.99 152.74 672.87 433.12 516.54 475.85 879.37 580.35 635.16 553.85 415.03 685.62 572.77 495.49 283.95 630.82 734.23 458.33 590.53 1094.76 422.45 905.45 31.98 315.89 420.23 385.79 440.14 748.87 618.03 550.95
462.09 602.65 785.91 568.08 359.34 951.68 309.51 399.15 908.01 516.19 732.81 483.72 476.90 1070.67 232.00 290.68 0.00 864.93 176.03 747.48 760.26 1188.53 760.71 943.16 479.68 829.53 202.79 390.00 461.72 49.98 755.09 576.80 143.36 490.65 278.41 859.24 333.55 506.01 325.97 642.42 700.86 375.38 852.32 528.80 999.10 354.22 869.78 572.85 898.49 323.22 188.51 1052.38 570.53 45.32 263.07 236.86 626.14 761.18 391.08 275.20 542.04 601.84 337.32 735.37 531.33 692.97 321.75 712.84 771.72 771.86 598.36 468.18 540.28 542.30 290.50 92.82 748.87 984.45 183.57 685.50 920.44 246.28 891.92 274.43 86.92 501.02 576.47 314.89 843.84 763.93 645.92
545.02 469.70 1219.67 443.25 880.36 359.04 583.32 465.78 917.32 384.82 311.79 534.37 1139.74 835.81 965.24 978.93 864.93 0.00 951.63 337.36 989.57 1004.41 1067.66 214.73 1028.90 1272.70 956.76 737.74 816.17 824.72 769.04 764.36 731.34 1130.96 709.12 82.94 1006.11 647.44 1049.01 1025.09 1363.70 778.77 89.19 1191.64 1099.35 1039.09 545.67 1093.24 501.09 1053.23 984.25 1127.37 1126.54 902.70 941.57 899.70 274.87 748.10 1053.92 984.80 924.71 703.27 1001.11 722.24 852.73 1046.73 705.64 179.47 1225.19 1202.95 725.62 728.16 504.32 658.44 627.89 923.28 929.99 1168.45 859.26 857.32 189.84 674.20 301.58 950.11 779.18 706.00 938.22 683.24 786.36 1292.43 846.83
539.25 679.81 609.88 690.37 340.14 947.43 473.15 485.85 882.58 678.33 811.02 620.02 300.87 980.21 123.18 130.38 176.03 951.63 0.00 704.02 653.11 1050.27 614.66 983.58 303.65 653.50 61.90 480.70 333.82 191.05 758.74 504.64 284.43 314.62 355.57 947.09 157.52 478.36 149.94 506.74 524.83 347.03 967.79 352.77 855.73 178.19 887.61 396.82 975.65 492.61 364.54 968.55 401.29 221.35 87.04 60.83 765.96 707.31 215.05 447.59 417.78 532.48 162.24 700.36 510.45 516.94 413.26 839.19 636.60 595.83 581.34 439.83 618.49 575.97 436.80 172.85 697.24 808.42 359.60 620.55 1046.67 382.27 932.94 98.40 262.92 447.72 452.21 392.05 740.43 593.64 656.38
318.31 315.44 952.72 333.30 669.52 300.79 474.64 431.09 748.81 296.01 125.15 433.66 969.80 848.79 798.04 744.20 747.48 337.36 704.02 0.00 796.99 1001.33 922.12 388.21 832.58 1058.42 642.12 636.85 590.01 713.90 591.24 597.41 620.52 904.25 496.11 254.96 834.91 421.18 739.57 856.76 1105.68 518.16 263.77 988.41 943.75 767.82 462.48 866.53 442.84 957.31 883.25 979.67 923.43 792.80 791.06 764.85 186.06 652.25 883.98 876.12 756.38 613.37 866.26 626.39 689.45 865.07 534.73 157.89 1061.97 979.64 498.91 551.91 233.19 422.71 456.98 806.28 737.41 976.10 750.40 593.71 370.07 518.63 295.94 731.71 692.26 489.73 721.95 504.84 630.76 1132.07 633.29
558.26 578.07 230.10 958.58 400.92 735.27 792.09 847.03 262.51 889.93 768.36 900.22 727.42 534.40 700.96 616.99 760.26 989.57 653.11 796.99 0.00 597.43 344.99 874.00 476.26 335.80 591.21 965.54 432.99 757.69 235.99 347.39 725.03 557.40 572.18 906.63 688.21 526.71 539.09 366.01 689.21 527.31 1011.70 609.50 257.58 567.34 517.43 368.18 636.20 1018.13 902.51 318.21 425.08 805.58 677.29 635.42 882.58 297.12 680.08 959.25 265.63 286.30 736.83 307.22 304.47 247.27 682.65 819.24 406.63 257.02 377.66 461.97 616.07 476.48 653.39 804.83 59.58 363.31 854.91 203.28 1035.84 784.37 703.45 585.01 745.50 424.30 300.06 599.23 331.86 485.60 200.94
783.60 834.25 628.77 1145.76 862.67 754.72 1154.56 1072.37 440.49 1160.14 876.18 1246.12 1183.05 168.60 1142.42 1058.45 1188.53 1004.41 1050.27 1001.33 597.43 0.00 689.90 869.29 941.80 734.47 1086.91 1291.05 865.17 1199.15 459.13 718.56 1156.30 998.33 967.28 921.47 1129.67 756.22 980.55 752.86 1160.79 887.55 978.74 1065.83 640.17 959.63 554.91 862.78 683.16 1496.40 1354.55 642.84 867.91 1233.85 1118.75 1076.88 1054.45 529.76 1138.90 1421.00 707.09 688.52 1178.29 503.90 748.30 725.54 1008.16 1034.82 829.54 655.69 666.43 837.59 856.31 658.61 955.49 1177.43 537.85 663.43 1257.16 582.19 1031.13 1063.68 799.00 1026.47 1175.31 807.56 672.66 949.90 442.21 884.27 542.61
637.46 672.68 166.73 1000.39 439.71 864.72 858.14 877.93 474.37 984.54 862.97 1004.68 648.35 591.35 643.72 559.75 760.71 1067.66 614.66 922.12 344.99 689.90 0.00 1027.88 365.62 254.08 594.16 937.48 446.94 710.73 404.72 359.56 730.82 435.64 638.23 1040.98 589.94 561.62 492.13 190.97 560.23 541.26 1146.05 487.74 252.88 465.05 631.12 246.42 768.05 1024.87 905.46 417.37 293.53 806.03 620.05 578.18 965.74 410.81 569.44 986.14 218.67 420.65 640.22 436.67 358.15 97.72 626.84 962.91 190.66 193.65 480.64 509.78 747.92 579.46 670.57 757.87 285.41 332.10 769.29 335.13 1182.40 773.47 857.33 527.77 701.64 467.24 253.10 657.35 493.47 357.75 295.55
595.87 459.82 1093.71 623.60 872.05 241.56 798.05 680.51 750.02 574.80 341.34 718.04 1284.45 700.69 1106.76 1076.00 943.16 214.73 983.58 388.21 874.00 869.29 1027.88 0.00 1076.53 1199.41 1005.36 927.72 769.67 928.11 638.01 694.06 889.56 1178.59 703.78 164.66 1141.10 655.18 1093.42 977.89 1315.33 759.79 180.60 1206.87 910.99 1065.17 414.64 1037.36 357.29 1180.46 1012.58 996.34 1068.97 988.48 1063.02 1044.41 464.85 617.07 1198.63 1099.27 885.42 755.15 1145.82 591.21 786.10 1031.11 750.72 230.32 1206.84 1120.63 660.55 711.79 515.54 561.73 700.54 1011.84 854.61 1016.72 1001.57 726.29 161.84 797.56 170.55 1081.98 856.24 655.77 866.87 667.30 655.33 1279.53 732.33
514.27 654.83 423.78 897.89 374.65 988.60 719.07 781.55 704.75 870.45 845.12 865.94 289.64 915.05 350.17 251.69 479.68 1028.90 303.65 832.58 476.26 941.80 365.62 1076.53 0.00 494.82 307.82 768.73 406.03 483.79 653.67 382.47 577.17 102.06 571.45 1036.02 252.94 525.13 153.71 212.69 408.18 487.20 1096.35 164.61 559.52 135.31 751.97 119.20 943.33 688.42 617.39 714.94 97.64 468.54 330.83 288.96 943.79 604.74 203.82 676.81 234.71 443.56 303.22 609.98 374.19 289.83 615.76 879.82 358.98 450.70 558.02 394.40 658.56 573.38 589.79 438.26 416.68 610.83 578.24 541.33 1121.08 628.19 935.64 238.55 555.66 464.48 269.14 597.88 641.44 396.66 544.50
772.73 893.34 105.70 1128.64 567.96 1031.92 992.60 1006.18 598.31 1132.49 1003.74 1132.93 638.51 796.39 694.50 597.25 829.53 1272.70 653.50 1058.42 335.80 734.47 254.08 1199.41 494.82 0.00 657.72 1108.73 593.60 833.69 561.40 556.69 859.07 392.76 779.50 1189.76 574.77 728.56 503.56 391.15 526.62 682.53 1294.83 476.92 353.24 475.31 811.62 396.83 930.39 1038.27 936.61 480.54 453.73 818.39 670.83 628.96 1110.46 591.31 584.64 1023.30 365.33 569.43 625.05 617.17 504.38 225.97 755.09 1110.57 157.05 122.23 624.93 656.44 825.23 723.75 807.79 778.26 353.77 316.02 957.55 497.47 1287.75 901.72 1028.86 578.55 884.23 601.31 399.76 785.60 657.27 193.19 516.21
543.62 656.64 671.78 658.48 278.24 917.85 411.25 528.79 843.30 616.43 767.27 558.12 327.68 918.31 155.92 102.08 202.79 956.76 61.90 642.12 591.21 1086.91 594.16 1005.36 307.82 657.72 0.00 486.76 271.92 175.97 696.84 442.74 269.35 318.84 374.54 897.08 192.79 440.75 154.16 469.89 586.73 366.24 905.89 348.83 827.43 182.41 831.05 401.04 922.90 430.71 311.30 909.42 405.46 217.70 148.94 122.73 704.06 645.41 241.86 397.99 408.97 470.58 224.14 638.46 448.55 574.15 373.77 777.29 640.82 657.73 519.44 380.62 619.97 538.36 393.41 216.83 645.33 813.49 356.86 558.65 992.68 320.37 871.04 89.59 247.84 385.82 443.40 338.06 769.73 655.54 594.48
620.83 680.99 1090.58 404.31 657.55 932.19 238.04 355.58 1057.21 352.92 693.90 356.90 752.68 1199.16 469.65 588.84 390.00 737.74 480.70 636.85 965.54 1291.05 937.48 927.72 768.73 1108.73 486.76 0.00 629.73 370.50 850.76 736.83 277.12 795.32 438.44 814.41 614.63 656.84 630.64 947.40 992.15 535.41 826.93 820.09 1156.19 633.42 962.41 852.05 947.61 395.20 436.59 1205.61 832.35 345.59 486.28 528.15 462.87 919.65 682.37 444.75 858.00 679.24 574.97 893.79 781.58 910.22 412.34 697.40 1071.99 1076.53 731.26 621.41 673.04 632.44 426.02 330.47 905.96 1212.11 206.43 898.85 813.46 265.71 801.09 576.35 348.86 673.69 835.24 458.55 946.63 1040.05 859.27
271.70 412.26 580.93 618.97 102.38 678.10 411.20 491.65 571.38 545.25 509.80 574.92 570.62 701.84 427.84 306.33 461.72 816.17 333.82 590.01 432.99 865.17 446.94 769.67 406.03 593.60 271.92 629.73 0.00 440.84 424.92 170.82 412.69 466.65 191.29 753.92 435.74 168.83 345.55 328.65 767.29 94.32 840.62 550.81 623.64 341.72 559.13 416.38 650.98 702.63 583.22 692.90 368.32 489.62 420.86 385.56 648.63 373.49 504.53 660.71 228.27 198.66 459.07 366.54 176.63 393.45 287.49 636.70 552.94 572.57 247.52 108.70 379.29 266.44 270.47 488.75 373.41 655.34 489.08 286.73 841.81 403.48 599.12 338.31 444.74 113.90 262.70 227.59 497.81 630.29 322.56
466.08 606.64 800.93 534.41 409.32 921.12 287.18 358.94 957.99 492.36 682.83 434.05 491.92 1094.28 226.11 244.02 49.98 824.72 191.05 713.90 757.69 1199.15 710.73 928.11 483.79 833.69 175.97 370.50 440.84 0.00 805.07 547.94 93.38 494.81 325.32 853.99 348.57 477.85 330.13 592.44 715.88 346.52 802.34 490.77 949.12 358.38 831.20 577.01 902.48 373.20 238.49 1011.05 581.43 95.30 240.14 251.88 602.31 767.25 406.10 303.00 492.06 602.52 328.90 763.48 528.94 657.24 271.77 697.79 799.05 786.88 600.95 426.85 490.30 575.46 299.01 98.56 698.89 973.15 218.69 718.25 870.46 196.30 853.62 265.56 71.87 469.32 526.49 317.60 874.65 784.69 695.90
414.36 401.58 455.70 774.73 478.46 499.28 760.45 703.13 206.45 701.01 572.47 864.56 893.80 369.48 804.89 660.12 755.09 769.04 758.74 591.24 235.99 459.13 404.72 638.01 653.67 561.40 696.84 850.76 424.92 805.07 0.00 298.74 760.92 650.85 553.71 686.10 765.95 430.19 692.42 478.71 925.20 496.44 791.17 735.01 408.86 671.50 303.43 588.63 494.79 1077.38 917.16 454.66 593.76 800.41 781.22 739.35 777.30 83.12 807.98 1003.85 418.96 289.20 812.86 71.23 314.86 459.30 600.65 691.81 595.38 482.62 233.76 423.75 511.84 332.58 572.58 779.53 271.61 514.59 823.19 138.19 799.85 676.35 467.46 692.10 771.93 374.89 384.53 517.23 95.87 711.20 109.17
279.10 367.42 492.03 682.19 230.43 606.13 518.30 535.97 472.13 629.63 510.11 682.02 595.06 562.81 598.66 477.15 576.80 764.36 504.64 597.41 347.39 718.56 359.56 694.06 382.47 556.69 442.74 736.83 170.82 547.94 298.74 0.00 554.60 484.53 298.39 681.42 543.13 220.78 436.93 291.74 730.38 201.42 786.49 512.81 538.04 465.18 473.68 365.01 620.40 818.75 719.87 606.52 406.79 616.42 581.76 539.89 700.58 253.37 509.24 788.76 191.36 61.09 593.41 227.51 92.04 356.54 394.59 634.21 516.03 465.11 175.55 153.58 417.16 274.37 348.97 522.99 287.81 484.52 596.18 187.48 822.84 510.58 588.25 489.48 549.11 107.68 191.06 334.69 373.43 593.38 227.06
372.70 513.26 820.58 441.03 458.10 862.29 193.80 265.56 923.42 398.98 664.69 340.67 562.30 1024.99 319.49 328.45 143.36 731.34 284.43 620.52 725.03 1156.30 730.82 889.56 577.17 859.07 269.35 277.12 412.69 93.38 760.92 554.60 0.00 588.19 280.17 774.37 424.25 467.55 423.51 685.82 801.77 376.96 708.96 575.20 943.82 447.82 762.65 666.45 809.10 353.27 276.81 985.22 674.81 188.68 295.90 337.77 508.93 715.55 491.99 272.08 585.44 576.69 384.66 689.69 528.81 633.10 203.22 684.73 798.92 847.50 527.16 401.02 503.93 497.69 205.63 191.94 757.66 1002.99 129.88 676.39 855.96 102.92 802.53 344.58 71.74 453.30 619.87 243.69 781.27 878.07 712.25
616.33 756.89 432.06 908.86 364.27 973.93 730.09 734.12 691.31 910.17 898.76 876.96 245.75 948.81 379.53 262.66 490.65 1130.96 314.62 904.25 557.40 998.33 435.64 1178.59 102.06 392.76 318.84 795.32 466.65 494.81 650.85 484.53 588.19 0.00 582.42 1049.22 260.96 581.45 164.68 245.47 418.63 515.63 1154.29 84.16 650.30 171.46 815.55 189.22 1006.91 699.39 543.85 817.00 161.22 479.51 352.23 313.99 1003.58 706.80 191.88 630.54 336.77 428.89 311.24 705.88 476.25 391.89 590.69 981.88 409.03 458.98 543.35 496.46 760.62 642.17 512.94 474.41 518.74 674.41 618.67 613.93 1190.64 639.21 1033.35 274.70 566.68 566.54 371.20 568.29 705.02 466.68 608.92
183.68 324.24 741.01 456.84 248.33 673.27 219.91 302.41 722.44 478.46 455.45 383.81 643.21 817.78 424.37 445.75 278.41 709.12 355.57 496.11 572.18 967.28 638.23 703.78 571.45 779.50 374.54 438.44 191.29 325.32 553.71 298.39 280.17 582.42 0.00 649.97 508.63 228.30 417.74 519.94 867.17 96.97 699.33 666.58 814.93 445.99 631.56 562.33 620.08 533.89 441.13 773.97 559.61 323.73 380.28 403.17 514.84 508.34 557.39 527.82 419.56 347.25 469.04 482.48 359.82 553.53 116.15 549.23 714.61 763.50 319.95 189.77 262.92 308.67 81.23 371.23 564.70 782.91 297.79 478.02 691.10 212.19 613.51 413.77 253.45 259.85 446.45 36.48 628.40 820.53 476.77
521.75 446.43 1136.73 526.19 821.21 276.10 666.26 548.72 834.38 461.49 336.41 617.31 1222.68 752.87 980.15 999.16 859.24 82.94 947.09 254.96 906.63 921.47 1040.98 164.66 1036.02 1189.76 897.08 814.41 753.92 853.99 686.10 681.42 774.37 1049.22 649.97 0.00 1089.05 618.92 994.53 973.16 1342.29 709.31 105.07 1133.38 1016.41 1022.78 462.73 1017.15 418.15 1127.64 987.19 1044.43 1074.05 904.56 1024.24 982.64 357.81 665.16 1136.86 1046.45 872.78 620.33 1084.05 639.30 769.79 963.79 646.49 156.20 1142.25 1131.54 651.27 645.22 448.22 609.82 568.74 918.04 847.05 1085.51 870.41 774.38 141.42 738.01 218.64 986.67 782.12 682.73 872.48 624.09 703.42 1209.49 780.42
692.31 796.93 579.21 783.38 366.59 1056.23 604.04 643.37 918.87 809.22 921.88 725.75 154.90 1101.02 155.60 135.18 333.55 1006.11 157.52 834.91 688.21 1129.67 589.94 1141.10 252.94 574.77 192.79 614.63 435.74 348.57 765.95 543.13 424.25 260.96 508.63 1089.05 0.00 604.57 178.09 398.97 445.55 504.55 1095.30 206.80 796.56 194.58 907.20 364.38 1013.38 538.09 422.82 967.88 307.48 363.78 128.35 106.41 896.85 772.04 69.08 456.90 422.58 600.55 50.28 770.64 451.09 542.77 460.53 970.08 511.19 606.13 683.26 538.09 764.83 634.33 538.28 294.78 669.62 820.67 478.11 683.36 1182.44 513.16 1025.51 103.20 400.98 549.64 457.01 530.85 851.28 599.90 656.78
102.87 243.43 690.07 461.41 271.21 592.46 448.21 341.31 545.28 429.85 411.74 497.16 639.62 694.26 554.72 475.16 506.01 647.44 478.36 421.18 526.71 756.22 561.62 655.18 525.13 728.56 440.75 656.84 168.83 477.85 430.19 220.78 467.55 581.45 228.30 618.92 604.57 0.00 438.24 478.06 786.81 131.33 677.61 665.61 717.36 409.99 409.25 515.59 539.27 748.04 624.16 714.93 529.75 535.30 565.40 539.19 479.80 384.82 649.30 666.85 377.68 240.41 573.85 358.96 306.74 502.59 296.62 468.42 702.35 685.89 196.43 130.73 219.21 97.61 261.92 441.87 467.13 705.30 525.27 370.81 681.73 396.43 488.79 507.14 419.09 127.25 359.47 224.38 504.88 769.59 333.29
541.11 681.67 551.46 744.18 267.59 993.84 565.41 635.79 801.60 770.59 755.55 712.28 257.88 934.69 214.85 97.98 325.97 1049.01 149.94 739.57 539.09 980.55 492.13 1093.42 153.71 503.56 154.16 630.64 345.55 330.13 692.42 436.93 423.51 164.68 417.74 994.53 178.09 438.24 0.00 356.80 561.89 418.95 1003.34 248.84 713.23 28.25 847.49 246.88 914.38 534.71 465.46 856.37 251.35 314.83 191.18 149.31 858.22 639.11 211.06 523.10 273.46 498.02 221.78 660.05 412.94 438.64 508.70 897.46 486.66 578.38 585.30 437.00 643.84 535.85 498.97 322.79 567.34 691.85 453.99 580.08 1106.36 474.53 926.34 113.52 402.00 459.45 307.89 454.22 781.17 524.34 583.25
538.45 601.79 344.11 918.59 334.99 897.87 739.85 773.46 574.93 867.54 735.40 903.57 475.42 734.63 535.71 450.49 642.42 1025.09 506.74 856.76 366.01 752.86 190.97 977.89 212.69 391.15 469.89 947.40 328.65 592.44 478.71 291.74 685.82 245.47 519.94 973.16 398.97 478.06 356.80 0.00 568.93 422.97 1066.22 329.63 443.85 328.55 685.54 109.92 801.38 891.51 743.36 608.34 115.05 671.63 512.04 470.17 850.30 470.41 400.04 830.05 100.38 352.83 449.25 486.97 239.86 165.18 545.04 845.62 237.27 355.31 467.29 391.49 676.51 491.34 552.28 616.93 352.87 504.73 790.93 368.46 1114.58 691.67 831.13 419.76 645.25 367.03 134.81 556.24 567.46 301.64 369.54
830.98 971.54 532.02 1157.21 773.01 1231.27 977.47 1008.83 930.04 1189.97 1061.99 1099.69 313.11 1062.10 529.54 543.23 700.86 1363.70 524.83 1105.68 689.21 1160.79 560.23 1315.33 408.18 526.62 586.73 992.15 767.29 715.88 925.20 730.38 801.77 418.63 867.17 1342.29 445.55 786.81 561.89 568.93 0.00 822.44 1369.45 334.47 788.24 542.74 1111.58 459.01 1230.35 947.26 779.38 808.36 505.82 741.30 505.87 464.00 1254.27 891.27 398.93 866.07 539.02 791.47 494.82 917.13 678.50 466.04 783.66 1186.09 369.57 505.10 800.69 729.64 969.04 884.42 861.41 668.72 653.73 748.92 855.63 797.43 1431.56 893.91 1144.78 514.41 758.57 659.56 573.45 867.08 923.49 355.38 816.17
234.20 374.76 644.04 553.63 151.36 693.26 316.88 399.38 625.47 561.18 477.50 480.60 619.60 760.51 423.39 400.65 375.38 778.77 347.03 518.16 527.31 887.55 541.26 759.79 487.20 682.53 366.24 535.41 94.32 346.52 496.44 201.42 376.96 515.63 96.97 709.31 504.55 131.33 418.95 422.97 822.44 0.00 781.93 599.79 717.96 390.70 540.58 465.36 670.60 617.33 537.92 677.00 462.64 420.70 434.07 407.86 570.20 451.07 562.08 624.61 322.59 262.51 509.27 425.21 262.85 456.56 193.17 599.75 617.64 666.53 262.68 92.80 284.97 228.94 178.20 445.08 467.73 685.94 394.76 381.05 747.49 309.16 589.24 432.63 350.42 162.88 349.48 133.27 571.13 723.56 416.88
582.08 521.11 1216.49 491.32 926.28 366.88 633.32 554.97 930.62 474.01 330.82 591.68 1228.93 810.14 1028.45 1007.97 852.32 89.19 967.79 263.77 1011.70 978.74 1146.05 180.60 1096.35 1294.83 905.89 826.93 840.62 802.34 791.17 786.49 708.96 1154.29 699.33 105.07 1095.30 677.61 1003.34 1066.22 1369.45 781.93 0.00 1229.76 1091.59 1031.59 567.80 1028.24 508.93 1062.23 985.77 1149.50 1085.14 897.64 1004.86 988.89 364.06 770.23 1143.11 981.04 977.67 725.40 1090.30 744.37 867.49 1068.86 751.56 232.43 1247.32 1236.61 678.82 750.29 496.96 580.00 673.81 900.90 952.12 1190.58 838.84 853.20 147.00 724.20 323.71 995.48 780.70 733.25 965.47 729.16 808.49 1305.70 851.05
678.88 819.44 437.06 990.18 448.43 1058.09 756.17 818.28 775.47 961.35 982.92 903.04 161.59 1004.77 357.48 246.75 528.80 1191.64 352.77 988.41 609.50 1065.83 487.74 1206.87 164.61 476.92 348.83 820.09 550.81 490.77 735.01 512.81 575.20 84.16 666.58 1133.38 206.80 665.61 248.84 329.63 334.47 599.79 1229.76 0.00 724.13 255.62 899.71 241.32 1085.96 652.64 624.70 836.70 245.38 563.67 333.81 291.94 1020.83 695.33 137.72 571.45 399.32 513.05 257.08 669.47 420.77 446.28 667.33 1044.43 334.51 463.98 627.51 559.01 823.17 708.26 597.10 496.66 581.29 707.80 683.57 653.04 1274.80 665.29 1090.13 278.73 562.64 620.49 433.75 652.45 789.18 393.10 626.46
748.91 754.08 310.06 1084.99 658.50 801.86 998.01 880.47 310.04 1073.49 818.60 1090.87 809.16 471.57 856.27 725.35 999.10 1099.35 855.73 943.75 257.58 640.17 252.88 910.99 559.52 353.24 827.43 1156.19 623.64 949.12 408.86 538.04 943.82 650.30 814.93 1016.41 796.56 717.36 713.23 443.85 788.24 717.96 1091.59 724.13 0.00 694.83 553.68 499.30 745.04 1208.78 1117.39 185.83 489.08 1028.06 846.45 804.58 1049.63 450.16 763.34 1162.28 471.55 476.95 800.95 458.91 495.12 350.60 860.94 998.81 443.54 283.14 568.31 652.62 806.72 667.13 783.19 964.86 250.23 105.73 1022.17 393.93 1072.83 960.75 797.77 757.33 936.15 614.95 460.09 789.88 312.99 546.43 404.61
512.86 653.42 523.21 772.43 239.34 965.59 593.66 646.24 809.03 765.44 727.30 740.53 229.63 906.44 219.19 121.94 354.22 1039.09 178.19 767.82 567.34 959.63 465.05 1065.17 135.31 475.31 182.41 633.42 341.72 358.38 671.50 465.18 447.82 171.46 445.99 1022.78 194.58 409.99 28.25 328.55 542.74 390.70 1031.59 255.62 694.83 0.00 819.24 218.63 886.13 562.96 486.41 850.25 232.95 343.08 195.52 153.65 839.41 610.86 239.31 551.35 301.71 526.27 244.86 636.72 411.33 423.59 480.45 878.41 458.41 550.13 558.39 442.17 629.20 507.60 491.81 302.95 551.99 720.10 482.24 559.16 1091.72 502.78 898.09 103.24 430.25 455.62 286.97 482.47 754.62 496.09 562.33
492.21 368.23 747.53 683.21 630.66 248.18 796.94 750.56 382.84 609.49 337.33 755.82 1014.70 386.31 963.97 865.46 869.78 545.67 887.61 462.48 517.43 554.91 631.12 414.64 751.97 811.62 831.05 962.41 559.13 831.20 303.43 473.68 762.65 815.55 631.56 462.73 907.20 409.25 847.49 685.54 1111.58 540.58 567.80 899.71 553.68 819.24 0.00 711.23 191.36 1115.92 999.73 634.55 654.33 867.78 945.23 903.36 499.54 220.31 933.95 1034.73 590.34 426.07 957.48 246.17 541.26 645.54 559.43 517.54 810.08 755.08 311.61 510.28 434.73 372.36 579.28 851.12 457.85 659.41 819.33 329.53 554.76 706.06 244.09 897.44 828.34 452.74 592.36 595.08 240.69 912.54 335.57
548.22 688.78 304.58 963.10 314.00 941.86 782.24 780.45 630.69 942.30 845.32 862.74 402.91 837.77 437.82 340.57 572.85 1093.24 396.82 866.53 368.18 862.78 246.42 1037.36 119.20 396.83 401.04 852.05 416.38 577.01 588.63 365.01 666.45 189.22 562.33 1017.15 364.38 515.59 246.88 109.92 459.01 465.36 1028.24 241.32 499.30 218.63 711.23 0.00 902.59 781.59 685.21 663.79 56.90 561.71 414.15 372.28 952.77 547.50 323.02 769.98 210.30 396.82 414.66 521.64 290.24 204.96 615.90 913.77 239.78 331.50 511.28 466.25 692.51 577.73 566.47 521.58 392.65 570.09 697.44 478.38 1155.03 697.22 866.81 321.87 648.88 443.08 237.28 598.63 600.70 277.46 479.46
436.40 295.84 866.30 713.80 646.79 142.05 709.57 592.03 574.20 717.65 380.34 814.16 1115.03 577.67 981.84 957.31 898.49 501.09 975.65 442.84 636.20 683.16 768.05 357.29 943.33 930.39 922.90 947.61 650.98 902.48 494.79 620.40 809.10 1006.91 620.08 418.15 1013.38 539.27 914.38 801.38 1230.35 670.60 508.93 1085.96 745.04 886.13 191.36 902.59 0.00 1153.97 1019.07 825.91 845.69 943.81 1000.36 1023.25 607.70 411.67 1082.46 1081.18 739.54 617.43 1005.72 437.53 665.19 764.31 697.84 422.15 958.71 878.08 502.97 670.00 486.32 497.80 669.77 978.00 576.62 815.31 917.87 432.92 519.13 800.45 227.88 989.29 873.53 607.82 705.11 614.42 432.05 1031.31 472.50
717.57 858.13 1086.17 650.93 639.52 1205.26 482.67 596.14 1219.59 668.41 989.34 656.88 634.15 1341.45 423.61 518.12 323.22 1053.23 492.61 957.31 1018.13 1496.40 1024.87 1180.46 688.42 1038.27 430.71 395.20 702.63 373.20 1077.38 818.75 353.27 699.39 533.89 1127.64 538.09 748.04 534.71 891.51 947.26 617.33 1062.23 652.64 1208.78 562.96 1115.92 781.59 1153.97 0.00 167.88 1294.33 786.06 306.58 467.70 489.15 778.36 1032.01 584.84 81.19 808.17 879.84 487.81 1006.15 811.51 973.35 556.49 998.87 987.15 1088.44 843.62 710.13 796.81 842.56 558.90 360.59 958.55 1226.56 319.51 979.79 1128.95 456.19 1009.91 520.30 372.95 780.21 842.60 560.15 1134.54 994.01 969.14
624.81 723.23 974.42 617.04 547.85 1037.38 427.66 542.37 1063.70 675.79 879.09 516.68 466.27 1185.95 267.22 411.99 188.51 984.25 364.54 883.25 902.51 1354.55 905.46 1012.58 617.39 936.61 311.30 436.59 583.22 238.49 917.16 719.87 276.81 543.85 441.13 987.19 422.82 624.16 465.46 743.36 779.38 537.92 985.77 624.70 1117.39 486.41 999.73 685.21 1019.07 167.88 0.00 1205.86 628.31 150.69 311.31 332.76 785.74 876.51 486.98 86.69 702.55 751.89 372.54 850.65 662.14 867.73 459.04 830.99 877.09 960.37 688.12 621.66 686.56 721.77 426.27 244.12 890.99 1080.35 230.16 862.50 1059.27 379.73 842.03 383.17 205.07 613.89 732.12 404.65 996.57 837.62 834.43
748.26 735.48 399.64 1133.97 719.13 833.18 993.88 1000.77 362.43 1060.25 906.37 1157.60 953.92 522.45 977.65 898.75 1052.38 1127.37 968.55 979.67 318.21 642.84 417.37 996.34 714.94 480.54 909.42 1205.61 692.90 1011.05 454.66 606.52 985.22 817.00 773.97 1044.43 967.88 714.93 856.37 608.34 808.36 677.00 1149.50 836.70 185.83 850.25 634.55 663.79 825.91 1294.33 1205.86 0.00 674.91 1097.70 953.98 912.11 1031.71 430.99 909.77 1257.30 583.84 604.51 986.78 405.13 583.69 483.27 857.34 1025.71 546.57 372.72 567.66 584.20 746.48 666.48 779.59 1099.99 377.79 164.52 1071.76 521.49 1158.18 957.15 825.79 903.22 1011.94 654.28 618.27 810.27 498.82 638.08 519.15
605.12 716.84 361.48 978.43 370.90 902.51 731.20 809.68 685.95 913.57 850.45 878.07 360.37 817.41 447.81 349.33 570.53 1126.54 401.29 923.43 425.08 867.91 293.53 1068.97 97.64 453.73 405.46 832.35 368.32 581.43 593.76 406.79 674.81 161.22 559.61 1074.05 307.48 529.75 251.35 115.05 505.82 462.64 1085.14 245.38 489.08 232.95 654.33 56.90 845.69 786.06 628.31 674.91 0.00 566.18 428.47 386.60 965.35 585.46 286.70 715.00 215.43 453.72 357.76 577.08 345.03 248.89 655.81 960.67 296.68 388.40 568.18 477.02 729.13 531.43 623.37 501.88 436.58 513.19 675.88 483.51 1191.65 640.32 898.42 336.19 653.30 482.08 249.86 595.91 543.80 334.36 484.59
507.41 647.97 831.23 576.56 404.66 997.00 354.83 444.47 913.01 561.51 778.13 529.04 501.83 1115.99 232.61 319.78 45.32 902.70 221.35 792.80 805.58 1233.85 806.03 988.48 468.54 818.39 217.70 345.59 489.62 95.30 800.41 616.42 188.68 479.51 323.73 904.56 363.78 535.30 314.83 671.63 741.30 420.70 897.64 563.67 1028.06 343.08 867.78 561.71 943.81 306.58 150.69 1097.70 566.18 0.00 235.43 277.30 671.46 806.50 431.52 237.38 587.36 647.16 317.21 780.69 576.65 738.29 308.35 758.16 726.40 817.18 643.68 513.50 585.60 587.62 335.82 93.43 794.19 958.54 139.16 730.82 965.76 291.60 937.24 307.29 132.24 539.14 581.43 360.21 889.16 803.01 691.24
563.96 704.52 696.92 714.60 427.18 927.88 489.70 561.46 934.14 694.88 807.46 614.24 266.40 1067.25 44.09 121.10 263.07 941.57 87.04 791.06 677.29 1118.75 620.05 1063.02 330.83 670.83 148.94 486.28 420.86 240.14 781.22 581.76 295.90 352.23 380.28 1024.24 128.35 565.40 191.18 512.04 505.87 434.07 1004.86 333.81 846.45 195.52 945.23 414.15 1000.36 467.70 311.31 953.98 428.47 235.43 0.00 41.87 804.83 781.69 196.09 386.51 411.66 612.28 88.76 759.97 520.28 576.84 459.81 926.23 639.54 682.87 649.42 500.82 643.20 572.87 455.50 183.27 691.12 789.46 349.76 707.59 1070.93 398.82 964.05 92.28 312.01 534.76 446.09 416.76 827.47 614.49 672.05
586.85 727.41 664.35 736.05 392.99 969.75 513.47 544.83 892.27 725.97 849.33 635.69 240.04 1041.04 65.54 79.23 236.86 899.70 60.83 764.85 635.42 1076.88 578.18 1044.41 288.96 628.96 122.73 528.15 385.56 251.88 739.35 539.89 337.77 313.99 403.17 982.64 106.41 539.19 149.31 470.17 464.00 407.86 988.89 291.94 804.58 153.65 903.36 372.28 1023.25 489.15 332.76 912.11 386.60 277.30 41.87 0.00 826.79 739.82 154.22 407.96 369.79 584.22 101.41 752.10 478.41 534.97 417.94 900.02 609.48 656.66 621.77 485.30 666.09 531.00 476.95 204.72 649.25 747.59 391.63 669.76 1089.54 429.91 922.18 50.41 294.57 499.46 404.22 439.65 801.26 635.94 630.18
429.52 421.32 1004.76 183.67 721.56 469.32 416.28 298.74 878.79 109.95 231.03 284.03 1019.40 885.85 828.42 797.10 626.14 274.87 765.96 186.06 882.58 1054.45 965.74 464.85 943.79 1110.46 704.06 462.87 648.63 602.31 777.30 700.58 508.93 1003.58 514.84 357.81 896.85 479.80 858.22 850.30 1254.27 570.20 364.06 1020.83 1049.63 839.41 499.54 952.77 607.70 778.36 785.74 1031.71 965.35 671.46 804.83 826.79 0.00 703.57 933.58 781.01 749.92 696.21 893.59 725.84 762.01 915.10 531.91 234.53 1074.59 1031.68 581.75 586.00 285.23 482.93 490.64 700.87 823.00 1080.41 584.39 698.02 401.12 406.01 379.82 793.65 580.67 594.71 715.49 478.36 736.64 1151.94 737.60
368.99 356.21 527.22 774.36 449.49 453.91 715.08 657.76 285.91 784.13 527.10 819.19 840.49 361.16 801.33 666.21 761.18 748.10 707.31 652.25 297.12 529.76 410.81 617.07 604.74 591.31 645.41 919.65 373.49 767.25 83.12 253.37 715.55 706.80 508.34 665.16 772.04 384.82 639.11 470.41 891.27 451.07 770.23 695.33 450.16 610.86 220.31 547.50 411.67 1032.01 876.51 430.99 585.46 806.50 781.69 739.82 703.57 0.00 762.61 963.20 370.03 282.21 818.95 25.86 320.95 425.23 555.28 646.44 589.77 534.77 188.39 384.38 466.47 287.21 527.21 775.23 237.54 491.61 806.13 109.22 775.07 692.28 446.52 689.41 695.38 329.52 378.02 471.86 143.76 692.23 115.26
718.09 858.65 510.13 852.46 435.67 1052.92 618.45 699.05 883.19 823.63 966.61 765.32 85.82 1072.05 219.76 198.20 391.08 1053.92 215.05 883.98 680.08 1138.90 569.44 1198.63 203.82 584.64 241.86 682.37 504.53 406.10 807.98 509.24 491.99 191.88 557.39 1136.86 69.08 649.30 211.06 400.04 398.93 562.08 1143.11 137.72 763.34 239.31 933.95 323.02 1082.46 584.84 486.98 909.77 286.70 431.52 196.09 154.22 933.58 762.61 0.00 525.98 438.53 570.33 119.36 736.75 520.17 493.65 529.61 1019.15 472.23 537.05 622.34 598.22 820.31 685.22 607.36 358.94 620.50 780.87 545.85 696.72 1207.57 527.57 1056.43 166.22 448.79 571.21 472.96 552.95 830.50 530.82 725.86
644.78 785.34 1008.51 675.72 558.33 1124.07 401.48 519.02 1150.39 671.06 936.77 575.69 552.96 1272.64 342.42 436.93 275.20 984.80 447.59 876.12 959.25 1421.00 986.14 1099.27 676.81 1023.30 397.99 444.75 660.71 303.00 1003.85 788.76 272.08 630.54 527.82 1046.45 456.90 666.85 523.10 830.05 866.07 624.61 981.04 571.45 1162.28 551.35 1034.73 769.98 1081.18 81.19 86.69 1257.30 715.00 237.38 386.51 407.96 781.01 963.20 525.98 0.00 777.75 838.58 406.62 937.34 730.32 900.32 475.30 917.68 905.96 1035.43 774.81 673.10 773.25 764.46 477.71 279.40 975.21 1155.55 238.32 898.60 1128.04 375.00 928.72 458.37 291.76 700.58 784.17 491.34 1053.35 912.82 921.12
438.07 558.78 352.66 825.72 234.61 797.49 639.47 673.08 528.14 767.16 669.08 803.19 524.35 696.03 435.33 351.36 542.04 924.71 417.78 756.38 265.63 707.09 218.67 885.42 234.71 365.33 408.97 858.00 228.27 492.06 418.96 191.36 585.44 336.77 419.56 872.78 422.58 377.68 273.46 100.38 539.02 322.59 977.67 399.32 471.55 301.71 590.34 210.30 739.54 808.17 702.55 583.84 215.43 587.36 411.66 369.79 749.92 370.03 438.53 777.75 0.00 252.45 471.20 386.59 139.48 165.18 515.76 745.24 324.67 379.58 366.91 291.11 576.13 426.97 451.90 539.20 293.88 481.09 710.75 306.62 1014.20 629.46 730.75 319.38 563.93 266.65 34.43 455.86 507.71 402.02 309.79
295.06 345.34 516.40 700.43 291.52 545.04 567.16 566.29 442.12 651.72 535.63 731.06 656.15 519.92 568.19 504.99 601.84 703.27 532.48 613.37 286.30 688.52 420.65 755.15 443.56 569.43 470.58 679.24 198.66 602.52 289.20 61.09 576.69 428.89 347.25 620.33 600.55 240.41 498.02 352.83 791.47 262.51 725.40 513.05 476.95 526.27 426.07 396.82 617.43 879.84 751.89 604.51 453.72 647.16 612.28 584.22 696.21 282.21 570.33 838.58 252.45 0.00 650.83 276.99 149.46 343.46 421.57 635.57 572.65 511.21 114.46 175.67 410.98 213.28 371.06 583.71 226.72 545.61 645.04 219.61 761.75 548.62 604.46 536.97 600.70 138.00 252.15 383.73 377.95 589.16 180.03
652.72 791.32 629.49 733.10 416.87 1016.64 578.46 646.24 965.78 783.64 896.22 675.47 205.18 1142.45 105.32 152.74 337.32 1001.11 162.24 866.26 736.83 1178.29 640.22 1145.82 303.22 625.05 224.14 574.97 459.07 328.90 812.86 593.41 384.66 311.24 469.04 1084.05 50.28 573.85 221.78 449.25 494.82 509.27 1090.30 257.08 800.95 244.86 957.48 414.66 1005.72 487.81 372.54 986.78 357.76 317.21 88.76 101.41 893.59 818.95 119.36 406.62 471.20 650.83 0.00 820.92 501.37 593.05 475.40 1001.43 561.47 656.41 706.59 514.15 731.96 632.41 516.73 244.50 719.90 849.00 438.52 733.64 1132.16 487.58 1023.59 151.82 395.98 568.26 505.63 505.52 889.20 650.18 703.69
343.13 330.35 526.93 748.50 457.94 428.05 689.22 631.90 277.12 772.24 501.24 793.33 822.57 335.30 794.38 672.87 735.37 722.24 700.36 626.39 307.22 503.90 436.67 591.21 609.98 617.17 638.46 893.79 366.54 763.48 71.23 227.51 689.69 705.88 482.48 639.30 770.64 358.96 660.05 486.97 917.13 425.21 744.37 669.47 458.91 636.72 246.17 521.64 437.53 1006.15 850.65 405.13 577.08 780.69 759.97 752.10 725.84 25.86 736.75 937.34 386.59 276.99 820.92 0.00 319.55 451.09 529.42 620.58 615.63 553.85 162.53 367.77 440.61 261.35 501.35 749.37 263.40 517.47 780.27 135.08 753.05 666.42 420.66 704.85 721.24 303.66 352.16 446.00 145.92 718.09 141.12
371.14 459.46 429.10 725.78 171.99 694.50 579.73 576.74 467.78 652.06 602.15 743.45 582.36 654.85 543.95 433.12 531.33 852.73 510.45 689.45 304.47 748.30 358.15 786.10 374.19 504.38 448.55 781.58 176.63 528.94 314.86 92.04 528.81 476.25 359.82 769.79 451.09 306.74 412.94 239.86 678.50 262.85 867.49 420.77 495.12 411.33 541.26 290.24 665.19 811.51 662.14 583.69 345.03 576.65 520.28 478.41 762.01 320.95 520.17 730.32 139.48 149.46 501.37 319.55 0.00 282.28 433.31 726.25 464.15 446.14 263.92 176.01 485.19 287.49 355.56 612.67 244.89 576.56 603.89 232.27 911.21 533.12 678.67 458.86 457.07 199.72 135.84 396.12 403.61 541.50 205.69
546.76 687.32 187.48 902.67 341.99 865.84 766.63 780.21 464.00 921.47 777.77 906.96 550.63 689.07 600.51 516.54 692.97 1046.73 516.94 865.07 247.27 725.54 97.72 1031.11 289.83 225.97 574.15 910.22 393.45 657.24 459.30 356.54 633.10 391.89 553.53 963.79 542.77 502.59 438.64 165.18 466.04 456.56 1068.86 446.28 350.60 423.59 645.54 204.96 764.31 973.35 867.73 483.27 248.89 738.29 576.84 534.97 915.10 425.23 493.65 900.32 165.18 343.46 593.05 451.09 282.28 0.00 529.12 901.87 229.19 214.40 457.92 445.42 684.82 549.91 581.82 689.79 187.69 429.82 762.98 331.39 1102.98 675.75 860.56 484.56 704.84 375.34 199.61 559.63 535.77 267.00 350.13
299.83 402.00 716.60 373.55 301.90 735.12 237.51 251.09 795.54 442.69 496.83 384.38 615.43 864.72 431.16 475.85 321.75 705.64 413.26 534.73 682.65 1008.16 626.84 750.72 615.76 755.09 373.77 412.34 287.49 271.77 600.65 394.59 203.22 590.69 116.15 646.49 460.53 296.62 508.70 545.04 783.66 193.17 751.56 667.33 860.94 480.45 559.43 615.90 697.84 556.49 459.04 857.34 655.81 308.35 459.81 417.94 531.91 555.28 529.61 475.30 515.76 421.57 475.40 529.42 433.31 529.12 0.00 621.72 758.31 743.52 366.89 273.14 304.30 349.55 77.75 291.98 623.07 799.77 259.90 541.27 738.04 146.63 667.62 463.36 274.96 315.84 529.82 83.42 653.39 796.12 551.98
365.55 290.23 1049.34 418.20 739.08 280.10 619.91 502.37 791.65 344.48 180.21 487.72 1104.97 866.22 920.70 879.37 712.84 179.47 839.19 157.89 819.24 1034.82 962.91 230.32 879.82 1110.57 777.29 697.40 636.70 697.79 691.81 634.21 684.73 981.88 549.23 156.20 970.08 468.42 897.46 845.62 1186.09 599.75 232.43 1044.43 998.81 878.41 517.54 913.77 422.15 998.87 830.99 1025.71 960.67 758.16 926.23 900.02 234.53 646.44 1019.15 917.68 745.24 635.57 1001.43 620.58 726.25 901.87 621.72 0.00 1069.91 1061.12 546.15 596.61 372.74 478.97 543.97 781.52 759.66 1030.13 772.74 704.37 291.39 581.81 327.91 866.88 625.92 526.53 758.75 585.71 685.82 1147.26 667.36
762.74 839.06 200.77 1131.86 553.78 1043.68 934.52 997.75 665.03 1091.83 972.67 1098.24 496.10 692.53 666.79 580.35 771.72 1225.19 636.60 1061.97 406.63 829.54 190.66 1206.84 358.98 157.05 640.82 1071.99 552.94 799.05 595.38 516.03 798.92 409.03 714.61 1142.25 511.19 702.35 486.66 237.27 369.57 617.64 1247.32 334.51 443.54 458.41 810.08 239.78 958.71 987.15 877.09 546.57 296.68 726.40 639.54 609.48 1074.59 589.77 472.23 905.96 324.67 572.65 561.47 615.63 464.15 229.19 758.31 1069.91 0.00 173.85 671.30 615.78 900.80 728.61 776.57 761.36 416.88 417.67 865.56 525.79 1283.67 901.84 1036.29 561.65 727.18 591.32 359.10 750.91 684.13 243.45 486.21
744.21 796.64 26.92 1117.07 556.39 979.61 943.59 994.61 519.53 1094.74 938.98 1095.94 581.20 725.01 719.01 635.16 771.86 1202.95 595.83 979.64 257.02 655.69 193.65 1120.63 450.70 122.23 657.73 1076.53 572.57 786.88 482.62 465.11 847.50 458.98 763.50 1131.54 606.13 685.89 578.38 355.31 505.10 666.53 1236.61 463.98 283.14 550.13 755.08 331.50 878.08 1088.44 960.37 372.72 388.40 817.18 682.87 656.66 1031.68 534.77 537.05 1035.43 379.58 511.21 656.41 553.85 446.14 214.40 743.52 1061.12 173.85 0.00 604.60 618.69 746.45 703.42 796.22 768.68 301.46 243.82 955.43 445.16 1208.97 890.15 950.08 653.37 858.75 572.79 403.07 748.61 566.60 265.36 419.51
180.60 300.78 607.76 585.97 319.05 430.58 526.69 469.37 439.65 626.28 488.44 630.80 708.16 497.83 661.97 553.85 598.36 725.62 581.34 498.91 377.66 666.43 480.64 660.55 558.02 624.93 519.44 731.26 247.52 600.95 233.76 175.55 527.16 543.35 319.95 651.27 683.26 196.43 585.30 467.29 800.69 262.68 678.82 627.51 568.31 558.39 311.61 511.28 502.97 843.62 688.12 567.66 568.18 643.68 649.42 621.77 581.75 188.39 622.34 774.81 366.91 114.46 706.59 162.53 263.92 457.92 366.89 546.15 671.30 604.60 0.00 205.24 296.52 98.82 338.82 586.84 318.08 556.77 617.74 174.38 759.04 503.89 490.00 585.83 573.40 141.13 366.61 283.47 308.45 703.62 185.09
233.60 374.16 605.11 549.77 202.83 635.82 409.68 416.57 595.13 476.05 472.51 573.40 671.07 695.59 456.73 415.03 468.18 728.16 439.83 551.91 461.97 837.59 509.78 711.79 394.40 656.44 380.62 621.41 108.70 426.85 423.75 153.58 401.02 496.46 189.77 645.22 538.09 130.73 437.00 391.49 729.64 92.80 750.29 559.01 652.62 442.17 510.28 466.25 670.00 710.13 621.66 584.20 477.02 513.50 500.82 485.30 586.00 384.38 598.22 673.10 291.11 175.67 514.15 367.77 176.01 445.42 273.14 596.61 615.78 618.69 205.24 0.00 349.94 178.98 195.39 515.79 402.39 638.10 487.56 319.01 786.64 372.95 541.24 434.89 427.74 70.08 256.68 226.07 506.16 693.13 355.70
144.29 190.48 719.53 439.49 436.33 430.82 435.00 429.31 691.90 365.77 192.53 420.57 852.19 775.91 687.29 685.62 540.28 504.32 618.49 233.19 616.07 856.31 747.92 515.54 658.56 825.23 619.97 673.04 379.29 490.30 511.84 417.16 503.93 760.62 262.92 448.22 764.83 219.21 643.84 676.51 969.04 284.97 496.96 823.17 806.72 629.20 434.73 692.51 486.32 796.81 686.56 746.48 729.13 585.60 643.20 666.09 285.23 466.47 820.31 773.25 576.13 410.98 731.96 440.61 485.19 684.82 304.30 372.74 900.80 746.45 296.52 349.94 0.00 197.70 298.30 588.86 556.49 795.18 560.71 412.79 462.52 450.93 363.32 674.31 516.37 309.48 541.70 281.91 586.53 917.57 452.37
124.99 201.96 706.58 487.15 368.82 529.40 495.95 413.76 538.47 527.46 389.62 587.51 737.23 596.65 596.54 572.77 542.30 658.44 575.97 422.71 476.48 658.61 579.46 561.73 573.38 723.75 538.36 632.44 266.44 575.46 332.58 274.37 497.69 642.17 308.67 609.82 634.33 97.61 535.85 491.34 884.42 228.94 580.00 708.26 667.13 507.60 372.36 577.73 497.80 842.56 721.77 666.48 531.43 587.62 572.87 531.00 482.93 287.21 685.22 764.46 426.97 213.28 632.41 261.35 287.49 549.91 349.55 478.97 728.61 703.42 98.82 178.98 197.70 0.00 296.88 539.09 416.90 655.59 598.55 273.20 660.22 405.07 391.18 581.41 516.70 224.86 423.33 321.99 407.27 792.98 283.91
264.91 373.93 769.30 425.70 252.47 697.88 268.44 221.18 717.79 397.23 490.83 402.68 693.18 836.65 411.41 495.49 290.50 627.89 436.80 456.98 653.39 955.49 670.57 700.54 589.79 807.79 393.41 426.02 270.47 299.01 572.58 348.97 205.63 512.94 81.23 568.74 538.28 261.92 498.97 552.28 861.41 178.20 673.81 597.10 783.19 491.81 579.28 566.47 669.77 558.90 426.27 779.59 623.37 335.82 455.50 476.95 490.64 527.21 607.36 477.71 451.90 371.06 516.73 501.35 355.56 581.82 77.75 543.97 776.57 796.22 338.82 195.39 298.30 296.88 0.00 349.30 595.00 833.49 301.67 496.60 709.97 177.56 661.62 483.00 277.37 247.67 452.07 55.35 575.64 843.93 523.91
544.74 682.16 782.73 632.97 452.16 976.93 378.19 457.50 979.29 590.92 781.39 532.61 444.76 1084.67 139.18 283.95 92.82 923.28 172.85 806.28 804.83 1177.43 757.87 1011.84 438.26 778.26 216.83 330.47 488.75 98.56 779.53 522.99 191.94 474.41 371.23 918.04 294.78 441.87 322.79 616.93 668.72 445.08 900.90 496.66 964.86 302.95 851.12 521.58 978.00 360.59 244.12 1099.99 501.88 93.43 183.27 204.72 700.87 775.23 358.94 279.40 539.20 583.71 244.50 749.37 612.67 689.79 291.98 781.52 761.36 768.68 586.84 515.79 588.86 539.09 349.30 0.00 786.88 952.31 225.29 694.64 969.02 294.86 880.03 255.13 155.60 445.71 504.77 375.40 875.40 709.58 734.22
498.68 539.57 289.68 899.00 416.88 678.15 782.87 787.45 322.09 851.43 729.86 840.64 706.32 591.84 714.79 630.82 748.87 929.99 697.24 737.41 59.58 537.85 285.41 854.61 416.68 353.77 645.33 905.96 373.41 698.89 271.61 287.81 757.66 518.74 564.70 847.05 669.62 467.13 567.34 352.87 653.73 467.73 952.12 581.29 250.23 551.99 457.85 392.65 576.62 958.55 890.99 377.79 436.58 794.19 691.12 649.25 823.00 237.54 620.50 975.21 293.88 226.72 719.90 263.40 244.89 187.69 623.07 759.66 416.88 301.46 318.08 402.39 556.49 416.90 595.00 786.88 0.00 355.96 832.74 143.70 988.47 769.70 684.06 598.84 685.92 364.72 328.31 539.65 348.08 454.69 162.44
737.37 739.90 270.74 1142.74 714.95 901.89 986.67 986.20 415.11 1110.96 923.89 1160.88 825.02 494.83 813.13 734.23 984.45 1168.45 808.42 976.10 363.31 663.43 332.10 1016.72 610.83 316.02 813.49 1212.11 655.34 973.15 514.59 484.52 1002.99 674.41 782.91 1085.51 820.67 705.30 691.85 504.73 748.92 685.94 1190.58 707.80 105.73 720.10 659.41 570.09 815.31 1226.56 1080.35 164.52 513.19 958.54 789.46 747.59 1080.41 491.61 780.87 1155.55 481.09 545.61 849.00 517.47 576.56 429.82 799.77 1030.13 417.67 243.82 556.77 638.10 795.18 655.59 833.49 952.31 355.96 0.00 1059.67 382.39 1178.56 946.40 903.50 747.95 1033.63 592.20 479.28 819.21 418.72 509.18 421.97
481.47 622.03 936.02 437.40 498.96 971.06 323.68 395.44 985.71 511.12 753.24 444.81 616.16 1115.57 364.47 458.33 183.57 859.26 359.60 750.40 854.91 1257.16 769.29 1001.57 578.24 957.55 356.86 206.43 489.08 218.69 823.19 596.18 129.88 618.67 297.79 870.41 478.11 525.27 453.99 790.93 855.63 394.76 838.84 683.57 1022.17 482.24 819.33 697.44 917.87 319.51 230.16 1071.76 675.88 139.16 349.76 391.63 584.39 806.13 545.85 238.32 710.75 645.04 438.52 780.27 603.89 762.98 259.90 772.74 865.56 955.43 617.74 487.56 560.71 598.55 301.67 225.29 832.74 1059.67 0.00 701.06 971.66 232.80 911.30 442.04 146.82 549.34 720.59 334.27 877.31 934.87 740.64
354.98 416.71 433.38 760.35 340.27 563.13 697.93 643.75 284.65 728.57 605.32 805.18 782.54 460.69 714.57 590.53 685.50 857.32 620.55 593.71 203.28 582.19 335.13 726.29 541.33 497.47 558.65 898.85 286.73 718.25 138.19 187.48 676.39 613.93 478.02 774.38 683.36 370.81 580.08 368.46 797.43 381.05 853.20 653.04 393.93 559.16 329.53 478.38 432.92 979.79 862.50 521.49 483.51 730.82 707.59 669.76 698.02 109.22 696.72 898.60 306.62 219.61 733.64 135.08 232.27 331.39 541.27 704.37 525.79 445.16 174.38 319.01 412.79 273.20 496.60 694.64 143.70 382.39 701.06 0.00 875.31 674.16 555.74 622.51 689.34 248.93 272.19 457.85 211.08 598.39 39.58
606.81 579.77 1182.05 534.26 898.85 403.40 771.10 653.56 911.86 460.54 389.48 634.62 1293.39 862.53 1026.84 1094.76 920.44 189.84 1046.67 370.07 1035.84 1031.13 1182.40 161.84 1121.08 1287.75 992.68 813.46 841.81 870.46 799.85 822.84 855.96 1190.64 691.10 141.42 1182.44 681.73 1106.36 1114.58 1431.56 747.49 147.00 1274.80 1072.83 1091.72 554.76 1155.03 519.13 1128.95 1059.27 1158.18 1191.65 965.76 1070.93 1089.54 401.12 775.07 1207.57 1128.04 1014.20 761.75 1132.16 753.05 911.21 1102.98 738.04 291.39 1283.67 1208.97 759.04 786.64 462.52 660.22 709.97 969.02 988.47 1178.56 971.66 875.31 0.00 756.60 332.39 1082.27 917.31 772.00 1004.22 654.62 795.45 1350.91 890.33
383.39 523.95 863.23 338.11 430.03 800.06 90.88 208.42 882.80 296.06 561.77 237.75 613.39 1001.72 422.41 422.45 246.28 674.20 382.27 518.63 784.37 1063.68 773.47 797.56 628.19 901.72 320.37 265.71 403.48 196.30 676.35 510.58 102.92 639.21 212.19 738.01 513.16 396.43 474.53 691.67 893.91 309.16 724.20 665.29 960.75 502.78 706.06 697.22 800.45 456.19 379.73 957.15 640.32 291.60 398.82 429.91 406.01 692.28 527.57 375.00 629.46 548.62 487.58 666.42 533.12 675.75 146.63 581.81 901.84 890.15 503.89 372.95 450.93 405.07 177.56 294.86 769.70 946.40 232.80 674.16 756.60 0.00 732.56 409.96 174.66 425.23 629.63 230.05 753.20 942.75 688.96
429.83 289.27 923.16 554.42 701.50 195.35 712.00 594.46 626.93 489.77 170.79 634.17 1123.48 630.40 975.27 905.45 891.92 301.58 932.94 295.94 703.45 799.00 857.33 170.55 935.64 1028.86 871.04 801.09 599.12 853.62 467.46 588.25 802.53 1033.35 613.51 218.64 1025.51 488.79 926.34 831.13 1144.78 589.24 323.71 1090.13 797.77 898.09 244.09 866.81 227.88 1009.91 842.03 825.79 898.42 937.24 964.05 922.18 379.82 446.52 1056.43 928.72 730.75 604.46 1023.59 420.66 678.67 860.56 667.62 327.91 1036.29 950.08 490.00 541.24 363.32 391.18 661.62 880.03 684.06 903.50 911.30 555.74 332.39 732.56 0.00 937.43 866.96 485.22 696.32 607.85 484.78 1127.56 561.78
597.45 693.73 626.45 748.07 342.58 1007.44 500.84 584.25 845.02 706.02 830.54 647.71 246.83 1007.90 115.95 31.98 274.43 950.11 98.40 731.71 585.01 1026.47 527.77 1081.98 238.55 578.55 89.59 576.35 338.31 265.56 692.10 489.48 344.58 274.70 413.77 986.67 103.20 507.14 113.52 419.76 514.41 432.63 995.48 278.73 757.33 103.24 897.44 321.87 989.29 520.30 383.17 903.22 336.19 307.29 92.28 50.41 793.65 689.41 166.22 458.37 319.38 536.97 151.82 704.85 458.86 484.56 463.36 866.88 561.65 653.37 585.83 434.89 674.31 581.41 483.00 255.13 598.84 747.95 442.04 622.51 1082.27 409.96 937.43 0.00 327.55 452.21 353.81 427.65 780.85 599.33 582.93
437.13 577.69 868.37 497.16 446.26 906.02 222.59 337.30 924.85 470.72 708.90 396.80 534.61 1056.54 294.78 315.89 86.92 779.18 262.92 692.26 745.50 1175.31 701.64 856.24 555.66 884.23 247.84 348.86 444.74 71.87 771.93 549.11 71.74 566.68 253.45 782.12 400.98 419.09 402.00 645.25 758.57 350.42 780.70 562.64 936.15 430.25 828.34 648.88 873.53 372.95 205.07 1011.94 653.30 132.24 312.01 294.57 580.67 695.38 448.79 291.76 563.93 600.70 395.98 721.24 457.07 704.84 274.96 625.92 727.18 858.75 573.40 427.74 516.37 516.70 277.37 155.60 685.92 1033.63 146.82 689.34 917.31 174.66 866.96 327.55 0.00 497.82 574.61 289.93 839.14 850.85 662.76
171.42 311.98 562.82 588.66 216.28 571.71 479.76 428.29 533.58 546.13 402.43 624.41 657.03 638.96 526.81 420.23 501.02 706.00 447.72 489.73 424.30 807.56 467.24 655.77 464.48 601.31 385.82 673.69 113.90 469.32 374.89 107.68 453.30 566.54 259.85 682.73 549.64 127.25 459.45 367.03 659.56 162.88 733.25 620.49 614.95 455.62 452.74 443.08 607.82 780.21 613.89 654.28 482.08 539.14 534.76 499.46 594.71 329.52 571.21 700.58 266.65 138.00 568.26 303.66 199.72 375.34 315.84 526.53 591.32 572.79 141.13 70.08 309.48 224.86 247.67 445.71 364.72 592.20 549.34 248.93 772.00 425.23 485.22 452.21 497.82 0.00 232.22 296.15 436.08 642.34 288.51
403.64 533.45 376.15 806.45 269.04 780.21 666.36 660.51 522.06 732.73 634.65 830.08 516.60 687.46 469.76 385.79 576.47 938.22 452.21 721.95 300.06 672.66 253.10 866.87 269.14 399.76 443.40 835.24 262.70 526.49 384.53 191.06 619.87 371.20 446.45 872.48 457.01 359.47 307.89 134.81 573.45 349.48 965.47 433.75 460.09 286.97 592.36 237.28 705.11 842.60 732.12 618.27 249.86 581.43 446.09 404.22 715.49 378.02 472.96 784.17 34.43 252.15 505.63 352.16 135.84 199.61 529.82 758.75 359.10 403.07 366.61 256.68 541.70 423.33 452.07 504.77 328.31 479.28 720.59 272.19 1004.22 629.63 696.32 353.81 574.61 232.22 0.00 482.75 473.28 436.45 275.36
220.16 318.58 721.69 420.36 284.63 667.61 243.22 276.53 723.12 452.58 474.44 347.33 638.77 781.30 460.85 440.14 314.89 683.24 392.05 504.84 599.23 949.90 657.35 667.30 597.88 785.60 338.06 458.55 227.59 317.60 517.23 334.69 243.69 568.29 36.48 624.09 530.85 224.38 454.22 556.24 867.08 133.27 729.16 652.45 789.88 482.47 595.08 598.63 614.42 560.15 404.65 810.27 595.91 360.21 416.76 439.65 478.36 471.86 552.95 491.34 455.86 383.73 505.52 446.00 396.12 559.63 83.42 585.71 750.91 748.61 283.47 226.07 281.91 321.99 55.35 375.40 539.65 819.21 334.27 457.85 654.62 230.05 607.85 427.65 289.93 296.15 482.75 0.00 591.92 826.63 468.56
461.05 441.09 551.57 870.60 522.25 488.87 835.14 749.82 142.15 796.88 505.61 939.25 810.64 273.61 863.61 748.87 843.84 786.36 740.43 630.76 331.86 442.21 493.47 655.33 641.44 657.27 769.73 946.63 497.81 874.65 95.87 373.43 781.27 705.02 628.40 703.42 851.28 504.88 781.17 567.46 923.49 571.13 808.49 789.18 312.99 754.62 240.69 600.70 432.05 1134.54 996.57 498.82 543.80 889.16 827.47 801.26 736.64 143.76 830.50 1053.35 507.71 377.95 889.20 145.92 403.61 535.77 653.39 685.82 684.13 566.60 308.45 506.16 586.53 407.27 575.64 875.40 348.08 418.72 877.31 211.08 795.45 753.20 484.78 780.85 839.14 436.08 473.28 591.92 0.00 802.77 197.92
813.76 903.43 255.50 1169.67 591.46 1102.40 1033.63 1047.21 731.00 1169.18 1037.04 1102.74 526.48 935.98 570.40 618.03 763.93 1292.43 593.64 1132.07 485.60 884.27 357.75 1279.53 396.66 193.19 655.54 1040.05 630.29 784.69 711.20 593.38 878.07 466.68 820.53 1209.49 599.90 769.59 524.34 301.64 355.38 723.56 1305.70 393.10 546.43 496.09 912.54 277.46 1031.31 994.01 837.62 638.08 334.36 803.01 614.49 635.94 1151.94 692.23 530.82 912.82 402.02 589.16 650.18 718.09 541.50 267.00 796.12 1147.26 243.45 265.36 703.62 693.13 917.57 792.98 843.93 709.58 454.69 509.18 934.87 598.39 1350.91 942.75 1127.56 599.33 850.85 642.34 436.45 826.63 802.77 0.00 617.13
365.69 377.13 431.04 762.71 377.68 569.17 696.68 654.46 262.09 688.99 567.42 815.89 788.05 471.53 695.72 550.95 645.92 846.83 656.38 633.29 200.94 542.61 295.55 732.33 544.50 516.21 594.48 859.27 322.56 695.90 109.17 227.06 712.25 608.92 476.77 780.42 656.78 333.29 583.25 369.54 816.17 416.88 851.05 626.46 404.61 562.33 335.57 479.46 472.50 969.14 834.43 519.15 484.59 691.24 672.05 630.18 737.60 115.26 725.86 921.12 309.79 180.03 703.69 141.12 205.69 350.13 551.98 667.36 486.21 419.51 185.09 355.70 452.37 283.91 523.91 734.22 162.44 421.97 740.64 39.58 890.33 688.96 561.78 582.93 662.76 288.51 275.36 468.56 197.92 617.13 0.00
DEMAND_SECTION
1 0
2 72
3 58
4 70
5 82
6 63
7 60
8 66
9 75
10 97
11 99
12 87
13 85
14 99
15 95
16 84
17 86
18 66
19 65
20 94
21 65
22 75
23 83
24 61
25 87
26 76
27 86
28 91
29 63
30 64
31 98
32 82
33 87
34 91
35 91
36 59
37 53
38 52
39 79
40 66
41 91
42 92
43 77
44 92
45 82
46 77
47 99
48 64
49 55
50 83
51 60
52 64
53 99
54 59
55 65
56 93
57 60
58 67
59 90
60 93
61 87
62 80
63 89
64 79
65 98
66 95
67 80
68 57
69 65
70 74
71 81
72 73
73 52
74 88
75 89
76 64
77 74
78 65
79 68
80 56
81 79
82 59
83 65
84 100
85 95
86 53
87 82
88 73
89 50
90 54
91 78
DEPOT_SECTION
1
-1
EOF
