NAME: LDG90_3373_fog_90_0208
COMMENT: CVRP with travel times.  rootPos=3,custPos=3,demandType=7,avgRouteSizeIndex=3,weather=fog,lambda_cluster=1,lambda_random=4, T1=300,T2=700,beta=1, alpha(i,j) ~ U(0.8,1.2)
TYPE: CVRP
DIMENSION: 91
EDGE_WEIGHT_TYPE: EXPLICIT
EDGE_WEIGHT_FORMAT: FULL_MATRIX
CAPACITY: 144
NODE_COORD_SECTION
1 0 0
2 596 712
3 902 232
4 18 736
5 85 664
6 49 937
7 79 970
8 176 425
9 944 444
10 408 19
11 906 103
12 74 907
13 796 696
14 37 721
15 65 781
16 74 742
17 68 832
18 502 92
19 93 750
20 5 760
21 67 853
22 275 683
23 608 98
24 49 858
25 869 390
26 974 125
27 38 990
28 44 784
29 52 877
30 71 738
31 152 820
32 12 541
33 456 502
34 629 53
35 473 199
36 78 881
37 951 401
38 141 823
39 995 151
40 0 902
41 656 401
42 500 422
43 555 651
44 5 846
45 12 784
46 21 762
47 52 919
48 116 698
49 928 476
50 529 900
51 11 951
52 17 880
53 790 584
54 279 220
55 165 699
56 36 685
57 451 196
58 496 930
59 281 958
60 58 951
61 934 739
62 49 913
63 57 892
64 124 931
65 891 48
66 60 158
67 92 571
68 328 466
69 42 796
70 24 682
71 152 323
72 510 360
73 20 859
74 447 318
75 56 755
76 129 475
77 145 797
78 122 830
79 52 796
80 9 741
81 59 810
82 83 717
83 708 239
84 0 587
85 492 985
86 531 104
87 365 701
88 223 368
89 979 430
90 37 771
91 416 268
EDGE_WEIGHT_SECTION
0.00 1058.81 1146.35 904.83 903.22 1039.82 1082.03 562.41 1191.58 458.68 1149.96 1003.73 1318.11 908.82 880.69 836.93 933.35 582.30 860.06 907.68 971.03 947.53 723.85 952.28 1152.78 1131.68 1113.68 869.86 983.14 821.54 976.97 805.35 903.57 767.19 690.53 989.34 1182.99 958.92 1180.53 1027.49 960.56 913.22 1008.95 962.81 871.33 904.93 1023.42 915.29 1152.57 1226.90 1046.32 982.83 1271.67 523.65 810.99 893.85 730.24 1232.21 1188.09 1060.85 1417.74 1019.96 998.06 1057.31 1136.72 290.53 732.28 827.95 886.23 880.75 582.90 855.64 974.01 721.69 861.83 668.55 975.16 951.22 899.42 884.16 911.84 864.36 855.28 764.98 1341.41 629.41 1014.72 646.93 1240.25 886.00 658.46
1058.81 0.00 650.96 690.52 692.82 658.87 641.85 561.45 623.37 802.99 795.82 698.58 428.62 730.79 698.80 668.34 694.81 772.54 634.04 707.75 677.94 403.62 790.25 694.00 482.98 843.05 700.86 658.54 663.14 672.56 602.92 766.52 425.53 856.57 695.63 687.00 590.92 622.97 864.69 735.55 542.72 369.48 119.46 751.06 725.20 694.33 683.02 629.64 580.20 392.23 715.61 717.36 382.74 693.61 602.53 712.16 655.92 328.99 641.15 627.97 360.90 695.41 696.15 735.03 879.37 952.56 618.87 562.35 674.91 684.73 687.90 406.03 724.99 554.80 678.73 652.39 570.32 622.49 672.06 673.91 689.08 680.56 672.49 746.69 438.19 745.48 417.37 645.97 604.06 683.61 629.77
1146.35 650.96 0.00 1132.08 1120.43 1167.18 1192.32 867.86 319.71 720.52 220.40 1104.74 568.57 1119.68 1062.73 1047.44 1083.67 651.72 1013.14 1138.28 1081.55 907.69 510.17 1102.99 167.98 262.58 1234.07 1102.99 1093.15 1051.66 966.45 1027.09 637.59 476.99 544.18 1096.96 252.52 992.12 213.73 1175.70 398.50 568.35 770.42 1157.58 1124.08 1123.99 1136.42 1115.69 276.89 941.66 1196.07 1113.63 522.84 707.51 1100.70 1116.49 583.89 979.95 1171.95 1170.86 709.40 1133.09 1126.16 1141.77 228.41 997.99 996.74 727.05 1107.87 1143.92 892.93 650.04 1133.98 501.27 1057.83 890.29 999.05 1011.71 1091.73 1114.28 1103.42 1059.66 400.01 1091.91 1089.15 614.77 845.08 783.34 289.06 1111.51 487.89
904.83 690.52 1132.08 0.00 147.76 238.89 280.00 390.78 1063.42 919.26 1210.29 213.62 871.69 55.53 108.56 98.68 132.12 868.99 118.94 48.17 159.72 286.90 1007.99 161.89 1029.33 1268.45 303.66 68.63 170.27 83.29 204.84 256.44 602.13 947.46 752.28 177.43 997.06 204.79 1257.89 175.76 765.81 628.96 660.58 127.59 50.25 57.09 212.56 150.50 1059.35 589.39 245.09 167.14 920.10 623.84 203.37 75.87 712.57 598.95 403.80 247.98 959.82 204.77 180.94 255.39 1170.87 666.07 271.02 465.31 70.54 75.85 517.23 733.30 154.73 706.80 74.25 312.23 186.81 194.27 85.07 20.67 96.15 89.87 938.67 191.62 590.00 889.61 450.49 475.30 1054.32 59.78 704.47
903.22 692.82 1120.43 147.76 0.00 299.96 354.21 348.43 915.66 876.91 1187.62 263.87 859.23 93.63 132.36 97.07 199.30 721.23 111.52 131.54 229.51 289.20 862.78 212.42 965.54 1226.10 374.04 146.08 231.50 81.68 226.83 145.99 504.05 906.12 716.59 254.33 976.99 211.52 1251.51 293.64 743.14 572.85 660.62 215.53 162.60 156.38 274.77 95.02 1001.61 595.00 322.54 258.17 881.96 476.08 154.21 71.89 720.07 609.88 450.82 309.21 1021.05 275.99 242.17 324.99 1143.59 615.27 173.52 393.38 162.45 99.32 474.88 690.95 243.41 634.87 121.97 279.97 194.23 211.36 155.45 144.30 173.05 69.80 896.32 210.81 612.20 768.34 353.64 432.95 992.00 121.01 632.54
1039.82 658.87 1167.18 238.89 299.96 0.00 67.21 594.15 1130.31 1091.06 1263.46 72.17 891.50 251.86 193.10 214.47 143.68 1021.19 222.68 207.72 106.00 355.28 1115.75 104.89 1082.79 1233.61 100.29 184.32 74.03 218.28 200.73 429.09 646.49 1084.27 916.92 92.92 1142.09 175.06 1282.46 79.79 864.47 745.63 719.03 122.34 188.64 182.88 30.76 272.01 1106.43 579.53 56.74 103.85 923.00 763.60 304.92 266.74 905.87 516.29 382.13 30.90 1019.77 45.16 78.70 135.66 1294.30 859.55 417.80 573.07 172.78 290.83 640.71 829.19 127.96 814.56 177.99 519.22 188.58 173.58 164.10 219.30 154.14 244.86 1132.77 395.70 490.17 1044.52 500.92 647.10 1199.35 184.52 812.23
1082.03 641.85 1192.32 280.00 354.21 67.21 0.00 618.52 1170.03 1100.07 1312.14 111.89 930.29 296.87 223.20 271.18 163.73 1075.44 258.34 264.68 126.05 399.48 1159.57 147.49 1031.31 1282.29 73.07 212.17 122.71 278.23 225.87 480.56 666.54 1126.87 961.12 141.60 1139.25 215.78 1331.14 147.00 905.63 812.84 729.97 174.02 252.69 247.96 79.44 292.06 1140.22 603.56 88.85 152.53 964.35 808.61 356.60 333.95 926.79 540.32 345.29 55.73 1002.75 96.84 127.38 148.34 1345.98 884.38 442.63 617.27 215.23 311.77 660.76 857.70 169.31 856.19 245.20 549.08 232.78 180.61 213.36 279.53 199.15 294.83 1145.89 427.54 527.39 1083.98 514.04 656.11 1152.39 233.20 856.43
562.41 561.45 867.86 390.78 348.43 594.15 618.52 0.00 880.43 528.48 849.54 558.06 836.93 442.06 435.02 391.26 501.96 559.50 414.39 421.53 528.05 427.84 641.70 506.61 751.18 877.67 647.30 457.46 537.47 375.87 422.98 242.94 432.84 630.49 485.37 553.49 859.12 448.65 903.08 566.54 524.05 350.81 570.47 518.37 441.03 421.67 580.74 394.63 860.09 664.49 627.93 549.74 709.26 298.60 393.99 331.44 502.18 669.80 716.66 599.49 922.35 574.29 552.39 514.29 941.62 418.82 212.59 296.02 461.32 358.87 126.45 342.52 537.60 366.59 416.16 106.14 455.58 468.24 453.75 387.69 475.71 380.50 547.89 307.76 779.00 512.39 452.31 84.52 872.26 440.33 380.68
1191.58 623.37 319.71 1063.42 915.66 1130.31 1170.03 880.43 0.00 791.50 474.20 1058.14 367.06 1009.29 1046.01 1012.73 1108.41 609.28 1020.90 1047.20 1080.46 834.47 467.73 1066.66 169.71 391.27 1183.14 1061.74 1094.19 997.34 1005.44 1061.65 595.47 534.05 734.37 1089.52 67.19 1017.32 362.93 1102.58 356.38 529.62 560.75 1083.03 1061.94 1071.27 1099.55 1010.68 85.95 728.94 1157.27 1082.00 240.63 889.84 916.12 987.55 774.08 792.18 912.55 1128.75 496.68 1094.72 1090.82 1026.20 523.29 1119.27 982.95 732.29 1073.96 1014.98 956.01 678.06 1035.67 595.25 1037.63 936.54 972.84 1025.01 1057.60 1059.96 1086.70 974.38 467.21 1110.77 900.11 597.04 660.50 840.20 76.34 1036.67 670.22
458.68 802.99 720.52 919.26 876.91 1091.06 1100.07 528.48 791.50 0.00 727.39 1020.87 919.59 909.12 963.50 919.74 981.55 241.59 887.76 950.01 985.06 762.70 350.00 1006.50 758.80 757.83 1150.20 940.91 1026.33 904.35 951.46 771.42 580.90 323.02 231.85 1004.71 724.31 954.63 736.94 1083.45 627.97 545.40 683.53 1010.36 957.43 950.15 1062.28 923.11 866.28 1069.69 1103.82 1053.88 906.56 421.58 911.34 859.92 271.56 1006.45 1098.48 1091.48 1009.02 1057.45 1034.08 1039.84 678.04 722.21 741.07 575.70 957.28 887.35 594.80 396.96 1037.49 389.10 932.45 634.62 929.40 919.46 955.20 916.17 982.89 908.98 461.30 836.24 1110.24 220.69 811.75 443.96 781.57 915.84 336.54
1149.96 795.82 220.40 1210.29 1187.62 1263.46 1312.14 849.54 474.20 727.39 0.00 1226.01 713.43 1238.47 1235.13 1166.23 1226.53 567.66 1189.66 1216.49 1224.06 953.67 511.03 1219.85 312.84 110.32 1339.68 1208.59 1208.21 1181.62 1138.85 1092.48 683.57 444.71 495.54 1170.54 407.01 1164.52 111.27 1271.15 444.48 617.72 793.59 1272.72 1225.25 1191.65 1232.70 1105.96 421.75 1035.15 1292.10 1262.43 617.46 779.24 1081.46 1180.98 535.25 1098.39 1266.82 1266.79 648.42 1237.87 1207.20 1248.50 92.08 985.90 1049.96 820.39 1223.14 1208.41 970.36 507.02 1250.84 652.79 1170.34 955.68 1120.37 1172.54 1222.11 1189.62 1239.13 1174.97 318.48 1157.30 1206.32 520.55 937.83 896.39 404.10 1229.91 600.23
1003.73 698.58 1104.74 213.62 263.87 72.17 111.89 558.06 1058.14 1020.87 1226.01 0.00 881.01 234.19 150.05 166.80 94.54 985.10 189.15 195.49 73.80 320.28 1080.37 67.03 1047.79 1187.59 129.33 158.01 55.36 182.19 138.29 393.00 614.29 1046.41 881.92 55.47 1125.33 136.58 1236.44 122.96 829.47 725.36 650.77 113.76 183.50 171.83 41.41 239.81 1067.95 559.78 99.13 91.06 888.69 739.95 293.77 246.47 861.38 507.71 377.68 70.61 1049.75 36.58 32.68 82.93 1283.15 843.23 415.50 538.07 160.84 270.56 608.51 770.12 93.65 744.30 157.72 492.98 153.58 101.41 157.12 208.25 136.75 218.62 1080.48 368.78 500.82 1004.78 448.63 576.91 1134.48 153.84 777.23
1318.11 428.62 568.57 871.69 859.23 891.50 930.29 836.93 367.06 919.59 713.43 881.01 0.00 847.40 763.13 837.67 786.47 840.66 860.80 860.83 824.15 594.42 834.79 828.22 400.59 698.14 857.22 803.39 859.08 822.28 793.72 894.08 416.21 779.69 765.26 827.31 434.25 813.77 649.29 925.05 629.99 607.05 309.16 868.64 824.48 839.18 863.74 820.44 376.73 603.99 926.61 894.85 143.10 867.65 793.33 803.07 751.60 540.75 663.58 913.78 168.74 846.34 863.97 905.27 736.47 1029.25 809.67 553.03 808.27 830.50 798.08 522.63 859.21 671.40 833.12 757.28 761.12 813.29 792.13 864.71 803.82 834.76 588.36 937.49 649.95 869.74 623.25 752.41 443.40 811.91 746.37
908.82 730.79 1119.68 55.53 93.63 251.86 296.87 442.06 1009.29 909.12 1238.47 234.19 847.40 0.00 84.27 72.24 143.23 814.86 106.54 90.72 170.82 327.17 956.41 170.64 1044.48 1251.21 293.65 105.82 201.50 87.63 180.55 208.66 597.68 947.22 807.81 179.00 996.82 180.50 1202.36 231.29 802.02 644.11 680.45 181.85 77.95 77.11 236.65 150.60 1086.29 602.04 282.28 205.18 922.32 569.71 214.46 113.98 768.10 619.17 405.37 275.25 1001.45 233.81 201.64 256.96 1203.84 618.29 263.58 487.01 122.19 86.75 560.41 731.45 176.80 728.50 76.47 345.46 210.47 177.25 113.27 56.88 97.72 89.63 989.95 143.84 610.02 861.97 447.27 526.58 1054.08 101.41 726.17
880.69 698.80 1062.73 108.56 132.36 193.10 223.20 435.02 1046.01 963.50 1235.13 150.05 763.13 84.27 0.00 74.54 66.94 853.59 97.67 97.70 97.15 295.18 995.14 88.44 1023.09 1272.28 247.59 40.26 119.30 59.15 96.28 269.96 589.74 929.22 816.92 121.97 978.82 96.23 1253.48 183.62 795.85 637.63 636.93 105.51 61.35 76.05 162.57 140.64 1027.60 517.77 202.27 131.72 894.32 608.44 161.62 157.61 821.13 579.69 348.34 197.01 931.87 149.54 117.37 199.93 1151.00 702.56 297.75 512.97 45.14 165.85 542.41 728.11 119.43 754.46 69.99 345.99 128.88 92.98 29.00 111.13 40.69 71.63 982.91 228.11 585.22 885.39 417.24 519.54 1036.08 48.78 712.23
836.93 668.34 1047.44 98.68 97.07 214.47 271.18 391.26 1012.73 919.74 1166.23 166.80 837.67 72.24 74.54 0.00 127.81 818.30 34.30 101.39 145.13 303.02 959.85 146.13 1004.49 1268.62 281.08 68.33 176.99 15.39 147.66 226.20 601.12 909.41 813.66 163.05 959.01 121.99 1219.77 219.60 762.34 604.12 632.72 141.49 104.54 76.55 200.43 78.36 1046.30 569.15 244.79 165.21 882.33 573.15 142.50 113.85 811.25 546.93 373.60 237.41 979.89 183.03 191.91 231.57 1131.88 676.43 270.59 490.45 78.85 108.59 517.71 659.21 166.35 731.94 36.48 326.18 138.23 145.07 62.49 78.01 95.00 51.82 939.15 201.98 594.22 841.63 382.59 475.78 1016.27 79.85 729.61
933.35 694.81 1083.67 132.12 199.30 143.68 163.73 501.96 1108.41 981.55 1226.53 94.54 786.47 143.23 66.94 127.81 0.00 920.53 94.61 100.95 37.68 307.12 1038.98 41.75 1034.63 1247.56 213.86 63.49 72.61 126.09 117.22 336.90 578.17 996.16 840.15 55.99 1045.76 110.67 1293.49 138.58 816.31 680.14 575.35 103.25 88.96 99.28 115.88 197.16 1042.04 538.71 165.90 111.68 867.78 654.97 202.81 189.51 842.73 520.22 353.16 150.32 955.21 123.32 92.65 133.95 1192.19 761.52 320.98 524.91 66.30 186.70 572.39 749.05 72.74 751.30 112.50 412.93 140.42 109.47 69.01 115.80 45.51 138.57 1049.85 287.07 575.29 952.33 452.76 538.41 1103.02 88.56 735.46
582.30 772.54 651.72 868.99 721.23 1021.19 1075.44 559.50 609.28 241.59 567.66 985.10 840.66 814.86 853.59 818.30 920.53 0.00 832.75 852.77 950.74 694.66 141.55 933.65 570.48 549.38 1095.27 867.31 952.73 802.91 893.96 784.15 482.07 184.89 133.02 975.56 676.47 914.01 598.23 1014.87 480.89 423.11 653.08 936.76 883.83 877.61 996.00 816.25 679.39 957.07 1043.77 979.40 697.56 344.04 812.51 793.12 172.73 976.00 951.40 1030.44 835.44 997.22 963.40 951.18 659.74 568.88 769.02 476.87 883.68 820.55 457.04 390.79 964.64 242.02 843.20 665.64 861.36 913.53 876.68 865.53 894.28 791.03 272.98 848.97 1012.41 47.11 683.52 474.98 685.62 842.24 237.71
860.06 634.04 1013.14 118.94 111.52 222.68 258.34 414.39 1020.90 887.76 1189.66 189.15 860.80 106.54 97.67 34.30 94.61 832.75 0.00 125.14 132.29 305.77 969.23 136.36 1012.70 1257.72 308.47 93.70 167.22 38.52 171.67 249.33 574.28 904.11 787.69 150.60 953.71 156.29 1226.87 233.19 770.55 612.33 637.34 175.79 114.41 110.85 210.49 102.55 1013.65 593.16 260.51 174.08 866.57 587.60 108.20 119.53 821.91 570.06 339.30 244.93 994.94 217.33 187.26 228.56 1097.58 710.73 285.04 491.52 97.49 142.14 517.30 693.51 167.35 725.87 44.69 320.88 139.07 157.39 96.79 101.14 123.10 46.52 962.28 236.28 576.18 864.76 363.82 443.80 1010.97 102.98 730.68
907.68 707.75 1138.28 48.17 131.54 207.72 264.68 421.53 1047.20 950.01 1216.49 195.49 860.83 90.72 97.70 101.39 100.95 852.77 125.14 0.00 138.63 304.13 994.32 129.64 1048.46 1299.20 278.46 60.63 160.50 96.46 193.98 266.34 635.59 976.90 800.45 156.94 1026.50 187.91 1270.03 184.48 778.98 648.09 676.30 106.37 36.35 24.84 200.95 178.18 1076.58 581.39 206.40 152.91 926.30 607.62 184.28 113.18 760.74 621.17 410.26 238.21 963.14 183.55 167.65 234.90 1173.66 675.97 280.92 502.62 77.00 85.75 547.98 709.47 140.83 744.11 80.45 360.40 192.00 152.74 90.26 33.84 102.61 119.31 969.42 201.52 557.75 899.88 435.61 506.05 1078.54 63.10 720.15
971.03 677.94 1081.55 159.72 229.51 106.00 126.05 528.05 1080.46 985.06 1224.06 73.80 824.15 170.82 97.15 145.13 37.68 950.74 132.29 138.63 0.00 274.32 1034.79 21.44 1001.83 1222.59 192.89 101.17 52.30 152.18 115.10 362.99 540.49 1000.82 835.96 60.84 1075.97 140.77 1271.44 118.27 779.58 705.80 613.03 82.94 126.64 126.24 95.57 166.01 1046.77 536.59 152.58 77.69 847.47 682.56 240.49 216.47 822.42 482.54 368.70 120.00 992.89 94.74 67.68 138.80 1229.87 789.11 356.24 492.11 89.18 224.35 534.71 746.93 52.43 733.60 138.16 443.14 107.62 115.28 87.31 153.48 73.10 168.78 1051.81 314.66 554.98 968.97 419.96 541.10 1099.82 126.24 731.27
947.53 403.62 907.69 286.90 289.20 355.28 399.48 427.84 834.47 762.70 953.67 320.28 594.42 327.17 295.18 303.02 307.12 694.66 305.77 304.13 274.32 0.00 760.47 295.76 789.95 1063.99 421.54 254.92 320.38 318.41 199.30 362.90 354.61 763.67 561.64 283.38 897.89 219.35 1034.47 382.86 509.19 478.14 405.27 347.44 321.58 290.71 345.54 226.02 772.45 441.94 380.57 346.48 708.85 522.03 198.91 308.54 601.35 459.36 427.78 348.65 763.16 350.71 320.04 361.34 1043.77 657.00 215.25 217.79 271.29 281.11 462.84 473.91 326.75 459.28 303.93 321.70 166.70 218.87 268.44 270.29 285.46 295.03 805.82 343.07 538.55 698.97 173.97 429.29 876.61 279.99 456.95
723.85 790.25 510.17 1007.99 862.78 1115.75 1159.57 641.70 467.73 350.00 511.03 1080.37 834.79 956.41 995.14 959.85 1038.98 141.55 969.23 994.32 1034.79 760.47 0.00 1045.70 580.36 407.83 1182.01 975.49 1047.67 944.46 959.77 849.96 576.91 66.32 266.64 1043.85 534.92 979.82 456.68 1142.53 476.75 505.31 670.79 1068.44 1025.38 998.83 1090.94 957.80 543.57 1037.85 1141.04 1088.46 708.36 447.15 861.03 932.12 306.35 993.71 1027.99 1109.12 910.07 1108.34 1080.51 1064.70 582.67 710.43 853.38 542.68 991.86 959.55 598.59 384.22 1076.69 344.43 984.75 746.93 927.17 978.96 1005.12 1007.08 1017.47 923.91 319.85 914.78 1077.44 129.31 699.00 557.18 544.07 983.79 303.52
952.28 694.00 1102.99 161.89 212.42 104.89 147.49 506.61 1066.66 1006.50 1219.85 67.03 828.22 170.64 88.44 146.13 41.75 933.65 136.36 129.64 21.44 295.76 1045.70 0.00 1023.27 1214.97 172.11 105.24 30.86 130.74 136.54 341.55 561.93 979.38 840.69 49.31 1067.26 131.89 1263.82 96.83 801.02 713.14 617.10 61.50 130.71 104.80 74.13 187.45 1063.26 558.03 137.00 69.93 826.03 682.38 244.56 195.03 800.98 503.98 380.57 108.57 996.96 91.53 60.06 127.27 1233.94 788.93 356.06 513.55 98.53 214.30 556.15 768.37 30.99 755.04 145.50 434.43 129.06 107.02 105.43 141.22 72.92 160.07 1054.50 314.48 533.54 956.98 441.40 562.54 1121.26 130.31 752.71
1152.78 482.98 167.98 1029.33 965.54 1082.79 1031.31 751.18 169.71 758.80 312.84 1047.79 400.59 1044.48 1023.09 1004.49 1034.63 570.48 1012.70 1048.46 1001.83 789.95 580.36 1023.27 0.00 360.07 1104.38 1017.02 1047.89 1008.30 926.81 913.21 631.51 514.04 672.10 1010.89 107.94 946.86 381.71 1110.37 394.33 400.37 602.44 1074.95 1037.73 1051.83 1073.05 1015.97 108.91 773.68 1108.08 1073.99 354.86 791.12 932.72 961.60 632.39 811.97 1003.97 1076.16 541.42 1078.22 1047.55 1042.80 396.39 1050.69 882.86 572.16 1012.31 989.03 817.21 548.81 1054.26 531.65 968.01 776.41 894.21 946.38 995.95 1039.83 1012.97 988.80 297.50 978.03 921.17 603.13 677.10 783.66 121.08 1035.31 571.50
1131.68 843.05 262.58 1268.45 1226.10 1233.61 1282.29 877.67 391.27 757.83 110.32 1187.59 698.14 1251.21 1272.28 1268.62 1247.56 549.38 1257.72 1299.20 1222.59 1063.99 407.83 1214.97 360.07 0.00 1302.02 1286.97 1187.92 1253.54 1195.99 1120.61 726.01 474.15 605.86 1191.57 324.08 1221.66 48.85 1278.02 554.80 674.62 851.14 1251.14 1294.87 1294.04 1202.85 1216.28 445.84 994.28 1239.81 1213.29 555.04 854.98 1149.52 1209.11 645.57 1026.48 1226.96 1238.08 758.74 1202.05 1154.91 1265.77 174.84 1082.97 1061.26 862.83 1289.69 1236.54 956.87 609.41 1245.96 689.79 1242.26 983.81 1209.83 1241.25 1273.33 1265.36 1272.85 1231.27 329.78 1185.43 1135.68 537.14 961.63 962.19 341.68 1276.07 698.74
1113.68 700.86 1234.07 303.66 374.04 100.29 73.07 647.30 1183.14 1150.20 1339.68 129.33 857.22 293.65 247.59 281.08 213.86 1095.27 308.47 278.46 192.89 421.54 1182.01 172.11 1104.38 1302.02 0.00 243.82 150.60 296.47 267.62 495.23 733.38 1151.49 975.10 169.14 1212.32 248.42 1350.87 140.40 930.73 842.75 749.37 178.28 288.93 276.91 108.69 338.52 1179.79 625.49 72.06 154.13 982.50 850.12 343.35 366.14 935.39 563.52 397.45 72.89 1025.96 107.45 147.11 156.94 1332.73 901.54 459.79 639.33 234.95 353.99 727.60 895.45 187.46 873.63 277.39 566.24 254.84 230.74 218.59 312.30 245.03 308.53 1154.49 437.49 454.32 1103.96 522.64 706.24 1225.46 257.95 878.49
869.86 658.54 1102.99 68.63 146.08 184.32 212.17 457.46 1061.74 940.91 1208.59 158.01 803.39 105.82 40.26 68.33 63.49 867.31 93.70 60.63 101.17 254.92 975.49 105.24 1017.02 1286.97 243.82 0.00 135.56 83.72 136.54 292.07 609.53 957.83 776.66 119.48 1007.43 136.49 1254.11 171.06 764.11 616.65 638.84 92.95 66.66 35.79 153.56 146.69 1027.37 520.76 176.46 112.97 894.86 622.16 188.89 126.02 781.20 583.71 349.63 208.61 925.11 150.17 132.06 187.45 1178.27 699.24 257.49 472.71 16.37 125.59 530.20 720.42 104.15 714.20 49.01 363.94 131.37 133.24 29.63 70.87 41.98 100.24 988.97 241.36 568.70 909.96 428.89 537.50 1064.69 25.07 671.97
983.14 663.14 1093.15 170.27 231.50 74.03 122.71 537.47 1094.19 1026.33 1208.21 55.36 859.08 201.50 119.30 176.99 72.61 952.73 167.22 160.50 52.30 320.38 1047.67 30.86 1047.89 1187.92 150.60 135.56 0.00 161.60 126.70 372.41 592.79 1010.24 848.84 37.67 1098.12 101.03 1236.77 127.69 829.57 737.07 647.96 92.36 138.72 135.66 43.27 218.31 1032.40 548.19 106.14 54.22 856.89 707.58 258.22 225.89 831.84 531.80 351.36 77.71 1010.53 60.67 33.01 115.63 1247.60 819.79 386.92 538.17 129.39 230.95 587.01 758.53 61.85 779.66 169.43 465.29 153.68 122.92 115.59 172.08 103.78 190.93 1065.54 345.34 502.68 986.17 433.69 593.40 1136.56 110.49 744.15
821.54 672.56 1051.66 83.29 81.68 218.28 278.23 375.87 997.34 904.35 1181.62 182.19 822.28 87.63 59.15 15.39 126.09 802.91 38.52 96.46 152.18 318.41 944.46 130.74 1008.30 1253.54 296.47 83.72 161.60 0.00 155.43 210.81 585.73 900.41 798.27 178.44 950.01 137.38 1235.16 227.57 766.15 607.93 633.64 156.88 106.05 91.94 204.87 93.75 1050.11 576.92 260.18 180.60 886.14 557.76 146.72 98.46 795.86 531.54 377.82 239.31 964.50 198.42 176.52 246.96 1136.10 691.82 255.20 475.06 90.23 118.31 502.32 674.60 161.73 716.55 40.29 317.18 153.62 129.68 77.88 62.62 99.84 42.82 923.76 217.37 585.22 826.24 367.20 460.39 1007.27 64.46 714.22
976.97 602.92 966.45 204.84 226.83 200.73 225.87 422.98 1005.44 951.46 1138.85 138.29 793.72 180.55 96.28 147.66 117.22 893.96 171.67 193.98 115.10 199.30 959.77 136.54 926.81 1195.99 267.62 136.54 126.70 155.43 0.00 366.24 516.42 962.97 760.94 130.51 1034.75 25.67 1180.18 209.25 708.49 665.05 594.62 191.13 157.63 172.33 169.97 186.37 957.04 421.49 229.62 147.18 846.60 702.91 182.86 191.20 764.66 484.73 293.68 204.41 962.46 166.64 159.71 175.32 1172.24 798.84 372.45 417.09 141.42 218.63 549.43 631.83 167.53 658.58 165.28 436.64 32.60 45.26 125.28 207.41 136.97 162.28 970.87 324.39 530.56 898.27 344.94 507.50 1047.89 145.06 656.25
805.35 766.52 1027.09 256.44 145.99 429.09 480.56 242.94 1061.65 771.42 1092.48 393.00 894.08 208.66 269.96 226.20 336.90 784.15 249.33 266.34 362.99 362.90 849.96 341.55 913.21 1120.61 495.23 292.07 372.41 210.81 366.24 0.00 477.87 873.43 651.13 387.66 1021.15 348.19 1146.02 430.81 716.96 593.75 669.73 355.64 283.66 285.77 414.58 241.01 1022.12 698.66 462.52 379.36 855.78 541.54 252.83 208.02 690.84 700.46 588.63 450.12 1040.91 397.18 387.33 457.77 1167.03 539.27 147.65 341.05 293.00 180.59 369.39 585.46 363.90 582.54 251.10 136.80 340.22 340.49 276.64 265.18 306.38 215.79 790.83 64.82 758.19 755.33 464.00 327.46 1034.29 267.00 546.44
903.57 425.53 637.59 602.13 504.05 646.49 666.54 432.84 595.47 580.90 683.57 614.29 416.21 597.68 589.74 601.12 578.17 482.07 574.28 635.59 540.49 354.61 576.91 561.93 631.51 726.01 733.38 609.53 592.79 585.73 516.42 477.87 0.00 599.28 349.05 600.50 616.59 536.47 774.86 658.76 239.09 231.14 306.07 623.43 650.09 616.49 636.06 580.63 628.72 646.46 693.07 618.18 377.91 562.40 520.14 526.26 335.39 609.85 618.88 660.49 584.95 635.23 608.17 655.59 775.65 613.04 447.52 136.82 601.92 553.69 381.87 236.66 592.92 351.59 615.01 341.07 483.82 521.82 585.56 619.75 602.58 573.85 529.47 542.69 530.34 486.38 289.89 348.32 559.33 615.14 375.98
767.19 856.57 476.99 947.46 906.12 1084.27 1126.87 630.49 534.05 323.02 444.71 1046.41 779.69 947.22 929.22 909.41 996.16 184.89 904.11 976.90 1000.82 763.67 66.32 979.38 514.04 474.15 1151.49 957.83 1010.24 900.41 962.97 873.43 599.28 0.00 275.11 1028.69 601.24 983.02 523.00 1076.21 410.43 513.78 737.11 1026.53 989.48 977.45 1053.51 926.60 609.89 1001.10 1116.38 1049.31 774.68 505.93 927.35 909.60 263.89 1060.03 1094.31 1087.95 926.11 1068.07 1039.44 1042.34 536.79 732.64 843.08 609.00 963.89 933.98 641.93 450.54 1010.37 410.75 924.46 736.63 930.37 982.54 947.53 963.03 969.91 857.59 357.77 938.25 1129.62 137.78 765.32 545.97 610.39 947.89 369.84
690.53 695.63 544.18 752.28 716.59 916.92 961.12 485.37 734.37 231.85 495.54 881.92 765.26 807.81 816.92 813.66 840.15 133.02 787.69 800.45 835.96 561.64 266.64 840.69 672.10 605.86 975.10 776.66 848.84 798.27 760.94 651.13 349.05 275.11 0.00 845.02 725.37 780.99 606.81 928.04 396.12 326.15 592.59 869.61 802.53 800.00 892.11 787.66 692.16 860.11 942.21 889.63 726.96 283.70 679.49 733.29 39.71 899.97 866.63 910.29 879.99 909.51 881.68 818.16 587.62 490.36 654.55 343.85 793.03 760.72 474.82 306.02 871.68 157.25 822.04 548.10 728.34 780.51 806.29 772.95 818.64 786.39 374.60 715.95 879.39 137.33 580.01 400.85 733.93 801.73 104.69
989.34 687.00 1096.96 177.43 254.33 92.92 141.60 553.49 1089.52 1004.71 1170.54 55.47 827.31 179.00 121.97 163.05 55.99 975.56 150.60 156.94 60.84 283.38 1043.85 49.31 1010.89 1191.57 169.14 119.48 37.67 178.44 130.51 387.66 600.50 1028.69 845.02 0.00 1100.79 120.42 1240.42 100.61 792.57 727.33 631.34 102.18 141.23 154.11 62.16 226.85 1051.79 552.00 121.56 91.89 875.34 690.74 258.80 244.34 850.29 520.95 361.52 96.25 996.05 67.33 36.66 77.96 1248.18 797.29 364.42 501.17 106.89 242.69 595.55 757.29 80.30 742.66 159.69 467.96 116.68 85.25 113.79 171.79 81.28 193.60 1060.87 322.84 521.57 982.35 429.02 560.75 1131.97 144.55 740.33
1182.99 590.92 252.52 997.06 976.99 1142.09 1139.25 859.12 67.19 724.31 407.01 1125.33 434.25 996.82 978.82 959.01 1045.76 676.47 953.71 1026.50 1075.97 897.89 534.92 1067.26 107.94 324.08 1212.32 1007.43 1098.12 950.01 1034.75 1021.15 616.59 601.24 725.37 1100.79 0.00 1054.80 295.74 1154.24 423.57 508.31 627.94 1076.13 1039.08 1027.05 1135.07 976.20 141.97 709.86 1181.09 1099.85 307.82 877.95 983.31 1006.11 740.33 773.10 979.74 1172.99 477.60 1117.67 1096.19 1093.39 456.10 1107.38 915.76 680.10 1013.49 1002.81 925.15 656.75 1098.25 583.36 974.06 884.35 1002.15 1054.32 997.13 1012.63 1019.51 907.19 405.44 1043.58 881.03 664.23 727.69 865.43 57.26 997.49 658.33
958.92 622.97 992.12 204.79 211.52 175.06 215.78 448.65 1017.32 954.63 1164.52 136.58 813.77 180.50 96.23 121.99 110.67 914.01 156.29 187.91 140.77 219.35 979.82 131.89 946.86 1221.66 248.42 136.49 101.03 137.38 25.67 348.19 536.47 983.02 780.99 120.42 1054.80 0.00 1205.85 199.16 728.54 685.10 584.53 165.46 157.58 172.28 144.30 168.62 931.37 447.16 207.17 155.25 836.51 687.60 157.19 216.87 790.33 510.40 310.16 178.74 982.51 140.97 134.04 149.65 1146.57 795.69 353.94 437.14 141.37 230.58 575.10 657.50 162.88 678.63 155.19 442.22 52.65 35.17 125.23 200.00 135.27 167.86 996.54 323.97 547.04 918.32 364.99 510.67 1035.53 145.01 676.30
1180.53 864.69 213.73 1257.89 1251.51 1282.46 1331.14 903.08 362.93 736.94 111.27 1236.44 649.29 1202.36 1253.48 1219.77 1293.49 598.23 1226.87 1270.03 1271.44 1034.47 456.68 1263.82 381.71 48.85 1350.87 1254.11 1236.77 1235.16 1180.18 1146.02 774.86 523.00 606.81 1240.42 295.74 1205.85 0.00 1326.87 555.75 708.32 847.13 1299.99 1278.79 1245.19 1251.70 1217.23 396.99 945.43 1288.66 1262.14 506.19 890.51 1188.74 1234.52 646.52 1008.67 1178.11 1286.93 713.17 1250.90 1203.76 1314.62 199.36 1097.17 1110.11 911.68 1240.84 1261.95 1005.72 560.56 1294.81 709.33 1256.25 1009.22 1201.17 1225.44 1224.48 1259.24 1256.99 1202.93 378.63 1210.84 1116.60 585.99 1010.48 953.01 292.83 1263.84 701.62
1027.49 735.55 1175.70 175.76 293.64 79.79 147.00 566.54 1102.58 1083.45 1271.15 122.96 925.05 231.29 183.62 219.60 138.58 1014.87 233.19 184.48 118.27 382.86 1142.53 96.83 1110.37 1278.02 140.40 171.06 127.69 227.57 209.25 430.81 658.76 1076.21 928.04 100.61 1154.24 199.16 1326.87 0.00 892.05 776.65 713.35 78.11 156.16 189.76 97.97 268.06 1130.53 625.67 115.98 85.45 861.95 755.45 328.73 251.63 888.33 562.43 388.59 107.58 1072.67 91.30 123.11 178.57 1318.11 832.68 390.93 600.65 156.21 250.22 652.98 841.08 66.91 842.14 209.01 487.99 216.16 163.99 157.11 196.43 145.99 247.05 1114.43 365.99 557.38 1053.81 514.88 639.49 1178.92 172.63 839.81
960.56 542.72 398.50 765.81 743.14 864.47 905.63 524.05 356.38 627.97 444.48 829.47 629.99 802.02 795.85 762.34 816.31 480.89 770.55 778.98 779.58 509.19 476.75 801.02 394.33 554.80 930.73 764.11 829.57 766.15 708.49 716.96 239.09 410.43 396.12 792.57 423.57 728.54 555.75 892.05 0.00 173.24 460.37 856.63 795.58 781.56 854.73 735.21 389.63 590.67 889.76 855.67 486.89 533.46 708.10 765.35 435.83 653.91 822.34 857.84 717.30 859.90 829.23 859.05 536.56 762.89 686.61 375.91 778.66 790.30 599.63 321.68 832.01 238.87 725.86 580.16 675.89 728.06 777.63 745.14 794.65 792.73 510.15 781.78 761.84 469.99 493.35 483.82 432.72 789.18 313.84
913.22 369.48 568.35 628.96 572.85 745.63 812.84 350.81 529.62 545.40 617.72 725.36 607.05 644.11 637.63 604.12 680.14 423.11 612.33 648.09 705.80 478.14 505.31 713.14 400.37 674.62 842.75 616.65 737.07 607.93 665.05 593.75 231.14 513.78 326.15 727.33 508.31 685.10 708.32 776.65 173.24 0.00 435.01 701.86 637.36 652.44 756.41 667.87 509.28 533.96 793.11 709.24 505.68 493.46 575.73 644.74 286.44 597.20 649.10 776.53 730.38 746.98 748.71 685.81 709.80 749.34 563.40 260.35 620.44 657.11 477.26 148.44 716.50 225.32 567.64 456.95 632.45 684.62 626.44 639.46 646.05 634.51 459.54 658.57 705.13 376.00 320.11 435.33 521.45 640.37 300.29
1008.95 119.46 770.42 660.58 660.62 719.03 729.97 570.47 560.75 683.53 793.59 650.77 309.16 680.45 636.93 632.72 575.35 653.08 637.34 676.30 613.03 405.27 670.79 617.10 602.44 851.14 749.37 638.84 647.96 633.64 594.62 669.73 306.07 737.11 592.59 631.34 627.94 584.53 847.13 713.35 460.37 435.01 0.00 678.60 664.31 674.63 691.23 631.29 628.08 386.16 733.72 687.02 452.26 574.15 604.18 628.98 629.73 322.92 651.53 721.38 473.88 687.35 663.98 706.51 885.67 833.10 620.52 442.89 641.65 601.55 687.94 286.57 648.09 435.34 657.69 532.93 571.97 549.36 644.36 675.56 620.86 590.82 681.91 717.32 432.12 643.52 369.30 654.39 637.09 663.91 510.31
962.81 751.06 1157.58 127.59 215.53 122.34 174.02 518.37 1083.03 1010.36 1272.72 113.76 868.64 181.85 105.51 141.49 103.25 936.76 175.79 106.37 82.94 347.44 1068.44 61.50 1074.95 1251.14 178.28 92.95 92.36 156.88 191.13 355.64 623.43 1026.53 869.61 102.18 1076.13 165.46 1299.99 78.11 856.63 701.86 678.60 0.00 114.70 113.09 94.58 189.95 1096.83 611.55 157.45 53.42 842.40 691.61 253.94 201.05 840.16 548.31 391.78 144.62 994.56 77.18 96.23 180.14 1243.32 754.57 312.82 565.23 81.42 192.12 599.65 797.72 47.36 806.72 134.22 419.27 180.74 168.52 79.00 140.21 84.13 168.94 1044.30 307.89 553.99 983.12 493.08 602.89 1133.39 94.52 764.92
871.33 725.20 1124.08 50.25 162.60 188.64 252.69 441.03 1061.94 957.43 1225.25 183.50 824.48 77.95 61.35 104.54 88.96 883.83 114.41 36.35 126.64 321.58 1025.38 130.71 1037.73 1294.87 288.93 66.66 138.72 106.05 157.63 283.66 650.09 989.48 802.53 141.23 1039.08 157.58 1278.79 156.16 795.58 637.36 664.31 114.70 0.00 33.60 181.99 182.90 1079.54 579.12 242.75 150.81 899.52 638.68 220.63 123.83 762.82 609.18 409.69 216.43 941.63 190.88 158.22 219.19 1210.01 693.29 317.27 513.27 83.03 122.10 546.72 718.23 104.48 754.76 69.72 362.48 177.92 154.33 80.95 70.02 102.04 131.89 988.92 218.84 566.51 930.94 444.37 525.55 1087.30 41.59 728.91
904.93 694.33 1123.99 57.09 156.38 182.88 247.96 421.67 1071.27 950.15 1191.65 171.83 839.18 77.11 76.05 76.55 99.28 877.61 110.85 24.84 126.24 290.71 998.83 104.80 1051.83 1294.04 276.91 35.79 135.66 91.94 172.33 285.77 616.49 977.45 800.00 154.11 1027.05 172.28 1245.19 189.76 781.56 652.44 674.63 113.09 33.60 0.00 178.93 154.91 1063.16 556.55 212.25 128.07 930.65 632.46 188.35 90.23 769.66 608.78 385.42 213.37 938.30 185.96 159.42 223.24 1177.73 695.40 293.28 479.67 52.16 110.59 543.39 684.63 135.79 721.16 84.80 369.32 167.16 169.03 65.42 36.42 77.77 119.86 969.56 220.95 532.91 918.18 410.77 506.19 1053.70 38.26 695.31
1023.42 683.02 1136.42 212.56 274.77 30.76 79.44 580.74 1099.55 1062.28 1232.70 41.41 863.74 236.65 162.57 200.43 115.88 996.00 210.49 200.95 95.57 345.54 1090.94 74.13 1073.05 1202.85 108.69 153.56 43.27 204.87 169.97 414.58 636.06 1053.51 892.11 62.16 1135.07 144.30 1251.70 97.97 854.73 756.41 691.23 94.58 181.99 178.93 0.00 261.58 1075.67 551.77 62.87 73.09 892.24 748.39 277.16 269.16 875.11 488.53 364.52 55.05 1032.48 17.40 47.94 104.90 1266.54 839.50 407.40 563.33 142.02 274.22 630.28 801.80 97.20 785.71 188.77 491.26 178.84 142.82 137.94 215.35 138.93 227.88 1102.45 380.49 459.41 1022.98 470.60 618.32 1175.89 153.76 787.42
915.29 629.64 1115.69 150.50 95.02 272.01 292.06 394.63 1010.68 923.11 1105.96 239.81 820.44 150.60 140.64 78.36 197.16 816.25 102.55 178.18 166.01 226.02 957.80 187.45 1015.97 1216.28 338.52 146.69 218.31 93.75 186.37 241.01 580.63 926.60 787.66 226.85 976.20 168.62 1217.23 268.06 735.21 667.87 631.29 189.95 182.90 154.91 261.58 0.00 998.47 607.86 318.59 243.37 934.87 571.10 124.48 145.11 815.09 625.29 414.85 265.63 989.18 260.75 233.69 229.97 1113.86 675.11 233.36 443.81 149.87 144.69 521.08 699.93 218.44 670.85 114.84 288.49 153.77 149.20 140.85 144.34 171.70 69.01 942.52 248.69 611.41 863.36 380.10 479.15 1033.46 158.21 682.97
1152.57 580.20 276.89 1059.35 1001.61 1106.43 1140.22 860.09 85.95 866.28 421.75 1067.95 376.73 1086.29 1027.60 1046.30 1042.04 679.39 1013.65 1076.58 1046.77 772.45 543.57 1063.26 108.91 445.84 1179.79 1027.37 1032.40 1050.11 957.04 1022.12 628.72 609.89 692.16 1051.79 141.97 931.37 396.99 1130.53 389.63 509.28 628.08 1096.83 1079.54 1063.16 1075.67 998.47 0.00 756.76 1138.54 1086.62 300.71 829.50 971.36 1070.51 731.87 820.00 937.98 1110.11 454.12 1072.34 1065.41 1081.02 505.30 1058.93 987.70 681.07 1043.74 1053.56 926.12 657.72 1094.25 534.91 1009.82 885.32 939.15 966.54 1040.89 1042.74 1057.91 1049.16 406.41 1086.94 927.93 672.88 746.45 816.98 104.16 1052.44 609.88
1226.90 392.23 941.66 589.39 595.00 579.53 603.56 664.49 728.94 1069.69 1035.15 559.78 603.99 602.04 517.77 569.15 538.71 957.07 593.16 581.39 536.59 441.94 1037.85 558.03 773.68 994.28 625.49 520.76 548.19 576.92 421.49 698.66 646.46 1001.10 860.11 552.00 709.86 447.16 945.43 625.67 590.67 533.96 386.16 611.55 579.12 556.55 551.77 607.86 756.76 0.00 614.64 568.67 661.66 960.31 604.35 523.11 820.40 63.24 391.85 601.81 753.13 534.37 541.18 514.31 1103.73 1083.31 657.19 619.36 537.13 550.54 790.94 672.73 589.02 733.95 569.77 626.90 454.09 466.75 546.77 591.63 558.46 569.29 718.00 633.84 171.17 909.96 383.20 749.01 652.60 545.83 761.70
1046.32 715.61 1196.07 245.09 322.54 56.74 88.85 627.93 1157.27 1103.82 1292.10 99.13 926.61 282.28 202.27 244.79 165.90 1043.77 260.51 206.40 152.58 380.57 1141.04 137.00 1108.08 1239.81 72.06 176.46 106.14 260.18 229.62 462.52 693.07 1116.38 942.21 121.56 1181.09 207.17 1288.66 115.98 889.76 793.11 733.72 157.45 242.75 212.25 62.87 318.59 1138.54 614.64 0.00 135.96 949.60 798.62 340.03 302.48 937.98 551.40 325.39 87.64 1076.51 80.27 84.90 167.77 1329.41 872.15 433.95 598.36 192.83 281.93 687.29 854.48 154.56 839.85 225.47 540.40 213.87 184.36 200.81 240.24 201.80 273.90 1158.06 397.70 522.28 1079.54 526.21 659.86 1229.16 201.53 837.52
982.83 717.36 1113.63 167.14 258.17 103.85 152.53 549.74 1082.00 1053.88 1262.43 91.06 894.85 205.18 131.72 165.21 111.68 979.40 174.08 152.91 77.69 346.48 1088.46 69.93 1073.99 1213.29 154.13 112.97 54.22 180.60 147.18 379.36 618.18 1049.31 889.63 91.89 1099.85 155.25 1262.14 85.45 855.67 709.24 687.02 53.42 150.81 128.07 73.09 243.37 1086.62 568.67 135.96 0.00 841.37 731.67 269.12 218.30 870.91 554.02 358.98 128.14 1038.08 82.89 58.38 132.78 1258.50 807.99 366.24 564.27 96.60 229.64 612.40 779.01 46.33 805.76 141.60 467.02 179.78 137.66 102.72 164.49 122.21 192.66 1097.63 345.41 532.50 1006.84 487.91 613.16 1157.11 138.04 784.94
1271.67 382.74 522.84 920.10 881.96 923.00 964.35 709.26 240.63 906.56 617.46 888.69 143.10 922.32 894.32 882.33 867.78 697.56 866.57 926.30 847.47 708.85 708.36 826.03 354.86 555.04 982.50 894.86 856.89 886.14 846.60 855.78 377.91 774.68 726.96 875.34 307.82 836.51 506.19 861.95 486.89 505.68 452.26 842.40 899.52 930.65 892.24 934.87 300.71 661.66 949.60 841.37 0.00 801.18 898.05 904.17 713.30 598.42 671.92 909.61 311.84 881.44 886.09 953.30 593.37 990.95 825.43 514.73 891.10 931.60 759.78 543.05 795.04 606.29 845.85 718.98 853.51 801.34 898.90 917.67 874.12 912.72 445.26 920.60 707.62 726.64 667.80 726.23 316.97 918.58 638.50
523.65 693.61 707.51 623.84 476.08 763.60 808.61 298.60 889.84 421.58 779.24 739.95 867.65 569.71 608.44 573.15 654.97 344.04 587.60 607.62 682.56 522.03 447.15 682.38 791.12 854.98 850.12 622.16 707.58 557.76 702.91 541.54 562.40 505.93 283.70 690.74 877.95 687.60 890.51 755.45 533.46 493.46 574.15 691.61 638.68 632.46 748.39 571.10 829.50 960.31 798.62 731.67 801.18 0.00 630.29 547.97 243.99 897.07 910.86 785.29 1036.39 752.07 718.25 768.70 753.68 306.79 511.19 425.58 635.07 575.40 253.95 345.02 688.54 294.59 598.05 404.74 670.31 687.44 631.53 620.38 609.46 545.88 578.88 606.36 1006.27 368.15 581.87 214.08 848.86 597.09 219.62
810.99 602.53 1100.70 203.37 154.21 304.92 356.60 393.99 916.12 911.34 1081.46 293.77 793.33 214.46 161.62 142.50 202.81 812.51 108.20 184.28 240.49 198.91 861.03 244.56 932.72 1149.52 343.35 188.89 258.22 146.72 182.86 252.83 520.14 927.35 679.49 258.80 983.31 157.19 1188.74 328.73 708.10 575.73 604.18 253.94 220.63 188.35 277.16 124.48 971.36 604.35 340.03 269.12 898.05 630.29 0.00 199.89 719.20 575.58 377.10 327.20 962.07 259.76 278.99 306.84 989.38 702.35 260.60 383.32 172.52 227.32 520.44 672.82 268.58 624.81 152.89 330.85 190.05 192.36 188.88 182.70 198.13 154.72 887.47 286.38 613.98 816.82 255.62 478.51 992.46 191.37 622.48
893.85 712.16 1116.49 75.87 71.89 266.74 333.95 331.44 987.55 859.92 1180.98 246.47 803.07 113.98 157.61 113.85 189.51 793.12 119.53 113.18 216.47 308.54 932.12 195.03 961.60 1209.11 366.14 126.02 225.89 98.46 191.20 208.02 526.26 909.60 733.29 244.34 1006.11 216.87 1234.52 251.63 765.35 644.74 628.98 201.05 123.83 90.23 269.16 145.11 1070.51 523.11 302.48 218.30 904.17 547.97 199.89 0.00 702.38 586.35 440.60 297.64 971.81 268.09 249.65 313.47 1095.00 617.65 222.60 389.44 138.41 27.43 457.89 673.96 210.74 630.93 88.75 304.56 223.80 208.77 147.55 93.49 164.02 98.92 879.33 143.20 623.14 840.23 425.53 415.96 1063.37 128.49 628.60
730.24 655.92 583.89 712.57 720.07 905.87 926.79 502.18 774.08 271.56 535.25 861.38 751.60 768.10 821.13 811.25 842.73 172.73 821.91 760.74 822.42 601.35 306.35 800.98 632.39 645.57 935.39 781.20 831.84 795.86 764.66 690.84 335.39 263.89 39.71 850.29 740.33 790.33 646.52 888.33 435.83 286.44 629.73 840.16 762.82 769.66 875.11 815.09 731.87 820.40 937.98 870.91 713.30 243.99 719.20 702.38 0.00 883.64 860.43 885.51 840.28 892.51 861.04 778.45 627.33 468.75 694.26 383.56 783.11 729.81 435.11 345.73 831.97 196.96 786.82 587.81 768.05 809.92 797.64 733.24 808.72 789.87 334.89 755.66 865.73 177.04 606.55 417.66 753.47 772.35 144.40
1232.21 328.99 979.95 598.95 609.88 516.29 540.32 669.80 792.18 1006.45 1098.39 507.71 540.75 619.17 579.69 546.93 520.22 976.00 570.06 621.17 482.54 459.36 993.71 503.98 811.97 1026.48 563.52 583.71 531.80 531.54 484.73 700.46 609.85 1060.03 899.97 520.95 773.10 510.40 1008.67 562.43 653.91 597.20 322.92 548.31 609.18 608.78 488.53 625.29 820.00 63.24 551.40 554.02 598.42 897.07 575.58 586.35 883.64 0.00 328.61 538.57 689.89 471.13 518.27 451.07 1166.97 1072.19 670.11 556.12 571.72 613.78 796.25 609.49 534.97 758.26 571.83 563.66 517.33 529.99 569.85 594.16 555.64 574.36 781.24 697.08 109.20 966.44 319.96 687.75 715.84 596.00 795.28
1188.09 641.15 1171.95 403.80 450.82 382.13 345.29 716.66 912.55 1098.48 1266.82 377.68 663.58 405.37 348.34 373.60 353.16 951.40 339.30 410.26 368.70 427.78 1027.99 380.57 1003.97 1226.96 397.45 349.63 351.36 377.82 293.68 588.63 618.88 1094.31 866.63 361.52 979.74 310.16 1178.11 388.59 822.34 649.10 651.53 391.78 409.69 385.42 364.52 414.85 937.98 391.85 325.39 358.98 671.92 910.86 377.10 440.60 860.43 328.61 0.00 401.02 832.32 347.12 384.37 302.14 1265.29 1023.66 590.79 565.15 333.26 468.03 768.64 797.54 386.73 709.38 383.99 660.18 261.08 276.27 340.16 407.06 307.65 385.82 960.84 549.21 236.88 998.51 328.99 696.78 988.89 374.70 784.35
1060.85 627.97 1170.86 247.98 309.21 30.90 55.73 599.49 1128.75 1091.48 1266.79 70.61 913.78 275.25 197.01 237.41 150.32 1030.44 244.93 238.21 120.00 348.65 1109.12 108.57 1076.16 1238.08 72.89 208.61 77.71 239.31 204.41 450.12 660.49 1087.95 910.29 96.25 1172.99 178.74 1286.93 107.58 857.84 776.53 721.38 144.62 216.43 213.37 55.05 265.63 1110.11 601.81 87.64 128.14 909.61 785.29 327.20 297.64 885.51 538.57 401.02 0.00 988.87 67.44 83.17 107.06 1316.58 828.65 386.90 566.44 197.07 297.88 654.71 822.56 114.57 807.93 208.89 493.35 181.95 172.02 187.98 249.79 177.53 267.98 1104.61 413.65 514.46 1031.07 472.76 647.52 1197.24 188.20 805.60
1417.74 360.90 709.40 959.82 1021.05 1019.77 1002.75 922.35 496.68 1009.02 648.42 1049.75 168.74 1001.45 931.87 979.89 955.21 835.44 994.94 963.14 992.89 763.16 910.07 996.96 541.42 758.74 1025.96 925.11 1010.53 964.50 962.46 1040.91 584.95 926.11 879.99 996.05 477.60 982.51 713.17 1072.67 717.30 730.38 473.88 994.56 941.63 938.30 1032.48 989.18 454.12 753.13 1076.51 1038.08 311.84 1036.39 962.07 971.81 840.28 689.89 832.32 988.87 0.00 1015.08 1021.20 1074.01 740.50 1197.99 978.41 699.86 941.48 999.24 944.91 691.37 1027.95 840.14 972.77 904.11 929.86 982.03 939.40 972.52 967.09 990.34 757.10 1105.73 703.32 788.33 778.27 911.36 420.34 900.04 915.11
1019.96 695.41 1133.09 204.77 275.99 45.16 96.84 574.29 1094.72 1057.45 1237.87 36.58 846.34 233.81 149.54 183.03 123.32 997.22 217.33 183.55 94.74 350.71 1108.34 91.53 1078.22 1202.05 107.45 150.17 60.67 198.42 166.64 397.18 635.23 1068.07 909.51 67.33 1117.67 140.97 1250.90 91.30 859.90 746.98 687.35 77.18 190.88 185.96 17.40 260.75 1072.34 534.37 80.27 82.89 881.44 752.07 259.76 268.09 892.51 471.13 347.12 67.44 1015.08 0.00 47.14 119.51 1249.14 831.75 390.00 568.50 136.90 269.30 629.45 798.47 86.40 780.88 179.34 484.84 184.01 137.99 120.54 217.39 148.61 210.48 1117.06 377.65 476.81 1024.66 485.21 613.49 1171.06 159.90 804.82
998.06 696.15 1126.16 180.94 242.17 78.70 127.38 552.39 1090.82 1034.08 1207.20 32.68 863.97 201.64 117.37 191.91 92.65 963.40 187.26 167.65 67.68 320.04 1080.51 60.06 1047.55 1154.91 147.11 132.06 33.01 176.52 159.71 387.33 608.17 1039.44 881.68 36.66 1096.19 134.04 1203.76 123.11 829.23 748.71 663.98 96.23 158.22 159.42 47.94 233.69 1065.41 541.18 84.90 58.38 886.09 718.25 278.99 249.65 861.04 518.27 384.37 83.17 1021.20 47.14 0.00 110.86 1268.37 819.93 389.55 537.83 138.00 253.40 602.39 791.54 91.05 776.98 181.07 463.36 153.34 114.62 146.37 193.64 117.94 189.00 1097.53 345.48 507.35 1002.76 465.68 590.12 1153.45 121.16 776.99
1057.31 735.03 1141.77 255.39 324.99 135.66 148.34 514.29 1026.20 1039.84 1248.50 82.93 905.27 256.96 199.93 231.57 133.95 951.18 228.56 234.90 138.80 361.34 1064.70 127.27 1042.80 1265.77 156.94 187.45 115.63 246.96 175.32 457.77 655.59 1042.34 818.16 77.96 1093.39 149.65 1314.62 178.57 859.05 685.81 706.51 180.14 219.19 223.24 104.90 229.97 1081.02 514.31 167.77 132.78 953.30 768.70 306.84 313.47 778.45 451.07 302.14 107.06 1074.01 119.51 110.86 0.00 1296.22 875.25 442.38 579.13 184.85 313.04 640.74 807.15 158.26 807.20 236.46 518.46 194.64 157.15 191.75 249.75 159.24 271.56 997.55 400.80 494.28 955.49 365.70 598.81 1102.54 212.52 818.29
1136.72 879.37 228.41 1170.87 1143.59 1294.30 1345.98 941.62 523.29 678.04 92.08 1283.15 736.47 1203.84 1151.00 1131.88 1192.19 659.74 1097.58 1173.66 1229.87 1043.77 582.67 1233.94 396.39 174.84 1332.73 1178.27 1247.60 1136.10 1172.24 1167.03 775.65 536.79 587.62 1248.18 456.10 1146.57 199.36 1318.11 536.56 709.80 885.67 1243.32 1210.01 1177.73 1266.54 1113.86 505.30 1103.73 1329.41 1258.50 593.37 753.68 989.38 1095.00 627.33 1166.97 1265.29 1316.58 740.50 1249.14 1268.37 1296.22 0.00 1060.47 1130.67 825.98 1161.90 1122.43 931.86 599.10 1257.96 584.49 1142.27 1030.23 1179.43 1181.74 1178.26 1172.08 1187.51 1144.10 410.56 1181.50 1274.90 612.63 1025.99 866.56 492.19 1180.75 644.75
290.53 952.56 997.99 666.07 615.27 859.55 884.38 418.82 1119.27 722.21 985.90 843.23 1029.25 618.29 702.56 676.43 761.52 568.88 710.73 675.97 789.11 657.00 710.43 788.93 1050.69 1082.97 901.54 699.24 819.79 691.82 798.84 539.27 613.04 732.64 490.36 797.29 1107.38 795.69 1097.17 832.68 762.89 749.34 833.10 754.57 693.29 695.40 839.50 675.11 1058.93 1083.31 872.15 807.99 990.95 306.79 702.35 617.65 468.75 1072.19 1023.66 828.65 1197.99 831.75 819.93 875.25 1060.47 0.00 441.75 537.42 715.61 590.22 292.37 651.81 773.53 524.02 694.76 524.96 771.21 795.54 728.87 674.81 716.01 685.07 753.19 474.45 1080.82 615.99 752.23 384.44 1139.34 719.70 510.10
732.28 618.87 996.74 271.02 173.52 417.80 442.63 212.59 982.95 741.07 1049.96 415.50 809.67 263.58 297.75 270.59 320.98 769.02 285.04 280.92 356.24 215.25 853.38 356.06 882.86 1061.26 459.79 257.49 386.92 255.20 372.45 147.65 447.52 843.08 654.55 364.42 915.76 353.94 1110.11 390.93 686.61 563.40 620.52 312.82 317.27 293.28 407.40 233.36 987.70 657.19 433.95 366.24 825.43 511.19 260.60 222.60 694.26 670.11 590.79 386.90 978.41 390.00 389.55 442.38 1130.67 441.75 0.00 310.70 273.86 195.17 311.98 555.11 360.18 546.18 295.49 106.45 339.85 355.09 287.12 279.76 283.14 243.32 731.48 127.82 639.07 724.98 389.22 297.11 973.02 282.56 549.86
827.95 562.35 727.05 465.31 393.38 573.07 617.27 296.02 732.29 575.70 820.39 538.07 553.03 487.01 512.97 490.45 524.91 476.87 491.52 502.62 492.11 217.79 542.68 513.55 572.16 862.83 639.33 472.71 538.17 475.06 417.09 341.05 136.82 609.00 343.85 501.17 680.10 437.14 911.68 600.65 375.91 260.35 442.89 565.23 513.27 479.67 563.33 443.81 681.07 619.36 598.36 564.27 514.73 425.58 383.32 389.44 383.56 556.12 565.15 566.44 699.86 568.50 537.83 579.13 825.98 537.42 310.70 0.00 489.08 416.87 245.05 373.48 544.54 241.49 478.19 204.25 384.49 436.66 486.23 482.93 503.25 463.18 601.50 405.87 665.32 481.18 236.16 211.50 693.24 497.78 239.16
886.23 674.91 1107.87 70.54 162.45 172.78 215.23 461.32 1073.96 957.28 1223.14 160.84 808.27 122.19 45.14 78.85 66.30 883.68 97.49 77.00 89.18 271.29 991.86 98.53 1012.31 1289.69 234.95 16.37 129.39 90.23 141.42 293.00 601.92 963.89 793.03 106.89 1013.49 141.37 1240.84 156.21 778.66 620.44 641.65 81.42 83.03 52.16 142.02 149.87 1043.74 537.13 192.83 96.60 891.10 635.07 172.52 138.41 783.11 571.72 333.26 197.07 941.48 136.90 138.00 184.85 1161.90 715.61 273.86 489.08 0.00 141.96 546.57 736.79 96.06 730.57 52.80 380.31 118.10 137.17 16.36 87.24 25.61 106.30 1005.34 257.73 570.14 916.47 428.14 541.29 1070.75 41.44 688.34
880.75 684.73 1143.92 75.85 99.32 290.83 311.77 358.87 1014.98 887.35 1208.41 270.56 830.50 86.75 165.85 108.59 186.70 820.55 142.14 85.75 224.35 281.11 959.55 214.30 989.03 1236.54 353.99 125.59 230.95 118.31 218.63 180.59 553.69 933.98 760.72 242.69 1002.81 230.58 1261.95 250.22 790.30 657.11 601.55 192.12 122.10 110.59 274.22 144.69 1053.56 550.54 281.93 229.64 931.60 575.40 227.32 27.43 729.81 613.78 468.03 297.88 999.24 269.30 253.40 313.04 1122.43 590.22 195.17 416.87 141.96 0.00 485.32 701.39 183.31 658.36 112.84 277.13 225.30 232.86 155.22 84.59 167.57 95.62 906.76 115.77 638.02 867.66 452.96 443.39 1060.07 135.63 656.03
582.90 687.90 892.93 517.23 474.88 640.71 660.76 126.45 956.01 594.80 970.36 608.51 798.08 560.41 542.41 517.71 572.39 457.04 517.30 547.98 534.71 462.84 598.59 556.15 817.21 956.87 727.60 530.20 587.01 502.32 549.43 369.39 381.87 641.93 474.82 595.55 925.15 575.10 1005.72 652.98 599.63 477.26 687.94 599.65 546.72 543.39 630.28 521.08 926.12 790.94 687.29 612.40 759.78 253.95 520.44 457.89 435.11 796.25 768.64 654.71 944.91 629.45 602.39 640.74 931.86 292.37 311.98 245.05 546.57 485.32 0.00 468.97 587.14 432.91 537.65 232.59 582.03 546.14 544.49 514.14 568.76 470.78 674.34 434.21 905.45 504.15 481.21 150.84 938.29 505.13 405.04
855.64 406.03 650.04 733.30 690.95 829.19 857.70 342.52 678.06 396.96 507.02 770.12 522.63 731.45 728.11 659.21 749.05 390.79 693.51 709.47 746.93 473.91 384.22 768.37 548.81 609.41 895.45 720.42 758.53 674.60 631.83 585.46 236.66 450.54 306.02 757.29 656.75 657.50 560.56 841.08 321.68 148.44 286.57 797.72 718.23 684.63 801.80 699.93 657.72 672.73 854.48 779.01 543.05 345.02 672.82 673.96 345.73 609.49 797.54 822.56 691.37 798.47 791.54 807.15 599.10 651.81 555.11 373.48 736.79 701.39 468.97 0.00 799.36 148.77 695.69 448.66 640.61 677.09 721.70 721.05 754.21 711.03 395.34 650.28 718.69 356.95 468.55 392.45 669.89 722.89 223.74
974.01 724.99 1133.98 154.73 243.41 127.96 169.31 537.60 1035.67 1037.49 1250.84 93.65 859.21 176.80 119.43 166.35 72.74 964.64 167.35 140.83 52.43 326.75 1076.69 30.99 1054.26 1245.96 187.46 104.15 61.85 161.73 167.53 363.90 592.92 1010.37 871.68 80.30 1098.25 162.88 1294.81 66.91 832.01 716.50 648.09 47.36 104.48 135.79 97.20 218.44 1094.25 589.02 154.56 46.33 795.04 688.54 268.58 210.74 831.97 534.97 386.73 114.57 1027.95 86.40 91.05 158.26 1257.96 773.53 360.18 544.54 96.06 183.31 587.14 799.36 0.00 786.03 148.86 460.44 160.05 138.01 103.86 172.21 79.08 191.06 1085.49 299.08 556.61 987.97 472.39 593.53 1112.01 129.22 776.12
721.69 554.80 501.27 706.80 634.87 814.56 856.19 366.59 595.25 389.10 652.79 744.30 671.40 728.50 754.46 731.94 751.30 242.02 725.87 744.11 733.60 459.28 344.43 755.04 531.65 689.79 873.63 714.20 779.66 716.55 658.58 582.54 351.59 410.75 157.25 742.66 583.36 678.63 709.33 842.14 238.87 225.32 435.34 806.72 754.76 721.16 785.71 670.85 534.91 733.95 839.85 805.76 606.29 294.59 624.81 630.93 196.96 758.26 709.38 807.93 840.14 780.88 776.98 807.20 584.49 524.02 546.18 241.49 730.57 658.36 432.91 148.77 786.03 0.00 719.68 445.74 625.98 678.15 727.72 724.42 744.74 704.67 360.01 647.36 843.79 289.13 441.50 282.07 639.07 739.27 74.97
861.83 678.73 1057.83 74.25 121.97 177.99 245.20 416.16 1037.63 932.45 1170.34 157.72 833.12 76.47 69.99 36.48 112.50 843.20 44.69 80.45 138.16 303.93 984.75 145.50 968.01 1242.26 277.39 49.01 169.43 40.29 165.28 251.10 615.01 924.46 822.04 159.69 974.06 155.19 1256.25 209.01 725.86 567.64 657.69 134.22 69.72 84.80 188.77 114.84 1009.82 569.77 225.47 141.60 845.85 598.05 152.89 88.75 786.82 571.83 383.99 208.89 972.77 179.34 181.07 236.46 1142.27 694.76 295.49 478.19 52.80 112.84 537.65 695.69 148.86 719.68 0.00 341.23 147.85 120.02 58.80 71.82 78.41 66.87 964.05 220.31 609.27 866.53 385.43 488.49 1031.32 72.73 717.35
668.55 652.39 890.29 312.23 279.97 519.22 549.08 106.14 936.54 634.62 955.68 492.98 757.28 345.46 345.99 326.18 412.93 665.64 320.88 360.40 443.14 321.70 746.93 434.43 776.41 983.81 566.24 363.94 465.29 317.18 436.64 136.80 341.07 736.63 548.10 467.96 884.35 442.22 1009.22 487.99 580.16 456.95 532.93 419.27 362.48 369.32 491.26 288.49 885.32 626.90 540.40 467.02 718.98 404.74 330.85 304.56 587.81 563.66 660.18 493.35 904.11 484.84 463.36 518.46 1030.23 524.96 106.45 204.25 380.31 277.13 232.59 448.66 460.44 445.74 341.23 0.00 404.04 437.69 364.30 332.90 386.68 274.36 654.03 201.62 672.86 618.53 440.41 190.66 897.49 364.66 443.41
975.16 570.32 999.05 186.81 194.23 188.58 232.78 455.58 972.84 929.40 1120.37 153.58 761.12 210.47 128.88 138.23 140.42 861.36 139.07 192.00 107.62 166.70 927.17 129.06 894.21 1209.83 254.84 131.37 153.68 153.62 32.60 340.22 483.82 930.37 728.34 116.68 1002.15 52.65 1201.17 216.16 675.89 632.45 571.97 180.74 177.92 167.16 178.84 153.77 939.15 454.09 213.87 179.78 853.51 670.31 190.05 223.80 768.05 517.33 261.08 181.95 929.86 184.01 153.34 194.64 1179.43 771.21 339.85 384.49 118.10 225.30 582.03 640.61 160.05 625.98 147.85 404.04 0.00 52.17 101.74 202.24 118.76 129.68 944.19 296.76 497.96 865.67 312.34 527.67 1015.29 141.10 623.65
951.22 622.49 1011.71 194.27 211.36 173.58 180.61 468.24 1025.01 919.46 1172.54 101.41 813.29 177.25 92.98 145.07 109.47 913.53 157.39 152.74 115.28 218.87 978.96 107.02 946.38 1241.25 230.74 133.24 122.92 129.68 45.26 340.49 521.82 982.54 780.51 85.25 1054.32 35.17 1225.44 163.99 728.06 684.62 549.36 168.52 154.33 169.03 142.82 149.20 966.54 466.75 184.36 137.66 801.34 687.44 192.36 208.77 809.92 529.99 276.27 172.02 982.03 137.99 114.62 157.15 1181.74 795.54 355.09 436.66 137.17 232.86 546.14 677.09 138.01 678.15 120.02 437.69 52.17 0.00 121.98 186.58 133.67 164.61 996.36 321.09 513.15 903.37 364.51 475.50 1067.46 141.76 675.82
899.42 672.06 1091.73 85.07 155.45 164.10 213.36 453.75 1057.60 955.20 1222.11 157.12 792.13 113.27 29.00 62.49 69.01 876.68 96.79 90.26 87.31 268.44 1005.12 105.43 995.95 1273.33 218.59 29.63 115.59 77.88 125.28 276.64 585.56 947.53 806.29 113.79 997.13 125.23 1224.48 157.11 777.63 626.44 644.36 79.00 80.95 65.42 137.94 140.85 1040.89 546.77 200.81 102.72 898.90 631.53 188.88 147.55 797.64 569.85 340.16 187.98 939.40 120.54 146.37 191.75 1178.26 728.87 287.12 486.23 16.36 155.22 544.49 721.70 103.86 727.72 58.80 364.30 101.74 121.98 0.00 100.50 32.51 89.94 1001.64 257.11 577.04 904.12 414.08 538.27 1054.39 39.36 701.60
884.16 673.91 1114.28 20.67 144.30 219.30 279.53 387.69 1059.96 916.17 1189.62 208.25 864.71 56.88 111.13 78.01 115.80 865.53 101.14 33.84 153.48 270.29 1007.08 141.22 1039.83 1265.36 312.30 70.87 172.08 62.62 207.41 265.18 619.75 963.03 772.95 171.79 1012.63 200.00 1259.24 196.43 745.14 639.46 675.56 140.21 70.02 36.42 215.35 144.34 1042.74 591.63 240.24 164.49 917.67 620.38 182.70 93.49 733.24 594.16 407.06 249.79 972.52 217.39 193.64 249.75 1172.08 674.81 279.76 482.93 87.24 84.59 514.14 721.05 172.21 724.42 71.82 332.90 202.24 186.58 100.50 0.00 99.41 105.44 935.58 200.36 569.33 888.86 429.82 472.21 1069.89 72.48 722.09
911.84 689.08 1103.42 96.15 173.05 154.14 199.15 475.71 1086.70 982.89 1239.13 136.75 803.82 97.72 40.69 95.00 45.51 894.28 123.10 102.61 73.10 285.46 1017.47 72.92 1012.97 1272.85 245.03 41.98 103.78 99.84 136.97 306.38 602.58 969.91 818.64 81.28 1019.51 135.27 1256.99 145.99 794.65 646.05 620.86 84.13 102.04 77.77 138.93 171.70 1057.91 558.46 201.80 122.21 874.12 609.46 198.13 164.02 808.72 555.64 307.65 177.53 967.09 148.61 117.94 159.24 1187.51 716.01 283.14 503.25 25.61 167.57 568.76 754.21 79.08 744.74 78.41 386.68 118.76 133.67 32.51 99.41 0.00 112.32 1014.62 241.56 544.53 926.08 431.10 560.23 1076.77 67.05 713.95
864.36 680.56 1059.66 89.87 69.80 244.86 294.83 380.50 974.38 908.98 1174.97 218.62 834.76 89.63 71.63 51.82 138.57 791.03 46.52 119.31 168.78 295.03 923.91 160.07 988.80 1231.27 308.53 100.24 190.93 42.82 162.28 215.79 573.85 857.59 786.39 193.60 907.19 167.86 1202.93 247.05 792.73 634.51 590.82 168.94 131.89 119.86 227.88 69.01 1049.16 569.29 273.90 192.66 912.72 545.88 154.72 98.92 789.87 574.36 385.82 267.98 990.34 210.48 189.00 271.56 1144.10 685.07 243.32 463.18 106.30 95.62 470.78 711.03 191.06 704.67 66.87 274.36 129.68 164.61 89.94 105.44 112.32 0.00 928.39 211.39 542.40 838.14 410.02 465.02 964.45 90.30 702.34
855.28 672.49 400.01 938.67 896.32 1132.77 1145.89 547.89 467.21 461.30 318.48 1080.48 588.36 989.95 982.91 939.15 1049.85 272.98 962.28 969.42 1051.81 805.82 319.85 1054.50 297.50 329.78 1154.49 988.97 1065.54 923.76 970.87 790.83 529.47 357.77 374.60 1060.87 405.44 996.54 378.63 1114.43 510.15 459.54 681.91 1044.30 988.92 969.56 1102.45 942.52 406.41 718.00 1158.06 1097.63 445.26 578.88 887.47 879.33 334.89 781.24 960.84 1104.61 757.10 1117.06 1097.53 997.55 410.56 753.19 731.48 601.50 1005.34 906.76 674.34 395.34 1085.49 360.01 964.05 654.03 944.19 996.36 1001.64 935.58 1014.62 928.39 0.00 855.65 889.17 305.63 631.85 632.41 418.58 988.22 434.98
764.98 746.69 1091.91 191.62 210.81 395.70 427.54 307.76 1110.77 836.24 1157.30 368.78 937.49 143.84 228.11 201.98 287.07 848.97 236.28 201.52 314.66 343.07 914.78 314.48 978.03 1185.43 437.49 241.36 345.34 217.37 324.39 64.82 542.69 938.25 715.95 322.84 1043.58 323.97 1210.84 365.99 781.78 658.57 717.32 307.89 218.84 220.95 380.49 248.69 1086.94 633.84 397.70 345.41 920.60 606.36 286.38 143.20 755.66 697.08 549.21 413.65 1105.73 377.65 345.48 400.80 1181.50 474.45 127.82 405.87 257.73 115.77 434.21 650.28 299.08 647.36 220.31 201.62 296.76 321.09 257.11 200.36 241.56 211.39 855.65 0.00 753.79 820.15 517.04 392.28 1099.11 245.25 611.26
1341.41 438.19 1089.15 590.00 612.20 490.17 527.39 779.00 900.11 1110.24 1206.32 500.82 649.95 610.02 585.22 594.22 575.29 1012.41 576.18 557.75 554.98 538.55 1077.44 533.54 921.17 1135.68 454.32 568.70 502.68 585.22 530.56 758.19 530.34 1129.62 879.39 521.57 881.03 547.04 1116.60 557.38 761.84 705.13 432.12 553.99 566.51 532.91 459.41 611.41 927.93 171.17 522.28 532.50 707.62 1006.27 613.98 623.14 865.73 109.20 236.88 514.46 703.32 476.81 507.35 494.28 1274.90 1080.82 639.07 665.32 570.14 638.02 905.45 718.69 556.61 843.79 609.27 672.86 497.96 513.15 577.04 569.33 544.53 542.40 889.17 753.79 0.00 1016.72 429.16 796.95 823.77 571.17 904.48
629.41 745.48 614.77 889.61 768.34 1044.52 1083.98 512.39 597.04 220.69 520.55 1004.78 869.74 861.97 885.39 841.63 952.33 47.11 864.76 899.88 968.97 698.97 129.31 956.98 603.13 537.14 1103.96 909.96 986.17 826.24 898.27 755.33 486.38 137.78 137.33 982.35 664.23 918.32 585.99 1053.81 469.99 376.00 643.52 983.12 930.94 918.18 1022.98 863.36 672.88 909.96 1079.54 1006.84 726.64 368.15 816.82 840.23 177.04 966.44 998.51 1031.07 788.33 1024.66 1002.76 955.49 612.63 615.99 724.98 481.18 916.47 867.66 504.15 356.95 987.97 289.13 866.53 618.53 865.67 903.37 904.12 888.86 926.08 838.14 305.63 820.15 1016.72 0.00 696.11 427.87 673.38 889.35 242.02
1014.72 417.37 845.08 450.49 353.64 500.92 514.04 452.31 660.50 811.75 937.83 448.63 623.25 447.27 417.24 382.59 452.76 683.52 363.82 435.61 419.96 173.97 699.00 441.40 677.10 961.63 522.64 428.89 433.69 367.20 344.94 464.00 289.89 765.32 580.01 429.02 727.69 364.99 1010.48 514.88 493.35 320.11 369.30 493.08 444.37 410.77 470.60 380.10 746.45 383.20 526.21 487.91 667.80 581.87 255.62 425.53 606.55 319.96 328.99 472.76 778.27 485.21 465.68 365.70 1025.99 752.23 389.22 236.16 428.14 452.96 481.21 468.55 472.39 441.50 385.43 440.41 312.34 364.51 414.08 429.82 431.10 410.02 631.85 517.04 429.16 696.11 0.00 367.79 736.84 431.66 475.32
646.93 645.97 783.34 475.30 432.95 647.10 656.11 84.52 840.20 443.96 896.39 576.91 752.41 526.58 519.54 475.78 538.41 474.98 443.80 506.05 541.10 429.29 557.18 562.54 783.66 962.19 706.24 537.50 593.40 460.39 507.50 327.46 348.32 545.97 400.85 560.75 865.43 510.67 953.01 639.49 483.82 435.33 654.39 602.89 525.55 506.19 618.32 479.15 816.98 749.01 659.86 613.16 726.23 214.08 478.51 415.96 417.66 687.75 696.78 647.52 911.36 613.49 590.12 598.81 866.56 384.44 297.11 211.50 541.29 443.39 150.84 392.45 593.53 282.07 488.49 190.66 527.67 475.50 538.27 472.21 560.23 465.02 632.41 392.28 796.95 427.87 367.79 0.00 904.74 524.85 296.16
1240.25 604.06 289.06 1054.32 992.00 1199.35 1152.39 872.26 76.34 781.57 404.10 1134.48 443.40 1054.08 1036.08 1016.27 1103.02 685.62 1010.97 1078.54 1099.82 876.61 544.07 1121.26 121.08 341.68 1225.46 1064.69 1136.56 1007.27 1047.89 1034.29 559.33 610.39 733.93 1131.97 57.26 1035.53 292.83 1178.92 432.72 521.45 637.09 1133.39 1087.30 1053.70 1175.89 1033.46 104.16 652.60 1229.16 1157.11 316.97 848.86 992.46 1063.37 753.47 715.84 988.89 1197.24 420.34 1171.06 1153.45 1102.54 492.19 1139.34 973.02 693.24 1070.75 1060.07 938.29 669.89 1112.01 639.07 1031.32 897.49 1015.29 1067.46 1054.39 1069.89 1076.77 964.45 418.58 1099.11 823.77 673.38 736.84 904.74 0.00 1054.75 629.24
886.00 683.61 1111.51 59.78 121.01 184.52 233.20 440.33 1036.67 915.84 1229.91 153.84 811.91 101.41 48.78 79.85 88.56 842.24 102.98 63.10 126.24 279.99 983.79 130.31 1035.31 1276.07 257.95 25.07 110.49 64.46 145.06 267.00 615.14 947.89 801.73 144.55 997.49 145.01 1263.84 172.63 789.18 640.37 663.91 94.52 41.59 38.26 153.76 158.21 1052.44 545.83 201.53 138.04 918.58 597.09 191.37 128.49 772.35 596.00 374.70 188.20 900.04 159.90 121.16 212.52 1180.75 719.70 282.56 497.78 41.44 135.63 505.13 722.89 129.22 739.27 72.73 364.66 141.10 141.76 39.36 72.48 67.05 90.30 988.22 245.25 571.17 889.35 431.66 524.85 1054.75 0.00 697.04
658.46 629.77 487.89 704.47 632.54 812.23 856.43 380.68 670.22 336.54 600.23 777.23 746.37 726.17 712.23 729.61 735.46 237.71 730.68 720.15 731.27 456.95 303.52 752.71 571.50 698.74 878.49 671.97 744.15 714.22 656.25 546.44 375.98 369.84 104.69 740.33 658.33 676.30 701.62 839.81 313.84 300.29 510.31 764.92 728.91 695.31 787.42 682.97 609.88 761.70 837.52 784.94 638.50 219.62 622.48 628.60 144.40 795.28 784.35 805.60 915.11 804.82 776.99 818.29 644.75 510.10 549.86 239.16 688.34 656.03 405.04 223.74 776.12 74.97 717.35 443.41 623.65 675.82 701.60 722.09 713.95 702.34 434.98 611.26 904.48 242.02 475.32 296.16 629.24 697.04 0.00
DEMAND_SECTION
1 0
2 79
3 89
4 56
5 55
6 54
7 80
8 70
9 68
10 75
11 62
12 93
13 88
14 3
15 9
16 2
17 7
18 2
19 9
20 7
21 7
22 4
23 1
24 8
25 10
26 7
27 5
28 8
29 2
30 1
31 3
32 3
33 6
34 5
35 7
36 2
37 5
38 10
39 9
40 1
41 5
42 2
43 8
44 10
45 1
46 10
47 5
48 10
49 4
50 10
51 10
52 6
53 7
54 5
55 4
56 2
57 3
58 6
59 5
60 7
61 5
62 7
63 4
64 9
65 9
66 6
67 1
68 5
69 5
70 2
71 1
72 3
73 1
74 3
75 1
76 8
77 4
78 9
79 4
80 8
81 5
82 7
83 7
84 3
85 10
86 6
87 3
88 2
89 1
90 8
91 9
DEPOT_SECTION
1
-1
EOF
